3289
ZnSe-Se-Zn1568Se1415Cl306-clean
Zn -21.232985 -15.573267 -4.243497
Zn -21.232985 -18.405709 -1.411054
Zn -21.232985 -15.573267 1.421388
Zn -21.232985 -9.908382 -9.908382
Zn -21.232985 -12.740824 -7.075939
Zn -21.232985 -9.908382 -4.243497
Zn -21.232985 -12.740824 -1.411054
Zn -21.232985 -9.908382 1.421388
Zn -21.232985 -12.740824 4.253831
Zn -21.232985 -9.908382 7.086273
Zn -21.232985 -4.243497 -15.573267
Zn -21.232985 -7.075939 -12.740824
Zn -21.232985 -4.243497 -9.908382
Zn -21.232985 -7.075939 -7.075939
Zn -21.232985 -4.243497 -4.243497
Zn -21.232985 -7.075939 -1.411054
Zn -21.232985 -4.243497 1.421388
Zn -21.232985 -7.075939 4.253831
Zn -21.232985 -4.243497 7.086273
Zn -21.232985 -7.075939 9.918716
Zn -21.232985 -4.243497 12.751159
Zn -21.232985 -1.411054 -18.405709
Zn -21.232985 1.421388 -15.573267
Zn -21.232985 -1.411054 -12.740824
Zn -21.232985 1.421388 -9.908382
Zn -21.232985 -1.411054 -7.075939
Zn -21.232985 1.421388 -4.243497
Zn -21.232985 -1.411054 -1.411054
Zn -21.232985 1.421388 1.421388
Zn -21.232985 -1.411054 4.253831
Zn -21.232985 1.421388 7.086273
Zn -21.232985 -1.411054 9.918716
Zn -21.232985 1.421388 12.751159
Zn -21.232985 -1.411054 15.583601
Zn -21.232985 1.421388 18.416044
Zn -21.232985 4.253831 -12.740824
Zn -21.232985 7.086273 -9.908382
Zn -21.232985 4.253831 -7.075939
Zn -21.232985 7.086273 -4.243497
Zn -21.232985 4.253831 -1.411054
Zn -21.232985 7.086273 1.421388
Zn -21.232985 4.253831 4.253831
Zn -21.232985 7.086273 7.086273
Zn -21.232985 4.253831 9.918716
Zn -21.232985 7.086273 12.751159
Zn -21.232985 4.253831 15.583601
Zn -21.232985 9.918716 -7.075939
Zn -21.232985 12.751159 -4.243497
Zn -21.232985 9.918716 -1.411054
Zn -21.232985 12.751159 1.421388
Zn -21.232985 9.918716 4.253831
Zn -21.232985 12.751159 7.086273
Zn -21.232985 9.918716 9.918716
Zn -21.232985 15.583601 -1.411054
Zn -21.232985 18.416044 1.421388
Zn -21.232985 15.583601 4.253831
Zn -15.568100 -21.238152 -4.243497
Zn -18.400542 -21.238152 -1.411054
Zn -15.568100 -21.238152 1.421388
Zn -15.568100 -15.573267 -9.908382
Zn -15.568100 -18.405709 -7.075939
Zn -18.400542 -15.573267 -7.075939
Zn -18.400542 -18.405709 -4.243497
Zn -15.568100 -15.573267 -4.243497
Zn -15.568100 -18.405709 -1.411054
Zn -18.400542 -15.573267 -1.411054
Zn -18.400542 -18.405709 1.421388
Zn -15.568100 -15.573267 1.421388
Zn -15.568100 -18.405709 4.253831
Zn -18.400542 -15.573267 4.253831
Zn -15.568100 -15.573267 7.086273
Zn -15.568100 -9.908382 -15.573267
Zn -15.568100 -12.740824 -12.740824
Zn -18.400542 -9.908382 -12.740824
Zn -18.400542 -12.740824 -9.908382
Zn -15.568100 -9.908382 -9.908382
Zn -15.568100 -12.740824 -7.075939
Zn -18.400542 -9.908382 -7.075939
Zn -18.400542 -12.740824 -4.243497
Zn -15.568100 -9.908382 -4.243497
Zn -15.568100 -12.740824 -1.411054
Zn -18.400542 -9.908382 -1.411054
Zn -18.400542 -12.740824 1.421388
Zn -15.568100 -9.908382 1.421388
Zn -15.568100 -12.740824 4.253831
Zn -18.400542 -9.908382 4.253831
Zn -18.400542 -12.740824 7.086273
Zn -15.568100 -9.908382 7.086273
Zn -15.568100 -12.740824 9.918716
Zn -18.400542 -9.908382 9.918716
Zn -15.568100 -9.908382 12.751159
Zn -15.568100 -4.243497 -21.238152
Zn -15.568100 -7.075939 -18.405709
Zn -18.400542 -4.243497 -18.405709
Zn -18.400542 -7.075939 -15.573267
Zn -15.568100 -4.243497 -15.573267
Zn -15.568100 -7.075939 -12.740824
Zn -18.400542 -4.243497 -12.740824
Zn -18.400542 -7.075939 -9.908382
Zn -15.568100 -4.243497 -9.908382
Zn -15.568100 -7.075939 -7.075939
Zn -18.400542 -4.243497 -7.075939
Zn -18.400542 -7.075939 -4.243497
Zn -15.568100 -4.243497 -4.243497
Zn -15.568100 -7.075939 -1.411054
Zn -18.400542 -4.243497 -1.411054
Zn -18.400542 -7.075939 1.421388
Zn -15.568100 -4.243497 1.421388
Zn -15.568100 -7.075939 4.253831
Zn -18.400542 -4.243497 4.253831
Zn -18.400542 -7.075939 7.086273
Zn -15.568100 -4.243497 7.086273
Zn -15.568100 -7.075939 9.918716
Zn -18.400542 -4.243497 9.918716
Zn -18.400542 -7.075939 12.751159
Zn -15.568100 -4.243497 12.751159
Zn -15.568100 -7.075939 15.583601
Zn -18.400542 -4.243497 15.583601
Zn -15.568100 -4.243497 18.416044
Zn -18.400542 -1.411054 -21.238152
Zn -15.568100 1.421388 -21.238152
Zn -15.568100 -1.411054 -18.405709
Zn -18.400542 1.421388 -18.405709
Zn -18.400542 -1.411054 -15.573267
Zn -15.568100 1.421388 -15.573267
Zn -15.568100 -1.411054 -12.740824
Zn -18.400542 1.421388 -12.740824
Zn -18.400542 -1.411054 -9.908382
Zn -15.568100 1.421388 -9.908382
Zn -15.568100 -1.411054 -7.075939
Zn -18.400542 1.421388 -7.075939
Zn -18.400542 -1.411054 -4.243497
Zn -15.568100 1.421388 -4.243497
Zn -15.568100 -1.411054 -1.411054
Zn -18.400542 1.421388 -1.411054
Zn -18.400542 -1.411054 1.421388
Zn -15.568100 1.421388 1.421388
Zn -15.568100 -1.411054 4.253831
Zn -18.400542 1.421388 4.253831
Zn -18.400542 -1.411054 7.086273
Zn -15.568100 1.421388 7.086273
Zn -15.568100 -1.411054 9.918716
Zn -18.400542 1.421388 9.918716
Zn -18.400542 -1.411054 12.751159
Zn -15.568100 1.421388 12.751159
Zn -15.568100 -1.411054 15.583601
Zn -18.400542 1.421388 15.583601
Zn -18.400542 -1.411054 18.416044
Zn -15.568100 1.421388 18.416044
Zn -15.568100 -1.411054 21.248486
Zn -18.400542 1.421388 21.248486
Zn -15.568100 4.253831 -18.405709
Zn -18.400542 4.253831 -15.573267
Zn -15.568100 7.086273 -15.573267
Zn -15.568100 4.253831 -12.740824
Zn -18.400542 7.086273 -12.740824
Zn -18.400542 4.253831 -9.908382
Zn -15.568100 7.086273 -9.908382
Zn -15.568100 4.253831 -7.075939
Zn -18.400542 7.086273 -7.075939
Zn -18.400542 4.253831 -4.243497
Zn -15.568100 7.086273 -4.243497
Zn -15.568100 4.253831 -1.411054
Zn -18.400542 7.086273 -1.411054
Zn -18.400542 4.253831 1.421388
Zn -15.568100 7.086273 1.421388
Zn -15.568100 4.253831 4.253831
Zn -18.400542 7.086273 4.253831
Zn -18.400542 4.253831 7.086273
Zn -15.568100 7.086273 7.086273
Zn -15.568100 4.253831 9.918716
Zn -18.400542 7.086273 9.918716
Zn -18.400542 4.253831 12.751159
Zn -15.568100 7.086273 12.751159
Zn -15.568100 4.253831 15.583601
Zn -18.400542 7.086273 15.583601
Zn -18.400542 4.253831 18.416044
Zn -15.568100 7.086273 18.416044
Zn -15.568100 4.253831 21.248486
Zn -15.568100 9.918716 -12.740824
Zn -18.400542 9.918716 -9.908382
Zn -15.568100 12.751159 -9.908382
Zn -15.568100 9.918716 -7.075939
Zn -18.400542 12.751159 -7.075939
Zn -18.400542 9.918716 -4.243497
Zn -15.568100 12.751159 -4.243497
Zn -15.568100 9.918716 -1.411054
Zn -18.400542 12.751159 -1.411054
Zn -18.400542 9.918716 1.421388
Zn -15.568100 12.751159 1.421388
Zn -15.568100 9.918716 4.253831
Zn -18.400542 12.751159 4.253831
Zn -18.400542 9.918716 7.086273
Zn -15.568100 12.751159 7.086273
Zn -15.568100 9.918716 9.918716
Zn -18.400542 12.751159 9.918716
Zn -18.400542 9.918716 12.751159
Zn -15.568100 12.751159 12.751159
Zn -15.568100 9.918716 15.583601
Zn -15.568100 15.583601 -7.075939
Zn -18.400542 15.583601 -4.243497
Zn -15.568100 18.416044 -4.243497
Zn -15.568100 15.583601 -1.411054
Zn -18.400542 18.416044 -1.411054
Zn -18.400542 15.583601 1.421388
Zn -15.568100 18.416044 1.421388
Zn -15.568100 15.583601 4.253831
Zn -18.400542 18.416044 4.253831
Zn -18.400542 15.583601 7.086273
Zn -15.568100 18.416044 7.086273
Zn -15.568100 15.583601 9.918716
Zn -15.568100 21.248486 -1.411054
Zn -18.400542 21.248486 1.421388
Zn -15.568100 21.248486 4.253831
Zn -9.903215 -21.238152 -9.908382
Zn -12.735657 -21.238152 -7.075939
Zn -9.903215 -21.238152 -4.243497
Zn -12.735657 -21.238152 -1.411054
Zn -9.903215 -21.238152 1.421388
Zn -12.735657 -21.238152 4.253831
Zn -9.903215 -21.238152 7.086273
Zn -9.903215 -15.573267 -15.573267
Zn -9.903215 -18.405709 -12.740824
Zn -12.735657 -15.573267 -12.740824
Zn -12.735657 -18.405709 -9.908382
Zn -9.903215 -15.573267 -9.908382
Zn -9.903215 -18.405709 -7.075939
Zn -12.735657 -15.573267 -7.075939
Zn -12.735657 -18.405709 -4.243497
Zn -9.903215 -15.573267 -4.243497
Zn -9.903215 -18.405709 -1.411054
Zn -12.735657 -15.573267 -1.411054
Zn -12.735657 -18.405709 1.421388
Zn -9.903215 -15.573267 1.421388
Zn -9.903215 -18.405709 4.253831
Zn -12.735657 -15.573267 4.253831
Zn -12.735657 -18.405709 7.086273
Zn -9.903215 -15.573267 7.086273
Zn -9.903215 -18.405709 9.918716
Zn -12.735657 -15.573267 9.918716
Zn -9.903215 -15.573267 12.751159
Zn -9.903215 -9.908382 -21.238152
Zn -9.903215 -12.740824 -18.405709
Zn -12.735657 -9.908382 -18.405709
Zn -12.735657 -12.740824 -15.573267
Zn -9.903215 -9.908382 -15.573267
Zn -9.903215 -12.740824 -12.740824
Zn -12.735657 -9.908382 -12.740824
Zn -12.735657 -12.740824 -9.908382
Zn -9.903215 -9.908382 -9.908382
Zn -9.903215 -12.740824 -7.075939
Zn -12.735657 -9.908382 -7.075939
Zn -12.735657 -12.740824 -4.243497
Zn -9.903215 -9.908382 -4.243497
Zn -9.903215 -12.740824 -1.411054
Zn -12.735657 -9.908382 -1.411054
Zn -12.735657 -12.740824 1.421388
Zn -9.903215 -9.908382 1.421388
Zn -9.903215 -12.740824 4.253831
Zn -12.735657 -9.908382 4.253831
Zn -12.735657 -12.740824 7.086273
Zn -9.903215 -9.908382 7.086273
Zn -9.903215 -12.740824 9.918716
Zn -12.735657 -9.908382 9.918716
Zn -12.735657 -12.740824 12.751159
Zn -9.903215 -9.908382 12.751159
Zn -9.903215 -12.740824 15.583601
Zn -12.735657 -9.908382 15.583601
Zn -9.903215 -9.908382 18.416044
Zn -12.735657 -7.075939 -21.238152
Zn -9.903215 -4.243497 -21.238152
Zn -9.903215 -7.075939 -18.405709
Zn -12.735657 -4.243497 -18.405709
Zn -12.735657 -7.075939 -15.573267
Zn -9.903215 -4.243497 -15.573267
Zn -9.903215 -7.075939 -12.740824
Zn -12.735657 -4.243497 -12.740824
Zn -12.735657 -7.075939 -9.908382
Zn -9.903215 -4.243497 -9.908382
Zn -9.903215 -7.075939 -7.075939
Zn -12.735657 -4.243497 -7.075939
Zn -12.735657 -7.075939 -4.243497
Zn -9.903215 -4.243497 -4.243497
Zn -9.903215 -7.075939 -1.411054
Zn -12.735657 -4.243497 -1.411054
Zn -12.735657 -7.075939 1.421388
Zn -9.903215 -4.243497 1.421388
Zn -9.903215 -7.075939 4.253831
Zn -12.735657 -4.243497 4.253831
Zn -12.735657 -7.075939 7.086273
Zn -9.903215 -4.243497 7.086273
Zn -9.903215 -7.075939 9.918716
Zn -12.735657 -4.243497 9.918716
Zn -12.735657 -7.075939 12.751159
Zn -9.903215 -4.243497 12.751159
Zn -9.903215 -7.075939 15.583601
Zn -12.735657 -4.243497 15.583601
Zn -12.735657 -7.075939 18.416044
Zn -9.903215 -4.243497 18.416044
Zn -9.903215 -7.075939 21.248486
Zn -12.735657 -4.243497 21.248486
Zn -12.735657 -1.411054 -21.238152
Zn -9.903215 1.421388 -21.238152
Zn -9.903215 -1.411054 -18.405709
Zn -12.735657 1.421388 -18.405709
Zn -12.735657 -1.411054 -15.573267
Zn -9.903215 1.421388 -15.573267
Zn -9.903215 -1.411054 -12.740824
Zn -12.735657 1.421388 -12.740824
Zn -12.735657 -1.411054 -9.908382
Zn -9.903215 1.421388 -9.908382
Zn -9.903215 -1.411054 -7.075939
Zn -12.735657 1.421388 -7.075939
Zn -12.735657 -1.411054 -4.243497
Zn -9.903215 1.421388 -4.243497
Zn -9.903215 -1.411054 -1.411054
Zn -12.735657 1.421388 -1.411054
Zn -12.735657 -1.411054 1.421388
Zn -9.903215 1.421388 1.421388
Zn -9.903215 -1.411054 4.253831
Zn -12.735657 1.421388 4.253831
Zn -12.735657 -1.411054 7.086273
Zn -9.903215 1.421388 7.086273
Zn -9.903215 -1.411054 9.918716
Zn -12.735657 1.421388 9.918716
Zn -12.735657 -1.411054 12.751159
Zn -9.903215 1.421388 12.751159
Zn -9.903215 -1.411054 15.583601
Zn -12.735657 1.421388 15.583601
Zn -12.735657 -1.411054 18.416044
Zn -9.903215 1.421388 18.416044
Zn -9.903215 -1.411054 21.248486
Zn -12.735657 1.421388 21.248486
Zn -12.735657 4.253831 -21.238152
Zn -9.903215 7.086273 -21.238152
Zn -9.903215 4.253831 -18.405709
Zn -12.735657 7.086273 -18.405709
Zn -12.735657 4.253831 -15.573267
Zn -9.903215 7.086273 -15.573267
Zn -9.903215 4.253831 -12.740824
Zn -12.735657 7.086273 -12.740824
Zn -12.735657 4.253831 -9.908382
Zn -9.903215 7.086273 -9.908382
Zn -9.903215 4.253831 -7.075939
Zn -12.735657 7.086273 -7.075939
Zn -12.735657 4.253831 -4.243497
Zn -9.903215 7.086273 -4.243497
Zn -9.903215 4.253831 -1.411054
Zn -12.735657 7.086273 -1.411054
Zn -12.735657 4.253831 1.421388
Zn -9.903215 7.086273 1.421388
Zn -9.903215 4.253831 4.253831
Zn -12.735657 7.086273 4.253831
Zn -12.735657 4.253831 7.086273
Zn -9.903215 7.086273 7.086273
Zn -9.903215 4.253831 9.918716
Zn -12.735657 7.086273 9.918716
Zn -12.735657 4.253831 12.751159
Zn -9.903215 7.086273 12.751159
Zn -9.903215 4.253831 15.583601
Zn -12.735657 7.086273 15.583601
Zn -12.735657 4.253831 18.416044
Zn -9.903215 7.086273 18.416044
Zn -9.903215 4.253831 21.248486
Zn -12.735657 7.086273 21.248486
Zn -9.903215 9.918716 -18.405709
Zn -12.735657 9.918716 -15.573267
Zn -9.903215 12.751159 -15.573267
Zn -9.903215 9.918716 -12.740824
Zn -12.735657 12.751159 -12.740824
Zn -12.735657 9.918716 -9.908382
Zn -9.903215 12.751159 -9.908382
Zn -9.903215 9.918716 -7.075939
Zn -12.735657 12.751159 -7.075939
Zn -12.735657 9.918716 -4.243497
Zn -9.903215 12.751159 -4.243497
Zn -9.903215 9.918716 -1.411054
Zn -12.735657 12.751159 -1.411054
Zn -12.735657 9.918716 1.421388
Zn -9.903215 12.751159 1.421388
Zn -9.903215 9.918716 4.253831
Zn -12.735657 12.751159 4.253831
Zn -12.735657 9.918716 7.086273
Zn -9.903215 12.751159 7.086273
Zn -9.903215 9.918716 9.918716
Zn -12.735657 12.751159 9.918716
Zn -12.735657 9.918716 12.751159
Zn -9.903215 12.751159 12.751159
Zn -9.903215 9.918716 15.583601
Zn -12.735657 12.751159 15.583601
Zn -12.735657 9.918716 18.416044
Zn -9.903215 12.751159 18.416044
Zn -9.903215 9.918716 21.248486
Zn -9.903215 15.583601 -12.740824
Zn -12.735657 15.583601 -9.908382
Zn -9.903215 18.416044 -9.908382
Zn -9.903215 15.583601 -7.075939
Zn -12.735657 18.416044 -7.075939
Zn -12.735657 15.583601 -4.243497
Zn -9.903215 18.416044 -4.243497
Zn -9.903215 15.583601 -1.411054
Zn -12.735657 18.416044 -1.411054
Zn -12.735657 15.583601 1.421388
Zn -9.903215 18.416044 1.421388
Zn -9.903215 15.583601 4.253831
Zn -12.735657 18.416044 4.253831
Zn -12.735657 15.583601 7.086273
Zn -9.903215 18.416044 7.086273
Zn -9.903215 15.583601 9.918716
Zn -12.735657 18.416044 9.918716
Zn -12.735657 15.583601 12.751159
Zn -9.903215 18.416044 12.751159
Zn -9.903215 15.583601 15.583601
Zn -9.903215 21.248486 -7.075939
Zn -12.735657 21.248486 -4.243497
Zn -9.903215 21.248486 -1.411054
Zn -12.735657 21.248486 1.421388
Zn -9.903215 21.248486 4.253831
Zn -12.735657 21.248486 7.086273
Zn -9.903215 21.248486 9.918716
Zn -4.238330 -21.238152 -15.573267
Zn -7.070772 -21.238152 -12.740824
Zn -4.238330 -21.238152 -9.908382
Zn -7.070772 -21.238152 -7.075939
Zn -4.238330 -21.238152 -4.243497
Zn -7.070772 -21.238152 -1.411054
Zn -4.238330 -21.238152 1.421388
Zn -7.070772 -21.238152 4.253831
Zn -4.238330 -21.238152 7.086273
Zn -7.070772 -21.238152 9.918716
Zn -4.238330 -21.238152 12.751159
Zn -4.238330 -15.573267 -21.238152
Zn -4.238330 -18.405709 -18.405709
Zn -7.070772 -15.573267 -18.405709
Zn -7.070772 -18.405709 -15.573267
Zn -4.238330 -15.573267 -15.573267
Zn -4.238330 -18.405709 -12.740824
Zn -7.070772 -15.573267 -12.740824
Zn -7.070772 -18.405709 -9.908382
Zn -4.238330 -15.573267 -9.908382
Zn -4.238330 -18.405709 -7.075939
Zn -7.070772 -15.573267 -7.075939
Zn -7.070772 -18.405709 -4.243497
Zn -4.238330 -15.573267 -4.243497
Zn -4.238330 -18.405709 -1.411054
Zn -7.070772 -15.573267 -1.411054
Zn -7.070772 -18.405709 1.421388
Zn -4.238330 -15.573267 1.421388
Zn -4.238330 -18.405709 4.253831
Zn -7.070772 -15.573267 4.253831
Zn -7.070772 -18.405709 7.086273
Zn -4.238330 -15.573267 7.086273
Zn -4.238330 -18.405709 9.918716
Zn -7.070772 -15.573267 9.918716
Zn -7.070772 -18.405709 12.751159
Zn -4.238330 -15.573267 12.751159
Zn -4.238330 -18.405709 15.583601
Zn -7.070772 -15.573267 15.583601
Zn -4.238330 -15.573267 18.416044
Zn -7.070772 -12.740824 -21.238152
Zn -4.238330 -9.908382 -21.238152
Zn -4.238330 -12.740824 -18.405709
Zn -7.070772 -9.908382 -18.405709
Zn -7.070772 -12.740824 -15.573267
Zn -4.238330 -9.908382 -15.573267
Zn -4.238330 -12.740824 -12.740824
Zn -7.070772 -9.908382 -12.740824
Zn -7.070772 -12.740824 -9.908382
Zn -4.238330 -9.908382 -9.908382
Zn -4.238330 -12.740824 -7.075939
Zn -7.070772 -9.908382 -7.075939
Zn -7.070772 -12.740824 -4.243497
Zn -4.238330 -9.908382 -4.243497
Zn -4.238330 -12.740824 -1.411054
Zn -7.070772 -9.908382 -1.411054
Zn -7.070772 -12.740824 1.421388
Zn -4.238330 -9.908382 1.421388
Zn -4.238330 -12.740824 4.253831
Zn -7.070772 -9.908382 4.253831
Zn -7.070772 -12.740824 7.086273
Zn -4.238330 -9.908382 7.086273
Zn -4.238330 -12.740824 9.918716
Zn -7.070772 -9.908382 9.918716
Zn -7.070772 -12.740824 12.751159
Zn -4.238330 -9.908382 12.751159
Zn -4.238330 -12.740824 15.583601
Zn -7.070772 -9.908382 15.583601
Zn -7.070772 -12.740824 18.416044
Zn -4.238330 -9.908382 18.416044
Zn -4.238330 -12.740824 21.248486
Zn -7.070772 -9.908382 21.248486
Zn -7.070772 -7.075939 -21.238152
Zn -4.238330 -4.243497 -21.238152
Zn -4.238330 -7.075939 -18.405709
Zn -7.070772 -4.243497 -18.405709
Zn -7.070772 -7.075939 -15.573267
Zn -4.238330 -4.243497 -15.573267
Zn -4.238330 -7.075939 -12.740824
Zn -7.070772 -4.243497 -12.740824
Zn -7.070772 -7.075939 -9.908382
Zn -4.238330 -4.243497 -9.908382
Zn -4.238330 -7.075939 -7.075939
Zn -7.070772 -4.243497 -7.075939
Zn -7.070772 -7.075939 -4.243497
Zn -4.238330 -4.243497 -4.243497
Zn -4.238330 -7.075939 -1.411054
Zn -7.070772 -4.243497 -1.411054
Zn -7.070772 -7.075939 1.421388
Zn -4.238330 -4.243497 1.421388
Zn -4.238330 -7.075939 4.253831
Zn -7.070772 -4.243497 4.253831
Zn -7.070772 -7.075939 7.086273
Zn -4.238330 -4.243497 7.086273
Zn -4.238330 -7.075939 9.918716
Zn -7.070772 -4.243497 9.918716
Zn -7.070772 -7.075939 12.751159
Zn -4.238330 -4.243497 12.751159
Zn -4.238330 -7.075939 15.583601
Zn -7.070772 -4.243497 15.583601
Zn -7.070772 -7.075939 18.416044
Zn -4.238330 -4.243497 18.416044
Zn -4.238330 -7.075939 21.248486
Zn -7.070772 -4.243497 21.248486
Zn -7.070772 -1.411054 -21.238152
Zn -4.238330 1.421388 -21.238152
Zn -4.238330 -1.411054 -18.405709
Zn -7.070772 1.421388 -18.405709
Zn -7.070772 -1.411054 -15.573267
Zn -4.238330 1.421388 -15.573267
Zn -4.238330 -1.411054 -12.740824
Zn -7.070772 1.421388 -12.740824
Zn -7.070772 -1.411054 -9.908382
Zn -4.238330 1.421388 -9.908382
Zn -4.238330 -1.411054 -7.075939
Zn -7.070772 1.421388 -7.075939
Zn -7.070772 -1.411054 -4.243497
Zn -4.238330 1.421388 -4.243497
Zn -4.238330 -1.411054 -1.411054
Zn -7.070772 1.421388 -1.411054
Zn -7.070772 -1.411054 1.421388
Zn -4.238330 1.421388 1.421388
Zn -4.238330 -1.411054 4.253831
Zn -7.070772 1.421388 4.253831
Zn -7.070772 -1.411054 7.086273
Zn -4.238330 1.421388 7.086273
Zn -4.238330 -1.411054 9.918716
Zn -7.070772 1.421388 9.918716
Zn -7.070772 -1.411054 12.751159
Zn -4.238330 1.421388 12.751159
Zn -4.238330 -1.411054 15.583601
Zn -7.070772 1.421388 15.583601
Zn -7.070772 -1.411054 18.416044
Zn -4.238330 1.421388 18.416044
Zn -4.238330 -1.411054 21.248486
Zn -7.070772 1.421388 21.248486
Zn -7.070772 4.253831 -21.238152
Zn -4.238330 7.086273 -21.238152
Zn -4.238330 4.253831 -18.405709
Zn -7.070772 7.086273 -18.405709
Zn -7.070772 4.253831 -15.573267
Zn -4.238330 7.086273 -15.573267
Zn -4.238330 4.253831 -12.740824
Zn -7.070772 7.086273 -12.740824
Zn -7.070772 4.253831 -9.908382
Zn -4.238330 7.086273 -9.908382
Zn -4.238330 4.253831 -7.075939
Zn -7.070772 7.086273 -7.075939
Zn -7.070772 4.253831 -4.243497
Zn -4.238330 7.086273 -4.243497
Zn -4.238330 4.253831 -1.411054
Zn -7.070772 7.086273 -1.411054
Zn -7.070772 4.253831 1.421388
Zn -4.238330 7.086273 1.421388
Zn -4.238330 4.253831 4.253831
Zn -7.070772 7.086273 4.253831
Zn -7.070772 4.253831 7.086273
Zn -4.238330 7.086273 7.086273
Zn -4.238330 4.253831 9.918716
Zn -7.070772 7.086273 9.918716
Zn -7.070772 4.253831 12.751159
Zn -4.238330 7.086273 12.751159
Zn -4.238330 4.253831 15.583601
Zn -7.070772 7.086273 15.583601
Zn -7.070772 4.253831 18.416044
Zn -4.238330 7.086273 18.416044
Zn -4.238330 4.253831 21.248486
Zn -7.070772 7.086273 21.248486
Zn -7.070772 9.918716 -21.238152
Zn -4.238330 12.751159 -21.238152
Zn -4.238330 9.918716 -18.405709
Zn -7.070772 12.751159 -18.405709
Zn -7.070772 9.918716 -15.573267
Zn -4.238330 12.751159 -15.573267
Zn -4.238330 9.918716 -12.740824
Zn -7.070772 12.751159 -12.740824
Zn -7.070772 9.918716 -9.908382
Zn -4.238330 12.751159 -9.908382
Zn -4.238330 9.918716 -7.075939
Zn -7.070772 12.751159 -7.075939
Zn -7.070772 9.918716 -4.243497
Zn -4.238330 12.751159 -4.243497
Zn -4.238330 9.918716 -1.411054
Zn -7.070772 12.751159 -1.411054
Zn -7.070772 9.918716 1.421388
Zn -4.238330 12.751159 1.421388
Zn -4.238330 9.918716 4.253831
Zn -7.070772 12.751159 4.253831
Zn -7.070772 9.918716 7.086273
Zn -4.238330 12.751159 7.086273
Zn -4.238330 9.918716 9.918716
Zn -7.070772 12.751159 9.918716
Zn -7.070772 9.918716 12.751159
Zn -4.238330 12.751159 12.751159
Zn -4.238330 9.918716 15.583601
Zn -7.070772 12.751159 15.583601
Zn -7.070772 9.918716 18.416044
Zn -4.238330 12.751159 18.416044
Zn -4.238330 9.918716 21.248486
Zn -7.070772 12.751159 21.248486
Zn -4.238330 15.583601 -18.405709
Zn -7.070772 15.583601 -15.573267
Zn -4.238330 18.416044 -15.573267
Zn -4.238330 15.583601 -12.740824
Zn -7.070772 18.416044 -12.740824
Zn -7.070772 15.583601 -9.908382
Zn -4.238330 18.416044 -9.908382
Zn -4.238330 15.583601 -7.075939
Zn -7.070772 18.416044 -7.075939
Zn -7.070772 15.583601 -4.243497
Zn -4.238330 18.416044 -4.243497
Zn -4.238330 15.583601 -1.411054
Zn -7.070772 18.416044 -1.411054
Zn -7.070772 15.583601 1.421388
Zn -4.238330 18.416044 1.421388
Zn -4.238330 15.583601 4.253831
Zn -7.070772 18.416044 4.253831
Zn -7.070772 15.583601 7.086273
Zn -4.238330 18.416044 7.086273
Zn -4.238330 15.583601 9.918716
Zn -7.070772 18.416044 9.918716
Zn -7.070772 15.583601 12.751159
Zn -4.238330 18.416044 12.751159
Zn -4.238330 15.583601 15.583601
Zn -7.070772 18.416044 15.583601
Zn -7.070772 15.583601 18.416044
Zn -4.238330 18.416044 18.416044
Zn -4.238330 15.583601 21.248486
Zn -4.238330 21.248486 -12.740824
Zn -7.070772 21.248486 -9.908382
Zn -4.238330 21.248486 -7.075939
Zn -7.070772 21.248486 -4.243497
Zn -4.238330 21.248486 -1.411054
Zn -7.070772 21.248486 1.421388
Zn -4.238330 21.248486 4.253831
Zn -7.070772 21.248486 7.086273
Zn -4.238330 21.248486 9.918716
Zn -7.070772 21.248486 12.751159
Zn -4.238330 21.248486 15.583601
Zn -1.405887 -21.238152 -18.405709
Zn 1.426556 -21.238152 -15.573267
Zn -1.405887 -21.238152 -12.740824
Zn 1.426556 -21.238152 -9.908382
Zn -1.405887 -21.238152 -7.075939
Zn 1.426556 -21.238152 -4.243497
Zn -1.405887 -21.238152 -1.411054
Zn 1.426556 -21.238152 1.421388
Zn -1.405887 -21.238152 4.253831
Zn 1.426556 -21.238152 7.086273
Zn -1.405887 -21.238152 9.918716
Zn 1.426556 -21.238152 12.751159
Zn -1.405887 -21.238152 15.583601
Zn 1.426556 -21.238152 18.416044
Zn -1.405887 -18.405709 -21.238152
Zn 1.426556 -15.573267 -21.238152
Zn 1.426556 -18.405709 -18.405709
Zn -1.405887 -15.573267 -18.405709
Zn -1.405887 -18.405709 -15.573267
Zn 1.426556 -15.573267 -15.573267
Zn 1.426556 -18.405709 -12.740824
Zn -1.405887 -15.573267 -12.740824
Zn -1.405887 -18.405709 -9.908382
Zn 1.426556 -15.573267 -9.908382
Zn 1.426556 -18.405709 -7.075939
Zn -1.405887 -15.573267 -7.075939
Zn -1.405887 -18.405709 -4.243497
Zn 1.426556 -15.573267 -4.243497
Zn 1.426556 -18.405709 -1.411054
Zn -1.405887 -15.573267 -1.411054
Zn -1.405887 -18.405709 1.421388
Zn 1.426556 -15.573267 1.421388
Zn 1.426556 -18.405709 4.253831
Zn -1.405887 -15.573267 4.253831
Zn -1.405887 -18.405709 7.086273
Zn 1.426556 -15.573267 7.086273
Zn 1.426556 -18.405709 9.918716
Zn -1.405887 -15.573267 9.918716
Zn -1.405887 -18.405709 12.751159
Zn 1.426556 -15.573267 12.751159
Zn 1.426556 -18.405709 15.583601
Zn -1.405887 -15.573267 15.583601
Zn -1.405887 -18.405709 18.416044
Zn 1.426556 -15.573267 18.416044
Zn 1.426556 -18.405709 21.248486
Zn -1.405887 -15.573267 21.248486
Zn -1.405887 -12.740824 -21.238152
Zn 1.426556 -9.908382 -21.238152
Zn 1.426556 -12.740824 -18.405709
Zn -1.405887 -9.908382 -18.405709
Zn -1.405887 -12.740824 -15.573267
Zn 1.426556 -9.908382 -15.573267
Zn 1.426556 -12.740824 -12.740824
Zn -1.405887 -9.908382 -12.740824
Zn -1.405887 -12.740824 -9.908382
Zn 1.426556 -9.908382 -9.908382
Zn 1.426556 -12.740824 -7.075939
Zn -1.405887 -9.908382 -7.075939
Zn -1.405887 -12.740824 -4.243497
Zn 1.426556 -9.908382 -4.243497
Zn 1.426556 -12.740824 -1.411054
Zn -1.405887 -9.908382 -1.411054
Zn -1.405887 -12.740824 1.421388
Zn 1.426556 -9.908382 1.421388
Zn 1.426556 -12.740824 4.253831
Zn -1.405887 -9.908382 4.253831
Zn -1.405887 -12.740824 7.086273
Zn 1.426556 -9.908382 7.086273
Zn 1.426556 -12.740824 9.918716
Zn -1.405887 -9.908382 9.918716
Zn -1.405887 -12.740824 12.751159
Zn 1.426556 -9.908382 12.751159
Zn 1.426556 -12.740824 15.583601
Zn -1.405887 -9.908382 15.583601
Zn -1.405887 -12.740824 18.416044
Zn 1.426556 -9.908382 18.416044
Zn 1.426556 -12.740824 21.248486
Zn -1.405887 -9.908382 21.248486
Zn -1.405887 -7.075939 -21.238152
Zn 1.426556 -4.243497 -21.238152
Zn 1.426556 -7.075939 -18.405709
Zn -1.405887 -4.243497 -18.405709
Zn -1.405887 -7.075939 -15.573267
Zn 1.426556 -4.243497 -15.573267
Zn 1.426556 -7.075939 -12.740824
Zn -1.405887 -4.243497 -12.740824
Zn -1.405887 -7.075939 -9.908382
Zn 1.426556 -4.243497 -9.908382
Zn 1.426556 -7.075939 -7.075939
Zn -1.405887 -4.243497 -7.075939
Zn -1.405887 -7.075939 -4.243497
Zn 1.426556 -4.243497 -4.243497
Zn 1.426556 -7.075939 -1.411054
Zn -1.405887 -4.243497 -1.411054
Zn -1.405887 -7.075939 1.421388
Zn 1.426556 -4.243497 1.421388
Zn 1.426556 -7.075939 4.253831
Zn -1.405887 -4.243497 4.253831
Zn -1.405887 -7.075939 7.086273
Zn 1.426556 -4.243497 7.086273
Zn 1.426556 -7.075939 9.918716
Zn -1.405887 -4.243497 9.918716
Zn -1.405887 -7.075939 12.751159
Zn 1.426556 -4.243497 12.751159
Zn 1.426556 -7.075939 15.583601
Zn -1.405887 -4.243497 15.583601
Zn -1.405887 -7.075939 18.416044
Zn 1.426556 -4.243497 18.416044
Zn 1.426556 -7.075939 21.248486
Zn -1.405887 -4.243497 21.248486
Zn -1.405887 -1.411054 -21.238152
Zn 1.426556 1.421388 -21.238152
Zn 1.426556 -1.411054 -18.405709
Zn -1.405887 1.421388 -18.405709
Zn -1.405887 -1.411054 -15.573267
Zn 1.426556 1.421388 -15.573267
Zn 1.426556 -1.411054 -12.740824
Zn -1.405887 1.421388 -12.740824
Zn -1.405887 -1.411054 -9.908382
Zn 1.426556 1.421388 -9.908382
Zn 1.426556 -1.411054 -7.075939
Zn -1.405887 1.421388 -7.075939
Zn -1.405887 -1.411054 -4.243497
Zn 1.426556 1.421388 -4.243497
Zn 1.426556 -1.411054 -1.411054
Zn -1.405887 1.421388 -1.411054
Zn -1.405887 -1.411054 1.421388
Zn 1.426556 1.421388 1.421388
Zn 1.426556 -1.411054 4.253831
Zn -1.405887 1.421388 4.253831
Zn -1.405887 -1.411054 7.086273
Zn 1.426556 1.421388 7.086273
Zn 1.426556 -1.411054 9.918716
Zn -1.405887 1.421388 9.918716
Zn -1.405887 -1.411054 12.751159
Zn 1.426556 1.421388 12.751159
Zn 1.426556 -1.411054 15.583601
Zn -1.405887 1.421388 15.583601
Zn -1.405887 -1.411054 18.416044
Zn 1.426556 1.421388 18.416044
Zn 1.426556 -1.411054 21.248486
Zn -1.405887 1.421388 21.248486
Zn -1.405887 4.253831 -21.238152
Zn 1.426556 7.086273 -21.238152
Zn 1.426556 4.253831 -18.405709
Zn -1.405887 7.086273 -18.405709
Zn -1.405887 4.253831 -15.573267
Zn 1.426556 7.086273 -15.573267
Zn 1.426556 4.253831 -12.740824
Zn -1.405887 7.086273 -12.740824
Zn -1.405887 4.253831 -9.908382
Zn 1.426556 7.086273 -9.908382
Zn 1.426556 4.253831 -7.075939
Zn -1.405887 7.086273 -7.075939
Zn -1.405887 4.253831 -4.243497
Zn 1.426556 7.086273 -4.243497
Zn 1.426556 4.253831 -1.411054
Zn -1.405887 7.086273 -1.411054
Zn -1.405887 4.253831 1.421388
Zn 1.426556 7.086273 1.421388
Zn 1.426556 4.253831 4.253831
Zn -1.405887 7.086273 4.253831
Zn -1.405887 4.253831 7.086273
Zn 1.426556 7.086273 7.086273
Zn 1.426556 4.253831 9.918716
Zn -1.405887 7.086273 9.918716
Zn -1.405887 4.253831 12.751159
Zn 1.426556 7.086273 12.751159
Zn 1.426556 4.253831 15.583601
Zn -1.405887 7.086273 15.583601
Zn -1.405887 4.253831 18.416044
Zn 1.426556 7.086273 18.416044
Zn 1.426556 4.253831 21.248486
Zn -1.405887 7.086273 21.248486
Zn -1.405887 9.918716 -21.238152
Zn 1.426556 12.751159 -21.238152
Zn 1.426556 9.918716 -18.405709
Zn -1.405887 12.751159 -18.405709
Zn -1.405887 9.918716 -15.573267
Zn 1.426556 12.751159 -15.573267
Zn 1.426556 9.918716 -12.740824
Zn -1.405887 12.751159 -12.740824
Zn -1.405887 9.918716 -9.908382
Zn 1.426556 12.751159 -9.908382
Zn 1.426556 9.918716 -7.075939
Zn -1.405887 12.751159 -7.075939
Zn -1.405887 9.918716 -4.243497
Zn 1.426556 12.751159 -4.243497
Zn 1.426556 9.918716 -1.411054
Zn -1.405887 12.751159 -1.411054
Zn -1.405887 9.918716 1.421388
Zn 1.426556 12.751159 1.421388
Zn 1.426556 9.918716 4.253831
Zn -1.405887 12.751159 4.253831
Zn -1.405887 9.918716 7.086273
Zn 1.426556 12.751159 7.086273
Zn 1.426556 9.918716 9.918716
Zn -1.405887 12.751159 9.918716
Zn -1.405887 9.918716 12.751159
Zn 1.426556 12.751159 12.751159
Zn 1.426556 9.918716 15.583601
Zn -1.405887 12.751159 15.583601
Zn -1.405887 9.918716 18.416044
Zn 1.426556 12.751159 18.416044
Zn 1.426556 9.918716 21.248486
Zn -1.405887 12.751159 21.248486
Zn -1.405887 15.583601 -21.238152
Zn 1.426556 18.416044 -21.238152
Zn 1.426556 15.583601 -18.405709
Zn -1.405887 18.416044 -18.405709
Zn -1.405887 15.583601 -15.573267
Zn 1.426556 18.416044 -15.573267
Zn 1.426556 15.583601 -12.740824
Zn -1.405887 18.416044 -12.740824
Zn -1.405887 15.583601 -9.908382
Zn 1.426556 18.416044 -9.908382
Zn 1.426556 15.583601 -7.075939
Zn -1.405887 18.416044 -7.075939
Zn -1.405887 15.583601 -4.243497
Zn 1.426556 18.416044 -4.243497
Zn 1.426556 15.583601 -1.411054
Zn -1.405887 18.416044 -1.411054
Zn -1.405887 15.583601 1.421388
Zn 1.426556 18.416044 1.421388
Zn 1.426556 15.583601 4.253831
Zn -1.405887 18.416044 4.253831
Zn -1.405887 15.583601 7.086273
Zn 1.426556 18.416044 7.086273
Zn 1.426556 15.583601 9.918716
Zn -1.405887 18.416044 9.918716
Zn -1.405887 15.583601 12.751159
Zn 1.426556 18.416044 12.751159
Zn 1.426556 15.583601 15.583601
Zn -1.405887 18.416044 15.583601
Zn -1.405887 15.583601 18.416044
Zn 1.426556 18.416044 18.416044
Zn 1.426556 15.583601 21.248486
Zn -1.405887 18.416044 21.248486
Zn 1.426556 21.248486 -18.405709
Zn -1.405887 21.248486 -15.573267
Zn 1.426556 21.248486 -12.740824
Zn -1.405887 21.248486 -9.908382
Zn 1.426556 21.248486 -7.075939
Zn -1.405887 21.248486 -4.243497
Zn 1.426556 21.248486 -1.411054
Zn -1.405887 21.248486 1.421388
Zn 1.426556 21.248486 4.253831
Zn -1.405887 21.248486 7.086273
Zn 1.426556 21.248486 9.918716
Zn -1.405887 21.248486 12.751159
Zn 1.426556 21.248486 15.583601
Zn -1.405887 21.248486 18.416044
Zn 4.258998 -21.238152 -12.740824
Zn 7.091441 -21.238152 -9.908382
Zn 4.258998 -21.238152 -7.075939
Zn 7.091441 -21.238152 -4.243497
Zn 4.258998 -21.238152 -1.411054
Zn 7.091441 -21.238152 1.421388
Zn 4.258998 -21.238152 4.253831
Zn 7.091441 -21.238152 7.086273
Zn 4.258998 -21.238152 9.918716
Zn 7.091441 -21.238152 12.751159
Zn 4.258998 -21.238152 15.583601
Zn 4.258998 -15.573267 -18.405709
Zn 4.258998 -18.405709 -15.573267
Zn 7.091441 -15.573267 -15.573267
Zn 7.091441 -18.405709 -12.740824
Zn 4.258998 -15.573267 -12.740824
Zn 4.258998 -18.405709 -9.908382
Zn 7.091441 -15.573267 -9.908382
Zn 7.091441 -18.405709 -7.075939
Zn 4.258998 -15.573267 -7.075939
Zn 4.258998 -18.405709 -4.243497
Zn 7.091441 -15.573267 -4.243497
Zn 7.091441 -18.405709 -1.411054
Zn 4.258998 -15.573267 -1.411054
Zn 4.258998 -18.405709 1.421388
Zn 7.091441 -15.573267 1.421388
Zn 7.091441 -18.405709 4.253831
Zn 4.258998 -15.573267 4.253831
Zn 4.258998 -18.405709 7.086273
Zn 7.091441 -15.573267 7.086273
Zn 7.091441 -18.405709 9.918716
Zn 4.258998 -15.573267 9.918716
Zn 4.258998 -18.405709 12.751159
Zn 7.091441 -15.573267 12.751159
Zn 7.091441 -18.405709 15.583601
Zn 4.258998 -15.573267 15.583601
Zn 4.258998 -18.405709 18.416044
Zn 7.091441 -15.573267 18.416044
Zn 4.258998 -15.573267 21.248486
Zn 4.258998 -12.740824 -21.238152
Zn 7.091441 -9.908382 -21.238152
Zn 7.091441 -12.740824 -18.405709
Zn 4.258998 -9.908382 -18.405709
Zn 4.258998 -12.740824 -15.573267
Zn 7.091441 -9.908382 -15.573267
Zn 7.091441 -12.740824 -12.740824
Zn 4.258998 -9.908382 -12.740824
Zn 4.258998 -12.740824 -9.908382
Zn 7.091441 -9.908382 -9.908382
Zn 7.091441 -12.740824 -7.075939
Zn 4.258998 -9.908382 -7.075939
Zn 4.258998 -12.740824 -4.243497
Zn 7.091441 -9.908382 -4.243497
Zn 7.091441 -12.740824 -1.411054
Zn 4.258998 -9.908382 -1.411054
Zn 4.258998 -12.740824 1.421388
Zn 7.091441 -9.908382 1.421388
Zn 7.091441 -12.740824 4.253831
Zn 4.258998 -9.908382 4.253831
Zn 4.258998 -12.740824 7.086273
Zn 7.091441 -9.908382 7.086273
Zn 7.091441 -12.740824 9.918716
Zn 4.258998 -9.908382 9.918716
Zn 4.258998 -12.740824 12.751159
Zn 7.091441 -9.908382 12.751159
Zn 7.091441 -12.740824 15.583601
Zn 4.258998 -9.908382 15.583601
Zn 4.258998 -12.740824 18.416044
Zn 7.091441 -9.908382 18.416044
Zn 7.091441 -12.740824 21.248486
Zn 4.258998 -9.908382 21.248486
Zn 4.258998 -7.075939 -21.238152
Zn 7.091441 -4.243497 -21.238152
Zn 7.091441 -7.075939 -18.405709
Zn 4.258998 -4.243497 -18.405709
Zn 4.258998 -7.075939 -15.573267
Zn 7.091441 -4.243497 -15.573267
Zn 7.091441 -7.075939 -12.740824
Zn 4.258998 -4.243497 -12.740824
Zn 4.258998 -7.075939 -9.908382
Zn 7.091441 -4.243497 -9.908382
Zn 7.091441 -7.075939 -7.075939
Zn 4.258998 -4.243497 -7.075939
Zn 4.258998 -7.075939 -4.243497
Zn 7.091441 -4.243497 -4.243497
Zn 7.091441 -7.075939 -1.411054
Zn 4.258998 -4.243497 -1.411054
Zn 4.258998 -7.075939 1.421388
Zn 7.091441 -4.243497 1.421388
Zn 7.091441 -7.075939 4.253831
Zn 4.258998 -4.243497 4.253831
Zn 4.258998 -7.075939 7.086273
Zn 7.091441 -4.243497 7.086273
Zn 7.091441 -7.075939 9.918716
Zn 4.258998 -4.243497 9.918716
Zn 4.258998 -7.075939 12.751159
Zn 7.091441 -4.243497 12.751159
Zn 7.091441 -7.075939 15.583601
Zn 4.258998 -4.243497 15.583601
Zn 4.258998 -7.075939 18.416044
Zn 7.091441 -4.243497 18.416044
Zn 7.091441 -7.075939 21.248486
Zn 4.258998 -4.243497 21.248486
Zn 4.258998 -1.411054 -21.238152
Zn 7.091441 1.421388 -21.238152
Zn 7.091441 -1.411054 -18.405709
Zn 4.258998 1.421388 -18.405709
Zn 4.258998 -1.411054 -15.573267
Zn 7.091441 1.421388 -15.573267
Zn 7.091441 -1.411054 -12.740824
Zn 4.258998 1.421388 -12.740824
Zn 4.258998 -1.411054 -9.908382
Zn 7.091441 1.421388 -9.908382
Zn 7.091441 -1.411054 -7.075939
Zn 4.258998 1.421388 -7.075939
Zn 4.258998 -1.411054 -4.243497
Zn 7.091441 1.421388 -4.243497
Zn 7.091441 -1.411054 -1.411054
Zn 4.258998 1.421388 -1.411054
Zn 4.258998 -1.411054 1.421388
Zn 7.091441 1.421388 1.421388
Zn 7.091441 -1.411054 4.253831
Zn 4.258998 1.421388 4.253831
Zn 4.258998 -1.411054 7.086273
Zn 7.091441 1.421388 7.086273
Zn 7.091441 -1.411054 9.918716
Zn 4.258998 1.421388 9.918716
Zn 4.258998 -1.411054 12.751159
Zn 7.091441 1.421388 12.751159
Zn 7.091441 -1.411054 15.583601
Zn 4.258998 1.421388 15.583601
Zn 4.258998 -1.411054 18.416044
Zn 7.091441 1.421388 18.416044
Zn 7.091441 -1.411054 21.248486
Zn 4.258998 1.421388 21.248486
Zn 4.258998 4.253831 -21.238152
Zn 7.091441 7.086273 -21.238152
Zn 7.091441 4.253831 -18.405709
Zn 4.258998 7.086273 -18.405709
Zn 4.258998 4.253831 -15.573267
Zn 7.091441 7.086273 -15.573267
Zn 7.091441 4.253831 -12.740824
Zn 4.258998 7.086273 -12.740824
Zn 4.258998 4.253831 -9.908382
Zn 7.091441 7.086273 -9.908382
Zn 7.091441 4.253831 -7.075939
Zn 4.258998 7.086273 -7.075939
Zn 4.258998 4.253831 -4.243497
Zn 7.091441 7.086273 -4.243497
Zn 7.091441 4.253831 -1.411054
Zn 4.258998 7.086273 -1.411054
Zn 4.258998 4.253831 1.421388
Zn 7.091441 7.086273 1.421388
Zn 7.091441 4.253831 4.253831
Zn 4.258998 7.086273 4.253831
Zn 4.258998 4.253831 7.086273
Zn 7.091441 7.086273 7.086273
Zn 7.091441 4.253831 9.918716
Zn 4.258998 7.086273 9.918716
Zn 4.258998 4.253831 12.751159
Zn 7.091441 7.086273 12.751159
Zn 7.091441 4.253831 15.583601
Zn 4.258998 7.086273 15.583601
Zn 4.258998 4.253831 18.416044
Zn 7.091441 7.086273 18.416044
Zn 7.091441 4.253831 21.248486
Zn 4.258998 7.086273 21.248486
Zn 4.258998 9.918716 -21.238152
Zn 7.091441 12.751159 -21.238152
Zn 7.091441 9.918716 -18.405709
Zn 4.258998 12.751159 -18.405709
Zn 4.258998 9.918716 -15.573267
Zn 7.091441 12.751159 -15.573267
Zn 7.091441 9.918716 -12.740824
Zn 4.258998 12.751159 -12.740824
Zn 4.258998 9.918716 -9.908382
Zn 7.091441 12.751159 -9.908382
Zn 7.091441 9.918716 -7.075939
Zn 4.258998 12.751159 -7.075939
Zn 4.258998 9.918716 -4.243497
Zn 7.091441 12.751159 -4.243497
Zn 7.091441 9.918716 -1.411054
Zn 4.258998 12.751159 -1.411054
Zn 4.258998 9.918716 1.421388
Zn 7.091441 12.751159 1.421388
Zn 7.091441 9.918716 4.253831
Zn 4.258998 12.751159 4.253831
Zn 4.258998 9.918716 7.086273
Zn 7.091441 12.751159 7.086273
Zn 7.091441 9.918716 9.918716
Zn 4.258998 12.751159 9.918716
Zn 4.258998 9.918716 12.751159
Zn 7.091441 12.751159 12.751159
Zn 7.091441 9.918716 15.583601
Zn 4.258998 12.751159 15.583601
Zn 4.258998 9.918716 18.416044
Zn 7.091441 12.751159 18.416044
Zn 7.091441 9.918716 21.248486
Zn 4.258998 12.751159 21.248486
Zn 4.258998 15.583601 -21.238152
Zn 7.091441 15.583601 -18.405709
Zn 4.258998 18.416044 -18.405709
Zn 4.258998 15.583601 -15.573267
Zn 7.091441 18.416044 -15.573267
Zn 7.091441 15.583601 -12.740824
Zn 4.258998 18.416044 -12.740824
Zn 4.258998 15.583601 -9.908382
Zn 7.091441 18.416044 -9.908382
Zn 7.091441 15.583601 -7.075939
Zn 4.258998 18.416044 -7.075939
Zn 4.258998 15.583601 -4.243497
Zn 7.091441 18.416044 -4.243497
Zn 7.091441 15.583601 -1.411054
Zn 4.258998 18.416044 -1.411054
Zn 4.258998 15.583601 1.421388
Zn 7.091441 18.416044 1.421388
Zn 7.091441 15.583601 4.253831
Zn 4.258998 18.416044 4.253831
Zn 4.258998 15.583601 7.086273
Zn 7.091441 18.416044 7.086273
Zn 7.091441 15.583601 9.918716
Zn 4.258998 18.416044 9.918716
Zn 4.258998 15.583601 12.751159
Zn 7.091441 18.416044 12.751159
Zn 7.091441 15.583601 15.583601
Zn 4.258998 18.416044 15.583601
Zn 4.258998 15.583601 18.416044
Zn 4.258998 21.248486 -15.573267
Zn 7.091441 21.248486 -12.740824
Zn 4.258998 21.248486 -9.908382
Zn 7.091441 21.248486 -7.075939
Zn 4.258998 21.248486 -4.243497
Zn 7.091441 21.248486 -1.411054
Zn 4.258998 21.248486 1.421388
Zn 7.091441 21.248486 4.253831
Zn 4.258998 21.248486 7.086273
Zn 7.091441 21.248486 9.918716
Zn 4.258998 21.248486 12.751159
Zn 9.923883 -21.238152 -7.075939
Zn 12.756326 -21.238152 -4.243497
Zn 9.923883 -21.238152 -1.411054
Zn 12.756326 -21.238152 1.421388
Zn 9.923883 -21.238152 4.253831
Zn 12.756326 -21.238152 7.086273
Zn 9.923883 -21.238152 9.918716
Zn 9.923883 -15.573267 -12.740824
Zn 9.923883 -18.405709 -9.908382
Zn 12.756326 -15.573267 -9.908382
Zn 12.756326 -18.405709 -7.075939
Zn 9.923883 -15.573267 -7.075939
Zn 9.923883 -18.405709 -4.243497
Zn 12.756326 -15.573267 -4.243497
Zn 12.756326 -18.405709 -1.411054
Zn 9.923883 -15.573267 -1.411054
Zn 9.923883 -18.405709 1.421388
Zn 12.756326 -15.573267 1.421388
Zn 12.756326 -18.405709 4.253831
Zn 9.923883 -15.573267 4.253831
Zn 9.923883 -18.405709 7.086273
Zn 12.756326 -15.573267 7.086273
Zn 12.756326 -18.405709 9.918716
Zn 9.923883 -15.573267 9.918716
Zn 9.923883 -18.405709 12.751159
Zn 12.756326 -15.573267 12.751159
Zn 9.923883 -15.573267 15.583601
Zn 9.923883 -9.908382 -18.405709
Zn 9.923883 -12.740824 -15.573267
Zn 12.756326 -9.908382 -15.573267
Zn 12.756326 -12.740824 -12.740824
Zn 9.923883 -9.908382 -12.740824
Zn 9.923883 -12.740824 -9.908382
Zn 12.756326 -9.908382 -9.908382
Zn 12.756326 -12.740824 -7.075939
Zn 9.923883 -9.908382 -7.075939
Zn 9.923883 -12.740824 -4.243497
Zn 12.756326 -9.908382 -4.243497
Zn 12.756326 -12.740824 -1.411054
Zn 9.923883 -9.908382 -1.411054
Zn 9.923883 -12.740824 1.421388
Zn 12.756326 -9.908382 1.421388
Zn 12.756326 -12.740824 4.253831
Zn 9.923883 -9.908382 4.253831
Zn 9.923883 -12.740824 7.086273
Zn 12.756326 -9.908382 7.086273
Zn 12.756326 -12.740824 9.918716
Zn 9.923883 -9.908382 9.918716
Zn 9.923883 -12.740824 12.751159
Zn 12.756326 -9.908382 12.751159
Zn 12.756326 -12.740824 15.583601
Zn 9.923883 -9.908382 15.583601
Zn 9.923883 -12.740824 18.416044
Zn 12.756326 -9.908382 18.416044
Zn 9.923883 -9.908382 21.248486
Zn 9.923883 -7.075939 -21.238152
Zn 12.756326 -4.243497 -21.238152
Zn 12.756326 -7.075939 -18.405709
Zn 9.923883 -4.243497 -18.405709
Zn 9.923883 -7.075939 -15.573267
Zn 12.756326 -4.243497 -15.573267
Zn 12.756326 -7.075939 -12.740824
Zn 9.923883 -4.243497 -12.740824
Zn 9.923883 -7.075939 -9.908382
Zn 12.756326 -4.243497 -9.908382
Zn 12.756326 -7.075939 -7.075939
Zn 9.923883 -4.243497 -7.075939
Zn 9.923883 -7.075939 -4.243497
Zn 12.756326 -4.243497 -4.243497
Zn 12.756326 -7.075939 -1.411054
Zn 9.923883 -4.243497 -1.411054
Zn 9.923883 -7.075939 1.421388
Zn 12.756326 -4.243497 1.421388
Zn 12.756326 -7.075939 4.253831
Zn 9.923883 -4.243497 4.253831
Zn 9.923883 -7.075939 7.086273
Zn 12.756326 -4.243497 7.086273
Zn 12.756326 -7.075939 9.918716
Zn 9.923883 -4.243497 9.918716
Zn 9.923883 -7.075939 12.751159
Zn 12.756326 -4.243497 12.751159
Zn 12.756326 -7.075939 15.583601
Zn 9.923883 -4.243497 15.583601
Zn 9.923883 -7.075939 18.416044
Zn 12.756326 -4.243497 18.416044
Zn 12.756326 -7.075939 21.248486
Zn 9.923883 -4.243497 21.248486
Zn 9.923883 -1.411054 -21.238152
Zn 12.756326 1.421388 -21.238152
Zn 12.756326 -1.411054 -18.405709
Zn 9.923883 1.421388 -18.405709
Zn 9.923883 -1.411054 -15.573267
Zn 12.756326 1.421388 -15.573267
Zn 12.756326 -1.411054 -12.740824
Zn 9.923883 1.421388 -12.740824
Zn 9.923883 -1.411054 -9.908382
Zn 12.756326 1.421388 -9.908382
Zn 12.756326 -1.411054 -7.075939
Zn 9.923883 1.421388 -7.075939
Zn 9.923883 -1.411054 -4.243497
Zn 12.756326 1.421388 -4.243497
Zn 12.756326 -1.411054 -1.411054
Zn 9.923883 1.421388 -1.411054
Zn 9.923883 -1.411054 1.421388
Zn 12.756326 1.421388 1.421388
Zn 12.756326 -1.411054 4.253831
Zn 9.923883 1.421388 4.253831
Zn 9.923883 -1.411054 7.086273
Zn 12.756326 1.421388 7.086273
Zn 12.756326 -1.411054 9.918716
Zn 9.923883 1.421388 9.918716
Zn 9.923883 -1.411054 12.751159
Zn 12.756326 1.421388 12.751159
Zn 12.756326 -1.411054 15.583601
Zn 9.923883 1.421388 15.583601
Zn 9.923883 -1.411054 18.416044
Zn 12.756326 1.421388 18.416044
Zn 12.756326 -1.411054 21.248486
Zn 9.923883 1.421388 21.248486
Zn 9.923883 4.253831 -21.238152
Zn 12.756326 7.086273 -21.238152
Zn 12.756326 4.253831 -18.405709
Zn 9.923883 7.086273 -18.405709
Zn 9.923883 4.253831 -15.573267
Zn 12.756326 7.086273 -15.573267
Zn 12.756326 4.253831 -12.740824
Zn 9.923883 7.086273 -12.740824
Zn 9.923883 4.253831 -9.908382
Zn 12.756326 7.086273 -9.908382
Zn 12.756326 4.253831 -7.075939
Zn 9.923883 7.086273 -7.075939
Zn 9.923883 4.253831 -4.243497
Zn 12.756326 7.086273 -4.243497
Zn 12.756326 4.253831 -1.411054
Zn 9.923883 7.086273 -1.411054
Zn 9.923883 4.253831 1.421388
Zn 12.756326 7.086273 1.421388
Zn 12.756326 4.253831 4.253831
Zn 9.923883 7.086273 4.253831
Zn 9.923883 4.253831 7.086273
Zn 12.756326 7.086273 7.086273
Zn 12.756326 4.253831 9.918716
Zn 9.923883 7.086273 9.918716
Zn 9.923883 4.253831 12.751159
Zn 12.756326 7.086273 12.751159
Zn 12.756326 4.253831 15.583601
Zn 9.923883 7.086273 15.583601
Zn 9.923883 4.253831 18.416044
Zn 12.756326 7.086273 18.416044
Zn 12.756326 4.253831 21.248486
Zn 9.923883 7.086273 21.248486
Zn 9.923883 9.918716 -21.238152
Zn 12.756326 9.918716 -18.405709
Zn 9.923883 12.751159 -18.405709
Zn 9.923883 9.918716 -15.573267
Zn 12.756326 12.751159 -15.573267
Zn 12.756326 9.918716 -12.740824
Zn 9.923883 12.751159 -12.740824
Zn 9.923883 9.918716 -9.908382
Zn 12.756326 12.751159 -9.908382
Zn 12.756326 9.918716 -7.075939
Zn 9.923883 12.751159 -7.075939
Zn 9.923883 9.918716 -4.243497
Zn 12.756326 12.751159 -4.243497
Zn 12.756326 9.918716 -1.411054
Zn 9.923883 12.751159 -1.411054
Zn 9.923883 9.918716 1.421388
Zn 12.756326 12.751159 1.421388
Zn 12.756326 9.918716 4.253831
Zn 9.923883 12.751159 4.253831
Zn 9.923883 9.918716 7.086273
Zn 12.756326 12.751159 7.086273
Zn 12.756326 9.918716 9.918716
Zn 9.923883 12.751159 9.918716
Zn 9.923883 9.918716 12.751159
Zn 12.756326 12.751159 12.751159
Zn 12.756326 9.918716 15.583601
Zn 9.923883 12.751159 15.583601
Zn 9.923883 9.918716 18.416044
Zn 9.923883 15.583601 -15.573267
Zn 12.756326 15.583601 -12.740824
Zn 9.923883 18.416044 -12.740824
Zn 9.923883 15.583601 -9.908382
Zn 12.756326 18.416044 -9.908382
Zn 12.756326 15.583601 -7.075939
Zn 9.923883 18.416044 -7.075939
Zn 9.923883 15.583601 -4.243497
Zn 12.756326 18.416044 -4.243497
Zn 12.756326 15.583601 -1.411054
Zn 9.923883 18.416044 -1.411054
Zn 9.923883 15.583601 1.421388
Zn 12.756326 18.416044 1.421388
Zn 12.756326 15.583601 4.253831
Zn 9.923883 18.416044 4.253831
Zn 9.923883 15.583601 7.086273
Zn 12.756326 18.416044 7.086273
Zn 12.756326 15.583601 9.918716
Zn 9.923883 18.416044 9.918716
Zn 9.923883 15.583601 12.751159
Zn 9.923883 21.248486 -9.908382
Zn 12.756326 21.248486 -7.075939
Zn 9.923883 21.248486 -4.243497
Zn 12.756326 21.248486 -1.411054
Zn 9.923883 21.248486 1.421388
Zn 12.756326 21.248486 4.253831
Zn 9.923883 21.248486 7.086273
Zn 15.588768 -21.238152 -1.411054
Zn 18.421211 -21.238152 1.421388
Zn 15.588768 -21.238152 4.253831
Zn 15.588768 -15.573267 -7.075939
Zn 15.588768 -18.405709 -4.243497
Zn 18.421211 -15.573267 -4.243497
Zn 18.421211 -18.405709 -1.411054
Zn 15.588768 -15.573267 -1.411054
Zn 15.588768 -18.405709 1.421388
Zn 18.421211 -15.573267 1.421388
Zn 18.421211 -18.405709 4.253831
Zn 15.588768 -15.573267 4.253831
Zn 15.588768 -18.405709 7.086273
Zn 18.421211 -15.573267 7.086273
Zn 15.588768 -15.573267 9.918716
Zn 15.588768 -9.908382 -12.740824
Zn 15.588768 -12.740824 -9.908382
Zn 18.421211 -9.908382 -9.908382
Zn 18.421211 -12.740824 -7.075939
Zn 15.588768 -9.908382 -7.075939
Zn 15.588768 -12.740824 -4.243497
Zn 18.421211 -9.908382 -4.243497
Zn 18.421211 -12.740824 -1.411054
Zn 15.588768 -9.908382 -1.411054
Zn 15.588768 -12.740824 1.421388
Zn 18.421211 -9.908382 1.421388
Zn 18.421211 -12.740824 4.253831
Zn 15.588768 -9.908382 4.253831
Zn 15.588768 -12.740824 7.086273
Zn 18.421211 -9.908382 7.086273
Zn 18.421211 -12.740824 9.918716
Zn 15.588768 -9.908382 9.918716
Zn 15.588768 -12.740824 12.751159
Zn 18.421211 -9.908382 12.751159
Zn 15.588768 -9.908382 15.583601
Zn 15.588768 -4.243497 -18.405709
Zn 15.588768 -7.075939 -15.573267
Zn 18.421211 -4.243497 -15.573267
Zn 18.421211 -7.075939 -12.740824
Zn 15.588768 -4.243497 -12.740824
Zn 15.588768 -7.075939 -9.908382
Zn 18.421211 -4.243497 -9.908382
Zn 18.421211 -7.075939 -7.075939
Zn 15.588768 -4.243497 -7.075939
Zn 15.588768 -7.075939 -4.243497
Zn 18.421211 -4.243497 -4.243497
Zn 18.421211 -7.075939 -1.411054
Zn 15.588768 -4.243497 -1.411054
Zn 15.588768 -7.075939 1.421388
Zn 18.421211 -4.243497 1.421388
Zn 18.421211 -7.075939 4.253831
Zn 15.588768 -4.243497 4.253831
Zn 15.588768 -7.075939 7.086273
Zn 18.421211 -4.243497 7.086273
Zn 18.421211 -7.075939 9.918716
Zn 15.588768 -4.243497 9.918716
Zn 15.588768 -7.075939 12.751159
Zn 18.421211 -4.243497 12.751159
Zn 18.421211 -7.075939 15.583601
Zn 15.588768 -4.243497 15.583601
Zn 15.588768 -7.075939 18.416044
Zn 18.421211 -4.243497 18.416044
Zn 15.588768 -4.243497 21.248486
Zn 15.588768 -1.411054 -21.238152
Zn 18.421211 1.421388 -21.238152
Zn 18.421211 -1.411054 -18.405709
Zn 15.588768 1.421388 -18.405709
Zn 15.588768 -1.411054 -15.573267
Zn 18.421211 1.421388 -15.573267
Zn 18.421211 -1.411054 -12.740824
Zn 15.588768 1.421388 -12.740824
Zn 15.588768 -1.411054 -9.908382
Zn 18.421211 1.421388 -9.908382
Zn 18.421211 -1.411054 -7.075939
Zn 15.588768 1.421388 -7.075939
Zn 15.588768 -1.411054 -4.243497
Zn 18.421211 1.421388 -4.243497
Zn 18.421211 -1.411054 -1.411054
Zn 15.588768 1.421388 -1.411054
Zn 15.588768 -1.411054 1.421388
Zn 18.421211 1.421388 1.421388
Zn 18.421211 -1.411054 4.253831
Zn 15.588768 1.421388 4.253831
Zn 15.588768 -1.411054 7.086273
Zn 18.421211 1.421388 7.086273
Zn 18.421211 -1.411054 9.918716
Zn 15.588768 1.421388 9.918716
Zn 15.588768 -1.411054 12.751159
Zn 18.421211 1.421388 12.751159
Zn 18.421211 -1.411054 15.583601
Zn 15.588768 1.421388 15.583601
Zn 15.588768 -1.411054 18.416044
Zn 18.421211 1.421388 18.416044
Zn 18.421211 -1.411054 21.248486
Zn 15.588768 1.421388 21.248486
Zn 15.588768 4.253831 -21.238152
Zn 18.421211 4.253831 -18.405709
Zn 15.588768 7.086273 -18.405709
Zn 15.588768 4.253831 -15.573267
Zn 18.421211 7.086273 -15.573267
Zn 18.421211 4.253831 -12.740824
Zn 15.588768 7.086273 -12.740824
Zn 15.588768 4.253831 -9.908382
Zn 18.421211 7.086273 -9.908382
Zn 18.421211 4.253831 -7.075939
Zn 15.588768 7.086273 -7.075939
Zn 15.588768 4.253831 -4.243497
Zn 18.421211 7.086273 -4.243497
Zn 18.421211 4.253831 -1.411054
Zn 15.588768 7.086273 -1.411054
Zn 15.588768 4.253831 1.421388
Zn 18.421211 7.086273 1.421388
Zn 18.421211 4.253831 4.253831
Zn 15.588768 7.086273 4.253831
Zn 15.588768 4.253831 7.086273
Zn 18.421211 7.086273 7.086273
Zn 18.421211 4.253831 9.918716
Zn 15.588768 7.086273 9.918716
Zn 15.588768 4.253831 12.751159
Zn 18.421211 7.086273 12.751159
Zn 18.421211 4.253831 15.583601
Zn 15.588768 7.086273 15.583601
Zn 15.588768 4.253831 18.416044
Zn 15.588768 9.918716 -15.573267
Zn 18.421211 9.918716 -12.740824
Zn 15.588768 12.751159 -12.740824
Zn 15.588768 9.918716 -9.908382
Zn 18.421211 12.751159 -9.908382
Zn 18.421211 9.918716 -7.075939
Zn 15.588768 12.751159 -7.075939
Zn 15.588768 9.918716 -4.243497
Zn 18.421211 12.751159 -4.243497
Zn 18.421211 9.918716 -1.411054
Zn 15.588768 12.751159 -1.411054
Zn 15.588768 9.918716 1.421388
Zn 18.421211 12.751159 1.421388
Zn 18.421211 9.918716 4.253831
Zn 15.588768 12.751159 4.253831
Zn 15.588768 9.918716 7.086273
Zn 18.421211 12.751159 7.086273
Zn 18.421211 9.918716 9.918716
Zn 15.588768 12.751159 9.918716
Zn 15.588768 9.918716 12.751159
Zn 15.588768 15.583601 -9.908382
Zn 18.421211 15.583601 -7.075939
Zn 15.588768 18.416044 -7.075939
Zn 15.588768 15.583601 -4.243497
Zn 18.421211 18.416044 -4.243497
Zn 18.421211 15.583601 -1.411054
Zn 15.588768 18.416044 -1.411054
Zn 15.588768 15.583601 1.421388
Zn 18.421211 18.416044 1.421388
Zn 18.421211 15.583601 4.253831
Zn 15.588768 18.416044 4.253831
Zn 15.588768 15.583601 7.086273
Zn 15.588768 21.248486 -4.243497
Zn 18.421211 21.248486 -1.411054
Zn 15.588768 21.248486 1.421388
Zn 21.253653 -15.573267 -1.411054
Zn 21.253653 -18.405709 1.421388
Zn 21.253653 -15.573267 4.253831
Zn 21.253653 -9.908382 -7.075939
Zn 21.253653 -12.740824 -4.243497
Zn 21.253653 -9.908382 -1.411054
Zn 21.253653 -12.740824 1.421388
Zn 21.253653 -9.908382 4.253831
Zn 21.253653 -12.740824 7.086273
Zn 21.253653 -9.908382 9.918716
Zn 21.253653 -4.243497 -12.740824
Zn 21.253653 -7.075939 -9.908382
Zn 21.253653 -4.243497 -7.075939
Zn 21.253653 -7.075939 -4.243497
Zn 21.253653 -4.243497 -1.411054
Zn 21.253653 -7.075939 1.421388
Zn 21.253653 -4.243497 4.253831
Zn 21.253653 -7.075939 7.086273
Zn 21.253653 -4.243497 9.918716
Zn 21.253653 -7.075939 12.751159
Zn 21.253653 -4.243497 15.583601
Zn 21.253653 1.421388 -18.405709
Zn 21.253653 -1.411054 -15.573267
Zn 21.253653 1.421388 -12.740824
Zn 21.253653 -1.411054 -9.908382
Zn 21.253653 1.421388 -7.075939
Zn 21.253653 -1.411054 -4.243497
Zn 21.253653 1.421388 -1.411054
Zn 21.253653 -1.411054 1.421388
Zn 21.253653 1.421388 4.253831
Zn 21.253653 -1.411054 7.086273
Zn 21.253653 1.421388 9.918716
Zn 21.253653 -1.411054 12.751159
Zn 21.253653 1.421388 15.583601
Zn 21.253653 -1.411054 18.416044
Zn 21.253653 4.253831 -15.573267
Zn 21.253653 7.086273 -12.740824
Zn 21.253653 4.253831 -9.908382
Zn 21.253653 7.086273 -7.075939
Zn 21.253653 4.253831 -4.243497
Zn 21.253653 7.086273 -1.411054
Zn 21.253653 4.253831 1.421388
Zn 21.253653 7.086273 4.253831
Zn 21.253653 4.253831 7.086273
Zn 21.253653 7.086273 9.918716
Zn 21.253653 4.253831 12.751159
Zn 21.253653 9.918716 -9.908382
Zn 21.253653 12.751159 -7.075939
Zn 21.253653 9.918716 -4.243497
Zn 21.253653 12.751159 -1.411054
Zn 21.253653 9.918716 1.421388
Zn 21.253653 12.751159 4.253831
Zn 21.253653 9.918716 7.086273
Zn 21.253653 15.583601 -4.243497
Zn 21.253653 18.416044 -1.411054
Zn 21.253653 15.583601 1.421388
Se -19.816764 -19.821931 0.005167
Se -19.816764 -14.157046 -5.659718
Se -19.816764 -14.157046 0.005167
Se -19.816764 -16.989488 -2.827275
Se -19.816764 -14.157046 5.670052
Se -19.816764 -16.989488 2.837610
Se -19.816764 -8.492161 -11.324603
Se -19.816764 -8.492161 -5.659718
Se -19.816764 -11.324603 -8.492161
Se -19.816764 -8.492161 0.005167
Se -19.816764 -11.324603 -2.827275
Se -19.816764 -8.492161 5.670052
Se -19.816764 -11.324603 2.837610
Se -19.816764 -8.492161 11.334937
Se -19.816764 -11.324603 8.502495
Se -19.816764 -2.827275 -16.989488
Se -19.816764 -2.827275 -11.324603
Se -19.816764 -5.659718 -14.157046
Se -19.816764 -2.827275 -5.659718
Se -19.816764 -5.659718 -8.492161
Se -19.816764 -2.827275 0.005167
Se -19.816764 -5.659718 -2.827275
Se -19.816764 -2.827275 5.670052
Se -19.816764 -5.659718 2.837610
Se -19.816764 -2.827275 11.334937
Se -19.816764 -5.659718 8.502495
Se -19.816764 -2.827275 16.999822
Se -19.816764 -5.659718 14.167380
Se -19.816764 2.837610 -16.989488
Se -19.816764 0.005167 -19.821931
Se -19.816764 2.837610 -11.324603
Se -19.816764 0.005167 -14.157046
Se -19.816764 2.837610 -5.659718
Se -19.816764 0.005167 -8.492161
Se -19.816764 2.837610 0.005167
Se -19.816764 0.005167 -2.827275
Se -19.816764 2.837610 5.670052
Se -19.816764 0.005167 2.837610
Se -19.816764 2.837610 11.334937
Se -19.816764 0.005167 8.502495
Se -19.816764 2.837610 16.999822
Se -19.816764 0.005167 14.167380
Se -19.816764 0.005167 19.832265
Se -19.816764 8.502495 -11.324603
Se -19.816764 5.670052 -14.157046
Se -19.816764 8.502495 -5.659718
Se -19.816764 5.670052 -8.492161
Se -19.816764 8.502495 0.005167
Se -19.816764 5.670052 -2.827275
Se -19.816764 8.502495 5.670052
Se -19.816764 5.670052 2.837610
Se -19.816764 8.502495 11.334937
Se -19.816764 5.670052 8.502495
Se -19.816764 5.670052 14.167380
Se -19.816764 14.167380 -5.659718
Se -19.816764 11.334937 -8.492161
Se -19.816764 14.167380 0.005167
Se -19.816764 11.334937 -2.827275
Se -19.816764 14.167380 5.670052
Se -19.816764 11.334937 2.837610
Se -19.816764 11.334937 8.502495
Se -19.816764 19.832265 0.005167
Se -19.816764 16.999822 -2.827275
Se -19.816764 16.999822 2.837610
Se -14.151878 -19.821931 -5.659718
Se -16.984321 -19.821931 -2.827275
Se -14.151878 -19.821931 0.005167
Se -16.984321 -19.821931 2.837610
Se -14.151878 -19.821931 5.670052
Se -14.151878 -14.157046 -11.324603
Se -16.984321 -16.989488 -5.659718
Se -16.984321 -14.157046 -8.492161
Se -14.151878 -14.157046 -5.659718
Se -14.151878 -16.989488 -8.492161
Se -16.984321 -16.989488 0.005167
Se -16.984321 -14.157046 -2.827275
Se -14.151878 -14.157046 0.005167
Se -14.151878 -16.989488 -2.827275
Se -16.984321 -16.989488 5.670052
Se -16.984321 -14.157046 2.837610
Se -14.151878 -14.157046 5.670052
Se -14.151878 -16.989488 2.837610
Se -16.984321 -14.157046 8.502495
Se -14.151878 -14.157046 11.334937
Se -14.151878 -16.989488 8.502495
Se -14.151878 -8.492161 -16.989488
Se -16.984321 -11.324603 -11.324603
Se -16.984321 -8.492161 -14.157046
Se -14.151878 -8.492161 -11.324603
Se -14.151878 -11.324603 -14.157046
Se -16.984321 -11.324603 -5.659718
Se -16.984321 -8.492161 -8.492161
Se -14.151878 -8.492161 -5.659718
Se -14.151878 -11.324603 -8.492161
Se -16.984321 -11.324603 0.005167
Se -16.984321 -8.492161 -2.827275
Se -14.151878 -8.492161 0.005167
Se -14.151878 -11.324603 -2.827275
Se -16.984321 -11.324603 5.670052
Se -16.984321 -8.492161 2.837610
Se -14.151878 -8.492161 5.670052
Se -14.151878 -11.324603 2.837610
Se -16.984321 -11.324603 11.334937
Se -16.984321 -8.492161 8.502495
Se -14.151878 -8.492161 11.334937
Se -14.151878 -11.324603 8.502495
Se -16.984321 -8.492161 14.167380
Se -14.151878 -8.492161 16.999822
Se -14.151878 -11.324603 14.167380
Se -16.984321 -5.659718 -16.989488
Se -16.984321 -2.827275 -19.821931
Se -14.151878 -2.827275 -16.989488
Se -14.151878 -5.659718 -19.821931
Se -16.984321 -5.659718 -11.324603
Se -16.984321 -2.827275 -14.157046
Se -14.151878 -2.827275 -11.324603
Se -14.151878 -5.659718 -14.157046
Se -16.984321 -5.659718 -5.659718
Se -16.984321 -2.827275 -8.492161
Se -14.151878 -2.827275 -5.659718
Se -14.151878 -5.659718 -8.492161
Se -16.984321 -5.659718 0.005167
Se -16.984321 -2.827275 -2.827275
Se -14.151878 -2.827275 0.005167
Se -14.151878 -5.659718 -2.827275
Se -16.984321 -5.659718 5.670052
Se -16.984321 -2.827275 2.837610
Se -14.151878 -2.827275 5.670052
Se -14.151878 -5.659718 2.837610
Se -16.984321 -5.659718 11.334937
Se -16.984321 -2.827275 8.502495
Se -14.151878 -2.827275 11.334937
Se -14.151878 -5.659718 8.502495
Se -16.984321 -5.659718 16.999822
Se -16.984321 -2.827275 14.167380
Se -14.151878 -2.827275 16.999822
Se -14.151878 -5.659718 14.167380
Se -16.984321 -2.827275 19.832265
Se -14.151878 -5.659718 19.832265
Se -16.984321 0.005167 -16.989488
Se -16.984321 2.837610 -19.821931
Se -14.151878 2.837610 -16.989488
Se -14.151878 0.005167 -19.821931
Se -16.984321 0.005167 -11.324603
Se -16.984321 2.837610 -14.157046
Se -14.151878 2.837610 -11.324603
Se -14.151878 0.005167 -14.157046
Se -16.984321 0.005167 -5.659718
Se -16.984321 2.837610 -8.492161
Se -14.151878 2.837610 -5.659718
Se -14.151878 0.005167 -8.492161
Se -16.984321 0.005167 0.005167
Se -16.984321 2.837610 -2.827275
Se -14.151878 2.837610 0.005167
Se -14.151878 0.005167 -2.827275
Se -16.984321 0.005167 5.670052
Se -16.984321 2.837610 2.837610
Se -14.151878 2.837610 5.670052
Se -14.151878 0.005167 2.837610
Se -16.984321 0.005167 11.334937
Se -16.984321 2.837610 8.502495
Se -14.151878 2.837610 11.334937
Se -14.151878 0.005167 8.502495
Se -16.984321 0.005167 16.999822
Se -16.984321 2.837610 14.167380
Se -14.151878 2.837610 16.999822
Se -14.151878 0.005167 14.167380
Se -16.984321 2.837610 19.832265
Se -14.151878 0.005167 19.832265
Se -16.984321 5.670052 -16.989488
Se -14.151878 8.502495 -16.989488
Se -14.151878 5.670052 -19.821931
Se -16.984321 5.670052 -11.324603
Se -16.984321 8.502495 -14.157046
Se -14.151878 8.502495 -11.324603
Se -14.151878 5.670052 -14.157046
Se -16.984321 5.670052 -5.659718
Se -16.984321 8.502495 -8.492161
Se -14.151878 8.502495 -5.659718
Se -14.151878 5.670052 -8.492161
Se -16.984321 5.670052 0.005167
Se -16.984321 8.502495 -2.827275
Se -14.151878 8.502495 0.005167
Se -14.151878 5.670052 -2.827275
Se -16.984321 5.670052 5.670052
Se -16.984321 8.502495 2.837610
Se -14.151878 8.502495 5.670052
Se -14.151878 5.670052 2.837610
Se -16.984321 5.670052 11.334937
Se -16.984321 8.502495 8.502495
Se -14.151878 8.502495 11.334937
Se -14.151878 5.670052 8.502495
Se -16.984321 5.670052 16.999822
Se -16.984321 8.502495 14.167380
Se -14.151878 8.502495 16.999822
Se -14.151878 5.670052 14.167380
Se -14.151878 5.670052 19.832265
Se -16.984321 11.334937 -11.324603
Se -14.151878 14.167380 -11.324603
Se -14.151878 11.334937 -14.157046
Se -16.984321 11.334937 -5.659718
Se -16.984321 14.167380 -8.492161
Se -14.151878 14.167380 -5.659718
Se -14.151878 11.334937 -8.492161
Se -16.984321 11.334937 0.005167
Se -16.984321 14.167380 -2.827275
Se -14.151878 14.167380 0.005167
Se -14.151878 11.334937 -2.827275
Se -16.984321 11.334937 5.670052
Se -16.984321 14.167380 2.837610
Se -14.151878 14.167380 5.670052
Se -14.151878 11.334937 2.837610
Se -16.984321 11.334937 11.334937
Se -16.984321 14.167380 8.502495
Se -14.151878 14.167380 11.334937
Se -14.151878 11.334937 8.502495
Se -14.151878 11.334937 14.167380
Se -16.984321 16.999822 -5.659718
Se -14.151878 19.832265 -5.659718
Se -14.151878 16.999822 -8.492161
Se -16.984321 16.999822 0.005167
Se -16.984321 19.832265 -2.827275
Se -14.151878 19.832265 0.005167
Se -14.151878 16.999822 -2.827275
Se -16.984321 16.999822 5.670052
Se -16.984321 19.832265 2.837610
Se -14.151878 19.832265 5.670052
Se -14.151878 16.999822 2.837610
Se -14.151878 16.999822 8.502495
Se -8.486993 -19.821931 -11.324603
Se -11.319436 -19.821931 -8.492161
Se -8.486993 -19.821931 -5.659718
Se -11.319436 -19.821931 -2.827275
Se -8.486993 -19.821931 0.005167
Se -11.319436 -19.821931 2.837610
Se -8.486993 -19.821931 5.670052
Se -11.319436 -19.821931 8.502495
Se -8.486993 -19.821931 11.334937
Se -8.486993 -14.157046 -16.989488
Se -11.319436 -16.989488 -11.324603
Se -11.319436 -14.157046 -14.157046
Se -8.486993 -14.157046 -11.324603
Se -8.486993 -16.989488 -14.157046
Se -11.319436 -16.989488 -5.659718
Se -11.319436 -14.157046 -8.492161
Se -8.486993 -14.157046 -5.659718
Se -8.486993 -16.989488 -8.492161
Se -11.319436 -16.989488 0.005167
Se -11.319436 -14.157046 -2.827275
Se -8.486993 -14.157046 0.005167
Se -8.486993 -16.989488 -2.827275
Se -11.319436 -16.989488 5.670052
Se -11.319436 -14.157046 2.837610
Se -8.486993 -14.157046 5.670052
Se -8.486993 -16.989488 2.837610
Se -11.319436 -16.989488 11.334937
Se -11.319436 -14.157046 8.502495
Se -8.486993 -14.157046 11.334937
Se -8.486993 -16.989488 8.502495
Se -11.319436 -14.157046 14.167380
Se -8.486993 -14.157046 16.999822
Se -8.486993 -16.989488 14.167380
Se -11.319436 -11.324603 -16.989488
Se -11.319436 -8.492161 -19.821931
Se -8.486993 -8.492161 -16.989488
Se -8.486993 -11.324603 -19.821931
Se -11.319436 -11.324603 -11.324603
Se -11.319436 -8.492161 -14.157046
Se -8.486993 -8.492161 -11.324603
Se -8.486993 -11.324603 -14.157046
Se -11.319436 -11.324603 -5.659718
Se -11.319436 -8.492161 -8.492161
Se -8.486993 -8.492161 -5.659718
Se -8.486993 -11.324603 -8.492161
Se -11.319436 -11.324603 0.005167
Se -11.319436 -8.492161 -2.827275
Se -8.486993 -8.492161 0.005167
Se -8.486993 -11.324603 -2.827275
Se -11.319436 -11.324603 5.670052
Se -11.319436 -8.492161 2.837610
Se -8.486993 -8.492161 5.670052
Se -8.486993 -11.324603 2.837610
Se -11.319436 -11.324603 11.334937
Se -11.319436 -8.492161 8.502495
Se -8.486993 -8.492161 11.334937
Se -8.486993 -11.324603 8.502495
Se -11.319436 -11.324603 16.999822
Se -11.319436 -8.492161 14.167380
Se -8.486993 -8.492161 16.999822
Se -8.486993 -11.324603 14.167380
Se -11.319436 -8.492161 19.832265
Se -8.486993 -11.324603 19.832265
Se -11.319436 -5.659718 -16.989488
Se -11.319436 -2.827275 -19.821931
Se -8.486993 -2.827275 -16.989488
Se -8.486993 -5.659718 -19.821931
Se -11.319436 -5.659718 -11.324603
Se -11.319436 -2.827275 -14.157046
Se -8.486993 -2.827275 -11.324603
Se -8.486993 -5.659718 -14.157046
Se -11.319436 -5.659718 -5.659718
Se -11.319436 -2.827275 -8.492161
Se -8.486993 -2.827275 -5.659718
Se -8.486993 -5.659718 -8.492161
Se -11.319436 -5.659718 0.005167
Se -11.319436 -2.827275 -2.827275
Se -8.486993 -2.827275 0.005167
Se -8.486993 -5.659718 -2.827275
Se -11.319436 -5.659718 5.670052
Se -11.319436 -2.827275 2.837610
Se -8.486993 -2.827275 5.670052
Se -8.486993 -5.659718 2.837610
Se -11.319436 -5.659718 11.334937
Se -11.319436 -2.827275 8.502495
Se -8.486993 -2.827275 11.334937
Se -8.486993 -5.659718 8.502495
Se -11.319436 -5.659718 16.999822
Se -11.319436 -2.827275 14.167380
Se -8.486993 -2.827275 16.999822
Se -8.486993 -5.659718 14.167380
Se -11.319436 -2.827275 19.832265
Se -8.486993 -5.659718 19.832265
Se -11.319436 0.005167 -16.989488
Se -11.319436 2.837610 -19.821931
Se -8.486993 2.837610 -16.989488
Se -8.486993 0.005167 -19.821931
Se -11.319436 0.005167 -11.324603
Se -11.319436 2.837610 -14.157046
Se -8.486993 2.837610 -11.324603
Se -8.486993 0.005167 -14.157046
Se -11.319436 0.005167 -5.659718
Se -11.319436 2.837610 -8.492161
Se -8.486993 2.837610 -5.659718
Se -8.486993 0.005167 -8.492161
Se -11.319436 0.005167 0.005167
Se -11.319436 2.837610 -2.827275
Se -8.486993 2.837610 0.005167
Se -8.486993 0.005167 -2.827275
Se -11.319436 0.005167 5.670052
Se -11.319436 2.837610 2.837610
Se -8.486993 2.837610 5.670052
Se -8.486993 0.005167 2.837610
Se -11.319436 0.005167 11.334937
Se -11.319436 2.837610 8.502495
Se -8.486993 2.837610 11.334937
Se -8.486993 0.005167 8.502495
Se -11.319436 0.005167 16.999822
Se -11.319436 2.837610 14.167380
Se -8.486993 2.837610 16.999822
Se -8.486993 0.005167 14.167380
Se -11.319436 2.837610 19.832265
Se -8.486993 0.005167 19.832265
Se -11.319436 5.670052 -16.989488
Se -11.319436 8.502495 -19.821931
Se -8.486993 8.502495 -16.989488
Se -8.486993 5.670052 -19.821931
Se -11.319436 5.670052 -11.324603
Se -11.319436 8.502495 -14.157046
Se -8.486993 8.502495 -11.324603
Se -8.486993 5.670052 -14.157046
Se -11.319436 5.670052 -5.659718
Se -11.319436 8.502495 -8.492161
Se -8.486993 8.502495 -5.659718
Se -8.486993 5.670052 -8.492161
Se -11.319436 5.670052 0.005167
Se -11.319436 8.502495 -2.827275
Se -8.486993 8.502495 0.005167
Se -8.486993 5.670052 -2.827275
Se -11.319436 5.670052 5.670052
Se -11.319436 8.502495 2.837610
Se -8.486993 8.502495 5.670052
Se -8.486993 5.670052 2.837610
Se -11.319436 5.670052 11.334937
Se -11.319436 8.502495 8.502495
Se -8.486993 8.502495 11.334937
Se -8.486993 5.670052 8.502495
Se -11.319436 5.670052 16.999822
Se -11.319436 8.502495 14.167380
Se -8.486993 8.502495 16.999822
Se -8.486993 5.670052 14.167380
Se -11.319436 8.502495 19.832265
Se -8.486993 5.670052 19.832265
Se -11.319436 11.334937 -16.989488
Se -8.486993 14.167380 -16.989488
Se -8.486993 11.334937 -19.821931
Se -11.319436 11.334937 -11.324603
Se -11.319436 14.167380 -14.157046
Se -8.486993 14.167380 -11.324603
Se -8.486993 11.334937 -14.157046
Se -11.319436 11.334937 -5.659718
Se -11.319436 14.167380 -8.492161
Se -8.486993 14.167380 -5.659718
Se -8.486993 11.334937 -8.492161
Se -11.319436 11.334937 0.005167
Se -11.319436 14.167380 -2.827275
Se -8.486993 14.167380 0.005167
Se -8.486993 11.334937 -2.827275
Se -11.319436 11.334937 5.670052
Se -11.319436 14.167380 2.837610
Se -8.486993 14.167380 5.670052
Se -8.486993 11.334937 2.837610
Se -11.319436 11.334937 11.334937
Se -11.319436 14.167380 8.502495
Se -8.486993 14.167380 11.334937
Se -8.486993 11.334937 8.502495
Se -11.319436 11.334937 16.999822
Se -11.319436 14.167380 14.167380
Se -8.486993 14.167380 16.999822
Se -8.486993 11.334937 14.167380
Se -8.486993 11.334937 19.832265
Se -11.319436 16.999822 -11.324603
Se -8.486993 19.832265 -11.324603
Se -8.486993 16.999822 -14.157046
Se -11.319436 16.999822 -5.659718
Se -11.319436 19.832265 -8.492161
Se -8.486993 19.832265 -5.659718
Se -8.486993 16.999822 -8.492161
Se -11.319436 16.999822 0.005167
Se -11.319436 19.832265 -2.827275
Se -8.486993 19.832265 0.005167
Se -8.486993 16.999822 -2.827275
Se -11.319436 16.999822 5.670052
Se -11.319436 19.832265 2.837610
Se -8.486993 19.832265 5.670052
Se -8.486993 16.999822 2.837610
Se -11.319436 16.999822 11.334937
Se -11.319436 19.832265 8.502495
Se -8.486993 19.832265 11.334937
Se -8.486993 16.999822 8.502495
Se -8.486993 16.999822 14.167380
Se -2.822108 -19.821931 -16.989488
Se -5.654551 -19.821931 -14.157046
Se -2.822108 -19.821931 -11.324603
Se -5.654551 -19.821931 -8.492161
Se -2.822108 -19.821931 -5.659718
Se -5.654551 -19.821931 -2.827275
Se -2.822108 -19.821931 0.005167
Se -5.654551 -19.821931 2.837610
Se -2.822108 -19.821931 5.670052
Se -5.654551 -19.821931 8.502495
Se -2.822108 -19.821931 11.334937
Se -5.654551 -19.821931 14.167380
Se -2.822108 -19.821931 16.999822
Se -5.654551 -16.989488 -16.989488
Se -5.654551 -14.157046 -19.821931
Se -2.822108 -14.157046 -16.989488
Se -2.822108 -16.989488 -19.821931
Se -5.654551 -16.989488 -11.324603
Se -5.654551 -14.157046 -14.157046
Se -2.822108 -14.157046 -11.324603
Se -2.822108 -16.989488 -14.157046
Se -5.654551 -16.989488 -5.659718
Se -5.654551 -14.157046 -8.492161
Se -2.822108 -14.157046 -5.659718
Se -2.822108 -16.989488 -8.492161
Se -5.654551 -16.989488 0.005167
Se -5.654551 -14.157046 -2.827275
Se -2.822108 -14.157046 0.005167
Se -2.822108 -16.989488 -2.827275
Se -5.654551 -16.989488 5.670052
Se -5.654551 -14.157046 2.837610
Se -2.822108 -14.157046 5.670052
Se -2.822108 -16.989488 2.837610
Se -5.654551 -16.989488 11.334937
Se -5.654551 -14.157046 8.502495
Se -2.822108 -14.157046 11.334937
Se -2.822108 -16.989488 8.502495
Se -5.654551 -16.989488 16.999822
Se -5.654551 -14.157046 14.167380
Se -2.822108 -14.157046 16.999822
Se -2.822108 -16.989488 14.167380
Se -5.654551 -14.157046 19.832265
Se -2.822108 -16.989488 19.832265
Se -5.654551 -11.324603 -16.989488
Se -5.654551 -8.492161 -19.821931
Se -2.822108 -8.492161 -16.989488
Se -2.822108 -11.324603 -19.821931
Se -5.654551 -11.324603 -11.324603
Se -5.654551 -8.492161 -14.157046
Se -2.822108 -8.492161 -11.324603
Se -2.822108 -11.324603 -14.157046
Se -5.654551 -11.324603 -5.659718
Se -5.654551 -8.492161 -8.492161
Se -2.822108 -8.492161 -5.659718
Se -2.822108 -11.324603 -8.492161
Se -5.654551 -11.324603 0.005167
Se -5.654551 -8.492161 -2.827275
Se -2.822108 -8.492161 0.005167
Se -2.822108 -11.324603 -2.827275
Se -5.654551 -11.324603 5.670052
Se -5.654551 -8.492161 2.837610
Se -2.822108 -8.492161 5.670052
Se -2.822108 -11.324603 2.837610
Se -5.654551 -11.324603 11.334937
Se -5.654551 -8.492161 8.502495
Se -2.822108 -8.492161 11.334937
Se -2.822108 -11.324603 8.502495
Se -5.654551 -11.324603 16.999822
Se -5.654551 -8.492161 14.167380
Se -2.822108 -8.492161 16.999822
Se -2.822108 -11.324603 14.167380
Se -5.654551 -8.492161 19.832265
Se -2.822108 -11.324603 19.832265
Se -5.654551 -5.659718 -16.989488
Se -5.654551 -2.827275 -19.821931
Se -2.822108 -2.827275 -16.989488
Se -2.822108 -5.659718 -19.821931
Se -5.654551 -5.659718 -11.324603
Se -5.654551 -2.827275 -14.157046
Se -2.822108 -2.827275 -11.324603
Se -2.822108 -5.659718 -14.157046
Se -5.654551 -5.659718 -5.659718
Se -5.654551 -2.827275 -8.492161
Se -2.822108 -2.827275 -5.659718
Se -2.822108 -5.659718 -8.492161
Se -5.654551 -5.659718 0.005167
Se -5.654551 -2.827275 -2.827275
Se -2.822108 -2.827275 0.005167
Se -2.822108 -5.659718 -2.827275
Se -5.654551 -5.659718 5.670052
Se -5.654551 -2.827275 2.837610
Se -2.822108 -2.827275 5.670052
Se -2.822108 -5.659718 2.837610
Se -5.654551 -5.659718 11.334937
Se -5.654551 -2.827275 8.502495
Se -2.822108 -2.827275 11.334937
Se -2.822108 -5.659718 8.502495
Se -5.654551 -5.659718 16.999822
Se -5.654551 -2.827275 14.167380
Se -2.822108 -2.827275 16.999822
Se -2.822108 -5.659718 14.167380
Se -5.654551 -2.827275 19.832265
Se -2.822108 -5.659718 19.832265
Se -5.654551 0.005167 -16.989488
Se -5.654551 2.837610 -19.821931
Se -2.822108 2.837610 -16.989488
Se -2.822108 0.005167 -19.821931
Se -5.654551 0.005167 -11.324603
Se -5.654551 2.837610 -14.157046
Se -2.822108 2.837610 -11.324603
Se -2.822108 0.005167 -14.157046
Se -5.654551 0.005167 -5.659718
Se -5.654551 2.837610 -8.492161
Se -2.822108 2.837610 -5.659718
Se -2.822108 0.005167 -8.492161
Se -5.654551 0.005167 0.005167
Se -5.654551 2.837610 -2.827275
Se -2.822108 2.837610 0.005167
Se -2.822108 0.005167 -2.827275
Se -5.654551 0.005167 5.670052
Se -5.654551 2.837610 2.837610
Se -2.822108 2.837610 5.670052
Se -2.822108 0.005167 2.837610
Se -5.654551 0.005167 11.334937
Se -5.654551 2.837610 8.502495
Se -2.822108 2.837610 11.334937
Se -2.822108 0.005167 8.502495
Se -5.654551 0.005167 16.999822
Se -5.654551 2.837610 14.167380
Se -2.822108 2.837610 16.999822
Se -2.822108 0.005167 14.167380
Se -5.654551 2.837610 19.832265
Se -2.822108 0.005167 19.832265
Se -5.654551 5.670052 -16.989488
Se -5.654551 8.502495 -19.821931
Se -2.822108 8.502495 -16.989488
Se -2.822108 5.670052 -19.821931
Se -5.654551 5.670052 -11.324603
Se -5.654551 8.502495 -14.157046
Se -2.822108 8.502495 -11.324603
Se -2.822108 5.670052 -14.157046
Se -5.654551 5.670052 -5.659718
Se -5.654551 8.502495 -8.492161
Se -2.822108 8.502495 -5.659718
Se -2.822108 5.670052 -8.492161
Se -5.654551 5.670052 0.005167
Se -5.654551 8.502495 -2.827275
Se -2.822108 8.502495 0.005167
Se -2.822108 5.670052 -2.827275
Se -5.654551 5.670052 5.670052
Se -5.654551 8.502495 2.837610
Se -2.822108 8.502495 5.670052
Se -2.822108 5.670052 2.837610
Se -5.654551 5.670052 11.334937
Se -5.654551 8.502495 8.502495
Se -2.822108 8.502495 11.334937
Se -2.822108 5.670052 8.502495
Se -5.654551 5.670052 16.999822
Se -5.654551 8.502495 14.167380
Se -2.822108 8.502495 16.999822
Se -2.822108 5.670052 14.167380
Se -5.654551 8.502495 19.832265
Se -2.822108 5.670052 19.832265
Se -5.654551 11.334937 -16.989488
Se -5.654551 14.167380 -19.821931
Se -2.822108 14.167380 -16.989488
Se -2.822108 11.334937 -19.821931
Se -5.654551 11.334937 -11.324603
Se -5.654551 14.167380 -14.157046
Se -2.822108 14.167380 -11.324603
Se -2.822108 11.334937 -14.157046
Se -5.654551 11.334937 -5.659718
Se -5.654551 14.167380 -8.492161
Se -2.822108 14.167380 -5.659718
Se -2.822108 11.334937 -8.492161
Se -5.654551 11.334937 0.005167
Se -5.654551 14.167380 -2.827275
Se -2.822108 14.167380 0.005167
Se -2.822108 11.334937 -2.827275
Se -5.654551 11.334937 5.670052
Se -5.654551 14.167380 2.837610
Se -2.822108 14.167380 5.670052
Se -2.822108 11.334937 2.837610
Se -5.654551 11.334937 11.334937
Se -5.654551 14.167380 8.502495
Se -2.822108 14.167380 11.334937
Se -2.822108 11.334937 8.502495
Se -5.654551 11.334937 16.999822
Se -5.654551 14.167380 14.167380
Se -2.822108 14.167380 16.999822
Se -2.822108 11.334937 14.167380
Se -5.654551 14.167380 19.832265
Se -2.822108 11.334937 19.832265
Se -5.654551 16.999822 -16.989488
Se -2.822108 19.832265 -16.989488
Se -2.822108 16.999822 -19.821931
Se -5.654551 16.999822 -11.324603
Se -5.654551 19.832265 -14.157046
Se -2.822108 19.832265 -11.324603
Se -2.822108 16.999822 -14.157046
Se -5.654551 16.999822 -5.659718
Se -5.654551 19.832265 -8.492161
Se -2.822108 19.832265 -5.659718
Se -2.822108 16.999822 -8.492161
Se -5.654551 16.999822 0.005167
Se -5.654551 19.832265 -2.827275
Se -2.822108 19.832265 0.005167
Se -2.822108 16.999822 -2.827275
Se -5.654551 16.999822 5.670052
Se -5.654551 19.832265 2.837610
Se -2.822108 19.832265 5.670052
Se -2.822108 16.999822 2.837610
Se -5.654551 16.999822 11.334937
Se -5.654551 19.832265 8.502495
Se -2.822108 19.832265 11.334937
Se -2.822108 16.999822 8.502495
Se -5.654551 16.999822 16.999822
Se -5.654551 19.832265 14.167380
Se -2.822108 19.832265 16.999822
Se -2.822108 16.999822 14.167380
Se -2.822108 16.999822 19.832265
Se 0.010334 -19.821931 -19.821931
Se 2.842777 -19.821931 -16.989488
Se 0.010334 -19.821931 -14.157046
Se 2.842777 -19.821931 -11.324603
Se 0.010334 -19.821931 -8.492161
Se 2.842777 -19.821931 -5.659718
Se 0.010334 -19.821931 -2.827275
Se 2.842777 -19.821931 0.005167
Se 0.010334 -19.821931 2.837610
Se 2.842777 -19.821931 5.670052
Se 0.010334 -19.821931 8.502495
Se 2.842777 -19.821931 11.334937
Se 0.010334 -19.821931 14.167380
Se 2.842777 -19.821931 16.999822
Se 0.010334 -19.821931 19.832265
Se 0.010334 -16.989488 -16.989488
Se 0.010334 -14.157046 -19.821931
Se 2.842777 -14.157046 -16.989488
Se 2.842777 -16.989488 -19.821931
Se 0.010334 -16.989488 -11.324603
Se 0.010334 -14.157046 -14.157046
Se 2.842777 -14.157046 -11.324603
Se 2.842777 -16.989488 -14.157046
Se 0.010334 -16.989488 -5.659718
Se 0.010334 -14.157046 -8.492161
Se 2.842777 -14.157046 -5.659718
Se 2.842777 -16.989488 -8.492161
Se 0.010334 -16.989488 0.005167
Se 0.010334 -14.157046 -2.827275
Se 2.842777 -14.157046 0.005167
Se 2.842777 -16.989488 -2.827275
Se 0.010334 -16.989488 5.670052
Se 0.010334 -14.157046 2.837610
Se 2.842777 -14.157046 5.670052
Se 2.842777 -16.989488 2.837610
Se 0.010334 -16.989488 11.334937
Se 0.010334 -14.157046 8.502495
Se 2.842777 -14.157046 11.334937
Se 2.842777 -16.989488 8.502495
Se 0.010334 -16.989488 16.999822
Se 0.010334 -14.157046 14.167380
Se 2.842777 -14.157046 16.999822
Se 2.842777 -16.989488 14.167380
Se 0.010334 -14.157046 19.832265
Se 2.842777 -16.989488 19.832265
Se 0.010334 -11.324603 -16.989488
Se 0.010334 -8.492161 -19.821931
Se 2.842777 -8.492161 -16.989488
Se 2.842777 -11.324603 -19.821931
Se 0.010334 -11.324603 -11.324603
Se 0.010334 -8.492161 -14.157046
Se 2.842777 -8.492161 -11.324603
Se 2.842777 -11.324603 -14.157046
Se 0.010334 -11.324603 -5.659718
Se 0.010334 -8.492161 -8.492161
Se 2.842777 -8.492161 -5.659718
Se 2.842777 -11.324603 -8.492161
Se 0.010334 -11.324603 0.005167
Se 0.010334 -8.492161 -2.827275
Se 2.842777 -8.492161 0.005167
Se 2.842777 -11.324603 -2.827275
Se 0.010334 -11.324603 5.670052
Se 0.010334 -8.492161 2.837610
Se 2.842777 -8.492161 5.670052
Se 2.842777 -11.324603 2.837610
Se 0.010334 -11.324603 11.334937
Se 0.010334 -8.492161 8.502495
Se 2.842777 -8.492161 11.334937
Se 2.842777 -11.324603 8.502495
Se 0.010334 -11.324603 16.999822
Se 0.010334 -8.492161 14.167380
Se 2.842777 -8.492161 16.999822
Se 2.842777 -11.324603 14.167380
Se 0.010334 -8.492161 19.832265
Se 2.842777 -11.324603 19.832265
Se 0.010334 -5.659718 -16.989488
Se 0.010334 -2.827275 -19.821931
Se 2.842777 -2.827275 -16.989488
Se 2.842777 -5.659718 -19.821931
Se 0.010334 -5.659718 -11.324603
Se 0.010334 -2.827275 -14.157046
Se 2.842777 -2.827275 -11.324603
Se 2.842777 -5.659718 -14.157046
Se 0.010334 -5.659718 -5.659718
Se 0.010334 -2.827275 -8.492161
Se 2.842777 -2.827275 -5.659718
Se 2.842777 -5.659718 -8.492161
Se 0.010334 -5.659718 0.005167
Se 0.010334 -2.827275 -2.827275
Se 2.842777 -2.827275 0.005167
Se 2.842777 -5.659718 -2.827275
Se 0.010334 -5.659718 5.670052
Se 0.010334 -2.827275 2.837610
Se 2.842777 -2.827275 5.670052
Se 2.842777 -5.659718 2.837610
Se 0.010334 -5.659718 11.334937
Se 0.010334 -2.827275 8.502495
Se 2.842777 -2.827275 11.334937
Se 2.842777 -5.659718 8.502495
Se 0.010334 -5.659718 16.999822
Se 0.010334 -2.827275 14.167380
Se 2.842777 -2.827275 16.999822
Se 2.842777 -5.659718 14.167380
Se 0.010334 -2.827275 19.832265
Se 2.842777 -5.659718 19.832265
Se 0.010334 0.005167 -16.989488
Se 0.010334 2.837610 -19.821931
Se 2.842777 2.837610 -16.989488
Se 2.842777 0.005167 -19.821931
Se 0.010334 0.005167 -11.324603
Se 0.010334 2.837610 -14.157046
Se 2.842777 2.837610 -11.324603
Se 2.842777 0.005167 -14.157046
Se 0.010334 0.005167 -5.659718
Se 0.010334 2.837610 -8.492161
Se 2.842777 2.837610 -5.659718
Se 2.842777 0.005167 -8.492161
Se 0.010334 0.005167 0.005167
Se 0.010334 2.837610 -2.827275
Se 2.842777 2.837610 0.005167
Se 2.842777 0.005167 -2.827275
Se 0.010334 0.005167 5.670052
Se 0.010334 2.837610 2.837610
Se 2.842777 2.837610 5.670052
Se 2.842777 0.005167 2.837610
Se 0.010334 0.005167 11.334937
Se 0.010334 2.837610 8.502495
Se 2.842777 2.837610 11.334937
Se 2.842777 0.005167 8.502495
Se 0.010334 0.005167 16.999822
Se 0.010334 2.837610 14.167380
Se 2.842777 2.837610 16.999822
Se 2.842777 0.005167 14.167380
Se 0.010334 2.837610 19.832265
Se 2.842777 0.005167 19.832265
Se 0.010334 5.670052 -16.989488
Se 0.010334 8.502495 -19.821931
Se 2.842777 8.502495 -16.989488
Se 2.842777 5.670052 -19.821931
Se 0.010334 5.670052 -11.324603
Se 0.010334 8.502495 -14.157046
Se 2.842777 8.502495 -11.324603
Se 2.842777 5.670052 -14.157046
Se 0.010334 5.670052 -5.659718
Se 0.010334 8.502495 -8.492161
Se 2.842777 8.502495 -5.659718
Se 2.842777 5.670052 -8.492161
Se 0.010334 5.670052 0.005167
Se 0.010334 8.502495 -2.827275
Se 2.842777 8.502495 0.005167
Se 2.842777 5.670052 -2.827275
Se 0.010334 5.670052 5.670052
Se 0.010334 8.502495 2.837610
Se 2.842777 8.502495 5.670052
Se 2.842777 5.670052 2.837610
Se 0.010334 5.670052 11.334937
Se 0.010334 8.502495 8.502495
Se 2.842777 8.502495 11.334937
Se 2.842777 5.670052 8.502495
Se 0.010334 5.670052 16.999822
Se 0.010334 8.502495 14.167380
Se 2.842777 8.502495 16.999822
Se 2.842777 5.670052 14.167380
Se 0.010334 8.502495 19.832265
Se 2.842777 5.670052 19.832265
Se 0.010334 11.334937 -16.989488
Se 0.010334 14.167380 -19.821931
Se 2.842777 14.167380 -16.989488
Se 2.842777 11.334937 -19.821931
Se 0.010334 11.334937 -11.324603
Se 0.010334 14.167380 -14.157046
Se 2.842777 14.167380 -11.324603
Se 2.842777 11.334937 -14.157046
Se 0.010334 11.334937 -5.659718
Se 0.010334 14.167380 -8.492161
Se 2.842777 14.167380 -5.659718
Se 2.842777 11.334937 -8.492161
Se 0.010334 11.334937 0.005167
Se 0.010334 14.167380 -2.827275
Se 2.842777 14.167380 0.005167
Se 2.842777 11.334937 -2.827275
Se 0.010334 11.334937 5.670052
Se 0.010334 14.167380 2.837610
Se 2.842777 14.167380 5.670052
Se 2.842777 11.334937 2.837610
Se 0.010334 11.334937 11.334937
Se 0.010334 14.167380 8.502495
Se 2.842777 14.167380 11.334937
Se 2.842777 11.334937 8.502495
Se 0.010334 11.334937 16.999822
Se 0.010334 14.167380 14.167380
Se 2.842777 14.167380 16.999822
Se 2.842777 11.334937 14.167380
Se 0.010334 14.167380 19.832265
Se 2.842777 11.334937 19.832265
Se 0.010334 16.999822 -16.989488
Se 0.010334 19.832265 -19.821931
Se 2.842777 19.832265 -16.989488
Se 2.842777 16.999822 -19.821931
Se 0.010334 16.999822 -11.324603
Se 0.010334 19.832265 -14.157046
Se 2.842777 19.832265 -11.324603
Se 2.842777 16.999822 -14.157046
Se 0.010334 16.999822 -5.659718
Se 0.010334 19.832265 -8.492161
Se 2.842777 19.832265 -5.659718
Se 2.842777 16.999822 -8.492161
Se 0.010334 16.999822 0.005167
Se 0.010334 19.832265 -2.827275
Se 2.842777 19.832265 0.005167
Se 2.842777 16.999822 -2.827275
Se 0.010334 16.999822 5.670052
Se 0.010334 19.832265 2.837610
Se 2.842777 19.832265 5.670052
Se 2.842777 16.999822 2.837610
Se 0.010334 16.999822 11.334937
Se 0.010334 19.832265 8.502495
Se 2.842777 19.832265 11.334937
Se 2.842777 16.999822 8.502495
Se 0.010334 16.999822 16.999822
Se 0.010334 19.832265 14.167380
Se 2.842777 19.832265 16.999822
Se 2.842777 16.999822 14.167380
Se 0.010334 19.832265 19.832265
Se 2.842777 16.999822 19.832265
Se 5.675219 -19.821931 -14.157046
Se 8.507662 -19.821931 -11.324603
Se 5.675219 -19.821931 -8.492161
Se 8.507662 -19.821931 -5.659718
Se 5.675219 -19.821931 -2.827275
Se 8.507662 -19.821931 0.005167
Se 5.675219 -19.821931 2.837610
Se 8.507662 -19.821931 5.670052
Se 5.675219 -19.821931 8.502495
Se 8.507662 -19.821931 11.334937
Se 5.675219 -19.821931 14.167380
Se 5.675219 -16.989488 -16.989488
Se 5.675219 -14.157046 -19.821931
Se 8.507662 -14.157046 -16.989488
Se 5.675219 -16.989488 -11.324603
Se 5.675219 -14.157046 -14.157046
Se 8.507662 -14.157046 -11.324603
Se 8.507662 -16.989488 -14.157046
Se 5.675219 -16.989488 -5.659718
Se 5.675219 -14.157046 -8.492161
Se 8.507662 -14.157046 -5.659718
Se 8.507662 -16.989488 -8.492161
Se 5.675219 -16.989488 0.005167
Se 5.675219 -14.157046 -2.827275
Se 8.507662 -14.157046 0.005167
Se 8.507662 -16.989488 -2.827275
Se 5.675219 -16.989488 5.670052
Se 5.675219 -14.157046 2.837610
Se 8.507662 -14.157046 5.670052
Se 8.507662 -16.989488 2.837610
Se 5.675219 -16.989488 11.334937
Se 5.675219 -14.157046 8.502495
Se 8.507662 -14.157046 11.334937
Se 8.507662 -16.989488 8.502495
Se 5.675219 -16.989488 16.999822
Se 5.675219 -14.157046 14.167380
Se 8.507662 -14.157046 16.999822
Se 8.507662 -16.989488 14.167380
Se 5.675219 -14.157046 19.832265
Se 5.675219 -11.324603 -16.989488
Se 5.675219 -8.492161 -19.821931
Se 8.507662 -8.492161 -16.989488
Se 8.507662 -11.324603 -19.821931
Se 5.675219 -11.324603 -11.324603
Se 5.675219 -8.492161 -14.157046
Se 8.507662 -8.492161 -11.324603
Se 8.507662 -11.324603 -14.157046
Se 5.675219 -11.324603 -5.659718
Se 5.675219 -8.492161 -8.492161
Se 8.507662 -8.492161 -5.659718
Se 8.507662 -11.324603 -8.492161
Se 5.675219 -11.324603 0.005167
Se 5.675219 -8.492161 -2.827275
Se 8.507662 -8.492161 0.005167
Se 8.507662 -11.324603 -2.827275
Se 5.675219 -11.324603 5.670052
Se 5.675219 -8.492161 2.837610
Se 8.507662 -8.492161 5.670052
Se 8.507662 -11.324603 2.837610
Se 5.675219 -11.324603 11.334937
Se 5.675219 -8.492161 8.502495
Se 8.507662 -8.492161 11.334937
Se 8.507662 -11.324603 8.502495
Se 5.675219 -11.324603 16.999822
Se 5.675219 -8.492161 14.167380
Se 8.507662 -8.492161 16.999822
Se 8.507662 -11.324603 14.167380
Se 5.675219 -8.492161 19.832265
Se 8.507662 -11.324603 19.832265
Se 5.675219 -5.659718 -16.989488
Se 5.675219 -2.827275 -19.821931
Se 8.507662 -2.827275 -16.989488
Se 8.507662 -5.659718 -19.821931
Se 5.675219 -5.659718 -11.324603
Se 5.675219 -2.827275 -14.157046
Se 8.507662 -2.827275 -11.324603
Se 8.507662 -5.659718 -14.157046
Se 5.675219 -5.659718 -5.659718
Se 5.675219 -2.827275 -8.492161
Se 8.507662 -2.827275 -5.659718
Se 8.507662 -5.659718 -8.492161
Se 5.675219 -5.659718 0.005167
Se 5.675219 -2.827275 -2.827275
Se 8.507662 -2.827275 0.005167
Se 8.507662 -5.659718 -2.827275
Se 5.675219 -5.659718 5.670052
Se 5.675219 -2.827275 2.837610
Se 8.507662 -2.827275 5.670052
Se 8.507662 -5.659718 2.837610
Se 5.675219 -5.659718 11.334937
Se 5.675219 -2.827275 8.502495
Se 8.507662 -2.827275 11.334937
Se 8.507662 -5.659718 8.502495
Se 5.675219 -5.659718 16.999822
Se 5.675219 -2.827275 14.167380
Se 8.507662 -2.827275 16.999822
Se 8.507662 -5.659718 14.167380
Se 5.675219 -2.827275 19.832265
Se 8.507662 -5.659718 19.832265
Se 5.675219 0.005167 -16.989488
Se 5.675219 2.837610 -19.821931
Se 8.507662 2.837610 -16.989488
Se 8.507662 0.005167 -19.821931
Se 5.675219 0.005167 -11.324603
Se 5.675219 2.837610 -14.157046
Se 8.507662 2.837610 -11.324603
Se 8.507662 0.005167 -14.157046
Se 5.675219 0.005167 -5.659718
Se 5.675219 2.837610 -8.492161
Se 8.507662 2.837610 -5.659718
Se 8.507662 0.005167 -8.492161
Se 5.675219 0.005167 0.005167
Se 5.675219 2.837610 -2.827275
Se 8.507662 2.837610 0.005167
Se 8.507662 0.005167 -2.827275
Se 5.675219 0.005167 5.670052
Se 5.675219 2.837610 2.837610
Se 8.507662 2.837610 5.670052
Se 8.507662 0.005167 2.837610
Se 5.675219 0.005167 11.334937
Se 5.675219 2.837610 8.502495
Se 8.507662 2.837610 11.334937
Se 8.507662 0.005167 8.502495
Se 5.675219 0.005167 16.999822
Se 5.675219 2.837610 14.167380
Se 8.507662 2.837610 16.999822
Se 8.507662 0.005167 14.167380
Se 5.675219 2.837610 19.832265
Se 8.507662 0.005167 19.832265
Se 5.675219 5.670052 -16.989488
Se 5.675219 8.502495 -19.821931
Se 8.507662 8.502495 -16.989488
Se 8.507662 5.670052 -19.821931
Se 5.675219 5.670052 -11.324603
Se 5.675219 8.502495 -14.157046
Se 8.507662 8.502495 -11.324603
Se 8.507662 5.670052 -14.157046
Se 5.675219 5.670052 -5.659718
Se 5.675219 8.502495 -8.492161
Se 8.507662 8.502495 -5.659718
Se 8.507662 5.670052 -8.492161
Se 5.675219 5.670052 0.005167
Se 5.675219 8.502495 -2.827275
Se 8.507662 8.502495 0.005167
Se 8.507662 5.670052 -2.827275
Se 5.675219 5.670052 5.670052
Se 5.675219 8.502495 2.837610
Se 8.507662 8.502495 5.670052
Se 8.507662 5.670052 2.837610
Se 5.675219 5.670052 11.334937
Se 5.675219 8.502495 8.502495
Se 8.507662 8.502495 11.334937
Se 8.507662 5.670052 8.502495
Se 5.675219 5.670052 16.999822
Se 5.675219 8.502495 14.167380
Se 8.507662 8.502495 16.999822
Se 8.507662 5.670052 14.167380
Se 5.675219 8.502495 19.832265
Se 8.507662 5.670052 19.832265
Se 5.675219 11.334937 -16.989488
Se 5.675219 14.167380 -19.821931
Se 8.507662 14.167380 -16.989488
Se 8.507662 11.334937 -19.821931
Se 5.675219 11.334937 -11.324603
Se 5.675219 14.167380 -14.157046
Se 8.507662 14.167380 -11.324603
Se 8.507662 11.334937 -14.157046
Se 5.675219 11.334937 -5.659718
Se 5.675219 14.167380 -8.492161
Se 8.507662 14.167380 -5.659718
Se 8.507662 11.334937 -8.492161
Se 5.675219 11.334937 0.005167
Se 5.675219 14.167380 -2.827275
Se 8.507662 14.167380 0.005167
Se 8.507662 11.334937 -2.827275
Se 5.675219 11.334937 5.670052
Se 5.675219 14.167380 2.837610
Se 8.507662 14.167380 5.670052
Se 8.507662 11.334937 2.837610
Se 5.675219 11.334937 11.334937
Se 5.675219 14.167380 8.502495
Se 8.507662 14.167380 11.334937
Se 8.507662 11.334937 8.502495
Se 5.675219 11.334937 16.999822
Se 5.675219 14.167380 14.167380
Se 8.507662 14.167380 16.999822
Se 8.507662 11.334937 14.167380
Se 5.675219 14.167380 19.832265
Se 8.507662 11.334937 19.832265
Se 5.675219 16.999822 -16.989488
Se 5.675219 16.999822 -11.324603
Se 5.675219 19.832265 -14.157046
Se 8.507662 19.832265 -11.324603
Se 8.507662 16.999822 -14.157046
Se 5.675219 16.999822 -5.659718
Se 5.675219 19.832265 -8.492161
Se 8.507662 19.832265 -5.659718
Se 8.507662 16.999822 -8.492161
Se 5.675219 16.999822 0.005167
Se 5.675219 19.832265 -2.827275
Se 8.507662 19.832265 0.005167
Se 8.507662 16.999822 -2.827275
Se 5.675219 16.999822 5.670052
Se 5.675219 19.832265 2.837610
Se 8.507662 19.832265 5.670052
Se 8.507662 16.999822 2.837610
Se 5.675219 16.999822 11.334937
Se 5.675219 19.832265 8.502495
Se 8.507662 19.832265 11.334937
Se 8.507662 16.999822 8.502495
Se 5.675219 16.999822 16.999822
Se 5.675219 19.832265 14.167380
Se 8.507662 16.999822 14.167380
Se 11.340104 -19.821931 -8.492161
Se 14.172547 -19.821931 -5.659718
Se 11.340104 -19.821931 -2.827275
Se 14.172547 -19.821931 0.005167
Se 11.340104 -19.821931 2.837610
Se 14.172547 -19.821931 5.670052
Se 11.340104 -19.821931 8.502495
Se 11.340104 -16.989488 -11.324603
Se 11.340104 -14.157046 -14.157046
Se 14.172547 -14.157046 -11.324603
Se 11.340104 -16.989488 -5.659718
Se 11.340104 -14.157046 -8.492161
Se 14.172547 -14.157046 -5.659718
Se 14.172547 -16.989488 -8.492161
Se 11.340104 -16.989488 0.005167
Se 11.340104 -14.157046 -2.827275
Se 14.172547 -14.157046 0.005167
Se 14.172547 -16.989488 -2.827275
Se 11.340104 -16.989488 5.670052
Se 11.340104 -14.157046 2.837610
Se 14.172547 -14.157046 5.670052
Se 14.172547 -16.989488 2.837610
Se 11.340104 -16.989488 11.334937
Se 11.340104 -14.157046 8.502495
Se 14.172547 -14.157046 11.334937
Se 14.172547 -16.989488 8.502495
Se 11.340104 -14.157046 14.167380
Se 11.340104 -11.324603 -16.989488
Se 11.340104 -8.492161 -19.821931
Se 14.172547 -8.492161 -16.989488
Se 11.340104 -11.324603 -11.324603
Se 11.340104 -8.492161 -14.157046
Se 14.172547 -8.492161 -11.324603
Se 14.172547 -11.324603 -14.157046
Se 11.340104 -11.324603 -5.659718
Se 11.340104 -8.492161 -8.492161
Se 14.172547 -8.492161 -5.659718
Se 14.172547 -11.324603 -8.492161
Se 11.340104 -11.324603 0.005167
Se 11.340104 -8.492161 -2.827275
Se 14.172547 -8.492161 0.005167
Se 14.172547 -11.324603 -2.827275
Se 11.340104 -11.324603 5.670052
Se 11.340104 -8.492161 2.837610
Se 14.172547 -8.492161 5.670052
Se 14.172547 -11.324603 2.837610
Se 11.340104 -11.324603 11.334937
Se 11.340104 -8.492161 8.502495
Se 14.172547 -8.492161 11.334937
Se 14.172547 -11.324603 8.502495
Se 11.340104 -11.324603 16.999822
Se 11.340104 -8.492161 14.167380
Se 14.172547 -8.492161 16.999822
Se 14.172547 -11.324603 14.167380
Se 11.340104 -8.492161 19.832265
Se 11.340104 -5.659718 -16.989488
Se 11.340104 -2.827275 -19.821931
Se 14.172547 -2.827275 -16.989488
Se 14.172547 -5.659718 -19.821931
Se 11.340104 -5.659718 -11.324603
Se 11.340104 -2.827275 -14.157046
Se 14.172547 -2.827275 -11.324603
Se 14.172547 -5.659718 -14.157046
Se 11.340104 -5.659718 -5.659718
Se 11.340104 -2.827275 -8.492161
Se 14.172547 -2.827275 -5.659718
Se 14.172547 -5.659718 -8.492161
Se 11.340104 -5.659718 0.005167
Se 11.340104 -2.827275 -2.827275
Se 14.172547 -2.827275 0.005167
Se 14.172547 -5.659718 -2.827275
Se 11.340104 -5.659718 5.670052
Se 11.340104 -2.827275 2.837610
Se 14.172547 -2.827275 5.670052
Se 14.172547 -5.659718 2.837610
Se 11.340104 -5.659718 11.334937
Se 11.340104 -2.827275 8.502495
Se 14.172547 -2.827275 11.334937
Se 14.172547 -5.659718 8.502495
Se 11.340104 -5.659718 16.999822
Se 11.340104 -2.827275 14.167380
Se 14.172547 -2.827275 16.999822
Se 14.172547 -5.659718 14.167380
Se 11.340104 -2.827275 19.832265
Se 14.172547 -5.659718 19.832265
Se 11.340104 0.005167 -16.989488
Se 11.340104 2.837610 -19.821931
Se 14.172547 2.837610 -16.989488
Se 14.172547 0.005167 -19.821931
Se 11.340104 0.005167 -11.324603
Se 11.340104 2.837610 -14.157046
Se 14.172547 2.837610 -11.324603
Se 14.172547 0.005167 -14.157046
Se 11.340104 0.005167 -5.659718
Se 11.340104 2.837610 -8.492161
Se 14.172547 2.837610 -5.659718
Se 14.172547 0.005167 -8.492161
Se 11.340104 0.005167 0.005167
Se 11.340104 2.837610 -2.827275
Se 14.172547 2.837610 0.005167
Se 14.172547 0.005167 -2.827275
Se 11.340104 0.005167 5.670052
Se 11.340104 2.837610 2.837610
Se 14.172547 2.837610 5.670052
Se 14.172547 0.005167 2.837610
Se 11.340104 0.005167 11.334937
Se 11.340104 2.837610 8.502495
Se 14.172547 2.837610 11.334937
Se 14.172547 0.005167 8.502495
Se 11.340104 0.005167 16.999822
Se 11.340104 2.837610 14.167380
Se 14.172547 2.837610 16.999822
Se 14.172547 0.005167 14.167380
Se 11.340104 2.837610 19.832265
Se 14.172547 0.005167 19.832265
Se 11.340104 5.670052 -16.989488
Se 11.340104 8.502495 -19.821931
Se 14.172547 8.502495 -16.989488
Se 14.172547 5.670052 -19.821931
Se 11.340104 5.670052 -11.324603
Se 11.340104 8.502495 -14.157046
Se 14.172547 8.502495 -11.324603
Se 14.172547 5.670052 -14.157046
Se 11.340104 5.670052 -5.659718
Se 11.340104 8.502495 -8.492161
Se 14.172547 8.502495 -5.659718
Se 14.172547 5.670052 -8.492161
Se 11.340104 5.670052 0.005167
Se 11.340104 8.502495 -2.827275
Se 14.172547 8.502495 0.005167
Se 14.172547 5.670052 -2.827275
Se 11.340104 5.670052 5.670052
Se 11.340104 8.502495 2.837610
Se 14.172547 8.502495 5.670052
Se 14.172547 5.670052 2.837610
Se 11.340104 5.670052 11.334937
Se 11.340104 8.502495 8.502495
Se 14.172547 8.502495 11.334937
Se 14.172547 5.670052 8.502495
Se 11.340104 5.670052 16.999822
Se 11.340104 8.502495 14.167380
Se 14.172547 8.502495 16.999822
Se 14.172547 5.670052 14.167380
Se 11.340104 8.502495 19.832265
Se 14.172547 5.670052 19.832265
Se 11.340104 11.334937 -16.989488
Se 11.340104 11.334937 -11.324603
Se 11.340104 14.167380 -14.157046
Se 14.172547 14.167380 -11.324603
Se 14.172547 11.334937 -14.157046
Se 11.340104 11.334937 -5.659718
Se 11.340104 14.167380 -8.492161
Se 14.172547 14.167380 -5.659718
Se 14.172547 11.334937 -8.492161
Se 11.340104 11.334937 0.005167
Se 11.340104 14.167380 -2.827275
Se 14.172547 14.167380 0.005167
Se 14.172547 11.334937 -2.827275
Se 11.340104 11.334937 5.670052
Se 11.340104 14.167380 2.837610
Se 14.172547 14.167380 5.670052
Se 14.172547 11.334937 2.837610
Se 11.340104 11.334937 11.334937
Se 11.340104 14.167380 8.502495
Se 14.172547 14.167380 11.334937
Se 14.172547 11.334937 8.502495
Se 11.340104 11.334937 16.999822
Se 11.340104 14.167380 14.167380
Se 14.172547 11.334937 14.167380
Se 11.340104 16.999822 -11.324603
Se 11.340104 16.999822 -5.659718
Se 11.340104 19.832265 -8.492161
Se 14.172547 19.832265 -5.659718
Se 14.172547 16.999822 -8.492161
Se 11.340104 16.999822 0.005167
Se 11.340104 19.832265 -2.827275
Se 14.172547 19.832265 0.005167
Se 14.172547 16.999822 -2.827275
Se 11.340104 16.999822 5.670052
Se 11.340104 19.832265 2.837610
Se 14.172547 19.832265 5.670052
Se 14.172547 16.999822 2.837610
Se 11.340104 16.999822 11.334937
Se 11.340104 19.832265 8.502495
Se 14.172547 16.999822 8.502495
Se 17.004989 -19.821931 -2.827275
Se 19.837432 -19.821931 0.005167
Se 17.004989 -19.821931 2.837610
Se 17.004989 -16.989488 -5.659718
Se 17.004989 -14.157046 -8.492161
Se 19.837432 -14.157046 -5.659718
Se 17.004989 -16.989488 0.005167
Se 17.004989 -14.157046 -2.827275
Se 19.837432 -14.157046 0.005167
Se 19.837432 -16.989488 -2.827275
Se 17.004989 -16.989488 5.670052
Se 17.004989 -14.157046 2.837610
Se 19.837432 -14.157046 5.670052
Se 19.837432 -16.989488 2.837610
Se 17.004989 -14.157046 8.502495
Se 17.004989 -11.324603 -11.324603
Se 17.004989 -8.492161 -14.157046
Se 19.837432 -8.492161 -11.324603
Se 17.004989 -11.324603 -5.659718
Se 17.004989 -8.492161 -8.492161
Se 19.837432 -8.492161 -5.659718
Se 19.837432 -11.324603 -8.492161
Se 17.004989 -11.324603 0.005167
Se 17.004989 -8.492161 -2.827275
Se 19.837432 -8.492161 0.005167
Se 19.837432 -11.324603 -2.827275
Se 17.004989 -11.324603 5.670052
Se 17.004989 -8.492161 2.837610
Se 19.837432 -8.492161 5.670052
Se 19.837432 -11.324603 2.837610
Se 17.004989 -11.324603 11.334937
Se 17.004989 -8.492161 8.502495
Se 19.837432 -8.492161 11.334937
Se 19.837432 -11.324603 8.502495
Se 17.004989 -8.492161 14.167380
Se 17.004989 -5.659718 -16.989488
Se 17.004989 -2.827275 -19.821931
Se 19.837432 -2.827275 -16.989488
Se 17.004989 -5.659718 -11.324603
Se 17.004989 -2.827275 -14.157046
Se 19.837432 -2.827275 -11.324603
Se 19.837432 -5.659718 -14.157046
Se 17.004989 -5.659718 -5.659718
Se 17.004989 -2.827275 -8.492161
Se 19.837432 -2.827275 -5.659718
Se 19.837432 -5.659718 -8.492161
Se 17.004989 -5.659718 0.005167
Se 17.004989 -2.827275 -2.827275
Se 19.837432 -2.827275 0.005167
Se 19.837432 -5.659718 -2.827275
Se 17.004989 -5.659718 5.670052
Se 17.004989 -2.827275 2.837610
Se 19.837432 -2.827275 5.670052
Se 19.837432 -5.659718 2.837610
Se 17.004989 -5.659718 11.334937
Se 17.004989 -2.827275 8.502495
Se 19.837432 -2.827275 11.334937
Se 19.837432 -5.659718 8.502495
Se 17.004989 -5.659718 16.999822
Se 17.004989 -2.827275 14.167380
Se 19.837432 -2.827275 16.999822
Se 19.837432 -5.659718 14.167380
Se 17.004989 -2.827275 19.832265
Se 17.004989 0.005167 -16.989488
Se 17.004989 2.837610 -19.821931
Se 19.837432 2.837610 -16.989488
Se 19.837432 0.005167 -19.821931
Se 17.004989 0.005167 -11.324603
Se 17.004989 2.837610 -14.157046
Se 19.837432 2.837610 -11.324603
Se 19.837432 0.005167 -14.157046
Se 17.004989 0.005167 -5.659718
Se 17.004989 2.837610 -8.492161
Se 19.837432 2.837610 -5.659718
Se 19.837432 0.005167 -8.492161
Se 17.004989 0.005167 0.005167
Se 17.004989 2.837610 -2.827275
Se 19.837432 2.837610 0.005167
Se 19.837432 0.005167 -2.827275
Se 17.004989 0.005167 5.670052
Se 17.004989 2.837610 2.837610
Se 19.837432 2.837610 5.670052
Se 19.837432 0.005167 2.837610
Se 17.004989 0.005167 11.334937
Se 17.004989 2.837610 8.502495
Se 19.837432 2.837610 11.334937
Se 19.837432 0.005167 8.502495
Se 17.004989 0.005167 16.999822
Se 17.004989 2.837610 14.167380
Se 19.837432 2.837610 16.999822
Se 19.837432 0.005167 14.167380
Se 17.004989 2.837610 19.832265
Se 19.837432 0.005167 19.832265
Se 17.004989 5.670052 -16.989488
Se 17.004989 5.670052 -11.324603
Se 17.004989 8.502495 -14.157046
Se 19.837432 8.502495 -11.324603
Se 19.837432 5.670052 -14.157046
Se 17.004989 5.670052 -5.659718
Se 17.004989 8.502495 -8.492161
Se 19.837432 8.502495 -5.659718
Se 19.837432 5.670052 -8.492161
Se 17.004989 5.670052 0.005167
Se 17.004989 8.502495 -2.827275
Se 19.837432 8.502495 0.005167
Se 19.837432 5.670052 -2.827275
Se 17.004989 5.670052 5.670052
Se 17.004989 8.502495 2.837610
Se 19.837432 8.502495 5.670052
Se 19.837432 5.670052 2.837610
Se 17.004989 5.670052 11.334937
Se 17.004989 8.502495 8.502495
Se 19.837432 8.502495 11.334937
Se 19.837432 5.670052 8.502495
Se 17.004989 5.670052 16.999822
Se 17.004989 8.502495 14.167380
Se 19.837432 5.670052 14.167380
Se 17.004989 11.334937 -11.324603
Se 17.004989 11.334937 -5.659718
Se 17.004989 14.167380 -8.492161
Se 19.837432 14.167380 -5.659718
Se 19.837432 11.334937 -8.492161
Se 17.004989 11.334937 0.005167
Se 17.004989 14.167380 -2.827275
Se 19.837432 14.167380 0.005167
Se 19.837432 11.334937 -2.827275
Se 17.004989 11.334937 5.670052
Se 17.004989 14.167380 2.837610
Se 19.837432 14.167380 5.670052
Se 19.837432 11.334937 2.837610
Se 17.004989 11.334937 11.334937
Se 17.004989 14.167380 8.502495
Se 19.837432 11.334937 8.502495
Se 17.004989 16.999822 -5.659718
Se 17.004989 16.999822 0.005167
Se 17.004989 19.832265 -2.827275
Se 19.837432 19.832265 0.005167
Se 19.837432 16.999822 -2.827275
Se 17.004989 16.999822 5.670052
Se 17.004989 19.832265 2.837610
Se 19.837432 16.999822 2.837610
Cl -22.649206 -16.989488 0.005167
Cl -22.649206 -14.157046 -2.827275
Cl -22.649206 -14.157046 2.837610
Cl -22.649206 -11.324603 -5.659718
Cl -22.649206 -8.492161 -8.492161
Cl -22.649206 -11.324603 0.005167
Cl -22.649206 -8.492161 -2.827275
Cl -22.649206 -11.324603 5.670052
Cl -22.649206 -8.492161 2.837610
Cl -22.649206 -8.492161 8.502495
Cl -22.649206 -5.659718 -11.324603
Cl -22.649206 -2.827275 -14.157046
Cl -22.649206 -5.659718 -5.659718
Cl -22.649206 -2.827275 -8.492161
Cl -22.649206 -5.659718 0.005167
Cl -22.649206 -2.827275 -2.827275
Cl -22.649206 -5.659718 5.670052
Cl -22.649206 -2.827275 2.837610
Cl -22.649206 -5.659718 11.334937
Cl -22.649206 -2.827275 8.502495
Cl -22.649206 -2.827275 14.167380
Cl -22.649206 0.005167 -16.989488
Cl -22.649206 0.005167 -11.324603
Cl -22.649206 2.837610 -14.157046
Cl -22.649206 0.005167 -5.659718
Cl -22.649206 2.837610 -8.492161
Cl -22.649206 0.005167 0.005167
Cl -22.649206 2.837610 -2.827275
Cl -22.649206 0.005167 5.670052
Cl -22.649206 2.837610 2.837610
Cl -22.649206 0.005167 11.334937
Cl -22.649206 2.837610 8.502495
Cl -22.649206 0.005167 16.999822
Cl -22.649206 2.837610 14.167380
Cl -22.649206 5.670052 -11.324603
Cl -22.649206 5.670052 -5.659718
Cl -22.649206 8.502495 -8.492161
Cl -22.649206 5.670052 0.005167
Cl -22.649206 8.502495 -2.827275
Cl -22.649206 5.670052 5.670052
Cl -22.649206 8.502495 2.837610
Cl -22.649206 5.670052 11.334937
Cl -22.649206 8.502495 8.502495
Cl -22.649206 11.334937 -5.659718
Cl -22.649206 11.334937 0.005167
Cl -22.649206 14.167380 -2.827275
Cl -22.649206 11.334937 5.670052
Cl -22.649206 14.167380 2.837610
Cl -22.649206 16.999822 0.005167
Cl -16.984321 -22.654373 0.005167
Cl -14.151878 -22.654373 -2.827275
Cl -14.151878 -22.654373 2.837610
Cl -14.151878 -2.827275 -22.654373
Cl -14.151878 -2.827275 22.664707
Cl -16.984321 0.005167 -22.654373
Cl -14.151878 2.837610 -22.654373
Cl -16.984321 0.005167 22.664707
Cl -14.151878 2.837610 22.664707
Cl -16.984321 22.664707 0.005167
Cl -14.151878 22.664707 -2.827275
Cl -14.151878 22.664707 2.837610
Cl -11.319436 -22.654373 -5.659718
Cl -8.486993 -22.654373 -8.492161
Cl -11.319436 -22.654373 0.005167
Cl -8.486993 -22.654373 -2.827275
Cl -11.319436 -22.654373 5.670052
Cl -8.486993 -22.654373 2.837610
Cl -8.486993 -22.654373 8.502495
Cl -8.486993 -8.492161 -22.654373
Cl -8.486993 -8.492161 22.664707
Cl -11.319436 -5.659718 -22.654373
Cl -8.486993 -2.827275 -22.654373
Cl -11.319436 -5.659718 22.664707
Cl -8.486993 -2.827275 22.664707
Cl -11.319436 0.005167 -22.654373
Cl -8.486993 2.837610 -22.654373
Cl -11.319436 0.005167 22.664707
Cl -8.486993 2.837610 22.664707
Cl -11.319436 5.670052 -22.654373
Cl -8.486993 8.502495 -22.654373
Cl -11.319436 5.670052 22.664707
Cl -8.486993 8.502495 22.664707
Cl -11.319436 22.664707 -5.659718
Cl -8.486993 22.664707 -8.492161
Cl -11.319436 22.664707 0.005167
Cl -8.486993 22.664707 -2.827275
Cl -11.319436 22.664707 5.670052
Cl -8.486993 22.664707 2.837610
Cl -8.486993 22.664707 8.502495
Cl -5.654551 -22.654373 -11.324603
Cl -2.822108 -22.654373 -14.157046
Cl -5.654551 -22.654373 -5.659718
Cl -2.822108 -22.654373 -8.492161
Cl -5.654551 -22.654373 0.005167
Cl -2.822108 -22.654373 -2.827275
Cl -5.654551 -22.654373 5.670052
Cl -2.822108 -22.654373 2.837610
Cl -5.654551 -22.654373 11.334937
Cl -2.822108 -22.654373 8.502495
Cl -2.822108 -22.654373 14.167380
Cl -2.822108 -14.157046 -22.654373
Cl -2.822108 -14.157046 22.664707
Cl -5.654551 -11.324603 -22.654373
Cl -2.822108 -8.492161 -22.654373
Cl -5.654551 -11.324603 22.664707
Cl -2.822108 -8.492161 22.664707
Cl -5.654551 -5.659718 -22.654373
Cl -2.822108 -2.827275 -22.654373
Cl -5.654551 -5.659718 22.664707
Cl -2.822108 -2.827275 22.664707
Cl -5.654551 0.005167 -22.654373
Cl -2.822108 2.837610 -22.654373
Cl -5.654551 0.005167 22.664707
Cl -2.822108 2.837610 22.664707
Cl -5.654551 5.670052 -22.654373
Cl -2.822108 8.502495 -22.654373
Cl -5.654551 5.670052 22.664707
Cl -2.822108 8.502495 22.664707
Cl -5.654551 11.334937 -22.654373
Cl -2.822108 14.167380 -22.654373
Cl -5.654551 11.334937 22.664707
Cl -2.822108 14.167380 22.664707
Cl -5.654551 22.664707 -11.324603
Cl -2.822108 22.664707 -14.157046
Cl -5.654551 22.664707 -5.659718
Cl -2.822108 22.664707 -8.492161
Cl -5.654551 22.664707 0.005167
Cl -2.822108 22.664707 -2.827275
Cl -5.654551 22.664707 5.670052
Cl -2.822108 22.664707 2.837610
Cl -5.654551 22.664707 11.334937
Cl -2.822108 22.664707 8.502495
Cl -2.822108 22.664707 14.167380
Cl 0.010334 -22.654373 -16.989488
Cl 0.010334 -22.654373 -11.324603
Cl 2.842777 -22.654373 -14.157046
Cl 0.010334 -22.654373 -5.659718
Cl 2.842777 -22.654373 -8.492161
Cl 0.010334 -22.654373 0.005167
Cl 2.842777 -22.654373 -2.827275
Cl 0.010334 -22.654373 5.670052
Cl 2.842777 -22.654373 2.837610
Cl 0.010334 -22.654373 11.334937
Cl 2.842777 -22.654373 8.502495
Cl 0.010334 -22.654373 16.999822
Cl 2.842777 -22.654373 14.167380
Cl 0.010334 -16.989488 -22.654373
Cl 2.842777 -14.157046 -22.654373
Cl 0.010334 -16.989488 22.664707
Cl 2.842777 -14.157046 22.664707
Cl 0.010334 -11.324603 -22.654373
Cl 2.842777 -8.492161 -22.654373
Cl 0.010334 -11.324603 22.664707
Cl 2.842777 -8.492161 22.664707
Cl 0.010334 -5.659718 -22.654373
Cl 2.842777 -2.827275 -22.654373
Cl 0.010334 -5.659718 22.664707
Cl 2.842777 -2.827275 22.664707
Cl 0.010334 0.005167 -22.654373
Cl 2.842777 2.837610 -22.654373
Cl 0.010334 0.005167 22.664707
Cl 2.842777 2.837610 22.664707
Cl 0.010334 5.670052 -22.654373
Cl 2.842777 8.502495 -22.654373
Cl 0.010334 5.670052 22.664707
Cl 2.842777 8.502495 22.664707
Cl 0.010334 11.334937 -22.654373
Cl 2.842777 14.167380 -22.654373
Cl 0.010334 11.334937 22.664707
Cl 2.842777 14.167380 22.664707
Cl 0.010334 16.999822 -22.654373
Cl 0.010334 16.999822 22.664707
Cl 0.010334 22.664707 -16.989488
Cl 0.010334 22.664707 -11.324603
Cl 2.842777 22.664707 -14.157046
Cl 0.010334 22.664707 -5.659718
Cl 2.842777 22.664707 -8.492161
Cl 0.010334 22.664707 0.005167
Cl 2.842777 22.664707 -2.827275
Cl 0.010334 22.664707 5.670052
Cl 2.842777 22.664707 2.837610
Cl 0.010334 22.664707 11.334937
Cl 2.842777 22.664707 8.502495
Cl 0.010334 22.664707 16.999822
Cl 2.842777 22.664707 14.167380
Cl 5.675219 -22.654373 -11.324603
Cl 5.675219 -22.654373 -5.659718
Cl 8.507662 -22.654373 -8.492161
Cl 5.675219 -22.654373 0.005167
Cl 8.507662 -22.654373 -2.827275
Cl 5.675219 -22.654373 5.670052
Cl 8.507662 -22.654373 2.837610
Cl 5.675219 -22.654373 11.334937
Cl 8.507662 -22.654373 8.502495
Cl 5.675219 -11.324603 -22.654373
Cl 8.507662 -8.492161 -22.654373
Cl 5.675219 -11.324603 22.664707
Cl 8.507662 -8.492161 22.664707
Cl 5.675219 -5.659718 -22.654373
Cl 8.507662 -2.827275 -22.654373
Cl 5.675219 -5.659718 22.664707
Cl 8.507662 -2.827275 22.664707
Cl 5.675219 0.005167 -22.654373
Cl 8.507662 2.837610 -22.654373
Cl 5.675219 0.005167 22.664707
Cl 8.507662 2.837610 22.664707
Cl 5.675219 5.670052 -22.654373
Cl 8.507662 8.502495 -22.654373
Cl 5.675219 5.670052 22.664707
Cl 8.507662 8.502495 22.664707
Cl 5.675219 11.334937 -22.654373
Cl 5.675219 11.334937 22.664707
Cl 5.675219 22.664707 -11.324603
Cl 5.675219 22.664707 -5.659718
Cl 8.507662 22.664707 -8.492161
Cl 5.675219 22.664707 0.005167
Cl 8.507662 22.664707 -2.827275
Cl 5.675219 22.664707 5.670052
Cl 8.507662 22.664707 2.837610
Cl 5.675219 22.664707 11.334937
Cl 8.507662 22.664707 8.502495
Cl 11.340104 -22.654373 -5.659718
Cl 11.340104 -22.654373 0.005167
Cl 14.172547 -22.654373 -2.827275
Cl 11.340104 -22.654373 5.670052
Cl 14.172547 -22.654373 2.837610
Cl 11.340104 -5.659718 -22.654373
Cl 14.172547 -2.827275 -22.654373
Cl 11.340104 -5.659718 22.664707
Cl 14.172547 -2.827275 22.664707
Cl 11.340104 0.005167 -22.654373
Cl 14.172547 2.837610 -22.654373
Cl 11.340104 0.005167 22.664707
Cl 14.172547 2.837610 22.664707
Cl 11.340104 5.670052 -22.654373
Cl 11.340104 5.670052 22.664707
Cl 11.340104 22.664707 -5.659718
Cl 11.340104 22.664707 0.005167
Cl 14.172547 22.664707 -2.827275
Cl 11.340104 22.664707 5.670052
Cl 14.172547 22.664707 2.837610
Cl 17.004989 -22.654373 0.005167
Cl 17.004989 0.005167 -22.654373
Cl 17.004989 0.005167 22.664707
Cl 17.004989 22.664707 0.005167
Cl 22.669875 -16.989488 0.005167
Cl 22.669875 -14.157046 -2.827275
Cl 22.669875 -14.157046 2.837610
Cl 22.669875 -11.324603 -5.659718
Cl 22.669875 -8.492161 -8.492161
Cl 22.669875 -11.324603 0.005167
Cl 22.669875 -8.492161 -2.827275
Cl 22.669875 -11.324603 5.670052
Cl 22.669875 -8.492161 2.837610
Cl 22.669875 -8.492161 8.502495
Cl 22.669875 -5.659718 -11.324603
Cl 22.669875 -2.827275 -14.157046
Cl 22.669875 -5.659718 -5.659718
Cl 22.669875 -2.827275 -8.492161
Cl 22.669875 -5.659718 0.005167
Cl 22.669875 -2.827275 -2.827275
Cl 22.669875 -5.659718 5.670052
Cl 22.669875 -2.827275 2.837610
Cl 22.669875 -5.659718 11.334937
Cl 22.669875 -2.827275 8.502495
Cl 22.669875 -2.827275 14.167380
Cl 22.669875 0.005167 -16.989488
Cl 22.669875 0.005167 -11.324603
Cl 22.669875 2.837610 -14.157046
Cl 22.669875 0.005167 -5.659718
Cl 22.669875 2.837610 -8.492161
Cl 22.669875 0.005167 0.005167
Cl 22.669875 2.837610 -2.827275
Cl 22.669875 0.005167 5.670052
Cl 22.669875 2.837610 2.837610
Cl 22.669875 0.005167 11.334937
Cl 22.669875 2.837610 8.502495
Cl 22.669875 0.005167 16.999822
Cl 22.669875 2.837610 14.167380
Cl 22.669875 5.670052 -11.324603
Cl 22.669875 5.670052 -5.659718
Cl 22.669875 8.502495 -8.492161
Cl 22.669875 5.670052 0.005167
Cl 22.669875 8.502495 -2.827275
Cl 22.669875 5.670052 5.670052
Cl 22.669875 8.502495 2.837610
Cl 22.669875 5.670052 11.334937
Cl 22.669875 8.502495 8.502495
Cl 22.669875 11.334937 -5.659718
Cl 22.669875 11.334937 0.005167
Cl 22.669875 14.167380 -2.827275
Cl 22.669875 11.334937 5.670052
Cl 22.669875 14.167380 2.837610
Cl 22.669875 16.999822 0.005167
Cl -14.151878 -14.157046 -14.157046
Cl -14.151878 14.167380 14.167380
Cl 14.172547 -14.157046 14.167380
Cl 14.172547 14.167380 -14.157046
Cl -19.816764 -19.821931 -2.827275
Cl -19.816764 2.837610 19.832265
Cl 2.842777 -19.821931 19.832265
Cl 2.842777 19.832265 -19.821931
Cl -19.816764 -2.827275 -19.821931
Cl -19.816764 19.832265 2.837610
Cl 19.837432 -19.821931 2.837610
Cl 19.837432 2.837610 -19.821931
