2198
InAs-As-In976As853Cl369-reconstructed
In -25.962220 -7.621401 -7.631126
In -25.962220 -10.674963 -10.684687
In -25.962220 -1.514278 -1.524002
In -25.962220 -4.567839 -4.577564
In -25.962220 4.592846 4.583121
In -25.962220 1.539284 1.529559
In -25.962220 10.699969 10.690244
In -25.962220 7.646407 7.636683
In -22.908659 -13.728524 -10.684687
In -19.855097 -13.728524 -7.631126
In -19.855097 -16.782086 -10.684687
In -22.908659 -10.674963 -13.738249
In -19.855097 -10.674963 -16.791811
In -22.908659 -10.674963 -7.631126
In -22.908659 -7.621401 -10.684687
In -19.855097 -7.621401 -7.631126
In -19.855097 -10.674963 -10.684687
In -22.908659 -7.621401 -4.577564
In -19.855097 -7.621401 -1.524002
In -19.855097 -10.674963 -4.577564
In -22.908659 -4.567839 -7.631126
In -19.855097 -1.514278 -7.631126
In -19.855097 -4.567839 -10.684687
In -22.908659 -4.567839 -1.524002
In -22.908659 -1.514278 -4.577564
In -19.855097 -1.514278 -1.524002
In -19.855097 -4.567839 -4.577564
In -22.908659 -1.514278 1.529559
In -19.855097 -1.514278 4.583121
In -19.855097 -4.567839 1.529559
In -22.908659 1.539284 -1.524002
In -19.855097 4.592846 -1.524002
In -19.855097 1.539284 -4.577564
In -22.908659 1.539284 4.583121
In -22.908659 4.592846 1.529559
In -19.855097 4.592846 4.583121
In -19.855097 1.539284 1.529559
In -22.908659 4.592846 7.636683
In -19.855097 4.592846 10.690244
In -19.855097 1.539284 7.636683
In -22.908659 7.646407 4.583121
In -19.855097 10.699969 4.583121
In -19.855097 7.646407 1.529559
In -22.908659 7.646407 10.690244
In -22.908659 10.699969 7.636683
In -19.855097 10.699969 10.690244
In -19.855097 7.646407 7.636683
In -22.908659 10.699969 13.743806
In -19.855097 10.699969 16.797368
In -22.908659 13.753531 10.690244
In -19.855097 16.807092 10.690244
In -19.855097 13.753531 7.636683
In -16.801535 -19.835648 -10.684687
In -13.747974 -19.835648 -7.631126
In -13.747974 -22.889209 -10.684687
In -16.801535 -16.782086 -13.738249
In -16.801535 -13.728524 -16.791811
In -13.747974 -13.728524 -13.738249
In -13.747974 -16.782086 -16.791811
In -16.801535 -13.728524 -10.684687
In -13.747974 -13.728524 -7.631126
In -13.747974 -16.782086 -10.684687
In -16.801535 -13.728524 -4.577564
In -13.747974 -13.728524 -1.524002
In -13.747974 -16.782086 -4.577564
In -16.801535 -10.674963 -19.845372
In -13.747974 -7.621401 -19.845372
In -13.747974 -10.674963 -22.898934
In -16.801535 -10.674963 -13.738249
In -16.801535 -7.621401 -16.791811
In -13.747974 -7.621401 -13.738249
In -13.747974 -10.674963 -16.791811
In -16.801535 -10.674963 -7.631126
In -16.801535 -7.621401 -10.684687
In -13.747974 -7.621401 -7.631126
In -13.747974 -10.674963 -10.684687
In -16.801535 -10.674963 -1.524002
In -16.801535 -7.621401 -4.577564
In -13.747974 -7.621401 -1.524002
In -13.747974 -10.674963 -4.577564
In -16.801535 -7.621401 1.529559
In -13.747974 -7.621401 4.583121
In -13.747974 -10.674963 1.529559
In -16.801535 -4.567839 -13.738249
In -13.747974 -1.514278 -13.738249
In -13.747974 -4.567839 -16.791811
In -16.801535 -4.567839 -7.631126
In -16.801535 -1.514278 -10.684687
In -13.747974 -1.514278 -7.631126
In -13.747974 -4.567839 -10.684687
In -16.801535 -4.567839 -1.524002
In -16.801535 -1.514278 -4.577564
In -13.747974 -1.514278 -1.524002
In -13.747974 -4.567839 -4.577564
In -16.801535 -4.567839 4.583121
In -16.801535 -1.514278 1.529559
In -13.747974 -1.514278 4.583121
In -13.747974 -4.567839 1.529559
In -16.801535 -1.514278 7.636683
In -13.747974 -1.514278 10.690244
In -13.747974 -4.567839 7.636683
In -16.801535 1.539284 -7.631126
In -13.747974 4.592846 -7.631126
In -13.747974 1.539284 -10.684687
In -16.801535 1.539284 -1.524002
In -16.801535 4.592846 -4.577564
In -13.747974 4.592846 -1.524002
In -13.747974 1.539284 -4.577564
In -16.801535 1.539284 4.583121
In -16.801535 4.592846 1.529559
In -13.747974 4.592846 4.583121
In -13.747974 1.539284 1.529559
In -16.801535 1.539284 10.690244
In -16.801535 4.592846 7.636683
In -13.747974 4.592846 10.690244
In -13.747974 1.539284 7.636683
In -16.801535 4.592846 13.743806
In -13.747974 4.592846 16.797368
In -13.747974 1.539284 13.743806
In -16.801535 7.646407 -1.524002
In -13.747974 10.699969 -1.524002
In -13.747974 7.646407 -4.577564
In -16.801535 7.646407 4.583121
In -16.801535 10.699969 1.529559
In -13.747974 10.699969 4.583121
In -13.747974 7.646407 1.529559
In -16.801535 7.646407 10.690244
In -16.801535 10.699969 7.636683
In -13.747974 10.699969 10.690244
In -13.747974 7.646407 7.636683
In -16.801535 7.646407 16.797368
In -16.801535 10.699969 13.743806
In -13.747974 10.699969 16.797368
In -13.747974 7.646407 13.743806
In -16.801535 10.699969 19.850929
In -13.747974 10.699969 22.904491
In -13.747974 7.646407 19.850929
In -16.801535 13.753531 4.583121
In -13.747974 16.807092 4.583121
In -13.747974 13.753531 1.529559
In -16.801535 13.753531 10.690244
In -13.747974 16.807092 10.690244
In -13.747974 13.753531 7.636683
In -16.801535 13.753531 16.797368
In -16.801535 16.807092 13.743806
In -13.747974 16.807092 16.797368
In -13.747974 13.753531 13.743806
In -16.801535 19.860654 10.690244
In -13.747974 22.914216 10.690244
In -13.747974 19.860654 7.636683
In -10.694412 -25.942771 -10.684687
In -7.640850 -25.942771 -7.631126
In -10.694412 -22.889209 -13.738249
In -10.694412 -19.835648 -16.791811
In -7.640850 -19.835648 -13.738249
In -10.694412 -22.889209 -7.631126
In -10.694412 -19.835648 -10.684687
In -7.640850 -19.835648 -7.631126
In -7.640850 -22.889209 -10.684687
In -10.694412 -19.835648 -4.577564
In -7.640850 -19.835648 -1.524002
In -7.640850 -22.889209 -4.577564
In -10.694412 -16.782086 -19.845372
In -10.694412 -13.728524 -22.898934
In -7.640850 -13.728524 -19.845372
In -10.694412 -16.782086 -13.738249
In -10.694412 -13.728524 -16.791811
In -7.640850 -13.728524 -13.738249
In -7.640850 -16.782086 -16.791811
In -10.694412 -16.782086 -7.631126
In -10.694412 -13.728524 -10.684687
In -7.640850 -13.728524 -7.631126
In -7.640850 -16.782086 -10.684687
In -10.694412 -16.782086 -1.524002
In -10.694412 -13.728524 -4.577564
In -7.640850 -13.728524 -1.524002
In -7.640850 -16.782086 -4.577564
In -10.694412 -13.728524 1.529559
In -7.640850 -13.728524 4.583121
In -7.640850 -16.782086 1.529559
In -10.694412 -10.674963 -25.952496
In -7.640850 -7.621401 -25.952496
In -10.694412 -10.674963 -19.845372
In -10.694412 -7.621401 -22.898934
In -7.640850 -7.621401 -19.845372
In -10.694412 -10.674963 -13.738249
In -10.694412 -7.621401 -16.791811
In -7.640850 -7.621401 -13.738249
In -7.640850 -10.674963 -16.791811
In -10.694412 -10.674963 -7.631126
In -10.694412 -7.621401 -10.684687
In -7.640850 -7.621401 -7.631126
In -7.640850 -10.674963 -10.684687
In -10.694412 -10.674963 -1.524002
In -10.694412 -7.621401 -4.577564
In -7.640850 -7.621401 -1.524002
In -7.640850 -10.674963 -4.577564
In -10.694412 -10.674963 4.583121
In -10.694412 -7.621401 1.529559
In -7.640850 -7.621401 4.583121
In -7.640850 -10.674963 1.529559
In -10.694412 -7.621401 7.636683
In -7.640850 -7.621401 10.690244
In -7.640850 -10.674963 7.636683
In -10.694412 -4.567839 -19.845372
In -7.640850 -1.514278 -19.845372
In -7.640850 -4.567839 -22.898934
In -10.694412 -4.567839 -13.738249
In -10.694412 -1.514278 -16.791811
In -7.640850 -1.514278 -13.738249
In -7.640850 -4.567839 -16.791811
In -10.694412 -4.567839 -7.631126
In -10.694412 -1.514278 -10.684687
In -7.640850 -1.514278 -7.631126
In -7.640850 -4.567839 -10.684687
In -10.694412 -4.567839 -1.524002
In -10.694412 -1.514278 -4.577564
In -7.640850 -1.514278 -1.524002
In -7.640850 -4.567839 -4.577564
In -10.694412 -4.567839 4.583121
In -10.694412 -1.514278 1.529559
In -7.640850 -1.514278 4.583121
In -7.640850 -4.567839 1.529559
In -10.694412 -4.567839 10.690244
In -10.694412 -1.514278 7.636683
In -7.640850 -1.514278 10.690244
In -7.640850 -4.567839 7.636683
In -10.694412 -1.514278 13.743806
In -7.640850 -1.514278 16.797368
In -7.640850 -4.567839 13.743806
In -10.694412 1.539284 -13.738249
In -7.640850 4.592846 -13.738249
In -7.640850 1.539284 -16.791811
In -10.694412 1.539284 -7.631126
In -10.694412 4.592846 -10.684687
In -7.640850 4.592846 -7.631126
In -7.640850 1.539284 -10.684687
In -10.694412 1.539284 -1.524002
In -10.694412 4.592846 -4.577564
In -7.640850 4.592846 -1.524002
In -7.640850 1.539284 -4.577564
In -10.694412 1.539284 4.583121
In -10.694412 4.592846 1.529559
In -7.640850 4.592846 4.583121
In -7.640850 1.539284 1.529559
In -10.694412 1.539284 10.690244
In -10.694412 4.592846 7.636683
In -7.640850 4.592846 10.690244
In -7.640850 1.539284 7.636683
In -10.694412 1.539284 16.797368
In -10.694412 4.592846 13.743806
In -7.640850 4.592846 16.797368
In -7.640850 1.539284 13.743806
In -10.694412 4.592846 19.850929
In -7.640850 4.592846 22.904491
In -7.640850 1.539284 19.850929
In -10.694412 7.646407 -7.631126
In -7.640850 10.699969 -7.631126
In -7.640850 7.646407 -10.684687
In -10.694412 7.646407 -1.524002
In -10.694412 10.699969 -4.577564
In -7.640850 10.699969 -1.524002
In -7.640850 7.646407 -4.577564
In -10.694412 7.646407 4.583121
In -10.694412 10.699969 1.529559
In -7.640850 10.699969 4.583121
In -7.640850 7.646407 1.529559
In -10.694412 7.646407 10.690244
In -10.694412 10.699969 7.636683
In -7.640850 10.699969 10.690244
In -7.640850 7.646407 7.636683
In -10.694412 7.646407 16.797368
In -10.694412 10.699969 13.743806
In -7.640850 10.699969 16.797368
In -7.640850 7.646407 13.743806
In -10.694412 7.646407 22.904491
In -10.694412 10.699969 19.850929
In -7.640850 7.646407 19.850929
In -10.694412 10.699969 25.958053
In -7.640850 7.646407 25.958053
In -10.694412 13.753531 -1.524002
In -7.640850 16.807092 -1.524002
In -7.640850 13.753531 -4.577564
In -10.694412 13.753531 4.583121
In -10.694412 16.807092 1.529559
In -7.640850 16.807092 4.583121
In -7.640850 13.753531 1.529559
In -10.694412 13.753531 10.690244
In -10.694412 16.807092 7.636683
In -7.640850 16.807092 10.690244
In -7.640850 13.753531 7.636683
In -10.694412 13.753531 16.797368
In -10.694412 16.807092 13.743806
In -7.640850 16.807092 16.797368
In -7.640850 13.753531 13.743806
In -10.694412 13.753531 22.904491
In -10.694412 16.807092 19.850929
In -7.640850 13.753531 19.850929
In -10.694412 19.860654 4.583121
In -7.640850 22.914216 4.583121
In -7.640850 19.860654 1.529559
In -10.694412 19.860654 10.690244
In -10.694412 22.914216 7.636683
In -7.640850 22.914216 10.690244
In -7.640850 19.860654 7.636683
In -10.694412 19.860654 16.797368
In -10.694412 22.914216 13.743806
In -7.640850 19.860654 13.743806
In -10.694412 25.967777 10.690244
In -7.640850 25.967777 7.636683
In -4.587289 -25.942771 -4.577564
In -1.533727 -25.942771 -1.524002
In -4.587289 -22.889209 -7.631126
In -4.587289 -19.835648 -10.684687
In -1.533727 -19.835648 -7.631126
In -4.587289 -22.889209 -1.524002
In -4.587289 -19.835648 -4.577564
In -1.533727 -19.835648 -1.524002
In -1.533727 -22.889209 -4.577564
In -4.587289 -19.835648 1.529559
In -1.533727 -19.835648 4.583121
In -1.533727 -22.889209 1.529559
In -4.587289 -16.782086 -13.738249
In -4.587289 -13.728524 -16.791811
In -1.533727 -13.728524 -13.738249
In -4.587289 -16.782086 -7.631126
In -4.587289 -13.728524 -10.684687
In -1.533727 -13.728524 -7.631126
In -1.533727 -16.782086 -10.684687
In -4.587289 -16.782086 -1.524002
In -4.587289 -13.728524 -4.577564
In -1.533727 -13.728524 -1.524002
In -1.533727 -16.782086 -4.577564
In -4.587289 -16.782086 4.583121
In -4.587289 -13.728524 1.529559
In -1.533727 -13.728524 4.583121
In -1.533727 -16.782086 1.529559
In -4.587289 -13.728524 7.636683
In -1.533727 -13.728524 10.690244
In -1.533727 -16.782086 7.636683
In -4.587289 -10.674963 -19.845372
In -4.587289 -7.621401 -22.898934
In -1.533727 -7.621401 -19.845372
In -4.587289 -10.674963 -13.738249
In -4.587289 -7.621401 -16.791811
In -1.533727 -7.621401 -13.738249
In -1.533727 -10.674963 -16.791811
In -4.587289 -10.674963 -7.631126
In -4.587289 -7.621401 -10.684687
In -1.533727 -7.621401 -7.631126
In -1.533727 -10.674963 -10.684687
In -4.587289 -10.674963 -1.524002
In -4.587289 -7.621401 -4.577564
In -1.533727 -7.621401 -1.524002
In -1.533727 -10.674963 -4.577564
In -4.587289 -10.674963 4.583121
In -4.587289 -7.621401 1.529559
In -1.533727 -7.621401 4.583121
In -1.533727 -10.674963 1.529559
In -4.587289 -10.674963 10.690244
In -4.587289 -7.621401 7.636683
In -1.533727 -7.621401 10.690244
In -1.533727 -10.674963 7.636683
In -4.587289 -7.621401 13.743806
In -1.533727 -7.621401 16.797368
In -1.533727 -10.674963 13.743806
In -4.587289 -4.567839 -25.952496
In -1.533727 -1.514278 -25.952496
In -4.587289 -4.567839 -19.845372
In -4.587289 -1.514278 -22.898934
In -1.533727 -1.514278 -19.845372
In -1.533727 -4.567839 -22.898934
In -4.587289 -4.567839 -13.738249
In -4.587289 -1.514278 -16.791811
In -1.533727 -1.514278 -13.738249
In -1.533727 -4.567839 -16.791811
In -4.587289 -4.567839 -7.631126
In -4.587289 -1.514278 -10.684687
In -1.533727 -1.514278 -7.631126
In -1.533727 -4.567839 -10.684687
In -4.587289 -4.567839 -1.524002
In -4.587289 -1.514278 -4.577564
In -1.533727 -1.514278 -1.524002
In -1.533727 -4.567839 -4.577564
In -4.587289 -4.567839 4.583121
In -4.587289 -1.514278 1.529559
In -1.533727 -1.514278 4.583121
In -1.533727 -4.567839 1.529559
In -4.587289 -4.567839 10.690244
In -4.587289 -1.514278 7.636683
In -1.533727 -1.514278 10.690244
In -1.533727 -4.567839 7.636683
In -4.587289 -4.567839 16.797368
In -4.587289 -1.514278 13.743806
In -1.533727 -1.514278 16.797368
In -1.533727 -4.567839 13.743806
In -4.587289 -1.514278 19.850929
In -1.533727 -1.514278 22.904491
In -1.533727 -4.567839 19.850929
In -4.587289 1.539284 -19.845372
In -1.533727 4.592846 -19.845372
In -1.533727 1.539284 -22.898934
In -4.587289 1.539284 -13.738249
In -4.587289 4.592846 -16.791811
In -1.533727 4.592846 -13.738249
In -1.533727 1.539284 -16.791811
In -4.587289 1.539284 -7.631126
In -4.587289 4.592846 -10.684687
In -1.533727 4.592846 -7.631126
In -1.533727 1.539284 -10.684687
In -4.587289 1.539284 -1.524002
In -4.587289 4.592846 -4.577564
In -1.533727 4.592846 -1.524002
In -1.533727 1.539284 -4.577564
In -4.587289 1.539284 4.583121
In -4.587289 4.592846 1.529559
In -1.533727 4.592846 4.583121
In -1.533727 1.539284 1.529559
In -4.587289 1.539284 10.690244
In -4.587289 4.592846 7.636683
In -1.533727 4.592846 10.690244
In -1.533727 1.539284 7.636683
In -4.587289 1.539284 16.797368
In -4.587289 4.592846 13.743806
In -1.533727 4.592846 16.797368
In -1.533727 1.539284 13.743806
In -4.587289 1.539284 22.904491
In -4.587289 4.592846 19.850929
In -1.533727 4.592846 22.904491
In -1.533727 1.539284 19.850929
In -4.587289 4.592846 25.958053
In -1.533727 1.539284 25.958053
In -4.587289 7.646407 -13.738249
In -1.533727 10.699969 -13.738249
In -1.533727 7.646407 -16.791811
In -4.587289 7.646407 -7.631126
In -4.587289 10.699969 -10.684687
In -1.533727 10.699969 -7.631126
In -1.533727 7.646407 -10.684687
In -4.587289 7.646407 -1.524002
In -4.587289 10.699969 -4.577564
In -1.533727 10.699969 -1.524002
In -1.533727 7.646407 -4.577564
In -4.587289 7.646407 4.583121
In -4.587289 10.699969 1.529559
In -1.533727 10.699969 4.583121
In -1.533727 7.646407 1.529559
In -4.587289 7.646407 10.690244
In -4.587289 10.699969 7.636683
In -1.533727 10.699969 10.690244
In -1.533727 7.646407 7.636683
In -4.587289 7.646407 16.797368
In -4.587289 10.699969 13.743806
In -1.533727 10.699969 16.797368
In -1.533727 7.646407 13.743806
In -4.587289 7.646407 22.904491
In -4.587289 10.699969 19.850929
In -1.533727 7.646407 19.850929
In -4.587289 13.753531 -7.631126
In -1.533727 16.807092 -7.631126
In -1.533727 13.753531 -10.684687
In -4.587289 13.753531 -1.524002
In -4.587289 16.807092 -4.577564
In -1.533727 16.807092 -1.524002
In -1.533727 13.753531 -4.577564
In -4.587289 13.753531 4.583121
In -4.587289 16.807092 1.529559
In -1.533727 16.807092 4.583121
In -1.533727 13.753531 1.529559
In -4.587289 13.753531 10.690244
In -4.587289 16.807092 7.636683
In -1.533727 16.807092 10.690244
In -1.533727 13.753531 7.636683
In -4.587289 13.753531 16.797368
In -4.587289 16.807092 13.743806
In -1.533727 13.753531 13.743806
In -4.587289 19.860654 -1.524002
In -1.533727 22.914216 -1.524002
In -1.533727 19.860654 -4.577564
In -4.587289 19.860654 4.583121
In -4.587289 22.914216 1.529559
In -1.533727 22.914216 4.583121
In -1.533727 19.860654 1.529559
In -4.587289 19.860654 10.690244
In -4.587289 22.914216 7.636683
In -1.533727 19.860654 7.636683
In -4.587289 25.967777 4.583121
In -1.533727 25.967777 1.529559
In 1.519835 -25.942771 1.529559
In 4.573396 -25.942771 4.583121
In 1.519835 -22.889209 -1.524002
In 1.519835 -19.835648 -4.577564
In 4.573396 -19.835648 -1.524002
In 1.519835 -22.889209 4.583121
In 1.519835 -19.835648 1.529559
In 4.573396 -19.835648 4.583121
In 4.573396 -22.889209 1.529559
In 1.519835 -19.835648 7.636683
In 4.573396 -19.835648 10.690244
In 4.573396 -22.889209 7.636683
In 1.519835 -16.782086 -7.631126
In 1.519835 -13.728524 -10.684687
In 4.573396 -13.728524 -7.631126
In 1.519835 -16.782086 -1.524002
In 1.519835 -13.728524 -4.577564
In 4.573396 -13.728524 -1.524002
In 4.573396 -16.782086 -4.577564
In 1.519835 -16.782086 4.583121
In 1.519835 -13.728524 1.529559
In 4.573396 -13.728524 4.583121
In 4.573396 -16.782086 1.529559
In 1.519835 -16.782086 10.690244
In 1.519835 -13.728524 7.636683
In 4.573396 -13.728524 10.690244
In 4.573396 -16.782086 7.636683
In 1.519835 -13.728524 13.743806
In 4.573396 -13.728524 16.797368
In 4.573396 -16.782086 13.743806
In 1.519835 -10.674963 -13.738249
In 1.519835 -7.621401 -16.791811
In 4.573396 -7.621401 -13.738249
In 1.519835 -10.674963 -7.631126
In 1.519835 -7.621401 -10.684687
In 4.573396 -7.621401 -7.631126
In 4.573396 -10.674963 -10.684687
In 1.519835 -10.674963 -1.524002
In 1.519835 -7.621401 -4.577564
In 4.573396 -7.621401 -1.524002
In 4.573396 -10.674963 -4.577564
In 1.519835 -10.674963 4.583121
In 1.519835 -7.621401 1.529559
In 4.573396 -7.621401 4.583121
In 4.573396 -10.674963 1.529559
In 1.519835 -10.674963 10.690244
In 1.519835 -7.621401 7.636683
In 4.573396 -7.621401 10.690244
In 4.573396 -10.674963 7.636683
In 1.519835 -10.674963 16.797368
In 1.519835 -7.621401 13.743806
In 4.573396 -7.621401 16.797368
In 4.573396 -10.674963 13.743806
In 1.519835 -7.621401 19.850929
In 4.573396 -7.621401 22.904491
In 4.573396 -10.674963 19.850929
In 1.519835 -4.567839 -19.845372
In 1.519835 -1.514278 -22.898934
In 4.573396 -1.514278 -19.845372
In 1.519835 -4.567839 -13.738249
In 1.519835 -1.514278 -16.791811
In 4.573396 -1.514278 -13.738249
In 4.573396 -4.567839 -16.791811
In 1.519835 -4.567839 -7.631126
In 1.519835 -1.514278 -10.684687
In 4.573396 -1.514278 -7.631126
In 4.573396 -4.567839 -10.684687
In 1.519835 -4.567839 -1.524002
In 1.519835 -1.514278 -4.577564
In 4.573396 -1.514278 -1.524002
In 4.573396 -4.567839 -4.577564
In 1.519835 -4.567839 4.583121
In 1.519835 -1.514278 1.529559
In 4.573396 -1.514278 4.583121
In 4.573396 -4.567839 1.529559
In 1.519835 -4.567839 10.690244
In 1.519835 -1.514278 7.636683
In 4.573396 -1.514278 10.690244
In 4.573396 -4.567839 7.636683
In 1.519835 -4.567839 16.797368
In 1.519835 -1.514278 13.743806
In 4.573396 -1.514278 16.797368
In 4.573396 -4.567839 13.743806
In 1.519835 -4.567839 22.904491
In 1.519835 -1.514278 19.850929
In 4.573396 -1.514278 22.904491
In 4.573396 -4.567839 19.850929
In 1.519835 -1.514278 25.958053
In 4.573396 -4.567839 25.958053
In 1.519835 1.539284 -25.952496
In 4.573396 4.592846 -25.952496
In 1.519835 1.539284 -19.845372
In 1.519835 4.592846 -22.898934
In 4.573396 4.592846 -19.845372
In 4.573396 1.539284 -22.898934
In 1.519835 1.539284 -13.738249
In 1.519835 4.592846 -16.791811
In 4.573396 4.592846 -13.738249
In 4.573396 1.539284 -16.791811
In 1.519835 1.539284 -7.631126
In 1.519835 4.592846 -10.684687
In 4.573396 4.592846 -7.631126
In 4.573396 1.539284 -10.684687
In 1.519835 1.539284 -1.524002
In 1.519835 4.592846 -4.577564
In 4.573396 4.592846 -1.524002
In 4.573396 1.539284 -4.577564
In 1.519835 1.539284 4.583121
In 1.519835 4.592846 1.529559
In 4.573396 4.592846 4.583121
In 4.573396 1.539284 1.529559
In 1.519835 1.539284 10.690244
In 1.519835 4.592846 7.636683
In 4.573396 4.592846 10.690244
In 4.573396 1.539284 7.636683
In 1.519835 1.539284 16.797368
In 1.519835 4.592846 13.743806
In 4.573396 4.592846 16.797368
In 4.573396 1.539284 13.743806
In 1.519835 1.539284 22.904491
In 1.519835 4.592846 19.850929
In 4.573396 1.539284 19.850929
In 1.519835 7.646407 -19.845372
In 4.573396 10.699969 -19.845372
In 4.573396 7.646407 -22.898934
In 1.519835 7.646407 -13.738249
In 1.519835 10.699969 -16.791811
In 4.573396 10.699969 -13.738249
In 4.573396 7.646407 -16.791811
In 1.519835 7.646407 -7.631126
In 1.519835 10.699969 -10.684687
In 4.573396 10.699969 -7.631126
In 4.573396 7.646407 -10.684687
In 1.519835 7.646407 -1.524002
In 1.519835 10.699969 -4.577564
In 4.573396 10.699969 -1.524002
In 4.573396 7.646407 -4.577564
In 1.519835 7.646407 4.583121
In 1.519835 10.699969 1.529559
In 4.573396 10.699969 4.583121
In 4.573396 7.646407 1.529559
In 1.519835 7.646407 10.690244
In 1.519835 10.699969 7.636683
In 4.573396 10.699969 10.690244
In 4.573396 7.646407 7.636683
In 1.519835 7.646407 16.797368
In 1.519835 10.699969 13.743806
In 4.573396 7.646407 13.743806
In 1.519835 13.753531 -13.738249
In 4.573396 16.807092 -13.738249
In 4.573396 13.753531 -16.791811
In 1.519835 13.753531 -7.631126
In 1.519835 16.807092 -10.684687
In 4.573396 16.807092 -7.631126
In 4.573396 13.753531 -10.684687
In 1.519835 13.753531 -1.524002
In 1.519835 16.807092 -4.577564
In 4.573396 16.807092 -1.524002
In 4.573396 13.753531 -4.577564
In 1.519835 13.753531 4.583121
In 1.519835 16.807092 1.529559
In 4.573396 16.807092 4.583121
In 4.573396 13.753531 1.529559
In 1.519835 13.753531 10.690244
In 1.519835 16.807092 7.636683
In 4.573396 13.753531 7.636683
In 1.519835 19.860654 -7.631126
In 4.573396 22.914216 -7.631126
In 4.573396 19.860654 -10.684687
In 1.519835 19.860654 -1.524002
In 1.519835 22.914216 -4.577564
In 4.573396 22.914216 -1.524002
In 4.573396 19.860654 -4.577564
In 1.519835 19.860654 4.583121
In 1.519835 22.914216 1.529559
In 4.573396 19.860654 1.529559
In 1.519835 25.967777 -1.524002
In 4.573396 25.967777 -4.577564
In 7.626958 -25.942771 7.636683
In 10.680520 -25.942771 10.690244
In 7.626958 -22.889209 4.583121
In 7.626958 -19.835648 1.529559
In 10.680520 -19.835648 4.583121
In 7.626958 -22.889209 10.690244
In 7.626958 -19.835648 7.636683
In 10.680520 -19.835648 10.690244
In 10.680520 -22.889209 7.636683
In 7.626958 -19.835648 13.743806
In 10.680520 -19.835648 16.797368
In 10.680520 -22.889209 13.743806
In 7.626958 -16.782086 -1.524002
In 7.626958 -13.728524 -4.577564
In 10.680520 -13.728524 -1.524002
In 7.626958 -16.782086 4.583121
In 7.626958 -13.728524 1.529559
In 10.680520 -13.728524 4.583121
In 10.680520 -16.782086 1.529559
In 7.626958 -16.782086 10.690244
In 7.626958 -13.728524 7.636683
In 10.680520 -13.728524 10.690244
In 10.680520 -16.782086 7.636683
In 7.626958 -16.782086 16.797368
In 7.626958 -13.728524 13.743806
In 10.680520 -13.728524 16.797368
In 10.680520 -16.782086 13.743806
In 7.626958 -13.728524 19.850929
In 10.680520 -13.728524 22.904491
In 10.680520 -16.782086 19.850929
In 7.626958 -10.674963 -7.631126
In 7.626958 -7.621401 -10.684687
In 10.680520 -7.621401 -7.631126
In 7.626958 -10.674963 -1.524002
In 7.626958 -7.621401 -4.577564
In 10.680520 -7.621401 -1.524002
In 10.680520 -10.674963 -4.577564
In 7.626958 -10.674963 4.583121
In 7.626958 -7.621401 1.529559
In 10.680520 -7.621401 4.583121
In 10.680520 -10.674963 1.529559
In 7.626958 -10.674963 10.690244
In 7.626958 -7.621401 7.636683
In 10.680520 -7.621401 10.690244
In 10.680520 -10.674963 7.636683
In 7.626958 -10.674963 16.797368
In 7.626958 -7.621401 13.743806
In 10.680520 -7.621401 16.797368
In 10.680520 -10.674963 13.743806
In 7.626958 -7.621401 19.850929
In 10.680520 -7.621401 22.904491
In 10.680520 -10.674963 19.850929
In 7.626958 -7.621401 25.958053
In 10.680520 -10.674963 25.958053
In 7.626958 -4.567839 -13.738249
In 7.626958 -1.514278 -16.791811
In 10.680520 -1.514278 -13.738249
In 7.626958 -4.567839 -7.631126
In 7.626958 -1.514278 -10.684687
In 10.680520 -1.514278 -7.631126
In 10.680520 -4.567839 -10.684687
In 7.626958 -4.567839 -1.524002
In 7.626958 -1.514278 -4.577564
In 10.680520 -1.514278 -1.524002
In 10.680520 -4.567839 -4.577564
In 7.626958 -4.567839 4.583121
In 7.626958 -1.514278 1.529559
In 10.680520 -1.514278 4.583121
In 10.680520 -4.567839 1.529559
In 7.626958 -4.567839 10.690244
In 7.626958 -1.514278 7.636683
In 10.680520 -1.514278 10.690244
In 10.680520 -4.567839 7.636683
In 7.626958 -4.567839 16.797368
In 7.626958 -1.514278 13.743806
In 10.680520 -1.514278 16.797368
In 10.680520 -4.567839 13.743806
In 7.626958 -4.567839 22.904491
In 7.626958 -1.514278 19.850929
In 10.680520 -4.567839 19.850929
In 7.626958 1.539284 -19.845372
In 7.626958 4.592846 -22.898934
In 10.680520 4.592846 -19.845372
In 7.626958 1.539284 -13.738249
In 7.626958 4.592846 -16.791811
In 10.680520 4.592846 -13.738249
In 10.680520 1.539284 -16.791811
In 7.626958 1.539284 -7.631126
In 7.626958 4.592846 -10.684687
In 10.680520 4.592846 -7.631126
In 10.680520 1.539284 -10.684687
In 7.626958 1.539284 -1.524002
In 7.626958 4.592846 -4.577564
In 10.680520 4.592846 -1.524002
In 10.680520 1.539284 -4.577564
In 7.626958 1.539284 4.583121
In 7.626958 4.592846 1.529559
In 10.680520 4.592846 4.583121
In 10.680520 1.539284 1.529559
In 7.626958 1.539284 10.690244
In 7.626958 4.592846 7.636683
In 10.680520 4.592846 10.690244
In 10.680520 1.539284 7.636683
In 7.626958 1.539284 16.797368
In 7.626958 4.592846 13.743806
In 10.680520 1.539284 13.743806
In 7.626958 7.646407 -25.952496
In 10.680520 10.699969 -25.952496
In 7.626958 7.646407 -19.845372
In 10.680520 10.699969 -19.845372
In 10.680520 7.646407 -22.898934
In 7.626958 7.646407 -13.738249
In 7.626958 10.699969 -16.791811
In 10.680520 10.699969 -13.738249
In 10.680520 7.646407 -16.791811
In 7.626958 7.646407 -7.631126
In 7.626958 10.699969 -10.684687
In 10.680520 10.699969 -7.631126
In 10.680520 7.646407 -10.684687
In 7.626958 7.646407 -1.524002
In 7.626958 10.699969 -4.577564
In 10.680520 10.699969 -1.524002
In 10.680520 7.646407 -4.577564
In 7.626958 7.646407 4.583121
In 7.626958 10.699969 1.529559
In 10.680520 10.699969 4.583121
In 10.680520 7.646407 1.529559
In 7.626958 7.646407 10.690244
In 7.626958 10.699969 7.636683
In 10.680520 7.646407 7.636683
In 7.626958 13.753531 -19.845372
In 10.680520 16.807092 -19.845372
In 10.680520 13.753531 -22.898934
In 7.626958 13.753531 -13.738249
In 7.626958 16.807092 -16.791811
In 10.680520 16.807092 -13.738249
In 10.680520 13.753531 -16.791811
In 7.626958 13.753531 -7.631126
In 7.626958 16.807092 -10.684687
In 10.680520 16.807092 -7.631126
In 10.680520 13.753531 -10.684687
In 7.626958 13.753531 -1.524002
In 7.626958 16.807092 -4.577564
In 10.680520 16.807092 -1.524002
In 10.680520 13.753531 -4.577564
In 7.626958 13.753531 4.583121
In 7.626958 16.807092 1.529559
In 10.680520 13.753531 1.529559
In 7.626958 19.860654 -13.738249
In 10.680520 22.914216 -13.738249
In 10.680520 19.860654 -16.791811
In 7.626958 19.860654 -7.631126
In 7.626958 22.914216 -10.684687
In 10.680520 22.914216 -7.631126
In 10.680520 19.860654 -10.684687
In 7.626958 19.860654 -1.524002
In 7.626958 22.914216 -4.577564
In 10.680520 19.860654 -4.577564
In 7.626958 25.967777 -7.631126
In 10.680520 25.967777 -10.684687
In 13.734081 -22.889209 10.690244
In 13.734081 -19.835648 7.636683
In 16.787643 -19.835648 10.690244
In 13.734081 -16.782086 4.583121
In 13.734081 -13.728524 1.529559
In 16.787643 -13.728524 4.583121
In 13.734081 -16.782086 10.690244
In 13.734081 -13.728524 7.636683
In 16.787643 -13.728524 10.690244
In 13.734081 -16.782086 16.797368
In 13.734081 -13.728524 13.743806
In 16.787643 -13.728524 16.797368
In 16.787643 -16.782086 13.743806
In 13.734081 -10.674963 -1.524002
In 13.734081 -7.621401 -4.577564
In 16.787643 -7.621401 -1.524002
In 13.734081 -10.674963 4.583121
In 13.734081 -7.621401 1.529559
In 16.787643 -7.621401 4.583121
In 16.787643 -10.674963 1.529559
In 13.734081 -10.674963 10.690244
In 13.734081 -7.621401 7.636683
In 16.787643 -7.621401 10.690244
In 16.787643 -10.674963 7.636683
In 13.734081 -10.674963 16.797368
In 13.734081 -7.621401 13.743806
In 16.787643 -7.621401 16.797368
In 16.787643 -10.674963 13.743806
In 13.734081 -10.674963 22.904491
In 13.734081 -7.621401 19.850929
In 16.787643 -10.674963 19.850929
In 13.734081 -4.567839 -7.631126
In 13.734081 -1.514278 -10.684687
In 16.787643 -1.514278 -7.631126
In 13.734081 -4.567839 -1.524002
In 13.734081 -1.514278 -4.577564
In 16.787643 -1.514278 -1.524002
In 16.787643 -4.567839 -4.577564
In 13.734081 -4.567839 4.583121
In 13.734081 -1.514278 1.529559
In 16.787643 -1.514278 4.583121
In 16.787643 -4.567839 1.529559
In 13.734081 -4.567839 10.690244
In 13.734081 -1.514278 7.636683
In 16.787643 -1.514278 10.690244
In 16.787643 -4.567839 7.636683
In 13.734081 -4.567839 16.797368
In 13.734081 -1.514278 13.743806
In 16.787643 -4.567839 13.743806
In 13.734081 1.539284 -13.738249
In 13.734081 4.592846 -16.791811
In 16.787643 4.592846 -13.738249
In 13.734081 1.539284 -7.631126
In 13.734081 4.592846 -10.684687
In 16.787643 4.592846 -7.631126
In 16.787643 1.539284 -10.684687
In 13.734081 1.539284 -1.524002
In 13.734081 4.592846 -4.577564
In 16.787643 4.592846 -1.524002
In 16.787643 1.539284 -4.577564
In 13.734081 1.539284 4.583121
In 13.734081 4.592846 1.529559
In 16.787643 4.592846 4.583121
In 16.787643 1.539284 1.529559
In 13.734081 1.539284 10.690244
In 13.734081 4.592846 7.636683
In 16.787643 1.539284 7.636683
In 13.734081 7.646407 -19.845372
In 13.734081 10.699969 -22.898934
In 16.787643 10.699969 -19.845372
In 13.734081 7.646407 -13.738249
In 13.734081 10.699969 -16.791811
In 16.787643 10.699969 -13.738249
In 16.787643 7.646407 -16.791811
In 13.734081 7.646407 -7.631126
In 13.734081 10.699969 -10.684687
In 16.787643 10.699969 -7.631126
In 16.787643 7.646407 -10.684687
In 13.734081 7.646407 -1.524002
In 13.734081 10.699969 -4.577564
In 16.787643 10.699969 -1.524002
In 16.787643 7.646407 -4.577564
In 13.734081 7.646407 4.583121
In 13.734081 10.699969 1.529559
In 16.787643 7.646407 1.529559
In 13.734081 13.753531 -13.738249
In 13.734081 16.807092 -16.791811
In 16.787643 16.807092 -13.738249
In 16.787643 13.753531 -16.791811
In 13.734081 13.753531 -7.631126
In 13.734081 16.807092 -10.684687
In 16.787643 13.753531 -10.684687
In 13.734081 13.753531 -1.524002
In 13.734081 16.807092 -4.577564
In 16.787643 13.753531 -4.577564
In 13.734081 19.860654 -7.631126
In 13.734081 22.914216 -10.684687
In 16.787643 19.860654 -10.684687
In 19.841205 -16.782086 10.690244
In 19.841205 -13.728524 7.636683
In 22.894766 -13.728524 10.690244
In 19.841205 -10.674963 4.583121
In 19.841205 -7.621401 1.529559
In 22.894766 -7.621401 4.583121
In 19.841205 -10.674963 10.690244
In 19.841205 -7.621401 7.636683
In 22.894766 -7.621401 10.690244
In 22.894766 -10.674963 7.636683
In 19.841205 -10.674963 16.797368
In 22.894766 -10.674963 13.743806
In 19.841205 -4.567839 -1.524002
In 19.841205 -1.514278 -4.577564
In 22.894766 -1.514278 -1.524002
In 19.841205 -4.567839 4.583121
In 19.841205 -1.514278 1.529559
In 22.894766 -1.514278 4.583121
In 22.894766 -4.567839 1.529559
In 19.841205 -4.567839 10.690244
In 19.841205 -1.514278 7.636683
In 22.894766 -4.567839 7.636683
In 19.841205 1.539284 -7.631126
In 19.841205 4.592846 -10.684687
In 22.894766 4.592846 -7.631126
In 19.841205 1.539284 -1.524002
In 19.841205 4.592846 -4.577564
In 22.894766 4.592846 -1.524002
In 22.894766 1.539284 -4.577564
In 19.841205 1.539284 4.583121
In 19.841205 4.592846 1.529559
In 22.894766 1.539284 1.529559
In 19.841205 10.699969 -16.791811
In 22.894766 10.699969 -13.738249
In 19.841205 7.646407 -7.631126
In 19.841205 10.699969 -10.684687
In 22.894766 10.699969 -7.631126
In 22.894766 7.646407 -10.684687
In 19.841205 7.646407 -1.524002
In 19.841205 10.699969 -4.577564
In 22.894766 7.646407 -4.577564
In 19.841205 13.753531 -7.631126
In 19.841205 16.807092 -10.684687
In 22.894766 13.753531 -10.684687
In 25.948328 -10.674963 10.690244
In 25.948328 -7.621401 7.636683
In 25.948328 -4.567839 4.583121
In 25.948328 -1.514278 1.529559
In 25.948328 1.539284 -1.524002
In 25.948328 4.592846 -4.577564
In 25.948328 7.646407 -7.631126
In 25.948328 10.699969 -10.684687
As -24.435439 -12.201743 -12.211468
As -21.381878 -9.148182 -12.211468
As -21.381878 -12.201743 -9.157906
As -24.435439 -9.148182 -9.157906
As -21.381878 -9.148182 -6.104345
As -21.381878 -6.094620 -9.157906
As -24.435439 -6.094620 -6.104345
As -21.381878 -3.041058 -6.104345
As -21.381878 -6.094620 -3.050783
As -24.435439 -3.041058 -3.050783
As -21.381878 -3.041058 0.002778
As -21.381878 0.012503 -3.050783
As -24.435439 0.012503 0.002778
As -21.381878 3.066065 0.002778
As -21.381878 0.012503 3.056340
As -24.435439 3.066065 3.056340
As -21.381878 3.066065 6.109902
As -21.381878 6.119627 3.056340
As -24.435439 6.119627 6.109902
As -21.381878 9.173188 6.109902
As -21.381878 6.119627 9.163463
As -24.435439 9.173188 9.163463
As -21.381878 9.173188 12.217025
As -21.381878 12.226750 9.163463
As -24.435439 12.226750 12.217025
As -18.328316 -18.308867 -12.211468
As -15.274755 -15.255305 -12.211468
As -15.274755 -18.308867 -9.157906
As -18.328316 -15.255305 -9.157906
As -15.274755 -15.255305 -6.104345
As -18.328316 -12.201743 -18.318591
As -15.274755 -9.148182 -18.318591
As -15.274755 -12.201743 -15.265030
As -18.328316 -9.148182 -15.265030
As -18.328316 -12.201743 -12.211468
As -15.274755 -9.148182 -12.211468
As -15.274755 -12.201743 -9.157906
As -18.328316 -9.148182 -9.157906
As -18.328316 -12.201743 -6.104345
As -15.274755 -9.148182 -6.104345
As -15.274755 -12.201743 -3.050783
As -18.328316 -9.148182 -3.050783
As -15.274755 -9.148182 0.002778
As -15.274755 -6.094620 -15.265030
As -18.328316 -6.094620 -12.211468
As -15.274755 -3.041058 -12.211468
As -15.274755 -6.094620 -9.157906
As -18.328316 -3.041058 -9.157906
As -18.328316 -6.094620 -6.104345
As -15.274755 -3.041058 -6.104345
As -15.274755 -6.094620 -3.050783
As -18.328316 -3.041058 -3.050783
As -18.328316 -6.094620 0.002778
As -15.274755 -3.041058 0.002778
As -15.274755 -6.094620 3.056340
As -18.328316 -3.041058 3.056340
As -15.274755 -3.041058 6.109902
As -15.274755 0.012503 -9.157906
As -18.328316 0.012503 -6.104345
As -15.274755 3.066065 -6.104345
As -15.274755 0.012503 -3.050783
As -18.328316 3.066065 -3.050783
As -18.328316 0.012503 0.002778
As -15.274755 3.066065 0.002778
As -15.274755 0.012503 3.056340
As -18.328316 3.066065 3.056340
As -18.328316 0.012503 6.109902
As -15.274755 3.066065 6.109902
As -15.274755 0.012503 9.163463
As -18.328316 3.066065 9.163463
As -15.274755 3.066065 12.217025
As -15.274755 6.119627 -3.050783
As -18.328316 6.119627 0.002778
As -15.274755 9.173188 0.002778
As -15.274755 6.119627 3.056340
As -18.328316 9.173188 3.056340
As -18.328316 6.119627 6.109902
As -15.274755 9.173188 6.109902
As -15.274755 6.119627 9.163463
As -18.328316 9.173188 9.163463
As -18.328316 6.119627 12.217025
As -15.274755 9.173188 12.217025
As -15.274755 6.119627 15.270587
As -18.328316 9.173188 15.270587
As -15.274755 9.173188 18.324148
As -15.274755 12.226750 3.056340
As -18.328316 12.226750 6.109902
As -15.274755 15.280311 6.109902
As -15.274755 12.226750 9.163463
As -18.328316 15.280311 9.163463
As -18.328316 12.226750 12.217025
As -15.274755 15.280311 12.217025
As -15.274755 12.226750 15.270587
As -18.328316 12.226750 18.324148
As -15.274755 18.333873 9.163463
As -18.328316 18.333873 12.217025
As -12.221193 -24.415990 -12.211468
As -9.167631 -21.362428 -12.211468
As -9.167631 -24.415990 -9.157906
As -12.221193 -21.362428 -9.157906
As -9.167631 -21.362428 -6.104345
As -12.221193 -18.308867 -18.318591
As -9.167631 -15.255305 -18.318591
As -9.167631 -18.308867 -15.265030
As -12.221193 -15.255305 -15.265030
As -12.221193 -18.308867 -12.211468
As -9.167631 -15.255305 -12.211468
As -9.167631 -18.308867 -9.157906
As -12.221193 -15.255305 -9.157906
As -12.221193 -18.308867 -6.104345
As -9.167631 -15.255305 -6.104345
As -9.167631 -18.308867 -3.050783
As -12.221193 -15.255305 -3.050783
As -9.167631 -15.255305 0.002778
As -12.221193 -12.201743 -24.425715
As -9.167631 -9.148182 -24.425715
As -9.167631 -12.201743 -21.372153
As -12.221193 -9.148182 -21.372153
As -12.221193 -12.201743 -18.318591
As -9.167631 -9.148182 -18.318591
As -9.167631 -12.201743 -15.265030
As -12.221193 -9.148182 -15.265030
As -12.221193 -12.201743 -12.211468
As -9.167631 -9.148182 -12.211468
As -9.167631 -12.201743 -9.157906
As -12.221193 -9.148182 -9.157906
As -12.221193 -12.201743 -6.104345
As -9.167631 -9.148182 -6.104345
As -9.167631 -12.201743 -3.050783
As -12.221193 -9.148182 -3.050783
As -12.221193 -12.201743 0.002778
As -9.167631 -9.148182 0.002778
As -9.167631 -12.201743 3.056340
As -12.221193 -9.148182 3.056340
As -9.167631 -9.148182 6.109902
As -9.167631 -6.094620 -21.372153
As -12.221193 -6.094620 -18.318591
As -9.167631 -3.041058 -18.318591
As -9.167631 -6.094620 -15.265030
As -12.221193 -3.041058 -15.265030
As -12.221193 -6.094620 -12.211468
As -9.167631 -3.041058 -12.211468
As -9.167631 -6.094620 -9.157906
As -12.221193 -3.041058 -9.157906
As -12.221193 -6.094620 -6.104345
As -9.167631 -3.041058 -6.104345
As -9.167631 -6.094620 -3.050783
As -12.221193 -3.041058 -3.050783
As -12.221193 -6.094620 0.002778
As -9.167631 -3.041058 0.002778
As -9.167631 -6.094620 3.056340
As -12.221193 -3.041058 3.056340
As -12.221193 -6.094620 6.109902
As -9.167631 -3.041058 6.109902
As -9.167631 -6.094620 9.163463
As -12.221193 -3.041058 9.163463
As -9.167631 -3.041058 12.217025
As -9.167631 0.012503 -15.265030
As -12.221193 0.012503 -12.211468
As -9.167631 3.066065 -12.211468
As -9.167631 0.012503 -9.157906
As -12.221193 3.066065 -9.157906
As -12.221193 0.012503 -6.104345
As -9.167631 3.066065 -6.104345
As -9.167631 0.012503 -3.050783
As -12.221193 3.066065 -3.050783
As -12.221193 0.012503 0.002778
As -9.167631 3.066065 0.002778
As -9.167631 0.012503 3.056340
As -12.221193 3.066065 3.056340
As -12.221193 0.012503 6.109902
As -9.167631 3.066065 6.109902
As -9.167631 0.012503 9.163463
As -12.221193 3.066065 9.163463
As -12.221193 0.012503 12.217025
As -9.167631 3.066065 12.217025
As -9.167631 0.012503 15.270587
As -12.221193 3.066065 15.270587
As -9.167631 3.066065 18.324148
As -9.167631 6.119627 -9.157906
As -12.221193 6.119627 -6.104345
As -9.167631 9.173188 -6.104345
As -9.167631 6.119627 -3.050783
As -12.221193 9.173188 -3.050783
As -12.221193 6.119627 0.002778
As -9.167631 9.173188 0.002778
As -9.167631 6.119627 3.056340
As -12.221193 9.173188 3.056340
As -12.221193 6.119627 6.109902
As -9.167631 9.173188 6.109902
As -9.167631 6.119627 9.163463
As -12.221193 9.173188 9.163463
As -12.221193 6.119627 12.217025
As -9.167631 9.173188 12.217025
As -9.167631 6.119627 15.270587
As -12.221193 9.173188 15.270587
As -12.221193 6.119627 18.324148
As -9.167631 9.173188 18.324148
As -9.167631 6.119627 21.377710
As -12.221193 9.173188 21.377710
As -9.167631 9.173188 24.431272
As -9.167631 12.226750 -3.050783
As -12.221193 12.226750 0.002778
As -9.167631 15.280311 0.002778
As -9.167631 12.226750 3.056340
As -12.221193 15.280311 3.056340
As -12.221193 12.226750 6.109902
As -9.167631 15.280311 6.109902
As -9.167631 12.226750 9.163463
As -12.221193 15.280311 9.163463
As -12.221193 12.226750 12.217025
As -9.167631 15.280311 12.217025
As -9.167631 12.226750 15.270587
As -12.221193 15.280311 15.270587
As -12.221193 12.226750 18.324148
As -9.167631 15.280311 18.324148
As -9.167631 12.226750 21.377710
As -12.221193 12.226750 24.431272
As -9.167631 18.333873 3.056340
As -12.221193 18.333873 6.109902
As -9.167631 21.387435 6.109902
As -9.167631 18.333873 9.163463
As -12.221193 21.387435 9.163463
As -12.221193 18.333873 12.217025
As -9.167631 21.387435 12.217025
As -9.167631 18.333873 15.270587
As -12.221193 18.333873 18.324148
As -9.167631 24.440996 9.163463
As -12.221193 24.440996 12.217025
As -6.114070 -21.362428 -9.157906
As -6.114070 -24.415990 -6.104345
As -3.060508 -21.362428 -6.104345
As -3.060508 -24.415990 -3.050783
As -6.114070 -21.362428 -3.050783
As -3.060508 -21.362428 0.002778
As -6.114070 -15.255305 -15.265030
As -6.114070 -18.308867 -12.211468
As -3.060508 -15.255305 -12.211468
As -3.060508 -18.308867 -9.157906
As -6.114070 -15.255305 -9.157906
As -6.114070 -18.308867 -6.104345
As -3.060508 -15.255305 -6.104345
As -3.060508 -18.308867 -3.050783
As -6.114070 -15.255305 -3.050783
As -6.114070 -18.308867 0.002778
As -3.060508 -15.255305 0.002778
As -3.060508 -18.308867 3.056340
As -6.114070 -15.255305 3.056340
As -3.060508 -15.255305 6.109902
As -6.114070 -9.148182 -21.372153
As -6.114070 -12.201743 -18.318591
As -3.060508 -9.148182 -18.318591
As -3.060508 -12.201743 -15.265030
As -6.114070 -9.148182 -15.265030
As -6.114070 -12.201743 -12.211468
As -3.060508 -9.148182 -12.211468
As -3.060508 -12.201743 -9.157906
As -6.114070 -9.148182 -9.157906
As -6.114070 -12.201743 -6.104345
As -3.060508 -9.148182 -6.104345
As -3.060508 -12.201743 -3.050783
As -6.114070 -9.148182 -3.050783
As -6.114070 -12.201743 0.002778
As -3.060508 -9.148182 0.002778
As -3.060508 -12.201743 3.056340
As -6.114070 -9.148182 3.056340
As -6.114070 -12.201743 6.109902
As -3.060508 -9.148182 6.109902
As -3.060508 -12.201743 9.163463
As -6.114070 -9.148182 9.163463
As -3.060508 -9.148182 12.217025
As -6.114070 -6.094620 -24.425715
As -3.060508 -3.041058 -24.425715
As -3.060508 -6.094620 -21.372153
As -6.114070 -3.041058 -21.372153
As -6.114070 -6.094620 -18.318591
As -3.060508 -3.041058 -18.318591
As -3.060508 -6.094620 -15.265030
As -6.114070 -3.041058 -15.265030
As -6.114070 -6.094620 -12.211468
As -3.060508 -3.041058 -12.211468
As -3.060508 -6.094620 -9.157906
As -6.114070 -3.041058 -9.157906
As -6.114070 -6.094620 -6.104345
As -3.060508 -3.041058 -6.104345
As -3.060508 -6.094620 -3.050783
As -6.114070 -3.041058 -3.050783
As -6.114070 -6.094620 0.002778
As -3.060508 -3.041058 0.002778
As -3.060508 -6.094620 3.056340
As -6.114070 -3.041058 3.056340
As -6.114070 -6.094620 6.109902
As -3.060508 -3.041058 6.109902
As -3.060508 -6.094620 9.163463
As -6.114070 -3.041058 9.163463
As -6.114070 -6.094620 12.217025
As -3.060508 -3.041058 12.217025
As -3.060508 -6.094620 15.270587
As -6.114070 -3.041058 15.270587
As -3.060508 -3.041058 18.324148
As -3.060508 0.012503 -21.372153
As -6.114070 0.012503 -18.318591
As -3.060508 3.066065 -18.318591
As -3.060508 0.012503 -15.265030
As -6.114070 3.066065 -15.265030
As -6.114070 0.012503 -12.211468
As -3.060508 3.066065 -12.211468
As -3.060508 0.012503 -9.157906
As -6.114070 3.066065 -9.157906
As -6.114070 0.012503 -6.104345
As -3.060508 3.066065 -6.104345
As -3.060508 0.012503 -3.050783
As -6.114070 3.066065 -3.050783
As -6.114070 0.012503 0.002778
As -3.060508 3.066065 0.002778
As -3.060508 0.012503 3.056340
As -6.114070 3.066065 3.056340
As -6.114070 0.012503 6.109902
As -3.060508 3.066065 6.109902
As -3.060508 0.012503 9.163463
As -6.114070 3.066065 9.163463
As -6.114070 0.012503 12.217025
As -3.060508 3.066065 12.217025
As -3.060508 0.012503 15.270587
As -6.114070 3.066065 15.270587
As -6.114070 0.012503 18.324148
As -3.060508 3.066065 18.324148
As -3.060508 0.012503 21.377710
As -6.114070 3.066065 21.377710
As -3.060508 3.066065 24.431272
As -3.060508 6.119627 -15.265030
As -6.114070 6.119627 -12.211468
As -3.060508 9.173188 -12.211468
As -3.060508 6.119627 -9.157906
As -6.114070 9.173188 -9.157906
As -6.114070 6.119627 -6.104345
As -3.060508 9.173188 -6.104345
As -3.060508 6.119627 -3.050783
As -6.114070 9.173188 -3.050783
As -6.114070 6.119627 0.002778
As -3.060508 9.173188 0.002778
As -3.060508 6.119627 3.056340
As -6.114070 9.173188 3.056340
As -6.114070 6.119627 6.109902
As -3.060508 9.173188 6.109902
As -3.060508 6.119627 9.163463
As -6.114070 9.173188 9.163463
As -6.114070 6.119627 12.217025
As -3.060508 9.173188 12.217025
As -3.060508 6.119627 15.270587
As -6.114070 9.173188 15.270587
As -6.114070 6.119627 18.324148
As -3.060508 9.173188 18.324148
As -3.060508 6.119627 21.377710
As -6.114070 9.173188 21.377710
As -6.114070 6.119627 24.431272
As -3.060508 12.226750 -9.157906
As -6.114070 12.226750 -6.104345
As -3.060508 15.280311 -6.104345
As -3.060508 12.226750 -3.050783
As -6.114070 15.280311 -3.050783
As -6.114070 12.226750 0.002778
As -3.060508 15.280311 0.002778
As -3.060508 12.226750 3.056340
As -6.114070 15.280311 3.056340
As -6.114070 12.226750 6.109902
As -3.060508 15.280311 6.109902
As -3.060508 12.226750 9.163463
As -6.114070 15.280311 9.163463
As -6.114070 12.226750 12.217025
As -3.060508 15.280311 12.217025
As -3.060508 12.226750 15.270587
As -6.114070 15.280311 15.270587
As -6.114070 12.226750 18.324148
As -3.060508 18.333873 -3.050783
As -6.114070 18.333873 0.002778
As -3.060508 21.387435 0.002778
As -3.060508 18.333873 3.056340
As -6.114070 21.387435 3.056340
As -6.114070 18.333873 6.109902
As -3.060508 21.387435 6.109902
As -3.060508 18.333873 9.163463
As -6.114070 21.387435 9.163463
As -6.114070 18.333873 12.217025
As -3.060508 24.440996 3.056340
As -6.114070 24.440996 6.109902
As -0.006946 -21.362428 -3.050783
As -0.006946 -24.415990 0.002778
As 3.046615 -21.362428 0.002778
As 3.046615 -24.415990 3.056340
As -0.006946 -21.362428 3.056340
As 3.046615 -21.362428 6.109902
As -0.006946 -15.255305 -9.157906
As -0.006946 -18.308867 -6.104345
As 3.046615 -15.255305 -6.104345
As 3.046615 -18.308867 -3.050783
As -0.006946 -15.255305 -3.050783
As -0.006946 -18.308867 0.002778
As 3.046615 -15.255305 0.002778
As 3.046615 -18.308867 3.056340
As -0.006946 -15.255305 3.056340
As -0.006946 -18.308867 6.109902
As 3.046615 -15.255305 6.109902
As 3.046615 -18.308867 9.163463
As -0.006946 -15.255305 9.163463
As 3.046615 -15.255305 12.217025
As -0.006946 -9.148182 -15.265030
As -0.006946 -12.201743 -12.211468
As 3.046615 -9.148182 -12.211468
As 3.046615 -12.201743 -9.157906
As -0.006946 -9.148182 -9.157906
As -0.006946 -12.201743 -6.104345
As 3.046615 -9.148182 -6.104345
As 3.046615 -12.201743 -3.050783
As -0.006946 -9.148182 -3.050783
As -0.006946 -12.201743 0.002778
As 3.046615 -9.148182 0.002778
As 3.046615 -12.201743 3.056340
As -0.006946 -9.148182 3.056340
As -0.006946 -12.201743 6.109902
As 3.046615 -9.148182 6.109902
As 3.046615 -12.201743 9.163463
As -0.006946 -9.148182 9.163463
As -0.006946 -12.201743 12.217025
As 3.046615 -9.148182 12.217025
As 3.046615 -12.201743 15.270587
As -0.006946 -9.148182 15.270587
As 3.046615 -9.148182 18.324148
As -0.006946 -3.041058 -21.372153
As -0.006946 -6.094620 -18.318591
As 3.046615 -3.041058 -18.318591
As 3.046615 -6.094620 -15.265030
As -0.006946 -3.041058 -15.265030
As -0.006946 -6.094620 -12.211468
As 3.046615 -3.041058 -12.211468
As 3.046615 -6.094620 -9.157906
As -0.006946 -3.041058 -9.157906
As -0.006946 -6.094620 -6.104345
As 3.046615 -3.041058 -6.104345
As 3.046615 -6.094620 -3.050783
As -0.006946 -3.041058 -3.050783
As -0.006946 -6.094620 0.002778
As 3.046615 -3.041058 0.002778
As 3.046615 -6.094620 3.056340
As -0.006946 -3.041058 3.056340
As -0.006946 -6.094620 6.109902
As 3.046615 -3.041058 6.109902
As 3.046615 -6.094620 9.163463
As -0.006946 -3.041058 9.163463
As -0.006946 -6.094620 12.217025
As 3.046615 -3.041058 12.217025
As 3.046615 -6.094620 15.270587
As -0.006946 -3.041058 15.270587
As -0.006946 -6.094620 18.324148
As 3.046615 -3.041058 18.324148
As 3.046615 -6.094620 21.377710
As -0.006946 -3.041058 21.377710
As 3.046615 -3.041058 24.431272
As -0.006946 0.012503 -24.425715
As 3.046615 3.066065 -24.425715
As 3.046615 0.012503 -21.372153
As -0.006946 3.066065 -21.372153
As -0.006946 0.012503 -18.318591
As 3.046615 3.066065 -18.318591
As 3.046615 0.012503 -15.265030
As -0.006946 3.066065 -15.265030
As -0.006946 0.012503 -12.211468
As 3.046615 3.066065 -12.211468
As 3.046615 0.012503 -9.157906
As -0.006946 3.066065 -9.157906
As -0.006946 0.012503 -6.104345
As 3.046615 3.066065 -6.104345
As 3.046615 0.012503 -3.050783
As -0.006946 3.066065 -3.050783
As -0.006946 0.012503 0.002778
As 3.046615 3.066065 0.002778
As 3.046615 0.012503 3.056340
As -0.006946 3.066065 3.056340
As -0.006946 0.012503 6.109902
As 3.046615 3.066065 6.109902
As 3.046615 0.012503 9.163463
As -0.006946 3.066065 9.163463
As -0.006946 0.012503 12.217025
As 3.046615 3.066065 12.217025
As 3.046615 0.012503 15.270587
As -0.006946 3.066065 15.270587
As -0.006946 0.012503 18.324148
As 3.046615 3.066065 18.324148
As 3.046615 0.012503 21.377710
As -0.006946 3.066065 21.377710
As -0.006946 0.012503 24.431272
As 3.046615 6.119627 -21.372153
As -0.006946 6.119627 -18.318591
As 3.046615 9.173188 -18.318591
As 3.046615 6.119627 -15.265030
As -0.006946 9.173188 -15.265030
As -0.006946 6.119627 -12.211468
As 3.046615 9.173188 -12.211468
As 3.046615 6.119627 -9.157906
As -0.006946 9.173188 -9.157906
As -0.006946 6.119627 -6.104345
As 3.046615 9.173188 -6.104345
As 3.046615 6.119627 -3.050783
As -0.006946 9.173188 -3.050783
As -0.006946 6.119627 0.002778
As 3.046615 9.173188 0.002778
As 3.046615 6.119627 3.056340
As -0.006946 9.173188 3.056340
As -0.006946 6.119627 6.109902
As 3.046615 9.173188 6.109902
As 3.046615 6.119627 9.163463
As -0.006946 9.173188 9.163463
As -0.006946 6.119627 12.217025
As 3.046615 9.173188 12.217025
As 3.046615 6.119627 15.270587
As -0.006946 9.173188 15.270587
As -0.006946 6.119627 18.324148
As 3.046615 12.226750 -15.265030
As -0.006946 12.226750 -12.211468
As 3.046615 15.280311 -12.211468
As 3.046615 12.226750 -9.157906
As -0.006946 15.280311 -9.157906
As -0.006946 12.226750 -6.104345
As 3.046615 15.280311 -6.104345
As 3.046615 12.226750 -3.050783
As -0.006946 15.280311 -3.050783
As -0.006946 12.226750 0.002778
As 3.046615 15.280311 0.002778
As 3.046615 12.226750 3.056340
As -0.006946 15.280311 3.056340
As -0.006946 12.226750 6.109902
As 3.046615 15.280311 6.109902
As 3.046615 12.226750 9.163463
As -0.006946 15.280311 9.163463
As -0.006946 12.226750 12.217025
As 3.046615 18.333873 -9.157906
As -0.006946 18.333873 -6.104345
As 3.046615 21.387435 -6.104345
As 3.046615 18.333873 -3.050783
As -0.006946 21.387435 -3.050783
As -0.006946 18.333873 0.002778
As 3.046615 21.387435 0.002778
As 3.046615 18.333873 3.056340
As -0.006946 21.387435 3.056340
As -0.006946 18.333873 6.109902
As 3.046615 24.440996 -3.050783
As -0.006946 24.440996 0.002778
As 6.100177 -21.362428 3.056340
As 6.100177 -24.415990 6.109902
As 9.153739 -21.362428 6.109902
As 9.153739 -24.415990 9.163463
As 6.100177 -21.362428 9.163463
As 9.153739 -21.362428 12.217025
As 6.100177 -15.255305 -3.050783
As 6.100177 -18.308867 0.002778
As 9.153739 -15.255305 0.002778
As 9.153739 -18.308867 3.056340
As 6.100177 -15.255305 3.056340
As 6.100177 -18.308867 6.109902
As 9.153739 -15.255305 6.109902
As 9.153739 -18.308867 9.163463
As 6.100177 -15.255305 9.163463
As 6.100177 -18.308867 12.217025
As 9.153739 -15.255305 12.217025
As 9.153739 -18.308867 15.270587
As 6.100177 -15.255305 15.270587
As 9.153739 -15.255305 18.324148
As 6.100177 -9.148182 -9.157906
As 6.100177 -12.201743 -6.104345
As 9.153739 -9.148182 -6.104345
As 9.153739 -12.201743 -3.050783
As 6.100177 -9.148182 -3.050783
As 6.100177 -12.201743 0.002778
As 9.153739 -9.148182 0.002778
As 9.153739 -12.201743 3.056340
As 6.100177 -9.148182 3.056340
As 6.100177 -12.201743 6.109902
As 9.153739 -9.148182 6.109902
As 9.153739 -12.201743 9.163463
As 6.100177 -9.148182 9.163463
As 6.100177 -12.201743 12.217025
As 9.153739 -9.148182 12.217025
As 9.153739 -12.201743 15.270587
As 6.100177 -9.148182 15.270587
As 6.100177 -12.201743 18.324148
As 9.153739 -9.148182 18.324148
As 9.153739 -12.201743 21.377710
As 6.100177 -9.148182 21.377710
As 9.153739 -9.148182 24.431272
As 6.100177 -3.041058 -15.265030
As 6.100177 -6.094620 -12.211468
As 9.153739 -3.041058 -12.211468
As 9.153739 -6.094620 -9.157906
As 6.100177 -3.041058 -9.157906
As 6.100177 -6.094620 -6.104345
As 9.153739 -3.041058 -6.104345
As 9.153739 -6.094620 -3.050783
As 6.100177 -3.041058 -3.050783
As 6.100177 -6.094620 0.002778
As 9.153739 -3.041058 0.002778
As 9.153739 -6.094620 3.056340
As 6.100177 -3.041058 3.056340
As 6.100177 -6.094620 6.109902
As 9.153739 -3.041058 6.109902
As 9.153739 -6.094620 9.163463
As 6.100177 -3.041058 9.163463
As 6.100177 -6.094620 12.217025
As 9.153739 -3.041058 12.217025
As 9.153739 -6.094620 15.270587
As 6.100177 -3.041058 15.270587
As 6.100177 -6.094620 18.324148
As 9.153739 -3.041058 18.324148
As 9.153739 -6.094620 21.377710
As 6.100177 -3.041058 21.377710
As 6.100177 -6.094620 24.431272
As 6.100177 3.066065 -21.372153
As 6.100177 0.012503 -18.318591
As 9.153739 3.066065 -18.318591
As 9.153739 0.012503 -15.265030
As 6.100177 3.066065 -15.265030
As 6.100177 0.012503 -12.211468
As 9.153739 3.066065 -12.211468
As 9.153739 0.012503 -9.157906
As 6.100177 3.066065 -9.157906
As 6.100177 0.012503 -6.104345
As 9.153739 3.066065 -6.104345
As 9.153739 0.012503 -3.050783
As 6.100177 3.066065 -3.050783
As 6.100177 0.012503 0.002778
As 9.153739 3.066065 0.002778
As 9.153739 0.012503 3.056340
As 6.100177 3.066065 3.056340
As 6.100177 0.012503 6.109902
As 9.153739 3.066065 6.109902
As 9.153739 0.012503 9.163463
As 6.100177 3.066065 9.163463
As 6.100177 0.012503 12.217025
As 9.153739 3.066065 12.217025
As 9.153739 0.012503 15.270587
As 6.100177 3.066065 15.270587
As 6.100177 0.012503 18.324148
As 6.100177 6.119627 -24.425715
As 9.153739 9.173188 -24.425715
As 9.153739 6.119627 -21.372153
As 6.100177 9.173188 -21.372153
As 6.100177 6.119627 -18.318591
As 9.153739 9.173188 -18.318591
As 9.153739 6.119627 -15.265030
As 6.100177 9.173188 -15.265030
As 6.100177 6.119627 -12.211468
As 9.153739 9.173188 -12.211468
As 9.153739 6.119627 -9.157906
As 6.100177 9.173188 -9.157906
As 6.100177 6.119627 -6.104345
As 9.153739 9.173188 -6.104345
As 9.153739 6.119627 -3.050783
As 6.100177 9.173188 -3.050783
As 6.100177 6.119627 0.002778
As 9.153739 9.173188 0.002778
As 9.153739 6.119627 3.056340
As 6.100177 9.173188 3.056340
As 6.100177 6.119627 6.109902
As 9.153739 9.173188 6.109902
As 9.153739 6.119627 9.163463
As 6.100177 9.173188 9.163463
As 6.100177 6.119627 12.217025
As 9.153739 12.226750 -21.372153
As 6.100177 12.226750 -18.318591
As 9.153739 15.280311 -18.318591
As 9.153739 12.226750 -15.265030
As 6.100177 15.280311 -15.265030
As 6.100177 12.226750 -12.211468
As 9.153739 15.280311 -12.211468
As 9.153739 12.226750 -9.157906
As 6.100177 15.280311 -9.157906
As 6.100177 12.226750 -6.104345
As 9.153739 15.280311 -6.104345
As 9.153739 12.226750 -3.050783
As 6.100177 15.280311 -3.050783
As 6.100177 12.226750 0.002778
As 9.153739 15.280311 0.002778
As 9.153739 12.226750 3.056340
As 6.100177 15.280311 3.056340
As 6.100177 12.226750 6.109902
As 9.153739 18.333873 -15.265030
As 6.100177 18.333873 -12.211468
As 9.153739 21.387435 -12.211468
As 9.153739 18.333873 -9.157906
As 6.100177 21.387435 -9.157906
As 6.100177 18.333873 -6.104345
As 9.153739 21.387435 -6.104345
As 9.153739 18.333873 -3.050783
As 6.100177 21.387435 -3.050783
As 6.100177 18.333873 0.002778
As 9.153739 24.440996 -9.157906
As 6.100177 24.440996 -6.104345
As 12.207300 -21.362428 9.163463
As 12.207300 -24.415990 12.217025
As 12.207300 -15.255305 3.056340
As 12.207300 -18.308867 6.109902
As 15.260862 -15.255305 6.109902
As 15.260862 -18.308867 9.163463
As 12.207300 -15.255305 9.163463
As 12.207300 -18.308867 12.217025
As 15.260862 -15.255305 12.217025
As 12.207300 -15.255305 15.270587
As 12.207300 -18.308867 18.324148
As 12.207300 -9.148182 -3.050783
As 12.207300 -12.201743 0.002778
As 15.260862 -9.148182 0.002778
As 15.260862 -12.201743 3.056340
As 12.207300 -9.148182 3.056340
As 12.207300 -12.201743 6.109902
As 15.260862 -9.148182 6.109902
As 15.260862 -12.201743 9.163463
As 12.207300 -9.148182 9.163463
As 12.207300 -12.201743 12.217025
As 15.260862 -9.148182 12.217025
As 15.260862 -12.201743 15.270587
As 12.207300 -9.148182 15.270587
As 12.207300 -12.201743 18.324148
As 15.260862 -9.148182 18.324148
As 12.207300 -9.148182 21.377710
As 12.207300 -12.201743 24.431272
As 12.207300 -3.041058 -9.157906
As 12.207300 -6.094620 -6.104345
As 15.260862 -3.041058 -6.104345
As 15.260862 -6.094620 -3.050783
As 12.207300 -3.041058 -3.050783
As 12.207300 -6.094620 0.002778
As 15.260862 -3.041058 0.002778
As 15.260862 -6.094620 3.056340
As 12.207300 -3.041058 3.056340
As 12.207300 -6.094620 6.109902
As 15.260862 -3.041058 6.109902
As 15.260862 -6.094620 9.163463
As 12.207300 -3.041058 9.163463
As 12.207300 -6.094620 12.217025
As 15.260862 -3.041058 12.217025
As 15.260862 -6.094620 15.270587
As 12.207300 -3.041058 15.270587
As 12.207300 -6.094620 18.324148
As 12.207300 3.066065 -15.265030
As 12.207300 0.012503 -12.211468
As 15.260862 3.066065 -12.211468
As 15.260862 0.012503 -9.157906
As 12.207300 3.066065 -9.157906
As 12.207300 0.012503 -6.104345
As 15.260862 3.066065 -6.104345
As 15.260862 0.012503 -3.050783
As 12.207300 3.066065 -3.050783
As 12.207300 0.012503 0.002778
As 15.260862 3.066065 0.002778
As 15.260862 0.012503 3.056340
As 12.207300 3.066065 3.056340
As 12.207300 0.012503 6.109902
As 15.260862 3.066065 6.109902
As 15.260862 0.012503 9.163463
As 12.207300 3.066065 9.163463
As 12.207300 0.012503 12.217025
As 12.207300 9.173188 -21.372153
As 12.207300 6.119627 -18.318591
As 15.260862 9.173188 -18.318591
As 15.260862 6.119627 -15.265030
As 12.207300 9.173188 -15.265030
As 12.207300 6.119627 -12.211468
As 15.260862 9.173188 -12.211468
As 15.260862 6.119627 -9.157906
As 12.207300 9.173188 -9.157906
As 12.207300 6.119627 -6.104345
As 15.260862 9.173188 -6.104345
As 15.260862 6.119627 -3.050783
As 12.207300 9.173188 -3.050783
As 12.207300 6.119627 0.002778
As 15.260862 9.173188 0.002778
As 15.260862 6.119627 3.056340
As 12.207300 9.173188 3.056340
As 12.207300 6.119627 6.109902
As 12.207300 12.226750 -24.425715
As 12.207300 12.226750 -18.318591
As 15.260862 12.226750 -15.265030
As 12.207300 15.280311 -15.265030
As 12.207300 12.226750 -12.211468
As 15.260862 15.280311 -12.211468
As 15.260862 12.226750 -9.157906
As 12.207300 15.280311 -9.157906
As 12.207300 12.226750 -6.104345
As 15.260862 15.280311 -6.104345
As 15.260862 12.226750 -3.050783
As 12.207300 15.280311 -3.050783
As 12.207300 12.226750 0.002778
As 12.207300 18.333873 -18.318591
As 12.207300 18.333873 -12.211468
As 15.260862 18.333873 -9.157906
As 12.207300 21.387435 -9.157906
As 12.207300 18.333873 -6.104345
As 12.207300 24.440996 -12.211468
As 18.314424 -15.255305 9.163463
As 18.314424 -18.308867 12.217025
As 18.314424 -9.148182 3.056340
As 18.314424 -12.201743 6.109902
As 21.367985 -9.148182 6.109902
As 21.367985 -12.201743 9.163463
As 18.314424 -9.148182 9.163463
As 18.314424 -12.201743 12.217025
As 21.367985 -9.148182 12.217025
As 18.314424 -9.148182 15.270587
As 18.314424 -12.201743 18.324148
As 18.314424 -3.041058 -3.050783
As 18.314424 -6.094620 0.002778
As 21.367985 -3.041058 0.002778
As 21.367985 -6.094620 3.056340
As 18.314424 -3.041058 3.056340
As 18.314424 -6.094620 6.109902
As 21.367985 -3.041058 6.109902
As 21.367985 -6.094620 9.163463
As 18.314424 -3.041058 9.163463
As 18.314424 -6.094620 12.217025
As 18.314424 3.066065 -9.157906
As 18.314424 0.012503 -6.104345
As 21.367985 3.066065 -6.104345
As 21.367985 0.012503 -3.050783
As 18.314424 3.066065 -3.050783
As 18.314424 0.012503 0.002778
As 21.367985 3.066065 0.002778
As 21.367985 0.012503 3.056340
As 18.314424 3.066065 3.056340
As 18.314424 0.012503 6.109902
As 18.314424 9.173188 -15.265030
As 18.314424 6.119627 -12.211468
As 21.367985 9.173188 -12.211468
As 21.367985 6.119627 -9.157906
As 18.314424 9.173188 -9.157906
As 18.314424 6.119627 -6.104345
As 21.367985 9.173188 -6.104345
As 21.367985 6.119627 -3.050783
As 18.314424 9.173188 -3.050783
As 18.314424 6.119627 0.002778
As 18.314424 12.226750 -18.318591
As 18.314424 12.226750 -12.211468
As 21.367985 12.226750 -9.157906
As 18.314424 15.280311 -9.157906
As 18.314424 12.226750 -6.104345
As 18.314424 18.333873 -12.211468
As 24.421547 -9.148182 9.163463
As 24.421547 -12.201743 12.217025
As 24.421547 -3.041058 3.056340
As 24.421547 -6.094620 6.109902
As 24.421547 3.066065 -3.050783
As 24.421547 0.012503 0.002778
As 24.421547 9.173188 -9.157906
As 24.421547 6.119627 -6.104345
As 24.421547 12.226750 -12.211468
Cl -21.381878 -15.255305 -12.211468
Cl -21.381878 -12.201743 -15.265030
Cl -21.381878 15.280311 12.217025
Cl -21.381878 12.226750 15.270587
Cl -15.274755 -21.362428 -12.211468
Cl -15.274755 -15.255305 -18.318591
Cl -15.274755 -18.308867 -15.265030
Cl -18.328316 -15.255305 -15.265030
Cl -15.274755 -12.201743 -21.372153
Cl -18.328316 15.280311 15.270587
Cl -15.274755 15.280311 18.324148
Cl -15.274755 12.226750 21.377710
Cl -15.274755 21.387435 12.217025
Cl -15.274755 18.333873 15.270587
Cl -12.221193 -21.362428 -15.265030
Cl -12.221193 -15.255305 -21.372153
Cl -12.221193 15.280311 21.377710
Cl -12.221193 21.387435 15.270587
Cl 15.260862 -21.362428 12.217025
Cl 12.207300 -21.362428 15.270587
Cl 15.260862 -18.308867 15.270587
Cl 15.260862 -15.255305 18.324148
Cl 12.207300 -15.255305 21.377710
Cl 15.260862 -12.201743 21.377710
Cl 15.260862 12.226750 -21.372153
Cl 12.207300 15.280311 -21.372153
Cl 15.260862 15.280311 -18.318591
Cl 15.260862 18.333873 -15.265030
Cl 12.207300 21.387435 -15.265030
Cl 15.260862 21.387435 -12.211468
Cl 21.367985 -15.255305 12.217025
Cl 18.314424 -15.255305 15.270587
Cl 21.367985 -12.201743 15.270587
Cl 21.367985 12.226750 -15.265030
Cl 18.314424 15.280311 -15.265030
Cl 21.367985 15.280311 -12.211468
Cl 27.475109 9.173188 -12.211468
Cl 27.475109 -12.201743 9.163463
Cl -9.167631 27.494558 12.217025
Cl 9.153739 12.226750 -27.479276
Cl 6.100177 3.066065 -27.479276
Cl -12.221193 -27.469552 -9.157906
Cl -9.167631 -12.201743 -27.479276
Cl 12.207300 -9.148182 27.484833
Cl 9.153739 -27.469552 12.217025
Cl -6.114070 9.173188 27.484833
Cl -6.114070 -3.041058 -27.479276
Cl -12.221193 9.173188 27.484833
Cl 12.207300 27.494558 -9.157906
Cl -27.489001 12.226750 9.163463
Cl 3.046615 27.494558 -6.104345
Cl -27.489001 -6.094620 -9.157906
Cl 27.475109 9.173188 -6.104345
Cl -9.167631 27.494558 6.109902
Cl 27.475109 -6.094620 9.163463
Cl 9.153739 -27.469552 6.109902
Cl -27.489001 -12.201743 -9.157906
Cl -3.060508 27.494558 6.109902
Cl -27.489001 3.066065 0.002778
Cl 3.046615 -6.094620 27.484833
Cl -0.006946 3.066065 -27.479276
Cl -6.114070 -27.469552 -3.050783
Cl -3.060508 6.119627 27.484833
Cl 27.475109 3.066065 0.002778
Cl -0.006946 -27.469552 -3.050783
Cl -27.489001 3.066065 6.109902
Cl -3.060508 27.494558 0.002778
Cl -0.006946 -3.041058 -27.479276
Cl -9.167631 -6.094620 -27.479276
Cl 3.046615 27.494558 0.002778
Cl 9.153739 6.119627 -27.479276
Cl 3.046615 0.012503 27.484833
Cl 27.475109 3.066065 -6.104345
Cl -6.114070 -27.469552 -9.157906
Cl 6.100177 -9.148182 27.484833
Cl 6.100177 27.494558 -9.157906
Cl 27.475109 -3.041058 0.002778
Cl -27.489001 6.119627 9.163463
Cl -3.060508 0.012503 27.484833
Cl -27.489001 -3.041058 0.002778
Cl -0.006946 -27.469552 3.056340
Cl 6.100177 -27.469552 3.056340
Cl -27.489001 -3.041058 -6.104345
Cl 27.475109 -3.041058 6.109902
Cl -9.167631 -12.201743 9.163463
Cl 9.153739 12.226750 9.163463
Cl 12.207300 -9.148182 -9.157906
Cl -12.221193 9.173188 -9.157906
Cl -0.006946 -15.255305 -15.265030
Cl -15.274755 0.012503 15.270587
Cl 15.260862 0.012503 15.270587
Cl -0.006946 15.280311 -15.265030
Cl -18.328316 -6.094620 -18.318591
Cl -18.328316 -12.201743 0.002778
Cl 21.367985 18.333873 -9.157906
Cl 18.314424 -21.362428 9.163463
Cl -18.328316 21.387435 9.163463
Cl 9.153739 -18.308867 21.377710
Cl -9.167631 18.333873 21.377710
Cl 18.314424 9.173188 -21.372153
Cl -9.167631 -21.362428 -18.318591
Cl 21.367985 -9.148182 18.324148
Cl 9.153739 21.387435 -18.318591
Cl -21.381878 9.173188 18.324148
Cl 15.260862 15.280311 0.002778
Cl -15.274755 15.280311 0.002778
Cl 18.314424 -12.201743 0.002778
Cl -0.006946 -18.308867 12.217025
Cl -0.006946 15.280311 15.270587
Cl 15.260862 0.012503 -15.265030
Cl -9.167631 3.066065 -18.318591
Cl -6.114070 -6.094620 18.324148
Cl 6.100177 -18.308867 -6.104345
Cl 6.100177 6.119627 18.324148
Cl -6.114070 18.333873 -6.104345
Cl -18.328316 -21.362428 -9.157906
Cl 6.100177 -6.094620 -18.318591
Cl 18.314424 6.119627 6.109902
Cl -9.167631 -18.308867 3.056340
Cl -18.328316 3.066065 -9.157906
Cl -18.328316 -6.094620 6.109902
Cl 9.153739 21.387435 0.002778
Cl -0.006946 9.173188 -21.372153
Cl 21.367985 -3.041058 -6.104345
Cl -21.381878 9.173188 0.002778
Cl -0.006946 -12.201743 18.324148
Cl 12.207300 -18.308867 0.002778
Cl 3.046615 21.387435 6.109902
Cl -15.274755 -9.148182 -24.425715
Cl -3.060508 -12.201743 -21.372153
Cl 12.207300 -3.041058 21.377710
Cl -12.221193 3.066065 21.377710
Cl -24.435439 -9.148182 -15.265030
Cl -6.114070 21.387435 15.270587
Cl -21.381878 -15.255305 -6.104345
Cl 21.367985 3.066065 -12.211468
Cl -12.221193 21.387435 3.056340
Cl 21.367985 12.226750 -3.050783
Cl 3.046615 -24.415990 9.163463
Cl -3.060508 -21.362428 -12.211468
Cl 6.100177 15.280311 -21.372153
Cl 21.367985 -15.255305 6.109902
Cl -12.221193 -21.362428 -3.050783
Cl 15.260862 21.387435 -6.104345
Cl -21.381878 15.280311 6.109902
Cl -21.381878 3.066065 12.217025
Cl 21.367985 -3.041058 12.217025
Cl 12.207300 3.066065 -21.372153
Cl -6.114070 9.173188 -15.265030
Cl -3.060508 12.226750 21.377710
Cl 6.100177 -12.201743 -12.211468
Cl -12.221193 -6.094620 12.217025
Cl 3.046615 21.387435 -12.211468
Cl 12.207300 6.119627 12.217025
Cl 6.100177 -21.362428 15.270587
Cl 24.421547 -9.148182 3.056340
Cl -15.274755 0.012503 -15.265030
Cl -24.435439 -9.148182 -3.050783
Cl -9.167631 -27.469552 -12.211468
Cl 27.475109 12.226750 -9.157906
Cl -3.060508 -21.362428 6.109902
Cl -21.381878 -3.041058 -12.211468
Cl 12.207300 -27.469552 9.163463
Cl 6.100177 -3.041058 27.484833
Cl -12.221193 -3.041058 -21.372153
Cl 9.153739 -12.201743 27.484833
Cl -3.060508 -6.094620 -27.479276
Cl 27.475109 -9.148182 12.217025
Cl -12.221193 27.494558 9.163463
Cl -6.114070 3.066065 27.484833
Cl 21.367985 9.173188 -18.318591
Cl -9.167631 12.226750 27.484833
Cl -27.489001 9.173188 12.217025
Cl 9.153739 27.494558 -12.211468
Cl -9.167631 -18.308867 -21.372153
Cl 9.153739 27.494558 -6.104345
Cl -27.489001 9.173188 6.109902
Cl 12.207300 9.173188 -27.479276
Cl 18.314424 -9.148182 21.377710
Cl -18.328316 9.173188 21.377710
Cl 6.100177 9.173188 -27.479276
Cl 3.046615 18.333873 9.163463
Cl 15.260862 -9.148182 -6.104345
Cl -21.381878 -3.041058 6.109902
Cl -6.114070 21.387435 -3.050783
Cl 21.367985 6.119627 3.056340
Cl 3.046615 -24.415990 -3.050783
Cl -3.060508 -6.094620 21.377710
Cl 3.046615 6.119627 21.377710
Cl 6.100177 -3.041058 -21.372153
Cl -12.221193 12.226750 -6.104345
Cl 6.100177 -15.255305 21.377710
Cl -24.435439 3.066065 -3.050783
Cl 15.260862 -21.362428 6.109902
Cl 12.207300 12.226750 6.109902
Cl -15.274755 -12.201743 3.056340
Cl -3.060508 3.066065 -24.425715
Cl -3.060508 24.440996 9.163463
Cl -6.114070 -12.201743 12.217025
Cl 15.260862 -3.041058 -12.211468
Cl -3.060508 15.280311 -12.211468
Cl -6.114070 -24.415990 0.002778
Cl 9.153739 0.012503 21.377710
Cl -0.006946 -9.148182 -21.372153
Cl -0.006946 -21.362428 -9.157906
Cl -9.167631 0.012503 21.377710
Cl 3.046615 12.226750 15.270587
Cl -18.328316 9.173188 -3.050783
Cl 21.367985 0.012503 9.163463
Cl 21.367985 -6.094620 -3.050783
Cl -15.274755 -18.308867 -3.050783
Cl -0.006946 24.440996 -6.104345
Cl 12.207300 -15.255305 -3.050783
Cl 9.153739 18.333873 3.056340
Cl -12.221193 6.119627 -12.211468
Cl -27.489001 -9.148182 -6.104345
Cl 9.153739 -6.094620 -15.265030
Cl -12.221193 -9.148182 -27.479276
Cl 18.314424 21.387435 -9.157906
Cl 9.153739 -24.415990 15.270587
Cl 9.153739 -21.362428 0.002778
Cl -27.489001 -9.148182 -12.211468
Cl -9.167631 21.387435 18.324148
Cl -15.274755 9.173188 24.431272
Cl -21.381878 18.333873 9.163463
Cl 27.475109 6.119627 -9.157906
Cl -15.274755 -24.415990 -9.157906
Cl 15.260862 -9.148182 24.431272
Cl 9.153739 18.333873 -21.372153
Cl 27.475109 -9.148182 6.109902
Cl 27.475109 6.119627 -3.050783
Cl 3.046615 -27.469552 6.109902
Cl -9.167631 -15.255305 -24.425715
Cl -6.114070 27.494558 3.056340
Cl 6.100177 27.494558 -3.050783
Cl -27.489001 0.012503 3.056340
Cl 21.367985 -18.308867 9.163463
Cl -18.328316 -9.148182 -21.372153
Cl -24.435439 -15.255305 -9.157906
Cl -9.167631 15.280311 24.431272
Cl 15.260862 9.173188 -24.425715
Cl -0.006946 -3.041058 27.484833
Cl 3.046615 6.119627 -27.479276
Cl 24.421547 15.280311 -9.157906
Cl -9.167631 -24.415990 -15.265030
Cl -24.435439 9.173188 15.270587
Cl -15.274755 24.440996 9.163463
Cl 24.421547 -9.148182 15.270587
Cl 24.421547 9.173188 -15.265030
Cl 9.153739 24.440996 -15.265030
Cl -0.006946 3.066065 27.484833
Cl -9.167631 -27.469552 -6.104345
Cl 27.475109 0.012503 -3.050783
Cl -27.489001 6.119627 3.056340
Cl 27.475109 0.012503 3.056340
Cl -9.167631 6.119627 27.484833
Cl 3.046615 0.012503 -27.479276
Cl -0.006946 27.494558 3.056340
Cl -0.006946 -15.255305 15.270587
Cl -6.114070 3.066065 -21.372153
Cl 9.153739 -6.094620 27.484833
Cl -6.114070 -9.148182 -27.479276
Cl -15.274755 -3.041058 12.217025
Cl -12.221193 18.333873 0.002778
Cl -3.060508 -27.469552 -6.104345
Cl 18.314424 12.226750 0.002778
Cl -6.114070 -18.308867 6.109902
Cl -21.381878 0.012503 -9.157906
Cl 9.153739 6.119627 15.270587
Cl 6.100177 -15.255305 -9.157906
Cl 3.046615 12.226750 -21.372153
Cl -24.435439 -6.094620 0.002778
Cl 15.260862 3.066065 -18.318591
Cl -3.060508 18.333873 15.270587
Cl -6.114070 15.280311 -9.157906
Cl 3.046615 -12.201743 21.377710
Cl 18.314424 -3.041058 15.270587
Cl -18.328316 3.066065 15.270587
Cl -3.060508 -15.255305 -18.318591
Cl -21.381878 12.226750 3.056340
Cl 12.207300 21.387435 -3.050783
Cl -12.221193 -12.201743 6.109902
Cl 21.367985 0.012503 -9.157906
Cl 3.046615 18.333873 -15.265030
Cl 15.260862 6.119627 9.163463
Cl 18.314424 -15.255305 3.056340
Cl -9.167631 -6.094620 15.270587
Cl -3.060508 9.173188 -18.318591
Cl -0.006946 9.173188 21.377710
Cl 9.153739 0.012503 -21.372153
Cl -18.328316 6.119627 -6.104345
Cl -21.381878 0.012503 9.163463
Cl -6.114070 27.494558 9.163463
Cl 3.046615 -12.201743 -15.265030
Cl 6.100177 -27.469552 9.163463
Cl -21.381878 -9.148182 -18.318591
Cl 6.100177 15.280311 9.163463
Cl 15.260862 -24.415990 9.163463
Cl -0.006946 21.387435 -9.157906
Cl 9.153739 -15.255305 24.431272
Cl -21.381878 -18.308867 -9.157906
Cl 27.475109 -6.094620 3.056340
Cl 15.260862 24.440996 -9.157906
Cl -24.435439 15.280311 9.163463
Cl 3.046615 -27.469552 0.002778
Cl -3.060508 -27.469552 0.002778
Cl -9.167631 24.440996 15.270587
Cl -27.489001 0.012503 -3.050783
Cl -3.060508 0.012503 -27.479276
Cl 9.153739 -21.362428 18.324148
Cl 24.421547 -15.255305 9.163463
Cl 24.421547 6.119627 0.002778
Cl -0.006946 27.494558 -3.050783
Cl 15.260862 -6.094620 21.377710
Cl -3.060508 -3.041058 24.431272
Cl -6.114070 -21.362428 -15.265030
Cl 9.153739 15.280311 -24.425715
Cl -15.274755 6.119627 21.377710
Cl 21.367985 15.280311 -6.104345
Cl 15.260862 -6.094620 -9.157906
Cl -12.221193 0.012503 -18.318591
Cl -12.221193 -18.308867 0.002778
Cl 6.100177 0.012503 24.431272
Cl -0.006946 -6.094620 -24.425715
Cl -15.274755 21.387435 6.109902
Cl 3.046615 24.440996 3.056340
Cl 9.153739 -24.415990 3.056340
Cl -21.381878 -9.148182 0.002778
Cl -6.114070 15.280311 21.377710
Cl -6.114070 24.440996 0.002778
Cl 18.314424 6.119627 -18.318591
Cl -0.006946 -21.362428 9.163463
Cl 24.421547 0.012503 6.109902
Cl -9.167631 -3.041058 -24.425715
Cl 3.046615 -21.362428 -6.104345
Cl 3.046615 -9.148182 24.431272
Cl 15.260862 12.226750 3.056340
Cl -12.221193 15.280311 -3.050783
Cl 21.367985 -9.148182 0.002778
Cl -3.060508 -12.201743 15.270587
Cl 12.207300 3.066065 15.270587
Cl -18.328316 -3.041058 -15.265030
Cl 12.207300 -12.201743 -6.104345
Cl -15.274755 -6.094620 9.163463
Cl -9.167631 9.173188 -12.211468
Cl -0.006946 21.387435 9.163463
Cl -12.221193 0.012503 18.324148
Cl 12.207300 -3.041058 -15.265030
Cl -18.328316 -15.255305 -3.050783
Cl 6.100177 12.226750 12.217025
Cl -18.328316 15.280311 3.056340
Cl -0.006946 -18.308867 -12.211468
Cl -27.489001 -6.094620 -3.050783
Cl 15.260862 18.333873 -3.050783
Cl 15.260862 -18.308867 3.056340
Cl -15.274755 3.066065 -12.211468
Cl 3.046615 -18.308867 15.270587
Cl 18.314424 3.066065 9.163463
Cl 3.046615 -9.148182 -18.318591
Cl 6.100177 24.440996 -12.211468
Cl -6.114070 -15.255305 9.163463
Cl 24.421547 6.119627 -12.211468
Cl 24.421547 -6.094620 12.217025
Cl -24.435439 -6.094620 -12.211468
Cl -24.435439 6.119627 12.217025
Cl 12.207300 6.119627 -24.425715
Cl -0.006946 6.119627 24.431272
Cl 3.046615 9.173188 -24.425715
Cl -12.221193 -24.415990 -6.104345
