125
best path, 8 CdCl2 removed, E - E_full = 65.169586 eV
Cd    -1.75984334    -6.82563976     0.04081499
Cd    -4.13836734    -5.34334976    -2.68020401
Cd    -4.23448334    -5.20975976     1.25887599
Cd    -4.54168634    -2.04877276    -5.87141501
Cd    -7.33074034    -1.31182176    -4.07128601
Cd    -4.78635534     1.56374924    -5.00811801
Cd    -3.91361734    -1.58513476    -2.02153301
Cd    -7.38438734     1.40337024    -1.74646001
Cd    -6.61565434    -1.79623376     1.22633599
Cd    -4.20205634     1.43139424     1.34327699
Cd    -4.47778834    -2.31868776     4.25204499
Cd    -6.85824934     0.71619924     3.85985999
Cd    -4.27731934     0.51750624     6.79165499
Cd    -4.55758534     4.45486724    -2.01998301
Cd    -7.08342134     3.86280524     0.89203399
Cd    -4.41652534     6.13603424     1.43074299
Cd    -0.22482934    -3.09660276    -8.82061201
Cd    -1.51665034    -4.85296176    -6.04066601
Cd     1.98786066    -4.22532976    -5.95978401
Cd    -0.76369234    -4.34936676    -2.34108801
Cd     2.01683366    -4.50915576     1.06954199
Cd     2.03829266    -6.41104576     4.13227899
Cd    -1.38901134    -5.02626676     4.15820799
Cd     1.05492066    -4.63388876     7.01444699
Cd     2.08655466    -0.45804976    -8.06832501
Cd    -0.93756134    -1.05725276    -5.00121201
Cd     2.10558666     2.12255824    -4.68091801
Cd     1.99085666    -1.17618876    -1.95021001
Cd    -1.22826134     1.65054224    -1.66276401
Cd    -1.21504034    -1.71867676     1.15755999
Cd     1.82579266     1.44491324     1.63462299
Cd     1.66052766    -1.69679076     4.35552199
Cd    -1.53251134     1.24243124     4.39185499
Cd    -1.65828634    -2.11748776     7.16373599
Cd     1.32564266     1.12911424     7.72461499
Cd    -1.20777934     2.75581824    -6.94985901
Cd    -3.29290434     5.02722224    -5.93912601
Cd     2.09384166     4.77333124    -0.99271501
Cd    -0.79980134     5.03606724    -4.05490401
Cd    -1.18647934     4.46332424     1.53857399
Cd     1.75032766     6.65669624     2.28505599
Cd     1.69163666     4.32802524     5.16345899
Cd    -1.11174734     6.81038024     4.57108699
Cd    -1.40192834     3.71056924     7.18376299
Cd     5.16736866    -5.54617176    -4.23055201
Cd     2.62514866    -6.55434376    -2.44221901
Cd     4.75965066    -3.94475376     3.84707899
Cd     4.77151466     1.91595024    -7.18855801
Cd     4.91137366    -1.49514676    -5.19447501
Cd     6.87865366     1.62890224    -4.54764601
Cd     5.13142766    -3.86126576    -1.60821001
Cd     5.03311966     1.60961924    -1.45854401
Cd     5.13112966    -1.09302876     1.48673699
Cd     6.67609766    -0.50356576     4.54037999
Cd     4.54681166     1.56094524     5.43906499
Cd     4.12680166    -1.43611276     7.46643999
Cd     4.71481066     4.55708124    -3.97844901
Cd     7.07671366     2.22874424     1.30606399
Cd     5.63381766     5.39391824    -0.64762701
Cd     5.07636866     4.22666624     2.68444699
Se    -2.23961234    -2.45458876    -6.94557301
Se    -4.32440934    -7.01198676    -0.74215101
Se    -5.44020034    -3.21148676    -3.62418601
Se    -2.54181134    -3.31567776    -0.54402801
Se    -1.97506634    -6.16784876    -3.93145601
Se    -5.99034334    -3.83367476     2.59122499
Se    -3.03382334    -3.86337176     5.83900899
Se    -2.46303834    -6.76892176     2.55948799
Se    -6.41637134    -0.30952276    -6.24103901
Se    -3.84417434     2.79140924    -7.16521001
Se    -5.58508934    -0.12796276    -0.45924601
Se    -6.31601934     3.04351724    -3.43528601
Se    -2.85789334     3.16270324    -0.20146401
Se    -2.70604234     0.28921024    -3.51233001
Se    -6.21560734    -0.86133376     5.77348099
Se    -5.83049134     2.89013424     2.92443099
Se    -3.31155634     2.68479724     5.79080399
Se    -2.91581634    -0.42822276     2.78219699
Se    -6.18800134     5.99030224    -0.33680101
Se    -3.16438834     6.10827924    -3.55729301
Se    -2.97180434     5.47788524     3.35254599
Se     0.30970266    -5.35601876    -7.86917901
Se     3.50596766    -2.46248576    -7.22233301
Se     0.69033566    -6.02075076    -0.73035701
Se     0.77251766    -2.73459276    -3.80210001
Se     3.45975566    -2.55308876    -0.11996101
Se     2.91338466    -6.54353276    -5.07294401
Se     0.21896366    -6.72565076     5.79819499
Se     0.29481866    -3.32834476     2.75209899
Se     3.18494366    -3.39664376     5.97778399
Se     3.84634566    -5.99842876     2.45786099
Se     0.46359666     0.80732624    -6.35913701
Se     3.48982066     3.90054724    -6.15306001
Se     0.35695866     0.04090024    -0.19121701
Se     0.64201966     3.29456424    -2.76569301
Se     3.63526766     3.02973224     0.39570099
Se     3.68188366     0.31391924    -3.41524901
Se    -0.01310434    -0.38562676     5.96246699
Se     0.24365866     2.90094024     3.21502199
Se     3.02662266     2.94768724     6.96955199
Se     3.40071766    -0.00002076     3.29331999
Se    -0.63431734     5.29894724    -6.67104001
Se     0.29431366     6.25543324     0.22530799
Se     3.92255266     6.37015324    -2.25289401
Se    -0.00806934     5.82719224     6.67873499
Se     3.53082066     5.89922624     3.94241699
Se     5.13558066    -6.49529976    -1.63574301
Se     6.37777666    -3.24813476    -3.85953401
Se     6.79748266    -2.60305976     3.03188999
Se     6.65552666     0.23225324    -6.59520901
Se     6.80460966     0.13880524    -0.15788001
Se     6.77707966     3.37293524    -2.76692701
Se     6.18786066    -0.04433076     7.05184999
Se     6.71823066     2.24660624     3.96001299
Se     7.26289766     4.89563324     1.19503599
Cl    -8.98687634     2.66343624    -0.19223401
Cl    -9.01725834    -0.53284276    -2.47960001
Cl    -8.51936334    -0.46297576     2.30701099
Cl    -3.13046234    -0.68761776     8.68588699
Cl     0.42744566    -1.10922476   -10.03784901
Cl    -0.08505934    -3.45315276     8.82226299
Cl     3.50784766     1.26893324    -9.29615201
Cl    -0.47932534     2.32845924     9.09307499
Cl     2.49656766    -0.67350176     9.19374199
Cl     0.32660366     8.54216324     3.48722999
