122
best path, 9 CdCl2 removed, E - E_full = 73.116272 eV
Cd    -1.75219699    -6.96598486     0.05462546
Cd    -4.14481599    -5.60249386    -2.77024254
Cd    -4.28185099    -5.34908286     1.11775846
Cd    -5.16054299    -2.13472086    -5.15947854
Cd    -6.64757299     0.89411614    -2.82714954
Cd    -4.34097199     1.19594114    -5.42153554
Cd    -4.11608599    -1.94526486    -1.91615654
Cd    -6.85767199    -1.99024486     0.94036746
Cd    -4.40955999     1.42840214     1.15386346
Cd    -4.73035899    -2.33001186     3.99914046
Cd    -7.20383599     0.67458614     3.39124246
Cd    -4.67759199     0.54581014     6.47155746
Cd    -4.78083799     4.74975414    -1.99267654
Cd    -7.01122199     3.77672414     0.14424046
Cd    -4.61640099     6.35120914     1.54679246
Cd    -0.99403699    -2.71682186    -8.60229354
Cd    -1.85958999    -4.78881786    -5.99894354
Cd     1.69419401    -4.15617886    -6.10021754
Cd    -0.82249499    -4.46398086    -2.36410754
Cd     1.92120701    -4.53225386     1.05361746
Cd     1.83391701    -6.32364086     4.19713746
Cd    -1.57432799    -4.99054486     4.11591746
Cd     0.81180701    -4.49564086     7.04514446
Cd     1.81704301    -0.46497386    -8.14684354
Cd    -1.18411699    -1.14273886    -4.94739554
Cd     1.94611401     2.07803814    -4.66764754
Cd     1.85166001    -1.20234186    -1.96993554
Cd    -1.36648699     1.68141414    -1.63858754
Cd    -1.31695799    -1.73574286     1.13299846
Cd     1.65617001     1.47709614     1.60485146
Cd     1.47951701    -1.66123086     4.34222246
Cd    -1.77283499     1.26028714     4.24845346
Cd    -1.99487499    -2.03781286     7.02240946
Cd     1.02620201     1.15985214     7.65431446
Cd    -1.13552099     2.79106414    -7.05100154
Cd    -3.39170799     4.96634914    -6.08688954
Cd     1.91168701     4.81372814    -1.02220254
Cd    -0.96318399     5.03768814    -4.10703754
Cd    -1.42680299     4.51159614     1.47307846
Cd     1.50721401     6.68391614     2.24238746
Cd     1.43390001     4.33819614     5.11612346
Cd    -1.32318299     6.84315814     4.57844346
Cd    -1.73696099     3.68904614     7.04400046
Cd     4.93131901    -5.51206386    -4.44281354
Cd     2.46497001    -6.57164786    -2.60298454
Cd     4.56919301    -3.89140886     3.91552046
Cd     4.50806401     1.93432314    -7.28759954
Cd     4.69680501    -1.48648486    -5.33446954
Cd     6.62793301     1.63732714    -4.64308054
Cd     4.96491801    -3.89744586    -1.75511354
Cd     4.86748501     1.61788614    -1.48752854
Cd     4.96609301    -1.09916786     1.46968846
Cd     6.46756401    -0.43057386     4.56155846
Cd     4.31441701     1.61497314     5.40118146
Cd     3.90407801    -1.32394186     7.49528646
Cd     4.50929001     4.55724814    -4.02852954
Cd     6.86461201     2.26608314     1.30595446
Cd     5.44624801     5.41695414    -0.70604754
Cd     4.85465401     4.28379314     2.64162346
Se    -2.92712399    -2.39654986    -6.64286454
Se    -4.25574299    -7.25973886    -0.78464254
Se    -5.80041499    -3.64490386    -3.18074754
Se    -2.52080199    -3.47383386    -0.48926754
Se    -1.93005499    -6.30689686    -3.98398354
Se    -6.12797899    -3.96046986     2.35009846
Se    -3.31929099    -3.80680286     5.67443046
Se    -2.53217199    -6.82269286     2.55598646
Se    -6.68045499     0.00718014    -5.29708854
Se    -3.80194199     2.73693914    -7.40330154
Se    -5.72430999    -0.24916586    -0.62270254
Se    -7.12093999     3.40411714    -2.44212554
Se    -3.05954499     3.23091114    -0.30750054
Se    -2.87460899     0.17068114    -3.36338554
Se    -6.56724199    -0.83703386     5.36704346
Se    -6.27323999     2.88845514     2.45788446
Se    -3.61257299     2.70718314     5.56614246
Se    -3.12566499    -0.41557386     2.61642146
Se    -6.26049999     6.38512414    -0.29583954
Se    -3.37162699     6.10174114    -3.74495154
Se    -3.15282499     5.48838814     3.35379646
Se    -0.14288199    -5.01386986    -7.96935754
Se     3.27836301    -2.44358686    -7.35328954
Se     0.65803901    -6.10385286    -0.74279454
Se     0.61732701    -2.75464886    -3.82894654
Se     3.35662401    -2.59714586    -0.17771454
Se     2.64747201    -6.48217186    -5.24150654
Se     0.00756601    -6.61668686     5.86171846
Se     0.18603401    -3.33890086     2.73317146
Se     2.98105701    -3.31320386     6.03098346
Se     3.69397201    -5.97996686     2.55803646
Se     0.26887901     0.72719314    -6.29837954
Se     3.23655901     3.89161414    -6.17972254
Se     0.22417801     0.04211014    -0.22141354
Se     0.46606101     3.31457114    -2.79952254
Se     3.45164501     3.05873214     0.34770746
Se     3.53763201     0.28975514    -3.44588354
Se    -0.27888799    -0.34867186     5.86071946
Se     0.02366401     2.93290614     3.13112246
Se     2.75755901     2.96283714     6.93043046
Se     3.21750001     0.02090714     3.25697446
Se    -0.74529799     5.34451014    -6.73204154
Se     0.08386001     6.29063914     0.16153246
Se     3.73363201     6.38836814    -2.31466854
Se    -0.27362199     5.78918814     6.67448346
Se     3.27846901     5.92207514     3.90971646
Se     4.99458601    -6.52604386    -1.87022054
Se     6.17275701    -3.24104986    -4.02263354
Se     6.60732801    -2.55228286     3.08696646
Se     6.41536701     0.27494814    -6.71874754
Se     6.63192801     0.16875814    -0.15528254
Se     6.58056801     3.36625714    -2.84235854
Se     5.96435801     0.05992114     7.06626246
Se     6.49744301     2.31859414     3.95360046
Se     7.05048301     4.93506514     1.15979946
Cl    -8.81833099    -0.61855886     1.85974146
Cl    -3.59158699    -0.62325186     8.42888346
Cl    -0.14045399    -0.82529286    -9.89444854
Cl    -0.45617799    -3.30167986     8.76331646
Cl     3.16222801     1.33498114    -9.35928054
Cl    -0.85168699     2.29975314     8.96914446
Cl     2.20379901    -0.60179686     9.16857546
Cl     0.09736801     8.56861914     3.46893146
