1946
AlAs-As-Al844As715Cl387-clean
Al -15.602487 -15.603947 -12.769784
Al -15.602487 -18.443947 -9.929784
Al -18.442487 -15.603947 -9.929784
Al -15.602487 -15.603947 -7.089784
Al -15.602487 -9.923947 -18.449784
Al -15.602487 -12.763947 -15.609784
Al -18.442487 -9.923947 -15.609784
Al -18.442487 -12.763947 -12.769784
Al -15.602487 -9.923947 -12.769784
Al -15.602487 -12.763947 -9.929784
Al -18.442487 -9.923947 -9.929784
Al -18.442487 -12.763947 -7.089784
Al -15.602487 -9.923947 -7.089784
Al -15.602487 -12.763947 -4.249784
Al -18.442487 -9.923947 -4.249784
Al -15.602487 -9.923947 -1.409784
Al -15.602487 -7.083947 -15.609784
Al -18.442487 -7.083947 -12.769784
Al -15.602487 -4.243947 -12.769784
Al -15.602487 -7.083947 -9.929784
Al -18.442487 -4.243947 -9.929784
Al -18.442487 -7.083947 -7.089784
Al -15.602487 -4.243947 -7.089784
Al -15.602487 -7.083947 -4.249784
Al -18.442487 -4.243947 -4.249784
Al -18.442487 -7.083947 -1.409784
Al -15.602487 -4.243947 -1.409784
Al -15.602487 -7.083947 1.430216
Al -18.442487 -4.243947 1.430216
Al -15.602487 -4.243947 4.270216
Al -15.602487 -1.403947 -9.929784
Al -18.442487 -1.403947 -7.089784
Al -15.602487 1.436053 -7.089784
Al -15.602487 -1.403947 -4.249784
Al -18.442487 1.436053 -4.249784
Al -18.442487 -1.403947 -1.409784
Al -15.602487 1.436053 -1.409784
Al -15.602487 -1.403947 1.430216
Al -18.442487 1.436053 1.430216
Al -18.442487 -1.403947 4.270216
Al -15.602487 1.436053 4.270216
Al -15.602487 -1.403947 7.110216
Al -18.442487 1.436053 7.110216
Al -15.602487 1.436053 9.950216
Al -15.602487 4.276053 -4.249784
Al -18.442487 4.276053 -1.409784
Al -15.602487 7.116053 -1.409784
Al -15.602487 4.276053 1.430216
Al -18.442487 7.116053 1.430216
Al -18.442487 4.276053 4.270216
Al -15.602487 7.116053 4.270216
Al -15.602487 4.276053 7.110216
Al -18.442487 7.116053 7.110216
Al -18.442487 4.276053 9.950216
Al -15.602487 7.116053 9.950216
Al -15.602487 4.276053 12.790216
Al -18.442487 7.116053 12.790216
Al -15.602487 7.116053 15.630216
Al -15.602487 9.956053 1.430216
Al -18.442487 9.956053 4.270216
Al -15.602487 12.796053 4.270216
Al -15.602487 9.956053 7.110216
Al -18.442487 12.796053 7.110216
Al -18.442487 9.956053 9.950216
Al -15.602487 12.796053 9.950216
Al -15.602487 9.956053 12.790216
Al -18.442487 12.796053 12.790216
Al -18.442487 9.956053 15.630216
Al -15.602487 12.796053 15.630216
Al -15.602487 9.956053 18.470216
Al -15.602487 15.636053 7.110216
Al -18.442487 15.636053 9.950216
Al -15.602487 18.476053 9.950216
Al -15.602487 15.636053 12.790216
Al -9.922487 -15.603947 -18.449784
Al -9.922487 -18.443947 -15.609784
Al -12.762487 -15.603947 -15.609784
Al -12.762487 -18.443947 -12.769784
Al -9.922487 -15.603947 -12.769784
Al -9.922487 -18.443947 -9.929784
Al -12.762487 -15.603947 -9.929784
Al -12.762487 -18.443947 -7.089784
Al -9.922487 -15.603947 -7.089784
Al -9.922487 -18.443947 -4.249784
Al -12.762487 -15.603947 -4.249784
Al -9.922487 -15.603947 -1.409784
Al -12.762487 -12.763947 -18.449784
Al -9.922487 -9.923947 -18.449784
Al -9.922487 -12.763947 -15.609784
Al -12.762487 -9.923947 -15.609784
Al -12.762487 -12.763947 -12.769784
Al -9.922487 -9.923947 -12.769784
Al -9.922487 -12.763947 -9.929784
Al -12.762487 -9.923947 -9.929784
Al -12.762487 -12.763947 -7.089784
Al -9.922487 -9.923947 -7.089784
Al -9.922487 -12.763947 -4.249784
Al -12.762487 -9.923947 -4.249784
Al -12.762487 -12.763947 -1.409784
Al -9.922487 -9.923947 -1.409784
Al -9.922487 -12.763947 1.430216
Al -12.762487 -9.923947 1.430216
Al -9.922487 -9.923947 4.270216
Al -12.762487 -7.083947 -18.449784
Al -9.922487 -4.243947 -18.449784
Al -9.922487 -7.083947 -15.609784
Al -12.762487 -4.243947 -15.609784
Al -12.762487 -7.083947 -12.769784
Al -9.922487 -4.243947 -12.769784
Al -9.922487 -7.083947 -9.929784
Al -12.762487 -4.243947 -9.929784
Al -12.762487 -7.083947 -7.089784
Al -9.922487 -4.243947 -7.089784
Al -9.922487 -7.083947 -4.249784
Al -12.762487 -4.243947 -4.249784
Al -12.762487 -7.083947 -1.409784
Al -9.922487 -4.243947 -1.409784
Al -9.922487 -7.083947 1.430216
Al -12.762487 -4.243947 1.430216
Al -12.762487 -7.083947 4.270216
Al -9.922487 -4.243947 4.270216
Al -9.922487 -7.083947 7.110216
Al -12.762487 -4.243947 7.110216
Al -9.922487 -4.243947 9.950216
Al -9.922487 -1.403947 -15.609784
Al -12.762487 -1.403947 -12.769784
Al -9.922487 1.436053 -12.769784
Al -9.922487 -1.403947 -9.929784
Al -12.762487 1.436053 -9.929784
Al -12.762487 -1.403947 -7.089784
Al -9.922487 1.436053 -7.089784
Al -9.922487 -1.403947 -4.249784
Al -12.762487 1.436053 -4.249784
Al -12.762487 -1.403947 -1.409784
Al -9.922487 1.436053 -1.409784
Al -9.922487 -1.403947 1.430216
Al -12.762487 1.436053 1.430216
Al -12.762487 -1.403947 4.270216
Al -9.922487 1.436053 4.270216
Al -9.922487 -1.403947 7.110216
Al -12.762487 1.436053 7.110216
Al -12.762487 -1.403947 9.950216
Al -9.922487 1.436053 9.950216
Al -9.922487 -1.403947 12.790216
Al -12.762487 1.436053 12.790216
Al -9.922487 1.436053 15.630216
Al -9.922487 4.276053 -9.929784
Al -12.762487 4.276053 -7.089784
Al -9.922487 7.116053 -7.089784
Al -9.922487 4.276053 -4.249784
Al -12.762487 7.116053 -4.249784
Al -12.762487 4.276053 -1.409784
Al -9.922487 7.116053 -1.409784
Al -9.922487 4.276053 1.430216
Al -12.762487 7.116053 1.430216
Al -12.762487 4.276053 4.270216
Al -9.922487 7.116053 4.270216
Al -9.922487 4.276053 7.110216
Al -12.762487 7.116053 7.110216
Al -12.762487 4.276053 9.950216
Al -9.922487 7.116053 9.950216
Al -9.922487 4.276053 12.790216
Al -12.762487 7.116053 12.790216
Al -12.762487 4.276053 15.630216
Al -9.922487 7.116053 15.630216
Al -9.922487 4.276053 18.470216
Al -12.762487 7.116053 18.470216
Al -9.922487 9.956053 -4.249784
Al -12.762487 9.956053 -1.409784
Al -9.922487 12.796053 -1.409784
Al -9.922487 9.956053 1.430216
Al -12.762487 12.796053 1.430216
Al -12.762487 9.956053 4.270216
Al -9.922487 12.796053 4.270216
Al -9.922487 9.956053 7.110216
Al -12.762487 12.796053 7.110216
Al -12.762487 9.956053 9.950216
Al -9.922487 12.796053 9.950216
Al -9.922487 9.956053 12.790216
Al -12.762487 12.796053 12.790216
Al -12.762487 9.956053 15.630216
Al -9.922487 12.796053 15.630216
Al -9.922487 9.956053 18.470216
Al -12.762487 12.796053 18.470216
Al -9.922487 15.636053 1.430216
Al -12.762487 15.636053 4.270216
Al -9.922487 18.476053 4.270216
Al -9.922487 15.636053 7.110216
Al -12.762487 18.476053 7.110216
Al -12.762487 15.636053 9.950216
Al -9.922487 18.476053 9.950216
Al -9.922487 15.636053 12.790216
Al -12.762487 18.476053 12.790216
Al -12.762487 15.636053 15.630216
Al -9.922487 18.476053 15.630216
Al -9.922487 15.636053 18.470216
Al -7.082487 -15.603947 -15.609784
Al -7.082487 -18.443947 -12.769784
Al -4.242487 -15.603947 -12.769784
Al -4.242487 -18.443947 -9.929784
Al -7.082487 -15.603947 -9.929784
Al -7.082487 -18.443947 -7.089784
Al -4.242487 -15.603947 -7.089784
Al -4.242487 -18.443947 -4.249784
Al -7.082487 -15.603947 -4.249784
Al -7.082487 -18.443947 -1.409784
Al -4.242487 -15.603947 -1.409784
Al -4.242487 -18.443947 1.430216
Al -7.082487 -15.603947 1.430216
Al -4.242487 -15.603947 4.270216
Al -7.082487 -12.763947 -18.449784
Al -4.242487 -9.923947 -18.449784
Al -4.242487 -12.763947 -15.609784
Al -7.082487 -9.923947 -15.609784
Al -7.082487 -12.763947 -12.769784
Al -4.242487 -9.923947 -12.769784
Al -4.242487 -12.763947 -9.929784
Al -7.082487 -9.923947 -9.929784
Al -7.082487 -12.763947 -7.089784
Al -4.242487 -9.923947 -7.089784
Al -4.242487 -12.763947 -4.249784
Al -7.082487 -9.923947 -4.249784
Al -7.082487 -12.763947 -1.409784
Al -4.242487 -9.923947 -1.409784
Al -4.242487 -12.763947 1.430216
Al -7.082487 -9.923947 1.430216
Al -7.082487 -12.763947 4.270216
Al -4.242487 -9.923947 4.270216
Al -4.242487 -12.763947 7.110216
Al -7.082487 -9.923947 7.110216
Al -4.242487 -9.923947 9.950216
Al -7.082487 -7.083947 -18.449784
Al -4.242487 -4.243947 -18.449784
Al -4.242487 -7.083947 -15.609784
Al -7.082487 -4.243947 -15.609784
Al -7.082487 -7.083947 -12.769784
Al -4.242487 -4.243947 -12.769784
Al -4.242487 -7.083947 -9.929784
Al -7.082487 -4.243947 -9.929784
Al -7.082487 -7.083947 -7.089784
Al -4.242487 -4.243947 -7.089784
Al -4.242487 -7.083947 -4.249784
Al -7.082487 -4.243947 -4.249784
Al -7.082487 -7.083947 -1.409784
Al -4.242487 -4.243947 -1.409784
Al -4.242487 -7.083947 1.430216
Al -7.082487 -4.243947 1.430216
Al -7.082487 -7.083947 4.270216
Al -4.242487 -4.243947 4.270216
Al -4.242487 -7.083947 7.110216
Al -7.082487 -4.243947 7.110216
Al -7.082487 -7.083947 9.950216
Al -4.242487 -4.243947 9.950216
Al -4.242487 -7.083947 12.790216
Al -7.082487 -4.243947 12.790216
Al -4.242487 -4.243947 15.630216
Al -7.082487 -1.403947 -18.449784
Al -4.242487 1.436053 -18.449784
Al -4.242487 -1.403947 -15.609784
Al -7.082487 1.436053 -15.609784
Al -7.082487 -1.403947 -12.769784
Al -4.242487 1.436053 -12.769784
Al -4.242487 -1.403947 -9.929784
Al -7.082487 1.436053 -9.929784
Al -7.082487 -1.403947 -7.089784
Al -4.242487 1.436053 -7.089784
Al -4.242487 -1.403947 -4.249784
Al -7.082487 1.436053 -4.249784
Al -7.082487 -1.403947 -1.409784
Al -4.242487 1.436053 -1.409784
Al -4.242487 -1.403947 1.430216
Al -7.082487 1.436053 1.430216
Al -7.082487 -1.403947 4.270216
Al -4.242487 1.436053 4.270216
Al -4.242487 -1.403947 7.110216
Al -7.082487 1.436053 7.110216
Al -7.082487 -1.403947 9.950216
Al -4.242487 1.436053 9.950216
Al -4.242487 -1.403947 12.790216
Al -7.082487 1.436053 12.790216
Al -7.082487 -1.403947 15.630216
Al -4.242487 1.436053 15.630216
Al -4.242487 -1.403947 18.470216
Al -7.082487 1.436053 18.470216
Al -4.242487 4.276053 -15.609784
Al -7.082487 4.276053 -12.769784
Al -4.242487 7.116053 -12.769784
Al -4.242487 4.276053 -9.929784
Al -7.082487 7.116053 -9.929784
Al -7.082487 4.276053 -7.089784
Al -4.242487 7.116053 -7.089784
Al -4.242487 4.276053 -4.249784
Al -7.082487 7.116053 -4.249784
Al -7.082487 4.276053 -1.409784
Al -4.242487 7.116053 -1.409784
Al -4.242487 4.276053 1.430216
Al -7.082487 7.116053 1.430216
Al -7.082487 4.276053 4.270216
Al -4.242487 7.116053 4.270216
Al -4.242487 4.276053 7.110216
Al -7.082487 7.116053 7.110216
Al -7.082487 4.276053 9.950216
Al -4.242487 7.116053 9.950216
Al -4.242487 4.276053 12.790216
Al -7.082487 7.116053 12.790216
Al -7.082487 4.276053 15.630216
Al -4.242487 7.116053 15.630216
Al -4.242487 4.276053 18.470216
Al -7.082487 7.116053 18.470216
Al -4.242487 9.956053 -9.929784
Al -7.082487 9.956053 -7.089784
Al -4.242487 12.796053 -7.089784
Al -4.242487 9.956053 -4.249784
Al -7.082487 12.796053 -4.249784
Al -7.082487 9.956053 -1.409784
Al -4.242487 12.796053 -1.409784
Al -4.242487 9.956053 1.430216
Al -7.082487 12.796053 1.430216
Al -7.082487 9.956053 4.270216
Al -4.242487 12.796053 4.270216
Al -4.242487 9.956053 7.110216
Al -7.082487 12.796053 7.110216
Al -7.082487 9.956053 9.950216
Al -4.242487 12.796053 9.950216
Al -4.242487 9.956053 12.790216
Al -7.082487 12.796053 12.790216
Al -7.082487 9.956053 15.630216
Al -4.242487 12.796053 15.630216
Al -4.242487 9.956053 18.470216
Al -7.082487 12.796053 18.470216
Al -4.242487 15.636053 -4.249784
Al -7.082487 15.636053 -1.409784
Al -4.242487 18.476053 -1.409784
Al -4.242487 15.636053 1.430216
Al -7.082487 18.476053 1.430216
Al -7.082487 15.636053 4.270216
Al -4.242487 18.476053 4.270216
Al -4.242487 15.636053 7.110216
Al -7.082487 18.476053 7.110216
Al -7.082487 15.636053 9.950216
Al -4.242487 18.476053 9.950216
Al -4.242487 15.636053 12.790216
Al -7.082487 18.476053 12.790216
Al -7.082487 15.636053 15.630216
Al -1.402487 -15.603947 -9.929784
Al -1.402487 -18.443947 -7.089784
Al 1.437513 -15.603947 -7.089784
Al 1.437513 -18.443947 -4.249784
Al -1.402487 -15.603947 -4.249784
Al -1.402487 -18.443947 -1.409784
Al 1.437513 -15.603947 -1.409784
Al 1.437513 -18.443947 1.430216
Al -1.402487 -15.603947 1.430216
Al -1.402487 -18.443947 4.270216
Al 1.437513 -15.603947 4.270216
Al 1.437513 -18.443947 7.110216
Al -1.402487 -15.603947 7.110216
Al 1.437513 -15.603947 9.950216
Al -1.402487 -9.923947 -15.609784
Al -1.402487 -12.763947 -12.769784
Al 1.437513 -9.923947 -12.769784
Al 1.437513 -12.763947 -9.929784
Al -1.402487 -9.923947 -9.929784
Al -1.402487 -12.763947 -7.089784
Al 1.437513 -9.923947 -7.089784
Al 1.437513 -12.763947 -4.249784
Al -1.402487 -9.923947 -4.249784
Al -1.402487 -12.763947 -1.409784
Al 1.437513 -9.923947 -1.409784
Al 1.437513 -12.763947 1.430216
Al -1.402487 -9.923947 1.430216
Al -1.402487 -12.763947 4.270216
Al 1.437513 -9.923947 4.270216
Al 1.437513 -12.763947 7.110216
Al -1.402487 -9.923947 7.110216
Al -1.402487 -12.763947 9.950216
Al 1.437513 -9.923947 9.950216
Al 1.437513 -12.763947 12.790216
Al -1.402487 -9.923947 12.790216
Al 1.437513 -9.923947 15.630216
Al -1.402487 -7.083947 -18.449784
Al 1.437513 -4.243947 -18.449784
Al 1.437513 -7.083947 -15.609784
Al -1.402487 -4.243947 -15.609784
Al -1.402487 -7.083947 -12.769784
Al 1.437513 -4.243947 -12.769784
Al 1.437513 -7.083947 -9.929784
Al -1.402487 -4.243947 -9.929784
Al -1.402487 -7.083947 -7.089784
Al 1.437513 -4.243947 -7.089784
Al 1.437513 -7.083947 -4.249784
Al -1.402487 -4.243947 -4.249784
Al -1.402487 -7.083947 -1.409784
Al 1.437513 -4.243947 -1.409784
Al 1.437513 -7.083947 1.430216
Al -1.402487 -4.243947 1.430216
Al -1.402487 -7.083947 4.270216
Al 1.437513 -4.243947 4.270216
Al 1.437513 -7.083947 7.110216
Al -1.402487 -4.243947 7.110216
Al -1.402487 -7.083947 9.950216
Al 1.437513 -4.243947 9.950216
Al 1.437513 -7.083947 12.790216
Al -1.402487 -4.243947 12.790216
Al -1.402487 -7.083947 15.630216
Al 1.437513 -4.243947 15.630216
Al 1.437513 -7.083947 18.470216
Al -1.402487 -4.243947 18.470216
Al -1.402487 -1.403947 -18.449784
Al 1.437513 1.436053 -18.449784
Al 1.437513 -1.403947 -15.609784
Al -1.402487 1.436053 -15.609784
Al -1.402487 -1.403947 -12.769784
Al 1.437513 1.436053 -12.769784
Al 1.437513 -1.403947 -9.929784
Al -1.402487 1.436053 -9.929784
Al -1.402487 -1.403947 -7.089784
Al 1.437513 1.436053 -7.089784
Al 1.437513 -1.403947 -4.249784
Al -1.402487 1.436053 -4.249784
Al -1.402487 -1.403947 -1.409784
Al 1.437513 1.436053 -1.409784
Al 1.437513 -1.403947 1.430216
Al -1.402487 1.436053 1.430216
Al -1.402487 -1.403947 4.270216
Al 1.437513 1.436053 4.270216
Al 1.437513 -1.403947 7.110216
Al -1.402487 1.436053 7.110216
Al -1.402487 -1.403947 9.950216
Al 1.437513 1.436053 9.950216
Al 1.437513 -1.403947 12.790216
Al -1.402487 1.436053 12.790216
Al -1.402487 -1.403947 15.630216
Al 1.437513 1.436053 15.630216
Al 1.437513 -1.403947 18.470216
Al -1.402487 1.436053 18.470216
Al -1.402487 4.276053 -18.449784
Al 1.437513 7.116053 -18.449784
Al 1.437513 4.276053 -15.609784
Al -1.402487 7.116053 -15.609784
Al -1.402487 4.276053 -12.769784
Al 1.437513 7.116053 -12.769784
Al 1.437513 4.276053 -9.929784
Al -1.402487 7.116053 -9.929784
Al -1.402487 4.276053 -7.089784
Al 1.437513 7.116053 -7.089784
Al 1.437513 4.276053 -4.249784
Al -1.402487 7.116053 -4.249784
Al -1.402487 4.276053 -1.409784
Al 1.437513 7.116053 -1.409784
Al 1.437513 4.276053 1.430216
Al -1.402487 7.116053 1.430216
Al -1.402487 4.276053 4.270216
Al 1.437513 7.116053 4.270216
Al 1.437513 4.276053 7.110216
Al -1.402487 7.116053 7.110216
Al -1.402487 4.276053 9.950216
Al 1.437513 7.116053 9.950216
Al 1.437513 4.276053 12.790216
Al -1.402487 7.116053 12.790216
Al -1.402487 4.276053 15.630216
Al 1.437513 7.116053 15.630216
Al 1.437513 4.276053 18.470216
Al -1.402487 7.116053 18.470216
Al 1.437513 9.956053 -15.609784
Al -1.402487 9.956053 -12.769784
Al 1.437513 12.796053 -12.769784
Al 1.437513 9.956053 -9.929784
Al -1.402487 12.796053 -9.929784
Al -1.402487 9.956053 -7.089784
Al 1.437513 12.796053 -7.089784
Al 1.437513 9.956053 -4.249784
Al -1.402487 12.796053 -4.249784
Al -1.402487 9.956053 -1.409784
Al 1.437513 12.796053 -1.409784
Al 1.437513 9.956053 1.430216
Al -1.402487 12.796053 1.430216
Al -1.402487 9.956053 4.270216
Al 1.437513 12.796053 4.270216
Al 1.437513 9.956053 7.110216
Al -1.402487 12.796053 7.110216
Al -1.402487 9.956053 9.950216
Al 1.437513 12.796053 9.950216
Al 1.437513 9.956053 12.790216
Al -1.402487 12.796053 12.790216
Al -1.402487 9.956053 15.630216
Al 1.437513 15.636053 -9.929784
Al -1.402487 15.636053 -7.089784
Al 1.437513 18.476053 -7.089784
Al 1.437513 15.636053 -4.249784
Al -1.402487 18.476053 -4.249784
Al -1.402487 15.636053 -1.409784
Al 1.437513 18.476053 -1.409784
Al 1.437513 15.636053 1.430216
Al -1.402487 18.476053 1.430216
Al -1.402487 15.636053 4.270216
Al 1.437513 18.476053 4.270216
Al 1.437513 15.636053 7.110216
Al -1.402487 18.476053 7.110216
Al -1.402487 15.636053 9.950216
Al 4.277513 -15.603947 -4.249784
Al 4.277513 -18.443947 -1.409784
Al 7.117513 -15.603947 -1.409784
Al 7.117513 -18.443947 1.430216
Al 4.277513 -15.603947 1.430216
Al 4.277513 -18.443947 4.270216
Al 7.117513 -15.603947 4.270216
Al 7.117513 -18.443947 7.110216
Al 4.277513 -15.603947 7.110216
Al 4.277513 -18.443947 9.950216
Al 7.117513 -15.603947 9.950216
Al 7.117513 -18.443947 12.790216
Al 4.277513 -15.603947 12.790216
Al 7.117513 -15.603947 15.630216
Al 4.277513 -9.923947 -9.929784
Al 4.277513 -12.763947 -7.089784
Al 7.117513 -9.923947 -7.089784
Al 7.117513 -12.763947 -4.249784
Al 4.277513 -9.923947 -4.249784
Al 4.277513 -12.763947 -1.409784
Al 7.117513 -9.923947 -1.409784
Al 7.117513 -12.763947 1.430216
Al 4.277513 -9.923947 1.430216
Al 4.277513 -12.763947 4.270216
Al 7.117513 -9.923947 4.270216
Al 7.117513 -12.763947 7.110216
Al 4.277513 -9.923947 7.110216
Al 4.277513 -12.763947 9.950216
Al 7.117513 -9.923947 9.950216
Al 7.117513 -12.763947 12.790216
Al 4.277513 -9.923947 12.790216
Al 4.277513 -12.763947 15.630216
Al 7.117513 -9.923947 15.630216
Al 7.117513 -12.763947 18.470216
Al 4.277513 -9.923947 18.470216
Al 4.277513 -4.243947 -15.609784
Al 4.277513 -7.083947 -12.769784
Al 7.117513 -4.243947 -12.769784
Al 7.117513 -7.083947 -9.929784
Al 4.277513 -4.243947 -9.929784
Al 4.277513 -7.083947 -7.089784
Al 7.117513 -4.243947 -7.089784
Al 7.117513 -7.083947 -4.249784
Al 4.277513 -4.243947 -4.249784
Al 4.277513 -7.083947 -1.409784
Al 7.117513 -4.243947 -1.409784
Al 7.117513 -7.083947 1.430216
Al 4.277513 -4.243947 1.430216
Al 4.277513 -7.083947 4.270216
Al 7.117513 -4.243947 4.270216
Al 7.117513 -7.083947 7.110216
Al 4.277513 -4.243947 7.110216
Al 4.277513 -7.083947 9.950216
Al 7.117513 -4.243947 9.950216
Al 7.117513 -7.083947 12.790216
Al 4.277513 -4.243947 12.790216
Al 4.277513 -7.083947 15.630216
Al 7.117513 -4.243947 15.630216
Al 7.117513 -7.083947 18.470216
Al 4.277513 -4.243947 18.470216
Al 4.277513 -1.403947 -18.449784
Al 7.117513 1.436053 -18.449784
Al 7.117513 -1.403947 -15.609784
Al 4.277513 1.436053 -15.609784
Al 4.277513 -1.403947 -12.769784
Al 7.117513 1.436053 -12.769784
Al 7.117513 -1.403947 -9.929784
Al 4.277513 1.436053 -9.929784
Al 4.277513 -1.403947 -7.089784
Al 7.117513 1.436053 -7.089784
Al 7.117513 -1.403947 -4.249784
Al 4.277513 1.436053 -4.249784
Al 4.277513 -1.403947 -1.409784
Al 7.117513 1.436053 -1.409784
Al 7.117513 -1.403947 1.430216
Al 4.277513 1.436053 1.430216
Al 4.277513 -1.403947 4.270216
Al 7.117513 1.436053 4.270216
Al 7.117513 -1.403947 7.110216
Al 4.277513 1.436053 7.110216
Al 4.277513 -1.403947 9.950216
Al 7.117513 1.436053 9.950216
Al 7.117513 -1.403947 12.790216
Al 4.277513 1.436053 12.790216
Al 4.277513 -1.403947 15.630216
Al 7.117513 1.436053 15.630216
Al 7.117513 -1.403947 18.470216
Al 4.277513 1.436053 18.470216
Al 4.277513 4.276053 -18.449784
Al 7.117513 7.116053 -18.449784
Al 7.117513 4.276053 -15.609784
Al 4.277513 7.116053 -15.609784
Al 4.277513 4.276053 -12.769784
Al 7.117513 7.116053 -12.769784
Al 7.117513 4.276053 -9.929784
Al 4.277513 7.116053 -9.929784
Al 4.277513 4.276053 -7.089784
Al 7.117513 7.116053 -7.089784
Al 7.117513 4.276053 -4.249784
Al 4.277513 7.116053 -4.249784
Al 4.277513 4.276053 -1.409784
Al 7.117513 7.116053 -1.409784
Al 7.117513 4.276053 1.430216
Al 4.277513 7.116053 1.430216
Al 4.277513 4.276053 4.270216
Al 7.117513 7.116053 4.270216
Al 7.117513 4.276053 7.110216
Al 4.277513 7.116053 7.110216
Al 4.277513 4.276053 9.950216
Al 7.117513 7.116053 9.950216
Al 7.117513 4.276053 12.790216
Al 4.277513 7.116053 12.790216
Al 4.277513 4.276053 15.630216
Al 4.277513 9.956053 -18.449784
Al 7.117513 12.796053 -18.449784
Al 7.117513 9.956053 -15.609784
Al 4.277513 12.796053 -15.609784
Al 4.277513 9.956053 -12.769784
Al 7.117513 12.796053 -12.769784
Al 7.117513 9.956053 -9.929784
Al 4.277513 12.796053 -9.929784
Al 4.277513 9.956053 -7.089784
Al 7.117513 12.796053 -7.089784
Al 7.117513 9.956053 -4.249784
Al 4.277513 12.796053 -4.249784
Al 4.277513 9.956053 -1.409784
Al 7.117513 12.796053 -1.409784
Al 7.117513 9.956053 1.430216
Al 4.277513 12.796053 1.430216
Al 4.277513 9.956053 4.270216
Al 7.117513 12.796053 4.270216
Al 7.117513 9.956053 7.110216
Al 4.277513 12.796053 7.110216
Al 4.277513 9.956053 9.950216
Al 7.117513 15.636053 -15.609784
Al 4.277513 15.636053 -12.769784
Al 7.117513 18.476053 -12.769784
Al 7.117513 15.636053 -9.929784
Al 4.277513 18.476053 -9.929784
Al 4.277513 15.636053 -7.089784
Al 7.117513 18.476053 -7.089784
Al 7.117513 15.636053 -4.249784
Al 4.277513 18.476053 -4.249784
Al 4.277513 15.636053 -1.409784
Al 7.117513 18.476053 -1.409784
Al 7.117513 15.636053 1.430216
Al 4.277513 18.476053 1.430216
Al 4.277513 15.636053 4.270216
Al 9.957513 -15.603947 1.430216
Al 9.957513 -18.443947 4.270216
Al 12.797513 -15.603947 4.270216
Al 12.797513 -18.443947 7.110216
Al 9.957513 -15.603947 7.110216
Al 9.957513 -18.443947 9.950216
Al 12.797513 -15.603947 9.950216
Al 12.797513 -18.443947 12.790216
Al 9.957513 -15.603947 12.790216
Al 9.957513 -18.443947 15.630216
Al 12.797513 -15.603947 15.630216
Al 9.957513 -15.603947 18.470216
Al 9.957513 -9.923947 -4.249784
Al 9.957513 -12.763947 -1.409784
Al 12.797513 -9.923947 -1.409784
Al 12.797513 -12.763947 1.430216
Al 9.957513 -9.923947 1.430216
Al 9.957513 -12.763947 4.270216
Al 12.797513 -9.923947 4.270216
Al 12.797513 -12.763947 7.110216
Al 9.957513 -9.923947 7.110216
Al 9.957513 -12.763947 9.950216
Al 12.797513 -9.923947 9.950216
Al 12.797513 -12.763947 12.790216
Al 9.957513 -9.923947 12.790216
Al 9.957513 -12.763947 15.630216
Al 12.797513 -9.923947 15.630216
Al 12.797513 -12.763947 18.470216
Al 9.957513 -9.923947 18.470216
Al 9.957513 -4.243947 -9.929784
Al 9.957513 -7.083947 -7.089784
Al 12.797513 -4.243947 -7.089784
Al 12.797513 -7.083947 -4.249784
Al 9.957513 -4.243947 -4.249784
Al 9.957513 -7.083947 -1.409784
Al 12.797513 -4.243947 -1.409784
Al 12.797513 -7.083947 1.430216
Al 9.957513 -4.243947 1.430216
Al 9.957513 -7.083947 4.270216
Al 12.797513 -4.243947 4.270216
Al 12.797513 -7.083947 7.110216
Al 9.957513 -4.243947 7.110216
Al 9.957513 -7.083947 9.950216
Al 12.797513 -4.243947 9.950216
Al 12.797513 -7.083947 12.790216
Al 9.957513 -4.243947 12.790216
Al 9.957513 -7.083947 15.630216
Al 12.797513 -4.243947 15.630216
Al 12.797513 -7.083947 18.470216
Al 9.957513 -4.243947 18.470216
Al 9.957513 1.436053 -15.609784
Al 9.957513 -1.403947 -12.769784
Al 12.797513 1.436053 -12.769784
Al 12.797513 -1.403947 -9.929784
Al 9.957513 1.436053 -9.929784
Al 9.957513 -1.403947 -7.089784
Al 12.797513 1.436053 -7.089784
Al 12.797513 -1.403947 -4.249784
Al 9.957513 1.436053 -4.249784
Al 9.957513 -1.403947 -1.409784
Al 12.797513 1.436053 -1.409784
Al 12.797513 -1.403947 1.430216
Al 9.957513 1.436053 1.430216
Al 9.957513 -1.403947 4.270216
Al 12.797513 1.436053 4.270216
Al 12.797513 -1.403947 7.110216
Al 9.957513 1.436053 7.110216
Al 9.957513 -1.403947 9.950216
Al 12.797513 1.436053 9.950216
Al 12.797513 -1.403947 12.790216
Al 9.957513 1.436053 12.790216
Al 9.957513 -1.403947 15.630216
Al 9.957513 4.276053 -18.449784
Al 12.797513 7.116053 -18.449784
Al 12.797513 4.276053 -15.609784
Al 9.957513 7.116053 -15.609784
Al 9.957513 4.276053 -12.769784
Al 12.797513 7.116053 -12.769784
Al 12.797513 4.276053 -9.929784
Al 9.957513 7.116053 -9.929784
Al 9.957513 4.276053 -7.089784
Al 12.797513 7.116053 -7.089784
Al 12.797513 4.276053 -4.249784
Al 9.957513 7.116053 -4.249784
Al 9.957513 4.276053 -1.409784
Al 12.797513 7.116053 -1.409784
Al 12.797513 4.276053 1.430216
Al 9.957513 7.116053 1.430216
Al 9.957513 4.276053 4.270216
Al 12.797513 7.116053 4.270216
Al 12.797513 4.276053 7.110216
Al 9.957513 7.116053 7.110216
Al 9.957513 4.276053 9.950216
Al 9.957513 9.956053 -18.449784
Al 12.797513 12.796053 -18.449784
Al 12.797513 9.956053 -15.609784
Al 9.957513 12.796053 -15.609784
Al 9.957513 9.956053 -12.769784
Al 12.797513 12.796053 -12.769784
Al 12.797513 9.956053 -9.929784
Al 9.957513 12.796053 -9.929784
Al 9.957513 9.956053 -7.089784
Al 12.797513 12.796053 -7.089784
Al 12.797513 9.956053 -4.249784
Al 9.957513 12.796053 -4.249784
Al 9.957513 9.956053 -1.409784
Al 12.797513 12.796053 -1.409784
Al 12.797513 9.956053 1.430216
Al 9.957513 12.796053 1.430216
Al 9.957513 9.956053 4.270216
Al 9.957513 15.636053 -18.449784
Al 12.797513 15.636053 -15.609784
Al 9.957513 18.476053 -15.609784
Al 9.957513 15.636053 -12.769784
Al 12.797513 18.476053 -12.769784
Al 12.797513 15.636053 -9.929784
Al 9.957513 18.476053 -9.929784
Al 9.957513 15.636053 -7.089784
Al 12.797513 18.476053 -7.089784
Al 12.797513 15.636053 -4.249784
Al 9.957513 18.476053 -4.249784
Al 9.957513 15.636053 -1.409784
Al 15.637513 -15.603947 7.110216
Al 15.637513 -18.443947 9.950216
Al 18.477513 -15.603947 9.950216
Al 15.637513 -15.603947 12.790216
Al 15.637513 -9.923947 1.430216
Al 15.637513 -12.763947 4.270216
Al 18.477513 -9.923947 4.270216
Al 18.477513 -12.763947 7.110216
Al 15.637513 -9.923947 7.110216
Al 15.637513 -12.763947 9.950216
Al 18.477513 -9.923947 9.950216
Al 18.477513 -12.763947 12.790216
Al 15.637513 -9.923947 12.790216
Al 15.637513 -12.763947 15.630216
Al 18.477513 -9.923947 15.630216
Al 15.637513 -9.923947 18.470216
Al 15.637513 -4.243947 -4.249784
Al 15.637513 -7.083947 -1.409784
Al 18.477513 -4.243947 -1.409784
Al 18.477513 -7.083947 1.430216
Al 15.637513 -4.243947 1.430216
Al 15.637513 -7.083947 4.270216
Al 18.477513 -4.243947 4.270216
Al 18.477513 -7.083947 7.110216
Al 15.637513 -4.243947 7.110216
Al 15.637513 -7.083947 9.950216
Al 18.477513 -4.243947 9.950216
Al 18.477513 -7.083947 12.790216
Al 15.637513 -4.243947 12.790216
Al 15.637513 -7.083947 15.630216
Al 15.637513 1.436053 -9.929784
Al 15.637513 -1.403947 -7.089784
Al 18.477513 1.436053 -7.089784
Al 18.477513 -1.403947 -4.249784
Al 15.637513 1.436053 -4.249784
Al 15.637513 -1.403947 -1.409784
Al 18.477513 1.436053 -1.409784
Al 18.477513 -1.403947 1.430216
Al 15.637513 1.436053 1.430216
Al 15.637513 -1.403947 4.270216
Al 18.477513 1.436053 4.270216
Al 18.477513 -1.403947 7.110216
Al 15.637513 1.436053 7.110216
Al 15.637513 -1.403947 9.950216
Al 15.637513 7.116053 -15.609784
Al 15.637513 4.276053 -12.769784
Al 18.477513 7.116053 -12.769784
Al 18.477513 4.276053 -9.929784
Al 15.637513 7.116053 -9.929784
Al 15.637513 4.276053 -7.089784
Al 18.477513 7.116053 -7.089784
Al 18.477513 4.276053 -4.249784
Al 15.637513 7.116053 -4.249784
Al 15.637513 4.276053 -1.409784
Al 18.477513 7.116053 -1.409784
Al 18.477513 4.276053 1.430216
Al 15.637513 7.116053 1.430216
Al 15.637513 4.276053 4.270216
Al 15.637513 9.956053 -18.449784
Al 18.477513 9.956053 -15.609784
Al 15.637513 12.796053 -15.609784
Al 15.637513 9.956053 -12.769784
Al 18.477513 12.796053 -12.769784
Al 18.477513 9.956053 -9.929784
Al 15.637513 12.796053 -9.929784
Al 15.637513 9.956053 -7.089784
Al 18.477513 12.796053 -7.089784
Al 18.477513 9.956053 -4.249784
Al 15.637513 12.796053 -4.249784
Al 15.637513 9.956053 -1.409784
Al 15.637513 15.636053 -12.769784
Al 18.477513 15.636053 -9.929784
Al 15.637513 18.476053 -9.929784
Al 15.637513 15.636053 -7.089784
As -17.022487 -14.183947 -14.189784
As -14.182487 -14.183947 -17.029784
As -14.182487 -17.023947 -14.189784
As -17.022487 -17.023947 -11.349784
As -17.022487 -14.183947 -8.509784
As -14.182487 -14.183947 -11.349784
As -14.182487 -17.023947 -8.509784
As -14.182487 -14.183947 -5.669784
As -17.022487 -11.343947 -17.029784
As -17.022487 -8.503947 -14.189784
As -14.182487 -8.503947 -17.029784
As -14.182487 -11.343947 -14.189784
As -17.022487 -11.343947 -11.349784
As -17.022487 -8.503947 -8.509784
As -14.182487 -8.503947 -11.349784
As -14.182487 -11.343947 -8.509784
As -17.022487 -11.343947 -5.669784
As -17.022487 -8.503947 -2.829784
As -14.182487 -8.503947 -5.669784
As -14.182487 -11.343947 -2.829784
As -14.182487 -8.503947 0.010216
As -14.182487 -5.663947 -14.189784
As -17.022487 -5.663947 -11.349784
As -17.022487 -2.823947 -8.509784
As -14.182487 -2.823947 -11.349784
As -14.182487 -5.663947 -8.509784
As -17.022487 -5.663947 -5.669784
As -17.022487 -2.823947 -2.829784
As -14.182487 -2.823947 -5.669784
As -14.182487 -5.663947 -2.829784
As -17.022487 -5.663947 0.010216
As -17.022487 -2.823947 2.850216
As -14.182487 -2.823947 0.010216
As -14.182487 -5.663947 2.850216
As -14.182487 -2.823947 5.690216
As -14.182487 0.016053 -8.509784
As -17.022487 0.016053 -5.669784
As -17.022487 2.856053 -2.829784
As -14.182487 2.856053 -5.669784
As -14.182487 0.016053 -2.829784
As -17.022487 0.016053 0.010216
As -17.022487 2.856053 2.850216
As -14.182487 2.856053 0.010216
As -14.182487 0.016053 2.850216
As -17.022487 0.016053 5.690216
As -17.022487 2.856053 8.530216
As -14.182487 2.856053 5.690216
As -14.182487 0.016053 8.530216
As -14.182487 2.856053 11.370216
As -14.182487 5.696053 -2.829784
As -17.022487 5.696053 0.010216
As -17.022487 8.536053 2.850216
As -14.182487 8.536053 0.010216
As -14.182487 5.696053 2.850216
As -17.022487 5.696053 5.690216
As -17.022487 8.536053 8.530216
As -14.182487 8.536053 5.690216
As -14.182487 5.696053 8.530216
As -17.022487 5.696053 11.370216
As -17.022487 8.536053 14.210216
As -14.182487 8.536053 11.370216
As -14.182487 5.696053 14.210216
As -14.182487 8.536053 17.050216
As -14.182487 11.376053 2.850216
As -17.022487 11.376053 5.690216
As -17.022487 14.216053 8.530216
As -14.182487 14.216053 5.690216
As -14.182487 11.376053 8.530216
As -17.022487 11.376053 11.370216
As -17.022487 14.216053 14.210216
As -14.182487 14.216053 11.370216
As -14.182487 11.376053 14.210216
As -17.022487 11.376053 17.050216
As -14.182487 14.216053 17.050216
As -14.182487 17.056053 8.530216
As -17.022487 17.056053 11.370216
As -14.182487 17.056053 14.210216
As -11.342487 -17.023947 -17.029784
As -11.342487 -14.183947 -14.189784
As -8.502487 -14.183947 -17.029784
As -8.502487 -17.023947 -14.189784
As -11.342487 -17.023947 -11.349784
As -11.342487 -14.183947 -8.509784
As -8.502487 -14.183947 -11.349784
As -8.502487 -17.023947 -8.509784
As -11.342487 -17.023947 -5.669784
As -11.342487 -14.183947 -2.829784
As -8.502487 -14.183947 -5.669784
As -8.502487 -17.023947 -2.829784
As -8.502487 -14.183947 0.010216
As -11.342487 -11.343947 -17.029784
As -11.342487 -8.503947 -14.189784
As -8.502487 -8.503947 -17.029784
As -8.502487 -11.343947 -14.189784
As -11.342487 -11.343947 -11.349784
As -11.342487 -8.503947 -8.509784
As -8.502487 -8.503947 -11.349784
As -8.502487 -11.343947 -8.509784
As -11.342487 -11.343947 -5.669784
As -11.342487 -8.503947 -2.829784
As -8.502487 -8.503947 -5.669784
As -8.502487 -11.343947 -2.829784
As -11.342487 -11.343947 0.010216
As -11.342487 -8.503947 2.850216
As -8.502487 -8.503947 0.010216
As -8.502487 -11.343947 2.850216
As -8.502487 -8.503947 5.690216
As -11.342487 -5.663947 -17.029784
As -11.342487 -2.823947 -14.189784
As -8.502487 -2.823947 -17.029784
As -8.502487 -5.663947 -14.189784
As -11.342487 -5.663947 -11.349784
As -11.342487 -2.823947 -8.509784
As -8.502487 -2.823947 -11.349784
As -8.502487 -5.663947 -8.509784
As -11.342487 -5.663947 -5.669784
As -11.342487 -2.823947 -2.829784
As -8.502487 -2.823947 -5.669784
As -8.502487 -5.663947 -2.829784
As -11.342487 -5.663947 0.010216
As -11.342487 -2.823947 2.850216
As -8.502487 -2.823947 0.010216
As -8.502487 -5.663947 2.850216
As -11.342487 -5.663947 5.690216
As -11.342487 -2.823947 8.530216
As -8.502487 -2.823947 5.690216
As -8.502487 -5.663947 8.530216
As -8.502487 -2.823947 11.370216
As -8.502487 0.016053 -14.189784
As -11.342487 0.016053 -11.349784
As -11.342487 2.856053 -8.509784
As -8.502487 2.856053 -11.349784
As -8.502487 0.016053 -8.509784
As -11.342487 0.016053 -5.669784
As -11.342487 2.856053 -2.829784
As -8.502487 2.856053 -5.669784
As -8.502487 0.016053 -2.829784
As -11.342487 0.016053 0.010216
As -11.342487 2.856053 2.850216
As -8.502487 2.856053 0.010216
As -8.502487 0.016053 2.850216
As -11.342487 0.016053 5.690216
As -11.342487 2.856053 8.530216
As -8.502487 2.856053 5.690216
As -8.502487 0.016053 8.530216
As -11.342487 0.016053 11.370216
As -11.342487 2.856053 14.210216
As -8.502487 2.856053 11.370216
As -8.502487 0.016053 14.210216
As -8.502487 2.856053 17.050216
As -8.502487 5.696053 -8.509784
As -11.342487 5.696053 -5.669784
As -11.342487 8.536053 -2.829784
As -8.502487 8.536053 -5.669784
As -8.502487 5.696053 -2.829784
As -11.342487 5.696053 0.010216
As -11.342487 8.536053 2.850216
As -8.502487 8.536053 0.010216
As -8.502487 5.696053 2.850216
As -11.342487 5.696053 5.690216
As -11.342487 8.536053 8.530216
As -8.502487 8.536053 5.690216
As -8.502487 5.696053 8.530216
As -11.342487 5.696053 11.370216
As -11.342487 8.536053 14.210216
As -8.502487 8.536053 11.370216
As -8.502487 5.696053 14.210216
As -11.342487 5.696053 17.050216
As -8.502487 8.536053 17.050216
As -8.502487 11.376053 -2.829784
As -11.342487 11.376053 0.010216
As -11.342487 14.216053 2.850216
As -8.502487 14.216053 0.010216
As -8.502487 11.376053 2.850216
As -11.342487 11.376053 5.690216
As -11.342487 14.216053 8.530216
As -8.502487 14.216053 5.690216
As -8.502487 11.376053 8.530216
As -11.342487 11.376053 11.370216
As -11.342487 14.216053 14.210216
As -8.502487 14.216053 11.370216
As -8.502487 11.376053 14.210216
As -11.342487 11.376053 17.050216
As -8.502487 14.216053 17.050216
As -8.502487 17.056053 2.850216
As -11.342487 17.056053 5.690216
As -8.502487 17.056053 8.530216
As -11.342487 17.056053 11.370216
As -8.502487 17.056053 14.210216
As -11.342487 17.056053 17.050216
As -5.662487 -14.183947 -14.189784
As -5.662487 -17.023947 -11.349784
As -5.662487 -14.183947 -8.509784
As -2.822487 -14.183947 -11.349784
As -2.822487 -17.023947 -8.509784
As -5.662487 -17.023947 -5.669784
As -5.662487 -14.183947 -2.829784
As -2.822487 -14.183947 -5.669784
As -2.822487 -17.023947 -2.829784
As -5.662487 -17.023947 0.010216
As -5.662487 -14.183947 2.850216
As -2.822487 -14.183947 0.010216
As -2.822487 -17.023947 2.850216
As -2.822487 -14.183947 5.690216
As -5.662487 -11.343947 -17.029784
As -5.662487 -8.503947 -14.189784
As -2.822487 -8.503947 -17.029784
As -2.822487 -11.343947 -14.189784
As -5.662487 -11.343947 -11.349784
As -5.662487 -8.503947 -8.509784
As -2.822487 -8.503947 -11.349784
As -2.822487 -11.343947 -8.509784
As -5.662487 -11.343947 -5.669784
As -5.662487 -8.503947 -2.829784
As -2.822487 -8.503947 -5.669784
As -2.822487 -11.343947 -2.829784
As -5.662487 -11.343947 0.010216
As -5.662487 -8.503947 2.850216
As -2.822487 -8.503947 0.010216
As -2.822487 -11.343947 2.850216
As -5.662487 -11.343947 5.690216
As -5.662487 -8.503947 8.530216
As -2.822487 -8.503947 5.690216
As -2.822487 -11.343947 8.530216
As -2.822487 -8.503947 11.370216
As -5.662487 -5.663947 -17.029784
As -5.662487 -2.823947 -14.189784
As -2.822487 -2.823947 -17.029784
As -2.822487 -5.663947 -14.189784
As -5.662487 -5.663947 -11.349784
As -5.662487 -2.823947 -8.509784
As -2.822487 -2.823947 -11.349784
As -2.822487 -5.663947 -8.509784
As -5.662487 -5.663947 -5.669784
As -5.662487 -2.823947 -2.829784
As -2.822487 -2.823947 -5.669784
As -2.822487 -5.663947 -2.829784
As -5.662487 -5.663947 0.010216
As -5.662487 -2.823947 2.850216
As -2.822487 -2.823947 0.010216
As -2.822487 -5.663947 2.850216
As -5.662487 -5.663947 5.690216
As -5.662487 -2.823947 8.530216
As -2.822487 -2.823947 5.690216
As -2.822487 -5.663947 8.530216
As -5.662487 -5.663947 11.370216
As -5.662487 -2.823947 14.210216
As -2.822487 -2.823947 11.370216
As -2.822487 -5.663947 14.210216
As -2.822487 -2.823947 17.050216
As -5.662487 0.016053 -17.029784
As -5.662487 2.856053 -14.189784
As -2.822487 2.856053 -17.029784
As -2.822487 0.016053 -14.189784
As -5.662487 0.016053 -11.349784
As -5.662487 2.856053 -8.509784
As -2.822487 2.856053 -11.349784
As -2.822487 0.016053 -8.509784
As -5.662487 0.016053 -5.669784
As -5.662487 2.856053 -2.829784
As -2.822487 2.856053 -5.669784
As -2.822487 0.016053 -2.829784
As -5.662487 0.016053 0.010216
As -5.662487 2.856053 2.850216
As -2.822487 2.856053 0.010216
As -2.822487 0.016053 2.850216
As -5.662487 0.016053 5.690216
As -5.662487 2.856053 8.530216
As -2.822487 2.856053 5.690216
As -2.822487 0.016053 8.530216
As -5.662487 0.016053 11.370216
As -5.662487 2.856053 14.210216
As -2.822487 2.856053 11.370216
As -2.822487 0.016053 14.210216
As -5.662487 0.016053 17.050216
As -2.822487 2.856053 17.050216
As -2.822487 5.696053 -14.189784
As -5.662487 5.696053 -11.349784
As -5.662487 8.536053 -8.509784
As -2.822487 8.536053 -11.349784
As -2.822487 5.696053 -8.509784
As -5.662487 5.696053 -5.669784
As -5.662487 8.536053 -2.829784
As -2.822487 8.536053 -5.669784
As -2.822487 5.696053 -2.829784
As -5.662487 5.696053 0.010216
As -5.662487 8.536053 2.850216
As -2.822487 8.536053 0.010216
As -2.822487 5.696053 2.850216
As -5.662487 5.696053 5.690216
As -5.662487 8.536053 8.530216
As -2.822487 8.536053 5.690216
As -2.822487 5.696053 8.530216
As -5.662487 5.696053 11.370216
As -5.662487 8.536053 14.210216
As -2.822487 8.536053 11.370216
As -2.822487 5.696053 14.210216
As -5.662487 5.696053 17.050216
As -2.822487 8.536053 17.050216
As -2.822487 11.376053 -8.509784
As -5.662487 11.376053 -5.669784
As -5.662487 14.216053 -2.829784
As -2.822487 14.216053 -5.669784
As -2.822487 11.376053 -2.829784
As -5.662487 11.376053 0.010216
As -5.662487 14.216053 2.850216
As -2.822487 14.216053 0.010216
As -2.822487 11.376053 2.850216
As -5.662487 11.376053 5.690216
As -5.662487 14.216053 8.530216
As -2.822487 14.216053 5.690216
As -2.822487 11.376053 8.530216
As -5.662487 11.376053 11.370216
As -5.662487 14.216053 14.210216
As -2.822487 14.216053 11.370216
As -2.822487 11.376053 14.210216
As -5.662487 11.376053 17.050216
As -2.822487 17.056053 -2.829784
As -5.662487 17.056053 0.010216
As -2.822487 17.056053 2.850216
As -5.662487 17.056053 5.690216
As -2.822487 17.056053 8.530216
As -5.662487 17.056053 11.370216
As 0.017513 -14.183947 -8.509784
As 0.017513 -17.023947 -5.669784
As 0.017513 -14.183947 -2.829784
As 2.857513 -14.183947 -5.669784
As 2.857513 -17.023947 -2.829784
As 0.017513 -17.023947 0.010216
As 0.017513 -14.183947 2.850216
As 2.857513 -14.183947 0.010216
As 2.857513 -17.023947 2.850216
As 0.017513 -17.023947 5.690216
As 0.017513 -14.183947 8.530216
As 2.857513 -14.183947 5.690216
As 2.857513 -17.023947 8.530216
As 2.857513 -14.183947 11.370216
As 0.017513 -8.503947 -14.189784
As 0.017513 -11.343947 -11.349784
As 0.017513 -8.503947 -8.509784
As 2.857513 -8.503947 -11.349784
As 2.857513 -11.343947 -8.509784
As 0.017513 -11.343947 -5.669784
As 0.017513 -8.503947 -2.829784
As 2.857513 -8.503947 -5.669784
As 2.857513 -11.343947 -2.829784
As 0.017513 -11.343947 0.010216
As 0.017513 -8.503947 2.850216
As 2.857513 -8.503947 0.010216
As 2.857513 -11.343947 2.850216
As 0.017513 -11.343947 5.690216
As 0.017513 -8.503947 8.530216
As 2.857513 -8.503947 5.690216
As 2.857513 -11.343947 8.530216
As 0.017513 -11.343947 11.370216
As 0.017513 -8.503947 14.210216
As 2.857513 -8.503947 11.370216
As 2.857513 -11.343947 14.210216
As 2.857513 -8.503947 17.050216
As 0.017513 -5.663947 -17.029784
As 0.017513 -2.823947 -14.189784
As 2.857513 -2.823947 -17.029784
As 2.857513 -5.663947 -14.189784
As 0.017513 -5.663947 -11.349784
As 0.017513 -2.823947 -8.509784
As 2.857513 -2.823947 -11.349784
As 2.857513 -5.663947 -8.509784
As 0.017513 -5.663947 -5.669784
As 0.017513 -2.823947 -2.829784
As 2.857513 -2.823947 -5.669784
As 2.857513 -5.663947 -2.829784
As 0.017513 -5.663947 0.010216
As 0.017513 -2.823947 2.850216
As 2.857513 -2.823947 0.010216
As 2.857513 -5.663947 2.850216
As 0.017513 -5.663947 5.690216
As 0.017513 -2.823947 8.530216
As 2.857513 -2.823947 5.690216
As 2.857513 -5.663947 8.530216
As 0.017513 -5.663947 11.370216
As 0.017513 -2.823947 14.210216
As 2.857513 -2.823947 11.370216
As 2.857513 -5.663947 14.210216
As 0.017513 -5.663947 17.050216
As 2.857513 -2.823947 17.050216
As 0.017513 0.016053 -17.029784
As 0.017513 2.856053 -14.189784
As 2.857513 2.856053 -17.029784
As 2.857513 0.016053 -14.189784
As 0.017513 0.016053 -11.349784
As 0.017513 2.856053 -8.509784
As 2.857513 2.856053 -11.349784
As 2.857513 0.016053 -8.509784
As 0.017513 0.016053 -5.669784
As 0.017513 2.856053 -2.829784
As 2.857513 2.856053 -5.669784
As 2.857513 0.016053 -2.829784
As 0.017513 0.016053 0.010216
As 0.017513 2.856053 2.850216
As 2.857513 2.856053 0.010216
As 2.857513 0.016053 2.850216
As 0.017513 0.016053 5.690216
As 0.017513 2.856053 8.530216
As 2.857513 2.856053 5.690216
As 2.857513 0.016053 8.530216
As 0.017513 0.016053 11.370216
As 0.017513 2.856053 14.210216
As 2.857513 2.856053 11.370216
As 2.857513 0.016053 14.210216
As 0.017513 0.016053 17.050216
As 2.857513 2.856053 17.050216
As 0.017513 5.696053 -17.029784
As 0.017513 8.536053 -14.189784
As 2.857513 8.536053 -17.029784
As 2.857513 5.696053 -14.189784
As 0.017513 5.696053 -11.349784
As 0.017513 8.536053 -8.509784
As 2.857513 8.536053 -11.349784
As 2.857513 5.696053 -8.509784
As 0.017513 5.696053 -5.669784
As 0.017513 8.536053 -2.829784
As 2.857513 8.536053 -5.669784
As 2.857513 5.696053 -2.829784
As 0.017513 5.696053 0.010216
As 0.017513 8.536053 2.850216
As 2.857513 8.536053 0.010216
As 2.857513 5.696053 2.850216
As 0.017513 5.696053 5.690216
As 0.017513 8.536053 8.530216
As 2.857513 8.536053 5.690216
As 2.857513 5.696053 8.530216
As 0.017513 5.696053 11.370216
As 0.017513 8.536053 14.210216
As 2.857513 8.536053 11.370216
As 2.857513 5.696053 14.210216
As 0.017513 5.696053 17.050216
As 2.857513 11.376053 -14.189784
As 0.017513 11.376053 -11.349784
As 0.017513 14.216053 -8.509784
As 2.857513 14.216053 -11.349784
As 2.857513 11.376053 -8.509784
As 0.017513 11.376053 -5.669784
As 0.017513 14.216053 -2.829784
As 2.857513 14.216053 -5.669784
As 2.857513 11.376053 -2.829784
As 0.017513 11.376053 0.010216
As 0.017513 14.216053 2.850216
As 2.857513 14.216053 0.010216
As 2.857513 11.376053 2.850216
As 0.017513 11.376053 5.690216
As 0.017513 14.216053 8.530216
As 2.857513 14.216053 5.690216
As 2.857513 11.376053 8.530216
As 0.017513 11.376053 11.370216
As 2.857513 17.056053 -8.509784
As 0.017513 17.056053 -5.669784
As 2.857513 17.056053 -2.829784
As 0.017513 17.056053 0.010216
As 2.857513 17.056053 2.850216
As 0.017513 17.056053 5.690216
As 5.697513 -14.183947 -2.829784
As 5.697513 -17.023947 0.010216
As 5.697513 -14.183947 2.850216
As 8.537513 -14.183947 0.010216
As 8.537513 -17.023947 2.850216
As 5.697513 -17.023947 5.690216
As 5.697513 -14.183947 8.530216
As 8.537513 -14.183947 5.690216
As 8.537513 -17.023947 8.530216
As 5.697513 -17.023947 11.370216
As 5.697513 -14.183947 14.210216
As 8.537513 -14.183947 11.370216
As 8.537513 -17.023947 14.210216
As 8.537513 -14.183947 17.050216
As 5.697513 -8.503947 -8.509784
As 5.697513 -11.343947 -5.669784
As 5.697513 -8.503947 -2.829784
As 8.537513 -8.503947 -5.669784
As 8.537513 -11.343947 -2.829784
As 5.697513 -11.343947 0.010216
As 5.697513 -8.503947 2.850216
As 8.537513 -8.503947 0.010216
As 8.537513 -11.343947 2.850216
As 5.697513 -11.343947 5.690216
As 5.697513 -8.503947 8.530216
As 8.537513 -8.503947 5.690216
As 8.537513 -11.343947 8.530216
As 5.697513 -11.343947 11.370216
As 5.697513 -8.503947 14.210216
As 8.537513 -8.503947 11.370216
As 8.537513 -11.343947 14.210216
As 5.697513 -11.343947 17.050216
As 8.537513 -8.503947 17.050216
As 5.697513 -2.823947 -14.189784
As 5.697513 -5.663947 -11.349784
As 5.697513 -2.823947 -8.509784
As 8.537513 -2.823947 -11.349784
As 8.537513 -5.663947 -8.509784
As 5.697513 -5.663947 -5.669784
As 5.697513 -2.823947 -2.829784
As 8.537513 -2.823947 -5.669784
As 8.537513 -5.663947 -2.829784
As 5.697513 -5.663947 0.010216
As 5.697513 -2.823947 2.850216
As 8.537513 -2.823947 0.010216
As 8.537513 -5.663947 2.850216
As 5.697513 -5.663947 5.690216
As 5.697513 -2.823947 8.530216
As 8.537513 -2.823947 5.690216
As 8.537513 -5.663947 8.530216
As 5.697513 -5.663947 11.370216
As 5.697513 -2.823947 14.210216
As 8.537513 -2.823947 11.370216
As 8.537513 -5.663947 14.210216
As 5.697513 -5.663947 17.050216
As 8.537513 -2.823947 17.050216
As 5.697513 0.016053 -17.029784
As 5.697513 2.856053 -14.189784
As 8.537513 2.856053 -17.029784
As 8.537513 0.016053 -14.189784
As 5.697513 0.016053 -11.349784
As 5.697513 2.856053 -8.509784
As 8.537513 2.856053 -11.349784
As 8.537513 0.016053 -8.509784
As 5.697513 0.016053 -5.669784
As 5.697513 2.856053 -2.829784
As 8.537513 2.856053 -5.669784
As 8.537513 0.016053 -2.829784
As 5.697513 0.016053 0.010216
As 5.697513 2.856053 2.850216
As 8.537513 2.856053 0.010216
As 8.537513 0.016053 2.850216
As 5.697513 0.016053 5.690216
As 5.697513 2.856053 8.530216
As 8.537513 2.856053 5.690216
As 8.537513 0.016053 8.530216
As 5.697513 0.016053 11.370216
As 5.697513 2.856053 14.210216
As 8.537513 2.856053 11.370216
As 8.537513 0.016053 14.210216
As 5.697513 0.016053 17.050216
As 5.697513 5.696053 -17.029784
As 5.697513 8.536053 -14.189784
As 8.537513 8.536053 -17.029784
As 8.537513 5.696053 -14.189784
As 5.697513 5.696053 -11.349784
As 5.697513 8.536053 -8.509784
As 8.537513 8.536053 -11.349784
As 8.537513 5.696053 -8.509784
As 5.697513 5.696053 -5.669784
As 5.697513 8.536053 -2.829784
As 8.537513 8.536053 -5.669784
As 8.537513 5.696053 -2.829784
As 5.697513 5.696053 0.010216
As 5.697513 8.536053 2.850216
As 8.537513 8.536053 0.010216
As 8.537513 5.696053 2.850216
As 5.697513 5.696053 5.690216
As 5.697513 8.536053 8.530216
As 8.537513 8.536053 5.690216
As 8.537513 5.696053 8.530216
As 5.697513 5.696053 11.370216
As 5.697513 11.376053 -17.029784
As 5.697513 14.216053 -14.189784
As 8.537513 14.216053 -17.029784
As 8.537513 11.376053 -14.189784
As 5.697513 11.376053 -11.349784
As 5.697513 14.216053 -8.509784
As 8.537513 14.216053 -11.349784
As 8.537513 11.376053 -8.509784
As 5.697513 11.376053 -5.669784
As 5.697513 14.216053 -2.829784
As 8.537513 14.216053 -5.669784
As 8.537513 11.376053 -2.829784
As 5.697513 11.376053 0.010216
As 5.697513 14.216053 2.850216
As 8.537513 14.216053 0.010216
As 8.537513 11.376053 2.850216
As 5.697513 11.376053 5.690216
As 8.537513 17.056053 -14.189784
As 5.697513 17.056053 -11.349784
As 8.537513 17.056053 -8.509784
As 5.697513 17.056053 -5.669784
As 8.537513 17.056053 -2.829784
As 5.697513 17.056053 0.010216
As 11.377513 -14.183947 2.850216
As 11.377513 -17.023947 5.690216
As 11.377513 -14.183947 8.530216
As 14.217513 -14.183947 5.690216
As 14.217513 -17.023947 8.530216
As 11.377513 -17.023947 11.370216
As 11.377513 -14.183947 14.210216
As 14.217513 -14.183947 11.370216
As 14.217513 -17.023947 14.210216
As 11.377513 -17.023947 17.050216
As 14.217513 -14.183947 17.050216
As 11.377513 -8.503947 -2.829784
As 11.377513 -11.343947 0.010216
As 11.377513 -8.503947 2.850216
As 14.217513 -8.503947 0.010216
As 14.217513 -11.343947 2.850216
As 11.377513 -11.343947 5.690216
As 11.377513 -8.503947 8.530216
As 14.217513 -8.503947 5.690216
As 14.217513 -11.343947 8.530216
As 11.377513 -11.343947 11.370216
As 11.377513 -8.503947 14.210216
As 14.217513 -8.503947 11.370216
As 14.217513 -11.343947 14.210216
As 11.377513 -11.343947 17.050216
As 14.217513 -8.503947 17.050216
As 11.377513 -2.823947 -8.509784
As 11.377513 -5.663947 -5.669784
As 11.377513 -2.823947 -2.829784
As 14.217513 -2.823947 -5.669784
As 14.217513 -5.663947 -2.829784
As 11.377513 -5.663947 0.010216
As 11.377513 -2.823947 2.850216
As 14.217513 -2.823947 0.010216
As 14.217513 -5.663947 2.850216
As 11.377513 -5.663947 5.690216
As 11.377513 -2.823947 8.530216
As 14.217513 -2.823947 5.690216
As 14.217513 -5.663947 8.530216
As 11.377513 -5.663947 11.370216
As 11.377513 -2.823947 14.210216
As 14.217513 -2.823947 11.370216
As 14.217513 -5.663947 14.210216
As 11.377513 -5.663947 17.050216
As 11.377513 2.856053 -14.189784
As 11.377513 0.016053 -11.349784
As 11.377513 2.856053 -8.509784
As 14.217513 2.856053 -11.349784
As 14.217513 0.016053 -8.509784
As 11.377513 0.016053 -5.669784
As 11.377513 2.856053 -2.829784
As 14.217513 2.856053 -5.669784
As 14.217513 0.016053 -2.829784
As 11.377513 0.016053 0.010216
As 11.377513 2.856053 2.850216
As 14.217513 2.856053 0.010216
As 14.217513 0.016053 2.850216
As 11.377513 0.016053 5.690216
As 11.377513 2.856053 8.530216
As 14.217513 2.856053 5.690216
As 14.217513 0.016053 8.530216
As 11.377513 0.016053 11.370216
As 11.377513 5.696053 -17.029784
As 11.377513 8.536053 -14.189784
As 14.217513 8.536053 -17.029784
As 14.217513 5.696053 -14.189784
As 11.377513 5.696053 -11.349784
As 11.377513 8.536053 -8.509784
As 14.217513 8.536053 -11.349784
As 14.217513 5.696053 -8.509784
As 11.377513 5.696053 -5.669784
As 11.377513 8.536053 -2.829784
As 14.217513 8.536053 -5.669784
As 14.217513 5.696053 -2.829784
As 11.377513 5.696053 0.010216
As 11.377513 8.536053 2.850216
As 14.217513 8.536053 0.010216
As 14.217513 5.696053 2.850216
As 11.377513 5.696053 5.690216
As 11.377513 11.376053 -17.029784
As 11.377513 14.216053 -14.189784
As 14.217513 14.216053 -17.029784
As 14.217513 11.376053 -14.189784
As 11.377513 11.376053 -11.349784
As 11.377513 14.216053 -8.509784
As 14.217513 14.216053 -11.349784
As 14.217513 11.376053 -8.509784
As 11.377513 11.376053 -5.669784
As 11.377513 14.216053 -2.829784
As 14.217513 14.216053 -5.669784
As 14.217513 11.376053 -2.829784
As 11.377513 11.376053 0.010216
As 11.377513 17.056053 -17.029784
As 14.217513 17.056053 -14.189784
As 11.377513 17.056053 -11.349784
As 14.217513 17.056053 -8.509784
As 11.377513 17.056053 -5.669784
As 17.057513 -14.183947 8.530216
As 17.057513 -17.023947 11.370216
As 17.057513 -14.183947 14.210216
As 17.057513 -8.503947 2.850216
As 17.057513 -11.343947 5.690216
As 17.057513 -8.503947 8.530216
As 17.057513 -11.343947 11.370216
As 17.057513 -8.503947 14.210216
As 17.057513 -11.343947 17.050216
As 17.057513 -2.823947 -2.829784
As 17.057513 -5.663947 0.010216
As 17.057513 -2.823947 2.850216
As 17.057513 -5.663947 5.690216
As 17.057513 -2.823947 8.530216
As 17.057513 -5.663947 11.370216
As 17.057513 2.856053 -8.509784
As 17.057513 0.016053 -5.669784
As 17.057513 2.856053 -2.829784
As 17.057513 0.016053 0.010216
As 17.057513 2.856053 2.850216
As 17.057513 0.016053 5.690216
As 17.057513 8.536053 -14.189784
As 17.057513 5.696053 -11.349784
As 17.057513 8.536053 -8.509784
As 17.057513 5.696053 -5.669784
As 17.057513 8.536053 -2.829784
As 17.057513 5.696053 0.010216
As 17.057513 11.376053 -17.029784
As 17.057513 14.216053 -14.189784
As 17.057513 11.376053 -11.349784
As 17.057513 14.216053 -8.509784
As 17.057513 11.376053 -5.669784
As 17.057513 17.056053 -11.349784
Cl -19.862487 -14.183947 -11.349784
Cl -19.862487 -11.343947 -14.189784
Cl -19.862487 -8.503947 -11.349784
Cl -19.862487 -11.343947 -8.509784
Cl -19.862487 -8.503947 -5.669784
Cl -19.862487 -5.663947 -8.509784
Cl -19.862487 -2.823947 -5.669784
Cl -19.862487 -5.663947 -2.829784
Cl -19.862487 -2.823947 0.010216
Cl -19.862487 0.016053 -2.829784
Cl -19.862487 2.856053 0.010216
Cl -19.862487 0.016053 2.850216
Cl -19.862487 2.856053 5.690216
Cl -19.862487 5.696053 2.850216
Cl -19.862487 8.536053 5.690216
Cl -19.862487 5.696053 8.530216
Cl -19.862487 8.536053 11.370216
Cl -19.862487 11.376053 8.530216
Cl -19.862487 14.216053 11.370216
Cl -19.862487 11.376053 14.210216
Cl -14.182487 -19.863947 -11.349784
Cl -14.182487 -11.343947 -19.869784
Cl -14.182487 11.376053 19.890216
Cl -14.182487 19.896053 11.370216
Cl -11.342487 -19.863947 -14.189784
Cl -11.342487 -19.863947 -8.509784
Cl -8.502487 -19.863947 -11.349784
Cl -8.502487 -19.863947 -5.669784
Cl -11.342487 -14.183947 -19.869784
Cl -11.342487 -8.503947 -19.869784
Cl -8.502487 -11.343947 -19.869784
Cl -8.502487 -5.663947 -19.869784
Cl -11.342487 8.536053 19.890216
Cl -8.502487 5.696053 19.890216
Cl -11.342487 14.216053 19.890216
Cl -8.502487 11.376053 19.890216
Cl -11.342487 19.896053 8.530216
Cl -8.502487 19.896053 5.690216
Cl -11.342487 19.896053 14.210216
Cl -8.502487 19.896053 11.370216
Cl -5.662487 -19.863947 -8.509784
Cl -5.662487 -19.863947 -2.829784
Cl -2.822487 -19.863947 -5.669784
Cl -2.822487 -19.863947 0.010216
Cl -5.662487 -8.503947 -19.869784
Cl -5.662487 -2.823947 -19.869784
Cl -2.822487 -5.663947 -19.869784
Cl -2.822487 0.016053 -19.869784
Cl -5.662487 2.856053 19.890216
Cl -2.822487 0.016053 19.890216
Cl -5.662487 8.536053 19.890216
Cl -2.822487 5.696053 19.890216
Cl -5.662487 19.896053 2.850216
Cl -2.822487 19.896053 0.010216
Cl -5.662487 19.896053 8.530216
Cl -2.822487 19.896053 5.690216
Cl 0.017513 -19.863947 -2.829784
Cl 0.017513 -19.863947 2.850216
Cl 2.857513 -19.863947 0.010216
Cl 2.857513 -19.863947 5.690216
Cl 0.017513 -2.823947 -19.869784
Cl 0.017513 -2.823947 19.890216
Cl 2.857513 -5.663947 19.890216
Cl 0.017513 2.856053 -19.869784
Cl 2.857513 0.016053 -19.869784
Cl 0.017513 2.856053 19.890216
Cl 2.857513 0.016053 19.890216
Cl 2.857513 5.696053 -19.869784
Cl 0.017513 19.896053 -2.829784
Cl 2.857513 19.896053 -5.669784
Cl 0.017513 19.896053 2.850216
Cl 2.857513 19.896053 0.010216
Cl 5.697513 -19.863947 2.850216
Cl 5.697513 -19.863947 8.530216
Cl 8.537513 -19.863947 5.690216
Cl 8.537513 -19.863947 11.370216
Cl 5.697513 -8.503947 19.890216
Cl 8.537513 -11.343947 19.890216
Cl 5.697513 -2.823947 19.890216
Cl 8.537513 -5.663947 19.890216
Cl 5.697513 2.856053 -19.869784
Cl 5.697513 8.536053 -19.869784
Cl 8.537513 5.696053 -19.869784
Cl 8.537513 11.376053 -19.869784
Cl 5.697513 19.896053 -8.509784
Cl 8.537513 19.896053 -11.349784
Cl 5.697513 19.896053 -2.829784
Cl 8.537513 19.896053 -5.669784
Cl 11.377513 -19.863947 8.530216
Cl 11.377513 -19.863947 14.210216
Cl 14.217513 -19.863947 11.370216
Cl 11.377513 -14.183947 19.890216
Cl 11.377513 -8.503947 19.890216
Cl 14.217513 -11.343947 19.890216
Cl 11.377513 8.536053 -19.869784
Cl 11.377513 14.216053 -19.869784
Cl 14.217513 11.376053 -19.869784
Cl 11.377513 19.896053 -14.189784
Cl 11.377513 19.896053 -8.509784
Cl 14.217513 19.896053 -11.349784
Cl 19.897513 -14.183947 11.370216
Cl 19.897513 -8.503947 5.690216
Cl 19.897513 -11.343947 8.530216
Cl 19.897513 -8.503947 11.370216
Cl 19.897513 -11.343947 14.210216
Cl 19.897513 -2.823947 0.010216
Cl 19.897513 -5.663947 2.850216
Cl 19.897513 -2.823947 5.690216
Cl 19.897513 -5.663947 8.530216
Cl 19.897513 2.856053 -5.669784
Cl 19.897513 0.016053 -2.829784
Cl 19.897513 2.856053 0.010216
Cl 19.897513 0.016053 2.850216
Cl 19.897513 8.536053 -11.349784
Cl 19.897513 5.696053 -8.509784
Cl 19.897513 8.536053 -5.669784
Cl 19.897513 5.696053 -2.829784
Cl 19.897513 11.376053 -14.189784
Cl 19.897513 14.216053 -11.349784
Cl 19.897513 11.376053 -8.509784
Cl -11.342487 -11.343947 5.690216
Cl -11.342487 5.696053 -11.349784
Cl 5.697513 -11.343947 -11.349784
Cl 8.537513 8.536053 11.370216
Cl -17.022487 8.536053 19.890216
Cl -17.022487 19.896053 8.530216
Cl 19.897513 -17.023947 8.530216
Cl 19.897513 17.056053 -8.509784
Cl 8.537513 -17.023947 19.890216
Cl 8.537513 19.896053 -17.029784
Cl 19.897513 8.536053 -17.029784
Cl -8.502487 19.896053 17.050216
Cl 19.897513 -8.503947 17.050216
Cl -17.022487 -19.863947 -8.509784
Cl -17.022487 -8.503947 -19.869784
Cl -8.502487 -17.023947 -19.869784
Cl -5.662487 -2.823947 19.890216
Cl -5.662487 19.896053 -2.829784
Cl 19.897513 -5.663947 -2.829784
Cl 5.697513 19.896053 2.850216
Cl 19.897513 5.696053 2.850216
Cl 0.017513 -19.863947 8.530216
Cl 0.017513 8.536053 -19.869784
Cl 8.537513 0.016053 -19.869784
Cl -19.862487 0.016053 8.530216
Cl -19.862487 8.536053 0.010216
Cl 8.537513 -19.863947 0.010216
Cl 0.017513 8.536053 19.890216
Cl 8.537513 0.016053 19.890216
Cl -19.862487 -11.343947 -2.829784
Cl -19.862487 -2.823947 -11.349784
Cl -2.822487 -19.863947 -11.349784
Cl -8.502487 -19.863947 0.010216
Cl -8.502487 0.016053 -19.869784
Cl 0.017513 -8.503947 -19.869784
Cl 0.017513 17.056053 11.370216
Cl 0.017513 -11.343947 17.050216
Cl 0.017513 17.056053 -11.349784
Cl 17.057513 0.016053 -11.349784
Cl 17.057513 0.016053 11.370216
Cl 14.217513 14.216053 0.010216
Cl -14.182487 0.016053 14.210216
Cl -14.182487 14.216053 0.010216
Cl 14.217513 -14.183947 0.010216
Cl -19.862487 -5.663947 2.850216
Cl -19.862487 2.856053 -5.669784
Cl 2.857513 -19.863947 -5.669784
Cl 14.217513 19.896053 -5.669784
Cl -5.662487 -11.343947 11.370216
Cl -5.662487 11.376053 -11.349784
Cl 11.377513 -5.663947 -11.349784
Cl 14.217513 -5.663947 19.890216
Cl -5.662487 14.216053 19.890216
Cl 5.697513 -19.863947 14.210216
Cl 5.697513 14.216053 -19.869784
Cl 14.217513 5.696053 -19.869784
Cl -19.862487 5.696053 14.210216
Cl -19.862487 14.216053 5.690216
Cl 14.217513 -19.863947 5.690216
Cl 19.897513 11.376053 -2.829784
Cl -11.342487 2.856053 19.890216
Cl -11.342487 19.896053 2.850216
Cl 19.897513 -11.343947 2.850216
Cl 8.537513 14.216053 5.690216
Cl -14.182487 -17.023947 -2.829784
Cl -14.182487 -2.823947 -17.029784
Cl -2.822487 -14.183947 -17.029784
Cl 14.217513 5.696053 8.530216
Cl -11.342487 -5.663947 11.370216
Cl -11.342487 11.376053 -5.669784
Cl 11.377513 -11.343947 -5.669784
Cl 5.697513 5.696053 17.050216
Cl -5.662487 -17.023947 5.690216
Cl -5.662487 5.696053 -17.029784
Cl 5.697513 -5.663947 -17.029784
Cl 2.857513 11.376053 14.210216
Cl 11.377513 2.856053 14.210216
Cl -19.862487 -17.023947 -8.509784
Cl -19.862487 -8.503947 -17.029784
Cl -8.502487 -19.863947 -17.029784
Cl 2.857513 -11.343947 19.890216
Cl 2.857513 19.896053 -11.349784
Cl 19.897513 2.856053 -11.349784
Cl -2.822487 19.896053 11.370216
Cl 19.897513 -2.823947 11.370216
Cl -2.822487 -5.663947 19.890216
Cl -2.822487 19.896053 -5.669784
Cl 19.897513 -2.823947 -5.669784
Cl 8.537513 19.896053 0.010216
Cl -14.182487 -11.343947 2.850216
Cl -14.182487 2.856053 -11.349784
Cl 2.857513 -14.183947 -11.349784
Cl 19.897513 2.856053 5.690216
Cl 0.017513 -17.023947 11.370216
Cl 0.017513 11.376053 -17.029784
Cl 11.377513 0.016053 -17.029784
Cl 2.857513 19.896053 5.690216
Cl -17.022487 -2.823947 8.530216
Cl -17.022487 8.536053 -2.829784
Cl 8.537513 -17.023947 -2.829784
Cl 14.217513 11.376053 2.850216
Cl -8.502487 -5.663947 14.210216
Cl -8.502487 14.216053 -5.669784
Cl 14.217513 -8.503947 -5.669784
Cl -2.822487 14.216053 17.050216
Cl -19.862487 8.536053 17.050216
Cl -19.862487 17.056053 8.530216
Cl 17.057513 -19.863947 8.530216
Cl 14.217513 -2.823947 17.050216
Cl 8.537513 -19.863947 17.050216
Cl 8.537513 17.056053 -19.869784
Cl 17.057513 8.536053 -19.869784
Cl 17.057513 19.896053 -8.509784
Cl -11.342487 -19.863947 -2.829784
Cl -11.342487 -2.823947 -19.869784
Cl -2.822487 -11.343947 -19.869784
Cl 5.697513 14.216053 8.530216
Cl -19.862487 -8.503947 0.010216
Cl -19.862487 0.016053 -8.509784
Cl 0.017513 -19.863947 -8.509784
Cl 17.057513 -8.503947 19.890216
Cl -5.662487 -19.863947 2.850216
Cl -5.662487 2.856053 -19.869784
Cl 2.857513 -5.663947 -19.869784
Cl -8.502487 17.056053 19.890216
Cl -14.182487 5.696053 19.890216
Cl -14.182487 19.896053 5.690216
Cl 19.897513 -14.183947 5.690216
Cl 5.697513 2.856053 19.890216
Cl 5.697513 -14.183947 19.890216
Cl 5.697513 19.896053 -14.189784
Cl 19.897513 5.696053 -14.189784
Cl 19.897513 14.216053 -5.669784
Cl -19.862487 -14.183947 -5.669784
Cl -19.862487 -5.663947 -14.189784
Cl -5.662487 -19.863947 -14.189784
Cl -8.502487 0.016053 19.890216
Cl -8.502487 19.896053 0.010216
Cl 19.897513 -8.503947 0.010216
Cl 11.377513 19.896053 -2.829784
Cl -19.862487 2.856053 11.370216
Cl -19.862487 11.376053 2.850216
Cl 11.377513 -19.863947 2.850216
Cl 19.897513 8.536053 0.010216
Cl -5.662487 19.896053 14.210216
Cl -2.822487 -11.343947 14.210216
Cl -2.822487 14.216053 -11.349784
Cl 14.217513 -2.823947 -11.349784
Cl 19.897513 -5.663947 14.210216
Cl -17.022487 -5.663947 5.690216
Cl -17.022487 5.696053 -5.669784
Cl 5.697513 -17.023947 -5.669784
Cl 11.377513 8.536053 8.530216
Cl -8.502487 -14.183947 5.690216
Cl -8.502487 5.696053 -14.189784
Cl 5.697513 -8.503947 -14.189784
Cl 2.857513 -17.023947 14.210216
Cl 2.857513 14.216053 -17.029784
Cl 14.217513 2.856053 -17.029784
Cl -2.822487 11.376053 19.890216
Cl -14.182487 -14.183947 0.010216
Cl -14.182487 0.016053 -14.189784
Cl 0.017513 -14.183947 -14.189784
Cl 11.377513 -2.823947 19.890216
Cl -11.342487 -8.503947 8.530216
Cl -11.342487 8.536053 -8.509784
Cl 8.537513 -11.343947 -8.509784
Cl 19.897513 0.016053 8.530216
Cl 0.017513 19.896053 8.530216
Cl -14.182487 -19.863947 -5.669784
Cl -14.182487 -5.663947 -19.869784
Cl -5.662487 -14.183947 -19.869784
Cl 2.857513 5.696053 19.890216
Cl 0.017513 -8.503947 19.890216
Cl 0.017513 19.896053 -8.509784
Cl 19.897513 0.016053 -8.509784
Cl -2.822487 -19.863947 5.690216
Cl -2.822487 5.696053 -19.869784
Cl 5.697513 -2.823947 -19.869784
Cl 14.217513 17.056053 -2.829784
Cl -14.182487 2.856053 17.050216
Cl -14.182487 17.056053 2.850216
Cl 17.057513 -14.183947 2.850216
Cl 14.217513 8.536053 5.690216
Cl 2.857513 14.216053 11.370216
Cl -8.502487 -2.823947 17.050216
Cl -8.502487 17.056053 -2.829784
Cl 17.057513 -8.503947 -2.829784
Cl 14.217513 0.016053 14.210216
Cl -2.822487 -14.183947 11.370216
Cl -2.822487 11.376053 -14.189784
Cl 11.377513 -2.823947 -14.189784
Cl 8.537513 17.056053 2.850216
Cl -14.182487 -2.823947 11.370216
Cl -14.182487 11.376053 -2.829784
Cl 11.377513 -14.183947 -2.829784
Cl 5.697513 8.536053 14.210216
Cl 2.857513 -19.863947 11.370216
Cl 2.857513 11.376053 -19.869784
Cl 11.377513 2.856053 -19.869784
Cl -19.862487 -2.823947 5.690216
Cl -19.862487 5.696053 -2.829784
Cl 5.697513 -19.863947 -2.829784
Cl 17.057513 14.216053 -2.829784
Cl -5.662487 -8.503947 14.210216
Cl -5.662487 14.216053 -8.509784
Cl 14.217513 -5.663947 -8.509784
Cl -2.822487 17.056053 14.210216
Cl -17.022487 -14.183947 -2.829784
Cl -17.022487 -2.823947 -14.189784
Cl -2.822487 -17.023947 -14.189784
Cl 17.057513 5.696053 5.690216
Cl -17.022487 2.856053 14.210216
Cl -17.022487 14.216053 2.850216
Cl 14.217513 -17.023947 2.850216
Cl 8.537513 2.856053 17.050216
Cl -8.502487 -17.023947 2.850216
Cl -8.502487 2.856053 -17.029784
Cl 2.857513 -8.503947 -17.029784
Cl 0.017513 11.376053 17.050216
Cl 2.857513 -14.183947 17.050216
Cl 2.857513 17.056053 -14.189784
Cl 17.057513 2.856053 -14.189784
Cl 11.377513 14.216053 2.850216
Cl -17.022487 -8.503947 2.850216
Cl -17.022487 2.856053 -8.509784
Cl 2.857513 -17.023947 -8.509784
Cl 14.217513 2.856053 11.370216
Cl 17.057513 -5.663947 17.050216
Cl -8.502487 -11.343947 8.530216
Cl -8.502487 8.536053 -11.349784
Cl 8.537513 -8.503947 -11.349784
Cl 8.537513 11.376053 8.530216
Cl -5.662487 -5.663947 17.050216
Cl -5.662487 17.056053 -5.669784
Cl 17.057513 -5.663947 -5.669784
Cl 2.857513 17.056053 8.530216
Cl -11.342487 -17.023947 0.010216
Cl -11.342487 0.016053 -17.029784
Cl 0.017513 -11.343947 -17.029784
Cl 17.057513 11.376053 0.010216
Cl -11.342487 0.016053 17.050216
Cl -11.342487 17.056053 0.010216
Cl 17.057513 -11.343947 0.010216
Cl -2.822487 -17.023947 8.530216
Cl -2.822487 8.536053 -17.029784
Cl 8.537513 -2.823947 -17.029784
Cl -5.662487 17.056053 17.050216
Cl 5.697513 -17.023947 17.050216
Cl 5.697513 17.056053 -17.029784
Cl 17.057513 5.696053 -17.029784
Cl 17.057513 17.056053 -5.669784
Cl -17.022487 5.696053 17.050216
Cl -17.022487 17.056053 5.690216
Cl 17.057513 -17.023947 5.690216
Cl 8.537513 5.696053 14.210216
Cl -17.022487 -17.023947 -5.669784
Cl -17.022487 -5.663947 -17.029784
Cl -5.662487 -17.023947 -17.029784
Cl 17.057513 -2.823947 14.210216
Cl -14.182487 -5.663947 8.530216
Cl -14.182487 8.536053 -5.669784
Cl 8.537513 -14.183947 -5.669784
Cl 2.857513 8.536053 17.050216
Cl -17.022487 -11.343947 0.010216
Cl -17.022487 0.016053 -11.349784
Cl 0.017513 -17.023947 -11.349784
