7221
HgS-Hg-Hg3535S3384Cl302-clean
Hg -32.658474 -14.845023 -5.937680
Hg -32.658474 -14.845023 0.001645
Hg -32.658474 -14.845023 5.940970
Hg -32.658474 -8.905698 -11.877005
Hg -32.658474 -11.875360 -8.907343
Hg -32.658474 -8.905698 -5.937680
Hg -32.658474 -11.875360 -2.968018
Hg -32.658474 -8.905698 0.001645
Hg -32.658474 -11.875360 2.971308
Hg -32.658474 -8.905698 5.940970
Hg -32.658474 -11.875360 8.910633
Hg -32.658474 -8.905698 11.880295
Hg -32.658474 -5.936035 -14.846668
Hg -32.658474 -2.966373 -11.877005
Hg -32.658474 -5.936035 -8.907343
Hg -32.658474 -2.966373 -5.937680
Hg -32.658474 -5.936035 -2.968018
Hg -32.658474 -2.966373 0.001645
Hg -32.658474 -5.936035 2.971308
Hg -32.658474 -2.966373 5.940970
Hg -32.658474 -5.936035 8.910633
Hg -32.658474 -2.966373 11.880295
Hg -32.658474 -5.936035 14.849958
Hg -32.658474 0.003290 -14.846668
Hg -32.658474 2.972953 -11.877005
Hg -32.658474 0.003290 -8.907343
Hg -32.658474 2.972953 -5.937680
Hg -32.658474 0.003290 -2.968018
Hg -32.658474 2.972953 0.001645
Hg -32.658474 0.003290 2.971308
Hg -32.658474 2.972953 5.940970
Hg -32.658474 0.003290 8.910633
Hg -32.658474 2.972953 11.880295
Hg -32.658474 0.003290 14.849958
Hg -32.658474 5.942615 -14.846668
Hg -32.658474 8.912278 -11.877005
Hg -32.658474 5.942615 -8.907343
Hg -32.658474 8.912278 -5.937680
Hg -32.658474 5.942615 -2.968018
Hg -32.658474 8.912278 0.001645
Hg -32.658474 5.942615 2.971308
Hg -32.658474 8.912278 5.940970
Hg -32.658474 5.942615 8.910633
Hg -32.658474 8.912278 11.880295
Hg -32.658474 5.942615 14.849958
Hg -32.658474 11.881940 -8.907343
Hg -32.658474 14.851603 -5.937680
Hg -32.658474 11.881940 -2.968018
Hg -32.658474 14.851603 0.001645
Hg -32.658474 11.881940 2.971308
Hg -32.658474 14.851603 5.940970
Hg -32.658474 11.881940 8.910633
Hg -26.719149 -20.784348 -5.937680
Hg -26.719149 -20.784348 0.001645
Hg -26.719149 -20.784348 5.940970
Hg -26.719149 -14.845023 -11.877005
Hg -26.719149 -17.814685 -8.907343
Hg -29.688812 -14.845023 -8.907343
Hg -29.688812 -17.814685 -5.937680
Hg -26.719149 -14.845023 -5.937680
Hg -26.719149 -17.814685 -2.968018
Hg -29.688812 -14.845023 -2.968018
Hg -29.688812 -17.814685 0.001645
Hg -26.719149 -14.845023 0.001645
Hg -26.719149 -17.814685 2.971308
Hg -29.688812 -14.845023 2.971308
Hg -29.688812 -17.814685 5.940970
Hg -26.719149 -14.845023 5.940970
Hg -26.719149 -17.814685 8.910633
Hg -29.688812 -14.845023 8.910633
Hg -26.719149 -14.845023 11.880295
Hg -26.719149 -8.905698 -17.816330
Hg -26.719149 -11.875360 -14.846668
Hg -29.688812 -8.905698 -14.846668
Hg -29.688812 -11.875360 -11.877005
Hg -26.719149 -8.905698 -11.877005
Hg -26.719149 -11.875360 -8.907343
Hg -29.688812 -8.905698 -8.907343
Hg -29.688812 -11.875360 -5.937680
Hg -26.719149 -8.905698 -5.937680
Hg -26.719149 -11.875360 -2.968018
Hg -29.688812 -8.905698 -2.968018
Hg -29.688812 -11.875360 0.001645
Hg -26.719149 -8.905698 0.001645
Hg -26.719149 -11.875360 2.971308
Hg -29.688812 -8.905698 2.971308
Hg -29.688812 -11.875360 5.940970
Hg -26.719149 -8.905698 5.940970
Hg -26.719149 -11.875360 8.910633
Hg -29.688812 -8.905698 8.910633
Hg -29.688812 -11.875360 11.880295
Hg -26.719149 -8.905698 11.880295
Hg -26.719149 -11.875360 14.849958
Hg -29.688812 -8.905698 14.849958
Hg -26.719149 -8.905698 17.819620
Hg -26.719149 -5.936035 -20.785993
Hg -29.688812 -5.936035 -17.816330
Hg -26.719149 -2.966373 -17.816330
Hg -26.719149 -5.936035 -14.846668
Hg -29.688812 -2.966373 -14.846668
Hg -29.688812 -5.936035 -11.877005
Hg -26.719149 -2.966373 -11.877005
Hg -26.719149 -5.936035 -8.907343
Hg -29.688812 -2.966373 -8.907343
Hg -29.688812 -5.936035 -5.937680
Hg -26.719149 -2.966373 -5.937680
Hg -26.719149 -5.936035 -2.968018
Hg -29.688812 -2.966373 -2.968018
Hg -29.688812 -5.936035 0.001645
Hg -26.719149 -2.966373 0.001645
Hg -26.719149 -5.936035 2.971308
Hg -29.688812 -2.966373 2.971308
Hg -29.688812 -5.936035 5.940970
Hg -26.719149 -2.966373 5.940970
Hg -26.719149 -5.936035 8.910633
Hg -29.688812 -2.966373 8.910633
Hg -29.688812 -5.936035 11.880295
Hg -26.719149 -2.966373 11.880295
Hg -26.719149 -5.936035 14.849958
Hg -29.688812 -2.966373 14.849958
Hg -29.688812 -5.936035 17.819620
Hg -26.719149 -2.966373 17.819620
Hg -26.719149 -5.936035 20.789283
Hg -26.719149 0.003290 -20.785993
Hg -29.688812 0.003290 -17.816330
Hg -26.719149 2.972953 -17.816330
Hg -26.719149 0.003290 -14.846668
Hg -29.688812 2.972953 -14.846668
Hg -29.688812 0.003290 -11.877005
Hg -26.719149 2.972953 -11.877005
Hg -26.719149 0.003290 -8.907343
Hg -29.688812 2.972953 -8.907343
Hg -29.688812 0.003290 -5.937680
Hg -26.719149 2.972953 -5.937680
Hg -26.719149 0.003290 -2.968018
Hg -29.688812 2.972953 -2.968018
Hg -29.688812 0.003290 0.001645
Hg -26.719149 2.972953 0.001645
Hg -26.719149 0.003290 2.971308
Hg -29.688812 2.972953 2.971308
Hg -29.688812 0.003290 5.940970
Hg -26.719149 2.972953 5.940970
Hg -26.719149 0.003290 8.910633
Hg -29.688812 2.972953 8.910633
Hg -29.688812 0.003290 11.880295
Hg -26.719149 2.972953 11.880295
Hg -26.719149 0.003290 14.849958
Hg -29.688812 2.972953 14.849958
Hg -29.688812 0.003290 17.819620
Hg -26.719149 2.972953 17.819620
Hg -26.719149 0.003290 20.789283
Hg -26.719149 5.942615 -20.785993
Hg -29.688812 5.942615 -17.816330
Hg -26.719149 8.912278 -17.816330
Hg -26.719149 5.942615 -14.846668
Hg -29.688812 8.912278 -14.846668
Hg -29.688812 5.942615 -11.877005
Hg -26.719149 8.912278 -11.877005
Hg -26.719149 5.942615 -8.907343
Hg -29.688812 8.912278 -8.907343
Hg -29.688812 5.942615 -5.937680
Hg -26.719149 8.912278 -5.937680
Hg -26.719149 5.942615 -2.968018
Hg -29.688812 8.912278 -2.968018
Hg -29.688812 5.942615 0.001645
Hg -26.719149 8.912278 0.001645
Hg -26.719149 5.942615 2.971308
Hg -29.688812 8.912278 2.971308
Hg -29.688812 5.942615 5.940970
Hg -26.719149 8.912278 5.940970
Hg -26.719149 5.942615 8.910633
Hg -29.688812 8.912278 8.910633
Hg -29.688812 5.942615 11.880295
Hg -26.719149 8.912278 11.880295
Hg -26.719149 5.942615 14.849958
Hg -29.688812 8.912278 14.849958
Hg -29.688812 5.942615 17.819620
Hg -26.719149 8.912278 17.819620
Hg -26.719149 5.942615 20.789283
Hg -26.719149 11.881940 -14.846668
Hg -29.688812 11.881940 -11.877005
Hg -26.719149 14.851603 -11.877005
Hg -26.719149 11.881940 -8.907343
Hg -29.688812 14.851603 -8.907343
Hg -29.688812 11.881940 -5.937680
Hg -26.719149 14.851603 -5.937680
Hg -26.719149 11.881940 -2.968018
Hg -29.688812 14.851603 -2.968018
Hg -29.688812 11.881940 0.001645
Hg -26.719149 14.851603 0.001645
Hg -26.719149 11.881940 2.971308
Hg -29.688812 14.851603 2.971308
Hg -29.688812 11.881940 5.940970
Hg -26.719149 14.851603 5.940970
Hg -26.719149 11.881940 8.910633
Hg -29.688812 14.851603 8.910633
Hg -29.688812 11.881940 11.880295
Hg -26.719149 14.851603 11.880295
Hg -26.719149 11.881940 14.849958
Hg -26.719149 17.821265 -8.907343
Hg -29.688812 17.821265 -5.937680
Hg -26.719149 20.790928 -5.937680
Hg -26.719149 17.821265 -2.968018
Hg -29.688812 17.821265 0.001645
Hg -26.719149 20.790928 0.001645
Hg -26.719149 17.821265 2.971308
Hg -29.688812 17.821265 5.940970
Hg -26.719149 20.790928 5.940970
Hg -26.719149 17.821265 8.910633
Hg -20.779824 -26.723673 -5.937680
Hg -20.779824 -26.723673 0.001645
Hg -20.779824 -26.723673 5.940970
Hg -20.779824 -20.784348 -11.877005
Hg -20.779824 -23.754010 -8.907343
Hg -23.749486 -20.784348 -8.907343
Hg -23.749486 -23.754010 -5.937680
Hg -20.779824 -20.784348 -5.937680
Hg -20.779824 -23.754010 -2.968018
Hg -23.749486 -20.784348 -2.968018
Hg -23.749486 -23.754010 0.001645
Hg -20.779824 -20.784348 0.001645
Hg -20.779824 -23.754010 2.971308
Hg -23.749486 -20.784348 2.971308
Hg -23.749486 -23.754010 5.940970
Hg -20.779824 -20.784348 5.940970
Hg -20.779824 -23.754010 8.910633
Hg -23.749486 -20.784348 8.910633
Hg -20.779824 -20.784348 11.880295
Hg -20.779824 -14.845023 -17.816330
Hg -20.779824 -17.814685 -14.846668
Hg -23.749486 -14.845023 -14.846668
Hg -23.749486 -17.814685 -11.877005
Hg -20.779824 -14.845023 -11.877005
Hg -20.779824 -17.814685 -8.907343
Hg -23.749486 -14.845023 -8.907343
Hg -23.749486 -17.814685 -5.937680
Hg -20.779824 -14.845023 -5.937680
Hg -20.779824 -17.814685 -2.968018
Hg -23.749486 -14.845023 -2.968018
Hg -23.749486 -17.814685 0.001645
Hg -20.779824 -14.845023 0.001645
Hg -20.779824 -17.814685 2.971308
Hg -23.749486 -14.845023 2.971308
Hg -23.749486 -17.814685 5.940970
Hg -20.779824 -14.845023 5.940970
Hg -20.779824 -17.814685 8.910633
Hg -23.749486 -14.845023 8.910633
Hg -23.749486 -17.814685 11.880295
Hg -20.779824 -14.845023 11.880295
Hg -20.779824 -17.814685 14.849958
Hg -23.749486 -14.845023 14.849958
Hg -20.779824 -14.845023 17.819620
Hg -20.779824 -8.905698 -23.755655
Hg -20.779824 -11.875360 -20.785993
Hg -23.749486 -8.905698 -20.785993
Hg -23.749486 -11.875360 -17.816330
Hg -20.779824 -8.905698 -17.816330
Hg -20.779824 -11.875360 -14.846668
Hg -23.749486 -8.905698 -14.846668
Hg -23.749486 -11.875360 -11.877005
Hg -20.779824 -8.905698 -11.877005
Hg -20.779824 -11.875360 -8.907343
Hg -23.749486 -8.905698 -8.907343
Hg -23.749486 -11.875360 -5.937680
Hg -20.779824 -8.905698 -5.937680
Hg -20.779824 -11.875360 -2.968018
Hg -23.749486 -8.905698 -2.968018
Hg -23.749486 -11.875360 0.001645
Hg -20.779824 -8.905698 0.001645
Hg -20.779824 -11.875360 2.971308
Hg -23.749486 -8.905698 2.971308
Hg -23.749486 -11.875360 5.940970
Hg -20.779824 -8.905698 5.940970
Hg -20.779824 -11.875360 8.910633
Hg -23.749486 -8.905698 8.910633
Hg -23.749486 -11.875360 11.880295
Hg -20.779824 -8.905698 11.880295
Hg -20.779824 -11.875360 14.849958
Hg -23.749486 -8.905698 14.849958
Hg -23.749486 -11.875360 17.819620
Hg -20.779824 -8.905698 17.819620
Hg -20.779824 -11.875360 20.789283
Hg -23.749486 -8.905698 20.789283
Hg -20.779824 -8.905698 23.758945
Hg -20.779824 -5.936035 -26.725318
Hg -23.749486 -5.936035 -23.755655
Hg -20.779824 -2.966373 -23.755655
Hg -20.779824 -5.936035 -20.785993
Hg -23.749486 -2.966373 -20.785993
Hg -23.749486 -5.936035 -17.816330
Hg -20.779824 -2.966373 -17.816330
Hg -20.779824 -5.936035 -14.846668
Hg -23.749486 -2.966373 -14.846668
Hg -23.749486 -5.936035 -11.877005
Hg -20.779824 -2.966373 -11.877005
Hg -20.779824 -5.936035 -8.907343
Hg -23.749486 -2.966373 -8.907343
Hg -23.749486 -5.936035 -5.937680
Hg -20.779824 -2.966373 -5.937680
Hg -20.779824 -5.936035 -2.968018
Hg -23.749486 -2.966373 -2.968018
Hg -23.749486 -5.936035 0.001645
Hg -20.779824 -2.966373 0.001645
Hg -20.779824 -5.936035 2.971308
Hg -23.749486 -2.966373 2.971308
Hg -23.749486 -5.936035 5.940970
Hg -20.779824 -2.966373 5.940970
Hg -20.779824 -5.936035 8.910633
Hg -23.749486 -2.966373 8.910633
Hg -23.749486 -5.936035 11.880295
Hg -20.779824 -2.966373 11.880295
Hg -20.779824 -5.936035 14.849958
Hg -23.749486 -2.966373 14.849958
Hg -23.749486 -5.936035 17.819620
Hg -20.779824 -2.966373 17.819620
Hg -20.779824 -5.936035 20.789283
Hg -23.749486 -2.966373 20.789283
Hg -23.749486 -5.936035 23.758945
Hg -20.779824 -2.966373 23.758945
Hg -20.779824 -5.936035 26.728608
Hg -20.779824 0.003290 -26.725318
Hg -23.749486 0.003290 -23.755655
Hg -20.779824 2.972953 -23.755655
Hg -20.779824 0.003290 -20.785993
Hg -23.749486 2.972953 -20.785993
Hg -23.749486 0.003290 -17.816330
Hg -20.779824 2.972953 -17.816330
Hg -20.779824 0.003290 -14.846668
Hg -23.749486 2.972953 -14.846668
Hg -23.749486 0.003290 -11.877005
Hg -20.779824 2.972953 -11.877005
Hg -20.779824 0.003290 -8.907343
Hg -23.749486 2.972953 -8.907343
Hg -23.749486 0.003290 -5.937680
Hg -20.779824 2.972953 -5.937680
Hg -20.779824 0.003290 -2.968018
Hg -23.749486 2.972953 -2.968018
Hg -23.749486 0.003290 0.001645
Hg -20.779824 2.972953 0.001645
Hg -20.779824 0.003290 2.971308
Hg -23.749486 2.972953 2.971308
Hg -23.749486 0.003290 5.940970
Hg -20.779824 2.972953 5.940970
Hg -20.779824 0.003290 8.910633
Hg -23.749486 2.972953 8.910633
Hg -23.749486 0.003290 11.880295
Hg -20.779824 2.972953 11.880295
Hg -20.779824 0.003290 14.849958
Hg -23.749486 2.972953 14.849958
Hg -23.749486 0.003290 17.819620
Hg -20.779824 2.972953 17.819620
Hg -20.779824 0.003290 20.789283
Hg -23.749486 2.972953 20.789283
Hg -23.749486 0.003290 23.758945
Hg -20.779824 2.972953 23.758945
Hg -20.779824 0.003290 26.728608
Hg -20.779824 5.942615 -26.725318
Hg -23.749486 5.942615 -23.755655
Hg -20.779824 8.912278 -23.755655
Hg -20.779824 5.942615 -20.785993
Hg -23.749486 8.912278 -20.785993
Hg -23.749486 5.942615 -17.816330
Hg -20.779824 8.912278 -17.816330
Hg -20.779824 5.942615 -14.846668
Hg -23.749486 8.912278 -14.846668
Hg -23.749486 5.942615 -11.877005
Hg -20.779824 8.912278 -11.877005
Hg -20.779824 5.942615 -8.907343
Hg -23.749486 8.912278 -8.907343
Hg -23.749486 5.942615 -5.937680
Hg -20.779824 8.912278 -5.937680
Hg -20.779824 5.942615 -2.968018
Hg -23.749486 8.912278 -2.968018
Hg -23.749486 5.942615 0.001645
Hg -20.779824 8.912278 0.001645
Hg -20.779824 5.942615 2.971308
Hg -23.749486 8.912278 2.971308
Hg -23.749486 5.942615 5.940970
Hg -20.779824 8.912278 5.940970
Hg -20.779824 5.942615 8.910633
Hg -23.749486 8.912278 8.910633
Hg -23.749486 5.942615 11.880295
Hg -20.779824 8.912278 11.880295
Hg -20.779824 5.942615 14.849958
Hg -23.749486 8.912278 14.849958
Hg -23.749486 5.942615 17.819620
Hg -20.779824 8.912278 17.819620
Hg -20.779824 5.942615 20.789283
Hg -23.749486 8.912278 20.789283
Hg -23.749486 5.942615 23.758945
Hg -20.779824 8.912278 23.758945
Hg -20.779824 5.942615 26.728608
Hg -20.779824 11.881940 -20.785993
Hg -23.749486 11.881940 -17.816330
Hg -20.779824 14.851603 -17.816330
Hg -20.779824 11.881940 -14.846668
Hg -23.749486 14.851603 -14.846668
Hg -23.749486 11.881940 -11.877005
Hg -20.779824 14.851603 -11.877005
Hg -20.779824 11.881940 -8.907343
Hg -23.749486 14.851603 -8.907343
Hg -23.749486 11.881940 -5.937680
Hg -20.779824 14.851603 -5.937680
Hg -20.779824 11.881940 -2.968018
Hg -23.749486 14.851603 -2.968018
Hg -23.749486 11.881940 0.001645
Hg -20.779824 14.851603 0.001645
Hg -20.779824 11.881940 2.971308
Hg -23.749486 14.851603 2.971308
Hg -23.749486 11.881940 5.940970
Hg -20.779824 14.851603 5.940970
Hg -20.779824 11.881940 8.910633
Hg -23.749486 14.851603 8.910633
Hg -23.749486 11.881940 11.880295
Hg -20.779824 14.851603 11.880295
Hg -20.779824 11.881940 14.849958
Hg -23.749486 14.851603 14.849958
Hg -23.749486 11.881940 17.819620
Hg -20.779824 14.851603 17.819620
Hg -20.779824 11.881940 20.789283
Hg -20.779824 17.821265 -14.846668
Hg -23.749486 17.821265 -11.877005
Hg -20.779824 20.790928 -11.877005
Hg -20.779824 17.821265 -8.907343
Hg -23.749486 20.790928 -8.907343
Hg -23.749486 17.821265 -5.937680
Hg -20.779824 20.790928 -5.937680
Hg -20.779824 17.821265 -2.968018
Hg -23.749486 20.790928 -2.968018
Hg -23.749486 17.821265 0.001645
Hg -20.779824 20.790928 0.001645
Hg -20.779824 17.821265 2.971308
Hg -23.749486 20.790928 2.971308
Hg -23.749486 17.821265 5.940970
Hg -20.779824 20.790928 5.940970
Hg -20.779824 17.821265 8.910633
Hg -23.749486 20.790928 8.910633
Hg -23.749486 17.821265 11.880295
Hg -20.779824 20.790928 11.880295
Hg -20.779824 17.821265 14.849958
Hg -20.779824 23.760590 -8.907343
Hg -23.749486 23.760590 -5.937680
Hg -20.779824 26.730253 -5.937680
Hg -20.779824 23.760590 -2.968018
Hg -23.749486 23.760590 0.001645
Hg -20.779824 26.730253 0.001645
Hg -20.779824 23.760590 2.971308
Hg -23.749486 23.760590 5.940970
Hg -20.779824 26.730253 5.940970
Hg -20.779824 23.760590 8.910633
Hg -14.840499 -32.662998 -5.937680
Hg -14.840499 -32.662998 0.001645
Hg -14.840499 -32.662998 5.940970
Hg -14.840499 -26.723673 -11.877005
Hg -14.840499 -29.693335 -8.907343
Hg -17.810161 -26.723673 -8.907343
Hg -17.810161 -29.693335 -5.937680
Hg -14.840499 -26.723673 -5.937680
Hg -14.840499 -29.693335 -2.968018
Hg -17.810161 -26.723673 -2.968018
Hg -17.810161 -29.693335 0.001645
Hg -14.840499 -26.723673 0.001645
Hg -14.840499 -29.693335 2.971308
Hg -17.810161 -26.723673 2.971308
Hg -17.810161 -29.693335 5.940970
Hg -14.840499 -26.723673 5.940970
Hg -14.840499 -29.693335 8.910633
Hg -17.810161 -26.723673 8.910633
Hg -14.840499 -26.723673 11.880295
Hg -14.840499 -20.784348 -17.816330
Hg -14.840499 -23.754010 -14.846668
Hg -17.810161 -20.784348 -14.846668
Hg -17.810161 -23.754010 -11.877005
Hg -14.840499 -20.784348 -11.877005
Hg -14.840499 -23.754010 -8.907343
Hg -17.810161 -20.784348 -8.907343
Hg -17.810161 -23.754010 -5.937680
Hg -14.840499 -20.784348 -5.937680
Hg -14.840499 -23.754010 -2.968018
Hg -17.810161 -20.784348 -2.968018
Hg -17.810161 -23.754010 0.001645
Hg -14.840499 -20.784348 0.001645
Hg -14.840499 -23.754010 2.971308
Hg -17.810161 -20.784348 2.971308
Hg -17.810161 -23.754010 5.940970
Hg -14.840499 -20.784348 5.940970
Hg -14.840499 -23.754010 8.910633
Hg -17.810161 -20.784348 8.910633
Hg -17.810161 -23.754010 11.880295
Hg -14.840499 -20.784348 11.880295
Hg -14.840499 -23.754010 14.849958
Hg -17.810161 -20.784348 14.849958
Hg -14.840499 -20.784348 17.819620
Hg -14.840499 -14.845023 -23.755655
Hg -14.840499 -17.814685 -20.785993
Hg -17.810161 -14.845023 -20.785993
Hg -17.810161 -17.814685 -17.816330
Hg -14.840499 -14.845023 -17.816330
Hg -14.840499 -17.814685 -14.846668
Hg -17.810161 -14.845023 -14.846668
Hg -17.810161 -17.814685 -11.877005
Hg -14.840499 -14.845023 -11.877005
Hg -14.840499 -17.814685 -8.907343
Hg -17.810161 -14.845023 -8.907343
Hg -17.810161 -17.814685 -5.937680
Hg -14.840499 -14.845023 -5.937680
Hg -14.840499 -17.814685 -2.968018
Hg -17.810161 -14.845023 -2.968018
Hg -17.810161 -17.814685 0.001645
Hg -14.840499 -14.845023 0.001645
Hg -14.840499 -17.814685 2.971308
Hg -17.810161 -14.845023 2.971308
Hg -17.810161 -17.814685 5.940970
Hg -14.840499 -14.845023 5.940970
Hg -14.840499 -17.814685 8.910633
Hg -17.810161 -14.845023 8.910633
Hg -17.810161 -17.814685 11.880295
Hg -14.840499 -14.845023 11.880295
Hg -14.840499 -17.814685 14.849958
Hg -17.810161 -14.845023 14.849958
Hg -17.810161 -17.814685 17.819620
Hg -14.840499 -14.845023 17.819620
Hg -14.840499 -17.814685 20.789283
Hg -17.810161 -14.845023 20.789283
Hg -14.840499 -14.845023 23.758945
Hg -14.840499 -8.905698 -29.694980
Hg -14.840499 -11.875360 -26.725318
Hg -17.810161 -8.905698 -26.725318
Hg -17.810161 -11.875360 -23.755655
Hg -14.840499 -8.905698 -23.755655
Hg -14.840499 -11.875360 -20.785993
Hg -17.810161 -8.905698 -20.785993
Hg -17.810161 -11.875360 -17.816330
Hg -14.840499 -8.905698 -17.816330
Hg -14.840499 -11.875360 -14.846668
Hg -17.810161 -8.905698 -14.846668
Hg -17.810161 -11.875360 -11.877005
Hg -14.840499 -8.905698 -11.877005
Hg -14.840499 -11.875360 -8.907343
Hg -17.810161 -8.905698 -8.907343
Hg -17.810161 -11.875360 -5.937680
Hg -14.840499 -8.905698 -5.937680
Hg -14.840499 -11.875360 -2.968018
Hg -17.810161 -8.905698 -2.968018
Hg -17.810161 -11.875360 0.001645
Hg -14.840499 -8.905698 0.001645
Hg -14.840499 -11.875360 2.971308
Hg -17.810161 -8.905698 2.971308
Hg -17.810161 -11.875360 5.940970
Hg -14.840499 -8.905698 5.940970
Hg -14.840499 -11.875360 8.910633
Hg -17.810161 -8.905698 8.910633
Hg -17.810161 -11.875360 11.880295
Hg -14.840499 -8.905698 11.880295
Hg -14.840499 -11.875360 14.849958
Hg -17.810161 -8.905698 14.849958
Hg -17.810161 -11.875360 17.819620
Hg -14.840499 -8.905698 17.819620
Hg -14.840499 -11.875360 20.789283
Hg -17.810161 -8.905698 20.789283
Hg -17.810161 -11.875360 23.758945
Hg -14.840499 -8.905698 23.758945
Hg -14.840499 -11.875360 26.728608
Hg -17.810161 -8.905698 26.728608
Hg -14.840499 -8.905698 29.698270
Hg -14.840499 -5.936035 -32.664643
Hg -17.810161 -5.936035 -29.694980
Hg -14.840499 -2.966373 -29.694980
Hg -14.840499 -5.936035 -26.725318
Hg -17.810161 -2.966373 -26.725318
Hg -17.810161 -5.936035 -23.755655
Hg -14.840499 -2.966373 -23.755655
Hg -14.840499 -5.936035 -20.785993
Hg -17.810161 -2.966373 -20.785993
Hg -17.810161 -5.936035 -17.816330
Hg -14.840499 -2.966373 -17.816330
Hg -14.840499 -5.936035 -14.846668
Hg -17.810161 -2.966373 -14.846668
Hg -17.810161 -5.936035 -11.877005
Hg -14.840499 -2.966373 -11.877005
Hg -14.840499 -5.936035 -8.907343
Hg -17.810161 -2.966373 -8.907343
Hg -17.810161 -5.936035 -5.937680
Hg -14.840499 -2.966373 -5.937680
Hg -14.840499 -5.936035 -2.968018
Hg -17.810161 -2.966373 -2.968018
Hg -17.810161 -5.936035 0.001645
Hg -14.840499 -2.966373 0.001645
Hg -14.840499 -5.936035 2.971308
Hg -17.810161 -2.966373 2.971308
Hg -17.810161 -5.936035 5.940970
Hg -14.840499 -2.966373 5.940970
Hg -14.840499 -5.936035 8.910633
Hg -17.810161 -2.966373 8.910633
Hg -17.810161 -5.936035 11.880295
Hg -14.840499 -2.966373 11.880295
Hg -14.840499 -5.936035 14.849958
Hg -17.810161 -2.966373 14.849958
Hg -17.810161 -5.936035 17.819620
Hg -14.840499 -2.966373 17.819620
Hg -14.840499 -5.936035 20.789283
Hg -17.810161 -2.966373 20.789283
Hg -17.810161 -5.936035 23.758945
Hg -14.840499 -2.966373 23.758945
Hg -14.840499 -5.936035 26.728608
Hg -17.810161 -2.966373 26.728608
Hg -17.810161 -5.936035 29.698270
Hg -14.840499 -2.966373 29.698270
Hg -14.840499 -5.936035 32.667933
Hg -14.840499 0.003290 -32.664643
Hg -17.810161 0.003290 -29.694980
Hg -14.840499 2.972953 -29.694980
Hg -14.840499 0.003290 -26.725318
Hg -17.810161 2.972953 -26.725318
Hg -17.810161 0.003290 -23.755655
Hg -14.840499 2.972953 -23.755655
Hg -14.840499 0.003290 -20.785993
Hg -17.810161 2.972953 -20.785993
Hg -17.810161 0.003290 -17.816330
Hg -14.840499 2.972953 -17.816330
Hg -14.840499 0.003290 -14.846668
Hg -17.810161 2.972953 -14.846668
Hg -17.810161 0.003290 -11.877005
Hg -14.840499 2.972953 -11.877005
Hg -14.840499 0.003290 -8.907343
Hg -17.810161 2.972953 -8.907343
Hg -17.810161 0.003290 -5.937680
Hg -14.840499 2.972953 -5.937680
Hg -14.840499 0.003290 -2.968018
Hg -17.810161 2.972953 -2.968018
Hg -17.810161 0.003290 0.001645
Hg -14.840499 2.972953 0.001645
Hg -14.840499 0.003290 2.971308
Hg -17.810161 2.972953 2.971308
Hg -17.810161 0.003290 5.940970
Hg -14.840499 2.972953 5.940970
Hg -14.840499 0.003290 8.910633
Hg -17.810161 2.972953 8.910633
Hg -17.810161 0.003290 11.880295
Hg -14.840499 2.972953 11.880295
Hg -14.840499 0.003290 14.849958
Hg -17.810161 2.972953 14.849958
Hg -17.810161 0.003290 17.819620
Hg -14.840499 2.972953 17.819620
Hg -14.840499 0.003290 20.789283
Hg -17.810161 2.972953 20.789283
Hg -17.810161 0.003290 23.758945
Hg -14.840499 2.972953 23.758945
Hg -14.840499 0.003290 26.728608
Hg -17.810161 2.972953 26.728608
Hg -17.810161 0.003290 29.698270
Hg -14.840499 2.972953 29.698270
Hg -14.840499 0.003290 32.667933
Hg -14.840499 5.942615 -32.664643
Hg -17.810161 5.942615 -29.694980
Hg -14.840499 8.912278 -29.694980
Hg -14.840499 5.942615 -26.725318
Hg -17.810161 8.912278 -26.725318
Hg -17.810161 5.942615 -23.755655
Hg -14.840499 8.912278 -23.755655
Hg -14.840499 5.942615 -20.785993
Hg -17.810161 8.912278 -20.785993
Hg -17.810161 5.942615 -17.816330
Hg -14.840499 8.912278 -17.816330
Hg -14.840499 5.942615 -14.846668
Hg -17.810161 8.912278 -14.846668
Hg -17.810161 5.942615 -11.877005
Hg -14.840499 8.912278 -11.877005
Hg -14.840499 5.942615 -8.907343
Hg -17.810161 8.912278 -8.907343
Hg -17.810161 5.942615 -5.937680
Hg -14.840499 8.912278 -5.937680
Hg -14.840499 5.942615 -2.968018
Hg -17.810161 8.912278 -2.968018
Hg -17.810161 5.942615 0.001645
Hg -14.840499 8.912278 0.001645
Hg -14.840499 5.942615 2.971308
Hg -17.810161 8.912278 2.971308
Hg -17.810161 5.942615 5.940970
Hg -14.840499 8.912278 5.940970
Hg -14.840499 5.942615 8.910633
Hg -17.810161 8.912278 8.910633
Hg -17.810161 5.942615 11.880295
Hg -14.840499 8.912278 11.880295
Hg -14.840499 5.942615 14.849958
Hg -17.810161 8.912278 14.849958
Hg -17.810161 5.942615 17.819620
Hg -14.840499 8.912278 17.819620
Hg -14.840499 5.942615 20.789283
Hg -17.810161 8.912278 20.789283
Hg -17.810161 5.942615 23.758945
Hg -14.840499 8.912278 23.758945
Hg -14.840499 5.942615 26.728608
Hg -17.810161 8.912278 26.728608
Hg -17.810161 5.942615 29.698270
Hg -14.840499 8.912278 29.698270
Hg -14.840499 5.942615 32.667933
Hg -14.840499 11.881940 -26.725318
Hg -17.810161 11.881940 -23.755655
Hg -14.840499 14.851603 -23.755655
Hg -14.840499 11.881940 -20.785993
Hg -17.810161 14.851603 -20.785993
Hg -17.810161 11.881940 -17.816330
Hg -14.840499 14.851603 -17.816330
Hg -14.840499 11.881940 -14.846668
Hg -17.810161 14.851603 -14.846668
Hg -17.810161 11.881940 -11.877005
Hg -14.840499 14.851603 -11.877005
Hg -14.840499 11.881940 -8.907343
Hg -17.810161 14.851603 -8.907343
Hg -17.810161 11.881940 -5.937680
Hg -14.840499 14.851603 -5.937680
Hg -14.840499 11.881940 -2.968018
Hg -17.810161 14.851603 -2.968018
Hg -17.810161 11.881940 0.001645
Hg -14.840499 14.851603 0.001645
Hg -14.840499 11.881940 2.971308
Hg -17.810161 14.851603 2.971308
Hg -17.810161 11.881940 5.940970
Hg -14.840499 14.851603 5.940970
Hg -14.840499 11.881940 8.910633
Hg -17.810161 14.851603 8.910633
Hg -17.810161 11.881940 11.880295
Hg -14.840499 14.851603 11.880295
Hg -14.840499 11.881940 14.849958
Hg -17.810161 14.851603 14.849958
Hg -17.810161 11.881940 17.819620
Hg -14.840499 14.851603 17.819620
Hg -14.840499 11.881940 20.789283
Hg -17.810161 14.851603 20.789283
Hg -17.810161 11.881940 23.758945
Hg -14.840499 14.851603 23.758945
Hg -14.840499 11.881940 26.728608
Hg -14.840499 17.821265 -20.785993
Hg -17.810161 17.821265 -17.816330
Hg -14.840499 20.790928 -17.816330
Hg -14.840499 17.821265 -14.846668
Hg -17.810161 20.790928 -14.846668
Hg -17.810161 17.821265 -11.877005
Hg -14.840499 20.790928 -11.877005
Hg -14.840499 17.821265 -8.907343
Hg -17.810161 20.790928 -8.907343
Hg -17.810161 17.821265 -5.937680
Hg -14.840499 20.790928 -5.937680
Hg -14.840499 17.821265 -2.968018
Hg -17.810161 20.790928 -2.968018
Hg -17.810161 17.821265 0.001645
Hg -14.840499 20.790928 0.001645
Hg -14.840499 17.821265 2.971308
Hg -17.810161 20.790928 2.971308
Hg -17.810161 17.821265 5.940970
Hg -14.840499 20.790928 5.940970
Hg -14.840499 17.821265 8.910633
Hg -17.810161 20.790928 8.910633
Hg -17.810161 17.821265 11.880295
Hg -14.840499 20.790928 11.880295
Hg -14.840499 17.821265 14.849958
Hg -17.810161 20.790928 14.849958
Hg -17.810161 17.821265 17.819620
Hg -14.840499 20.790928 17.819620
Hg -14.840499 17.821265 20.789283
Hg -14.840499 23.760590 -14.846668
Hg -17.810161 23.760590 -11.877005
Hg -14.840499 26.730253 -11.877005
Hg -14.840499 23.760590 -8.907343
Hg -17.810161 26.730253 -8.907343
Hg -17.810161 23.760590 -5.937680
Hg -14.840499 26.730253 -5.937680
Hg -14.840499 23.760590 -2.968018
Hg -17.810161 26.730253 -2.968018
Hg -17.810161 23.760590 0.001645
Hg -14.840499 26.730253 0.001645
Hg -14.840499 23.760590 2.971308
Hg -17.810161 26.730253 2.971308
Hg -17.810161 23.760590 5.940970
Hg -14.840499 26.730253 5.940970
Hg -14.840499 23.760590 8.910633
Hg -17.810161 26.730253 8.910633
Hg -17.810161 23.760590 11.880295
Hg -14.840499 26.730253 11.880295
Hg -14.840499 23.760590 14.849958
Hg -14.840499 29.699915 -8.907343
Hg -17.810161 29.699915 -5.937680
Hg -14.840499 32.669578 -5.937680
Hg -14.840499 29.699915 -2.968018
Hg -17.810161 29.699915 0.001645
Hg -14.840499 32.669578 0.001645
Hg -14.840499 29.699915 2.971308
Hg -17.810161 29.699915 5.940970
Hg -14.840499 32.669578 5.940970
Hg -14.840499 29.699915 8.910633
Hg -8.901174 -32.662998 -11.877005
Hg -11.870836 -32.662998 -8.907343
Hg -8.901174 -32.662998 -5.937680
Hg -11.870836 -32.662998 -2.968018
Hg -8.901174 -32.662998 0.001645
Hg -11.870836 -32.662998 2.971308
Hg -8.901174 -32.662998 5.940970
Hg -11.870836 -32.662998 8.910633
Hg -8.901174 -32.662998 11.880295
Hg -8.901174 -26.723673 -17.816330
Hg -8.901174 -29.693335 -14.846668
Hg -11.870836 -26.723673 -14.846668
Hg -11.870836 -29.693335 -11.877005
Hg -8.901174 -26.723673 -11.877005
Hg -8.901174 -29.693335 -8.907343
Hg -11.870836 -26.723673 -8.907343
Hg -11.870836 -29.693335 -5.937680
Hg -8.901174 -26.723673 -5.937680
Hg -8.901174 -29.693335 -2.968018
Hg -11.870836 -26.723673 -2.968018
Hg -11.870836 -29.693335 0.001645
Hg -8.901174 -26.723673 0.001645
Hg -8.901174 -29.693335 2.971308
Hg -11.870836 -26.723673 2.971308
Hg -11.870836 -29.693335 5.940970
Hg -8.901174 -26.723673 5.940970
Hg -8.901174 -29.693335 8.910633
Hg -11.870836 -26.723673 8.910633
Hg -11.870836 -29.693335 11.880295
Hg -8.901174 -26.723673 11.880295
Hg -8.901174 -29.693335 14.849958
Hg -11.870836 -26.723673 14.849958
Hg -8.901174 -26.723673 17.819620
Hg -8.901174 -20.784348 -23.755655
Hg -8.901174 -23.754010 -20.785993
Hg -11.870836 -20.784348 -20.785993
Hg -11.870836 -23.754010 -17.816330
Hg -8.901174 -20.784348 -17.816330
Hg -8.901174 -23.754010 -14.846668
Hg -11.870836 -20.784348 -14.846668
Hg -11.870836 -23.754010 -11.877005
Hg -8.901174 -20.784348 -11.877005
Hg -8.901174 -23.754010 -8.907343
Hg -11.870836 -20.784348 -8.907343
Hg -11.870836 -23.754010 -5.937680
Hg -8.901174 -20.784348 -5.937680
Hg -8.901174 -23.754010 -2.968018
Hg -11.870836 -20.784348 -2.968018
Hg -11.870836 -23.754010 0.001645
Hg -8.901174 -20.784348 0.001645
Hg -8.901174 -23.754010 2.971308
Hg -11.870836 -20.784348 2.971308
Hg -11.870836 -23.754010 5.940970
Hg -8.901174 -20.784348 5.940970
Hg -8.901174 -23.754010 8.910633
Hg -11.870836 -20.784348 8.910633
Hg -11.870836 -23.754010 11.880295
Hg -8.901174 -20.784348 11.880295
Hg -8.901174 -23.754010 14.849958
Hg -11.870836 -20.784348 14.849958
Hg -11.870836 -23.754010 17.819620
Hg -8.901174 -20.784348 17.819620
Hg -8.901174 -23.754010 20.789283
Hg -11.870836 -20.784348 20.789283
Hg -8.901174 -20.784348 23.758945
Hg -8.901174 -14.845023 -29.694980
Hg -8.901174 -17.814685 -26.725318
Hg -11.870836 -14.845023 -26.725318
Hg -11.870836 -17.814685 -23.755655
Hg -8.901174 -14.845023 -23.755655
Hg -8.901174 -17.814685 -20.785993
Hg -11.870836 -14.845023 -20.785993
Hg -11.870836 -17.814685 -17.816330
Hg -8.901174 -14.845023 -17.816330
Hg -8.901174 -17.814685 -14.846668
Hg -11.870836 -14.845023 -14.846668
Hg -11.870836 -17.814685 -11.877005
Hg -8.901174 -14.845023 -11.877005
Hg -8.901174 -17.814685 -8.907343
Hg -11.870836 -14.845023 -8.907343
Hg -11.870836 -17.814685 -5.937680
Hg -8.901174 -14.845023 -5.937680
Hg -8.901174 -17.814685 -2.968018
Hg -11.870836 -14.845023 -2.968018
Hg -11.870836 -17.814685 0.001645
Hg -8.901174 -14.845023 0.001645
Hg -8.901174 -17.814685 2.971308
Hg -11.870836 -14.845023 2.971308
Hg -11.870836 -17.814685 5.940970
Hg -8.901174 -14.845023 5.940970
Hg -8.901174 -17.814685 8.910633
Hg -11.870836 -14.845023 8.910633
Hg -11.870836 -17.814685 11.880295
Hg -8.901174 -14.845023 11.880295
Hg -8.901174 -17.814685 14.849958
Hg -11.870836 -14.845023 14.849958
Hg -11.870836 -17.814685 17.819620
Hg -8.901174 -14.845023 17.819620
Hg -8.901174 -17.814685 20.789283
Hg -11.870836 -14.845023 20.789283
Hg -11.870836 -17.814685 23.758945
Hg -8.901174 -14.845023 23.758945
Hg -8.901174 -17.814685 26.728608
Hg -11.870836 -14.845023 26.728608
Hg -8.901174 -14.845023 29.698270
Hg -8.901174 -11.875360 -32.664643
Hg -11.870836 -8.905698 -32.664643
Hg -11.870836 -11.875360 -29.694980
Hg -8.901174 -8.905698 -29.694980
Hg -8.901174 -11.875360 -26.725318
Hg -11.870836 -8.905698 -26.725318
Hg -11.870836 -11.875360 -23.755655
Hg -8.901174 -8.905698 -23.755655
Hg -8.901174 -11.875360 -20.785993
Hg -11.870836 -8.905698 -20.785993
Hg -11.870836 -11.875360 -17.816330
Hg -8.901174 -8.905698 -17.816330
Hg -8.901174 -11.875360 -14.846668
Hg -11.870836 -8.905698 -14.846668
Hg -11.870836 -11.875360 -11.877005
Hg -8.901174 -8.905698 -11.877005
Hg -8.901174 -11.875360 -8.907343
Hg -11.870836 -8.905698 -8.907343
Hg -11.870836 -11.875360 -5.937680
Hg -8.901174 -8.905698 -5.937680
Hg -8.901174 -11.875360 -2.968018
Hg -11.870836 -8.905698 -2.968018
Hg -11.870836 -11.875360 0.001645
Hg -8.901174 -8.905698 0.001645
Hg -8.901174 -11.875360 2.971308
Hg -11.870836 -8.905698 2.971308
Hg -11.870836 -11.875360 5.940970
Hg -8.901174 -8.905698 5.940970
Hg -8.901174 -11.875360 8.910633
Hg -11.870836 -8.905698 8.910633
Hg -11.870836 -11.875360 11.880295
Hg -8.901174 -8.905698 11.880295
Hg -8.901174 -11.875360 14.849958
Hg -11.870836 -8.905698 14.849958
Hg -11.870836 -11.875360 17.819620
Hg -8.901174 -8.905698 17.819620
Hg -8.901174 -11.875360 20.789283
Hg -11.870836 -8.905698 20.789283
Hg -11.870836 -11.875360 23.758945
Hg -8.901174 -8.905698 23.758945
Hg -8.901174 -11.875360 26.728608
Hg -11.870836 -8.905698 26.728608
Hg -11.870836 -11.875360 29.698270
Hg -8.901174 -8.905698 29.698270
Hg -8.901174 -11.875360 32.667933
Hg -11.870836 -8.905698 32.667933
Hg -8.901174 -5.936035 -32.664643
Hg -11.870836 -2.966373 -32.664643
Hg -11.870836 -5.936035 -29.694980
Hg -8.901174 -2.966373 -29.694980
Hg -8.901174 -5.936035 -26.725318
Hg -11.870836 -2.966373 -26.725318
Hg -11.870836 -5.936035 -23.755655
Hg -8.901174 -2.966373 -23.755655
Hg -8.901174 -5.936035 -20.785993
Hg -11.870836 -2.966373 -20.785993
Hg -11.870836 -5.936035 -17.816330
Hg -8.901174 -2.966373 -17.816330
Hg -8.901174 -5.936035 -14.846668
Hg -11.870836 -2.966373 -14.846668
Hg -11.870836 -5.936035 -11.877005
Hg -8.901174 -2.966373 -11.877005
Hg -8.901174 -5.936035 -8.907343
Hg -11.870836 -2.966373 -8.907343
Hg -11.870836 -5.936035 -5.937680
Hg -8.901174 -2.966373 -5.937680
Hg -8.901174 -5.936035 -2.968018
Hg -11.870836 -2.966373 -2.968018
Hg -11.870836 -5.936035 0.001645
Hg -8.901174 -2.966373 0.001645
Hg -8.901174 -5.936035 2.971308
Hg -11.870836 -2.966373 2.971308
Hg -11.870836 -5.936035 5.940970
Hg -8.901174 -2.966373 5.940970
Hg -8.901174 -5.936035 8.910633
Hg -11.870836 -2.966373 8.910633
Hg -11.870836 -5.936035 11.880295
Hg -8.901174 -2.966373 11.880295
Hg -8.901174 -5.936035 14.849958
Hg -11.870836 -2.966373 14.849958
Hg -11.870836 -5.936035 17.819620
Hg -8.901174 -2.966373 17.819620
Hg -8.901174 -5.936035 20.789283
Hg -11.870836 -2.966373 20.789283
Hg -11.870836 -5.936035 23.758945
Hg -8.901174 -2.966373 23.758945
Hg -8.901174 -5.936035 26.728608
Hg -11.870836 -2.966373 26.728608
Hg -11.870836 -5.936035 29.698270
Hg -8.901174 -2.966373 29.698270
Hg -8.901174 -5.936035 32.667933
Hg -11.870836 -2.966373 32.667933
Hg -8.901174 0.003290 -32.664643
Hg -11.870836 2.972953 -32.664643
Hg -11.870836 0.003290 -29.694980
Hg -8.901174 2.972953 -29.694980
Hg -8.901174 0.003290 -26.725318
Hg -11.870836 2.972953 -26.725318
Hg -11.870836 0.003290 -23.755655
Hg -8.901174 2.972953 -23.755655
Hg -8.901174 0.003290 -20.785993
Hg -11.870836 2.972953 -20.785993
Hg -11.870836 0.003290 -17.816330
Hg -8.901174 2.972953 -17.816330
Hg -8.901174 0.003290 -14.846668
Hg -11.870836 2.972953 -14.846668
Hg -11.870836 0.003290 -11.877005
Hg -8.901174 2.972953 -11.877005
Hg -8.901174 0.003290 -8.907343
Hg -11.870836 2.972953 -8.907343
Hg -11.870836 0.003290 -5.937680
Hg -8.901174 2.972953 -5.937680
Hg -8.901174 0.003290 -2.968018
Hg -11.870836 2.972953 -2.968018
Hg -11.870836 0.003290 0.001645
Hg -8.901174 2.972953 0.001645
Hg -8.901174 0.003290 2.971308
Hg -11.870836 2.972953 2.971308
Hg -11.870836 0.003290 5.940970
Hg -8.901174 2.972953 5.940970
Hg -8.901174 0.003290 8.910633
Hg -11.870836 2.972953 8.910633
Hg -11.870836 0.003290 11.880295
Hg -8.901174 2.972953 11.880295
Hg -8.901174 0.003290 14.849958
Hg -11.870836 2.972953 14.849958
Hg -11.870836 0.003290 17.819620
Hg -8.901174 2.972953 17.819620
Hg -8.901174 0.003290 20.789283
Hg -11.870836 2.972953 20.789283
Hg -11.870836 0.003290 23.758945
Hg -8.901174 2.972953 23.758945
Hg -8.901174 0.003290 26.728608
Hg -11.870836 2.972953 26.728608
Hg -11.870836 0.003290 29.698270
Hg -8.901174 2.972953 29.698270
Hg -8.901174 0.003290 32.667933
Hg -11.870836 2.972953 32.667933
Hg -8.901174 5.942615 -32.664643
Hg -11.870836 8.912278 -32.664643
Hg -11.870836 5.942615 -29.694980
Hg -8.901174 8.912278 -29.694980
Hg -8.901174 5.942615 -26.725318
Hg -11.870836 8.912278 -26.725318
Hg -11.870836 5.942615 -23.755655
Hg -8.901174 8.912278 -23.755655
Hg -8.901174 5.942615 -20.785993
Hg -11.870836 8.912278 -20.785993
Hg -11.870836 5.942615 -17.816330
Hg -8.901174 8.912278 -17.816330
Hg -8.901174 5.942615 -14.846668
Hg -11.870836 8.912278 -14.846668
Hg -11.870836 5.942615 -11.877005
Hg -8.901174 8.912278 -11.877005
Hg -8.901174 5.942615 -8.907343
Hg -11.870836 8.912278 -8.907343
Hg -11.870836 5.942615 -5.937680
Hg -8.901174 8.912278 -5.937680
Hg -8.901174 5.942615 -2.968018
Hg -11.870836 8.912278 -2.968018
Hg -11.870836 5.942615 0.001645
Hg -8.901174 8.912278 0.001645
Hg -8.901174 5.942615 2.971308
Hg -11.870836 8.912278 2.971308
Hg -11.870836 5.942615 5.940970
Hg -8.901174 8.912278 5.940970
Hg -8.901174 5.942615 8.910633
Hg -11.870836 8.912278 8.910633
Hg -11.870836 5.942615 11.880295
Hg -8.901174 8.912278 11.880295
Hg -8.901174 5.942615 14.849958
Hg -11.870836 8.912278 14.849958
Hg -11.870836 5.942615 17.819620
Hg -8.901174 8.912278 17.819620
Hg -8.901174 5.942615 20.789283
Hg -11.870836 8.912278 20.789283
Hg -11.870836 5.942615 23.758945
Hg -8.901174 8.912278 23.758945
Hg -8.901174 5.942615 26.728608
Hg -11.870836 8.912278 26.728608
Hg -11.870836 5.942615 29.698270
Hg -8.901174 8.912278 29.698270
Hg -8.901174 5.942615 32.667933
Hg -11.870836 8.912278 32.667933
Hg -8.901174 11.881940 -32.664643
Hg -11.870836 11.881940 -29.694980
Hg -8.901174 14.851603 -29.694980
Hg -8.901174 11.881940 -26.725318
Hg -11.870836 14.851603 -26.725318
Hg -11.870836 11.881940 -23.755655
Hg -8.901174 14.851603 -23.755655
Hg -8.901174 11.881940 -20.785993
Hg -11.870836 14.851603 -20.785993
Hg -11.870836 11.881940 -17.816330
Hg -8.901174 14.851603 -17.816330
Hg -8.901174 11.881940 -14.846668
Hg -11.870836 14.851603 -14.846668
Hg -11.870836 11.881940 -11.877005
Hg -8.901174 14.851603 -11.877005
Hg -8.901174 11.881940 -8.907343
Hg -11.870836 14.851603 -8.907343
Hg -11.870836 11.881940 -5.937680
Hg -8.901174 14.851603 -5.937680
Hg -8.901174 11.881940 -2.968018
Hg -11.870836 14.851603 -2.968018
Hg -11.870836 11.881940 0.001645
Hg -8.901174 14.851603 0.001645
Hg -8.901174 11.881940 2.971308
Hg -11.870836 14.851603 2.971308
Hg -11.870836 11.881940 5.940970
Hg -8.901174 14.851603 5.940970
Hg -8.901174 11.881940 8.910633
Hg -11.870836 14.851603 8.910633
Hg -11.870836 11.881940 11.880295
Hg -8.901174 14.851603 11.880295
Hg -8.901174 11.881940 14.849958
Hg -11.870836 14.851603 14.849958
Hg -11.870836 11.881940 17.819620
Hg -8.901174 14.851603 17.819620
Hg -8.901174 11.881940 20.789283
Hg -11.870836 14.851603 20.789283
Hg -11.870836 11.881940 23.758945
Hg -8.901174 14.851603 23.758945
Hg -8.901174 11.881940 26.728608
Hg -11.870836 14.851603 26.728608
Hg -11.870836 11.881940 29.698270
Hg -8.901174 14.851603 29.698270
Hg -8.901174 11.881940 32.667933
Hg -8.901174 17.821265 -26.725318
Hg -11.870836 17.821265 -23.755655
Hg -8.901174 20.790928 -23.755655
Hg -8.901174 17.821265 -20.785993
Hg -11.870836 20.790928 -20.785993
Hg -11.870836 17.821265 -17.816330
Hg -8.901174 20.790928 -17.816330
Hg -8.901174 17.821265 -14.846668
Hg -11.870836 20.790928 -14.846668
Hg -11.870836 17.821265 -11.877005
Hg -8.901174 20.790928 -11.877005
Hg -8.901174 17.821265 -8.907343
Hg -11.870836 20.790928 -8.907343
Hg -11.870836 17.821265 -5.937680
Hg -8.901174 20.790928 -5.937680
Hg -8.901174 17.821265 -2.968018
Hg -11.870836 20.790928 -2.968018
Hg -11.870836 17.821265 0.001645
Hg -8.901174 20.790928 0.001645
Hg -8.901174 17.821265 2.971308
Hg -11.870836 20.790928 2.971308
Hg -11.870836 17.821265 5.940970
Hg -8.901174 20.790928 5.940970
Hg -8.901174 17.821265 8.910633
Hg -11.870836 20.790928 8.910633
Hg -11.870836 17.821265 11.880295
Hg -8.901174 20.790928 11.880295
Hg -8.901174 17.821265 14.849958
Hg -11.870836 20.790928 14.849958
Hg -11.870836 17.821265 17.819620
Hg -8.901174 20.790928 17.819620
Hg -8.901174 17.821265 20.789283
Hg -11.870836 20.790928 20.789283
Hg -11.870836 17.821265 23.758945
Hg -8.901174 20.790928 23.758945
Hg -8.901174 17.821265 26.728608
Hg -8.901174 23.760590 -20.785993
Hg -11.870836 23.760590 -17.816330
Hg -8.901174 26.730253 -17.816330
Hg -8.901174 23.760590 -14.846668
Hg -11.870836 26.730253 -14.846668
Hg -11.870836 23.760590 -11.877005
Hg -8.901174 26.730253 -11.877005
Hg -8.901174 23.760590 -8.907343
Hg -11.870836 26.730253 -8.907343
Hg -11.870836 23.760590 -5.937680
Hg -8.901174 26.730253 -5.937680
Hg -8.901174 23.760590 -2.968018
Hg -11.870836 26.730253 -2.968018
Hg -11.870836 23.760590 0.001645
Hg -8.901174 26.730253 0.001645
Hg -8.901174 23.760590 2.971308
Hg -11.870836 26.730253 2.971308
Hg -11.870836 23.760590 5.940970
Hg -8.901174 26.730253 5.940970
Hg -8.901174 23.760590 8.910633
Hg -11.870836 26.730253 8.910633
Hg -11.870836 23.760590 11.880295
Hg -8.901174 26.730253 11.880295
Hg -8.901174 23.760590 14.849958
Hg -11.870836 26.730253 14.849958
Hg -11.870836 23.760590 17.819620
Hg -8.901174 26.730253 17.819620
Hg -8.901174 23.760590 20.789283
Hg -8.901174 29.699915 -14.846668
Hg -11.870836 29.699915 -11.877005
Hg -8.901174 32.669578 -11.877005
Hg -8.901174 29.699915 -8.907343
Hg -11.870836 32.669578 -8.907343
Hg -11.870836 29.699915 -5.937680
Hg -8.901174 32.669578 -5.937680
Hg -8.901174 29.699915 -2.968018
Hg -11.870836 32.669578 -2.968018
Hg -11.870836 29.699915 0.001645
Hg -8.901174 32.669578 0.001645
Hg -8.901174 29.699915 2.971308
Hg -11.870836 32.669578 2.971308
Hg -11.870836 29.699915 5.940970
Hg -8.901174 32.669578 5.940970
Hg -8.901174 29.699915 8.910633
Hg -11.870836 32.669578 8.910633
Hg -11.870836 29.699915 11.880295
Hg -8.901174 32.669578 11.880295
Hg -8.901174 29.699915 14.849958
Hg -5.931511 -32.662998 -14.846668
Hg -2.961849 -32.662998 -11.877005
Hg -5.931511 -32.662998 -8.907343
Hg -2.961849 -32.662998 -5.937680
Hg -5.931511 -32.662998 -2.968018
Hg -2.961849 -32.662998 0.001645
Hg -5.931511 -32.662998 2.971308
Hg -2.961849 -32.662998 5.940970
Hg -5.931511 -32.662998 8.910633
Hg -2.961849 -32.662998 11.880295
Hg -5.931511 -32.662998 14.849958
Hg -5.931511 -26.723673 -20.785993
Hg -5.931511 -29.693335 -17.816330
Hg -2.961849 -26.723673 -17.816330
Hg -2.961849 -29.693335 -14.846668
Hg -5.931511 -26.723673 -14.846668
Hg -5.931511 -29.693335 -11.877005
Hg -2.961849 -26.723673 -11.877005
Hg -2.961849 -29.693335 -8.907343
Hg -5.931511 -26.723673 -8.907343
Hg -5.931511 -29.693335 -5.937680
Hg -2.961849 -26.723673 -5.937680
Hg -2.961849 -29.693335 -2.968018
Hg -5.931511 -26.723673 -2.968018
Hg -5.931511 -29.693335 0.001645
Hg -2.961849 -26.723673 0.001645
Hg -2.961849 -29.693335 2.971308
Hg -5.931511 -26.723673 2.971308
Hg -5.931511 -29.693335 5.940970
Hg -2.961849 -26.723673 5.940970
Hg -2.961849 -29.693335 8.910633
Hg -5.931511 -26.723673 8.910633
Hg -5.931511 -29.693335 11.880295
Hg -2.961849 -26.723673 11.880295
Hg -2.961849 -29.693335 14.849958
Hg -5.931511 -26.723673 14.849958
Hg -5.931511 -29.693335 17.819620
Hg -2.961849 -26.723673 17.819620
Hg -5.931511 -26.723673 20.789283
Hg -5.931511 -20.784348 -26.725318
Hg -5.931511 -23.754010 -23.755655
Hg -2.961849 -20.784348 -23.755655
Hg -2.961849 -23.754010 -20.785993
Hg -5.931511 -20.784348 -20.785993
Hg -5.931511 -23.754010 -17.816330
Hg -2.961849 -20.784348 -17.816330
Hg -2.961849 -23.754010 -14.846668
Hg -5.931511 -20.784348 -14.846668
Hg -5.931511 -23.754010 -11.877005
Hg -2.961849 -20.784348 -11.877005
Hg -2.961849 -23.754010 -8.907343
Hg -5.931511 -20.784348 -8.907343
Hg -5.931511 -23.754010 -5.937680
Hg -2.961849 -20.784348 -5.937680
Hg -2.961849 -23.754010 -2.968018
Hg -5.931511 -20.784348 -2.968018
Hg -5.931511 -23.754010 0.001645
Hg -2.961849 -20.784348 0.001645
Hg -2.961849 -23.754010 2.971308
Hg -5.931511 -20.784348 2.971308
Hg -5.931511 -23.754010 5.940970
Hg -2.961849 -20.784348 5.940970
Hg -2.961849 -23.754010 8.910633
Hg -5.931511 -20.784348 8.910633
Hg -5.931511 -23.754010 11.880295
Hg -2.961849 -20.784348 11.880295
Hg -2.961849 -23.754010 14.849958
Hg -5.931511 -20.784348 14.849958
Hg -5.931511 -23.754010 17.819620
Hg -2.961849 -20.784348 17.819620
Hg -2.961849 -23.754010 20.789283
Hg -5.931511 -20.784348 20.789283
Hg -5.931511 -23.754010 23.758945
Hg -2.961849 -20.784348 23.758945
Hg -5.931511 -20.784348 26.728608
Hg -5.931511 -14.845023 -32.664643
Hg -5.931511 -17.814685 -29.694980
Hg -2.961849 -14.845023 -29.694980
Hg -2.961849 -17.814685 -26.725318
Hg -5.931511 -14.845023 -26.725318
Hg -5.931511 -17.814685 -23.755655
Hg -2.961849 -14.845023 -23.755655
Hg -2.961849 -17.814685 -20.785993
Hg -5.931511 -14.845023 -20.785993
Hg -5.931511 -17.814685 -17.816330
Hg -2.961849 -14.845023 -17.816330
Hg -2.961849 -17.814685 -14.846668
Hg -5.931511 -14.845023 -14.846668
Hg -5.931511 -17.814685 -11.877005
Hg -2.961849 -14.845023 -11.877005
Hg -2.961849 -17.814685 -8.907343
Hg -5.931511 -14.845023 -8.907343
Hg -5.931511 -17.814685 -5.937680
Hg -2.961849 -14.845023 -5.937680
Hg -2.961849 -17.814685 -2.968018
Hg -5.931511 -14.845023 -2.968018
Hg -5.931511 -17.814685 0.001645
Hg -2.961849 -14.845023 0.001645
Hg -2.961849 -17.814685 2.971308
Hg -5.931511 -14.845023 2.971308
Hg -5.931511 -17.814685 5.940970
Hg -2.961849 -14.845023 5.940970
Hg -2.961849 -17.814685 8.910633
Hg -5.931511 -14.845023 8.910633
Hg -5.931511 -17.814685 11.880295
Hg -2.961849 -14.845023 11.880295
Hg -2.961849 -17.814685 14.849958
Hg -5.931511 -14.845023 14.849958
Hg -5.931511 -17.814685 17.819620
Hg -2.961849 -14.845023 17.819620
Hg -2.961849 -17.814685 20.789283
Hg -5.931511 -14.845023 20.789283
Hg -5.931511 -17.814685 23.758945
Hg -2.961849 -14.845023 23.758945
Hg -2.961849 -17.814685 26.728608
Hg -5.931511 -14.845023 26.728608
Hg -5.931511 -17.814685 29.698270
Hg -2.961849 -14.845023 29.698270
Hg -5.931511 -14.845023 32.667933
Hg -2.961849 -11.875360 -32.664643
Hg -5.931511 -8.905698 -32.664643
Hg -5.931511 -11.875360 -29.694980
Hg -2.961849 -8.905698 -29.694980
Hg -2.961849 -11.875360 -26.725318
Hg -5.931511 -8.905698 -26.725318
Hg -5.931511 -11.875360 -23.755655
Hg -2.961849 -8.905698 -23.755655
Hg -2.961849 -11.875360 -20.785993
Hg -5.931511 -8.905698 -20.785993
Hg -5.931511 -11.875360 -17.816330
Hg -2.961849 -8.905698 -17.816330
Hg -2.961849 -11.875360 -14.846668
Hg -5.931511 -8.905698 -14.846668
Hg -5.931511 -11.875360 -11.877005
Hg -2.961849 -8.905698 -11.877005
Hg -2.961849 -11.875360 -8.907343
Hg -5.931511 -8.905698 -8.907343
Hg -5.931511 -11.875360 -5.937680
Hg -2.961849 -8.905698 -5.937680
Hg -2.961849 -11.875360 -2.968018
Hg -5.931511 -8.905698 -2.968018
Hg -5.931511 -11.875360 0.001645
Hg -2.961849 -8.905698 0.001645
Hg -2.961849 -11.875360 2.971308
Hg -5.931511 -8.905698 2.971308
Hg -5.931511 -11.875360 5.940970
Hg -2.961849 -8.905698 5.940970
Hg -2.961849 -11.875360 8.910633
Hg -5.931511 -8.905698 8.910633
Hg -5.931511 -11.875360 11.880295
Hg -2.961849 -8.905698 11.880295
Hg -2.961849 -11.875360 14.849958
Hg -5.931511 -8.905698 14.849958
Hg -5.931511 -11.875360 17.819620
Hg -2.961849 -8.905698 17.819620
Hg -2.961849 -11.875360 20.789283
Hg -5.931511 -8.905698 20.789283
Hg -5.931511 -11.875360 23.758945
Hg -2.961849 -8.905698 23.758945
Hg -2.961849 -11.875360 26.728608
Hg -5.931511 -8.905698 26.728608
Hg -5.931511 -11.875360 29.698270
Hg -2.961849 -8.905698 29.698270
Hg -2.961849 -11.875360 32.667933
Hg -5.931511 -8.905698 32.667933
Hg -2.961849 -5.936035 -32.664643
Hg -5.931511 -2.966373 -32.664643
Hg -5.931511 -5.936035 -29.694980
Hg -2.961849 -2.966373 -29.694980
Hg -2.961849 -5.936035 -26.725318
Hg -5.931511 -2.966373 -26.725318
Hg -5.931511 -5.936035 -23.755655
Hg -2.961849 -2.966373 -23.755655
Hg -2.961849 -5.936035 -20.785993
Hg -5.931511 -2.966373 -20.785993
Hg -5.931511 -5.936035 -17.816330
Hg -2.961849 -2.966373 -17.816330
Hg -2.961849 -5.936035 -14.846668
Hg -5.931511 -2.966373 -14.846668
Hg -5.931511 -5.936035 -11.877005
Hg -2.961849 -2.966373 -11.877005
Hg -2.961849 -5.936035 -8.907343
Hg -5.931511 -2.966373 -8.907343
Hg -5.931511 -5.936035 -5.937680
Hg -2.961849 -2.966373 -5.937680
Hg -2.961849 -5.936035 -2.968018
Hg -5.931511 -2.966373 -2.968018
Hg -5.931511 -5.936035 0.001645
Hg -2.961849 -2.966373 0.001645
Hg -2.961849 -5.936035 2.971308
Hg -5.931511 -2.966373 2.971308
Hg -5.931511 -5.936035 5.940970
Hg -2.961849 -2.966373 5.940970
Hg -2.961849 -5.936035 8.910633
Hg -5.931511 -2.966373 8.910633
Hg -5.931511 -5.936035 11.880295
Hg -2.961849 -2.966373 11.880295
Hg -2.961849 -5.936035 14.849958
Hg -5.931511 -2.966373 14.849958
Hg -5.931511 -5.936035 17.819620
Hg -2.961849 -2.966373 17.819620
Hg -2.961849 -5.936035 20.789283
Hg -5.931511 -2.966373 20.789283
Hg -5.931511 -5.936035 23.758945
Hg -2.961849 -2.966373 23.758945
Hg -2.961849 -5.936035 26.728608
Hg -5.931511 -2.966373 26.728608
Hg -5.931511 -5.936035 29.698270
Hg -2.961849 -2.966373 29.698270
Hg -2.961849 -5.936035 32.667933
Hg -5.931511 -2.966373 32.667933
Hg -2.961849 0.003290 -32.664643
Hg -5.931511 2.972953 -32.664643
Hg -5.931511 0.003290 -29.694980
Hg -2.961849 2.972953 -29.694980
Hg -2.961849 0.003290 -26.725318
Hg -5.931511 2.972953 -26.725318
Hg -5.931511 0.003290 -23.755655
Hg -2.961849 2.972953 -23.755655
Hg -2.961849 0.003290 -20.785993
Hg -5.931511 2.972953 -20.785993
Hg -5.931511 0.003290 -17.816330
Hg -2.961849 2.972953 -17.816330
Hg -2.961849 0.003290 -14.846668
Hg -5.931511 2.972953 -14.846668
Hg -5.931511 0.003290 -11.877005
Hg -2.961849 2.972953 -11.877005
Hg -2.961849 0.003290 -8.907343
Hg -5.931511 2.972953 -8.907343
Hg -5.931511 0.003290 -5.937680
Hg -2.961849 2.972953 -5.937680
Hg -2.961849 0.003290 -2.968018
Hg -5.931511 2.972953 -2.968018
Hg -5.931511 0.003290 0.001645
Hg -2.961849 2.972953 0.001645
Hg -2.961849 0.003290 2.971308
Hg -5.931511 2.972953 2.971308
Hg -5.931511 0.003290 5.940970
Hg -2.961849 2.972953 5.940970
Hg -2.961849 0.003290 8.910633
Hg -5.931511 2.972953 8.910633
Hg -5.931511 0.003290 11.880295
Hg -2.961849 2.972953 11.880295
Hg -2.961849 0.003290 14.849958
Hg -5.931511 2.972953 14.849958
Hg -5.931511 0.003290 17.819620
Hg -2.961849 2.972953 17.819620
Hg -2.961849 0.003290 20.789283
Hg -5.931511 2.972953 20.789283
Hg -5.931511 0.003290 23.758945
Hg -2.961849 2.972953 23.758945
Hg -2.961849 0.003290 26.728608
Hg -5.931511 2.972953 26.728608
Hg -5.931511 0.003290 29.698270
Hg -2.961849 2.972953 29.698270
Hg -2.961849 0.003290 32.667933
Hg -5.931511 2.972953 32.667933
Hg -2.961849 5.942615 -32.664643
Hg -5.931511 8.912278 -32.664643
Hg -5.931511 5.942615 -29.694980
Hg -2.961849 8.912278 -29.694980
Hg -2.961849 5.942615 -26.725318
Hg -5.931511 8.912278 -26.725318
Hg -5.931511 5.942615 -23.755655
Hg -2.961849 8.912278 -23.755655
Hg -2.961849 5.942615 -20.785993
Hg -5.931511 8.912278 -20.785993
Hg -5.931511 5.942615 -17.816330
Hg -2.961849 8.912278 -17.816330
Hg -2.961849 5.942615 -14.846668
Hg -5.931511 8.912278 -14.846668
Hg -5.931511 5.942615 -11.877005
Hg -2.961849 8.912278 -11.877005
Hg -2.961849 5.942615 -8.907343
Hg -5.931511 8.912278 -8.907343
Hg -5.931511 5.942615 -5.937680
Hg -2.961849 8.912278 -5.937680
Hg -2.961849 5.942615 -2.968018
Hg -5.931511 8.912278 -2.968018
Hg -5.931511 5.942615 0.001645
Hg -2.961849 8.912278 0.001645
Hg -2.961849 5.942615 2.971308
Hg -5.931511 8.912278 2.971308
Hg -5.931511 5.942615 5.940970
Hg -2.961849 8.912278 5.940970
Hg -2.961849 5.942615 8.910633
Hg -5.931511 8.912278 8.910633
Hg -5.931511 5.942615 11.880295
Hg -2.961849 8.912278 11.880295
Hg -2.961849 5.942615 14.849958
Hg -5.931511 8.912278 14.849958
Hg -5.931511 5.942615 17.819620
Hg -2.961849 8.912278 17.819620
Hg -2.961849 5.942615 20.789283
Hg -5.931511 8.912278 20.789283
Hg -5.931511 5.942615 23.758945
Hg -2.961849 8.912278 23.758945
Hg -2.961849 5.942615 26.728608
Hg -5.931511 8.912278 26.728608
Hg -5.931511 5.942615 29.698270
Hg -2.961849 8.912278 29.698270
Hg -2.961849 5.942615 32.667933
Hg -5.931511 8.912278 32.667933
Hg -2.961849 11.881940 -32.664643
Hg -5.931511 14.851603 -32.664643
Hg -5.931511 11.881940 -29.694980
Hg -2.961849 14.851603 -29.694980
Hg -2.961849 11.881940 -26.725318
Hg -5.931511 14.851603 -26.725318
Hg -5.931511 11.881940 -23.755655
Hg -2.961849 14.851603 -23.755655
Hg -2.961849 11.881940 -20.785993
Hg -5.931511 14.851603 -20.785993
Hg -5.931511 11.881940 -17.816330
Hg -2.961849 14.851603 -17.816330
Hg -2.961849 11.881940 -14.846668
Hg -5.931511 14.851603 -14.846668
Hg -5.931511 11.881940 -11.877005
Hg -2.961849 14.851603 -11.877005
Hg -2.961849 11.881940 -8.907343
Hg -5.931511 14.851603 -8.907343
Hg -5.931511 11.881940 -5.937680
Hg -2.961849 14.851603 -5.937680
Hg -2.961849 11.881940 -2.968018
Hg -5.931511 14.851603 -2.968018
Hg -5.931511 11.881940 0.001645
Hg -2.961849 14.851603 0.001645
Hg -2.961849 11.881940 2.971308
Hg -5.931511 14.851603 2.971308
Hg -5.931511 11.881940 5.940970
Hg -2.961849 14.851603 5.940970
Hg -2.961849 11.881940 8.910633
Hg -5.931511 14.851603 8.910633
Hg -5.931511 11.881940 11.880295
Hg -2.961849 14.851603 11.880295
Hg -2.961849 11.881940 14.849958
Hg -5.931511 14.851603 14.849958
Hg -5.931511 11.881940 17.819620
Hg -2.961849 14.851603 17.819620
Hg -2.961849 11.881940 20.789283
Hg -5.931511 14.851603 20.789283
Hg -5.931511 11.881940 23.758945
Hg -2.961849 14.851603 23.758945
Hg -2.961849 11.881940 26.728608
Hg -5.931511 14.851603 26.728608
Hg -5.931511 11.881940 29.698270
Hg -2.961849 14.851603 29.698270
Hg -2.961849 11.881940 32.667933
Hg -5.931511 14.851603 32.667933
Hg -5.931511 17.821265 -29.694980
Hg -2.961849 17.821265 -26.725318
Hg -5.931511 20.790928 -26.725318
Hg -5.931511 17.821265 -23.755655
Hg -2.961849 20.790928 -23.755655
Hg -2.961849 17.821265 -20.785993
Hg -5.931511 20.790928 -20.785993
Hg -5.931511 17.821265 -17.816330
Hg -2.961849 20.790928 -17.816330
Hg -2.961849 17.821265 -14.846668
Hg -5.931511 20.790928 -14.846668
Hg -5.931511 17.821265 -11.877005
Hg -2.961849 20.790928 -11.877005
Hg -2.961849 17.821265 -8.907343
Hg -5.931511 20.790928 -8.907343
Hg -5.931511 17.821265 -5.937680
Hg -2.961849 20.790928 -5.937680
Hg -2.961849 17.821265 -2.968018
Hg -5.931511 20.790928 -2.968018
Hg -5.931511 17.821265 0.001645
Hg -2.961849 20.790928 0.001645
Hg -2.961849 17.821265 2.971308
Hg -5.931511 20.790928 2.971308
Hg -5.931511 17.821265 5.940970
Hg -2.961849 20.790928 5.940970
Hg -2.961849 17.821265 8.910633
Hg -5.931511 20.790928 8.910633
Hg -5.931511 17.821265 11.880295
Hg -2.961849 20.790928 11.880295
Hg -2.961849 17.821265 14.849958
Hg -5.931511 20.790928 14.849958
Hg -5.931511 17.821265 17.819620
Hg -2.961849 20.790928 17.819620
Hg -2.961849 17.821265 20.789283
Hg -5.931511 20.790928 20.789283
Hg -5.931511 17.821265 23.758945
Hg -2.961849 20.790928 23.758945
Hg -2.961849 17.821265 26.728608
Hg -5.931511 20.790928 26.728608
Hg -5.931511 17.821265 29.698270
Hg -5.931511 23.760590 -23.755655
Hg -2.961849 23.760590 -20.785993
Hg -5.931511 26.730253 -20.785993
Hg -5.931511 23.760590 -17.816330
Hg -2.961849 26.730253 -17.816330
Hg -2.961849 23.760590 -14.846668
Hg -5.931511 26.730253 -14.846668
Hg -5.931511 23.760590 -11.877005
Hg -2.961849 26.730253 -11.877005
Hg -2.961849 23.760590 -8.907343
Hg -5.931511 26.730253 -8.907343
Hg -5.931511 23.760590 -5.937680
Hg -2.961849 26.730253 -5.937680
Hg -2.961849 23.760590 -2.968018
Hg -5.931511 26.730253 -2.968018
Hg -5.931511 23.760590 0.001645
Hg -2.961849 26.730253 0.001645
Hg -2.961849 23.760590 2.971308
Hg -5.931511 26.730253 2.971308
Hg -5.931511 23.760590 5.940970
Hg -2.961849 26.730253 5.940970
Hg -2.961849 23.760590 8.910633
Hg -5.931511 26.730253 8.910633
Hg -5.931511 23.760590 11.880295
Hg -2.961849 26.730253 11.880295
Hg -2.961849 23.760590 14.849958
Hg -5.931511 26.730253 14.849958
Hg -5.931511 23.760590 17.819620
Hg -2.961849 26.730253 17.819620
Hg -2.961849 23.760590 20.789283
Hg -5.931511 26.730253 20.789283
Hg -5.931511 23.760590 23.758945
Hg -5.931511 29.699915 -17.816330
Hg -2.961849 29.699915 -14.846668
Hg -5.931511 32.669578 -14.846668
Hg -5.931511 29.699915 -11.877005
Hg -2.961849 32.669578 -11.877005
Hg -2.961849 29.699915 -8.907343
Hg -5.931511 32.669578 -8.907343
Hg -5.931511 29.699915 -5.937680
Hg -2.961849 32.669578 -5.937680
Hg -2.961849 29.699915 -2.968018
Hg -5.931511 32.669578 -2.968018
Hg -5.931511 29.699915 0.001645
Hg -2.961849 32.669578 0.001645
Hg -2.961849 29.699915 2.971308
Hg -5.931511 32.669578 2.971308
Hg -5.931511 29.699915 5.940970
Hg -2.961849 32.669578 5.940970
Hg -2.961849 29.699915 8.910633
Hg -5.931511 32.669578 8.910633
Hg -5.931511 29.699915 11.880295
Hg -2.961849 32.669578 11.880295
Hg -2.961849 29.699915 14.849958
Hg -5.931511 32.669578 14.849958
Hg -5.931511 29.699915 17.819620
Hg 0.007814 -32.662998 -14.846668
Hg 2.977476 -32.662998 -11.877005
Hg 0.007814 -32.662998 -8.907343
Hg 2.977476 -32.662998 -5.937680
Hg 0.007814 -32.662998 -2.968018
Hg 2.977476 -32.662998 0.001645
Hg 0.007814 -32.662998 2.971308
Hg 2.977476 -32.662998 5.940970
Hg 0.007814 -32.662998 8.910633
Hg 2.977476 -32.662998 11.880295
Hg 0.007814 -32.662998 14.849958
Hg 0.007814 -26.723673 -20.785993
Hg 0.007814 -29.693335 -17.816330
Hg 2.977476 -26.723673 -17.816330
Hg 2.977476 -29.693335 -14.846668
Hg 0.007814 -26.723673 -14.846668
Hg 0.007814 -29.693335 -11.877005
Hg 2.977476 -26.723673 -11.877005
Hg 2.977476 -29.693335 -8.907343
Hg 0.007814 -26.723673 -8.907343
Hg 0.007814 -29.693335 -5.937680
Hg 2.977476 -26.723673 -5.937680
Hg 2.977476 -29.693335 -2.968018
Hg 0.007814 -26.723673 -2.968018
Hg 0.007814 -29.693335 0.001645
Hg 2.977476 -26.723673 0.001645
Hg 2.977476 -29.693335 2.971308
Hg 0.007814 -26.723673 2.971308
Hg 0.007814 -29.693335 5.940970
Hg 2.977476 -26.723673 5.940970
Hg 2.977476 -29.693335 8.910633
Hg 0.007814 -26.723673 8.910633
Hg 0.007814 -29.693335 11.880295
Hg 2.977476 -26.723673 11.880295
Hg 2.977476 -29.693335 14.849958
Hg 0.007814 -26.723673 14.849958
Hg 0.007814 -29.693335 17.819620
Hg 2.977476 -26.723673 17.819620
Hg 0.007814 -26.723673 20.789283
Hg 0.007814 -20.784348 -26.725318
Hg 0.007814 -23.754010 -23.755655
Hg 2.977476 -20.784348 -23.755655
Hg 2.977476 -23.754010 -20.785993
Hg 0.007814 -20.784348 -20.785993
Hg 0.007814 -23.754010 -17.816330
Hg 2.977476 -20.784348 -17.816330
Hg 2.977476 -23.754010 -14.846668
Hg 0.007814 -20.784348 -14.846668
Hg 0.007814 -23.754010 -11.877005
Hg 2.977476 -20.784348 -11.877005
Hg 2.977476 -23.754010 -8.907343
Hg 0.007814 -20.784348 -8.907343
Hg 0.007814 -23.754010 -5.937680
Hg 2.977476 -20.784348 -5.937680
Hg 2.977476 -23.754010 -2.968018
Hg 0.007814 -20.784348 -2.968018
Hg 0.007814 -23.754010 0.001645
Hg 2.977476 -20.784348 0.001645
Hg 2.977476 -23.754010 2.971308
Hg 0.007814 -20.784348 2.971308
Hg 0.007814 -23.754010 5.940970
Hg 2.977476 -20.784348 5.940970
Hg 2.977476 -23.754010 8.910633
Hg 0.007814 -20.784348 8.910633
Hg 0.007814 -23.754010 11.880295
Hg 2.977476 -20.784348 11.880295
Hg 2.977476 -23.754010 14.849958
Hg 0.007814 -20.784348 14.849958
Hg 0.007814 -23.754010 17.819620
Hg 2.977476 -20.784348 17.819620
Hg 2.977476 -23.754010 20.789283
Hg 0.007814 -20.784348 20.789283
Hg 0.007814 -23.754010 23.758945
Hg 2.977476 -20.784348 23.758945
Hg 0.007814 -20.784348 26.728608
Hg 0.007814 -14.845023 -32.664643
Hg 0.007814 -17.814685 -29.694980
Hg 2.977476 -14.845023 -29.694980
Hg 2.977476 -17.814685 -26.725318
Hg 0.007814 -14.845023 -26.725318
Hg 0.007814 -17.814685 -23.755655
Hg 2.977476 -14.845023 -23.755655
Hg 2.977476 -17.814685 -20.785993
Hg 0.007814 -14.845023 -20.785993
Hg 0.007814 -17.814685 -17.816330
Hg 2.977476 -14.845023 -17.816330
Hg 2.977476 -17.814685 -14.846668
Hg 0.007814 -14.845023 -14.846668
Hg 0.007814 -17.814685 -11.877005
Hg 2.977476 -14.845023 -11.877005
Hg 2.977476 -17.814685 -8.907343
Hg 0.007814 -14.845023 -8.907343
Hg 0.007814 -17.814685 -5.937680
Hg 2.977476 -14.845023 -5.937680
Hg 2.977476 -17.814685 -2.968018
Hg 0.007814 -14.845023 -2.968018
Hg 0.007814 -17.814685 0.001645
Hg 2.977476 -14.845023 0.001645
Hg 2.977476 -17.814685 2.971308
Hg 0.007814 -14.845023 2.971308
Hg 0.007814 -17.814685 5.940970
Hg 2.977476 -14.845023 5.940970
Hg 2.977476 -17.814685 8.910633
Hg 0.007814 -14.845023 8.910633
Hg 0.007814 -17.814685 11.880295
Hg 2.977476 -14.845023 11.880295
Hg 2.977476 -17.814685 14.849958
Hg 0.007814 -14.845023 14.849958
Hg 0.007814 -17.814685 17.819620
Hg 2.977476 -14.845023 17.819620
Hg 2.977476 -17.814685 20.789283
Hg 0.007814 -14.845023 20.789283
Hg 0.007814 -17.814685 23.758945
Hg 2.977476 -14.845023 23.758945
Hg 2.977476 -17.814685 26.728608
Hg 0.007814 -14.845023 26.728608
Hg 0.007814 -17.814685 29.698270
Hg 2.977476 -14.845023 29.698270
Hg 0.007814 -14.845023 32.667933
Hg 2.977476 -11.875360 -32.664643
Hg 0.007814 -8.905698 -32.664643
Hg 0.007814 -11.875360 -29.694980
Hg 2.977476 -8.905698 -29.694980
Hg 2.977476 -11.875360 -26.725318
Hg 0.007814 -8.905698 -26.725318
Hg 0.007814 -11.875360 -23.755655
Hg 2.977476 -8.905698 -23.755655
Hg 2.977476 -11.875360 -20.785993
Hg 0.007814 -8.905698 -20.785993
Hg 0.007814 -11.875360 -17.816330
Hg 2.977476 -8.905698 -17.816330
Hg 2.977476 -11.875360 -14.846668
Hg 0.007814 -8.905698 -14.846668
Hg 0.007814 -11.875360 -11.877005
Hg 2.977476 -8.905698 -11.877005
Hg 2.977476 -11.875360 -8.907343
Hg 0.007814 -8.905698 -8.907343
Hg 0.007814 -11.875360 -5.937680
Hg 2.977476 -8.905698 -5.937680
Hg 2.977476 -11.875360 -2.968018
Hg 0.007814 -8.905698 -2.968018
Hg 0.007814 -11.875360 0.001645
Hg 2.977476 -8.905698 0.001645
Hg 2.977476 -11.875360 2.971308
Hg 0.007814 -8.905698 2.971308
Hg 0.007814 -11.875360 5.940970
Hg 2.977476 -8.905698 5.940970
Hg 2.977476 -11.875360 8.910633
Hg 0.007814 -8.905698 8.910633
Hg 0.007814 -11.875360 11.880295
Hg 2.977476 -8.905698 11.880295
Hg 2.977476 -11.875360 14.849958
Hg 0.007814 -8.905698 14.849958
Hg 0.007814 -11.875360 17.819620
Hg 2.977476 -8.905698 17.819620
Hg 2.977476 -11.875360 20.789283
Hg 0.007814 -8.905698 20.789283
Hg 0.007814 -11.875360 23.758945
Hg 2.977476 -8.905698 23.758945
Hg 2.977476 -11.875360 26.728608
Hg 0.007814 -8.905698 26.728608
Hg 0.007814 -11.875360 29.698270
Hg 2.977476 -8.905698 29.698270
Hg 2.977476 -11.875360 32.667933
Hg 0.007814 -8.905698 32.667933
Hg 2.977476 -5.936035 -32.664643
Hg 0.007814 -2.966373 -32.664643
Hg 0.007814 -5.936035 -29.694980
Hg 2.977476 -2.966373 -29.694980
Hg 2.977476 -5.936035 -26.725318
Hg 0.007814 -2.966373 -26.725318
Hg 0.007814 -5.936035 -23.755655
Hg 2.977476 -2.966373 -23.755655
Hg 2.977476 -5.936035 -20.785993
Hg 0.007814 -2.966373 -20.785993
Hg 0.007814 -5.936035 -17.816330
Hg 2.977476 -2.966373 -17.816330
Hg 2.977476 -5.936035 -14.846668
Hg 0.007814 -2.966373 -14.846668
Hg 0.007814 -5.936035 -11.877005
Hg 2.977476 -2.966373 -11.877005
Hg 2.977476 -5.936035 -8.907343
Hg 0.007814 -2.966373 -8.907343
Hg 0.007814 -5.936035 -5.937680
Hg 2.977476 -2.966373 -5.937680
Hg 2.977476 -5.936035 -2.968018
Hg 0.007814 -2.966373 -2.968018
Hg 0.007814 -5.936035 0.001645
Hg 2.977476 -2.966373 0.001645
Hg 2.977476 -5.936035 2.971308
Hg 0.007814 -2.966373 2.971308
Hg 0.007814 -5.936035 5.940970
Hg 2.977476 -2.966373 5.940970
Hg 2.977476 -5.936035 8.910633
Hg 0.007814 -2.966373 8.910633
Hg 0.007814 -5.936035 11.880295
Hg 2.977476 -2.966373 11.880295
Hg 2.977476 -5.936035 14.849958
Hg 0.007814 -2.966373 14.849958
Hg 0.007814 -5.936035 17.819620
Hg 2.977476 -2.966373 17.819620
Hg 2.977476 -5.936035 20.789283
Hg 0.007814 -2.966373 20.789283
Hg 0.007814 -5.936035 23.758945
Hg 2.977476 -2.966373 23.758945
Hg 2.977476 -5.936035 26.728608
Hg 0.007814 -2.966373 26.728608
Hg 0.007814 -5.936035 29.698270
Hg 2.977476 -2.966373 29.698270
Hg 2.977476 -5.936035 32.667933
Hg 0.007814 -2.966373 32.667933
Hg 2.977476 0.003290 -32.664643
Hg 0.007814 2.972953 -32.664643
Hg 0.007814 0.003290 -29.694980
Hg 2.977476 2.972953 -29.694980
Hg 2.977476 0.003290 -26.725318
Hg 0.007814 2.972953 -26.725318
Hg 0.007814 0.003290 -23.755655
Hg 2.977476 2.972953 -23.755655
Hg 2.977476 0.003290 -20.785993
Hg 0.007814 2.972953 -20.785993
Hg 0.007814 0.003290 -17.816330
Hg 2.977476 2.972953 -17.816330
Hg 2.977476 0.003290 -14.846668
Hg 0.007814 2.972953 -14.846668
Hg 0.007814 0.003290 -11.877005
Hg 2.977476 2.972953 -11.877005
Hg 2.977476 0.003290 -8.907343
Hg 0.007814 2.972953 -8.907343
Hg 0.007814 0.003290 -5.937680
Hg 2.977476 2.972953 -5.937680
Hg 2.977476 0.003290 -2.968018
Hg 0.007814 2.972953 -2.968018
Hg 0.007814 0.003290 0.001645
Hg 2.977476 2.972953 0.001645
Hg 2.977476 0.003290 2.971308
Hg 0.007814 2.972953 2.971308
Hg 0.007814 0.003290 5.940970
Hg 2.977476 2.972953 5.940970
Hg 2.977476 0.003290 8.910633
Hg 0.007814 2.972953 8.910633
Hg 0.007814 0.003290 11.880295
Hg 2.977476 2.972953 11.880295
Hg 2.977476 0.003290 14.849958
Hg 0.007814 2.972953 14.849958
Hg 0.007814 0.003290 17.819620
Hg 2.977476 2.972953 17.819620
Hg 2.977476 0.003290 20.789283
Hg 0.007814 2.972953 20.789283
Hg 0.007814 0.003290 23.758945
Hg 2.977476 2.972953 23.758945
Hg 2.977476 0.003290 26.728608
Hg 0.007814 2.972953 26.728608
Hg 0.007814 0.003290 29.698270
Hg 2.977476 2.972953 29.698270
Hg 2.977476 0.003290 32.667933
Hg 0.007814 2.972953 32.667933
Hg 2.977476 5.942615 -32.664643
Hg 0.007814 8.912278 -32.664643
Hg 0.007814 5.942615 -29.694980
Hg 2.977476 8.912278 -29.694980
Hg 2.977476 5.942615 -26.725318
Hg 0.007814 8.912278 -26.725318
Hg 0.007814 5.942615 -23.755655
Hg 2.977476 8.912278 -23.755655
Hg 2.977476 5.942615 -20.785993
Hg 0.007814 8.912278 -20.785993
Hg 0.007814 5.942615 -17.816330
Hg 2.977476 8.912278 -17.816330
Hg 2.977476 5.942615 -14.846668
Hg 0.007814 8.912278 -14.846668
Hg 0.007814 5.942615 -11.877005
Hg 2.977476 8.912278 -11.877005
Hg 2.977476 5.942615 -8.907343
Hg 0.007814 8.912278 -8.907343
Hg 0.007814 5.942615 -5.937680
Hg 2.977476 8.912278 -5.937680
Hg 2.977476 5.942615 -2.968018
Hg 0.007814 8.912278 -2.968018
Hg 0.007814 5.942615 0.001645
Hg 2.977476 8.912278 0.001645
Hg 2.977476 5.942615 2.971308
Hg 0.007814 8.912278 2.971308
Hg 0.007814 5.942615 5.940970
Hg 2.977476 8.912278 5.940970
Hg 2.977476 5.942615 8.910633
Hg 0.007814 8.912278 8.910633
Hg 0.007814 5.942615 11.880295
Hg 2.977476 8.912278 11.880295
Hg 2.977476 5.942615 14.849958
Hg 0.007814 8.912278 14.849958
Hg 0.007814 5.942615 17.819620
Hg 2.977476 8.912278 17.819620
Hg 2.977476 5.942615 20.789283
Hg 0.007814 8.912278 20.789283
Hg 0.007814 5.942615 23.758945
Hg 2.977476 8.912278 23.758945
Hg 2.977476 5.942615 26.728608
Hg 0.007814 8.912278 26.728608
Hg 0.007814 5.942615 29.698270
Hg 2.977476 8.912278 29.698270
Hg 2.977476 5.942615 32.667933
Hg 0.007814 8.912278 32.667933
Hg 2.977476 11.881940 -32.664643
Hg 0.007814 14.851603 -32.664643
Hg 0.007814 11.881940 -29.694980
Hg 2.977476 14.851603 -29.694980
Hg 2.977476 11.881940 -26.725318
Hg 0.007814 14.851603 -26.725318
Hg 0.007814 11.881940 -23.755655
Hg 2.977476 14.851603 -23.755655
Hg 2.977476 11.881940 -20.785993
Hg 0.007814 14.851603 -20.785993
Hg 0.007814 11.881940 -17.816330
Hg 2.977476 14.851603 -17.816330
Hg 2.977476 11.881940 -14.846668
Hg 0.007814 14.851603 -14.846668
Hg 0.007814 11.881940 -11.877005
Hg 2.977476 14.851603 -11.877005
Hg 2.977476 11.881940 -8.907343
Hg 0.007814 14.851603 -8.907343
Hg 0.007814 11.881940 -5.937680
Hg 2.977476 14.851603 -5.937680
Hg 2.977476 11.881940 -2.968018
Hg 0.007814 14.851603 -2.968018
Hg 0.007814 11.881940 0.001645
Hg 2.977476 14.851603 0.001645
Hg 2.977476 11.881940 2.971308
Hg 0.007814 14.851603 2.971308
Hg 0.007814 11.881940 5.940970
Hg 2.977476 14.851603 5.940970
Hg 2.977476 11.881940 8.910633
Hg 0.007814 14.851603 8.910633
Hg 0.007814 11.881940 11.880295
Hg 2.977476 14.851603 11.880295
Hg 2.977476 11.881940 14.849958
Hg 0.007814 14.851603 14.849958
Hg 0.007814 11.881940 17.819620
Hg 2.977476 14.851603 17.819620
Hg 2.977476 11.881940 20.789283
Hg 0.007814 14.851603 20.789283
Hg 0.007814 11.881940 23.758945
Hg 2.977476 14.851603 23.758945
Hg 2.977476 11.881940 26.728608
Hg 0.007814 14.851603 26.728608
Hg 0.007814 11.881940 29.698270
Hg 2.977476 14.851603 29.698270
Hg 2.977476 11.881940 32.667933
Hg 0.007814 14.851603 32.667933
Hg 0.007814 17.821265 -29.694980
Hg 2.977476 17.821265 -26.725318
Hg 0.007814 20.790928 -26.725318
Hg 0.007814 17.821265 -23.755655
Hg 2.977476 20.790928 -23.755655
Hg 2.977476 17.821265 -20.785993
Hg 0.007814 20.790928 -20.785993
Hg 0.007814 17.821265 -17.816330
Hg 2.977476 20.790928 -17.816330
Hg 2.977476 17.821265 -14.846668
Hg 0.007814 20.790928 -14.846668
Hg 0.007814 17.821265 -11.877005
Hg 2.977476 20.790928 -11.877005
Hg 2.977476 17.821265 -8.907343
Hg 0.007814 20.790928 -8.907343
Hg 0.007814 17.821265 -5.937680
Hg 2.977476 20.790928 -5.937680
Hg 2.977476 17.821265 -2.968018
Hg 0.007814 20.790928 -2.968018
Hg 0.007814 17.821265 0.001645
Hg 2.977476 20.790928 0.001645
Hg 2.977476 17.821265 2.971308
Hg 0.007814 20.790928 2.971308
Hg 0.007814 17.821265 5.940970
Hg 2.977476 20.790928 5.940970
Hg 2.977476 17.821265 8.910633
Hg 0.007814 20.790928 8.910633
Hg 0.007814 17.821265 11.880295
Hg 2.977476 20.790928 11.880295
Hg 2.977476 17.821265 14.849958
Hg 0.007814 20.790928 14.849958
Hg 0.007814 17.821265 17.819620
Hg 2.977476 20.790928 17.819620
Hg 2.977476 17.821265 20.789283
Hg 0.007814 20.790928 20.789283
Hg 0.007814 17.821265 23.758945
Hg 2.977476 20.790928 23.758945
Hg 2.977476 17.821265 26.728608
Hg 0.007814 20.790928 26.728608
Hg 0.007814 17.821265 29.698270
Hg 0.007814 23.760590 -23.755655
Hg 2.977476 23.760590 -20.785993
Hg 0.007814 26.730253 -20.785993
Hg 0.007814 23.760590 -17.816330
Hg 2.977476 26.730253 -17.816330
Hg 2.977476 23.760590 -14.846668
Hg 0.007814 26.730253 -14.846668
Hg 0.007814 23.760590 -11.877005
Hg 2.977476 26.730253 -11.877005
Hg 2.977476 23.760590 -8.907343
Hg 0.007814 26.730253 -8.907343
Hg 0.007814 23.760590 -5.937680
Hg 2.977476 26.730253 -5.937680
Hg 2.977476 23.760590 -2.968018
Hg 0.007814 26.730253 -2.968018
Hg 0.007814 23.760590 0.001645
Hg 2.977476 26.730253 0.001645
Hg 2.977476 23.760590 2.971308
Hg 0.007814 26.730253 2.971308
Hg 0.007814 23.760590 5.940970
Hg 2.977476 26.730253 5.940970
Hg 2.977476 23.760590 8.910633
Hg 0.007814 26.730253 8.910633
Hg 0.007814 23.760590 11.880295
Hg 2.977476 26.730253 11.880295
Hg 2.977476 23.760590 14.849958
Hg 0.007814 26.730253 14.849958
Hg 0.007814 23.760590 17.819620
Hg 2.977476 26.730253 17.819620
Hg 2.977476 23.760590 20.789283
Hg 0.007814 26.730253 20.789283
Hg 0.007814 23.760590 23.758945
Hg 0.007814 29.699915 -17.816330
Hg 2.977476 29.699915 -14.846668
Hg 0.007814 32.669578 -14.846668
Hg 0.007814 29.699915 -11.877005
Hg 2.977476 32.669578 -11.877005
Hg 2.977476 29.699915 -8.907343
Hg 0.007814 32.669578 -8.907343
Hg 0.007814 29.699915 -5.937680
Hg 2.977476 32.669578 -5.937680
Hg 2.977476 29.699915 -2.968018
Hg 0.007814 32.669578 -2.968018
Hg 0.007814 29.699915 0.001645
Hg 2.977476 32.669578 0.001645
Hg 2.977476 29.699915 2.971308
Hg 0.007814 32.669578 2.971308
Hg 0.007814 29.699915 5.940970
Hg 2.977476 32.669578 5.940970
Hg 2.977476 29.699915 8.910633
Hg 0.007814 32.669578 8.910633
Hg 0.007814 29.699915 11.880295
Hg 2.977476 32.669578 11.880295
Hg 2.977476 29.699915 14.849958
Hg 0.007814 32.669578 14.849958
Hg 0.007814 29.699915 17.819620
Hg 5.947139 -32.662998 -14.846668
Hg 8.916801 -32.662998 -11.877005
Hg 5.947139 -32.662998 -8.907343
Hg 8.916801 -32.662998 -5.937680
Hg 5.947139 -32.662998 -2.968018
Hg 8.916801 -32.662998 0.001645
Hg 5.947139 -32.662998 2.971308
Hg 8.916801 -32.662998 5.940970
Hg 5.947139 -32.662998 8.910633
Hg 8.916801 -32.662998 11.880295
Hg 5.947139 -32.662998 14.849958
Hg 5.947139 -26.723673 -20.785993
Hg 5.947139 -29.693335 -17.816330
Hg 8.916801 -26.723673 -17.816330
Hg 8.916801 -29.693335 -14.846668
Hg 5.947139 -26.723673 -14.846668
Hg 5.947139 -29.693335 -11.877005
Hg 8.916801 -26.723673 -11.877005
Hg 8.916801 -29.693335 -8.907343
Hg 5.947139 -26.723673 -8.907343
Hg 5.947139 -29.693335 -5.937680
Hg 8.916801 -26.723673 -5.937680
Hg 8.916801 -29.693335 -2.968018
Hg 5.947139 -26.723673 -2.968018
Hg 5.947139 -29.693335 0.001645
Hg 8.916801 -26.723673 0.001645
Hg 8.916801 -29.693335 2.971308
Hg 5.947139 -26.723673 2.971308
Hg 5.947139 -29.693335 5.940970
Hg 8.916801 -26.723673 5.940970
Hg 8.916801 -29.693335 8.910633
Hg 5.947139 -26.723673 8.910633
Hg 5.947139 -29.693335 11.880295
Hg 8.916801 -26.723673 11.880295
Hg 8.916801 -29.693335 14.849958
Hg 5.947139 -26.723673 14.849958
Hg 5.947139 -29.693335 17.819620
Hg 8.916801 -26.723673 17.819620
Hg 5.947139 -26.723673 20.789283
Hg 5.947139 -20.784348 -26.725318
Hg 5.947139 -23.754010 -23.755655
Hg 8.916801 -20.784348 -23.755655
Hg 8.916801 -23.754010 -20.785993
Hg 5.947139 -20.784348 -20.785993
Hg 5.947139 -23.754010 -17.816330
Hg 8.916801 -20.784348 -17.816330
Hg 8.916801 -23.754010 -14.846668
Hg 5.947139 -20.784348 -14.846668
Hg 5.947139 -23.754010 -11.877005
Hg 8.916801 -20.784348 -11.877005
Hg 8.916801 -23.754010 -8.907343
Hg 5.947139 -20.784348 -8.907343
Hg 5.947139 -23.754010 -5.937680
Hg 8.916801 -20.784348 -5.937680
Hg 8.916801 -23.754010 -2.968018
Hg 5.947139 -20.784348 -2.968018
Hg 5.947139 -23.754010 0.001645
Hg 8.916801 -20.784348 0.001645
Hg 8.916801 -23.754010 2.971308
Hg 5.947139 -20.784348 2.971308
Hg 5.947139 -23.754010 5.940970
Hg 8.916801 -20.784348 5.940970
Hg 8.916801 -23.754010 8.910633
Hg 5.947139 -20.784348 8.910633
Hg 5.947139 -23.754010 11.880295
Hg 8.916801 -20.784348 11.880295
Hg 8.916801 -23.754010 14.849958
Hg 5.947139 -20.784348 14.849958
Hg 5.947139 -23.754010 17.819620
Hg 8.916801 -20.784348 17.819620
Hg 8.916801 -23.754010 20.789283
Hg 5.947139 -20.784348 20.789283
Hg 5.947139 -23.754010 23.758945
Hg 8.916801 -20.784348 23.758945
Hg 5.947139 -20.784348 26.728608
Hg 5.947139 -14.845023 -32.664643
Hg 5.947139 -17.814685 -29.694980
Hg 8.916801 -14.845023 -29.694980
Hg 8.916801 -17.814685 -26.725318
Hg 5.947139 -14.845023 -26.725318
Hg 5.947139 -17.814685 -23.755655
Hg 8.916801 -14.845023 -23.755655
Hg 8.916801 -17.814685 -20.785993
Hg 5.947139 -14.845023 -20.785993
Hg 5.947139 -17.814685 -17.816330
Hg 8.916801 -14.845023 -17.816330
Hg 8.916801 -17.814685 -14.846668
Hg 5.947139 -14.845023 -14.846668
Hg 5.947139 -17.814685 -11.877005
Hg 8.916801 -14.845023 -11.877005
Hg 8.916801 -17.814685 -8.907343
Hg 5.947139 -14.845023 -8.907343
Hg 5.947139 -17.814685 -5.937680
Hg 8.916801 -14.845023 -5.937680
Hg 8.916801 -17.814685 -2.968018
Hg 5.947139 -14.845023 -2.968018
Hg 5.947139 -17.814685 0.001645
Hg 8.916801 -14.845023 0.001645
Hg 8.916801 -17.814685 2.971308
Hg 5.947139 -14.845023 2.971308
Hg 5.947139 -17.814685 5.940970
Hg 8.916801 -14.845023 5.940970
Hg 8.916801 -17.814685 8.910633
Hg 5.947139 -14.845023 8.910633
Hg 5.947139 -17.814685 11.880295
Hg 8.916801 -14.845023 11.880295
Hg 8.916801 -17.814685 14.849958
Hg 5.947139 -14.845023 14.849958
Hg 5.947139 -17.814685 17.819620
Hg 8.916801 -14.845023 17.819620
Hg 8.916801 -17.814685 20.789283
Hg 5.947139 -14.845023 20.789283
Hg 5.947139 -17.814685 23.758945
Hg 8.916801 -14.845023 23.758945
Hg 8.916801 -17.814685 26.728608
Hg 5.947139 -14.845023 26.728608
Hg 5.947139 -17.814685 29.698270
Hg 8.916801 -14.845023 29.698270
Hg 5.947139 -14.845023 32.667933
Hg 8.916801 -11.875360 -32.664643
Hg 5.947139 -8.905698 -32.664643
Hg 5.947139 -11.875360 -29.694980
Hg 8.916801 -8.905698 -29.694980
Hg 8.916801 -11.875360 -26.725318
Hg 5.947139 -8.905698 -26.725318
Hg 5.947139 -11.875360 -23.755655
Hg 8.916801 -8.905698 -23.755655
Hg 8.916801 -11.875360 -20.785993
Hg 5.947139 -8.905698 -20.785993
Hg 5.947139 -11.875360 -17.816330
Hg 8.916801 -8.905698 -17.816330
Hg 8.916801 -11.875360 -14.846668
Hg 5.947139 -8.905698 -14.846668
Hg 5.947139 -11.875360 -11.877005
Hg 8.916801 -8.905698 -11.877005
Hg 8.916801 -11.875360 -8.907343
Hg 5.947139 -8.905698 -8.907343
Hg 5.947139 -11.875360 -5.937680
Hg 8.916801 -8.905698 -5.937680
Hg 8.916801 -11.875360 -2.968018
Hg 5.947139 -8.905698 -2.968018
Hg 5.947139 -11.875360 0.001645
Hg 8.916801 -8.905698 0.001645
Hg 8.916801 -11.875360 2.971308
Hg 5.947139 -8.905698 2.971308
Hg 5.947139 -11.875360 5.940970
Hg 8.916801 -8.905698 5.940970
Hg 8.916801 -11.875360 8.910633
Hg 5.947139 -8.905698 8.910633
Hg 5.947139 -11.875360 11.880295
Hg 8.916801 -8.905698 11.880295
Hg 8.916801 -11.875360 14.849958
Hg 5.947139 -8.905698 14.849958
Hg 5.947139 -11.875360 17.819620
Hg 8.916801 -8.905698 17.819620
Hg 8.916801 -11.875360 20.789283
Hg 5.947139 -8.905698 20.789283
Hg 5.947139 -11.875360 23.758945
Hg 8.916801 -8.905698 23.758945
Hg 8.916801 -11.875360 26.728608
Hg 5.947139 -8.905698 26.728608
Hg 5.947139 -11.875360 29.698270
Hg 8.916801 -8.905698 29.698270
Hg 8.916801 -11.875360 32.667933
Hg 5.947139 -8.905698 32.667933
Hg 8.916801 -5.936035 -32.664643
Hg 5.947139 -2.966373 -32.664643
Hg 5.947139 -5.936035 -29.694980
Hg 8.916801 -2.966373 -29.694980
Hg 8.916801 -5.936035 -26.725318
Hg 5.947139 -2.966373 -26.725318
Hg 5.947139 -5.936035 -23.755655
Hg 8.916801 -2.966373 -23.755655
Hg 8.916801 -5.936035 -20.785993
Hg 5.947139 -2.966373 -20.785993
Hg 5.947139 -5.936035 -17.816330
Hg 8.916801 -2.966373 -17.816330
Hg 8.916801 -5.936035 -14.846668
Hg 5.947139 -2.966373 -14.846668
Hg 5.947139 -5.936035 -11.877005
Hg 8.916801 -2.966373 -11.877005
Hg 8.916801 -5.936035 -8.907343
Hg 5.947139 -2.966373 -8.907343
Hg 5.947139 -5.936035 -5.937680
Hg 8.916801 -2.966373 -5.937680
Hg 8.916801 -5.936035 -2.968018
Hg 5.947139 -2.966373 -2.968018
Hg 5.947139 -5.936035 0.001645
Hg 8.916801 -2.966373 0.001645
Hg 8.916801 -5.936035 2.971308
Hg 5.947139 -2.966373 2.971308
Hg 5.947139 -5.936035 5.940970
Hg 8.916801 -2.966373 5.940970
Hg 8.916801 -5.936035 8.910633
Hg 5.947139 -2.966373 8.910633
Hg 5.947139 -5.936035 11.880295
Hg 8.916801 -2.966373 11.880295
Hg 8.916801 -5.936035 14.849958
Hg 5.947139 -2.966373 14.849958
Hg 5.947139 -5.936035 17.819620
Hg 8.916801 -2.966373 17.819620
Hg 8.916801 -5.936035 20.789283
Hg 5.947139 -2.966373 20.789283
Hg 5.947139 -5.936035 23.758945
Hg 8.916801 -2.966373 23.758945
Hg 8.916801 -5.936035 26.728608
Hg 5.947139 -2.966373 26.728608
Hg 5.947139 -5.936035 29.698270
Hg 8.916801 -2.966373 29.698270
Hg 8.916801 -5.936035 32.667933
Hg 5.947139 -2.966373 32.667933
Hg 8.916801 0.003290 -32.664643
Hg 5.947139 2.972953 -32.664643
Hg 5.947139 0.003290 -29.694980
Hg 8.916801 2.972953 -29.694980
Hg 8.916801 0.003290 -26.725318
Hg 5.947139 2.972953 -26.725318
Hg 5.947139 0.003290 -23.755655
Hg 8.916801 2.972953 -23.755655
Hg 8.916801 0.003290 -20.785993
Hg 5.947139 2.972953 -20.785993
Hg 5.947139 0.003290 -17.816330
Hg 8.916801 2.972953 -17.816330
Hg 8.916801 0.003290 -14.846668
Hg 5.947139 2.972953 -14.846668
Hg 5.947139 0.003290 -11.877005
Hg 8.916801 2.972953 -11.877005
Hg 8.916801 0.003290 -8.907343
Hg 5.947139 2.972953 -8.907343
Hg 5.947139 0.003290 -5.937680
Hg 8.916801 2.972953 -5.937680
Hg 8.916801 0.003290 -2.968018
Hg 5.947139 2.972953 -2.968018
Hg 5.947139 0.003290 0.001645
Hg 8.916801 2.972953 0.001645
Hg 8.916801 0.003290 2.971308
Hg 5.947139 2.972953 2.971308
Hg 5.947139 0.003290 5.940970
Hg 8.916801 2.972953 5.940970
Hg 8.916801 0.003290 8.910633
Hg 5.947139 2.972953 8.910633
Hg 5.947139 0.003290 11.880295
Hg 8.916801 2.972953 11.880295
Hg 8.916801 0.003290 14.849958
Hg 5.947139 2.972953 14.849958
Hg 5.947139 0.003290 17.819620
Hg 8.916801 2.972953 17.819620
Hg 8.916801 0.003290 20.789283
Hg 5.947139 2.972953 20.789283
Hg 5.947139 0.003290 23.758945
Hg 8.916801 2.972953 23.758945
Hg 8.916801 0.003290 26.728608
Hg 5.947139 2.972953 26.728608
Hg 5.947139 0.003290 29.698270
Hg 8.916801 2.972953 29.698270
Hg 8.916801 0.003290 32.667933
Hg 5.947139 2.972953 32.667933
Hg 8.916801 5.942615 -32.664643
Hg 5.947139 8.912278 -32.664643
Hg 5.947139 5.942615 -29.694980
Hg 8.916801 8.912278 -29.694980
Hg 8.916801 5.942615 -26.725318
Hg 5.947139 8.912278 -26.725318
Hg 5.947139 5.942615 -23.755655
Hg 8.916801 8.912278 -23.755655
Hg 8.916801 5.942615 -20.785993
Hg 5.947139 8.912278 -20.785993
Hg 5.947139 5.942615 -17.816330
Hg 8.916801 8.912278 -17.816330
Hg 8.916801 5.942615 -14.846668
Hg 5.947139 8.912278 -14.846668
Hg 5.947139 5.942615 -11.877005
Hg 8.916801 8.912278 -11.877005
Hg 8.916801 5.942615 -8.907343
Hg 5.947139 8.912278 -8.907343
Hg 5.947139 5.942615 -5.937680
Hg 8.916801 8.912278 -5.937680
Hg 8.916801 5.942615 -2.968018
Hg 5.947139 8.912278 -2.968018
Hg 5.947139 5.942615 0.001645
Hg 8.916801 8.912278 0.001645
Hg 8.916801 5.942615 2.971308
Hg 5.947139 8.912278 2.971308
Hg 5.947139 5.942615 5.940970
Hg 8.916801 8.912278 5.940970
Hg 8.916801 5.942615 8.910633
Hg 5.947139 8.912278 8.910633
Hg 5.947139 5.942615 11.880295
Hg 8.916801 8.912278 11.880295
Hg 8.916801 5.942615 14.849958
Hg 5.947139 8.912278 14.849958
Hg 5.947139 5.942615 17.819620
Hg 8.916801 8.912278 17.819620
Hg 8.916801 5.942615 20.789283
Hg 5.947139 8.912278 20.789283
Hg 5.947139 5.942615 23.758945
Hg 8.916801 8.912278 23.758945
Hg 8.916801 5.942615 26.728608
Hg 5.947139 8.912278 26.728608
Hg 5.947139 5.942615 29.698270
Hg 8.916801 8.912278 29.698270
Hg 8.916801 5.942615 32.667933
Hg 5.947139 8.912278 32.667933
Hg 8.916801 11.881940 -32.664643
Hg 5.947139 14.851603 -32.664643
Hg 5.947139 11.881940 -29.694980
Hg 8.916801 14.851603 -29.694980
Hg 8.916801 11.881940 -26.725318
Hg 5.947139 14.851603 -26.725318
Hg 5.947139 11.881940 -23.755655
Hg 8.916801 14.851603 -23.755655
Hg 8.916801 11.881940 -20.785993
Hg 5.947139 14.851603 -20.785993
Hg 5.947139 11.881940 -17.816330
Hg 8.916801 14.851603 -17.816330
Hg 8.916801 11.881940 -14.846668
Hg 5.947139 14.851603 -14.846668
Hg 5.947139 11.881940 -11.877005
Hg 8.916801 14.851603 -11.877005
Hg 8.916801 11.881940 -8.907343
Hg 5.947139 14.851603 -8.907343
Hg 5.947139 11.881940 -5.937680
Hg 8.916801 14.851603 -5.937680
Hg 8.916801 11.881940 -2.968018
Hg 5.947139 14.851603 -2.968018
Hg 5.947139 11.881940 0.001645
Hg 8.916801 14.851603 0.001645
Hg 8.916801 11.881940 2.971308
Hg 5.947139 14.851603 2.971308
Hg 5.947139 11.881940 5.940970
Hg 8.916801 14.851603 5.940970
Hg 8.916801 11.881940 8.910633
Hg 5.947139 14.851603 8.910633
Hg 5.947139 11.881940 11.880295
Hg 8.916801 14.851603 11.880295
Hg 8.916801 11.881940 14.849958
Hg 5.947139 14.851603 14.849958
Hg 5.947139 11.881940 17.819620
Hg 8.916801 14.851603 17.819620
Hg 8.916801 11.881940 20.789283
Hg 5.947139 14.851603 20.789283
Hg 5.947139 11.881940 23.758945
Hg 8.916801 14.851603 23.758945
Hg 8.916801 11.881940 26.728608
Hg 5.947139 14.851603 26.728608
Hg 5.947139 11.881940 29.698270
Hg 8.916801 14.851603 29.698270
Hg 8.916801 11.881940 32.667933
Hg 5.947139 14.851603 32.667933
Hg 5.947139 17.821265 -29.694980
Hg 8.916801 17.821265 -26.725318
Hg 5.947139 20.790928 -26.725318
Hg 5.947139 17.821265 -23.755655
Hg 8.916801 20.790928 -23.755655
Hg 8.916801 17.821265 -20.785993
Hg 5.947139 20.790928 -20.785993
Hg 5.947139 17.821265 -17.816330
Hg 8.916801 20.790928 -17.816330
Hg 8.916801 17.821265 -14.846668
Hg 5.947139 20.790928 -14.846668
Hg 5.947139 17.821265 -11.877005
Hg 8.916801 20.790928 -11.877005
Hg 8.916801 17.821265 -8.907343
Hg 5.947139 20.790928 -8.907343
Hg 5.947139 17.821265 -5.937680
Hg 8.916801 20.790928 -5.937680
Hg 8.916801 17.821265 -2.968018
Hg 5.947139 20.790928 -2.968018
Hg 5.947139 17.821265 0.001645
Hg 8.916801 20.790928 0.001645
Hg 8.916801 17.821265 2.971308
Hg 5.947139 20.790928 2.971308
Hg 5.947139 17.821265 5.940970
Hg 8.916801 20.790928 5.940970
Hg 8.916801 17.821265 8.910633
Hg 5.947139 20.790928 8.910633
Hg 5.947139 17.821265 11.880295
Hg 8.916801 20.790928 11.880295
Hg 8.916801 17.821265 14.849958
Hg 5.947139 20.790928 14.849958
Hg 5.947139 17.821265 17.819620
Hg 8.916801 20.790928 17.819620
Hg 8.916801 17.821265 20.789283
Hg 5.947139 20.790928 20.789283
Hg 5.947139 17.821265 23.758945
Hg 8.916801 20.790928 23.758945
Hg 8.916801 17.821265 26.728608
Hg 5.947139 20.790928 26.728608
Hg 5.947139 17.821265 29.698270
Hg 5.947139 23.760590 -23.755655
Hg 8.916801 23.760590 -20.785993
Hg 5.947139 26.730253 -20.785993
Hg 5.947139 23.760590 -17.816330
Hg 8.916801 26.730253 -17.816330
Hg 8.916801 23.760590 -14.846668
Hg 5.947139 26.730253 -14.846668
Hg 5.947139 23.760590 -11.877005
Hg 8.916801 26.730253 -11.877005
Hg 8.916801 23.760590 -8.907343
Hg 5.947139 26.730253 -8.907343
Hg 5.947139 23.760590 -5.937680
Hg 8.916801 26.730253 -5.937680
Hg 8.916801 23.760590 -2.968018
Hg 5.947139 26.730253 -2.968018
Hg 5.947139 23.760590 0.001645
Hg 8.916801 26.730253 0.001645
Hg 8.916801 23.760590 2.971308
Hg 5.947139 26.730253 2.971308
Hg 5.947139 23.760590 5.940970
Hg 8.916801 26.730253 5.940970
Hg 8.916801 23.760590 8.910633
Hg 5.947139 26.730253 8.910633
Hg 5.947139 23.760590 11.880295
Hg 8.916801 26.730253 11.880295
Hg 8.916801 23.760590 14.849958
Hg 5.947139 26.730253 14.849958
Hg 5.947139 23.760590 17.819620
Hg 8.916801 26.730253 17.819620
Hg 8.916801 23.760590 20.789283
Hg 5.947139 26.730253 20.789283
Hg 5.947139 23.760590 23.758945
Hg 5.947139 29.699915 -17.816330
Hg 8.916801 29.699915 -14.846668
Hg 5.947139 32.669578 -14.846668
Hg 5.947139 29.699915 -11.877005
Hg 8.916801 32.669578 -11.877005
Hg 8.916801 29.699915 -8.907343
Hg 5.947139 32.669578 -8.907343
Hg 5.947139 29.699915 -5.937680
Hg 8.916801 32.669578 -5.937680
Hg 8.916801 29.699915 -2.968018
Hg 5.947139 32.669578 -2.968018
Hg 5.947139 29.699915 0.001645
Hg 8.916801 32.669578 0.001645
Hg 8.916801 29.699915 2.971308
Hg 5.947139 32.669578 2.971308
Hg 5.947139 29.699915 5.940970
Hg 8.916801 32.669578 5.940970
Hg 8.916801 29.699915 8.910633
Hg 5.947139 32.669578 8.910633
Hg 5.947139 29.699915 11.880295
Hg 8.916801 32.669578 11.880295
Hg 8.916801 29.699915 14.849958
Hg 5.947139 32.669578 14.849958
Hg 5.947139 29.699915 17.819620
Hg 11.886464 -32.662998 -8.907343
Hg 14.856126 -32.662998 -5.937680
Hg 11.886464 -32.662998 -2.968018
Hg 14.856126 -32.662998 0.001645
Hg 11.886464 -32.662998 2.971308
Hg 14.856126 -32.662998 5.940970
Hg 11.886464 -32.662998 8.910633
Hg 11.886464 -26.723673 -14.846668
Hg 11.886464 -29.693335 -11.877005
Hg 14.856126 -26.723673 -11.877005
Hg 14.856126 -29.693335 -8.907343
Hg 11.886464 -26.723673 -8.907343
Hg 11.886464 -29.693335 -5.937680
Hg 14.856126 -26.723673 -5.937680
Hg 14.856126 -29.693335 -2.968018
Hg 11.886464 -26.723673 -2.968018
Hg 11.886464 -29.693335 0.001645
Hg 14.856126 -26.723673 0.001645
Hg 14.856126 -29.693335 2.971308
Hg 11.886464 -26.723673 2.971308
Hg 11.886464 -29.693335 5.940970
Hg 14.856126 -26.723673 5.940970
Hg 14.856126 -29.693335 8.910633
Hg 11.886464 -26.723673 8.910633
Hg 11.886464 -29.693335 11.880295
Hg 14.856126 -26.723673 11.880295
Hg 11.886464 -26.723673 14.849958
Hg 11.886464 -20.784348 -20.785993
Hg 11.886464 -23.754010 -17.816330
Hg 14.856126 -20.784348 -17.816330
Hg 14.856126 -23.754010 -14.846668
Hg 11.886464 -20.784348 -14.846668
Hg 11.886464 -23.754010 -11.877005
Hg 14.856126 -20.784348 -11.877005
Hg 14.856126 -23.754010 -8.907343
Hg 11.886464 -20.784348 -8.907343
Hg 11.886464 -23.754010 -5.937680
Hg 14.856126 -20.784348 -5.937680
Hg 14.856126 -23.754010 -2.968018
Hg 11.886464 -20.784348 -2.968018
Hg 11.886464 -23.754010 0.001645
Hg 14.856126 -20.784348 0.001645
Hg 14.856126 -23.754010 2.971308
Hg 11.886464 -20.784348 2.971308
Hg 11.886464 -23.754010 5.940970
Hg 14.856126 -20.784348 5.940970
Hg 14.856126 -23.754010 8.910633
Hg 11.886464 -20.784348 8.910633
Hg 11.886464 -23.754010 11.880295
Hg 14.856126 -20.784348 11.880295
Hg 14.856126 -23.754010 14.849958
Hg 11.886464 -20.784348 14.849958
Hg 11.886464 -23.754010 17.819620
Hg 14.856126 -20.784348 17.819620
Hg 11.886464 -20.784348 20.789283
Hg 11.886464 -14.845023 -26.725318
Hg 11.886464 -17.814685 -23.755655
Hg 14.856126 -14.845023 -23.755655
Hg 14.856126 -17.814685 -20.785993
Hg 11.886464 -14.845023 -20.785993
Hg 11.886464 -17.814685 -17.816330
Hg 14.856126 -14.845023 -17.816330
Hg 14.856126 -17.814685 -14.846668
Hg 11.886464 -14.845023 -14.846668
Hg 11.886464 -17.814685 -11.877005
Hg 14.856126 -14.845023 -11.877005
Hg 14.856126 -17.814685 -8.907343
Hg 11.886464 -14.845023 -8.907343
Hg 11.886464 -17.814685 -5.937680
Hg 14.856126 -14.845023 -5.937680
Hg 14.856126 -17.814685 -2.968018
Hg 11.886464 -14.845023 -2.968018
Hg 11.886464 -17.814685 0.001645
Hg 14.856126 -14.845023 0.001645
Hg 14.856126 -17.814685 2.971308
Hg 11.886464 -14.845023 2.971308
Hg 11.886464 -17.814685 5.940970
Hg 14.856126 -14.845023 5.940970
Hg 14.856126 -17.814685 8.910633
Hg 11.886464 -14.845023 8.910633
Hg 11.886464 -17.814685 11.880295
Hg 14.856126 -14.845023 11.880295
Hg 14.856126 -17.814685 14.849958
Hg 11.886464 -14.845023 14.849958
Hg 11.886464 -17.814685 17.819620
Hg 14.856126 -14.845023 17.819620
Hg 14.856126 -17.814685 20.789283
Hg 11.886464 -14.845023 20.789283
Hg 11.886464 -17.814685 23.758945
Hg 14.856126 -14.845023 23.758945
Hg 11.886464 -14.845023 26.728608
Hg 11.886464 -8.905698 -32.664643
Hg 11.886464 -11.875360 -29.694980
Hg 14.856126 -8.905698 -29.694980
Hg 14.856126 -11.875360 -26.725318
Hg 11.886464 -8.905698 -26.725318
Hg 11.886464 -11.875360 -23.755655
Hg 14.856126 -8.905698 -23.755655
Hg 14.856126 -11.875360 -20.785993
Hg 11.886464 -8.905698 -20.785993
Hg 11.886464 -11.875360 -17.816330
Hg 14.856126 -8.905698 -17.816330
Hg 14.856126 -11.875360 -14.846668
Hg 11.886464 -8.905698 -14.846668
Hg 11.886464 -11.875360 -11.877005
Hg 14.856126 -8.905698 -11.877005
Hg 14.856126 -11.875360 -8.907343
Hg 11.886464 -8.905698 -8.907343
Hg 11.886464 -11.875360 -5.937680
Hg 14.856126 -8.905698 -5.937680
Hg 14.856126 -11.875360 -2.968018
Hg 11.886464 -8.905698 -2.968018
Hg 11.886464 -11.875360 0.001645
Hg 14.856126 -8.905698 0.001645
Hg 14.856126 -11.875360 2.971308
Hg 11.886464 -8.905698 2.971308
Hg 11.886464 -11.875360 5.940970
Hg 14.856126 -8.905698 5.940970
Hg 14.856126 -11.875360 8.910633
Hg 11.886464 -8.905698 8.910633
Hg 11.886464 -11.875360 11.880295
Hg 14.856126 -8.905698 11.880295
Hg 14.856126 -11.875360 14.849958
Hg 11.886464 -8.905698 14.849958
Hg 11.886464 -11.875360 17.819620
Hg 14.856126 -8.905698 17.819620
Hg 14.856126 -11.875360 20.789283
Hg 11.886464 -8.905698 20.789283
Hg 11.886464 -11.875360 23.758945
Hg 14.856126 -8.905698 23.758945
Hg 14.856126 -11.875360 26.728608
Hg 11.886464 -8.905698 26.728608
Hg 11.886464 -11.875360 29.698270
Hg 14.856126 -8.905698 29.698270
Hg 11.886464 -8.905698 32.667933
Hg 14.856126 -5.936035 -32.664643
Hg 11.886464 -2.966373 -32.664643
Hg 11.886464 -5.936035 -29.694980
Hg 14.856126 -2.966373 -29.694980
Hg 14.856126 -5.936035 -26.725318
Hg 11.886464 -2.966373 -26.725318
Hg 11.886464 -5.936035 -23.755655
Hg 14.856126 -2.966373 -23.755655
Hg 14.856126 -5.936035 -20.785993
Hg 11.886464 -2.966373 -20.785993
Hg 11.886464 -5.936035 -17.816330
Hg 14.856126 -2.966373 -17.816330
Hg 14.856126 -5.936035 -14.846668
Hg 11.886464 -2.966373 -14.846668
Hg 11.886464 -5.936035 -11.877005
Hg 14.856126 -2.966373 -11.877005
Hg 14.856126 -5.936035 -8.907343
Hg 11.886464 -2.966373 -8.907343
Hg 11.886464 -5.936035 -5.937680
Hg 14.856126 -2.966373 -5.937680
Hg 14.856126 -5.936035 -2.968018
Hg 11.886464 -2.966373 -2.968018
Hg 11.886464 -5.936035 0.001645
Hg 14.856126 -2.966373 0.001645
Hg 14.856126 -5.936035 2.971308
Hg 11.886464 -2.966373 2.971308
Hg 11.886464 -5.936035 5.940970
Hg 14.856126 -2.966373 5.940970
Hg 14.856126 -5.936035 8.910633
Hg 11.886464 -2.966373 8.910633
Hg 11.886464 -5.936035 11.880295
Hg 14.856126 -2.966373 11.880295
Hg 14.856126 -5.936035 14.849958
Hg 11.886464 -2.966373 14.849958
Hg 11.886464 -5.936035 17.819620
Hg 14.856126 -2.966373 17.819620
Hg 14.856126 -5.936035 20.789283
Hg 11.886464 -2.966373 20.789283
Hg 11.886464 -5.936035 23.758945
Hg 14.856126 -2.966373 23.758945
Hg 14.856126 -5.936035 26.728608
Hg 11.886464 -2.966373 26.728608
Hg 11.886464 -5.936035 29.698270
Hg 14.856126 -2.966373 29.698270
Hg 14.856126 -5.936035 32.667933
Hg 11.886464 -2.966373 32.667933
Hg 14.856126 0.003290 -32.664643
Hg 11.886464 2.972953 -32.664643
Hg 11.886464 0.003290 -29.694980
Hg 14.856126 2.972953 -29.694980
Hg 14.856126 0.003290 -26.725318
Hg 11.886464 2.972953 -26.725318
Hg 11.886464 0.003290 -23.755655
Hg 14.856126 2.972953 -23.755655
Hg 14.856126 0.003290 -20.785993
Hg 11.886464 2.972953 -20.785993
Hg 11.886464 0.003290 -17.816330
Hg 14.856126 2.972953 -17.816330
Hg 14.856126 0.003290 -14.846668
Hg 11.886464 2.972953 -14.846668
Hg 11.886464 0.003290 -11.877005
Hg 14.856126 2.972953 -11.877005
Hg 14.856126 0.003290 -8.907343
Hg 11.886464 2.972953 -8.907343
Hg 11.886464 0.003290 -5.937680
Hg 14.856126 2.972953 -5.937680
Hg 14.856126 0.003290 -2.968018
Hg 11.886464 2.972953 -2.968018
Hg 11.886464 0.003290 0.001645
Hg 14.856126 2.972953 0.001645
Hg 14.856126 0.003290 2.971308
Hg 11.886464 2.972953 2.971308
Hg 11.886464 0.003290 5.940970
Hg 14.856126 2.972953 5.940970
Hg 14.856126 0.003290 8.910633
Hg 11.886464 2.972953 8.910633
Hg 11.886464 0.003290 11.880295
Hg 14.856126 2.972953 11.880295
Hg 14.856126 0.003290 14.849958
Hg 11.886464 2.972953 14.849958
Hg 11.886464 0.003290 17.819620
Hg 14.856126 2.972953 17.819620
Hg 14.856126 0.003290 20.789283
Hg 11.886464 2.972953 20.789283
Hg 11.886464 0.003290 23.758945
Hg 14.856126 2.972953 23.758945
Hg 14.856126 0.003290 26.728608
Hg 11.886464 2.972953 26.728608
Hg 11.886464 0.003290 29.698270
Hg 14.856126 2.972953 29.698270
Hg 14.856126 0.003290 32.667933
Hg 11.886464 2.972953 32.667933
Hg 14.856126 5.942615 -32.664643
Hg 11.886464 8.912278 -32.664643
Hg 11.886464 5.942615 -29.694980
Hg 14.856126 8.912278 -29.694980
Hg 14.856126 5.942615 -26.725318
Hg 11.886464 8.912278 -26.725318
Hg 11.886464 5.942615 -23.755655
Hg 14.856126 8.912278 -23.755655
Hg 14.856126 5.942615 -20.785993
Hg 11.886464 8.912278 -20.785993
Hg 11.886464 5.942615 -17.816330
Hg 14.856126 8.912278 -17.816330
Hg 14.856126 5.942615 -14.846668
Hg 11.886464 8.912278 -14.846668
Hg 11.886464 5.942615 -11.877005
Hg 14.856126 8.912278 -11.877005
Hg 14.856126 5.942615 -8.907343
Hg 11.886464 8.912278 -8.907343
Hg 11.886464 5.942615 -5.937680
Hg 14.856126 8.912278 -5.937680
Hg 14.856126 5.942615 -2.968018
Hg 11.886464 8.912278 -2.968018
Hg 11.886464 5.942615 0.001645
Hg 14.856126 8.912278 0.001645
Hg 14.856126 5.942615 2.971308
Hg 11.886464 8.912278 2.971308
Hg 11.886464 5.942615 5.940970
Hg 14.856126 8.912278 5.940970
Hg 14.856126 5.942615 8.910633
Hg 11.886464 8.912278 8.910633
Hg 11.886464 5.942615 11.880295
Hg 14.856126 8.912278 11.880295
Hg 14.856126 5.942615 14.849958
Hg 11.886464 8.912278 14.849958
Hg 11.886464 5.942615 17.819620
Hg 14.856126 8.912278 17.819620
Hg 14.856126 5.942615 20.789283
Hg 11.886464 8.912278 20.789283
Hg 11.886464 5.942615 23.758945
Hg 14.856126 8.912278 23.758945
Hg 14.856126 5.942615 26.728608
Hg 11.886464 8.912278 26.728608
Hg 11.886464 5.942615 29.698270
Hg 14.856126 8.912278 29.698270
Hg 14.856126 5.942615 32.667933
Hg 11.886464 8.912278 32.667933
Hg 11.886464 11.881940 -29.694980
Hg 14.856126 11.881940 -26.725318
Hg 11.886464 14.851603 -26.725318
Hg 11.886464 11.881940 -23.755655
Hg 14.856126 14.851603 -23.755655
Hg 14.856126 11.881940 -20.785993
Hg 11.886464 14.851603 -20.785993
Hg 11.886464 11.881940 -17.816330
Hg 14.856126 14.851603 -17.816330
Hg 14.856126 11.881940 -14.846668
Hg 11.886464 14.851603 -14.846668
Hg 11.886464 11.881940 -11.877005
Hg 14.856126 14.851603 -11.877005
Hg 14.856126 11.881940 -8.907343
Hg 11.886464 14.851603 -8.907343
Hg 11.886464 11.881940 -5.937680
Hg 14.856126 14.851603 -5.937680
Hg 14.856126 11.881940 -2.968018
Hg 11.886464 14.851603 -2.968018
Hg 11.886464 11.881940 0.001645
Hg 14.856126 14.851603 0.001645
Hg 14.856126 11.881940 2.971308
Hg 11.886464 14.851603 2.971308
Hg 11.886464 11.881940 5.940970
Hg 14.856126 14.851603 5.940970
Hg 14.856126 11.881940 8.910633
Hg 11.886464 14.851603 8.910633
Hg 11.886464 11.881940 11.880295
Hg 14.856126 14.851603 11.880295
Hg 14.856126 11.881940 14.849958
Hg 11.886464 14.851603 14.849958
Hg 11.886464 11.881940 17.819620
Hg 14.856126 14.851603 17.819620
Hg 14.856126 11.881940 20.789283
Hg 11.886464 14.851603 20.789283
Hg 11.886464 11.881940 23.758945
Hg 14.856126 14.851603 23.758945
Hg 14.856126 11.881940 26.728608
Hg 11.886464 14.851603 26.728608
Hg 11.886464 11.881940 29.698270
Hg 11.886464 17.821265 -23.755655
Hg 14.856126 17.821265 -20.785993
Hg 11.886464 20.790928 -20.785993
Hg 11.886464 17.821265 -17.816330
Hg 14.856126 20.790928 -17.816330
Hg 14.856126 17.821265 -14.846668
Hg 11.886464 20.790928 -14.846668
Hg 11.886464 17.821265 -11.877005
Hg 14.856126 20.790928 -11.877005
Hg 14.856126 17.821265 -8.907343
Hg 11.886464 20.790928 -8.907343
Hg 11.886464 17.821265 -5.937680
Hg 14.856126 20.790928 -5.937680
Hg 14.856126 17.821265 -2.968018
Hg 11.886464 20.790928 -2.968018
Hg 11.886464 17.821265 0.001645
Hg 14.856126 20.790928 0.001645
Hg 14.856126 17.821265 2.971308
Hg 11.886464 20.790928 2.971308
Hg 11.886464 17.821265 5.940970
Hg 14.856126 20.790928 5.940970
Hg 14.856126 17.821265 8.910633
Hg 11.886464 20.790928 8.910633
Hg 11.886464 17.821265 11.880295
Hg 14.856126 20.790928 11.880295
Hg 14.856126 17.821265 14.849958
Hg 11.886464 20.790928 14.849958
Hg 11.886464 17.821265 17.819620
Hg 14.856126 20.790928 17.819620
Hg 14.856126 17.821265 20.789283
Hg 11.886464 20.790928 20.789283
Hg 11.886464 17.821265 23.758945
Hg 11.886464 23.760590 -17.816330
Hg 14.856126 23.760590 -14.846668
Hg 11.886464 26.730253 -14.846668
Hg 11.886464 23.760590 -11.877005
Hg 14.856126 26.730253 -11.877005
Hg 14.856126 23.760590 -8.907343
Hg 11.886464 26.730253 -8.907343
Hg 11.886464 23.760590 -5.937680
Hg 14.856126 26.730253 -5.937680
Hg 14.856126 23.760590 -2.968018
Hg 11.886464 26.730253 -2.968018
Hg 11.886464 23.760590 0.001645
Hg 14.856126 26.730253 0.001645
Hg 14.856126 23.760590 2.971308
Hg 11.886464 26.730253 2.971308
Hg 11.886464 23.760590 5.940970
Hg 14.856126 26.730253 5.940970
Hg 14.856126 23.760590 8.910633
Hg 11.886464 26.730253 8.910633
Hg 11.886464 23.760590 11.880295
Hg 14.856126 26.730253 11.880295
Hg 14.856126 23.760590 14.849958
Hg 11.886464 26.730253 14.849958
Hg 11.886464 23.760590 17.819620
Hg 11.886464 29.699915 -11.877005
Hg 14.856126 29.699915 -8.907343
Hg 11.886464 32.669578 -8.907343
Hg 11.886464 29.699915 -5.937680
Hg 14.856126 32.669578 -5.937680
Hg 14.856126 29.699915 -2.968018
Hg 11.886464 32.669578 -2.968018
Hg 11.886464 29.699915 0.001645
Hg 14.856126 32.669578 0.001645
Hg 14.856126 29.699915 2.971308
Hg 11.886464 32.669578 2.971308
Hg 11.886464 29.699915 5.940970
Hg 14.856126 32.669578 5.940970
Hg 14.856126 29.699915 8.910633
Hg 11.886464 32.669578 8.910633
Hg 11.886464 29.699915 11.880295
Hg 17.825789 -26.723673 -8.907343
Hg 17.825789 -29.693335 -5.937680
Hg 20.795452 -26.723673 -5.937680
Hg 17.825789 -26.723673 -2.968018
Hg 17.825789 -29.693335 0.001645
Hg 20.795452 -26.723673 0.001645
Hg 17.825789 -26.723673 2.971308
Hg 17.825789 -29.693335 5.940970
Hg 20.795452 -26.723673 5.940970
Hg 17.825789 -26.723673 8.910633
Hg 17.825789 -20.784348 -14.846668
Hg 17.825789 -23.754010 -11.877005
Hg 20.795452 -20.784348 -11.877005
Hg 20.795452 -23.754010 -8.907343
Hg 17.825789 -20.784348 -8.907343
Hg 17.825789 -23.754010 -5.937680
Hg 20.795452 -20.784348 -5.937680
Hg 20.795452 -23.754010 -2.968018
Hg 17.825789 -20.784348 -2.968018
Hg 17.825789 -23.754010 0.001645
Hg 20.795452 -20.784348 0.001645
Hg 20.795452 -23.754010 2.971308
Hg 17.825789 -20.784348 2.971308
Hg 17.825789 -23.754010 5.940970
Hg 20.795452 -20.784348 5.940970
Hg 20.795452 -23.754010 8.910633
Hg 17.825789 -20.784348 8.910633
Hg 17.825789 -23.754010 11.880295
Hg 20.795452 -20.784348 11.880295
Hg 17.825789 -20.784348 14.849958
Hg 17.825789 -14.845023 -20.785993
Hg 17.825789 -17.814685 -17.816330
Hg 20.795452 -14.845023 -17.816330
Hg 20.795452 -17.814685 -14.846668
Hg 17.825789 -14.845023 -14.846668
Hg 17.825789 -17.814685 -11.877005
Hg 20.795452 -14.845023 -11.877005
Hg 20.795452 -17.814685 -8.907343
Hg 17.825789 -14.845023 -8.907343
Hg 17.825789 -17.814685 -5.937680
Hg 20.795452 -14.845023 -5.937680
Hg 20.795452 -17.814685 -2.968018
Hg 17.825789 -14.845023 -2.968018
Hg 17.825789 -17.814685 0.001645
Hg 20.795452 -14.845023 0.001645
Hg 20.795452 -17.814685 2.971308
Hg 17.825789 -14.845023 2.971308
Hg 17.825789 -17.814685 5.940970
Hg 20.795452 -14.845023 5.940970
Hg 20.795452 -17.814685 8.910633
Hg 17.825789 -14.845023 8.910633
Hg 17.825789 -17.814685 11.880295
Hg 20.795452 -14.845023 11.880295
Hg 20.795452 -17.814685 14.849958
Hg 17.825789 -14.845023 14.849958
Hg 17.825789 -17.814685 17.819620
Hg 20.795452 -14.845023 17.819620
Hg 17.825789 -14.845023 20.789283
Hg 17.825789 -8.905698 -26.725318
Hg 17.825789 -11.875360 -23.755655
Hg 20.795452 -8.905698 -23.755655
Hg 20.795452 -11.875360 -20.785993
Hg 17.825789 -8.905698 -20.785993
Hg 17.825789 -11.875360 -17.816330
Hg 20.795452 -8.905698 -17.816330
Hg 20.795452 -11.875360 -14.846668
Hg 17.825789 -8.905698 -14.846668
Hg 17.825789 -11.875360 -11.877005
Hg 20.795452 -8.905698 -11.877005
Hg 20.795452 -11.875360 -8.907343
Hg 17.825789 -8.905698 -8.907343
Hg 17.825789 -11.875360 -5.937680
Hg 20.795452 -8.905698 -5.937680
Hg 20.795452 -11.875360 -2.968018
Hg 17.825789 -8.905698 -2.968018
Hg 17.825789 -11.875360 0.001645
Hg 20.795452 -8.905698 0.001645
Hg 20.795452 -11.875360 2.971308
Hg 17.825789 -8.905698 2.971308
Hg 17.825789 -11.875360 5.940970
Hg 20.795452 -8.905698 5.940970
Hg 20.795452 -11.875360 8.910633
Hg 17.825789 -8.905698 8.910633
Hg 17.825789 -11.875360 11.880295
Hg 20.795452 -8.905698 11.880295
Hg 20.795452 -11.875360 14.849958
Hg 17.825789 -8.905698 14.849958
Hg 17.825789 -11.875360 17.819620
Hg 20.795452 -8.905698 17.819620
Hg 20.795452 -11.875360 20.789283
Hg 17.825789 -8.905698 20.789283
Hg 17.825789 -11.875360 23.758945
Hg 20.795452 -8.905698 23.758945
Hg 17.825789 -8.905698 26.728608
Hg 17.825789 -5.936035 -29.694980
Hg 20.795452 -5.936035 -26.725318
Hg 17.825789 -2.966373 -26.725318
Hg 17.825789 -5.936035 -23.755655
Hg 20.795452 -2.966373 -23.755655
Hg 20.795452 -5.936035 -20.785993
Hg 17.825789 -2.966373 -20.785993
Hg 17.825789 -5.936035 -17.816330
Hg 20.795452 -2.966373 -17.816330
Hg 20.795452 -5.936035 -14.846668
Hg 17.825789 -2.966373 -14.846668
Hg 17.825789 -5.936035 -11.877005
Hg 20.795452 -2.966373 -11.877005
Hg 20.795452 -5.936035 -8.907343
Hg 17.825789 -2.966373 -8.907343
Hg 17.825789 -5.936035 -5.937680
Hg 20.795452 -2.966373 -5.937680
Hg 20.795452 -5.936035 -2.968018
Hg 17.825789 -2.966373 -2.968018
Hg 17.825789 -5.936035 0.001645
Hg 20.795452 -2.966373 0.001645
Hg 20.795452 -5.936035 2.971308
Hg 17.825789 -2.966373 2.971308
Hg 17.825789 -5.936035 5.940970
Hg 20.795452 -2.966373 5.940970
Hg 20.795452 -5.936035 8.910633
Hg 17.825789 -2.966373 8.910633
Hg 17.825789 -5.936035 11.880295
Hg 20.795452 -2.966373 11.880295
Hg 20.795452 -5.936035 14.849958
Hg 17.825789 -2.966373 14.849958
Hg 17.825789 -5.936035 17.819620
Hg 20.795452 -2.966373 17.819620
Hg 20.795452 -5.936035 20.789283
Hg 17.825789 -2.966373 20.789283
Hg 17.825789 -5.936035 23.758945
Hg 20.795452 -2.966373 23.758945
Hg 20.795452 -5.936035 26.728608
Hg 17.825789 -2.966373 26.728608
Hg 17.825789 -5.936035 29.698270
Hg 17.825789 0.003290 -29.694980
Hg 20.795452 0.003290 -26.725318
Hg 17.825789 2.972953 -26.725318
Hg 17.825789 0.003290 -23.755655
Hg 20.795452 2.972953 -23.755655
Hg 20.795452 0.003290 -20.785993
Hg 17.825789 2.972953 -20.785993
Hg 17.825789 0.003290 -17.816330
Hg 20.795452 2.972953 -17.816330
Hg 20.795452 0.003290 -14.846668
Hg 17.825789 2.972953 -14.846668
Hg 17.825789 0.003290 -11.877005
Hg 20.795452 2.972953 -11.877005
Hg 20.795452 0.003290 -8.907343
Hg 17.825789 2.972953 -8.907343
Hg 17.825789 0.003290 -5.937680
Hg 20.795452 2.972953 -5.937680
Hg 20.795452 0.003290 -2.968018
Hg 17.825789 2.972953 -2.968018
Hg 17.825789 0.003290 0.001645
Hg 20.795452 2.972953 0.001645
Hg 20.795452 0.003290 2.971308
Hg 17.825789 2.972953 2.971308
Hg 17.825789 0.003290 5.940970
Hg 20.795452 2.972953 5.940970
Hg 20.795452 0.003290 8.910633
Hg 17.825789 2.972953 8.910633
Hg 17.825789 0.003290 11.880295
Hg 20.795452 2.972953 11.880295
Hg 20.795452 0.003290 14.849958
Hg 17.825789 2.972953 14.849958
Hg 17.825789 0.003290 17.819620
Hg 20.795452 2.972953 17.819620
Hg 20.795452 0.003290 20.789283
Hg 17.825789 2.972953 20.789283
Hg 17.825789 0.003290 23.758945
Hg 20.795452 2.972953 23.758945
Hg 20.795452 0.003290 26.728608
Hg 17.825789 2.972953 26.728608
Hg 17.825789 0.003290 29.698270
Hg 17.825789 5.942615 -29.694980
Hg 20.795452 5.942615 -26.725318
Hg 17.825789 8.912278 -26.725318
Hg 17.825789 5.942615 -23.755655
Hg 20.795452 8.912278 -23.755655
Hg 20.795452 5.942615 -20.785993
Hg 17.825789 8.912278 -20.785993
Hg 17.825789 5.942615 -17.816330
Hg 20.795452 8.912278 -17.816330
Hg 20.795452 5.942615 -14.846668
Hg 17.825789 8.912278 -14.846668
Hg 17.825789 5.942615 -11.877005
Hg 20.795452 8.912278 -11.877005
Hg 20.795452 5.942615 -8.907343
Hg 17.825789 8.912278 -8.907343
Hg 17.825789 5.942615 -5.937680
Hg 20.795452 8.912278 -5.937680
Hg 20.795452 5.942615 -2.968018
Hg 17.825789 8.912278 -2.968018
Hg 17.825789 5.942615 0.001645
Hg 20.795452 8.912278 0.001645
Hg 20.795452 5.942615 2.971308
Hg 17.825789 8.912278 2.971308
Hg 17.825789 5.942615 5.940970
Hg 20.795452 8.912278 5.940970
Hg 20.795452 5.942615 8.910633
Hg 17.825789 8.912278 8.910633
Hg 17.825789 5.942615 11.880295
Hg 20.795452 8.912278 11.880295
Hg 20.795452 5.942615 14.849958
Hg 17.825789 8.912278 14.849958
Hg 17.825789 5.942615 17.819620
Hg 20.795452 8.912278 17.819620
Hg 20.795452 5.942615 20.789283
Hg 17.825789 8.912278 20.789283
Hg 17.825789 5.942615 23.758945
Hg 20.795452 8.912278 23.758945
Hg 20.795452 5.942615 26.728608
Hg 17.825789 8.912278 26.728608
Hg 17.825789 5.942615 29.698270
Hg 17.825789 11.881940 -23.755655
Hg 20.795452 11.881940 -20.785993
Hg 17.825789 14.851603 -20.785993
Hg 17.825789 11.881940 -17.816330
Hg 20.795452 14.851603 -17.816330
Hg 20.795452 11.881940 -14.846668
Hg 17.825789 14.851603 -14.846668
Hg 17.825789 11.881940 -11.877005
Hg 20.795452 14.851603 -11.877005
Hg 20.795452 11.881940 -8.907343
Hg 17.825789 14.851603 -8.907343
Hg 17.825789 11.881940 -5.937680
Hg 20.795452 14.851603 -5.937680
Hg 20.795452 11.881940 -2.968018
Hg 17.825789 14.851603 -2.968018
Hg 17.825789 11.881940 0.001645
Hg 20.795452 14.851603 0.001645
Hg 20.795452 11.881940 2.971308
Hg 17.825789 14.851603 2.971308
Hg 17.825789 11.881940 5.940970
Hg 20.795452 14.851603 5.940970
Hg 20.795452 11.881940 8.910633
Hg 17.825789 14.851603 8.910633
Hg 17.825789 11.881940 11.880295
Hg 20.795452 14.851603 11.880295
Hg 20.795452 11.881940 14.849958
Hg 17.825789 14.851603 14.849958
Hg 17.825789 11.881940 17.819620
Hg 20.795452 14.851603 17.819620
Hg 20.795452 11.881940 20.789283
Hg 17.825789 14.851603 20.789283
Hg 17.825789 11.881940 23.758945
Hg 17.825789 17.821265 -17.816330
Hg 20.795452 17.821265 -14.846668
Hg 17.825789 20.790928 -14.846668
Hg 17.825789 17.821265 -11.877005
Hg 20.795452 20.790928 -11.877005
Hg 20.795452 17.821265 -8.907343
Hg 17.825789 20.790928 -8.907343
Hg 17.825789 17.821265 -5.937680
Hg 20.795452 20.790928 -5.937680
Hg 20.795452 17.821265 -2.968018
Hg 17.825789 20.790928 -2.968018
Hg 17.825789 17.821265 0.001645
Hg 20.795452 20.790928 0.001645
Hg 20.795452 17.821265 2.971308
Hg 17.825789 20.790928 2.971308
Hg 17.825789 17.821265 5.940970
Hg 20.795452 20.790928 5.940970
Hg 20.795452 17.821265 8.910633
Hg 17.825789 20.790928 8.910633
Hg 17.825789 17.821265 11.880295
Hg 20.795452 20.790928 11.880295
Hg 20.795452 17.821265 14.849958
Hg 17.825789 20.790928 14.849958
Hg 17.825789 17.821265 17.819620
Hg 17.825789 23.760590 -11.877005
Hg 20.795452 23.760590 -8.907343
Hg 17.825789 26.730253 -8.907343
Hg 17.825789 23.760590 -5.937680
Hg 20.795452 26.730253 -5.937680
Hg 20.795452 23.760590 -2.968018
Hg 17.825789 26.730253 -2.968018
Hg 17.825789 23.760590 0.001645
Hg 20.795452 26.730253 0.001645
Hg 20.795452 23.760590 2.971308
Hg 17.825789 26.730253 2.971308
Hg 17.825789 23.760590 5.940970
Hg 20.795452 26.730253 5.940970
Hg 20.795452 23.760590 8.910633
Hg 17.825789 26.730253 8.910633
Hg 17.825789 23.760590 11.880295
Hg 17.825789 29.699915 -5.937680
Hg 17.825789 29.699915 0.001645
Hg 17.825789 29.699915 5.940970
Hg 23.765114 -20.784348 -8.907343
Hg 23.765114 -23.754010 -5.937680
Hg 26.734777 -20.784348 -5.937680
Hg 23.765114 -20.784348 -2.968018
Hg 23.765114 -23.754010 0.001645
Hg 26.734777 -20.784348 0.001645
Hg 23.765114 -20.784348 2.971308
Hg 23.765114 -23.754010 5.940970
Hg 26.734777 -20.784348 5.940970
Hg 23.765114 -20.784348 8.910633
Hg 23.765114 -14.845023 -14.846668
Hg 23.765114 -17.814685 -11.877005
Hg 26.734777 -14.845023 -11.877005
Hg 26.734777 -17.814685 -8.907343
Hg 23.765114 -14.845023 -8.907343
Hg 23.765114 -17.814685 -5.937680
Hg 26.734777 -14.845023 -5.937680
Hg 26.734777 -17.814685 -2.968018
Hg 23.765114 -14.845023 -2.968018
Hg 23.765114 -17.814685 0.001645
Hg 26.734777 -14.845023 0.001645
Hg 26.734777 -17.814685 2.971308
Hg 23.765114 -14.845023 2.971308
Hg 23.765114 -17.814685 5.940970
Hg 26.734777 -14.845023 5.940970
Hg 26.734777 -17.814685 8.910633
Hg 23.765114 -14.845023 8.910633
Hg 23.765114 -17.814685 11.880295
Hg 26.734777 -14.845023 11.880295
Hg 23.765114 -14.845023 14.849958
Hg 23.765114 -8.905698 -20.785993
Hg 23.765114 -11.875360 -17.816330
Hg 26.734777 -8.905698 -17.816330
Hg 26.734777 -11.875360 -14.846668
Hg 23.765114 -8.905698 -14.846668
Hg 23.765114 -11.875360 -11.877005
Hg 26.734777 -8.905698 -11.877005
Hg 26.734777 -11.875360 -8.907343
Hg 23.765114 -8.905698 -8.907343
Hg 23.765114 -11.875360 -5.937680
Hg 26.734777 -8.905698 -5.937680
Hg 26.734777 -11.875360 -2.968018
Hg 23.765114 -8.905698 -2.968018
Hg 23.765114 -11.875360 0.001645
Hg 26.734777 -8.905698 0.001645
Hg 26.734777 -11.875360 2.971308
Hg 23.765114 -8.905698 2.971308
Hg 23.765114 -11.875360 5.940970
Hg 26.734777 -8.905698 5.940970
Hg 26.734777 -11.875360 8.910633
Hg 23.765114 -8.905698 8.910633
Hg 23.765114 -11.875360 11.880295
Hg 26.734777 -8.905698 11.880295
Hg 26.734777 -11.875360 14.849958
Hg 23.765114 -8.905698 14.849958
Hg 23.765114 -11.875360 17.819620
Hg 26.734777 -8.905698 17.819620
Hg 23.765114 -8.905698 20.789283
Hg 23.765114 -5.936035 -23.755655
Hg 26.734777 -5.936035 -20.785993
Hg 23.765114 -2.966373 -20.785993
Hg 23.765114 -5.936035 -17.816330
Hg 26.734777 -2.966373 -17.816330
Hg 26.734777 -5.936035 -14.846668
Hg 23.765114 -2.966373 -14.846668
Hg 23.765114 -5.936035 -11.877005
Hg 26.734777 -2.966373 -11.877005
Hg 26.734777 -5.936035 -8.907343
Hg 23.765114 -2.966373 -8.907343
Hg 23.765114 -5.936035 -5.937680
Hg 26.734777 -2.966373 -5.937680
Hg 26.734777 -5.936035 -2.968018
Hg 23.765114 -2.966373 -2.968018
Hg 23.765114 -5.936035 0.001645
Hg 26.734777 -2.966373 0.001645
Hg 26.734777 -5.936035 2.971308
Hg 23.765114 -2.966373 2.971308
Hg 23.765114 -5.936035 5.940970
Hg 26.734777 -2.966373 5.940970
Hg 26.734777 -5.936035 8.910633
Hg 23.765114 -2.966373 8.910633
Hg 23.765114 -5.936035 11.880295
Hg 26.734777 -2.966373 11.880295
Hg 26.734777 -5.936035 14.849958
Hg 23.765114 -2.966373 14.849958
Hg 23.765114 -5.936035 17.819620
Hg 26.734777 -2.966373 17.819620
Hg 26.734777 -5.936035 20.789283
Hg 23.765114 -2.966373 20.789283
Hg 23.765114 -5.936035 23.758945
Hg 23.765114 0.003290 -23.755655
Hg 26.734777 0.003290 -20.785993
Hg 23.765114 2.972953 -20.785993
Hg 23.765114 0.003290 -17.816330
Hg 26.734777 2.972953 -17.816330
Hg 26.734777 0.003290 -14.846668
Hg 23.765114 2.972953 -14.846668
Hg 23.765114 0.003290 -11.877005
Hg 26.734777 2.972953 -11.877005
Hg 26.734777 0.003290 -8.907343
Hg 23.765114 2.972953 -8.907343
Hg 23.765114 0.003290 -5.937680
Hg 26.734777 2.972953 -5.937680
Hg 26.734777 0.003290 -2.968018
Hg 23.765114 2.972953 -2.968018
Hg 23.765114 0.003290 0.001645
Hg 26.734777 2.972953 0.001645
Hg 26.734777 0.003290 2.971308
Hg 23.765114 2.972953 2.971308
Hg 23.765114 0.003290 5.940970
Hg 26.734777 2.972953 5.940970
Hg 26.734777 0.003290 8.910633
Hg 23.765114 2.972953 8.910633
Hg 23.765114 0.003290 11.880295
Hg 26.734777 2.972953 11.880295
Hg 26.734777 0.003290 14.849958
Hg 23.765114 2.972953 14.849958
Hg 23.765114 0.003290 17.819620
Hg 26.734777 2.972953 17.819620
Hg 26.734777 0.003290 20.789283
Hg 23.765114 2.972953 20.789283
Hg 23.765114 0.003290 23.758945
Hg 23.765114 5.942615 -23.755655
Hg 26.734777 5.942615 -20.785993
Hg 23.765114 8.912278 -20.785993
Hg 23.765114 5.942615 -17.816330
Hg 26.734777 8.912278 -17.816330
Hg 26.734777 5.942615 -14.846668
Hg 23.765114 8.912278 -14.846668
Hg 23.765114 5.942615 -11.877005
Hg 26.734777 8.912278 -11.877005
Hg 26.734777 5.942615 -8.907343
Hg 23.765114 8.912278 -8.907343
Hg 23.765114 5.942615 -5.937680
Hg 26.734777 8.912278 -5.937680
Hg 26.734777 5.942615 -2.968018
Hg 23.765114 8.912278 -2.968018
Hg 23.765114 5.942615 0.001645
Hg 26.734777 8.912278 0.001645
Hg 26.734777 5.942615 2.971308
Hg 23.765114 8.912278 2.971308
Hg 23.765114 5.942615 5.940970
Hg 26.734777 8.912278 5.940970
Hg 26.734777 5.942615 8.910633
Hg 23.765114 8.912278 8.910633
Hg 23.765114 5.942615 11.880295
Hg 26.734777 8.912278 11.880295
Hg 26.734777 5.942615 14.849958
Hg 23.765114 8.912278 14.849958
Hg 23.765114 5.942615 17.819620
Hg 26.734777 8.912278 17.819620
Hg 26.734777 5.942615 20.789283
Hg 23.765114 8.912278 20.789283
Hg 23.765114 5.942615 23.758945
Hg 23.765114 11.881940 -17.816330
Hg 26.734777 11.881940 -14.846668
Hg 23.765114 14.851603 -14.846668
Hg 23.765114 11.881940 -11.877005
Hg 26.734777 14.851603 -11.877005
Hg 26.734777 11.881940 -8.907343
Hg 23.765114 14.851603 -8.907343
Hg 23.765114 11.881940 -5.937680
Hg 26.734777 14.851603 -5.937680
Hg 26.734777 11.881940 -2.968018
Hg 23.765114 14.851603 -2.968018
Hg 23.765114 11.881940 0.001645
Hg 26.734777 14.851603 0.001645
Hg 26.734777 11.881940 2.971308
Hg 23.765114 14.851603 2.971308
Hg 23.765114 11.881940 5.940970
Hg 26.734777 14.851603 5.940970
Hg 26.734777 11.881940 8.910633
Hg 23.765114 14.851603 8.910633
Hg 23.765114 11.881940 11.880295
Hg 26.734777 14.851603 11.880295
Hg 26.734777 11.881940 14.849958
Hg 23.765114 14.851603 14.849958
Hg 23.765114 11.881940 17.819620
Hg 23.765114 17.821265 -11.877005
Hg 26.734777 17.821265 -8.907343
Hg 23.765114 20.790928 -8.907343
Hg 23.765114 17.821265 -5.937680
Hg 26.734777 20.790928 -5.937680
Hg 26.734777 17.821265 -2.968018
Hg 23.765114 20.790928 -2.968018
Hg 23.765114 17.821265 0.001645
Hg 26.734777 20.790928 0.001645
Hg 26.734777 17.821265 2.971308
Hg 23.765114 20.790928 2.971308
Hg 23.765114 17.821265 5.940970
Hg 26.734777 20.790928 5.940970
Hg 26.734777 17.821265 8.910633
Hg 23.765114 20.790928 8.910633
Hg 23.765114 17.821265 11.880295
Hg 23.765114 23.760590 -5.937680
Hg 23.765114 23.760590 0.001645
Hg 23.765114 23.760590 5.940970
Hg 29.704439 -14.845023 -8.907343
Hg 29.704439 -17.814685 -5.937680
Hg 32.674102 -14.845023 -5.937680
Hg 29.704439 -14.845023 -2.968018
Hg 29.704439 -17.814685 0.001645
Hg 32.674102 -14.845023 0.001645
Hg 29.704439 -14.845023 2.971308
Hg 29.704439 -17.814685 5.940970
Hg 32.674102 -14.845023 5.940970
Hg 29.704439 -14.845023 8.910633
Hg 29.704439 -8.905698 -14.846668
Hg 29.704439 -11.875360 -11.877005
Hg 32.674102 -8.905698 -11.877005
Hg 32.674102 -11.875360 -8.907343
Hg 29.704439 -8.905698 -8.907343
Hg 29.704439 -11.875360 -5.937680
Hg 32.674102 -8.905698 -5.937680
Hg 32.674102 -11.875360 -2.968018
Hg 29.704439 -8.905698 -2.968018
Hg 29.704439 -11.875360 0.001645
Hg 32.674102 -8.905698 0.001645
Hg 32.674102 -11.875360 2.971308
Hg 29.704439 -8.905698 2.971308
Hg 29.704439 -11.875360 5.940970
Hg 32.674102 -8.905698 5.940970
Hg 32.674102 -11.875360 8.910633
Hg 29.704439 -8.905698 8.910633
Hg 29.704439 -11.875360 11.880295
Hg 32.674102 -8.905698 11.880295
Hg 29.704439 -8.905698 14.849958
Hg 29.704439 -5.936035 -17.816330
Hg 32.674102 -5.936035 -14.846668
Hg 29.704439 -2.966373 -14.846668
Hg 29.704439 -5.936035 -11.877005
Hg 32.674102 -2.966373 -11.877005
Hg 32.674102 -5.936035 -8.907343
Hg 29.704439 -2.966373 -8.907343
Hg 29.704439 -5.936035 -5.937680
Hg 32.674102 -2.966373 -5.937680
Hg 32.674102 -5.936035 -2.968018
Hg 29.704439 -2.966373 -2.968018
Hg 29.704439 -5.936035 0.001645
Hg 32.674102 -2.966373 0.001645
Hg 32.674102 -5.936035 2.971308
Hg 29.704439 -2.966373 2.971308
Hg 29.704439 -5.936035 5.940970
Hg 32.674102 -2.966373 5.940970
Hg 32.674102 -5.936035 8.910633
Hg 29.704439 -2.966373 8.910633
Hg 29.704439 -5.936035 11.880295
Hg 32.674102 -2.966373 11.880295
Hg 32.674102 -5.936035 14.849958
Hg 29.704439 -2.966373 14.849958
Hg 29.704439 -5.936035 17.819620
Hg 29.704439 0.003290 -17.816330
Hg 32.674102 0.003290 -14.846668
Hg 29.704439 2.972953 -14.846668
Hg 29.704439 0.003290 -11.877005
Hg 32.674102 2.972953 -11.877005
Hg 32.674102 0.003290 -8.907343
Hg 29.704439 2.972953 -8.907343
Hg 29.704439 0.003290 -5.937680
Hg 32.674102 2.972953 -5.937680
Hg 32.674102 0.003290 -2.968018
Hg 29.704439 2.972953 -2.968018
Hg 29.704439 0.003290 0.001645
Hg 32.674102 2.972953 0.001645
Hg 32.674102 0.003290 2.971308
Hg 29.704439 2.972953 2.971308
Hg 29.704439 0.003290 5.940970
Hg 32.674102 2.972953 5.940970
Hg 32.674102 0.003290 8.910633
Hg 29.704439 2.972953 8.910633
Hg 29.704439 0.003290 11.880295
Hg 32.674102 2.972953 11.880295
Hg 32.674102 0.003290 14.849958
Hg 29.704439 2.972953 14.849958
Hg 29.704439 0.003290 17.819620
Hg 29.704439 5.942615 -17.816330
Hg 32.674102 5.942615 -14.846668
Hg 29.704439 8.912278 -14.846668
Hg 29.704439 5.942615 -11.877005
Hg 32.674102 8.912278 -11.877005
Hg 32.674102 5.942615 -8.907343
Hg 29.704439 8.912278 -8.907343
Hg 29.704439 5.942615 -5.937680
Hg 32.674102 8.912278 -5.937680
Hg 32.674102 5.942615 -2.968018
Hg 29.704439 8.912278 -2.968018
Hg 29.704439 5.942615 0.001645
Hg 32.674102 8.912278 0.001645
Hg 32.674102 5.942615 2.971308
Hg 29.704439 8.912278 2.971308
Hg 29.704439 5.942615 5.940970
Hg 32.674102 8.912278 5.940970
Hg 32.674102 5.942615 8.910633
Hg 29.704439 8.912278 8.910633
Hg 29.704439 5.942615 11.880295
Hg 32.674102 8.912278 11.880295
Hg 32.674102 5.942615 14.849958
Hg 29.704439 8.912278 14.849958
Hg 29.704439 5.942615 17.819620
Hg 29.704439 11.881940 -11.877005
Hg 32.674102 11.881940 -8.907343
Hg 29.704439 14.851603 -8.907343
Hg 29.704439 11.881940 -5.937680
Hg 32.674102 14.851603 -5.937680
Hg 32.674102 11.881940 -2.968018
Hg 29.704439 14.851603 -2.968018
Hg 29.704439 11.881940 0.001645
Hg 32.674102 14.851603 0.001645
Hg 32.674102 11.881940 2.971308
Hg 29.704439 14.851603 2.971308
Hg 29.704439 11.881940 5.940970
Hg 32.674102 14.851603 5.940970
Hg 32.674102 11.881940 8.910633
Hg 29.704439 14.851603 8.910633
Hg 29.704439 11.881940 11.880295
Hg 29.704439 17.821265 -5.937680
Hg 29.704439 17.821265 0.001645
Hg 29.704439 17.821265 5.940970
S -31.173643 -13.360191 -10.392174
S -31.173643 -16.329854 -7.422511
S -31.173643 -13.360191 -4.452849
S -31.173643 -16.329854 -1.483186
S -31.173643 -13.360191 1.486476
S -31.173643 -16.329854 4.456139
S -31.173643 -13.360191 7.425801
S -31.173643 -7.420866 -16.331499
S -31.173643 -10.390529 -13.361836
S -31.173643 -7.420866 -10.392174
S -31.173643 -10.390529 -7.422511
S -31.173643 -7.420866 -4.452849
S -31.173643 -10.390529 -1.483186
S -31.173643 -7.420866 1.486476
S -31.173643 -10.390529 4.456139
S -31.173643 -7.420866 7.425801
S -31.173643 -10.390529 10.395464
S -31.173643 -7.420866 13.365126
S -31.173643 -1.481541 -16.331499
S -31.173643 -4.451204 -13.361836
S -31.173643 -1.481541 -10.392174
S -31.173643 -4.451204 -7.422511
S -31.173643 -1.481541 -4.452849
S -31.173643 -4.451204 -1.483186
S -31.173643 -1.481541 1.486476
S -31.173643 -4.451204 4.456139
S -31.173643 -1.481541 7.425801
S -31.173643 -4.451204 10.395464
S -31.173643 -1.481541 13.365126
S -31.173643 -4.451204 16.334789
S -31.173643 4.457784 -16.331499
S -31.173643 1.488121 -13.361836
S -31.173643 4.457784 -10.392174
S -31.173643 1.488121 -7.422511
S -31.173643 4.457784 -4.452849
S -31.173643 1.488121 -1.483186
S -31.173643 4.457784 1.486476
S -31.173643 1.488121 4.456139
S -31.173643 4.457784 7.425801
S -31.173643 1.488121 10.395464
S -31.173643 4.457784 13.365126
S -31.173643 1.488121 16.334789
S -31.173643 7.427446 -13.361836
S -31.173643 10.397109 -10.392174
S -31.173643 7.427446 -7.422511
S -31.173643 10.397109 -4.452849
S -31.173643 7.427446 -1.483186
S -31.173643 10.397109 1.486476
S -31.173643 7.427446 4.456139
S -31.173643 10.397109 7.425801
S -31.173643 7.427446 10.395464
S -31.173643 10.397109 13.365126
S -31.173643 7.427446 16.334789
S -31.173643 13.366771 -7.422511
S -31.173643 16.336434 -4.452849
S -31.173643 13.366771 -1.483186
S -31.173643 16.336434 1.486476
S -31.173643 13.366771 4.456139
S -31.173643 16.336434 7.425801
S -31.173643 13.366771 10.395464
S -28.203980 -19.299516 -7.422511
S -25.234318 -19.299516 -10.392174
S -25.234318 -22.269179 -7.422511
S -28.203980 -19.299516 -1.483186
S -25.234318 -19.299516 -4.452849
S -25.234318 -22.269179 -1.483186
S -28.203980 -19.299516 4.456139
S -25.234318 -19.299516 1.486476
S -25.234318 -22.269179 4.456139
S -25.234318 -19.299516 7.425801
S -28.203980 -13.360191 -13.361836
S -25.234318 -13.360191 -16.331499
S -25.234318 -16.329854 -13.361836
S -28.203980 -16.329854 -10.392174
S -28.203980 -13.360191 -7.422511
S -25.234318 -13.360191 -10.392174
S -25.234318 -16.329854 -7.422511
S -28.203980 -16.329854 -4.452849
S -28.203980 -13.360191 -1.483186
S -25.234318 -13.360191 -4.452849
S -25.234318 -16.329854 -1.483186
S -28.203980 -16.329854 1.486476
S -28.203980 -13.360191 4.456139
S -25.234318 -13.360191 1.486476
S -25.234318 -16.329854 4.456139
S -28.203980 -16.329854 7.425801
S -28.203980 -13.360191 10.395464
S -25.234318 -13.360191 7.425801
S -25.234318 -16.329854 10.395464
S -25.234318 -13.360191 13.365126
S -28.203980 -7.420866 -19.301161
S -25.234318 -7.420866 -22.270824
S -25.234318 -10.390529 -19.301161
S -28.203980 -10.390529 -16.331499
S -28.203980 -7.420866 -13.361836
S -25.234318 -7.420866 -16.331499
S -25.234318 -10.390529 -13.361836
S -28.203980 -10.390529 -10.392174
S -28.203980 -7.420866 -7.422511
S -25.234318 -7.420866 -10.392174
S -25.234318 -10.390529 -7.422511
S -28.203980 -10.390529 -4.452849
S -28.203980 -7.420866 -1.483186
S -25.234318 -7.420866 -4.452849
S -25.234318 -10.390529 -1.483186
S -28.203980 -10.390529 1.486476
S -28.203980 -7.420866 4.456139
S -25.234318 -7.420866 1.486476
S -25.234318 -10.390529 4.456139
S -28.203980 -10.390529 7.425801
S -28.203980 -7.420866 10.395464
S -25.234318 -7.420866 7.425801
S -25.234318 -10.390529 10.395464
S -28.203980 -10.390529 13.365126
S -28.203980 -7.420866 16.334789
S -25.234318 -7.420866 13.365126
S -25.234318 -10.390529 16.334789
S -25.234318 -7.420866 19.304451
S -28.203980 -1.481541 -19.301161
S -25.234318 -1.481541 -22.270824
S -25.234318 -4.451204 -19.301161
S -28.203980 -4.451204 -16.331499
S -28.203980 -1.481541 -13.361836
S -25.234318 -1.481541 -16.331499
S -25.234318 -4.451204 -13.361836
S -28.203980 -4.451204 -10.392174
S -28.203980 -1.481541 -7.422511
S -25.234318 -1.481541 -10.392174
S -25.234318 -4.451204 -7.422511
S -28.203980 -4.451204 -4.452849
S -28.203980 -1.481541 -1.483186
S -25.234318 -1.481541 -4.452849
S -25.234318 -4.451204 -1.483186
S -28.203980 -4.451204 1.486476
S -28.203980 -1.481541 4.456139
S -25.234318 -1.481541 1.486476
S -25.234318 -4.451204 4.456139
S -28.203980 -4.451204 7.425801
S -28.203980 -1.481541 10.395464
S -25.234318 -1.481541 7.425801
S -25.234318 -4.451204 10.395464
S -28.203980 -4.451204 13.365126
S -28.203980 -1.481541 16.334789
S -25.234318 -1.481541 13.365126
S -25.234318 -4.451204 16.334789
S -28.203980 -4.451204 19.304451
S -25.234318 -1.481541 19.304451
S -25.234318 -4.451204 22.274114
S -28.203980 4.457784 -19.301161
S -25.234318 4.457784 -22.270824
S -25.234318 1.488121 -19.301161
S -28.203980 1.488121 -16.331499
S -28.203980 4.457784 -13.361836
S -25.234318 4.457784 -16.331499
S -25.234318 1.488121 -13.361836
S -28.203980 1.488121 -10.392174
S -28.203980 4.457784 -7.422511
S -25.234318 4.457784 -10.392174
S -25.234318 1.488121 -7.422511
S -28.203980 1.488121 -4.452849
S -28.203980 4.457784 -1.483186
S -25.234318 4.457784 -4.452849
S -25.234318 1.488121 -1.483186
S -28.203980 1.488121 1.486476
S -28.203980 4.457784 4.456139
S -25.234318 4.457784 1.486476
S -25.234318 1.488121 4.456139
S -28.203980 1.488121 7.425801
S -28.203980 4.457784 10.395464
S -25.234318 4.457784 7.425801
S -25.234318 1.488121 10.395464
S -28.203980 1.488121 13.365126
S -28.203980 4.457784 16.334789
S -25.234318 4.457784 13.365126
S -25.234318 1.488121 16.334789
S -28.203980 1.488121 19.304451
S -25.234318 4.457784 19.304451
S -25.234318 1.488121 22.274114
S -25.234318 7.427446 -19.301161
S -28.203980 7.427446 -16.331499
S -28.203980 10.397109 -13.361836
S -25.234318 10.397109 -16.331499
S -25.234318 7.427446 -13.361836
S -28.203980 7.427446 -10.392174
S -28.203980 10.397109 -7.422511
S -25.234318 10.397109 -10.392174
S -25.234318 7.427446 -7.422511
S -28.203980 7.427446 -4.452849
S -28.203980 10.397109 -1.483186
S -25.234318 10.397109 -4.452849
S -25.234318 7.427446 -1.483186
S -28.203980 7.427446 1.486476
S -28.203980 10.397109 4.456139
S -25.234318 10.397109 1.486476
S -25.234318 7.427446 4.456139
S -28.203980 7.427446 7.425801
S -28.203980 10.397109 10.395464
S -25.234318 10.397109 7.425801
S -25.234318 7.427446 10.395464
S -28.203980 7.427446 13.365126
S -28.203980 10.397109 16.334789
S -25.234318 10.397109 13.365126
S -25.234318 7.427446 16.334789
S -28.203980 7.427446 19.304451
S -25.234318 10.397109 19.304451
S -25.234318 7.427446 22.274114
S -25.234318 13.366771 -13.361836
S -28.203980 13.366771 -10.392174
S -28.203980 16.336434 -7.422511
S -25.234318 16.336434 -10.392174
S -25.234318 13.366771 -7.422511
S -28.203980 13.366771 -4.452849
S -28.203980 16.336434 -1.483186
S -25.234318 16.336434 -4.452849
S -25.234318 13.366771 -1.483186
S -28.203980 13.366771 1.486476
S -28.203980 16.336434 4.456139
S -25.234318 16.336434 1.486476
S -25.234318 13.366771 4.456139
S -28.203980 13.366771 7.425801
S -28.203980 16.336434 10.395464
S -25.234318 16.336434 7.425801
S -25.234318 13.366771 10.395464
S -28.203980 13.366771 13.365126
S -25.234318 16.336434 13.365126
S -25.234318 13.366771 16.334789
S -25.234318 19.306097 -7.422511
S -28.203980 19.306097 -4.452849
S -25.234318 22.275759 -4.452849
S -25.234318 19.306097 -1.483186
S -28.203980 19.306097 1.486476
S -25.234318 22.275759 1.486476
S -25.234318 19.306097 4.456139
S -28.203980 19.306097 7.425801
S -25.234318 22.275759 7.425801
S -25.234318 19.306097 10.395464
S -22.264655 -25.238842 -7.422511
S -19.294993 -25.238842 -10.392174
S -19.294993 -28.208504 -7.422511
S -22.264655 -25.238842 -1.483186
S -19.294993 -25.238842 -4.452849
S -19.294993 -28.208504 -1.483186
S -22.264655 -25.238842 4.456139
S -19.294993 -25.238842 1.486476
S -19.294993 -28.208504 4.456139
S -19.294993 -25.238842 7.425801
S -22.264655 -19.299516 -13.361836
S -19.294993 -19.299516 -16.331499
S -19.294993 -22.269179 -13.361836
S -22.264655 -22.269179 -10.392174
S -22.264655 -19.299516 -7.422511
S -19.294993 -19.299516 -10.392174
S -19.294993 -22.269179 -7.422511
S -22.264655 -22.269179 -4.452849
S -22.264655 -19.299516 -1.483186
S -19.294993 -19.299516 -4.452849
S -19.294993 -22.269179 -1.483186
S -22.264655 -22.269179 1.486476
S -22.264655 -19.299516 4.456139
S -19.294993 -19.299516 1.486476
S -19.294993 -22.269179 4.456139
S -22.264655 -22.269179 7.425801
S -22.264655 -19.299516 10.395464
S -19.294993 -19.299516 7.425801
S -19.294993 -22.269179 10.395464
S -19.294993 -19.299516 13.365126
S -22.264655 -13.360191 -19.301161
S -19.294993 -13.360191 -22.270824
S -19.294993 -16.329854 -19.301161
S -22.264655 -16.329854 -16.331499
S -22.264655 -13.360191 -13.361836
S -19.294993 -13.360191 -16.331499
S -19.294993 -16.329854 -13.361836
S -22.264655 -16.329854 -10.392174
S -22.264655 -13.360191 -7.422511
S -19.294993 -13.360191 -10.392174
S -19.294993 -16.329854 -7.422511
S -22.264655 -16.329854 -4.452849
S -22.264655 -13.360191 -1.483186
S -19.294993 -13.360191 -4.452849
S -19.294993 -16.329854 -1.483186
S -22.264655 -16.329854 1.486476
S -22.264655 -13.360191 4.456139
S -19.294993 -13.360191 1.486476
S -19.294993 -16.329854 4.456139
S -22.264655 -16.329854 7.425801
S -22.264655 -13.360191 10.395464
S -19.294993 -13.360191 7.425801
S -19.294993 -16.329854 10.395464
S -22.264655 -16.329854 13.365126
S -22.264655 -13.360191 16.334789
S -19.294993 -13.360191 13.365126
S -19.294993 -16.329854 16.334789
S -19.294993 -13.360191 19.304451
S -22.264655 -7.420866 -25.240487
S -19.294993 -7.420866 -28.210149
S -19.294993 -10.390529 -25.240487
S -22.264655 -10.390529 -22.270824
S -22.264655 -7.420866 -19.301161
S -19.294993 -7.420866 -22.270824
S -19.294993 -10.390529 -19.301161
S -22.264655 -10.390529 -16.331499
S -22.264655 -7.420866 -13.361836
S -19.294993 -7.420866 -16.331499
S -19.294993 -10.390529 -13.361836
S -22.264655 -10.390529 -10.392174
S -22.264655 -7.420866 -7.422511
S -19.294993 -7.420866 -10.392174
S -19.294993 -10.390529 -7.422511
S -22.264655 -10.390529 -4.452849
S -22.264655 -7.420866 -1.483186
S -19.294993 -7.420866 -4.452849
S -19.294993 -10.390529 -1.483186
S -22.264655 -10.390529 1.486476
S -22.264655 -7.420866 4.456139
S -19.294993 -7.420866 1.486476
S -19.294993 -10.390529 4.456139
S -22.264655 -10.390529 7.425801
S -22.264655 -7.420866 10.395464
S -19.294993 -7.420866 7.425801
S -19.294993 -10.390529 10.395464
S -22.264655 -10.390529 13.365126
S -22.264655 -7.420866 16.334789
S -19.294993 -7.420866 13.365126
S -19.294993 -10.390529 16.334789
S -22.264655 -10.390529 19.304451
S -22.264655 -7.420866 22.274114
S -19.294993 -7.420866 19.304451
S -19.294993 -10.390529 22.274114
S -19.294993 -7.420866 25.243777
S -22.264655 -1.481541 -25.240487
S -19.294993 -1.481541 -28.210149
S -19.294993 -4.451204 -25.240487
S -22.264655 -4.451204 -22.270824
S -22.264655 -1.481541 -19.301161
S -19.294993 -1.481541 -22.270824
S -19.294993 -4.451204 -19.301161
S -22.264655 -4.451204 -16.331499
S -22.264655 -1.481541 -13.361836
S -19.294993 -1.481541 -16.331499
S -19.294993 -4.451204 -13.361836
S -22.264655 -4.451204 -10.392174
S -22.264655 -1.481541 -7.422511
S -19.294993 -1.481541 -10.392174
S -19.294993 -4.451204 -7.422511
S -22.264655 -4.451204 -4.452849
S -22.264655 -1.481541 -1.483186
S -19.294993 -1.481541 -4.452849
S -19.294993 -4.451204 -1.483186
S -22.264655 -4.451204 1.486476
S -22.264655 -1.481541 4.456139
S -19.294993 -1.481541 1.486476
S -19.294993 -4.451204 4.456139
S -22.264655 -4.451204 7.425801
S -22.264655 -1.481541 10.395464
S -19.294993 -1.481541 7.425801
S -19.294993 -4.451204 10.395464
S -22.264655 -4.451204 13.365126
S -22.264655 -1.481541 16.334789
S -19.294993 -1.481541 13.365126
S -19.294993 -4.451204 16.334789
S -22.264655 -4.451204 19.304451
S -22.264655 -1.481541 22.274114
S -19.294993 -1.481541 19.304451
S -19.294993 -4.451204 22.274114
S -22.264655 -4.451204 25.243777
S -19.294993 -1.481541 25.243777
S -19.294993 -4.451204 28.213439
S -22.264655 4.457784 -25.240487
S -19.294993 4.457784 -28.210149
S -19.294993 1.488121 -25.240487
S -22.264655 1.488121 -22.270824
S -22.264655 4.457784 -19.301161
S -19.294993 4.457784 -22.270824
S -19.294993 1.488121 -19.301161
S -22.264655 1.488121 -16.331499
S -22.264655 4.457784 -13.361836
S -19.294993 4.457784 -16.331499
S -19.294993 1.488121 -13.361836
S -22.264655 1.488121 -10.392174
S -22.264655 4.457784 -7.422511
S -19.294993 4.457784 -10.392174
S -19.294993 1.488121 -7.422511
S -22.264655 1.488121 -4.452849
S -22.264655 4.457784 -1.483186
S -19.294993 4.457784 -4.452849
S -19.294993 1.488121 -1.483186
S -22.264655 1.488121 1.486476
S -22.264655 4.457784 4.456139
S -19.294993 4.457784 1.486476
S -19.294993 1.488121 4.456139
S -22.264655 1.488121 7.425801
S -22.264655 4.457784 10.395464
S -19.294993 4.457784 7.425801
S -19.294993 1.488121 10.395464
S -22.264655 1.488121 13.365126
S -22.264655 4.457784 16.334789
S -19.294993 4.457784 13.365126
S -19.294993 1.488121 16.334789
S -22.264655 1.488121 19.304451
S -22.264655 4.457784 22.274114
S -19.294993 4.457784 19.304451
S -19.294993 1.488121 22.274114
S -22.264655 1.488121 25.243777
S -19.294993 4.457784 25.243777
S -19.294993 1.488121 28.213439
S -19.294993 7.427446 -25.240487
S -22.264655 7.427446 -22.270824
S -22.264655 10.397109 -19.301161
S -19.294993 10.397109 -22.270824
S -19.294993 7.427446 -19.301161
S -22.264655 7.427446 -16.331499
S -22.264655 10.397109 -13.361836
S -19.294993 10.397109 -16.331499
S -19.294993 7.427446 -13.361836
S -22.264655 7.427446 -10.392174
S -22.264655 10.397109 -7.422511
S -19.294993 10.397109 -10.392174
S -19.294993 7.427446 -7.422511
S -22.264655 7.427446 -4.452849
S -22.264655 10.397109 -1.483186
S -19.294993 10.397109 -4.452849
S -19.294993 7.427446 -1.483186
S -22.264655 7.427446 1.486476
S -22.264655 10.397109 4.456139
S -19.294993 10.397109 1.486476
S -19.294993 7.427446 4.456139
S -22.264655 7.427446 7.425801
S -22.264655 10.397109 10.395464
S -19.294993 10.397109 7.425801
S -19.294993 7.427446 10.395464
S -22.264655 7.427446 13.365126
S -22.264655 10.397109 16.334789
S -19.294993 10.397109 13.365126
S -19.294993 7.427446 16.334789
S -22.264655 7.427446 19.304451
S -22.264655 10.397109 22.274114
S -19.294993 10.397109 19.304451
S -19.294993 7.427446 22.274114
S -22.264655 7.427446 25.243777
S -19.294993 10.397109 25.243777
S -19.294993 7.427446 28.213439
S -19.294993 13.366771 -19.301161
S -22.264655 13.366771 -16.331499
S -22.264655 16.336434 -13.361836
S -19.294993 16.336434 -16.331499
S -19.294993 13.366771 -13.361836
S -22.264655 13.366771 -10.392174
S -22.264655 16.336434 -7.422511
S -19.294993 16.336434 -10.392174
S -19.294993 13.366771 -7.422511
S -22.264655 13.366771 -4.452849
S -22.264655 16.336434 -1.483186
S -19.294993 16.336434 -4.452849
S -19.294993 13.366771 -1.483186
S -22.264655 13.366771 1.486476
S -22.264655 16.336434 4.456139
S -19.294993 16.336434 1.486476
S -19.294993 13.366771 4.456139
S -22.264655 13.366771 7.425801
S -22.264655 16.336434 10.395464
S -19.294993 16.336434 7.425801
S -19.294993 13.366771 10.395464
S -22.264655 13.366771 13.365126
S -22.264655 16.336434 16.334789
S -19.294993 16.336434 13.365126
S -19.294993 13.366771 16.334789
S -22.264655 13.366771 19.304451
S -19.294993 16.336434 19.304451
S -19.294993 13.366771 22.274114
S -19.294993 19.306097 -13.361836
S -22.264655 19.306097 -10.392174
S -22.264655 22.275759 -7.422511
S -19.294993 22.275759 -10.392174
S -19.294993 19.306097 -7.422511
S -22.264655 19.306097 -4.452849
S -22.264655 22.275759 -1.483186
S -19.294993 22.275759 -4.452849
S -19.294993 19.306097 -1.483186
S -22.264655 19.306097 1.486476
S -22.264655 22.275759 4.456139
S -19.294993 22.275759 1.486476
S -19.294993 19.306097 4.456139
S -22.264655 19.306097 7.425801
S -22.264655 22.275759 10.395464
S -19.294993 22.275759 7.425801
S -19.294993 19.306097 10.395464
S -22.264655 19.306097 13.365126
S -19.294993 22.275759 13.365126
S -19.294993 19.306097 16.334789
S -19.294993 25.245422 -7.422511
S -22.264655 25.245422 -4.452849
S -19.294993 28.215084 -4.452849
S -19.294993 25.245422 -1.483186
S -22.264655 25.245422 1.486476
S -19.294993 28.215084 1.486476
S -19.294993 25.245422 4.456139
S -22.264655 25.245422 7.425801
S -19.294993 28.215084 7.425801
S -19.294993 25.245422 10.395464
S -16.325330 -31.178167 -7.422511
S -13.355668 -31.178167 -10.392174
S -16.325330 -31.178167 -1.483186
S -13.355668 -31.178167 -4.452849
S -16.325330 -31.178167 4.456139
S -13.355668 -31.178167 1.486476
S -13.355668 -31.178167 7.425801
S -16.325330 -25.238842 -13.361836
S -13.355668 -25.238842 -16.331499
S -13.355668 -28.208504 -13.361836
S -16.325330 -28.208504 -10.392174
S -16.325330 -25.238842 -7.422511
S -13.355668 -25.238842 -10.392174
S -13.355668 -28.208504 -7.422511
S -16.325330 -28.208504 -4.452849
S -16.325330 -25.238842 -1.483186
S -13.355668 -25.238842 -4.452849
S -13.355668 -28.208504 -1.483186
S -16.325330 -28.208504 1.486476
S -16.325330 -25.238842 4.456139
S -13.355668 -25.238842 1.486476
S -13.355668 -28.208504 4.456139
S -16.325330 -28.208504 7.425801
S -16.325330 -25.238842 10.395464
S -13.355668 -25.238842 7.425801
S -13.355668 -28.208504 10.395464
S -13.355668 -25.238842 13.365126
S -16.325330 -19.299516 -19.301161
S -13.355668 -19.299516 -22.270824
S -13.355668 -22.269179 -19.301161
S -16.325330 -22.269179 -16.331499
S -16.325330 -19.299516 -13.361836
S -13.355668 -19.299516 -16.331499
S -13.355668 -22.269179 -13.361836
S -16.325330 -22.269179 -10.392174
S -16.325330 -19.299516 -7.422511
S -13.355668 -19.299516 -10.392174
S -13.355668 -22.269179 -7.422511
S -16.325330 -22.269179 -4.452849
S -16.325330 -19.299516 -1.483186
S -13.355668 -19.299516 -4.452849
S -13.355668 -22.269179 -1.483186
S -16.325330 -22.269179 1.486476
S -16.325330 -19.299516 4.456139
S -13.355668 -19.299516 1.486476
S -13.355668 -22.269179 4.456139
S -16.325330 -22.269179 7.425801
S -16.325330 -19.299516 10.395464
S -13.355668 -19.299516 7.425801
S -13.355668 -22.269179 10.395464
S -16.325330 -22.269179 13.365126
S -16.325330 -19.299516 16.334789
S -13.355668 -19.299516 13.365126
S -13.355668 -22.269179 16.334789
S -13.355668 -19.299516 19.304451
S -16.325330 -13.360191 -25.240487
S -13.355668 -13.360191 -28.210149
S -13.355668 -16.329854 -25.240487
S -16.325330 -16.329854 -22.270824
S -16.325330 -13.360191 -19.301161
S -13.355668 -13.360191 -22.270824
S -13.355668 -16.329854 -19.301161
S -16.325330 -16.329854 -16.331499
S -16.325330 -13.360191 -13.361836
S -13.355668 -13.360191 -16.331499
S -13.355668 -16.329854 -13.361836
S -16.325330 -16.329854 -10.392174
S -16.325330 -13.360191 -7.422511
S -13.355668 -13.360191 -10.392174
S -13.355668 -16.329854 -7.422511
S -16.325330 -16.329854 -4.452849
S -16.325330 -13.360191 -1.483186
S -13.355668 -13.360191 -4.452849
S -13.355668 -16.329854 -1.483186
S -16.325330 -16.329854 1.486476
S -16.325330 -13.360191 4.456139
S -13.355668 -13.360191 1.486476
S -13.355668 -16.329854 4.456139
S -16.325330 -16.329854 7.425801
S -16.325330 -13.360191 10.395464
S -13.355668 -13.360191 7.425801
S -13.355668 -16.329854 10.395464
S -16.325330 -16.329854 13.365126
S -16.325330 -13.360191 16.334789
S -13.355668 -13.360191 13.365126
S -13.355668 -16.329854 16.334789
S -16.325330 -16.329854 19.304451
S -16.325330 -13.360191 22.274114
S -13.355668 -13.360191 19.304451
S -13.355668 -16.329854 22.274114
S -13.355668 -13.360191 25.243777
S -16.325330 -7.420866 -31.179812
S -13.355668 -10.390529 -31.179812
S -16.325330 -10.390529 -28.210149
S -16.325330 -7.420866 -25.240487
S -13.355668 -7.420866 -28.210149
S -13.355668 -10.390529 -25.240487
S -16.325330 -10.390529 -22.270824
S -16.325330 -7.420866 -19.301161
S -13.355668 -7.420866 -22.270824
S -13.355668 -10.390529 -19.301161
S -16.325330 -10.390529 -16.331499
S -16.325330 -7.420866 -13.361836
S -13.355668 -7.420866 -16.331499
S -13.355668 -10.390529 -13.361836
S -16.325330 -10.390529 -10.392174
S -16.325330 -7.420866 -7.422511
S -13.355668 -7.420866 -10.392174
S -13.355668 -10.390529 -7.422511
S -16.325330 -10.390529 -4.452849
S -16.325330 -7.420866 -1.483186
S -13.355668 -7.420866 -4.452849
S -13.355668 -10.390529 -1.483186
S -16.325330 -10.390529 1.486476
S -16.325330 -7.420866 4.456139
S -13.355668 -7.420866 1.486476
S -13.355668 -10.390529 4.456139
S -16.325330 -10.390529 7.425801
S -16.325330 -7.420866 10.395464
S -13.355668 -7.420866 7.425801
S -13.355668 -10.390529 10.395464
S -16.325330 -10.390529 13.365126
S -16.325330 -7.420866 16.334789
S -13.355668 -7.420866 13.365126
S -13.355668 -10.390529 16.334789
S -16.325330 -10.390529 19.304451
S -16.325330 -7.420866 22.274114
S -13.355668 -7.420866 19.304451
S -13.355668 -10.390529 22.274114
S -16.325330 -10.390529 25.243777
S -16.325330 -7.420866 28.213439
S -13.355668 -7.420866 25.243777
S -13.355668 -10.390529 28.213439
S -13.355668 -7.420866 31.183102
S -16.325330 -1.481541 -31.179812
S -13.355668 -4.451204 -31.179812
S -16.325330 -4.451204 -28.210149
S -16.325330 -1.481541 -25.240487
S -13.355668 -1.481541 -28.210149
S -13.355668 -4.451204 -25.240487
S -16.325330 -4.451204 -22.270824
S -16.325330 -1.481541 -19.301161
S -13.355668 -1.481541 -22.270824
S -13.355668 -4.451204 -19.301161
S -16.325330 -4.451204 -16.331499
S -16.325330 -1.481541 -13.361836
S -13.355668 -1.481541 -16.331499
S -13.355668 -4.451204 -13.361836
S -16.325330 -4.451204 -10.392174
S -16.325330 -1.481541 -7.422511
S -13.355668 -1.481541 -10.392174
S -13.355668 -4.451204 -7.422511
S -16.325330 -4.451204 -4.452849
S -16.325330 -1.481541 -1.483186
S -13.355668 -1.481541 -4.452849
S -13.355668 -4.451204 -1.483186
S -16.325330 -4.451204 1.486476
S -16.325330 -1.481541 4.456139
S -13.355668 -1.481541 1.486476
S -13.355668 -4.451204 4.456139
S -16.325330 -4.451204 7.425801
S -16.325330 -1.481541 10.395464
S -13.355668 -1.481541 7.425801
S -13.355668 -4.451204 10.395464
S -16.325330 -4.451204 13.365126
S -16.325330 -1.481541 16.334789
S -13.355668 -1.481541 13.365126
S -13.355668 -4.451204 16.334789
S -16.325330 -4.451204 19.304451
S -16.325330 -1.481541 22.274114
S -13.355668 -1.481541 19.304451
S -13.355668 -4.451204 22.274114
S -16.325330 -4.451204 25.243777
S -16.325330 -1.481541 28.213439
S -13.355668 -1.481541 25.243777
S -13.355668 -4.451204 28.213439
S -16.325330 -4.451204 31.183102
S -13.355668 -1.481541 31.183102
S -16.325330 4.457784 -31.179812
S -13.355668 1.488121 -31.179812
S -16.325330 1.488121 -28.210149
S -16.325330 4.457784 -25.240487
S -13.355668 4.457784 -28.210149
S -13.355668 1.488121 -25.240487
S -16.325330 1.488121 -22.270824
S -16.325330 4.457784 -19.301161
S -13.355668 4.457784 -22.270824
S -13.355668 1.488121 -19.301161
S -16.325330 1.488121 -16.331499
S -16.325330 4.457784 -13.361836
S -13.355668 4.457784 -16.331499
S -13.355668 1.488121 -13.361836
S -16.325330 1.488121 -10.392174
S -16.325330 4.457784 -7.422511
S -13.355668 4.457784 -10.392174
S -13.355668 1.488121 -7.422511
S -16.325330 1.488121 -4.452849
S -16.325330 4.457784 -1.483186
S -13.355668 4.457784 -4.452849
S -13.355668 1.488121 -1.483186
S -16.325330 1.488121 1.486476
S -16.325330 4.457784 4.456139
S -13.355668 4.457784 1.486476
S -13.355668 1.488121 4.456139
S -16.325330 1.488121 7.425801
S -16.325330 4.457784 10.395464
S -13.355668 4.457784 7.425801
S -13.355668 1.488121 10.395464
S -16.325330 1.488121 13.365126
S -16.325330 4.457784 16.334789
S -13.355668 4.457784 13.365126
S -13.355668 1.488121 16.334789
S -16.325330 1.488121 19.304451
S -16.325330 4.457784 22.274114
S -13.355668 4.457784 19.304451
S -13.355668 1.488121 22.274114
S -16.325330 1.488121 25.243777
S -16.325330 4.457784 28.213439
S -13.355668 4.457784 25.243777
S -13.355668 1.488121 28.213439
S -16.325330 1.488121 31.183102
S -13.355668 4.457784 31.183102
S -13.355668 7.427446 -31.179812
S -16.325330 7.427446 -28.210149
S -16.325330 10.397109 -25.240487
S -13.355668 10.397109 -28.210149
S -13.355668 7.427446 -25.240487
S -16.325330 7.427446 -22.270824
S -16.325330 10.397109 -19.301161
S -13.355668 10.397109 -22.270824
S -13.355668 7.427446 -19.301161
S -16.325330 7.427446 -16.331499
S -16.325330 10.397109 -13.361836
S -13.355668 10.397109 -16.331499
S -13.355668 7.427446 -13.361836
S -16.325330 7.427446 -10.392174
S -16.325330 10.397109 -7.422511
S -13.355668 10.397109 -10.392174
S -13.355668 7.427446 -7.422511
S -16.325330 7.427446 -4.452849
S -16.325330 10.397109 -1.483186
S -13.355668 10.397109 -4.452849
S -13.355668 7.427446 -1.483186
S -16.325330 7.427446 1.486476
S -16.325330 10.397109 4.456139
S -13.355668 10.397109 1.486476
S -13.355668 7.427446 4.456139
S -16.325330 7.427446 7.425801
S -16.325330 10.397109 10.395464
S -13.355668 10.397109 7.425801
S -13.355668 7.427446 10.395464
S -16.325330 7.427446 13.365126
S -16.325330 10.397109 16.334789
S -13.355668 10.397109 13.365126
S -13.355668 7.427446 16.334789
S -16.325330 7.427446 19.304451
S -16.325330 10.397109 22.274114
S -13.355668 10.397109 19.304451
S -13.355668 7.427446 22.274114
S -16.325330 7.427446 25.243777
S -16.325330 10.397109 28.213439
S -13.355668 10.397109 25.243777
S -13.355668 7.427446 28.213439
S -16.325330 7.427446 31.183102
S -13.355668 10.397109 31.183102
S -13.355668 13.366771 -25.240487
S -16.325330 13.366771 -22.270824
S -16.325330 16.336434 -19.301161
S -13.355668 16.336434 -22.270824
S -13.355668 13.366771 -19.301161
S -16.325330 13.366771 -16.331499
S -16.325330 16.336434 -13.361836
S -13.355668 16.336434 -16.331499
S -13.355668 13.366771 -13.361836
S -16.325330 13.366771 -10.392174
S -16.325330 16.336434 -7.422511
S -13.355668 16.336434 -10.392174
S -13.355668 13.366771 -7.422511
S -16.325330 13.366771 -4.452849
S -16.325330 16.336434 -1.483186
S -13.355668 16.336434 -4.452849
S -13.355668 13.366771 -1.483186
S -16.325330 13.366771 1.486476
S -16.325330 16.336434 4.456139
S -13.355668 16.336434 1.486476
S -13.355668 13.366771 4.456139
S -16.325330 13.366771 7.425801
S -16.325330 16.336434 10.395464
S -13.355668 16.336434 7.425801
S -13.355668 13.366771 10.395464
S -16.325330 13.366771 13.365126
S -16.325330 16.336434 16.334789
S -13.355668 16.336434 13.365126
S -13.355668 13.366771 16.334789
S -16.325330 13.366771 19.304451
S -16.325330 16.336434 22.274114
S -13.355668 16.336434 19.304451
S -13.355668 13.366771 22.274114
S -16.325330 13.366771 25.243777
S -13.355668 16.336434 25.243777
S -13.355668 13.366771 28.213439
S -13.355668 19.306097 -19.301161
S -16.325330 19.306097 -16.331499
S -16.325330 22.275759 -13.361836
S -13.355668 22.275759 -16.331499
S -13.355668 19.306097 -13.361836
S -16.325330 19.306097 -10.392174
S -16.325330 22.275759 -7.422511
S -13.355668 22.275759 -10.392174
S -13.355668 19.306097 -7.422511
S -16.325330 19.306097 -4.452849
S -16.325330 22.275759 -1.483186
S -13.355668 22.275759 -4.452849
S -13.355668 19.306097 -1.483186
S -16.325330 19.306097 1.486476
S -16.325330 22.275759 4.456139
S -13.355668 22.275759 1.486476
S -13.355668 19.306097 4.456139
S -16.325330 19.306097 7.425801
S -16.325330 22.275759 10.395464
S -13.355668 22.275759 7.425801
S -13.355668 19.306097 10.395464
S -16.325330 19.306097 13.365126
S -16.325330 22.275759 16.334789
S -13.355668 22.275759 13.365126
S -13.355668 19.306097 16.334789
S -16.325330 19.306097 19.304451
S -13.355668 22.275759 19.304451
S -13.355668 19.306097 22.274114
S -13.355668 25.245422 -13.361836
S -16.325330 25.245422 -10.392174
S -16.325330 28.215084 -7.422511
S -13.355668 28.215084 -10.392174
S -13.355668 25.245422 -7.422511
S -16.325330 25.245422 -4.452849
S -16.325330 28.215084 -1.483186
S -13.355668 28.215084 -4.452849
S -13.355668 25.245422 -1.483186
S -16.325330 25.245422 1.486476
S -16.325330 28.215084 4.456139
S -13.355668 28.215084 1.486476
S -13.355668 25.245422 4.456139
S -16.325330 25.245422 7.425801
S -16.325330 28.215084 10.395464
S -13.355668 28.215084 7.425801
S -13.355668 25.245422 10.395464
S -16.325330 25.245422 13.365126
S -13.355668 28.215084 13.365126
S -13.355668 25.245422 16.334789
S -13.355668 31.184747 -7.422511
S -16.325330 31.184747 -4.452849
S -13.355668 31.184747 -1.483186
S -16.325330 31.184747 1.486476
S -13.355668 31.184747 4.456139
S -16.325330 31.184747 7.425801
S -13.355668 31.184747 10.395464
S -10.386005 -31.178167 -13.361836
S -7.416343 -31.178167 -16.331499
S -10.386005 -31.178167 -7.422511
S -7.416343 -31.178167 -10.392174
S -10.386005 -31.178167 -1.483186
S -7.416343 -31.178167 -4.452849
S -10.386005 -31.178167 4.456139
S -7.416343 -31.178167 1.486476
S -10.386005 -31.178167 10.395464
S -7.416343 -31.178167 7.425801
S -7.416343 -31.178167 13.365126
S -10.386005 -25.238842 -19.301161
S -7.416343 -25.238842 -22.270824
S -7.416343 -28.208504 -19.301161
S -10.386005 -28.208504 -16.331499
S -10.386005 -25.238842 -13.361836
S -7.416343 -25.238842 -16.331499
S -7.416343 -28.208504 -13.361836
S -10.386005 -28.208504 -10.392174
S -10.386005 -25.238842 -7.422511
S -7.416343 -25.238842 -10.392174
S -7.416343 -28.208504 -7.422511
S -10.386005 -28.208504 -4.452849
S -10.386005 -25.238842 -1.483186
S -7.416343 -25.238842 -4.452849
S -7.416343 -28.208504 -1.483186
S -10.386005 -28.208504 1.486476
S -10.386005 -25.238842 4.456139
S -7.416343 -25.238842 1.486476
S -7.416343 -28.208504 4.456139
S -10.386005 -28.208504 7.425801
S -10.386005 -25.238842 10.395464
S -7.416343 -25.238842 7.425801
S -7.416343 -28.208504 10.395464
S -10.386005 -28.208504 13.365126
S -10.386005 -25.238842 16.334789
S -7.416343 -25.238842 13.365126
S -7.416343 -28.208504 16.334789
S -7.416343 -25.238842 19.304451
S -10.386005 -19.299516 -25.240487
S -7.416343 -19.299516 -28.210149
S -7.416343 -22.269179 -25.240487
S -10.386005 -22.269179 -22.270824
S -10.386005 -19.299516 -19.301161
S -7.416343 -19.299516 -22.270824
S -7.416343 -22.269179 -19.301161
S -10.386005 -22.269179 -16.331499
S -10.386005 -19.299516 -13.361836
S -7.416343 -19.299516 -16.331499
S -7.416343 -22.269179 -13.361836
S -10.386005 -22.269179 -10.392174
S -10.386005 -19.299516 -7.422511
S -7.416343 -19.299516 -10.392174
S -7.416343 -22.269179 -7.422511
S -10.386005 -22.269179 -4.452849
S -10.386005 -19.299516 -1.483186
S -7.416343 -19.299516 -4.452849
S -7.416343 -22.269179 -1.483186
S -10.386005 -22.269179 1.486476
S -10.386005 -19.299516 4.456139
S -7.416343 -19.299516 1.486476
S -7.416343 -22.269179 4.456139
S -10.386005 -22.269179 7.425801
S -10.386005 -19.299516 10.395464
S -7.416343 -19.299516 7.425801
S -7.416343 -22.269179 10.395464
S -10.386005 -22.269179 13.365126
S -10.386005 -19.299516 16.334789
S -7.416343 -19.299516 13.365126
S -7.416343 -22.269179 16.334789
S -10.386005 -22.269179 19.304451
S -10.386005 -19.299516 22.274114
S -7.416343 -19.299516 19.304451
S -7.416343 -22.269179 22.274114
S -7.416343 -19.299516 25.243777
S -10.386005 -13.360191 -31.179812
S -7.416343 -16.329854 -31.179812
S -10.386005 -16.329854 -28.210149
S -10.386005 -13.360191 -25.240487
S -7.416343 -13.360191 -28.210149
S -7.416343 -16.329854 -25.240487
S -10.386005 -16.329854 -22.270824
S -10.386005 -13.360191 -19.301161
S -7.416343 -13.360191 -22.270824
S -7.416343 -16.329854 -19.301161
S -10.386005 -16.329854 -16.331499
S -10.386005 -13.360191 -13.361836
S -7.416343 -13.360191 -16.331499
S -7.416343 -16.329854 -13.361836
S -10.386005 -16.329854 -10.392174
S -10.386005 -13.360191 -7.422511
S -7.416343 -13.360191 -10.392174
S -7.416343 -16.329854 -7.422511
S -10.386005 -16.329854 -4.452849
S -10.386005 -13.360191 -1.483186
S -7.416343 -13.360191 -4.452849
S -7.416343 -16.329854 -1.483186
S -10.386005 -16.329854 1.486476
S -10.386005 -13.360191 4.456139
S -7.416343 -13.360191 1.486476
S -7.416343 -16.329854 4.456139
S -10.386005 -16.329854 7.425801
S -10.386005 -13.360191 10.395464
S -7.416343 -13.360191 7.425801
S -7.416343 -16.329854 10.395464
S -10.386005 -16.329854 13.365126
S -10.386005 -13.360191 16.334789
S -7.416343 -13.360191 13.365126
S -7.416343 -16.329854 16.334789
S -10.386005 -16.329854 19.304451
S -10.386005 -13.360191 22.274114
S -7.416343 -13.360191 19.304451
S -7.416343 -16.329854 22.274114
S -10.386005 -16.329854 25.243777
S -10.386005 -13.360191 28.213439
S -7.416343 -13.360191 25.243777
S -7.416343 -16.329854 28.213439
S -7.416343 -13.360191 31.183102
S -10.386005 -7.420866 -31.179812
S -7.416343 -10.390529 -31.179812
S -10.386005 -10.390529 -28.210149
S -10.386005 -7.420866 -25.240487
S -7.416343 -7.420866 -28.210149
S -7.416343 -10.390529 -25.240487
S -10.386005 -10.390529 -22.270824
S -10.386005 -7.420866 -19.301161
S -7.416343 -7.420866 -22.270824
S -7.416343 -10.390529 -19.301161
S -10.386005 -10.390529 -16.331499
S -10.386005 -7.420866 -13.361836
S -7.416343 -7.420866 -16.331499
S -7.416343 -10.390529 -13.361836
S -10.386005 -10.390529 -10.392174
S -10.386005 -7.420866 -7.422511
S -7.416343 -7.420866 -10.392174
S -7.416343 -10.390529 -7.422511
S -10.386005 -10.390529 -4.452849
S -10.386005 -7.420866 -1.483186
S -7.416343 -7.420866 -4.452849
S -7.416343 -10.390529 -1.483186
S -10.386005 -10.390529 1.486476
S -10.386005 -7.420866 4.456139
S -7.416343 -7.420866 1.486476
S -7.416343 -10.390529 4.456139
S -10.386005 -10.390529 7.425801
S -10.386005 -7.420866 10.395464
S -7.416343 -7.420866 7.425801
S -7.416343 -10.390529 10.395464
S -10.386005 -10.390529 13.365126
S -10.386005 -7.420866 16.334789
S -7.416343 -7.420866 13.365126
S -7.416343 -10.390529 16.334789
S -10.386005 -10.390529 19.304451
S -10.386005 -7.420866 22.274114
S -7.416343 -7.420866 19.304451
S -7.416343 -10.390529 22.274114
S -10.386005 -10.390529 25.243777
S -10.386005 -7.420866 28.213439
S -7.416343 -7.420866 25.243777
S -7.416343 -10.390529 28.213439
S -10.386005 -10.390529 31.183102
S -7.416343 -7.420866 31.183102
S -10.386005 -1.481541 -31.179812
S -7.416343 -4.451204 -31.179812
S -10.386005 -4.451204 -28.210149
S -10.386005 -1.481541 -25.240487
S -7.416343 -1.481541 -28.210149
S -7.416343 -4.451204 -25.240487
S -10.386005 -4.451204 -22.270824
S -10.386005 -1.481541 -19.301161
S -7.416343 -1.481541 -22.270824
S -7.416343 -4.451204 -19.301161
S -10.386005 -4.451204 -16.331499
S -10.386005 -1.481541 -13.361836
S -7.416343 -1.481541 -16.331499
S -7.416343 -4.451204 -13.361836
S -10.386005 -4.451204 -10.392174
S -10.386005 -1.481541 -7.422511
S -7.416343 -1.481541 -10.392174
S -7.416343 -4.451204 -7.422511
S -10.386005 -4.451204 -4.452849
S -10.386005 -1.481541 -1.483186
S -7.416343 -1.481541 -4.452849
S -7.416343 -4.451204 -1.483186
S -10.386005 -4.451204 1.486476
S -10.386005 -1.481541 4.456139
S -7.416343 -1.481541 1.486476
S -7.416343 -4.451204 4.456139
S -10.386005 -4.451204 7.425801
S -10.386005 -1.481541 10.395464
S -7.416343 -1.481541 7.425801
S -7.416343 -4.451204 10.395464
S -10.386005 -4.451204 13.365126
S -10.386005 -1.481541 16.334789
S -7.416343 -1.481541 13.365126
S -7.416343 -4.451204 16.334789
S -10.386005 -4.451204 19.304451
S -10.386005 -1.481541 22.274114
S -7.416343 -1.481541 19.304451
S -7.416343 -4.451204 22.274114
S -10.386005 -4.451204 25.243777
S -10.386005 -1.481541 28.213439
S -7.416343 -1.481541 25.243777
S -7.416343 -4.451204 28.213439
S -10.386005 -4.451204 31.183102
S -7.416343 -1.481541 31.183102
S -10.386005 4.457784 -31.179812
S -7.416343 1.488121 -31.179812
S -10.386005 1.488121 -28.210149
S -10.386005 4.457784 -25.240487
S -7.416343 4.457784 -28.210149
S -7.416343 1.488121 -25.240487
S -10.386005 1.488121 -22.270824
S -10.386005 4.457784 -19.301161
S -7.416343 4.457784 -22.270824
S -7.416343 1.488121 -19.301161
S -10.386005 1.488121 -16.331499
S -10.386005 4.457784 -13.361836
S -7.416343 4.457784 -16.331499
S -7.416343 1.488121 -13.361836
S -10.386005 1.488121 -10.392174
S -10.386005 4.457784 -7.422511
S -7.416343 4.457784 -10.392174
S -7.416343 1.488121 -7.422511
S -10.386005 1.488121 -4.452849
S -10.386005 4.457784 -1.483186
S -7.416343 4.457784 -4.452849
S -7.416343 1.488121 -1.483186
S -10.386005 1.488121 1.486476
S -10.386005 4.457784 4.456139
S -7.416343 4.457784 1.486476
S -7.416343 1.488121 4.456139
S -10.386005 1.488121 7.425801
S -10.386005 4.457784 10.395464
S -7.416343 4.457784 7.425801
S -7.416343 1.488121 10.395464
S -10.386005 1.488121 13.365126
S -10.386005 4.457784 16.334789
S -7.416343 4.457784 13.365126
S -7.416343 1.488121 16.334789
S -10.386005 1.488121 19.304451
S -10.386005 4.457784 22.274114
S -7.416343 4.457784 19.304451
S -7.416343 1.488121 22.274114
S -10.386005 1.488121 25.243777
S -10.386005 4.457784 28.213439
S -7.416343 4.457784 25.243777
S -7.416343 1.488121 28.213439
S -10.386005 1.488121 31.183102
S -7.416343 4.457784 31.183102
S -10.386005 10.397109 -31.179812
S -7.416343 7.427446 -31.179812
S -10.386005 7.427446 -28.210149
S -10.386005 10.397109 -25.240487
S -7.416343 10.397109 -28.210149
S -7.416343 7.427446 -25.240487
S -10.386005 7.427446 -22.270824
S -10.386005 10.397109 -19.301161
S -7.416343 10.397109 -22.270824
S -7.416343 7.427446 -19.301161
S -10.386005 7.427446 -16.331499
S -10.386005 10.397109 -13.361836
S -7.416343 10.397109 -16.331499
S -7.416343 7.427446 -13.361836
S -10.386005 7.427446 -10.392174
S -10.386005 10.397109 -7.422511
S -7.416343 10.397109 -10.392174
S -7.416343 7.427446 -7.422511
S -10.386005 7.427446 -4.452849
S -10.386005 10.397109 -1.483186
S -7.416343 10.397109 -4.452849
S -7.416343 7.427446 -1.483186
S -10.386005 7.427446 1.486476
S -10.386005 10.397109 4.456139
S -7.416343 10.397109 1.486476
S -7.416343 7.427446 4.456139
S -10.386005 7.427446 7.425801
S -10.386005 10.397109 10.395464
S -7.416343 10.397109 7.425801
S -7.416343 7.427446 10.395464
S -10.386005 7.427446 13.365126
S -10.386005 10.397109 16.334789
S -7.416343 10.397109 13.365126
S -7.416343 7.427446 16.334789
S -10.386005 7.427446 19.304451
S -10.386005 10.397109 22.274114
S -7.416343 10.397109 19.304451
S -7.416343 7.427446 22.274114
S -10.386005 7.427446 25.243777
S -10.386005 10.397109 28.213439
S -7.416343 10.397109 25.243777
S -7.416343 7.427446 28.213439
S -10.386005 7.427446 31.183102
S -7.416343 10.397109 31.183102
S -7.416343 13.366771 -31.179812
S -10.386005 13.366771 -28.210149
S -10.386005 16.336434 -25.240487
S -7.416343 16.336434 -28.210149
S -7.416343 13.366771 -25.240487
S -10.386005 13.366771 -22.270824
S -10.386005 16.336434 -19.301161
S -7.416343 16.336434 -22.270824
S -7.416343 13.366771 -19.301161
S -10.386005 13.366771 -16.331499
S -10.386005 16.336434 -13.361836
S -7.416343 16.336434 -16.331499
S -7.416343 13.366771 -13.361836
S -10.386005 13.366771 -10.392174
S -10.386005 16.336434 -7.422511
S -7.416343 16.336434 -10.392174
S -7.416343 13.366771 -7.422511
S -10.386005 13.366771 -4.452849
S -10.386005 16.336434 -1.483186
S -7.416343 16.336434 -4.452849
S -7.416343 13.366771 -1.483186
S -10.386005 13.366771 1.486476
S -10.386005 16.336434 4.456139
S -7.416343 16.336434 1.486476
S -7.416343 13.366771 4.456139
S -10.386005 13.366771 7.425801
S -10.386005 16.336434 10.395464
S -7.416343 16.336434 7.425801
S -7.416343 13.366771 10.395464
S -10.386005 13.366771 13.365126
S -10.386005 16.336434 16.334789
S -7.416343 16.336434 13.365126
S -7.416343 13.366771 16.334789
S -10.386005 13.366771 19.304451
S -10.386005 16.336434 22.274114
S -7.416343 16.336434 19.304451
S -7.416343 13.366771 22.274114
S -10.386005 13.366771 25.243777
S -10.386005 16.336434 28.213439
S -7.416343 16.336434 25.243777
S -7.416343 13.366771 28.213439
S -10.386005 13.366771 31.183102
S -7.416343 16.336434 31.183102
S -7.416343 19.306097 -25.240487
S -10.386005 19.306097 -22.270824
S -10.386005 22.275759 -19.301161
S -7.416343 22.275759 -22.270824
S -7.416343 19.306097 -19.301161
S -10.386005 19.306097 -16.331499
S -10.386005 22.275759 -13.361836
S -7.416343 22.275759 -16.331499
S -7.416343 19.306097 -13.361836
S -10.386005 19.306097 -10.392174
S -10.386005 22.275759 -7.422511
S -7.416343 22.275759 -10.392174
S -7.416343 19.306097 -7.422511
S -10.386005 19.306097 -4.452849
S -10.386005 22.275759 -1.483186
S -7.416343 22.275759 -4.452849
S -7.416343 19.306097 -1.483186
S -10.386005 19.306097 1.486476
S -10.386005 22.275759 4.456139
S -7.416343 22.275759 1.486476
S -7.416343 19.306097 4.456139
S -10.386005 19.306097 7.425801
S -10.386005 22.275759 10.395464
S -7.416343 22.275759 7.425801
S -7.416343 19.306097 10.395464
S -10.386005 19.306097 13.365126
S -10.386005 22.275759 16.334789
S -7.416343 22.275759 13.365126
S -7.416343 19.306097 16.334789
S -10.386005 19.306097 19.304451
S -10.386005 22.275759 22.274114
S -7.416343 22.275759 19.304451
S -7.416343 19.306097 22.274114
S -10.386005 19.306097 25.243777
S -7.416343 22.275759 25.243777
S -7.416343 19.306097 28.213439
S -7.416343 25.245422 -19.301161
S -10.386005 25.245422 -16.331499
S -10.386005 28.215084 -13.361836
S -7.416343 28.215084 -16.331499
S -7.416343 25.245422 -13.361836
S -10.386005 25.245422 -10.392174
S -10.386005 28.215084 -7.422511
S -7.416343 28.215084 -10.392174
S -7.416343 25.245422 -7.422511
S -10.386005 25.245422 -4.452849
S -10.386005 28.215084 -1.483186
S -7.416343 28.215084 -4.452849
S -7.416343 25.245422 -1.483186
S -10.386005 25.245422 1.486476
S -10.386005 28.215084 4.456139
S -7.416343 28.215084 1.486476
S -7.416343 25.245422 4.456139
S -10.386005 25.245422 7.425801
S -10.386005 28.215084 10.395464
S -7.416343 28.215084 7.425801
S -7.416343 25.245422 10.395464
S -10.386005 25.245422 13.365126
S -10.386005 28.215084 16.334789
S -7.416343 28.215084 13.365126
S -7.416343 25.245422 16.334789
S -10.386005 25.245422 19.304451
S -7.416343 28.215084 19.304451
S -7.416343 25.245422 22.274114
S -7.416343 31.184747 -13.361836
S -10.386005 31.184747 -10.392174
S -7.416343 31.184747 -7.422511
S -10.386005 31.184747 -4.452849
S -7.416343 31.184747 -1.483186
S -10.386005 31.184747 1.486476
S -7.416343 31.184747 4.456139
S -10.386005 31.184747 7.425801
S -7.416343 31.184747 10.395464
S -10.386005 31.184747 13.365126
S -7.416343 31.184747 16.334789
S -4.446680 -31.178167 -13.361836
S -1.477017 -31.178167 -16.331499
S -4.446680 -31.178167 -7.422511
S -1.477017 -31.178167 -10.392174
S -4.446680 -31.178167 -1.483186
S -1.477017 -31.178167 -4.452849
S -4.446680 -31.178167 4.456139
S -1.477017 -31.178167 1.486476
S -4.446680 -31.178167 10.395464
S -1.477017 -31.178167 7.425801
S -4.446680 -31.178167 16.334789
S -1.477017 -31.178167 13.365126
S -4.446680 -25.238842 -19.301161
S -1.477017 -25.238842 -22.270824
S -1.477017 -28.208504 -19.301161
S -4.446680 -28.208504 -16.331499
S -4.446680 -25.238842 -13.361836
S -1.477017 -25.238842 -16.331499
S -1.477017 -28.208504 -13.361836
S -4.446680 -28.208504 -10.392174
S -4.446680 -25.238842 -7.422511
S -1.477017 -25.238842 -10.392174
S -1.477017 -28.208504 -7.422511
S -4.446680 -28.208504 -4.452849
S -4.446680 -25.238842 -1.483186
S -1.477017 -25.238842 -4.452849
S -1.477017 -28.208504 -1.483186
S -4.446680 -28.208504 1.486476
S -4.446680 -25.238842 4.456139
S -1.477017 -25.238842 1.486476
S -1.477017 -28.208504 4.456139
S -4.446680 -28.208504 7.425801
S -4.446680 -25.238842 10.395464
S -1.477017 -25.238842 7.425801
S -1.477017 -28.208504 10.395464
S -4.446680 -28.208504 13.365126
S -4.446680 -25.238842 16.334789
S -1.477017 -25.238842 13.365126
S -1.477017 -28.208504 16.334789
S -4.446680 -28.208504 19.304451
S -4.446680 -25.238842 22.274114
S -1.477017 -25.238842 19.304451
S -4.446680 -19.299516 -25.240487
S -1.477017 -19.299516 -28.210149
S -1.477017 -22.269179 -25.240487
S -4.446680 -22.269179 -22.270824
S -4.446680 -19.299516 -19.301161
S -1.477017 -19.299516 -22.270824
S -1.477017 -22.269179 -19.301161
S -4.446680 -22.269179 -16.331499
S -4.446680 -19.299516 -13.361836
S -1.477017 -19.299516 -16.331499
S -1.477017 -22.269179 -13.361836
S -4.446680 -22.269179 -10.392174
S -4.446680 -19.299516 -7.422511
S -1.477017 -19.299516 -10.392174
S -1.477017 -22.269179 -7.422511
S -4.446680 -22.269179 -4.452849
S -4.446680 -19.299516 -1.483186
S -1.477017 -19.299516 -4.452849
S -1.477017 -22.269179 -1.483186
S -4.446680 -22.269179 1.486476
S -4.446680 -19.299516 4.456139
S -1.477017 -19.299516 1.486476
S -1.477017 -22.269179 4.456139
S -4.446680 -22.269179 7.425801
S -4.446680 -19.299516 10.395464
S -1.477017 -19.299516 7.425801
S -1.477017 -22.269179 10.395464
S -4.446680 -22.269179 13.365126
S -4.446680 -19.299516 16.334789
S -1.477017 -19.299516 13.365126
S -1.477017 -22.269179 16.334789
S -4.446680 -22.269179 19.304451
S -4.446680 -19.299516 22.274114
S -1.477017 -19.299516 19.304451
S -1.477017 -22.269179 22.274114
S -4.446680 -22.269179 25.243777
S -4.446680 -19.299516 28.213439
S -1.477017 -19.299516 25.243777
S -4.446680 -13.360191 -31.179812
S -1.477017 -16.329854 -31.179812
S -4.446680 -16.329854 -28.210149
S -4.446680 -13.360191 -25.240487
S -1.477017 -13.360191 -28.210149
S -1.477017 -16.329854 -25.240487
S -4.446680 -16.329854 -22.270824
S -4.446680 -13.360191 -19.301161
S -1.477017 -13.360191 -22.270824
S -1.477017 -16.329854 -19.301161
S -4.446680 -16.329854 -16.331499
S -4.446680 -13.360191 -13.361836
S -1.477017 -13.360191 -16.331499
S -1.477017 -16.329854 -13.361836
S -4.446680 -16.329854 -10.392174
S -4.446680 -13.360191 -7.422511
S -1.477017 -13.360191 -10.392174
S -1.477017 -16.329854 -7.422511
S -4.446680 -16.329854 -4.452849
S -4.446680 -13.360191 -1.483186
S -1.477017 -13.360191 -4.452849
S -1.477017 -16.329854 -1.483186
S -4.446680 -16.329854 1.486476
S -4.446680 -13.360191 4.456139
S -1.477017 -13.360191 1.486476
S -1.477017 -16.329854 4.456139
S -4.446680 -16.329854 7.425801
S -4.446680 -13.360191 10.395464
S -1.477017 -13.360191 7.425801
S -1.477017 -16.329854 10.395464
S -4.446680 -16.329854 13.365126
S -4.446680 -13.360191 16.334789
S -1.477017 -13.360191 13.365126
S -1.477017 -16.329854 16.334789
S -4.446680 -16.329854 19.304451
S -4.446680 -13.360191 22.274114
S -1.477017 -13.360191 19.304451
S -1.477017 -16.329854 22.274114
S -4.446680 -16.329854 25.243777
S -4.446680 -13.360191 28.213439
S -1.477017 -13.360191 25.243777
S -1.477017 -16.329854 28.213439
S -4.446680 -16.329854 31.183102
S -1.477017 -13.360191 31.183102
S -4.446680 -7.420866 -31.179812
S -1.477017 -10.390529 -31.179812
S -4.446680 -10.390529 -28.210149
S -4.446680 -7.420866 -25.240487
S -1.477017 -7.420866 -28.210149
S -1.477017 -10.390529 -25.240487
S -4.446680 -10.390529 -22.270824
S -4.446680 -7.420866 -19.301161
S -1.477017 -7.420866 -22.270824
S -1.477017 -10.390529 -19.301161
S -4.446680 -10.390529 -16.331499
S -4.446680 -7.420866 -13.361836
S -1.477017 -7.420866 -16.331499
S -1.477017 -10.390529 -13.361836
S -4.446680 -10.390529 -10.392174
S -4.446680 -7.420866 -7.422511
S -1.477017 -7.420866 -10.392174
S -1.477017 -10.390529 -7.422511
S -4.446680 -10.390529 -4.452849
S -4.446680 -7.420866 -1.483186
S -1.477017 -7.420866 -4.452849
S -1.477017 -10.390529 -1.483186
S -4.446680 -10.390529 1.486476
S -4.446680 -7.420866 4.456139
S -1.477017 -7.420866 1.486476
S -1.477017 -10.390529 4.456139
S -4.446680 -10.390529 7.425801
S -4.446680 -7.420866 10.395464
S -1.477017 -7.420866 7.425801
S -1.477017 -10.390529 10.395464
S -4.446680 -10.390529 13.365126
S -4.446680 -7.420866 16.334789
S -1.477017 -7.420866 13.365126
S -1.477017 -10.390529 16.334789
S -4.446680 -10.390529 19.304451
S -4.446680 -7.420866 22.274114
S -1.477017 -7.420866 19.304451
S -1.477017 -10.390529 22.274114
S -4.446680 -10.390529 25.243777
S -4.446680 -7.420866 28.213439
S -1.477017 -7.420866 25.243777
S -1.477017 -10.390529 28.213439
S -4.446680 -10.390529 31.183102
S -1.477017 -7.420866 31.183102
S -4.446680 -1.481541 -31.179812
S -1.477017 -4.451204 -31.179812
S -4.446680 -4.451204 -28.210149
S -4.446680 -1.481541 -25.240487
S -1.477017 -1.481541 -28.210149
S -1.477017 -4.451204 -25.240487
S -4.446680 -4.451204 -22.270824
S -4.446680 -1.481541 -19.301161
S -1.477017 -1.481541 -22.270824
S -1.477017 -4.451204 -19.301161
S -4.446680 -4.451204 -16.331499
S -4.446680 -1.481541 -13.361836
S -1.477017 -1.481541 -16.331499
S -1.477017 -4.451204 -13.361836
S -4.446680 -4.451204 -10.392174
S -4.446680 -1.481541 -7.422511
S -1.477017 -1.481541 -10.392174
S -1.477017 -4.451204 -7.422511
S -4.446680 -4.451204 -4.452849
S -4.446680 -1.481541 -1.483186
S -1.477017 -1.481541 -4.452849
S -1.477017 -4.451204 -1.483186
S -4.446680 -4.451204 1.486476
S -4.446680 -1.481541 4.456139
S -1.477017 -1.481541 1.486476
S -1.477017 -4.451204 4.456139
S -4.446680 -4.451204 7.425801
S -4.446680 -1.481541 10.395464
S -1.477017 -1.481541 7.425801
S -1.477017 -4.451204 10.395464
S -4.446680 -4.451204 13.365126
S -4.446680 -1.481541 16.334789
S -1.477017 -1.481541 13.365126
S -1.477017 -4.451204 16.334789
S -4.446680 -4.451204 19.304451
S -4.446680 -1.481541 22.274114
S -1.477017 -1.481541 19.304451
S -1.477017 -4.451204 22.274114
S -4.446680 -4.451204 25.243777
S -4.446680 -1.481541 28.213439
S -1.477017 -1.481541 25.243777
S -1.477017 -4.451204 28.213439
S -4.446680 -4.451204 31.183102
S -1.477017 -1.481541 31.183102
S -4.446680 4.457784 -31.179812
S -1.477017 1.488121 -31.179812
S -4.446680 1.488121 -28.210149
S -4.446680 4.457784 -25.240487
S -1.477017 4.457784 -28.210149
S -1.477017 1.488121 -25.240487
S -4.446680 1.488121 -22.270824
S -4.446680 4.457784 -19.301161
S -1.477017 4.457784 -22.270824
S -1.477017 1.488121 -19.301161
S -4.446680 1.488121 -16.331499
S -4.446680 4.457784 -13.361836
S -1.477017 4.457784 -16.331499
S -1.477017 1.488121 -13.361836
S -4.446680 1.488121 -10.392174
S -4.446680 4.457784 -7.422511
S -1.477017 4.457784 -10.392174
S -1.477017 1.488121 -7.422511
S -4.446680 1.488121 -4.452849
S -4.446680 4.457784 -1.483186
S -1.477017 4.457784 -4.452849
S -1.477017 1.488121 -1.483186
S -4.446680 1.488121 1.486476
S -4.446680 4.457784 4.456139
S -1.477017 4.457784 1.486476
S -1.477017 1.488121 4.456139
S -4.446680 1.488121 7.425801
S -4.446680 4.457784 10.395464
S -1.477017 4.457784 7.425801
S -1.477017 1.488121 10.395464
S -4.446680 1.488121 13.365126
S -4.446680 4.457784 16.334789
S -1.477017 4.457784 13.365126
S -1.477017 1.488121 16.334789
S -4.446680 1.488121 19.304451
S -4.446680 4.457784 22.274114
S -1.477017 4.457784 19.304451
S -1.477017 1.488121 22.274114
S -4.446680 1.488121 25.243777
S -4.446680 4.457784 28.213439
S -1.477017 4.457784 25.243777
S -1.477017 1.488121 28.213439
S -4.446680 1.488121 31.183102
S -1.477017 4.457784 31.183102
S -4.446680 10.397109 -31.179812
S -1.477017 7.427446 -31.179812
S -4.446680 7.427446 -28.210149
S -4.446680 10.397109 -25.240487
S -1.477017 10.397109 -28.210149
S -1.477017 7.427446 -25.240487
S -4.446680 7.427446 -22.270824
S -4.446680 10.397109 -19.301161
S -1.477017 10.397109 -22.270824
S -1.477017 7.427446 -19.301161
S -4.446680 7.427446 -16.331499
S -4.446680 10.397109 -13.361836
S -1.477017 10.397109 -16.331499
S -1.477017 7.427446 -13.361836
S -4.446680 7.427446 -10.392174
S -4.446680 10.397109 -7.422511
S -1.477017 10.397109 -10.392174
S -1.477017 7.427446 -7.422511
S -4.446680 7.427446 -4.452849
S -4.446680 10.397109 -1.483186
S -1.477017 10.397109 -4.452849
S -1.477017 7.427446 -1.483186
S -4.446680 7.427446 1.486476
S -4.446680 10.397109 4.456139
S -1.477017 10.397109 1.486476
S -1.477017 7.427446 4.456139
S -4.446680 7.427446 7.425801
S -4.446680 10.397109 10.395464
S -1.477017 10.397109 7.425801
S -1.477017 7.427446 10.395464
S -4.446680 7.427446 13.365126
S -4.446680 10.397109 16.334789
S -1.477017 10.397109 13.365126
S -1.477017 7.427446 16.334789
S -4.446680 7.427446 19.304451
S -4.446680 10.397109 22.274114
S -1.477017 10.397109 19.304451
S -1.477017 7.427446 22.274114
S -4.446680 7.427446 25.243777
S -4.446680 10.397109 28.213439
S -1.477017 10.397109 25.243777
S -1.477017 7.427446 28.213439
S -4.446680 7.427446 31.183102
S -1.477017 10.397109 31.183102
S -4.446680 16.336434 -31.179812
S -1.477017 13.366771 -31.179812
S -4.446680 13.366771 -28.210149
S -4.446680 16.336434 -25.240487
S -1.477017 16.336434 -28.210149
S -1.477017 13.366771 -25.240487
S -4.446680 13.366771 -22.270824
S -4.446680 16.336434 -19.301161
S -1.477017 16.336434 -22.270824
S -1.477017 13.366771 -19.301161
S -4.446680 13.366771 -16.331499
S -4.446680 16.336434 -13.361836
S -1.477017 16.336434 -16.331499
S -1.477017 13.366771 -13.361836
S -4.446680 13.366771 -10.392174
S -4.446680 16.336434 -7.422511
S -1.477017 16.336434 -10.392174
S -1.477017 13.366771 -7.422511
S -4.446680 13.366771 -4.452849
S -4.446680 16.336434 -1.483186
S -1.477017 16.336434 -4.452849
S -1.477017 13.366771 -1.483186
S -4.446680 13.366771 1.486476
S -4.446680 16.336434 4.456139
S -1.477017 16.336434 1.486476
S -1.477017 13.366771 4.456139
S -4.446680 13.366771 7.425801
S -4.446680 16.336434 10.395464
S -1.477017 16.336434 7.425801
S -1.477017 13.366771 10.395464
S -4.446680 13.366771 13.365126
S -4.446680 16.336434 16.334789
S -1.477017 16.336434 13.365126
S -1.477017 13.366771 16.334789
S -4.446680 13.366771 19.304451
S -4.446680 16.336434 22.274114
S -1.477017 16.336434 19.304451
S -1.477017 13.366771 22.274114
S -4.446680 13.366771 25.243777
S -4.446680 16.336434 28.213439
S -1.477017 16.336434 25.243777
S -1.477017 13.366771 28.213439
S -4.446680 13.366771 31.183102
S -1.477017 16.336434 31.183102
S -4.446680 19.306097 -28.210149
S -4.446680 22.275759 -25.240487
S -1.477017 19.306097 -25.240487
S -4.446680 19.306097 -22.270824
S -4.446680 22.275759 -19.301161
S -1.477017 22.275759 -22.270824
S -1.477017 19.306097 -19.301161
S -4.446680 19.306097 -16.331499
S -4.446680 22.275759 -13.361836
S -1.477017 22.275759 -16.331499
S -1.477017 19.306097 -13.361836
S -4.446680 19.306097 -10.392174
S -4.446680 22.275759 -7.422511
S -1.477017 22.275759 -10.392174
S -1.477017 19.306097 -7.422511
S -4.446680 19.306097 -4.452849
S -4.446680 22.275759 -1.483186
S -1.477017 22.275759 -4.452849
S -1.477017 19.306097 -1.483186
S -4.446680 19.306097 1.486476
S -4.446680 22.275759 4.456139
S -1.477017 22.275759 1.486476
S -1.477017 19.306097 4.456139
S -4.446680 19.306097 7.425801
S -4.446680 22.275759 10.395464
S -1.477017 22.275759 7.425801
S -1.477017 19.306097 10.395464
S -4.446680 19.306097 13.365126
S -4.446680 22.275759 16.334789
S -1.477017 22.275759 13.365126
S -1.477017 19.306097 16.334789
S -4.446680 19.306097 19.304451
S -4.446680 22.275759 22.274114
S -1.477017 22.275759 19.304451
S -1.477017 19.306097 22.274114
S -4.446680 19.306097 25.243777
S -1.477017 22.275759 25.243777
S -1.477017 19.306097 28.213439
S -4.446680 25.245422 -22.270824
S -4.446680 28.215084 -19.301161
S -1.477017 25.245422 -19.301161
S -4.446680 25.245422 -16.331499
S -4.446680 28.215084 -13.361836
S -1.477017 28.215084 -16.331499
S -1.477017 25.245422 -13.361836
S -4.446680 25.245422 -10.392174
S -4.446680 28.215084 -7.422511
S -1.477017 28.215084 -10.392174
S -1.477017 25.245422 -7.422511
S -4.446680 25.245422 -4.452849
S -4.446680 28.215084 -1.483186
S -1.477017 28.215084 -4.452849
S -1.477017 25.245422 -1.483186
S -4.446680 25.245422 1.486476
S -4.446680 28.215084 4.456139
S -1.477017 28.215084 1.486476
S -1.477017 25.245422 4.456139
S -4.446680 25.245422 7.425801
S -4.446680 28.215084 10.395464
S -1.477017 28.215084 7.425801
S -1.477017 25.245422 10.395464
S -4.446680 25.245422 13.365126
S -4.446680 28.215084 16.334789
S -1.477017 28.215084 13.365126
S -1.477017 25.245422 16.334789
S -4.446680 25.245422 19.304451
S -1.477017 28.215084 19.304451
S -1.477017 25.245422 22.274114
S -4.446680 31.184747 -16.331499
S -1.477017 31.184747 -13.361836
S -4.446680 31.184747 -10.392174
S -1.477017 31.184747 -7.422511
S -4.446680 31.184747 -4.452849
S -1.477017 31.184747 -1.483186
S -4.446680 31.184747 1.486476
S -1.477017 31.184747 4.456139
S -4.446680 31.184747 7.425801
S -1.477017 31.184747 10.395464
S -4.446680 31.184747 13.365126
S -1.477017 31.184747 16.334789
S 1.492645 -31.178167 -13.361836
S 4.462308 -31.178167 -16.331499
S 1.492645 -31.178167 -7.422511
S 4.462308 -31.178167 -10.392174
S 1.492645 -31.178167 -1.483186
S 4.462308 -31.178167 -4.452849
S 1.492645 -31.178167 4.456139
S 4.462308 -31.178167 1.486476
S 1.492645 -31.178167 10.395464
S 4.462308 -31.178167 7.425801
S 1.492645 -31.178167 16.334789
S 4.462308 -31.178167 13.365126
S 1.492645 -25.238842 -19.301161
S 4.462308 -25.238842 -22.270824
S 4.462308 -28.208504 -19.301161
S 1.492645 -28.208504 -16.331499
S 1.492645 -25.238842 -13.361836
S 4.462308 -25.238842 -16.331499
S 4.462308 -28.208504 -13.361836
S 1.492645 -28.208504 -10.392174
S 1.492645 -25.238842 -7.422511
S 4.462308 -25.238842 -10.392174
S 4.462308 -28.208504 -7.422511
S 1.492645 -28.208504 -4.452849
S 1.492645 -25.238842 -1.483186
S 4.462308 -25.238842 -4.452849
S 4.462308 -28.208504 -1.483186
S 1.492645 -28.208504 1.486476
S 1.492645 -25.238842 4.456139
S 4.462308 -25.238842 1.486476
S 4.462308 -28.208504 4.456139
S 1.492645 -28.208504 7.425801
S 1.492645 -25.238842 10.395464
S 4.462308 -25.238842 7.425801
S 4.462308 -28.208504 10.395464
S 1.492645 -28.208504 13.365126
S 1.492645 -25.238842 16.334789
S 4.462308 -25.238842 13.365126
S 4.462308 -28.208504 16.334789
S 1.492645 -28.208504 19.304451
S 1.492645 -25.238842 22.274114
S 4.462308 -25.238842 19.304451
S 1.492645 -19.299516 -25.240487
S 4.462308 -19.299516 -28.210149
S 4.462308 -22.269179 -25.240487
S 1.492645 -22.269179 -22.270824
S 1.492645 -19.299516 -19.301161
S 4.462308 -19.299516 -22.270824
S 4.462308 -22.269179 -19.301161
S 1.492645 -22.269179 -16.331499
S 1.492645 -19.299516 -13.361836
S 4.462308 -19.299516 -16.331499
S 4.462308 -22.269179 -13.361836
S 1.492645 -22.269179 -10.392174
S 1.492645 -19.299516 -7.422511
S 4.462308 -19.299516 -10.392174
S 4.462308 -22.269179 -7.422511
S 1.492645 -22.269179 -4.452849
S 1.492645 -19.299516 -1.483186
S 4.462308 -19.299516 -4.452849
S 4.462308 -22.269179 -1.483186
S 1.492645 -22.269179 1.486476
S 1.492645 -19.299516 4.456139
S 4.462308 -19.299516 1.486476
S 4.462308 -22.269179 4.456139
S 1.492645 -22.269179 7.425801
S 1.492645 -19.299516 10.395464
S 4.462308 -19.299516 7.425801
S 4.462308 -22.269179 10.395464
S 1.492645 -22.269179 13.365126
S 1.492645 -19.299516 16.334789
S 4.462308 -19.299516 13.365126
S 4.462308 -22.269179 16.334789
S 1.492645 -22.269179 19.304451
S 1.492645 -19.299516 22.274114
S 4.462308 -19.299516 19.304451
S 4.462308 -22.269179 22.274114
S 1.492645 -22.269179 25.243777
S 1.492645 -19.299516 28.213439
S 4.462308 -19.299516 25.243777
S 1.492645 -13.360191 -31.179812
S 4.462308 -16.329854 -31.179812
S 1.492645 -16.329854 -28.210149
S 1.492645 -13.360191 -25.240487
S 4.462308 -13.360191 -28.210149
S 4.462308 -16.329854 -25.240487
S 1.492645 -16.329854 -22.270824
S 1.492645 -13.360191 -19.301161
S 4.462308 -13.360191 -22.270824
S 4.462308 -16.329854 -19.301161
S 1.492645 -16.329854 -16.331499
S 1.492645 -13.360191 -13.361836
S 4.462308 -13.360191 -16.331499
S 4.462308 -16.329854 -13.361836
S 1.492645 -16.329854 -10.392174
S 1.492645 -13.360191 -7.422511
S 4.462308 -13.360191 -10.392174
S 4.462308 -16.329854 -7.422511
S 1.492645 -16.329854 -4.452849
S 1.492645 -13.360191 -1.483186
S 4.462308 -13.360191 -4.452849
S 4.462308 -16.329854 -1.483186
S 1.492645 -16.329854 1.486476
S 1.492645 -13.360191 4.456139
S 4.462308 -13.360191 1.486476
S 4.462308 -16.329854 4.456139
S 1.492645 -16.329854 7.425801
S 1.492645 -13.360191 10.395464
S 4.462308 -13.360191 7.425801
S 4.462308 -16.329854 10.395464
S 1.492645 -16.329854 13.365126
S 1.492645 -13.360191 16.334789
S 4.462308 -13.360191 13.365126
S 4.462308 -16.329854 16.334789
S 1.492645 -16.329854 19.304451
S 1.492645 -13.360191 22.274114
S 4.462308 -13.360191 19.304451
S 4.462308 -16.329854 22.274114
S 1.492645 -16.329854 25.243777
S 1.492645 -13.360191 28.213439
S 4.462308 -13.360191 25.243777
S 4.462308 -16.329854 28.213439
S 1.492645 -16.329854 31.183102
S 4.462308 -13.360191 31.183102
S 1.492645 -7.420866 -31.179812
S 4.462308 -10.390529 -31.179812
S 1.492645 -10.390529 -28.210149
S 1.492645 -7.420866 -25.240487
S 4.462308 -7.420866 -28.210149
S 4.462308 -10.390529 -25.240487
S 1.492645 -10.390529 -22.270824
S 1.492645 -7.420866 -19.301161
S 4.462308 -7.420866 -22.270824
S 4.462308 -10.390529 -19.301161
S 1.492645 -10.390529 -16.331499
S 1.492645 -7.420866 -13.361836
S 4.462308 -7.420866 -16.331499
S 4.462308 -10.390529 -13.361836
S 1.492645 -10.390529 -10.392174
S 1.492645 -7.420866 -7.422511
S 4.462308 -7.420866 -10.392174
S 4.462308 -10.390529 -7.422511
S 1.492645 -10.390529 -4.452849
S 1.492645 -7.420866 -1.483186
S 4.462308 -7.420866 -4.452849
S 4.462308 -10.390529 -1.483186
S 1.492645 -10.390529 1.486476
S 1.492645 -7.420866 4.456139
S 4.462308 -7.420866 1.486476
S 4.462308 -10.390529 4.456139
S 1.492645 -10.390529 7.425801
S 1.492645 -7.420866 10.395464
S 4.462308 -7.420866 7.425801
S 4.462308 -10.390529 10.395464
S 1.492645 -10.390529 13.365126
S 1.492645 -7.420866 16.334789
S 4.462308 -7.420866 13.365126
S 4.462308 -10.390529 16.334789
S 1.492645 -10.390529 19.304451
S 1.492645 -7.420866 22.274114
S 4.462308 -7.420866 19.304451
S 4.462308 -10.390529 22.274114
S 1.492645 -10.390529 25.243777
S 1.492645 -7.420866 28.213439
S 4.462308 -7.420866 25.243777
S 4.462308 -10.390529 28.213439
S 1.492645 -10.390529 31.183102
S 4.462308 -7.420866 31.183102
S 1.492645 -1.481541 -31.179812
S 4.462308 -4.451204 -31.179812
S 1.492645 -4.451204 -28.210149
S 1.492645 -1.481541 -25.240487
S 4.462308 -1.481541 -28.210149
S 4.462308 -4.451204 -25.240487
S 1.492645 -4.451204 -22.270824
S 1.492645 -1.481541 -19.301161
S 4.462308 -1.481541 -22.270824
S 4.462308 -4.451204 -19.301161
S 1.492645 -4.451204 -16.331499
S 1.492645 -1.481541 -13.361836
S 4.462308 -1.481541 -16.331499
S 4.462308 -4.451204 -13.361836
S 1.492645 -4.451204 -10.392174
S 1.492645 -1.481541 -7.422511
S 4.462308 -1.481541 -10.392174
S 4.462308 -4.451204 -7.422511
S 1.492645 -4.451204 -4.452849
S 1.492645 -1.481541 -1.483186
S 4.462308 -1.481541 -4.452849
S 4.462308 -4.451204 -1.483186
S 1.492645 -4.451204 1.486476
S 1.492645 -1.481541 4.456139
S 4.462308 -1.481541 1.486476
S 4.462308 -4.451204 4.456139
S 1.492645 -4.451204 7.425801
S 1.492645 -1.481541 10.395464
S 4.462308 -1.481541 7.425801
S 4.462308 -4.451204 10.395464
S 1.492645 -4.451204 13.365126
S 1.492645 -1.481541 16.334789
S 4.462308 -1.481541 13.365126
S 4.462308 -4.451204 16.334789
S 1.492645 -4.451204 19.304451
S 1.492645 -1.481541 22.274114
S 4.462308 -1.481541 19.304451
S 4.462308 -4.451204 22.274114
S 1.492645 -4.451204 25.243777
S 1.492645 -1.481541 28.213439
S 4.462308 -1.481541 25.243777
S 4.462308 -4.451204 28.213439
S 1.492645 -4.451204 31.183102
S 4.462308 -1.481541 31.183102
S 1.492645 4.457784 -31.179812
S 4.462308 1.488121 -31.179812
S 1.492645 1.488121 -28.210149
S 1.492645 4.457784 -25.240487
S 4.462308 4.457784 -28.210149
S 4.462308 1.488121 -25.240487
S 1.492645 1.488121 -22.270824
S 1.492645 4.457784 -19.301161
S 4.462308 4.457784 -22.270824
S 4.462308 1.488121 -19.301161
S 1.492645 1.488121 -16.331499
S 1.492645 4.457784 -13.361836
S 4.462308 4.457784 -16.331499
S 4.462308 1.488121 -13.361836
S 1.492645 1.488121 -10.392174
S 1.492645 4.457784 -7.422511
S 4.462308 4.457784 -10.392174
S 4.462308 1.488121 -7.422511
S 1.492645 1.488121 -4.452849
S 1.492645 4.457784 -1.483186
S 4.462308 4.457784 -4.452849
S 4.462308 1.488121 -1.483186
S 1.492645 1.488121 1.486476
S 1.492645 4.457784 4.456139
S 4.462308 4.457784 1.486476
S 4.462308 1.488121 4.456139
S 1.492645 1.488121 7.425801
S 1.492645 4.457784 10.395464
S 4.462308 4.457784 7.425801
S 4.462308 1.488121 10.395464
S 1.492645 1.488121 13.365126
S 1.492645 4.457784 16.334789
S 4.462308 4.457784 13.365126
S 4.462308 1.488121 16.334789
S 1.492645 1.488121 19.304451
S 1.492645 4.457784 22.274114
S 4.462308 4.457784 19.304451
S 4.462308 1.488121 22.274114
S 1.492645 1.488121 25.243777
S 1.492645 4.457784 28.213439
S 4.462308 4.457784 25.243777
S 4.462308 1.488121 28.213439
S 1.492645 1.488121 31.183102
S 4.462308 4.457784 31.183102
S 1.492645 10.397109 -31.179812
S 4.462308 7.427446 -31.179812
S 1.492645 7.427446 -28.210149
S 1.492645 10.397109 -25.240487
S 4.462308 10.397109 -28.210149
S 4.462308 7.427446 -25.240487
S 1.492645 7.427446 -22.270824
S 1.492645 10.397109 -19.301161
S 4.462308 10.397109 -22.270824
S 4.462308 7.427446 -19.301161
S 1.492645 7.427446 -16.331499
S 1.492645 10.397109 -13.361836
S 4.462308 10.397109 -16.331499
S 4.462308 7.427446 -13.361836
S 1.492645 7.427446 -10.392174
S 1.492645 10.397109 -7.422511
S 4.462308 10.397109 -10.392174
S 4.462308 7.427446 -7.422511
S 1.492645 7.427446 -4.452849
S 1.492645 10.397109 -1.483186
S 4.462308 10.397109 -4.452849
S 4.462308 7.427446 -1.483186
S 1.492645 7.427446 1.486476
S 1.492645 10.397109 4.456139
S 4.462308 10.397109 1.486476
S 4.462308 7.427446 4.456139
S 1.492645 7.427446 7.425801
S 1.492645 10.397109 10.395464
S 4.462308 10.397109 7.425801
S 4.462308 7.427446 10.395464
S 1.492645 7.427446 13.365126
S 1.492645 10.397109 16.334789
S 4.462308 10.397109 13.365126
S 4.462308 7.427446 16.334789
S 1.492645 7.427446 19.304451
S 1.492645 10.397109 22.274114
S 4.462308 10.397109 19.304451
S 4.462308 7.427446 22.274114
S 1.492645 7.427446 25.243777
S 1.492645 10.397109 28.213439
S 4.462308 10.397109 25.243777
S 4.462308 7.427446 28.213439
S 1.492645 7.427446 31.183102
S 4.462308 10.397109 31.183102
S 1.492645 16.336434 -31.179812
S 4.462308 13.366771 -31.179812
S 1.492645 13.366771 -28.210149
S 1.492645 16.336434 -25.240487
S 4.462308 16.336434 -28.210149
S 4.462308 13.366771 -25.240487
S 1.492645 13.366771 -22.270824
S 1.492645 16.336434 -19.301161
S 4.462308 16.336434 -22.270824
S 4.462308 13.366771 -19.301161
S 1.492645 13.366771 -16.331499
S 1.492645 16.336434 -13.361836
S 4.462308 16.336434 -16.331499
S 4.462308 13.366771 -13.361836
S 1.492645 13.366771 -10.392174
S 1.492645 16.336434 -7.422511
S 4.462308 16.336434 -10.392174
S 4.462308 13.366771 -7.422511
S 1.492645 13.366771 -4.452849
S 1.492645 16.336434 -1.483186
S 4.462308 16.336434 -4.452849
S 4.462308 13.366771 -1.483186
S 1.492645 13.366771 1.486476
S 1.492645 16.336434 4.456139
S 4.462308 16.336434 1.486476
S 4.462308 13.366771 4.456139
S 1.492645 13.366771 7.425801
S 1.492645 16.336434 10.395464
S 4.462308 16.336434 7.425801
S 4.462308 13.366771 10.395464
S 1.492645 13.366771 13.365126
S 1.492645 16.336434 16.334789
S 4.462308 16.336434 13.365126
S 4.462308 13.366771 16.334789
S 1.492645 13.366771 19.304451
S 1.492645 16.336434 22.274114
S 4.462308 16.336434 19.304451
S 4.462308 13.366771 22.274114
S 1.492645 13.366771 25.243777
S 1.492645 16.336434 28.213439
S 4.462308 16.336434 25.243777
S 4.462308 13.366771 28.213439
S 1.492645 13.366771 31.183102
S 4.462308 16.336434 31.183102
S 1.492645 19.306097 -28.210149
S 1.492645 22.275759 -25.240487
S 4.462308 19.306097 -25.240487
S 1.492645 19.306097 -22.270824
S 1.492645 22.275759 -19.301161
S 4.462308 22.275759 -22.270824
S 4.462308 19.306097 -19.301161
S 1.492645 19.306097 -16.331499
S 1.492645 22.275759 -13.361836
S 4.462308 22.275759 -16.331499
S 4.462308 19.306097 -13.361836
S 1.492645 19.306097 -10.392174
S 1.492645 22.275759 -7.422511
S 4.462308 22.275759 -10.392174
S 4.462308 19.306097 -7.422511
S 1.492645 19.306097 -4.452849
S 1.492645 22.275759 -1.483186
S 4.462308 22.275759 -4.452849
S 4.462308 19.306097 -1.483186
S 1.492645 19.306097 1.486476
S 1.492645 22.275759 4.456139
S 4.462308 22.275759 1.486476
S 4.462308 19.306097 4.456139
S 1.492645 19.306097 7.425801
S 1.492645 22.275759 10.395464
S 4.462308 22.275759 7.425801
S 4.462308 19.306097 10.395464
S 1.492645 19.306097 13.365126
S 1.492645 22.275759 16.334789
S 4.462308 22.275759 13.365126
S 4.462308 19.306097 16.334789
S 1.492645 19.306097 19.304451
S 1.492645 22.275759 22.274114
S 4.462308 22.275759 19.304451
S 4.462308 19.306097 22.274114
S 1.492645 19.306097 25.243777
S 4.462308 22.275759 25.243777
S 4.462308 19.306097 28.213439
S 1.492645 25.245422 -22.270824
S 1.492645 28.215084 -19.301161
S 4.462308 25.245422 -19.301161
S 1.492645 25.245422 -16.331499
S 1.492645 28.215084 -13.361836
S 4.462308 28.215084 -16.331499
S 4.462308 25.245422 -13.361836
S 1.492645 25.245422 -10.392174
S 1.492645 28.215084 -7.422511
S 4.462308 28.215084 -10.392174
S 4.462308 25.245422 -7.422511
S 1.492645 25.245422 -4.452849
S 1.492645 28.215084 -1.483186
S 4.462308 28.215084 -4.452849
S 4.462308 25.245422 -1.483186
S 1.492645 25.245422 1.486476
S 1.492645 28.215084 4.456139
S 4.462308 28.215084 1.486476
S 4.462308 25.245422 4.456139
S 1.492645 25.245422 7.425801
S 1.492645 28.215084 10.395464
S 4.462308 28.215084 7.425801
S 4.462308 25.245422 10.395464
S 1.492645 25.245422 13.365126
S 1.492645 28.215084 16.334789
S 4.462308 28.215084 13.365126
S 4.462308 25.245422 16.334789
S 1.492645 25.245422 19.304451
S 4.462308 28.215084 19.304451
S 4.462308 25.245422 22.274114
S 1.492645 31.184747 -16.331499
S 4.462308 31.184747 -13.361836
S 1.492645 31.184747 -10.392174
S 4.462308 31.184747 -7.422511
S 1.492645 31.184747 -4.452849
S 4.462308 31.184747 -1.483186
S 1.492645 31.184747 1.486476
S 4.462308 31.184747 4.456139
S 1.492645 31.184747 7.425801
S 4.462308 31.184747 10.395464
S 1.492645 31.184747 13.365126
S 4.462308 31.184747 16.334789
S 7.431970 -31.178167 -13.361836
S 7.431970 -31.178167 -7.422511
S 10.401633 -31.178167 -10.392174
S 7.431970 -31.178167 -1.483186
S 10.401633 -31.178167 -4.452849
S 7.431970 -31.178167 4.456139
S 10.401633 -31.178167 1.486476
S 7.431970 -31.178167 10.395464
S 10.401633 -31.178167 7.425801
S 7.431970 -31.178167 16.334789
S 10.401633 -31.178167 13.365126
S 7.431970 -25.238842 -19.301161
S 7.431970 -28.208504 -16.331499
S 7.431970 -25.238842 -13.361836
S 10.401633 -25.238842 -16.331499
S 10.401633 -28.208504 -13.361836
S 7.431970 -28.208504 -10.392174
S 7.431970 -25.238842 -7.422511
S 10.401633 -25.238842 -10.392174
S 10.401633 -28.208504 -7.422511
S 7.431970 -28.208504 -4.452849
S 7.431970 -25.238842 -1.483186
S 10.401633 -25.238842 -4.452849
S 10.401633 -28.208504 -1.483186
S 7.431970 -28.208504 1.486476
S 7.431970 -25.238842 4.456139
S 10.401633 -25.238842 1.486476
S 10.401633 -28.208504 4.456139
S 7.431970 -28.208504 7.425801
S 7.431970 -25.238842 10.395464
S 10.401633 -25.238842 7.425801
S 10.401633 -28.208504 10.395464
S 7.431970 -28.208504 13.365126
S 7.431970 -25.238842 16.334789
S 10.401633 -25.238842 13.365126
S 10.401633 -28.208504 16.334789
S 7.431970 -28.208504 19.304451
S 7.431970 -25.238842 22.274114
S 10.401633 -25.238842 19.304451
S 7.431970 -19.299516 -25.240487
S 7.431970 -22.269179 -22.270824
S 7.431970 -19.299516 -19.301161
S 10.401633 -19.299516 -22.270824
S 10.401633 -22.269179 -19.301161
S 7.431970 -22.269179 -16.331499
S 7.431970 -19.299516 -13.361836
S 10.401633 -19.299516 -16.331499
S 10.401633 -22.269179 -13.361836
S 7.431970 -22.269179 -10.392174
S 7.431970 -19.299516 -7.422511
S 10.401633 -19.299516 -10.392174
S 10.401633 -22.269179 -7.422511
S 7.431970 -22.269179 -4.452849
S 7.431970 -19.299516 -1.483186
S 10.401633 -19.299516 -4.452849
S 10.401633 -22.269179 -1.483186
S 7.431970 -22.269179 1.486476
S 7.431970 -19.299516 4.456139
S 10.401633 -19.299516 1.486476
S 10.401633 -22.269179 4.456139
S 7.431970 -22.269179 7.425801
S 7.431970 -19.299516 10.395464
S 10.401633 -19.299516 7.425801
S 10.401633 -22.269179 10.395464
S 7.431970 -22.269179 13.365126
S 7.431970 -19.299516 16.334789
S 10.401633 -19.299516 13.365126
S 10.401633 -22.269179 16.334789
S 7.431970 -22.269179 19.304451
S 7.431970 -19.299516 22.274114
S 10.401633 -19.299516 19.304451
S 10.401633 -22.269179 22.274114
S 7.431970 -22.269179 25.243777
S 7.431970 -19.299516 28.213439
S 10.401633 -19.299516 25.243777
S 7.431970 -13.360191 -31.179812
S 7.431970 -16.329854 -28.210149
S 7.431970 -13.360191 -25.240487
S 10.401633 -13.360191 -28.210149
S 10.401633 -16.329854 -25.240487
S 7.431970 -16.329854 -22.270824
S 7.431970 -13.360191 -19.301161
S 10.401633 -13.360191 -22.270824
S 10.401633 -16.329854 -19.301161
S 7.431970 -16.329854 -16.331499
S 7.431970 -13.360191 -13.361836
S 10.401633 -13.360191 -16.331499
S 10.401633 -16.329854 -13.361836
S 7.431970 -16.329854 -10.392174
S 7.431970 -13.360191 -7.422511
S 10.401633 -13.360191 -10.392174
S 10.401633 -16.329854 -7.422511
S 7.431970 -16.329854 -4.452849
S 7.431970 -13.360191 -1.483186
S 10.401633 -13.360191 -4.452849
S 10.401633 -16.329854 -1.483186
S 7.431970 -16.329854 1.486476
S 7.431970 -13.360191 4.456139
S 10.401633 -13.360191 1.486476
S 10.401633 -16.329854 4.456139
S 7.431970 -16.329854 7.425801
S 7.431970 -13.360191 10.395464
S 10.401633 -13.360191 7.425801
S 10.401633 -16.329854 10.395464
S 7.431970 -16.329854 13.365126
S 7.431970 -13.360191 16.334789
S 10.401633 -13.360191 13.365126
S 10.401633 -16.329854 16.334789
S 7.431970 -16.329854 19.304451
S 7.431970 -13.360191 22.274114
S 10.401633 -13.360191 19.304451
S 10.401633 -16.329854 22.274114
S 7.431970 -16.329854 25.243777
S 7.431970 -13.360191 28.213439
S 10.401633 -13.360191 25.243777
S 10.401633 -16.329854 28.213439
S 7.431970 -16.329854 31.183102
S 10.401633 -13.360191 31.183102
S 7.431970 -7.420866 -31.179812
S 10.401633 -10.390529 -31.179812
S 7.431970 -10.390529 -28.210149
S 7.431970 -7.420866 -25.240487
S 10.401633 -7.420866 -28.210149
S 10.401633 -10.390529 -25.240487
S 7.431970 -10.390529 -22.270824
S 7.431970 -7.420866 -19.301161
S 10.401633 -7.420866 -22.270824
S 10.401633 -10.390529 -19.301161
S 7.431970 -10.390529 -16.331499
S 7.431970 -7.420866 -13.361836
S 10.401633 -7.420866 -16.331499
S 10.401633 -10.390529 -13.361836
S 7.431970 -10.390529 -10.392174
S 7.431970 -7.420866 -7.422511
S 10.401633 -7.420866 -10.392174
S 10.401633 -10.390529 -7.422511
S 7.431970 -10.390529 -4.452849
S 7.431970 -7.420866 -1.483186
S 10.401633 -7.420866 -4.452849
S 10.401633 -10.390529 -1.483186
S 7.431970 -10.390529 1.486476
S 7.431970 -7.420866 4.456139
S 10.401633 -7.420866 1.486476
S 10.401633 -10.390529 4.456139
S 7.431970 -10.390529 7.425801
S 7.431970 -7.420866 10.395464
S 10.401633 -7.420866 7.425801
S 10.401633 -10.390529 10.395464
S 7.431970 -10.390529 13.365126
S 7.431970 -7.420866 16.334789
S 10.401633 -7.420866 13.365126
S 10.401633 -10.390529 16.334789
S 7.431970 -10.390529 19.304451
S 7.431970 -7.420866 22.274114
S 10.401633 -7.420866 19.304451
S 10.401633 -10.390529 22.274114
S 7.431970 -10.390529 25.243777
S 7.431970 -7.420866 28.213439
S 10.401633 -7.420866 25.243777
S 10.401633 -10.390529 28.213439
S 7.431970 -10.390529 31.183102
S 10.401633 -7.420866 31.183102
S 7.431970 -1.481541 -31.179812
S 10.401633 -4.451204 -31.179812
S 7.431970 -4.451204 -28.210149
S 7.431970 -1.481541 -25.240487
S 10.401633 -1.481541 -28.210149
S 10.401633 -4.451204 -25.240487
S 7.431970 -4.451204 -22.270824
S 7.431970 -1.481541 -19.301161
S 10.401633 -1.481541 -22.270824
S 10.401633 -4.451204 -19.301161
S 7.431970 -4.451204 -16.331499
S 7.431970 -1.481541 -13.361836
S 10.401633 -1.481541 -16.331499
S 10.401633 -4.451204 -13.361836
S 7.431970 -4.451204 -10.392174
S 7.431970 -1.481541 -7.422511
S 10.401633 -1.481541 -10.392174
S 10.401633 -4.451204 -7.422511
S 7.431970 -4.451204 -4.452849
S 7.431970 -1.481541 -1.483186
S 10.401633 -1.481541 -4.452849
S 10.401633 -4.451204 -1.483186
S 7.431970 -4.451204 1.486476
S 7.431970 -1.481541 4.456139
S 10.401633 -1.481541 1.486476
S 10.401633 -4.451204 4.456139
S 7.431970 -4.451204 7.425801
S 7.431970 -1.481541 10.395464
S 10.401633 -1.481541 7.425801
S 10.401633 -4.451204 10.395464
S 7.431970 -4.451204 13.365126
S 7.431970 -1.481541 16.334789
S 10.401633 -1.481541 13.365126
S 10.401633 -4.451204 16.334789
S 7.431970 -4.451204 19.304451
S 7.431970 -1.481541 22.274114
S 10.401633 -1.481541 19.304451
S 10.401633 -4.451204 22.274114
S 7.431970 -4.451204 25.243777
S 7.431970 -1.481541 28.213439
S 10.401633 -1.481541 25.243777
S 10.401633 -4.451204 28.213439
S 7.431970 -4.451204 31.183102
S 10.401633 -1.481541 31.183102
S 7.431970 4.457784 -31.179812
S 10.401633 1.488121 -31.179812
S 7.431970 1.488121 -28.210149
S 7.431970 4.457784 -25.240487
S 10.401633 4.457784 -28.210149
S 10.401633 1.488121 -25.240487
S 7.431970 1.488121 -22.270824
S 7.431970 4.457784 -19.301161
S 10.401633 4.457784 -22.270824
S 10.401633 1.488121 -19.301161
S 7.431970 1.488121 -16.331499
S 7.431970 4.457784 -13.361836
S 10.401633 4.457784 -16.331499
S 10.401633 1.488121 -13.361836
S 7.431970 1.488121 -10.392174
S 7.431970 4.457784 -7.422511
S 10.401633 4.457784 -10.392174
S 10.401633 1.488121 -7.422511
S 7.431970 1.488121 -4.452849
S 7.431970 4.457784 -1.483186
S 10.401633 4.457784 -4.452849
S 10.401633 1.488121 -1.483186
S 7.431970 1.488121 1.486476
S 7.431970 4.457784 4.456139
S 10.401633 4.457784 1.486476
S 10.401633 1.488121 4.456139
S 7.431970 1.488121 7.425801
S 7.431970 4.457784 10.395464
S 10.401633 4.457784 7.425801
S 10.401633 1.488121 10.395464
S 7.431970 1.488121 13.365126
S 7.431970 4.457784 16.334789
S 10.401633 4.457784 13.365126
S 10.401633 1.488121 16.334789
S 7.431970 1.488121 19.304451
S 7.431970 4.457784 22.274114
S 10.401633 4.457784 19.304451
S 10.401633 1.488121 22.274114
S 7.431970 1.488121 25.243777
S 7.431970 4.457784 28.213439
S 10.401633 4.457784 25.243777
S 10.401633 1.488121 28.213439
S 7.431970 1.488121 31.183102
S 10.401633 4.457784 31.183102
S 7.431970 10.397109 -31.179812
S 10.401633 7.427446 -31.179812
S 7.431970 7.427446 -28.210149
S 7.431970 10.397109 -25.240487
S 10.401633 10.397109 -28.210149
S 10.401633 7.427446 -25.240487
S 7.431970 7.427446 -22.270824
S 7.431970 10.397109 -19.301161
S 10.401633 10.397109 -22.270824
S 10.401633 7.427446 -19.301161
S 7.431970 7.427446 -16.331499
S 7.431970 10.397109 -13.361836
S 10.401633 10.397109 -16.331499
S 10.401633 7.427446 -13.361836
S 7.431970 7.427446 -10.392174
S 7.431970 10.397109 -7.422511
S 10.401633 10.397109 -10.392174
S 10.401633 7.427446 -7.422511
S 7.431970 7.427446 -4.452849
S 7.431970 10.397109 -1.483186
S 10.401633 10.397109 -4.452849
S 10.401633 7.427446 -1.483186
S 7.431970 7.427446 1.486476
S 7.431970 10.397109 4.456139
S 10.401633 10.397109 1.486476
S 10.401633 7.427446 4.456139
S 7.431970 7.427446 7.425801
S 7.431970 10.397109 10.395464
S 10.401633 10.397109 7.425801
S 10.401633 7.427446 10.395464
S 7.431970 7.427446 13.365126
S 7.431970 10.397109 16.334789
S 10.401633 10.397109 13.365126
S 10.401633 7.427446 16.334789
S 7.431970 7.427446 19.304451
S 7.431970 10.397109 22.274114
S 10.401633 10.397109 19.304451
S 10.401633 7.427446 22.274114
S 7.431970 7.427446 25.243777
S 7.431970 10.397109 28.213439
S 10.401633 10.397109 25.243777
S 10.401633 7.427446 28.213439
S 7.431970 7.427446 31.183102
S 10.401633 10.397109 31.183102
S 7.431970 16.336434 -31.179812
S 10.401633 13.366771 -31.179812
S 7.431970 13.366771 -28.210149
S 7.431970 16.336434 -25.240487
S 10.401633 16.336434 -28.210149
S 10.401633 13.366771 -25.240487
S 7.431970 13.366771 -22.270824
S 7.431970 16.336434 -19.301161
S 10.401633 16.336434 -22.270824
S 10.401633 13.366771 -19.301161
S 7.431970 13.366771 -16.331499
S 7.431970 16.336434 -13.361836
S 10.401633 16.336434 -16.331499
S 10.401633 13.366771 -13.361836
S 7.431970 13.366771 -10.392174
S 7.431970 16.336434 -7.422511
S 10.401633 16.336434 -10.392174
S 10.401633 13.366771 -7.422511
S 7.431970 13.366771 -4.452849
S 7.431970 16.336434 -1.483186
S 10.401633 16.336434 -4.452849
S 10.401633 13.366771 -1.483186
S 7.431970 13.366771 1.486476
S 7.431970 16.336434 4.456139
S 10.401633 16.336434 1.486476
S 10.401633 13.366771 4.456139
S 7.431970 13.366771 7.425801
S 7.431970 16.336434 10.395464
S 10.401633 16.336434 7.425801
S 10.401633 13.366771 10.395464
S 7.431970 13.366771 13.365126
S 7.431970 16.336434 16.334789
S 10.401633 16.336434 13.365126
S 10.401633 13.366771 16.334789
S 7.431970 13.366771 19.304451
S 7.431970 16.336434 22.274114
S 10.401633 16.336434 19.304451
S 10.401633 13.366771 22.274114
S 7.431970 13.366771 25.243777
S 7.431970 16.336434 28.213439
S 10.401633 16.336434 25.243777
S 10.401633 13.366771 28.213439
S 7.431970 13.366771 31.183102
S 7.431970 19.306097 -28.210149
S 7.431970 22.275759 -25.240487
S 10.401633 19.306097 -25.240487
S 7.431970 19.306097 -22.270824
S 7.431970 22.275759 -19.301161
S 10.401633 22.275759 -22.270824
S 10.401633 19.306097 -19.301161
S 7.431970 19.306097 -16.331499
S 7.431970 22.275759 -13.361836
S 10.401633 22.275759 -16.331499
S 10.401633 19.306097 -13.361836
S 7.431970 19.306097 -10.392174
S 7.431970 22.275759 -7.422511
S 10.401633 22.275759 -10.392174
S 10.401633 19.306097 -7.422511
S 7.431970 19.306097 -4.452849
S 7.431970 22.275759 -1.483186
S 10.401633 22.275759 -4.452849
S 10.401633 19.306097 -1.483186
S 7.431970 19.306097 1.486476
S 7.431970 22.275759 4.456139
S 10.401633 22.275759 1.486476
S 10.401633 19.306097 4.456139
S 7.431970 19.306097 7.425801
S 7.431970 22.275759 10.395464
S 10.401633 22.275759 7.425801
S 10.401633 19.306097 10.395464
S 7.431970 19.306097 13.365126
S 7.431970 22.275759 16.334789
S 10.401633 22.275759 13.365126
S 10.401633 19.306097 16.334789
S 7.431970 19.306097 19.304451
S 7.431970 22.275759 22.274114
S 10.401633 22.275759 19.304451
S 10.401633 19.306097 22.274114
S 7.431970 19.306097 25.243777
S 7.431970 25.245422 -22.270824
S 7.431970 28.215084 -19.301161
S 10.401633 25.245422 -19.301161
S 7.431970 25.245422 -16.331499
S 7.431970 28.215084 -13.361836
S 10.401633 28.215084 -16.331499
S 10.401633 25.245422 -13.361836
S 7.431970 25.245422 -10.392174
S 7.431970 28.215084 -7.422511
S 10.401633 28.215084 -10.392174
S 10.401633 25.245422 -7.422511
S 7.431970 25.245422 -4.452849
S 7.431970 28.215084 -1.483186
S 10.401633 28.215084 -4.452849
S 10.401633 25.245422 -1.483186
S 7.431970 25.245422 1.486476
S 7.431970 28.215084 4.456139
S 10.401633 28.215084 1.486476
S 10.401633 25.245422 4.456139
S 7.431970 25.245422 7.425801
S 7.431970 28.215084 10.395464
S 10.401633 28.215084 7.425801
S 10.401633 25.245422 10.395464
S 7.431970 25.245422 13.365126
S 7.431970 28.215084 16.334789
S 10.401633 28.215084 13.365126
S 10.401633 25.245422 16.334789
S 7.431970 25.245422 19.304451
S 7.431970 31.184747 -16.331499
S 10.401633 31.184747 -13.361836
S 7.431970 31.184747 -10.392174
S 10.401633 31.184747 -7.422511
S 7.431970 31.184747 -4.452849
S 10.401633 31.184747 -1.483186
S 7.431970 31.184747 1.486476
S 10.401633 31.184747 4.456139
S 7.431970 31.184747 7.425801
S 10.401633 31.184747 10.395464
S 7.431970 31.184747 13.365126
S 13.371295 -31.178167 -7.422511
S 13.371295 -31.178167 -1.483186
S 16.340958 -31.178167 -4.452849
S 13.371295 -31.178167 4.456139
S 16.340958 -31.178167 1.486476
S 13.371295 -31.178167 10.395464
S 16.340958 -31.178167 7.425801
S 13.371295 -25.238842 -13.361836
S 13.371295 -28.208504 -10.392174
S 13.371295 -25.238842 -7.422511
S 16.340958 -25.238842 -10.392174
S 16.340958 -28.208504 -7.422511
S 13.371295 -28.208504 -4.452849
S 13.371295 -25.238842 -1.483186
S 16.340958 -25.238842 -4.452849
S 16.340958 -28.208504 -1.483186
S 13.371295 -28.208504 1.486476
S 13.371295 -25.238842 4.456139
S 16.340958 -25.238842 1.486476
S 16.340958 -28.208504 4.456139
S 13.371295 -28.208504 7.425801
S 13.371295 -25.238842 10.395464
S 16.340958 -25.238842 7.425801
S 16.340958 -28.208504 10.395464
S 13.371295 -28.208504 13.365126
S 13.371295 -25.238842 16.334789
S 16.340958 -25.238842 13.365126
S 13.371295 -19.299516 -19.301161
S 13.371295 -22.269179 -16.331499
S 13.371295 -19.299516 -13.361836
S 16.340958 -19.299516 -16.331499
S 16.340958 -22.269179 -13.361836
S 13.371295 -22.269179 -10.392174
S 13.371295 -19.299516 -7.422511
S 16.340958 -19.299516 -10.392174
S 16.340958 -22.269179 -7.422511
S 13.371295 -22.269179 -4.452849
S 13.371295 -19.299516 -1.483186
S 16.340958 -19.299516 -4.452849
S 16.340958 -22.269179 -1.483186
S 13.371295 -22.269179 1.486476
S 13.371295 -19.299516 4.456139
S 16.340958 -19.299516 1.486476
S 16.340958 -22.269179 4.456139
S 13.371295 -22.269179 7.425801
S 13.371295 -19.299516 10.395464
S 16.340958 -19.299516 7.425801
S 16.340958 -22.269179 10.395464
S 13.371295 -22.269179 13.365126
S 13.371295 -19.299516 16.334789
S 16.340958 -19.299516 13.365126
S 16.340958 -22.269179 16.334789
S 13.371295 -22.269179 19.304451
S 13.371295 -19.299516 22.274114
S 16.340958 -19.299516 19.304451
S 13.371295 -13.360191 -25.240487
S 13.371295 -16.329854 -22.270824
S 13.371295 -13.360191 -19.301161
S 16.340958 -13.360191 -22.270824
S 16.340958 -16.329854 -19.301161
S 13.371295 -16.329854 -16.331499
S 13.371295 -13.360191 -13.361836
S 16.340958 -13.360191 -16.331499
S 16.340958 -16.329854 -13.361836
S 13.371295 -16.329854 -10.392174
S 13.371295 -13.360191 -7.422511
S 16.340958 -13.360191 -10.392174
S 16.340958 -16.329854 -7.422511
S 13.371295 -16.329854 -4.452849
S 13.371295 -13.360191 -1.483186
S 16.340958 -13.360191 -4.452849
S 16.340958 -16.329854 -1.483186
S 13.371295 -16.329854 1.486476
S 13.371295 -13.360191 4.456139
S 16.340958 -13.360191 1.486476
S 16.340958 -16.329854 4.456139
S 13.371295 -16.329854 7.425801
S 13.371295 -13.360191 10.395464
S 16.340958 -13.360191 7.425801
S 16.340958 -16.329854 10.395464
S 13.371295 -16.329854 13.365126
S 13.371295 -13.360191 16.334789
S 16.340958 -13.360191 13.365126
S 16.340958 -16.329854 16.334789
S 13.371295 -16.329854 19.304451
S 13.371295 -13.360191 22.274114
S 16.340958 -13.360191 19.304451
S 16.340958 -16.329854 22.274114
S 13.371295 -16.329854 25.243777
S 13.371295 -13.360191 28.213439
S 16.340958 -13.360191 25.243777
S 13.371295 -7.420866 -31.179812
S 13.371295 -10.390529 -28.210149
S 13.371295 -7.420866 -25.240487
S 16.340958 -7.420866 -28.210149
S 16.340958 -10.390529 -25.240487
S 13.371295 -10.390529 -22.270824
S 13.371295 -7.420866 -19.301161
S 16.340958 -7.420866 -22.270824
S 16.340958 -10.390529 -19.301161
S 13.371295 -10.390529 -16.331499
S 13.371295 -7.420866 -13.361836
S 16.340958 -7.420866 -16.331499
S 16.340958 -10.390529 -13.361836
S 13.371295 -10.390529 -10.392174
S 13.371295 -7.420866 -7.422511
S 16.340958 -7.420866 -10.392174
S 16.340958 -10.390529 -7.422511
S 13.371295 -10.390529 -4.452849
S 13.371295 -7.420866 -1.483186
S 16.340958 -7.420866 -4.452849
S 16.340958 -10.390529 -1.483186
S 13.371295 -10.390529 1.486476
S 13.371295 -7.420866 4.456139
S 16.340958 -7.420866 1.486476
S 16.340958 -10.390529 4.456139
S 13.371295 -10.390529 7.425801
S 13.371295 -7.420866 10.395464
S 16.340958 -7.420866 7.425801
S 16.340958 -10.390529 10.395464
S 13.371295 -10.390529 13.365126
S 13.371295 -7.420866 16.334789
S 16.340958 -7.420866 13.365126
S 16.340958 -10.390529 16.334789
S 13.371295 -10.390529 19.304451
S 13.371295 -7.420866 22.274114
S 16.340958 -7.420866 19.304451
S 16.340958 -10.390529 22.274114
S 13.371295 -10.390529 25.243777
S 13.371295 -7.420866 28.213439
S 16.340958 -7.420866 25.243777
S 16.340958 -10.390529 28.213439
S 13.371295 -10.390529 31.183102
S 16.340958 -7.420866 31.183102
S 13.371295 -1.481541 -31.179812
S 16.340958 -4.451204 -31.179812
S 13.371295 -4.451204 -28.210149
S 13.371295 -1.481541 -25.240487
S 16.340958 -1.481541 -28.210149
S 16.340958 -4.451204 -25.240487
S 13.371295 -4.451204 -22.270824
S 13.371295 -1.481541 -19.301161
S 16.340958 -1.481541 -22.270824
S 16.340958 -4.451204 -19.301161
S 13.371295 -4.451204 -16.331499
S 13.371295 -1.481541 -13.361836
S 16.340958 -1.481541 -16.331499
S 16.340958 -4.451204 -13.361836
S 13.371295 -4.451204 -10.392174
S 13.371295 -1.481541 -7.422511
S 16.340958 -1.481541 -10.392174
S 16.340958 -4.451204 -7.422511
S 13.371295 -4.451204 -4.452849
S 13.371295 -1.481541 -1.483186
S 16.340958 -1.481541 -4.452849
S 16.340958 -4.451204 -1.483186
S 13.371295 -4.451204 1.486476
S 13.371295 -1.481541 4.456139
S 16.340958 -1.481541 1.486476
S 16.340958 -4.451204 4.456139
S 13.371295 -4.451204 7.425801
S 13.371295 -1.481541 10.395464
S 16.340958 -1.481541 7.425801
S 16.340958 -4.451204 10.395464
S 13.371295 -4.451204 13.365126
S 13.371295 -1.481541 16.334789
S 16.340958 -1.481541 13.365126
S 16.340958 -4.451204 16.334789
S 13.371295 -4.451204 19.304451
S 13.371295 -1.481541 22.274114
S 16.340958 -1.481541 19.304451
S 16.340958 -4.451204 22.274114
S 13.371295 -4.451204 25.243777
S 13.371295 -1.481541 28.213439
S 16.340958 -1.481541 25.243777
S 16.340958 -4.451204 28.213439
S 13.371295 -4.451204 31.183102
S 16.340958 -1.481541 31.183102
S 13.371295 4.457784 -31.179812
S 16.340958 1.488121 -31.179812
S 13.371295 1.488121 -28.210149
S 13.371295 4.457784 -25.240487
S 16.340958 4.457784 -28.210149
S 16.340958 1.488121 -25.240487
S 13.371295 1.488121 -22.270824
S 13.371295 4.457784 -19.301161
S 16.340958 4.457784 -22.270824
S 16.340958 1.488121 -19.301161
S 13.371295 1.488121 -16.331499
S 13.371295 4.457784 -13.361836
S 16.340958 4.457784 -16.331499
S 16.340958 1.488121 -13.361836
S 13.371295 1.488121 -10.392174
S 13.371295 4.457784 -7.422511
S 16.340958 4.457784 -10.392174
S 16.340958 1.488121 -7.422511
S 13.371295 1.488121 -4.452849
S 13.371295 4.457784 -1.483186
S 16.340958 4.457784 -4.452849
S 16.340958 1.488121 -1.483186
S 13.371295 1.488121 1.486476
S 13.371295 4.457784 4.456139
S 16.340958 4.457784 1.486476
S 16.340958 1.488121 4.456139
S 13.371295 1.488121 7.425801
S 13.371295 4.457784 10.395464
S 16.340958 4.457784 7.425801
S 16.340958 1.488121 10.395464
S 13.371295 1.488121 13.365126
S 13.371295 4.457784 16.334789
S 16.340958 4.457784 13.365126
S 16.340958 1.488121 16.334789
S 13.371295 1.488121 19.304451
S 13.371295 4.457784 22.274114
S 16.340958 4.457784 19.304451
S 16.340958 1.488121 22.274114
S 13.371295 1.488121 25.243777
S 13.371295 4.457784 28.213439
S 16.340958 4.457784 25.243777
S 16.340958 1.488121 28.213439
S 13.371295 1.488121 31.183102
S 16.340958 4.457784 31.183102
S 13.371295 10.397109 -31.179812
S 16.340958 7.427446 -31.179812
S 13.371295 7.427446 -28.210149
S 13.371295 10.397109 -25.240487
S 16.340958 10.397109 -28.210149
S 16.340958 7.427446 -25.240487
S 13.371295 7.427446 -22.270824
S 13.371295 10.397109 -19.301161
S 16.340958 10.397109 -22.270824
S 16.340958 7.427446 -19.301161
S 13.371295 7.427446 -16.331499
S 13.371295 10.397109 -13.361836
S 16.340958 10.397109 -16.331499
S 16.340958 7.427446 -13.361836
S 13.371295 7.427446 -10.392174
S 13.371295 10.397109 -7.422511
S 16.340958 10.397109 -10.392174
S 16.340958 7.427446 -7.422511
S 13.371295 7.427446 -4.452849
S 13.371295 10.397109 -1.483186
S 16.340958 10.397109 -4.452849
S 16.340958 7.427446 -1.483186
S 13.371295 7.427446 1.486476
S 13.371295 10.397109 4.456139
S 16.340958 10.397109 1.486476
S 16.340958 7.427446 4.456139
S 13.371295 7.427446 7.425801
S 13.371295 10.397109 10.395464
S 16.340958 10.397109 7.425801
S 16.340958 7.427446 10.395464
S 13.371295 7.427446 13.365126
S 13.371295 10.397109 16.334789
S 16.340958 10.397109 13.365126
S 16.340958 7.427446 16.334789
S 13.371295 7.427446 19.304451
S 13.371295 10.397109 22.274114
S 16.340958 10.397109 19.304451
S 16.340958 7.427446 22.274114
S 13.371295 7.427446 25.243777
S 13.371295 10.397109 28.213439
S 16.340958 10.397109 25.243777
S 16.340958 7.427446 28.213439
S 13.371295 7.427446 31.183102
S 13.371295 13.366771 -28.210149
S 13.371295 16.336434 -25.240487
S 16.340958 13.366771 -25.240487
S 13.371295 13.366771 -22.270824
S 13.371295 16.336434 -19.301161
S 16.340958 16.336434 -22.270824
S 16.340958 13.366771 -19.301161
S 13.371295 13.366771 -16.331499
S 13.371295 16.336434 -13.361836
S 16.340958 16.336434 -16.331499
S 16.340958 13.366771 -13.361836
S 13.371295 13.366771 -10.392174
S 13.371295 16.336434 -7.422511
S 16.340958 16.336434 -10.392174
S 16.340958 13.366771 -7.422511
S 13.371295 13.366771 -4.452849
S 13.371295 16.336434 -1.483186
S 16.340958 16.336434 -4.452849
S 16.340958 13.366771 -1.483186
S 13.371295 13.366771 1.486476
S 13.371295 16.336434 4.456139
S 16.340958 16.336434 1.486476
S 16.340958 13.366771 4.456139
S 13.371295 13.366771 7.425801
S 13.371295 16.336434 10.395464
S 16.340958 16.336434 7.425801
S 16.340958 13.366771 10.395464
S 13.371295 13.366771 13.365126
S 13.371295 16.336434 16.334789
S 16.340958 16.336434 13.365126
S 16.340958 13.366771 16.334789
S 13.371295 13.366771 19.304451
S 13.371295 16.336434 22.274114
S 16.340958 16.336434 19.304451
S 16.340958 13.366771 22.274114
S 13.371295 13.366771 25.243777
S 13.371295 19.306097 -22.270824
S 13.371295 22.275759 -19.301161
S 16.340958 19.306097 -19.301161
S 13.371295 19.306097 -16.331499
S 13.371295 22.275759 -13.361836
S 16.340958 22.275759 -16.331499
S 16.340958 19.306097 -13.361836
S 13.371295 19.306097 -10.392174
S 13.371295 22.275759 -7.422511
S 16.340958 22.275759 -10.392174
S 16.340958 19.306097 -7.422511
S 13.371295 19.306097 -4.452849
S 13.371295 22.275759 -1.483186
S 16.340958 22.275759 -4.452849
S 16.340958 19.306097 -1.483186
S 13.371295 19.306097 1.486476
S 13.371295 22.275759 4.456139
S 16.340958 22.275759 1.486476
S 16.340958 19.306097 4.456139
S 13.371295 19.306097 7.425801
S 13.371295 22.275759 10.395464
S 16.340958 22.275759 7.425801
S 16.340958 19.306097 10.395464
S 13.371295 19.306097 13.365126
S 13.371295 22.275759 16.334789
S 16.340958 22.275759 13.365126
S 16.340958 19.306097 16.334789
S 13.371295 19.306097 19.304451
S 13.371295 25.245422 -16.331499
S 13.371295 28.215084 -13.361836
S 16.340958 25.245422 -13.361836
S 13.371295 25.245422 -10.392174
S 13.371295 28.215084 -7.422511
S 16.340958 28.215084 -10.392174
S 16.340958 25.245422 -7.422511
S 13.371295 25.245422 -4.452849
S 13.371295 28.215084 -1.483186
S 16.340958 28.215084 -4.452849
S 16.340958 25.245422 -1.483186
S 13.371295 25.245422 1.486476
S 13.371295 28.215084 4.456139
S 16.340958 28.215084 1.486476
S 16.340958 25.245422 4.456139
S 13.371295 25.245422 7.425801
S 13.371295 28.215084 10.395464
S 16.340958 28.215084 7.425801
S 16.340958 25.245422 10.395464
S 13.371295 25.245422 13.365126
S 13.371295 31.184747 -10.392174
S 16.340958 31.184747 -7.422511
S 13.371295 31.184747 -4.452849
S 16.340958 31.184747 -1.483186
S 13.371295 31.184747 1.486476
S 16.340958 31.184747 4.456139
S 13.371295 31.184747 7.425801
S 19.310620 -25.238842 -7.422511
S 19.310620 -28.208504 -4.452849
S 19.310620 -25.238842 -1.483186
S 22.280283 -25.238842 -4.452849
S 19.310620 -28.208504 1.486476
S 19.310620 -25.238842 4.456139
S 22.280283 -25.238842 1.486476
S 19.310620 -28.208504 7.425801
S 19.310620 -25.238842 10.395464
S 22.280283 -25.238842 7.425801
S 19.310620 -19.299516 -13.361836
S 19.310620 -22.269179 -10.392174
S 19.310620 -19.299516 -7.422511
S 22.280283 -19.299516 -10.392174
S 22.280283 -22.269179 -7.422511
S 19.310620 -22.269179 -4.452849
S 19.310620 -19.299516 -1.483186
S 22.280283 -19.299516 -4.452849
S 22.280283 -22.269179 -1.483186
S 19.310620 -22.269179 1.486476
S 19.310620 -19.299516 4.456139
S 22.280283 -19.299516 1.486476
S 22.280283 -22.269179 4.456139
S 19.310620 -22.269179 7.425801
S 19.310620 -19.299516 10.395464
S 22.280283 -19.299516 7.425801
S 22.280283 -22.269179 10.395464
S 19.310620 -22.269179 13.365126
S 19.310620 -19.299516 16.334789
S 22.280283 -19.299516 13.365126
S 19.310620 -13.360191 -19.301161
S 19.310620 -16.329854 -16.331499
S 19.310620 -13.360191 -13.361836
S 22.280283 -13.360191 -16.331499
S 22.280283 -16.329854 -13.361836
S 19.310620 -16.329854 -10.392174
S 19.310620 -13.360191 -7.422511
S 22.280283 -13.360191 -10.392174
S 22.280283 -16.329854 -7.422511
S 19.310620 -16.329854 -4.452849
S 19.310620 -13.360191 -1.483186
S 22.280283 -13.360191 -4.452849
S 22.280283 -16.329854 -1.483186
S 19.310620 -16.329854 1.486476
S 19.310620 -13.360191 4.456139
S 22.280283 -13.360191 1.486476
S 22.280283 -16.329854 4.456139
S 19.310620 -16.329854 7.425801
S 19.310620 -13.360191 10.395464
S 22.280283 -13.360191 7.425801
S 22.280283 -16.329854 10.395464
S 19.310620 -16.329854 13.365126
S 19.310620 -13.360191 16.334789
S 22.280283 -13.360191 13.365126
S 22.280283 -16.329854 16.334789
S 19.310620 -16.329854 19.304451
S 19.310620 -13.360191 22.274114
S 22.280283 -13.360191 19.304451
S 19.310620 -7.420866 -25.240487
S 19.310620 -10.390529 -22.270824
S 19.310620 -7.420866 -19.301161
S 22.280283 -7.420866 -22.270824
S 22.280283 -10.390529 -19.301161
S 19.310620 -10.390529 -16.331499
S 19.310620 -7.420866 -13.361836
S 22.280283 -7.420866 -16.331499
S 22.280283 -10.390529 -13.361836
S 19.310620 -10.390529 -10.392174
S 19.310620 -7.420866 -7.422511
S 22.280283 -7.420866 -10.392174
S 22.280283 -10.390529 -7.422511
S 19.310620 -10.390529 -4.452849
S 19.310620 -7.420866 -1.483186
S 22.280283 -7.420866 -4.452849
S 22.280283 -10.390529 -1.483186
S 19.310620 -10.390529 1.486476
S 19.310620 -7.420866 4.456139
S 22.280283 -7.420866 1.486476
S 22.280283 -10.390529 4.456139
S 19.310620 -10.390529 7.425801
S 19.310620 -7.420866 10.395464
S 22.280283 -7.420866 7.425801
S 22.280283 -10.390529 10.395464
S 19.310620 -10.390529 13.365126
S 19.310620 -7.420866 16.334789
S 22.280283 -7.420866 13.365126
S 22.280283 -10.390529 16.334789
S 19.310620 -10.390529 19.304451
S 19.310620 -7.420866 22.274114
S 22.280283 -7.420866 19.304451
S 22.280283 -10.390529 22.274114
S 19.310620 -10.390529 25.243777
S 19.310620 -7.420866 28.213439
S 22.280283 -7.420866 25.243777
S 19.310620 -4.451204 -28.210149
S 19.310620 -1.481541 -25.240487
S 22.280283 -4.451204 -25.240487
S 19.310620 -4.451204 -22.270824
S 19.310620 -1.481541 -19.301161
S 22.280283 -1.481541 -22.270824
S 22.280283 -4.451204 -19.301161
S 19.310620 -4.451204 -16.331499
S 19.310620 -1.481541 -13.361836
S 22.280283 -1.481541 -16.331499
S 22.280283 -4.451204 -13.361836
S 19.310620 -4.451204 -10.392174
S 19.310620 -1.481541 -7.422511
S 22.280283 -1.481541 -10.392174
S 22.280283 -4.451204 -7.422511
S 19.310620 -4.451204 -4.452849
S 19.310620 -1.481541 -1.483186
S 22.280283 -1.481541 -4.452849
S 22.280283 -4.451204 -1.483186
S 19.310620 -4.451204 1.486476
S 19.310620 -1.481541 4.456139
S 22.280283 -1.481541 1.486476
S 22.280283 -4.451204 4.456139
S 19.310620 -4.451204 7.425801
S 19.310620 -1.481541 10.395464
S 22.280283 -1.481541 7.425801
S 22.280283 -4.451204 10.395464
S 19.310620 -4.451204 13.365126
S 19.310620 -1.481541 16.334789
S 22.280283 -1.481541 13.365126
S 22.280283 -4.451204 16.334789
S 19.310620 -4.451204 19.304451
S 19.310620 -1.481541 22.274114
S 22.280283 -1.481541 19.304451
S 22.280283 -4.451204 22.274114
S 19.310620 -4.451204 25.243777
S 19.310620 -1.481541 28.213439
S 22.280283 -1.481541 25.243777
S 19.310620 1.488121 -28.210149
S 19.310620 4.457784 -25.240487
S 22.280283 1.488121 -25.240487
S 19.310620 1.488121 -22.270824
S 19.310620 4.457784 -19.301161
S 22.280283 4.457784 -22.270824
S 22.280283 1.488121 -19.301161
S 19.310620 1.488121 -16.331499
S 19.310620 4.457784 -13.361836
S 22.280283 4.457784 -16.331499
S 22.280283 1.488121 -13.361836
S 19.310620 1.488121 -10.392174
S 19.310620 4.457784 -7.422511
S 22.280283 4.457784 -10.392174
S 22.280283 1.488121 -7.422511
S 19.310620 1.488121 -4.452849
S 19.310620 4.457784 -1.483186
S 22.280283 4.457784 -4.452849
S 22.280283 1.488121 -1.483186
S 19.310620 1.488121 1.486476
S 19.310620 4.457784 4.456139
S 22.280283 4.457784 1.486476
S 22.280283 1.488121 4.456139
S 19.310620 1.488121 7.425801
S 19.310620 4.457784 10.395464
S 22.280283 4.457784 7.425801
S 22.280283 1.488121 10.395464
S 19.310620 1.488121 13.365126
S 19.310620 4.457784 16.334789
S 22.280283 4.457784 13.365126
S 22.280283 1.488121 16.334789
S 19.310620 1.488121 19.304451
S 19.310620 4.457784 22.274114
S 22.280283 4.457784 19.304451
S 22.280283 1.488121 22.274114
S 19.310620 1.488121 25.243777
S 19.310620 4.457784 28.213439
S 22.280283 4.457784 25.243777
S 19.310620 7.427446 -28.210149
S 19.310620 10.397109 -25.240487
S 22.280283 7.427446 -25.240487
S 19.310620 7.427446 -22.270824
S 19.310620 10.397109 -19.301161
S 22.280283 10.397109 -22.270824
S 22.280283 7.427446 -19.301161
S 19.310620 7.427446 -16.331499
S 19.310620 10.397109 -13.361836
S 22.280283 10.397109 -16.331499
S 22.280283 7.427446 -13.361836
S 19.310620 7.427446 -10.392174
S 19.310620 10.397109 -7.422511
S 22.280283 10.397109 -10.392174
S 22.280283 7.427446 -7.422511
S 19.310620 7.427446 -4.452849
S 19.310620 10.397109 -1.483186
S 22.280283 10.397109 -4.452849
S 22.280283 7.427446 -1.483186
S 19.310620 7.427446 1.486476
S 19.310620 10.397109 4.456139
S 22.280283 10.397109 1.486476
S 22.280283 7.427446 4.456139
S 19.310620 7.427446 7.425801
S 19.310620 10.397109 10.395464
S 22.280283 10.397109 7.425801
S 22.280283 7.427446 10.395464
S 19.310620 7.427446 13.365126
S 19.310620 10.397109 16.334789
S 22.280283 10.397109 13.365126
S 22.280283 7.427446 16.334789
S 19.310620 7.427446 19.304451
S 19.310620 10.397109 22.274114
S 22.280283 10.397109 19.304451
S 22.280283 7.427446 22.274114
S 19.310620 7.427446 25.243777
S 19.310620 13.366771 -22.270824
S 19.310620 16.336434 -19.301161
S 22.280283 13.366771 -19.301161
S 19.310620 13.366771 -16.331499
S 19.310620 16.336434 -13.361836
S 22.280283 16.336434 -16.331499
S 22.280283 13.366771 -13.361836
S 19.310620 13.366771 -10.392174
S 19.310620 16.336434 -7.422511
S 22.280283 16.336434 -10.392174
S 22.280283 13.366771 -7.422511
S 19.310620 13.366771 -4.452849
S 19.310620 16.336434 -1.483186
S 22.280283 16.336434 -4.452849
S 22.280283 13.366771 -1.483186
S 19.310620 13.366771 1.486476
S 19.310620 16.336434 4.456139
S 22.280283 16.336434 1.486476
S 22.280283 13.366771 4.456139
S 19.310620 13.366771 7.425801
S 19.310620 16.336434 10.395464
S 22.280283 16.336434 7.425801
S 22.280283 13.366771 10.395464
S 19.310620 13.366771 13.365126
S 19.310620 16.336434 16.334789
S 22.280283 16.336434 13.365126
S 22.280283 13.366771 16.334789
S 19.310620 13.366771 19.304451
S 19.310620 19.306097 -16.331499
S 19.310620 22.275759 -13.361836
S 22.280283 19.306097 -13.361836
S 19.310620 19.306097 -10.392174
S 19.310620 22.275759 -7.422511
S 22.280283 22.275759 -10.392174
S 22.280283 19.306097 -7.422511
S 19.310620 19.306097 -4.452849
S 19.310620 22.275759 -1.483186
S 22.280283 22.275759 -4.452849
S 22.280283 19.306097 -1.483186
S 19.310620 19.306097 1.486476
S 19.310620 22.275759 4.456139
S 22.280283 22.275759 1.486476
S 22.280283 19.306097 4.456139
S 19.310620 19.306097 7.425801
S 19.310620 22.275759 10.395464
S 22.280283 22.275759 7.425801
S 22.280283 19.306097 10.395464
S 19.310620 19.306097 13.365126
S 19.310620 25.245422 -10.392174
S 19.310620 28.215084 -7.422511
S 22.280283 25.245422 -7.422511
S 19.310620 25.245422 -4.452849
S 19.310620 28.215084 -1.483186
S 22.280283 25.245422 -1.483186
S 19.310620 25.245422 1.486476
S 19.310620 28.215084 4.456139
S 22.280283 25.245422 4.456139
S 19.310620 25.245422 7.425801
S 25.249945 -19.299516 -7.422511
S 25.249945 -22.269179 -4.452849
S 25.249945 -19.299516 -1.483186
S 28.219608 -19.299516 -4.452849
S 25.249945 -22.269179 1.486476
S 25.249945 -19.299516 4.456139
S 28.219608 -19.299516 1.486476
S 25.249945 -22.269179 7.425801
S 25.249945 -19.299516 10.395464
S 28.219608 -19.299516 7.425801
S 25.249945 -13.360191 -13.361836
S 25.249945 -16.329854 -10.392174
S 25.249945 -13.360191 -7.422511
S 28.219608 -13.360191 -10.392174
S 28.219608 -16.329854 -7.422511
S 25.249945 -16.329854 -4.452849
S 25.249945 -13.360191 -1.483186
S 28.219608 -13.360191 -4.452849
S 28.219608 -16.329854 -1.483186
S 25.249945 -16.329854 1.486476
S 25.249945 -13.360191 4.456139
S 28.219608 -13.360191 1.486476
S 28.219608 -16.329854 4.456139
S 25.249945 -16.329854 7.425801
S 25.249945 -13.360191 10.395464
S 28.219608 -13.360191 7.425801
S 28.219608 -16.329854 10.395464
S 25.249945 -16.329854 13.365126
S 25.249945 -13.360191 16.334789
S 28.219608 -13.360191 13.365126
S 25.249945 -7.420866 -19.301161
S 25.249945 -10.390529 -16.331499
S 25.249945 -7.420866 -13.361836
S 28.219608 -7.420866 -16.331499
S 28.219608 -10.390529 -13.361836
S 25.249945 -10.390529 -10.392174
S 25.249945 -7.420866 -7.422511
S 28.219608 -7.420866 -10.392174
S 28.219608 -10.390529 -7.422511
S 25.249945 -10.390529 -4.452849
S 25.249945 -7.420866 -1.483186
S 28.219608 -7.420866 -4.452849
S 28.219608 -10.390529 -1.483186
S 25.249945 -10.390529 1.486476
S 25.249945 -7.420866 4.456139
S 28.219608 -7.420866 1.486476
S 28.219608 -10.390529 4.456139
S 25.249945 -10.390529 7.425801
S 25.249945 -7.420866 10.395464
S 28.219608 -7.420866 7.425801
S 28.219608 -10.390529 10.395464
S 25.249945 -10.390529 13.365126
S 25.249945 -7.420866 16.334789
S 28.219608 -7.420866 13.365126
S 28.219608 -10.390529 16.334789
S 25.249945 -10.390529 19.304451
S 25.249945 -7.420866 22.274114
S 28.219608 -7.420866 19.304451
S 25.249945 -4.451204 -22.270824
S 25.249945 -1.481541 -19.301161
S 28.219608 -4.451204 -19.301161
S 25.249945 -4.451204 -16.331499
S 25.249945 -1.481541 -13.361836
S 28.219608 -1.481541 -16.331499
S 28.219608 -4.451204 -13.361836
S 25.249945 -4.451204 -10.392174
S 25.249945 -1.481541 -7.422511
S 28.219608 -1.481541 -10.392174
S 28.219608 -4.451204 -7.422511
S 25.249945 -4.451204 -4.452849
S 25.249945 -1.481541 -1.483186
S 28.219608 -1.481541 -4.452849
S 28.219608 -4.451204 -1.483186
S 25.249945 -4.451204 1.486476
S 25.249945 -1.481541 4.456139
S 28.219608 -1.481541 1.486476
S 28.219608 -4.451204 4.456139
S 25.249945 -4.451204 7.425801
S 25.249945 -1.481541 10.395464
S 28.219608 -1.481541 7.425801
S 28.219608 -4.451204 10.395464
S 25.249945 -4.451204 13.365126
S 25.249945 -1.481541 16.334789
S 28.219608 -1.481541 13.365126
S 28.219608 -4.451204 16.334789
S 25.249945 -4.451204 19.304451
S 25.249945 -1.481541 22.274114
S 28.219608 -1.481541 19.304451
S 25.249945 1.488121 -22.270824
S 25.249945 4.457784 -19.301161
S 28.219608 1.488121 -19.301161
S 25.249945 1.488121 -16.331499
S 25.249945 4.457784 -13.361836
S 28.219608 4.457784 -16.331499
S 28.219608 1.488121 -13.361836
S 25.249945 1.488121 -10.392174
S 25.249945 4.457784 -7.422511
S 28.219608 4.457784 -10.392174
S 28.219608 1.488121 -7.422511
S 25.249945 1.488121 -4.452849
S 25.249945 4.457784 -1.483186
S 28.219608 4.457784 -4.452849
S 28.219608 1.488121 -1.483186
S 25.249945 1.488121 1.486476
S 25.249945 4.457784 4.456139
S 28.219608 4.457784 1.486476
S 28.219608 1.488121 4.456139
S 25.249945 1.488121 7.425801
S 25.249945 4.457784 10.395464
S 28.219608 4.457784 7.425801
S 28.219608 1.488121 10.395464
S 25.249945 1.488121 13.365126
S 25.249945 4.457784 16.334789
S 28.219608 4.457784 13.365126
S 28.219608 1.488121 16.334789
S 25.249945 1.488121 19.304451
S 25.249945 4.457784 22.274114
S 28.219608 4.457784 19.304451
S 25.249945 7.427446 -22.270824
S 25.249945 10.397109 -19.301161
S 28.219608 7.427446 -19.301161
S 25.249945 7.427446 -16.331499
S 25.249945 10.397109 -13.361836
S 28.219608 10.397109 -16.331499
S 28.219608 7.427446 -13.361836
S 25.249945 7.427446 -10.392174
S 25.249945 10.397109 -7.422511
S 28.219608 10.397109 -10.392174
S 28.219608 7.427446 -7.422511
S 25.249945 7.427446 -4.452849
S 25.249945 10.397109 -1.483186
S 28.219608 10.397109 -4.452849
S 28.219608 7.427446 -1.483186
S 25.249945 7.427446 1.486476
S 25.249945 10.397109 4.456139
S 28.219608 10.397109 1.486476
S 28.219608 7.427446 4.456139
S 25.249945 7.427446 7.425801
S 25.249945 10.397109 10.395464
S 28.219608 10.397109 7.425801
S 28.219608 7.427446 10.395464
S 25.249945 7.427446 13.365126
S 25.249945 10.397109 16.334789
S 28.219608 10.397109 13.365126
S 28.219608 7.427446 16.334789
S 25.249945 7.427446 19.304451
S 25.249945 13.366771 -16.331499
S 25.249945 16.336434 -13.361836
S 28.219608 13.366771 -13.361836
S 25.249945 13.366771 -10.392174
S 25.249945 16.336434 -7.422511
S 28.219608 16.336434 -10.392174
S 28.219608 13.366771 -7.422511
S 25.249945 13.366771 -4.452849
S 25.249945 16.336434 -1.483186
S 28.219608 16.336434 -4.452849
S 28.219608 13.366771 -1.483186
S 25.249945 13.366771 1.486476
S 25.249945 16.336434 4.456139
S 28.219608 16.336434 1.486476
S 28.219608 13.366771 4.456139
S 25.249945 13.366771 7.425801
S 25.249945 16.336434 10.395464
S 28.219608 16.336434 7.425801
S 28.219608 13.366771 10.395464
S 25.249945 13.366771 13.365126
S 25.249945 19.306097 -10.392174
S 25.249945 22.275759 -7.422511
S 28.219608 19.306097 -7.422511
S 25.249945 19.306097 -4.452849
S 25.249945 22.275759 -1.483186
S 28.219608 19.306097 -1.483186
S 25.249945 19.306097 1.486476
S 25.249945 22.275759 4.456139
S 28.219608 19.306097 4.456139
S 25.249945 19.306097 7.425801
S 31.189270 -13.360191 -7.422511
S 31.189270 -16.329854 -4.452849
S 31.189270 -13.360191 -1.483186
S 31.189270 -16.329854 1.486476
S 31.189270 -13.360191 4.456139
S 31.189270 -16.329854 7.425801
S 31.189270 -13.360191 10.395464
S 31.189270 -7.420866 -13.361836
S 31.189270 -10.390529 -10.392174
S 31.189270 -7.420866 -7.422511
S 31.189270 -10.390529 -4.452849
S 31.189270 -7.420866 -1.483186
S 31.189270 -10.390529 1.486476
S 31.189270 -7.420866 4.456139
S 31.189270 -10.390529 7.425801
S 31.189270 -7.420866 10.395464
S 31.189270 -10.390529 13.365126
S 31.189270 -7.420866 16.334789
S 31.189270 -4.451204 -16.331499
S 31.189270 -1.481541 -13.361836
S 31.189270 -4.451204 -10.392174
S 31.189270 -1.481541 -7.422511
S 31.189270 -4.451204 -4.452849
S 31.189270 -1.481541 -1.483186
S 31.189270 -4.451204 1.486476
S 31.189270 -1.481541 4.456139
S 31.189270 -4.451204 7.425801
S 31.189270 -1.481541 10.395464
S 31.189270 -4.451204 13.365126
S 31.189270 -1.481541 16.334789
S 31.189270 1.488121 -16.331499
S 31.189270 4.457784 -13.361836
S 31.189270 1.488121 -10.392174
S 31.189270 4.457784 -7.422511
S 31.189270 1.488121 -4.452849
S 31.189270 4.457784 -1.483186
S 31.189270 1.488121 1.486476
S 31.189270 4.457784 4.456139
S 31.189270 1.488121 7.425801
S 31.189270 4.457784 10.395464
S 31.189270 1.488121 13.365126
S 31.189270 4.457784 16.334789
S 31.189270 7.427446 -16.331499
S 31.189270 10.397109 -13.361836
S 31.189270 7.427446 -10.392174
S 31.189270 10.397109 -7.422511
S 31.189270 7.427446 -4.452849
S 31.189270 10.397109 -1.483186
S 31.189270 7.427446 1.486476
S 31.189270 10.397109 4.456139
S 31.189270 7.427446 7.425801
S 31.189270 10.397109 10.395464
S 31.189270 7.427446 13.365126
S 31.189270 13.366771 -10.392174
S 31.189270 16.336434 -7.422511
S 31.189270 13.366771 -4.452849
S 31.189270 16.336434 -1.483186
S 31.189270 13.366771 1.486476
S 31.189270 16.336434 4.456139
S 31.189270 13.366771 7.425801
Cl -34.143305 -13.360191 -7.422511
Cl -34.143305 -13.360191 -1.483186
Cl -34.143305 -13.360191 4.456139
Cl -34.143305 -7.420866 -13.361836
Cl -34.143305 -10.390529 -10.392174
Cl -34.143305 -7.420866 -7.422511
Cl -34.143305 -10.390529 -4.452849
Cl -34.143305 -7.420866 -1.483186
Cl -34.143305 -10.390529 1.486476
Cl -34.143305 -7.420866 4.456139
Cl -34.143305 -10.390529 7.425801
Cl -34.143305 -7.420866 10.395464
Cl -34.143305 -1.481541 -13.361836
Cl -34.143305 -4.451204 -10.392174
Cl -34.143305 -1.481541 -7.422511
Cl -34.143305 -4.451204 -4.452849
Cl -34.143305 -1.481541 -1.483186
Cl -34.143305 -4.451204 1.486476
Cl -34.143305 -1.481541 4.456139
Cl -34.143305 -4.451204 7.425801
Cl -34.143305 -1.481541 10.395464
Cl -34.143305 -4.451204 13.365126
Cl -34.143305 4.457784 -13.361836
Cl -34.143305 1.488121 -10.392174
Cl -34.143305 4.457784 -7.422511
Cl -34.143305 1.488121 -4.452849
Cl -34.143305 4.457784 -1.483186
Cl -34.143305 1.488121 1.486476
Cl -34.143305 4.457784 4.456139
Cl -34.143305 1.488121 7.425801
Cl -34.143305 4.457784 10.395464
Cl -34.143305 1.488121 13.365126
Cl -34.143305 7.427446 -10.392174
Cl -34.143305 10.397109 -7.422511
Cl -34.143305 7.427446 -4.452849
Cl -34.143305 10.397109 -1.483186
Cl -34.143305 7.427446 1.486476
Cl -34.143305 10.397109 4.456139
Cl -34.143305 7.427446 7.425801
Cl -34.143305 10.397109 10.395464
Cl -34.143305 7.427446 13.365126
Cl -34.143305 13.366771 -4.452849
Cl -34.143305 13.366771 1.486476
Cl -34.143305 13.366771 7.425801
Cl -13.355668 -34.147829 -7.422511
Cl -13.355668 -34.147829 -1.483186
Cl -13.355668 -34.147829 4.456139
Cl -13.355668 -7.420866 -34.149474
Cl -13.355668 -1.481541 -34.149474
Cl -13.355668 -4.451204 34.152764
Cl -13.355668 4.457784 -34.149474
Cl -13.355668 1.488121 34.152764
Cl -13.355668 7.427446 34.152764
Cl -13.355668 34.154409 -4.452849
Cl -13.355668 34.154409 1.486476
Cl -13.355668 34.154409 7.425801
Cl -7.416343 -34.147829 -13.361836
Cl -10.386005 -34.147829 -10.392174
Cl -7.416343 -34.147829 -7.422511
Cl -10.386005 -34.147829 -4.452849
Cl -7.416343 -34.147829 -1.483186
Cl -10.386005 -34.147829 1.486476
Cl -7.416343 -34.147829 4.456139
Cl -10.386005 -34.147829 7.425801
Cl -7.416343 -34.147829 10.395464
Cl -7.416343 -13.360191 -34.149474
Cl -10.386005 -10.390529 -34.149474
Cl -7.416343 -7.420866 -34.149474
Cl -10.386005 -7.420866 34.152764
Cl -7.416343 -10.390529 34.152764
Cl -10.386005 -4.451204 -34.149474
Cl -7.416343 -1.481541 -34.149474
Cl -10.386005 -1.481541 34.152764
Cl -7.416343 -4.451204 34.152764
Cl -10.386005 1.488121 -34.149474
Cl -7.416343 4.457784 -34.149474
Cl -10.386005 4.457784 34.152764
Cl -7.416343 1.488121 34.152764
Cl -10.386005 7.427446 -34.149474
Cl -7.416343 10.397109 -34.149474
Cl -10.386005 10.397109 34.152764
Cl -7.416343 7.427446 34.152764
Cl -7.416343 13.366771 34.152764
Cl -10.386005 34.154409 -7.422511
Cl -7.416343 34.154409 -10.392174
Cl -10.386005 34.154409 -1.483186
Cl -7.416343 34.154409 -4.452849
Cl -10.386005 34.154409 4.456139
Cl -7.416343 34.154409 1.486476
Cl -10.386005 34.154409 10.395464
Cl -7.416343 34.154409 7.425801
Cl -7.416343 34.154409 13.365126
Cl -1.477017 -34.147829 -13.361836
Cl -4.446680 -34.147829 -10.392174
Cl -1.477017 -34.147829 -7.422511
Cl -4.446680 -34.147829 -4.452849
Cl -1.477017 -34.147829 -1.483186
Cl -4.446680 -34.147829 1.486476
Cl -1.477017 -34.147829 4.456139
Cl -4.446680 -34.147829 7.425801
Cl -1.477017 -34.147829 10.395464
Cl -4.446680 -34.147829 13.365126
Cl -1.477017 -13.360191 -34.149474
Cl -4.446680 -13.360191 34.152764
Cl -4.446680 -10.390529 -34.149474
Cl -1.477017 -7.420866 -34.149474
Cl -4.446680 -7.420866 34.152764
Cl -1.477017 -10.390529 34.152764
Cl -4.446680 -4.451204 -34.149474
Cl -1.477017 -1.481541 -34.149474
Cl -4.446680 -1.481541 34.152764
Cl -1.477017 -4.451204 34.152764
Cl -4.446680 1.488121 -34.149474
Cl -1.477017 4.457784 -34.149474
Cl -4.446680 4.457784 34.152764
Cl -1.477017 1.488121 34.152764
Cl -4.446680 7.427446 -34.149474
Cl -1.477017 10.397109 -34.149474
Cl -4.446680 10.397109 34.152764
Cl -1.477017 7.427446 34.152764
Cl -4.446680 13.366771 -34.149474
Cl -1.477017 13.366771 34.152764
Cl -4.446680 34.154409 -13.361836
Cl -4.446680 34.154409 -7.422511
Cl -1.477017 34.154409 -10.392174
Cl -4.446680 34.154409 -1.483186
Cl -1.477017 34.154409 -4.452849
Cl -4.446680 34.154409 4.456139
Cl -1.477017 34.154409 1.486476
Cl -4.446680 34.154409 10.395464
Cl -1.477017 34.154409 7.425801
Cl -1.477017 34.154409 13.365126
Cl 4.462308 -34.147829 -13.361836
Cl 1.492645 -34.147829 -10.392174
Cl 4.462308 -34.147829 -7.422511
Cl 1.492645 -34.147829 -4.452849
Cl 4.462308 -34.147829 -1.483186
Cl 1.492645 -34.147829 1.486476
Cl 4.462308 -34.147829 4.456139
Cl 1.492645 -34.147829 7.425801
Cl 4.462308 -34.147829 10.395464
Cl 1.492645 -34.147829 13.365126
Cl 4.462308 -13.360191 -34.149474
Cl 1.492645 -13.360191 34.152764
Cl 1.492645 -10.390529 -34.149474
Cl 4.462308 -7.420866 -34.149474
Cl 1.492645 -7.420866 34.152764
Cl 4.462308 -10.390529 34.152764
Cl 1.492645 -4.451204 -34.149474
Cl 4.462308 -1.481541 -34.149474
Cl 1.492645 -1.481541 34.152764
Cl 4.462308 -4.451204 34.152764
Cl 1.492645 1.488121 -34.149474
Cl 4.462308 4.457784 -34.149474
Cl 1.492645 4.457784 34.152764
Cl 4.462308 1.488121 34.152764
Cl 1.492645 7.427446 -34.149474
Cl 4.462308 10.397109 -34.149474
Cl 1.492645 10.397109 34.152764
Cl 4.462308 7.427446 34.152764
Cl 1.492645 13.366771 -34.149474
Cl 4.462308 13.366771 34.152764
Cl 1.492645 34.154409 -13.361836
Cl 1.492645 34.154409 -7.422511
Cl 4.462308 34.154409 -10.392174
Cl 1.492645 34.154409 -1.483186
Cl 4.462308 34.154409 -4.452849
Cl 1.492645 34.154409 4.456139
Cl 4.462308 34.154409 1.486476
Cl 1.492645 34.154409 10.395464
Cl 4.462308 34.154409 7.425801
Cl 4.462308 34.154409 13.365126
Cl 7.431970 -34.147829 -10.392174
Cl 10.401633 -34.147829 -7.422511
Cl 7.431970 -34.147829 -4.452849
Cl 10.401633 -34.147829 -1.483186
Cl 7.431970 -34.147829 1.486476
Cl 10.401633 -34.147829 4.456139
Cl 7.431970 -34.147829 7.425801
Cl 10.401633 -34.147829 10.395464
Cl 7.431970 -34.147829 13.365126
Cl 7.431970 -13.360191 34.152764
Cl 7.431970 -10.390529 -34.149474
Cl 10.401633 -7.420866 -34.149474
Cl 7.431970 -7.420866 34.152764
Cl 10.401633 -10.390529 34.152764
Cl 7.431970 -4.451204 -34.149474
Cl 10.401633 -1.481541 -34.149474
Cl 7.431970 -1.481541 34.152764
Cl 10.401633 -4.451204 34.152764
Cl 7.431970 1.488121 -34.149474
Cl 10.401633 4.457784 -34.149474
Cl 7.431970 4.457784 34.152764
Cl 10.401633 1.488121 34.152764
Cl 7.431970 7.427446 -34.149474
Cl 10.401633 10.397109 -34.149474
Cl 7.431970 10.397109 34.152764
Cl 10.401633 7.427446 34.152764
Cl 7.431970 13.366771 -34.149474
Cl 7.431970 34.154409 -13.361836
Cl 7.431970 34.154409 -7.422511
Cl 10.401633 34.154409 -10.392174
Cl 7.431970 34.154409 -1.483186
Cl 10.401633 34.154409 -4.452849
Cl 7.431970 34.154409 4.456139
Cl 10.401633 34.154409 1.486476
Cl 7.431970 34.154409 10.395464
Cl 10.401633 34.154409 7.425801
Cl 13.371295 -34.147829 -4.452849
Cl 13.371295 -34.147829 1.486476
Cl 13.371295 -34.147829 7.425801
Cl 13.371295 -7.420866 34.152764
Cl 13.371295 -4.451204 -34.149474
Cl 13.371295 -1.481541 34.152764
Cl 13.371295 1.488121 -34.149474
Cl 13.371295 4.457784 34.152764
Cl 13.371295 7.427446 -34.149474
Cl 13.371295 34.154409 -7.422511
Cl 13.371295 34.154409 -1.483186
Cl 13.371295 34.154409 4.456139
Cl 34.158933 -13.360191 -4.452849
Cl 34.158933 -13.360191 1.486476
Cl 34.158933 -13.360191 7.425801
Cl 34.158933 -7.420866 -10.392174
Cl 34.158933 -10.390529 -7.422511
Cl 34.158933 -7.420866 -4.452849
Cl 34.158933 -10.390529 -1.483186
Cl 34.158933 -7.420866 1.486476
Cl 34.158933 -10.390529 4.456139
Cl 34.158933 -7.420866 7.425801
Cl 34.158933 -10.390529 10.395464
Cl 34.158933 -7.420866 13.365126
Cl 34.158933 -4.451204 -13.361836
Cl 34.158933 -1.481541 -10.392174
Cl 34.158933 -4.451204 -7.422511
Cl 34.158933 -1.481541 -4.452849
Cl 34.158933 -4.451204 -1.483186
Cl 34.158933 -1.481541 1.486476
Cl 34.158933 -4.451204 4.456139
Cl 34.158933 -1.481541 7.425801
Cl 34.158933 -4.451204 10.395464
Cl 34.158933 -1.481541 13.365126
Cl 34.158933 1.488121 -13.361836
Cl 34.158933 4.457784 -10.392174
Cl 34.158933 1.488121 -7.422511
Cl 34.158933 4.457784 -4.452849
Cl 34.158933 1.488121 -1.483186
Cl 34.158933 4.457784 1.486476
Cl 34.158933 1.488121 4.456139
Cl 34.158933 4.457784 7.425801
Cl 34.158933 1.488121 10.395464
Cl 34.158933 4.457784 13.365126
Cl 34.158933 7.427446 -13.361836
Cl 34.158933 10.397109 -10.392174
Cl 34.158933 7.427446 -7.422511
Cl 34.158933 10.397109 -4.452849
Cl 34.158933 7.427446 -1.483186
Cl 34.158933 10.397109 1.486476
Cl 34.158933 7.427446 4.456139
Cl 34.158933 10.397109 7.425801
Cl 34.158933 7.427446 10.395464
Cl 34.158933 13.366771 -7.422511
Cl 34.158933 13.366771 -1.483186
Cl 34.158933 13.366771 4.456139
Cl -19.294993 -19.299516 16.334789
Cl -19.294993 16.336434 -19.301161
Cl 16.340958 -19.299516 -19.301161
Cl 16.340958 19.306097 19.304451
Cl -16.325330 -7.420866 31.183102
Cl -16.325330 31.184747 -7.422511
Cl 31.189270 -16.329854 -7.422511
Cl 31.189270 7.427446 16.334789
Cl -7.416343 -31.178167 16.334789
Cl -7.416343 16.336434 -31.179812
Cl 16.340958 -7.420866 -31.179812
Cl 16.340958 31.184747 7.425801
Cl -31.173643 -7.420866 16.334789
Cl -31.173643 16.336434 -7.422511
Cl 16.340958 -31.178167 -7.422511
Cl 16.340958 7.427446 31.183102
Cl -7.416343 -19.299516 28.213439
Cl -7.416343 28.215084 -19.301161
Cl 28.219608 -7.420866 -19.301161
Cl 28.219608 19.306097 7.425801
Cl -31.173643 -16.329854 7.425801
Cl -31.173643 7.427446 -16.331499
Cl 7.431970 -31.178167 -16.331499
Cl 7.431970 16.336434 31.183102
Cl -16.325330 -31.178167 7.425801
Cl -16.325330 7.427446 -31.179812
Cl 7.431970 -16.329854 -31.179812
Cl 7.431970 31.184747 16.334789
Cl -22.264655 -10.390529 22.274114
Cl -22.264655 22.275759 -10.392174
Cl 22.280283 -22.269179 -10.392174
Cl 22.280283 10.397109 22.274114
Cl -22.264655 -25.238842 7.425801
Cl -22.264655 7.427446 -25.240487
Cl 7.431970 -22.269179 -25.240487
Cl 7.431970 25.245422 22.274114
Cl -7.416343 -25.238842 22.274114
Cl -7.416343 22.275759 -25.240487
