2406
AlSb-Sb-Al1052Sb901Cl453-reconstructed
Al -23.206068 -17.032791 -13.918495
Al -23.206068 -13.937791 -17.013495
Al -26.301068 -13.937791 -13.918495
Al -23.206068 -10.842791 -13.918495
Al -23.206068 -13.937791 -10.823495
Al -26.301068 -10.842791 -10.823495
Al -23.206068 -10.842791 -7.728495
Al -23.206068 -7.747791 -10.823495
Al -26.301068 -7.747791 -7.728495
Al -23.206068 -4.652791 -7.728495
Al -23.206068 -7.747791 -4.633495
Al -26.301068 -4.652791 -4.633495
Al -23.206068 -4.652791 -1.538495
Al -23.206068 -1.557791 -4.633495
Al -26.301068 -1.557791 -1.538495
Al -23.206068 1.537209 -1.538495
Al -23.206068 -1.557791 1.556505
Al -26.301068 1.537209 1.556505
Al -23.206068 1.537209 4.651505
Al -23.206068 4.632209 1.556505
Al -26.301068 4.632209 4.651505
Al -23.206068 7.727209 4.651505
Al -23.206068 4.632209 7.746505
Al -26.301068 7.727209 7.746505
Al -23.206068 7.727209 10.841505
Al -23.206068 10.822209 7.746505
Al -26.301068 10.822209 10.841505
Al -23.206068 13.917209 10.841505
Al -23.206068 10.822209 13.936505
Al -26.301068 13.917209 13.936505
Al -23.206068 13.917209 17.031505
Al -23.206068 17.012209 13.936505
Al -17.016068 -23.222791 -13.918495
Al -17.016068 -20.127791 -17.013495
Al -20.111068 -17.032791 -17.013495
Al -20.111068 -20.127791 -13.918495
Al -17.016068 -17.032791 -13.918495
Al -17.016068 -20.127791 -10.823495
Al -20.111068 -17.032791 -10.823495
Al -17.016068 -17.032791 -7.728495
Al -17.016068 -13.937791 -23.203495
Al -20.111068 -13.937791 -20.108495
Al -17.016068 -10.842791 -20.108495
Al -17.016068 -13.937791 -17.013495
Al -20.111068 -10.842791 -17.013495
Al -20.111068 -13.937791 -13.918495
Al -17.016068 -10.842791 -13.918495
Al -17.016068 -13.937791 -10.823495
Al -20.111068 -10.842791 -10.823495
Al -20.111068 -13.937791 -7.728495
Al -17.016068 -10.842791 -7.728495
Al -17.016068 -13.937791 -4.633495
Al -20.111068 -10.842791 -4.633495
Al -17.016068 -10.842791 -1.538495
Al -17.016068 -7.747791 -17.013495
Al -20.111068 -7.747791 -13.918495
Al -17.016068 -4.652791 -13.918495
Al -17.016068 -7.747791 -10.823495
Al -20.111068 -4.652791 -10.823495
Al -20.111068 -7.747791 -7.728495
Al -17.016068 -4.652791 -7.728495
Al -17.016068 -7.747791 -4.633495
Al -20.111068 -4.652791 -4.633495
Al -20.111068 -7.747791 -1.538495
Al -17.016068 -4.652791 -1.538495
Al -17.016068 -7.747791 1.556505
Al -20.111068 -4.652791 1.556505
Al -17.016068 -4.652791 4.651505
Al -17.016068 -1.557791 -10.823495
Al -20.111068 -1.557791 -7.728495
Al -17.016068 1.537209 -7.728495
Al -17.016068 -1.557791 -4.633495
Al -20.111068 1.537209 -4.633495
Al -20.111068 -1.557791 -1.538495
Al -17.016068 1.537209 -1.538495
Al -17.016068 -1.557791 1.556505
Al -20.111068 1.537209 1.556505
Al -20.111068 -1.557791 4.651505
Al -17.016068 1.537209 4.651505
Al -17.016068 -1.557791 7.746505
Al -20.111068 1.537209 7.746505
Al -17.016068 1.537209 10.841505
Al -17.016068 4.632209 -4.633495
Al -20.111068 4.632209 -1.538495
Al -17.016068 7.727209 -1.538495
Al -17.016068 4.632209 1.556505
Al -20.111068 7.727209 1.556505
Al -20.111068 4.632209 4.651505
Al -17.016068 7.727209 4.651505
Al -17.016068 4.632209 7.746505
Al -20.111068 7.727209 7.746505
Al -20.111068 4.632209 10.841505
Al -17.016068 7.727209 10.841505
Al -17.016068 4.632209 13.936505
Al -20.111068 7.727209 13.936505
Al -17.016068 7.727209 17.031505
Al -17.016068 10.822209 1.556505
Al -20.111068 10.822209 4.651505
Al -17.016068 13.917209 4.651505
Al -17.016068 10.822209 7.746505
Al -20.111068 13.917209 7.746505
Al -20.111068 10.822209 10.841505
Al -17.016068 13.917209 10.841505
Al -17.016068 10.822209 13.936505
Al -20.111068 13.917209 13.936505
Al -20.111068 10.822209 17.031505
Al -17.016068 13.917209 17.031505
Al -17.016068 10.822209 20.126505
Al -20.111068 13.917209 20.126505
Al -17.016068 13.917209 23.221505
Al -17.016068 17.012209 7.746505
Al -20.111068 17.012209 10.841505
Al -17.016068 20.107209 10.841505
Al -17.016068 17.012209 13.936505
Al -20.111068 20.107209 13.936505
Al -20.111068 17.012209 17.031505
Al -17.016068 20.107209 17.031505
Al -17.016068 23.202209 13.936505
Al -13.921068 -23.222791 -17.013495
Al -13.921068 -26.317791 -13.918495
Al -10.826068 -23.222791 -13.918495
Al -10.826068 -26.317791 -10.823495
Al -13.921068 -23.222791 -10.823495
Al -10.826068 -23.222791 -7.728495
Al -13.921068 -17.032791 -23.203495
Al -13.921068 -20.127791 -20.108495
Al -10.826068 -17.032791 -20.108495
Al -10.826068 -20.127791 -17.013495
Al -13.921068 -17.032791 -17.013495
Al -13.921068 -20.127791 -13.918495
Al -10.826068 -17.032791 -13.918495
Al -10.826068 -20.127791 -10.823495
Al -13.921068 -17.032791 -10.823495
Al -13.921068 -20.127791 -7.728495
Al -10.826068 -17.032791 -7.728495
Al -10.826068 -20.127791 -4.633495
Al -13.921068 -17.032791 -4.633495
Al -10.826068 -17.032791 -1.538495
Al -13.921068 -13.937791 -26.298495
Al -10.826068 -10.842791 -26.298495
Al -13.921068 -10.842791 -23.203495
Al -13.921068 -13.937791 -20.108495
Al -10.826068 -10.842791 -20.108495
Al -10.826068 -13.937791 -17.013495
Al -13.921068 -10.842791 -17.013495
Al -13.921068 -13.937791 -13.918495
Al -10.826068 -10.842791 -13.918495
Al -10.826068 -13.937791 -10.823495
Al -13.921068 -10.842791 -10.823495
Al -13.921068 -13.937791 -7.728495
Al -10.826068 -10.842791 -7.728495
Al -10.826068 -13.937791 -4.633495
Al -13.921068 -10.842791 -4.633495
Al -13.921068 -13.937791 -1.538495
Al -10.826068 -10.842791 -1.538495
Al -10.826068 -13.937791 1.556505
Al -13.921068 -10.842791 1.556505
Al -10.826068 -10.842791 4.651505
Al -10.826068 -7.747791 -23.203495
Al -13.921068 -7.747791 -20.108495
Al -10.826068 -4.652791 -20.108495
Al -10.826068 -7.747791 -17.013495
Al -13.921068 -4.652791 -17.013495
Al -13.921068 -7.747791 -13.918495
Al -10.826068 -4.652791 -13.918495
Al -10.826068 -7.747791 -10.823495
Al -13.921068 -4.652791 -10.823495
Al -13.921068 -7.747791 -7.728495
Al -10.826068 -4.652791 -7.728495
Al -10.826068 -7.747791 -4.633495
Al -13.921068 -4.652791 -4.633495
Al -13.921068 -7.747791 -1.538495
Al -10.826068 -4.652791 -1.538495
Al -10.826068 -7.747791 1.556505
Al -13.921068 -4.652791 1.556505
Al -13.921068 -7.747791 4.651505
Al -10.826068 -4.652791 4.651505
Al -10.826068 -7.747791 7.746505
Al -13.921068 -4.652791 7.746505
Al -10.826068 -4.652791 10.841505
Al -10.826068 -1.557791 -17.013495
Al -13.921068 -1.557791 -13.918495
Al -10.826068 1.537209 -13.918495
Al -10.826068 -1.557791 -10.823495
Al -13.921068 1.537209 -10.823495
Al -13.921068 -1.557791 -7.728495
Al -10.826068 1.537209 -7.728495
Al -10.826068 -1.557791 -4.633495
Al -13.921068 1.537209 -4.633495
Al -13.921068 -1.557791 -1.538495
Al -10.826068 1.537209 -1.538495
Al -10.826068 -1.557791 1.556505
Al -13.921068 1.537209 1.556505
Al -13.921068 -1.557791 4.651505
Al -10.826068 1.537209 4.651505
Al -10.826068 -1.557791 7.746505
Al -13.921068 1.537209 7.746505
Al -13.921068 -1.557791 10.841505
Al -10.826068 1.537209 10.841505
Al -10.826068 -1.557791 13.936505
Al -13.921068 1.537209 13.936505
Al -10.826068 1.537209 17.031505
Al -10.826068 4.632209 -10.823495
Al -13.921068 4.632209 -7.728495
Al -10.826068 7.727209 -7.728495
Al -10.826068 4.632209 -4.633495
Al -13.921068 7.727209 -4.633495
Al -13.921068 4.632209 -1.538495
Al -10.826068 7.727209 -1.538495
Al -10.826068 4.632209 1.556505
Al -13.921068 7.727209 1.556505
Al -13.921068 4.632209 4.651505
Al -10.826068 7.727209 4.651505
Al -10.826068 4.632209 7.746505
Al -13.921068 7.727209 7.746505
Al -13.921068 4.632209 10.841505
Al -10.826068 7.727209 10.841505
Al -10.826068 4.632209 13.936505
Al -13.921068 7.727209 13.936505
Al -13.921068 4.632209 17.031505
Al -10.826068 7.727209 17.031505
Al -10.826068 4.632209 20.126505
Al -13.921068 7.727209 20.126505
Al -10.826068 7.727209 23.221505
Al -10.826068 10.822209 -4.633495
Al -13.921068 10.822209 -1.538495
Al -10.826068 13.917209 -1.538495
Al -10.826068 10.822209 1.556505
Al -13.921068 13.917209 1.556505
Al -13.921068 10.822209 4.651505
Al -10.826068 13.917209 4.651505
Al -10.826068 10.822209 7.746505
Al -13.921068 13.917209 7.746505
Al -13.921068 10.822209 10.841505
Al -10.826068 13.917209 10.841505
Al -10.826068 10.822209 13.936505
Al -13.921068 13.917209 13.936505
Al -13.921068 10.822209 17.031505
Al -10.826068 13.917209 17.031505
Al -10.826068 10.822209 20.126505
Al -13.921068 13.917209 20.126505
Al -13.921068 10.822209 23.221505
Al -10.826068 10.822209 26.316505
Al -13.921068 13.917209 26.316505
Al -10.826068 17.012209 1.556505
Al -13.921068 17.012209 4.651505
Al -10.826068 20.107209 4.651505
Al -10.826068 17.012209 7.746505
Al -13.921068 20.107209 7.746505
Al -13.921068 17.012209 10.841505
Al -10.826068 20.107209 10.841505
Al -10.826068 17.012209 13.936505
Al -13.921068 20.107209 13.936505
Al -13.921068 17.012209 17.031505
Al -10.826068 20.107209 17.031505
Al -10.826068 17.012209 20.126505
Al -13.921068 20.107209 20.126505
Al -13.921068 17.012209 23.221505
Al -10.826068 23.202209 7.746505
Al -13.921068 23.202209 10.841505
Al -10.826068 26.297209 10.841505
Al -10.826068 23.202209 13.936505
Al -13.921068 26.297209 13.936505
Al -13.921068 23.202209 17.031505
Al -7.731068 -23.222791 -10.823495
Al -7.731068 -26.317791 -7.728495
Al -4.636068 -23.222791 -7.728495
Al -4.636068 -26.317791 -4.633495
Al -7.731068 -23.222791 -4.633495
Al -4.636068 -23.222791 -1.538495
Al -7.731068 -17.032791 -17.013495
Al -7.731068 -20.127791 -13.918495
Al -4.636068 -17.032791 -13.918495
Al -4.636068 -20.127791 -10.823495
Al -7.731068 -17.032791 -10.823495
Al -7.731068 -20.127791 -7.728495
Al -4.636068 -17.032791 -7.728495
Al -4.636068 -20.127791 -4.633495
Al -7.731068 -17.032791 -4.633495
Al -7.731068 -20.127791 -1.538495
Al -4.636068 -17.032791 -1.538495
Al -4.636068 -20.127791 1.556505
Al -7.731068 -17.032791 1.556505
Al -4.636068 -17.032791 4.651505
Al -7.731068 -10.842791 -23.203495
Al -7.731068 -13.937791 -20.108495
Al -4.636068 -10.842791 -20.108495
Al -4.636068 -13.937791 -17.013495
Al -7.731068 -10.842791 -17.013495
Al -7.731068 -13.937791 -13.918495
Al -4.636068 -10.842791 -13.918495
Al -4.636068 -13.937791 -10.823495
Al -7.731068 -10.842791 -10.823495
Al -7.731068 -13.937791 -7.728495
Al -4.636068 -10.842791 -7.728495
Al -4.636068 -13.937791 -4.633495
Al -7.731068 -10.842791 -4.633495
Al -7.731068 -13.937791 -1.538495
Al -4.636068 -10.842791 -1.538495
Al -4.636068 -13.937791 1.556505
Al -7.731068 -10.842791 1.556505
Al -7.731068 -13.937791 4.651505
Al -4.636068 -10.842791 4.651505
Al -4.636068 -13.937791 7.746505
Al -7.731068 -10.842791 7.746505
Al -4.636068 -10.842791 10.841505
Al -7.731068 -7.747791 -26.298495
Al -4.636068 -4.652791 -26.298495
Al -4.636068 -7.747791 -23.203495
Al -7.731068 -4.652791 -23.203495
Al -7.731068 -7.747791 -20.108495
Al -4.636068 -4.652791 -20.108495
Al -4.636068 -7.747791 -17.013495
Al -7.731068 -4.652791 -17.013495
Al -7.731068 -7.747791 -13.918495
Al -4.636068 -4.652791 -13.918495
Al -4.636068 -7.747791 -10.823495
Al -7.731068 -4.652791 -10.823495
Al -7.731068 -7.747791 -7.728495
Al -4.636068 -4.652791 -7.728495
Al -4.636068 -7.747791 -4.633495
Al -7.731068 -4.652791 -4.633495
Al -7.731068 -7.747791 -1.538495
Al -4.636068 -4.652791 -1.538495
Al -4.636068 -7.747791 1.556505
Al -7.731068 -4.652791 1.556505
Al -7.731068 -7.747791 4.651505
Al -4.636068 -4.652791 4.651505
Al -4.636068 -7.747791 7.746505
Al -7.731068 -4.652791 7.746505
Al -7.731068 -7.747791 10.841505
Al -4.636068 -4.652791 10.841505
Al -4.636068 -7.747791 13.936505
Al -7.731068 -4.652791 13.936505
Al -4.636068 -4.652791 17.031505
Al -4.636068 -1.557791 -23.203495
Al -7.731068 -1.557791 -20.108495
Al -4.636068 1.537209 -20.108495
Al -4.636068 -1.557791 -17.013495
Al -7.731068 1.537209 -17.013495
Al -7.731068 -1.557791 -13.918495
Al -4.636068 1.537209 -13.918495
Al -4.636068 -1.557791 -10.823495
Al -7.731068 1.537209 -10.823495
Al -7.731068 -1.557791 -7.728495
Al -4.636068 1.537209 -7.728495
Al -4.636068 -1.557791 -4.633495
Al -7.731068 1.537209 -4.633495
Al -7.731068 -1.557791 -1.538495
Al -4.636068 1.537209 -1.538495
Al -4.636068 -1.557791 1.556505
Al -7.731068 1.537209 1.556505
Al -7.731068 -1.557791 4.651505
Al -4.636068 1.537209 4.651505
Al -4.636068 -1.557791 7.746505
Al -7.731068 1.537209 7.746505
Al -7.731068 -1.557791 10.841505
Al -4.636068 1.537209 10.841505
Al -4.636068 -1.557791 13.936505
Al -7.731068 1.537209 13.936505
Al -7.731068 -1.557791 17.031505
Al -4.636068 1.537209 17.031505
Al -4.636068 -1.557791 20.126505
Al -7.731068 1.537209 20.126505
Al -4.636068 1.537209 23.221505
Al -4.636068 4.632209 -17.013495
Al -7.731068 4.632209 -13.918495
Al -4.636068 7.727209 -13.918495
Al -4.636068 4.632209 -10.823495
Al -7.731068 7.727209 -10.823495
Al -7.731068 4.632209 -7.728495
Al -4.636068 7.727209 -7.728495
Al -4.636068 4.632209 -4.633495
Al -7.731068 7.727209 -4.633495
Al -7.731068 4.632209 -1.538495
Al -4.636068 7.727209 -1.538495
Al -4.636068 4.632209 1.556505
Al -7.731068 7.727209 1.556505
Al -7.731068 4.632209 4.651505
Al -4.636068 7.727209 4.651505
Al -4.636068 4.632209 7.746505
Al -7.731068 7.727209 7.746505
Al -7.731068 4.632209 10.841505
Al -4.636068 7.727209 10.841505
Al -4.636068 4.632209 13.936505
Al -7.731068 7.727209 13.936505
Al -7.731068 4.632209 17.031505
Al -4.636068 7.727209 17.031505
Al -4.636068 4.632209 20.126505
Al -7.731068 7.727209 20.126505
Al -7.731068 4.632209 23.221505
Al -4.636068 7.727209 23.221505
Al -4.636068 4.632209 26.316505
Al -7.731068 7.727209 26.316505
Al -4.636068 10.822209 -10.823495
Al -7.731068 10.822209 -7.728495
Al -4.636068 13.917209 -7.728495
Al -4.636068 10.822209 -4.633495
Al -7.731068 13.917209 -4.633495
Al -7.731068 10.822209 -1.538495
Al -4.636068 13.917209 -1.538495
Al -4.636068 10.822209 1.556505
Al -7.731068 13.917209 1.556505
Al -7.731068 10.822209 4.651505
Al -4.636068 13.917209 4.651505
Al -4.636068 10.822209 7.746505
Al -7.731068 13.917209 7.746505
Al -7.731068 10.822209 10.841505
Al -4.636068 13.917209 10.841505
Al -4.636068 10.822209 13.936505
Al -7.731068 13.917209 13.936505
Al -7.731068 10.822209 17.031505
Al -4.636068 13.917209 17.031505
Al -4.636068 10.822209 20.126505
Al -7.731068 13.917209 20.126505
Al -7.731068 10.822209 23.221505
Al -4.636068 17.012209 -4.633495
Al -7.731068 17.012209 -1.538495
Al -4.636068 20.107209 -1.538495
Al -4.636068 17.012209 1.556505
Al -7.731068 20.107209 1.556505
Al -7.731068 17.012209 4.651505
Al -4.636068 20.107209 4.651505
Al -4.636068 17.012209 7.746505
Al -7.731068 20.107209 7.746505
Al -7.731068 17.012209 10.841505
Al -4.636068 20.107209 10.841505
Al -4.636068 17.012209 13.936505
Al -7.731068 20.107209 13.936505
Al -7.731068 17.012209 17.031505
Al -4.636068 23.202209 1.556505
Al -7.731068 23.202209 4.651505
Al -4.636068 26.297209 4.651505
Al -4.636068 23.202209 7.746505
Al -7.731068 26.297209 7.746505
Al -7.731068 23.202209 10.841505
Al -1.541068 -23.222791 -4.633495
Al -1.541068 -26.317791 -1.538495
Al 1.553932 -23.222791 -1.538495
Al 1.553932 -26.317791 1.556505
Al -1.541068 -23.222791 1.556505
Al 1.553932 -23.222791 4.651505
Al -1.541068 -17.032791 -10.823495
Al -1.541068 -20.127791 -7.728495
Al 1.553932 -17.032791 -7.728495
Al 1.553932 -20.127791 -4.633495
Al -1.541068 -17.032791 -4.633495
Al -1.541068 -20.127791 -1.538495
Al 1.553932 -17.032791 -1.538495
Al 1.553932 -20.127791 1.556505
Al -1.541068 -17.032791 1.556505
Al -1.541068 -20.127791 4.651505
Al 1.553932 -17.032791 4.651505
Al 1.553932 -20.127791 7.746505
Al -1.541068 -17.032791 7.746505
Al 1.553932 -17.032791 10.841505
Al -1.541068 -10.842791 -17.013495
Al -1.541068 -13.937791 -13.918495
Al 1.553932 -10.842791 -13.918495
Al 1.553932 -13.937791 -10.823495
Al -1.541068 -10.842791 -10.823495
Al -1.541068 -13.937791 -7.728495
Al 1.553932 -10.842791 -7.728495
Al 1.553932 -13.937791 -4.633495
Al -1.541068 -10.842791 -4.633495
Al -1.541068 -13.937791 -1.538495
Al 1.553932 -10.842791 -1.538495
Al 1.553932 -13.937791 1.556505
Al -1.541068 -10.842791 1.556505
Al -1.541068 -13.937791 4.651505
Al 1.553932 -10.842791 4.651505
Al 1.553932 -13.937791 7.746505
Al -1.541068 -10.842791 7.746505
Al -1.541068 -13.937791 10.841505
Al 1.553932 -10.842791 10.841505
Al 1.553932 -13.937791 13.936505
Al -1.541068 -10.842791 13.936505
Al 1.553932 -10.842791 17.031505
Al -1.541068 -4.652791 -23.203495
Al -1.541068 -7.747791 -20.108495
Al 1.553932 -4.652791 -20.108495
Al 1.553932 -7.747791 -17.013495
Al -1.541068 -4.652791 -17.013495
Al -1.541068 -7.747791 -13.918495
Al 1.553932 -4.652791 -13.918495
Al 1.553932 -7.747791 -10.823495
Al -1.541068 -4.652791 -10.823495
Al -1.541068 -7.747791 -7.728495
Al 1.553932 -4.652791 -7.728495
Al 1.553932 -7.747791 -4.633495
Al -1.541068 -4.652791 -4.633495
Al -1.541068 -7.747791 -1.538495
Al 1.553932 -4.652791 -1.538495
Al 1.553932 -7.747791 1.556505
Al -1.541068 -4.652791 1.556505
Al -1.541068 -7.747791 4.651505
Al 1.553932 -4.652791 4.651505
Al 1.553932 -7.747791 7.746505
Al -1.541068 -4.652791 7.746505
Al -1.541068 -7.747791 10.841505
Al 1.553932 -4.652791 10.841505
Al 1.553932 -7.747791 13.936505
Al -1.541068 -4.652791 13.936505
Al -1.541068 -7.747791 17.031505
Al 1.553932 -4.652791 17.031505
Al 1.553932 -7.747791 20.126505
Al -1.541068 -4.652791 20.126505
Al 1.553932 -4.652791 23.221505
Al -1.541068 -1.557791 -26.298495
Al 1.553932 1.537209 -26.298495
Al 1.553932 -1.557791 -23.203495
Al -1.541068 1.537209 -23.203495
Al -1.541068 -1.557791 -20.108495
Al 1.553932 1.537209 -20.108495
Al 1.553932 -1.557791 -17.013495
Al -1.541068 1.537209 -17.013495
Al -1.541068 -1.557791 -13.918495
Al 1.553932 1.537209 -13.918495
Al 1.553932 -1.557791 -10.823495
Al -1.541068 1.537209 -10.823495
Al -1.541068 -1.557791 -7.728495
Al 1.553932 1.537209 -7.728495
Al 1.553932 -1.557791 -4.633495
Al -1.541068 1.537209 -4.633495
Al -1.541068 -1.557791 -1.538495
Al 1.553932 1.537209 -1.538495
Al 1.553932 -1.557791 1.556505
Al -1.541068 1.537209 1.556505
Al -1.541068 -1.557791 4.651505
Al 1.553932 1.537209 4.651505
Al 1.553932 -1.557791 7.746505
Al -1.541068 1.537209 7.746505
Al -1.541068 -1.557791 10.841505
Al 1.553932 1.537209 10.841505
Al 1.553932 -1.557791 13.936505
Al -1.541068 1.537209 13.936505
Al -1.541068 -1.557791 17.031505
Al 1.553932 1.537209 17.031505
Al 1.553932 -1.557791 20.126505
Al -1.541068 1.537209 20.126505
Al -1.541068 -1.557791 23.221505
Al 1.553932 1.537209 23.221505
Al 1.553932 -1.557791 26.316505
Al -1.541068 1.537209 26.316505
Al 1.553932 4.632209 -23.203495
Al -1.541068 4.632209 -20.108495
Al 1.553932 7.727209 -20.108495
Al 1.553932 4.632209 -17.013495
Al -1.541068 7.727209 -17.013495
Al -1.541068 4.632209 -13.918495
Al 1.553932 7.727209 -13.918495
Al 1.553932 4.632209 -10.823495
Al -1.541068 7.727209 -10.823495
Al -1.541068 4.632209 -7.728495
Al 1.553932 7.727209 -7.728495
Al 1.553932 4.632209 -4.633495
Al -1.541068 7.727209 -4.633495
Al -1.541068 4.632209 -1.538495
Al 1.553932 7.727209 -1.538495
Al 1.553932 4.632209 1.556505
Al -1.541068 7.727209 1.556505
Al -1.541068 4.632209 4.651505
Al 1.553932 7.727209 4.651505
Al 1.553932 4.632209 7.746505
Al -1.541068 7.727209 7.746505
Al -1.541068 4.632209 10.841505
Al 1.553932 7.727209 10.841505
Al 1.553932 4.632209 13.936505
Al -1.541068 7.727209 13.936505
Al -1.541068 4.632209 17.031505
Al 1.553932 7.727209 17.031505
Al 1.553932 4.632209 20.126505
Al -1.541068 7.727209 20.126505
Al -1.541068 4.632209 23.221505
Al 1.553932 10.822209 -17.013495
Al -1.541068 10.822209 -13.918495
Al 1.553932 13.917209 -13.918495
Al 1.553932 10.822209 -10.823495
Al -1.541068 13.917209 -10.823495
Al -1.541068 10.822209 -7.728495
Al 1.553932 13.917209 -7.728495
Al 1.553932 10.822209 -4.633495
Al -1.541068 13.917209 -4.633495
Al -1.541068 10.822209 -1.538495
Al 1.553932 13.917209 -1.538495
Al 1.553932 10.822209 1.556505
Al -1.541068 13.917209 1.556505
Al -1.541068 10.822209 4.651505
Al 1.553932 13.917209 4.651505
Al 1.553932 10.822209 7.746505
Al -1.541068 13.917209 7.746505
Al -1.541068 10.822209 10.841505
Al 1.553932 13.917209 10.841505
Al 1.553932 10.822209 13.936505
Al -1.541068 13.917209 13.936505
Al -1.541068 10.822209 17.031505
Al 1.553932 17.012209 -10.823495
Al -1.541068 17.012209 -7.728495
Al 1.553932 20.107209 -7.728495
Al 1.553932 17.012209 -4.633495
Al -1.541068 20.107209 -4.633495
Al -1.541068 17.012209 -1.538495
Al 1.553932 20.107209 -1.538495
Al 1.553932 17.012209 1.556505
Al -1.541068 20.107209 1.556505
Al -1.541068 17.012209 4.651505
Al 1.553932 20.107209 4.651505
Al 1.553932 17.012209 7.746505
Al -1.541068 20.107209 7.746505
Al -1.541068 17.012209 10.841505
Al 1.553932 23.202209 -4.633495
Al -1.541068 23.202209 -1.538495
Al 1.553932 26.297209 -1.538495
Al 1.553932 23.202209 1.556505
Al -1.541068 26.297209 1.556505
Al -1.541068 23.202209 4.651505
Al 4.648932 -23.222791 1.556505
Al 4.648932 -26.317791 4.651505
Al 7.743932 -23.222791 4.651505
Al 7.743932 -26.317791 7.746505
Al 4.648932 -23.222791 7.746505
Al 7.743932 -23.222791 10.841505
Al 4.648932 -17.032791 -4.633495
Al 4.648932 -20.127791 -1.538495
Al 7.743932 -17.032791 -1.538495
Al 7.743932 -20.127791 1.556505
Al 4.648932 -17.032791 1.556505
Al 4.648932 -20.127791 4.651505
Al 7.743932 -17.032791 4.651505
Al 7.743932 -20.127791 7.746505
Al 4.648932 -17.032791 7.746505
Al 4.648932 -20.127791 10.841505
Al 7.743932 -17.032791 10.841505
Al 7.743932 -20.127791 13.936505
Al 4.648932 -17.032791 13.936505
Al 7.743932 -17.032791 17.031505
Al 4.648932 -10.842791 -10.823495
Al 4.648932 -13.937791 -7.728495
Al 7.743932 -10.842791 -7.728495
Al 7.743932 -13.937791 -4.633495
Al 4.648932 -10.842791 -4.633495
Al 4.648932 -13.937791 -1.538495
Al 7.743932 -10.842791 -1.538495
Al 7.743932 -13.937791 1.556505
Al 4.648932 -10.842791 1.556505
Al 4.648932 -13.937791 4.651505
Al 7.743932 -10.842791 4.651505
Al 7.743932 -13.937791 7.746505
Al 4.648932 -10.842791 7.746505
Al 4.648932 -13.937791 10.841505
Al 7.743932 -10.842791 10.841505
Al 7.743932 -13.937791 13.936505
Al 4.648932 -10.842791 13.936505
Al 4.648932 -13.937791 17.031505
Al 7.743932 -10.842791 17.031505
Al 7.743932 -13.937791 20.126505
Al 4.648932 -10.842791 20.126505
Al 7.743932 -10.842791 23.221505
Al 4.648932 -4.652791 -17.013495
Al 4.648932 -7.747791 -13.918495
Al 7.743932 -4.652791 -13.918495
Al 7.743932 -7.747791 -10.823495
Al 4.648932 -4.652791 -10.823495
Al 4.648932 -7.747791 -7.728495
Al 7.743932 -4.652791 -7.728495
Al 7.743932 -7.747791 -4.633495
Al 4.648932 -4.652791 -4.633495
Al 4.648932 -7.747791 -1.538495
Al 7.743932 -4.652791 -1.538495
Al 7.743932 -7.747791 1.556505
Al 4.648932 -4.652791 1.556505
Al 4.648932 -7.747791 4.651505
Al 7.743932 -4.652791 4.651505
Al 7.743932 -7.747791 7.746505
Al 4.648932 -4.652791 7.746505
Al 4.648932 -7.747791 10.841505
Al 7.743932 -4.652791 10.841505
Al 7.743932 -7.747791 13.936505
Al 4.648932 -4.652791 13.936505
Al 4.648932 -7.747791 17.031505
Al 7.743932 -4.652791 17.031505
Al 7.743932 -7.747791 20.126505
Al 4.648932 -4.652791 20.126505
Al 4.648932 -7.747791 23.221505
Al 7.743932 -4.652791 23.221505
Al 7.743932 -7.747791 26.316505
Al 4.648932 -4.652791 26.316505
Al 4.648932 1.537209 -23.203495
Al 4.648932 -1.557791 -20.108495
Al 7.743932 1.537209 -20.108495
Al 7.743932 -1.557791 -17.013495
Al 4.648932 1.537209 -17.013495
Al 4.648932 -1.557791 -13.918495
Al 7.743932 1.537209 -13.918495
Al 7.743932 -1.557791 -10.823495
Al 4.648932 1.537209 -10.823495
Al 4.648932 -1.557791 -7.728495
Al 7.743932 1.537209 -7.728495
Al 7.743932 -1.557791 -4.633495
Al 4.648932 1.537209 -4.633495
Al 4.648932 -1.557791 -1.538495
Al 7.743932 1.537209 -1.538495
Al 7.743932 -1.557791 1.556505
Al 4.648932 1.537209 1.556505
Al 4.648932 -1.557791 4.651505
Al 7.743932 1.537209 4.651505
Al 7.743932 -1.557791 7.746505
Al 4.648932 1.537209 7.746505
Al 4.648932 -1.557791 10.841505
Al 7.743932 1.537209 10.841505
Al 7.743932 -1.557791 13.936505
Al 4.648932 1.537209 13.936505
Al 4.648932 -1.557791 17.031505
Al 7.743932 1.537209 17.031505
Al 7.743932 -1.557791 20.126505
Al 4.648932 1.537209 20.126505
Al 4.648932 -1.557791 23.221505
Al 4.648932 4.632209 -26.298495
Al 7.743932 7.727209 -26.298495
Al 7.743932 4.632209 -23.203495
Al 4.648932 7.727209 -23.203495
Al 4.648932 4.632209 -20.108495
Al 7.743932 7.727209 -20.108495
Al 7.743932 4.632209 -17.013495
Al 4.648932 7.727209 -17.013495
Al 4.648932 4.632209 -13.918495
Al 7.743932 7.727209 -13.918495
Al 7.743932 4.632209 -10.823495
Al 4.648932 7.727209 -10.823495
Al 4.648932 4.632209 -7.728495
Al 7.743932 7.727209 -7.728495
Al 7.743932 4.632209 -4.633495
Al 4.648932 7.727209 -4.633495
Al 4.648932 4.632209 -1.538495
Al 7.743932 7.727209 -1.538495
Al 7.743932 4.632209 1.556505
Al 4.648932 7.727209 1.556505
Al 4.648932 4.632209 4.651505
Al 7.743932 7.727209 4.651505
Al 7.743932 4.632209 7.746505
Al 4.648932 7.727209 7.746505
Al 4.648932 4.632209 10.841505
Al 7.743932 7.727209 10.841505
Al 7.743932 4.632209 13.936505
Al 4.648932 7.727209 13.936505
Al 4.648932 4.632209 17.031505
Al 7.743932 10.822209 -23.203495
Al 4.648932 10.822209 -20.108495
Al 7.743932 13.917209 -20.108495
Al 7.743932 10.822209 -17.013495
Al 4.648932 13.917209 -17.013495
Al 4.648932 10.822209 -13.918495
Al 7.743932 13.917209 -13.918495
Al 7.743932 10.822209 -10.823495
Al 4.648932 13.917209 -10.823495
Al 4.648932 10.822209 -7.728495
Al 7.743932 13.917209 -7.728495
Al 7.743932 10.822209 -4.633495
Al 4.648932 13.917209 -4.633495
Al 4.648932 10.822209 -1.538495
Al 7.743932 13.917209 -1.538495
Al 7.743932 10.822209 1.556505
Al 4.648932 13.917209 1.556505
Al 4.648932 10.822209 4.651505
Al 7.743932 13.917209 4.651505
Al 7.743932 10.822209 7.746505
Al 4.648932 13.917209 7.746505
Al 4.648932 10.822209 10.841505
Al 7.743932 17.012209 -17.013495
Al 4.648932 17.012209 -13.918495
Al 7.743932 20.107209 -13.918495
Al 7.743932 17.012209 -10.823495
Al 4.648932 20.107209 -10.823495
Al 4.648932 17.012209 -7.728495
Al 7.743932 20.107209 -7.728495
Al 7.743932 17.012209 -4.633495
Al 4.648932 20.107209 -4.633495
Al 4.648932 17.012209 -1.538495
Al 7.743932 20.107209 -1.538495
Al 7.743932 17.012209 1.556505
Al 4.648932 20.107209 1.556505
Al 4.648932 17.012209 4.651505
Al 7.743932 23.202209 -10.823495
Al 4.648932 23.202209 -7.728495
Al 7.743932 26.297209 -7.728495
Al 7.743932 23.202209 -4.633495
Al 4.648932 26.297209 -4.633495
Al 4.648932 23.202209 -1.538495
Al 10.838932 -23.222791 7.746505
Al 10.838932 -26.317791 10.841505
Al 13.933932 -23.222791 10.841505
Al 13.933932 -26.317791 13.936505
Al 10.838932 -23.222791 13.936505
Al 13.933932 -23.222791 17.031505
Al 10.838932 -17.032791 1.556505
Al 10.838932 -20.127791 4.651505
Al 13.933932 -17.032791 4.651505
Al 13.933932 -20.127791 7.746505
Al 10.838932 -17.032791 7.746505
Al 10.838932 -20.127791 10.841505
Al 13.933932 -17.032791 10.841505
Al 13.933932 -20.127791 13.936505
Al 10.838932 -17.032791 13.936505
Al 10.838932 -20.127791 17.031505
Al 13.933932 -17.032791 17.031505
Al 13.933932 -20.127791 20.126505
Al 10.838932 -17.032791 20.126505
Al 13.933932 -17.032791 23.221505
Al 10.838932 -10.842791 -4.633495
Al 10.838932 -13.937791 -1.538495
Al 13.933932 -10.842791 -1.538495
Al 13.933932 -13.937791 1.556505
Al 10.838932 -10.842791 1.556505
Al 10.838932 -13.937791 4.651505
Al 13.933932 -10.842791 4.651505
Al 13.933932 -13.937791 7.746505
Al 10.838932 -10.842791 7.746505
Al 10.838932 -13.937791 10.841505
Al 13.933932 -10.842791 10.841505
Al 13.933932 -13.937791 13.936505
Al 10.838932 -10.842791 13.936505
Al 10.838932 -13.937791 17.031505
Al 13.933932 -10.842791 17.031505
Al 13.933932 -13.937791 20.126505
Al 10.838932 -10.842791 20.126505
Al 13.933932 -10.842791 23.221505
Al 13.933932 -13.937791 26.316505
Al 10.838932 -10.842791 26.316505
Al 10.838932 -4.652791 -10.823495
Al 10.838932 -7.747791 -7.728495
Al 13.933932 -4.652791 -7.728495
Al 13.933932 -7.747791 -4.633495
Al 10.838932 -4.652791 -4.633495
Al 10.838932 -7.747791 -1.538495
Al 13.933932 -4.652791 -1.538495
Al 13.933932 -7.747791 1.556505
Al 10.838932 -4.652791 1.556505
Al 10.838932 -7.747791 4.651505
Al 13.933932 -4.652791 4.651505
Al 13.933932 -7.747791 7.746505
Al 10.838932 -4.652791 7.746505
Al 10.838932 -7.747791 10.841505
Al 13.933932 -4.652791 10.841505
Al 13.933932 -7.747791 13.936505
Al 10.838932 -4.652791 13.936505
Al 10.838932 -7.747791 17.031505
Al 13.933932 -4.652791 17.031505
Al 13.933932 -7.747791 20.126505
Al 10.838932 -4.652791 20.126505
Al 10.838932 -7.747791 23.221505
Al 10.838932 1.537209 -17.013495
Al 10.838932 -1.557791 -13.918495
Al 13.933932 1.537209 -13.918495
Al 13.933932 -1.557791 -10.823495
Al 10.838932 1.537209 -10.823495
Al 10.838932 -1.557791 -7.728495
Al 13.933932 1.537209 -7.728495
Al 13.933932 -1.557791 -4.633495
Al 10.838932 1.537209 -4.633495
Al 10.838932 -1.557791 -1.538495
Al 13.933932 1.537209 -1.538495
Al 13.933932 -1.557791 1.556505
Al 10.838932 1.537209 1.556505
Al 10.838932 -1.557791 4.651505
Al 13.933932 1.537209 4.651505
Al 13.933932 -1.557791 7.746505
Al 10.838932 1.537209 7.746505
Al 10.838932 -1.557791 10.841505
Al 13.933932 1.537209 10.841505
Al 13.933932 -1.557791 13.936505
Al 10.838932 1.537209 13.936505
Al 10.838932 -1.557791 17.031505
Al 10.838932 7.727209 -23.203495
Al 10.838932 4.632209 -20.108495
Al 13.933932 7.727209 -20.108495
Al 13.933932 4.632209 -17.013495
Al 10.838932 7.727209 -17.013495
Al 10.838932 4.632209 -13.918495
Al 13.933932 7.727209 -13.918495
Al 13.933932 4.632209 -10.823495
Al 10.838932 7.727209 -10.823495
Al 10.838932 4.632209 -7.728495
Al 13.933932 7.727209 -7.728495
Al 13.933932 4.632209 -4.633495
Al 10.838932 7.727209 -4.633495
Al 10.838932 4.632209 -1.538495
Al 13.933932 7.727209 -1.538495
Al 13.933932 4.632209 1.556505
Al 10.838932 7.727209 1.556505
Al 10.838932 4.632209 4.651505
Al 13.933932 7.727209 4.651505
Al 13.933932 4.632209 7.746505
Al 10.838932 7.727209 7.746505
Al 10.838932 4.632209 10.841505
Al 10.838932 10.822209 -26.298495
Al 13.933932 13.917209 -26.298495
Al 13.933932 10.822209 -23.203495
Al 10.838932 10.822209 -20.108495
Al 13.933932 13.917209 -20.108495
Al 13.933932 10.822209 -17.013495
Al 10.838932 13.917209 -17.013495
Al 10.838932 10.822209 -13.918495
Al 13.933932 13.917209 -13.918495
Al 13.933932 10.822209 -10.823495
Al 10.838932 13.917209 -10.823495
Al 10.838932 10.822209 -7.728495
Al 13.933932 13.917209 -7.728495
Al 13.933932 10.822209 -4.633495
Al 10.838932 13.917209 -4.633495
Al 10.838932 10.822209 -1.538495
Al 13.933932 13.917209 -1.538495
Al 13.933932 10.822209 1.556505
Al 10.838932 13.917209 1.556505
Al 10.838932 10.822209 4.651505
Al 13.933932 17.012209 -23.203495
Al 10.838932 17.012209 -20.108495
Al 13.933932 20.107209 -20.108495
Al 13.933932 17.012209 -17.013495
Al 10.838932 20.107209 -17.013495
Al 10.838932 17.012209 -13.918495
Al 13.933932 20.107209 -13.918495
Al 13.933932 17.012209 -10.823495
Al 10.838932 20.107209 -10.823495
Al 10.838932 17.012209 -7.728495
Al 13.933932 20.107209 -7.728495
Al 13.933932 17.012209 -4.633495
Al 10.838932 20.107209 -4.633495
Al 10.838932 17.012209 -1.538495
Al 13.933932 23.202209 -17.013495
Al 10.838932 23.202209 -13.918495
Al 13.933932 26.297209 -13.918495
Al 13.933932 23.202209 -10.823495
Al 10.838932 26.297209 -10.823495
Al 10.838932 23.202209 -7.728495
Al 17.028932 -23.222791 13.936505
Al 17.028932 -17.032791 7.746505
Al 17.028932 -20.127791 10.841505
Al 20.123932 -17.032791 10.841505
Al 20.123932 -20.127791 13.936505
Al 17.028932 -17.032791 13.936505
Al 17.028932 -20.127791 17.031505
Al 20.123932 -17.032791 17.031505
Al 17.028932 -10.842791 1.556505
Al 17.028932 -13.937791 4.651505
Al 20.123932 -10.842791 4.651505
Al 20.123932 -13.937791 7.746505
Al 17.028932 -10.842791 7.746505
Al 17.028932 -13.937791 10.841505
Al 20.123932 -10.842791 10.841505
Al 20.123932 -13.937791 13.936505
Al 17.028932 -10.842791 13.936505
Al 17.028932 -13.937791 17.031505
Al 20.123932 -10.842791 17.031505
Al 20.123932 -13.937791 20.126505
Al 17.028932 -10.842791 20.126505
Al 17.028932 -13.937791 23.221505
Al 17.028932 -4.652791 -4.633495
Al 17.028932 -7.747791 -1.538495
Al 20.123932 -4.652791 -1.538495
Al 20.123932 -7.747791 1.556505
Al 17.028932 -4.652791 1.556505
Al 17.028932 -7.747791 4.651505
Al 20.123932 -4.652791 4.651505
Al 20.123932 -7.747791 7.746505
Al 17.028932 -4.652791 7.746505
Al 17.028932 -7.747791 10.841505
Al 20.123932 -4.652791 10.841505
Al 20.123932 -7.747791 13.936505
Al 17.028932 -4.652791 13.936505
Al 17.028932 -7.747791 17.031505
Al 17.028932 1.537209 -10.823495
Al 17.028932 -1.557791 -7.728495
Al 20.123932 1.537209 -7.728495
Al 20.123932 -1.557791 -4.633495
Al 17.028932 1.537209 -4.633495
Al 17.028932 -1.557791 -1.538495
Al 20.123932 1.537209 -1.538495
Al 20.123932 -1.557791 1.556505
Al 17.028932 1.537209 1.556505
Al 17.028932 -1.557791 4.651505
Al 20.123932 1.537209 4.651505
Al 20.123932 -1.557791 7.746505
Al 17.028932 1.537209 7.746505
Al 17.028932 -1.557791 10.841505
Al 17.028932 7.727209 -17.013495
Al 17.028932 4.632209 -13.918495
Al 20.123932 7.727209 -13.918495
Al 20.123932 4.632209 -10.823495
Al 17.028932 7.727209 -10.823495
Al 17.028932 4.632209 -7.728495
Al 20.123932 7.727209 -7.728495
Al 20.123932 4.632209 -4.633495
Al 17.028932 7.727209 -4.633495
Al 17.028932 4.632209 -1.538495
Al 20.123932 7.727209 -1.538495
Al 20.123932 4.632209 1.556505
Al 17.028932 7.727209 1.556505
Al 17.028932 4.632209 4.651505
Al 17.028932 13.917209 -23.203495
Al 17.028932 10.822209 -20.108495
Al 20.123932 13.917209 -20.108495
Al 20.123932 10.822209 -17.013495
Al 17.028932 13.917209 -17.013495
Al 17.028932 10.822209 -13.918495
Al 20.123932 13.917209 -13.918495
Al 20.123932 10.822209 -10.823495
Al 17.028932 13.917209 -10.823495
Al 17.028932 10.822209 -7.728495
Al 20.123932 13.917209 -7.728495
Al 20.123932 10.822209 -4.633495
Al 17.028932 13.917209 -4.633495
Al 17.028932 10.822209 -1.538495
Al 20.123932 17.012209 -17.013495
Al 17.028932 20.107209 -17.013495
Al 17.028932 17.012209 -13.918495
Al 20.123932 20.107209 -13.918495
Al 20.123932 17.012209 -10.823495
Al 17.028932 20.107209 -10.823495
Al 17.028932 17.012209 -7.728495
Al 17.028932 23.202209 -13.918495
Al 23.218932 -17.032791 13.936505
Al 23.218932 -10.842791 7.746505
Al 23.218932 -13.937791 10.841505
Al 26.313932 -10.842791 10.841505
Al 26.313932 -13.937791 13.936505
Al 23.218932 -10.842791 13.936505
Al 23.218932 -13.937791 17.031505
Al 23.218932 -4.652791 1.556505
Al 23.218932 -7.747791 4.651505
Al 26.313932 -4.652791 4.651505
Al 26.313932 -7.747791 7.746505
Al 23.218932 -4.652791 7.746505
Al 23.218932 -7.747791 10.841505
Al 23.218932 1.537209 -4.633495
Al 23.218932 -1.557791 -1.538495
Al 26.313932 1.537209 -1.538495
Al 26.313932 -1.557791 1.556505
Al 23.218932 1.537209 1.556505
Al 23.218932 -1.557791 4.651505
Al 23.218932 7.727209 -10.823495
Al 23.218932 4.632209 -7.728495
Al 26.313932 7.727209 -7.728495
Al 26.313932 4.632209 -4.633495
Al 23.218932 7.727209 -4.633495
Al 23.218932 4.632209 -1.538495
Al 23.218932 13.917209 -17.013495
Al 23.218932 10.822209 -13.918495
Al 26.313932 13.917209 -13.918495
Al 26.313932 10.822209 -10.823495
Al 23.218932 13.917209 -10.823495
Al 23.218932 10.822209 -7.728495
Al 23.218932 17.012209 -13.918495
Sb -24.753568 -15.485291 -15.465995
Sb -21.658568 -15.485291 -12.370995
Sb -21.658568 -12.390291 -15.465995
Sb -24.753568 -12.390291 -12.370995
Sb -24.753568 -9.295291 -9.275995
Sb -21.658568 -9.295291 -12.370995
Sb -21.658568 -12.390291 -9.275995
Sb -21.658568 -9.295291 -6.180995
Sb -21.658568 -6.200291 -9.275995
Sb -24.753568 -6.200291 -6.180995
Sb -24.753568 -3.105291 -3.085995
Sb -21.658568 -3.105291 -6.180995
Sb -21.658568 -6.200291 -3.085995
Sb -21.658568 -3.105291 0.009005
Sb -21.658568 -0.010291 -3.085995
Sb -24.753568 -0.010291 0.009005
Sb -24.753568 3.084709 3.104005
Sb -21.658568 3.084709 0.009005
Sb -21.658568 -0.010291 3.104005
Sb -21.658568 3.084709 6.199005
Sb -21.658568 6.179709 3.104005
Sb -24.753568 6.179709 6.199005
Sb -24.753568 9.274709 9.294005
Sb -21.658568 9.274709 6.199005
Sb -21.658568 6.179709 9.294005
Sb -21.658568 9.274709 12.389005
Sb -21.658568 12.369709 9.294005
Sb -24.753568 12.369709 12.389005
Sb -24.753568 15.464709 15.484005
Sb -21.658568 15.464709 12.389005
Sb -21.658568 12.369709 15.484005
Sb -18.563568 -21.675291 -15.465995
Sb -15.468568 -21.675291 -12.370995
Sb -15.468568 -15.485291 -24.750995
Sb -18.563568 -15.485291 -15.465995
Sb -15.468568 -15.485291 -18.560995
Sb -15.468568 -18.580291 -15.465995
Sb -18.563568 -18.580291 -12.370995
Sb -18.563568 -15.485291 -9.275995
Sb -15.468568 -15.485291 -12.370995
Sb -15.468568 -18.580291 -9.275995
Sb -15.468568 -15.485291 -6.180995
Sb -15.468568 -12.390291 -21.655995
Sb -18.563568 -12.390291 -18.560995
Sb -18.563568 -9.295291 -15.465995
Sb -15.468568 -9.295291 -18.560995
Sb -15.468568 -12.390291 -15.465995
Sb -18.563568 -12.390291 -12.370995
Sb -18.563568 -9.295291 -9.275995
Sb -15.468568 -9.295291 -12.370995
Sb -15.468568 -12.390291 -9.275995
Sb -18.563568 -12.390291 -6.180995
Sb -18.563568 -9.295291 -3.085995
Sb -15.468568 -9.295291 -6.180995
Sb -15.468568 -12.390291 -3.085995
Sb -15.468568 -9.295291 0.009005
Sb -15.468568 -6.200291 -15.465995
Sb -18.563568 -6.200291 -12.370995
Sb -18.563568 -3.105291 -9.275995
Sb -15.468568 -3.105291 -12.370995
Sb -15.468568 -6.200291 -9.275995
Sb -18.563568 -6.200291 -6.180995
Sb -18.563568 -3.105291 -3.085995
Sb -15.468568 -3.105291 -6.180995
Sb -15.468568 -6.200291 -3.085995
Sb -18.563568 -6.200291 0.009005
Sb -18.563568 -3.105291 3.104005
Sb -15.468568 -3.105291 0.009005
Sb -15.468568 -6.200291 3.104005
Sb -15.468568 -3.105291 6.199005
Sb -15.468568 -0.010291 -9.275995
Sb -18.563568 -0.010291 -6.180995
Sb -18.563568 3.084709 -3.085995
Sb -15.468568 3.084709 -6.180995
Sb -15.468568 -0.010291 -3.085995
Sb -18.563568 -0.010291 0.009005
Sb -18.563568 3.084709 3.104005
Sb -15.468568 3.084709 0.009005
Sb -15.468568 -0.010291 3.104005
Sb -18.563568 -0.010291 6.199005
Sb -18.563568 3.084709 9.294005
Sb -15.468568 3.084709 6.199005
Sb -15.468568 -0.010291 9.294005
Sb -15.468568 3.084709 12.389005
Sb -15.468568 6.179709 -3.085995
Sb -18.563568 6.179709 0.009005
Sb -18.563568 9.274709 3.104005
Sb -15.468568 9.274709 0.009005
Sb -15.468568 6.179709 3.104005
Sb -18.563568 6.179709 6.199005
Sb -18.563568 9.274709 9.294005
Sb -15.468568 9.274709 6.199005
Sb -15.468568 6.179709 9.294005
Sb -18.563568 6.179709 12.389005
Sb -18.563568 9.274709 15.484005
Sb -15.468568 9.274709 12.389005
Sb -15.468568 6.179709 15.484005
Sb -15.468568 9.274709 18.579005
Sb -15.468568 12.369709 3.104005
Sb -18.563568 12.369709 6.199005
Sb -18.563568 15.464709 9.294005
Sb -15.468568 15.464709 6.199005
Sb -15.468568 12.369709 9.294005
Sb -18.563568 12.369709 12.389005
Sb -18.563568 15.464709 15.484005
Sb -15.468568 15.464709 12.389005
Sb -15.468568 12.369709 15.484005
Sb -18.563568 12.369709 18.579005
Sb -15.468568 15.464709 18.579005
Sb -15.468568 12.369709 21.674005
Sb -15.468568 15.464709 24.769005
Sb -15.468568 18.559709 9.294005
Sb -18.563568 18.559709 12.389005
Sb -18.563568 21.654709 15.484005
Sb -15.468568 21.654709 12.389005
Sb -15.468568 18.559709 15.484005
Sb -12.373568 -21.675291 -15.465995
Sb -12.373568 -24.770291 -12.370995
Sb -12.373568 -21.675291 -9.275995
Sb -9.278568 -21.675291 -12.370995
Sb -9.278568 -24.770291 -9.275995
Sb -9.278568 -21.675291 -6.180995
Sb -12.373568 -15.485291 -21.655995
Sb -12.373568 -18.580291 -18.560995
Sb -12.373568 -15.485291 -15.465995
Sb -9.278568 -15.485291 -18.560995
Sb -9.278568 -18.580291 -15.465995
Sb -12.373568 -18.580291 -12.370995
Sb -12.373568 -15.485291 -9.275995
Sb -9.278568 -15.485291 -12.370995
Sb -9.278568 -18.580291 -9.275995
Sb -12.373568 -18.580291 -6.180995
Sb -12.373568 -15.485291 -3.085995
Sb -9.278568 -15.485291 -6.180995
Sb -9.278568 -18.580291 -3.085995
Sb -9.278568 -15.485291 0.009005
Sb -12.373568 -12.390291 -24.750995
Sb -12.373568 -9.295291 -21.655995
Sb -9.278568 -9.295291 -24.750995
Sb -9.278568 -12.390291 -21.655995
Sb -12.373568 -12.390291 -18.560995
Sb -12.373568 -9.295291 -15.465995
Sb -9.278568 -9.295291 -18.560995
Sb -9.278568 -12.390291 -15.465995
Sb -12.373568 -12.390291 -12.370995
Sb -12.373568 -9.295291 -9.275995
Sb -9.278568 -9.295291 -12.370995
Sb -9.278568 -12.390291 -9.275995
Sb -12.373568 -12.390291 -6.180995
Sb -12.373568 -9.295291 -3.085995
Sb -9.278568 -9.295291 -6.180995
Sb -9.278568 -12.390291 -3.085995
Sb -12.373568 -12.390291 0.009005
Sb -12.373568 -9.295291 3.104005
Sb -9.278568 -9.295291 0.009005
Sb -9.278568 -12.390291 3.104005
Sb -9.278568 -9.295291 6.199005
Sb -9.278568 -6.200291 -21.655995
Sb -12.373568 -6.200291 -18.560995
Sb -12.373568 -3.105291 -15.465995
Sb -9.278568 -3.105291 -18.560995
Sb -9.278568 -6.200291 -15.465995
Sb -12.373568 -6.200291 -12.370995
Sb -12.373568 -3.105291 -9.275995
Sb -9.278568 -3.105291 -12.370995
Sb -9.278568 -6.200291 -9.275995
Sb -12.373568 -6.200291 -6.180995
Sb -12.373568 -3.105291 -3.085995
Sb -9.278568 -3.105291 -6.180995
Sb -9.278568 -6.200291 -3.085995
Sb -12.373568 -6.200291 0.009005
Sb -12.373568 -3.105291 3.104005
Sb -9.278568 -3.105291 0.009005
Sb -9.278568 -6.200291 3.104005
Sb -12.373568 -6.200291 6.199005
Sb -12.373568 -3.105291 9.294005
Sb -9.278568 -3.105291 6.199005
Sb -9.278568 -6.200291 9.294005
Sb -9.278568 -3.105291 12.389005
Sb -9.278568 -0.010291 -15.465995
Sb -12.373568 -0.010291 -12.370995
Sb -12.373568 3.084709 -9.275995
Sb -9.278568 3.084709 -12.370995
Sb -9.278568 -0.010291 -9.275995
Sb -12.373568 -0.010291 -6.180995
Sb -12.373568 3.084709 -3.085995
Sb -9.278568 3.084709 -6.180995
Sb -9.278568 -0.010291 -3.085995
Sb -12.373568 -0.010291 0.009005
Sb -12.373568 3.084709 3.104005
Sb -9.278568 3.084709 0.009005
Sb -9.278568 -0.010291 3.104005
Sb -12.373568 -0.010291 6.199005
Sb -12.373568 3.084709 9.294005
Sb -9.278568 3.084709 6.199005
Sb -9.278568 -0.010291 9.294005
Sb -12.373568 -0.010291 12.389005
Sb -12.373568 3.084709 15.484005
Sb -9.278568 3.084709 12.389005
Sb -9.278568 -0.010291 15.484005
Sb -9.278568 3.084709 18.579005
Sb -9.278568 6.179709 -9.275995
Sb -12.373568 6.179709 -6.180995
Sb -12.373568 9.274709 -3.085995
Sb -9.278568 9.274709 -6.180995
Sb -9.278568 6.179709 -3.085995
Sb -12.373568 6.179709 0.009005
Sb -12.373568 9.274709 3.104005
Sb -9.278568 9.274709 0.009005
Sb -9.278568 6.179709 3.104005
Sb -12.373568 6.179709 6.199005
Sb -12.373568 9.274709 9.294005
Sb -9.278568 9.274709 6.199005
Sb -9.278568 6.179709 9.294005
Sb -12.373568 6.179709 12.389005
Sb -12.373568 9.274709 15.484005
Sb -9.278568 9.274709 12.389005
Sb -9.278568 6.179709 15.484005
Sb -12.373568 6.179709 18.579005
Sb -12.373568 9.274709 21.674005
Sb -9.278568 9.274709 18.579005
Sb -9.278568 6.179709 21.674005
Sb -9.278568 9.274709 24.769005
Sb -9.278568 12.369709 -3.085995
Sb -12.373568 12.369709 0.009005
Sb -12.373568 15.464709 3.104005
Sb -9.278568 15.464709 0.009005
Sb -9.278568 12.369709 3.104005
Sb -12.373568 12.369709 6.199005
Sb -12.373568 15.464709 9.294005
Sb -9.278568 15.464709 6.199005
Sb -9.278568 12.369709 9.294005
Sb -12.373568 12.369709 12.389005
Sb -12.373568 15.464709 15.484005
Sb -9.278568 15.464709 12.389005
Sb -9.278568 12.369709 15.484005
Sb -12.373568 12.369709 18.579005
Sb -12.373568 15.464709 21.674005
Sb -9.278568 15.464709 18.579005
Sb -9.278568 12.369709 21.674005
Sb -12.373568 12.369709 24.769005
Sb -9.278568 18.559709 3.104005
Sb -12.373568 18.559709 6.199005
Sb -12.373568 21.654709 9.294005
Sb -9.278568 21.654709 6.199005
Sb -9.278568 18.559709 9.294005
Sb -12.373568 18.559709 12.389005
Sb -12.373568 21.654709 15.484005
Sb -9.278568 21.654709 12.389005
Sb -9.278568 18.559709 15.484005
Sb -12.373568 18.559709 18.579005
Sb -9.278568 24.749709 9.294005
Sb -12.373568 24.749709 12.389005
Sb -6.183568 -21.675291 -9.275995
Sb -6.183568 -24.770291 -6.180995
Sb -6.183568 -21.675291 -3.085995
Sb -3.088568 -21.675291 -6.180995
Sb -3.088568 -24.770291 -3.085995
Sb -3.088568 -21.675291 0.009005
Sb -6.183568 -15.485291 -15.465995
Sb -6.183568 -18.580291 -12.370995
Sb -6.183568 -15.485291 -9.275995
Sb -3.088568 -15.485291 -12.370995
Sb -3.088568 -18.580291 -9.275995
Sb -6.183568 -18.580291 -6.180995
Sb -6.183568 -15.485291 -3.085995
Sb -3.088568 -15.485291 -6.180995
Sb -3.088568 -18.580291 -3.085995
Sb -6.183568 -18.580291 0.009005
Sb -6.183568 -15.485291 3.104005
Sb -3.088568 -15.485291 0.009005
Sb -3.088568 -18.580291 3.104005
Sb -3.088568 -15.485291 6.199005
Sb -6.183568 -9.295291 -21.655995
Sb -6.183568 -12.390291 -18.560995
Sb -6.183568 -9.295291 -15.465995
Sb -3.088568 -9.295291 -18.560995
Sb -3.088568 -12.390291 -15.465995
Sb -6.183568 -12.390291 -12.370995
Sb -6.183568 -9.295291 -9.275995
Sb -3.088568 -9.295291 -12.370995
Sb -3.088568 -12.390291 -9.275995
Sb -6.183568 -12.390291 -6.180995
Sb -6.183568 -9.295291 -3.085995
Sb -3.088568 -9.295291 -6.180995
Sb -3.088568 -12.390291 -3.085995
Sb -6.183568 -12.390291 0.009005
Sb -6.183568 -9.295291 3.104005
Sb -3.088568 -9.295291 0.009005
Sb -3.088568 -12.390291 3.104005
Sb -6.183568 -12.390291 6.199005
Sb -6.183568 -9.295291 9.294005
Sb -3.088568 -9.295291 6.199005
Sb -3.088568 -12.390291 9.294005
Sb -3.088568 -9.295291 12.389005
Sb -6.183568 -6.200291 -24.750995
Sb -6.183568 -3.105291 -21.655995
Sb -3.088568 -3.105291 -24.750995
Sb -3.088568 -6.200291 -21.655995
Sb -6.183568 -6.200291 -18.560995
Sb -6.183568 -3.105291 -15.465995
Sb -3.088568 -3.105291 -18.560995
Sb -3.088568 -6.200291 -15.465995
Sb -6.183568 -6.200291 -12.370995
Sb -6.183568 -3.105291 -9.275995
Sb -3.088568 -3.105291 -12.370995
Sb -3.088568 -6.200291 -9.275995
Sb -6.183568 -6.200291 -6.180995
Sb -6.183568 -3.105291 -3.085995
Sb -3.088568 -3.105291 -6.180995
Sb -3.088568 -6.200291 -3.085995
Sb -6.183568 -6.200291 0.009005
Sb -6.183568 -3.105291 3.104005
Sb -3.088568 -3.105291 0.009005
Sb -3.088568 -6.200291 3.104005
Sb -6.183568 -6.200291 6.199005
Sb -6.183568 -3.105291 9.294005
Sb -3.088568 -3.105291 6.199005
Sb -3.088568 -6.200291 9.294005
Sb -6.183568 -6.200291 12.389005
Sb -6.183568 -3.105291 15.484005
Sb -3.088568 -3.105291 12.389005
Sb -3.088568 -6.200291 15.484005
Sb -3.088568 -3.105291 18.579005
Sb -3.088568 -0.010291 -21.655995
Sb -6.183568 -0.010291 -18.560995
Sb -6.183568 3.084709 -15.465995
Sb -3.088568 3.084709 -18.560995
Sb -3.088568 -0.010291 -15.465995
Sb -6.183568 -0.010291 -12.370995
Sb -6.183568 3.084709 -9.275995
Sb -3.088568 3.084709 -12.370995
Sb -3.088568 -0.010291 -9.275995
Sb -6.183568 -0.010291 -6.180995
Sb -6.183568 3.084709 -3.085995
Sb -3.088568 3.084709 -6.180995
Sb -3.088568 -0.010291 -3.085995
Sb -6.183568 -0.010291 0.009005
Sb -6.183568 3.084709 3.104005
Sb -3.088568 3.084709 0.009005
Sb -3.088568 -0.010291 3.104005
Sb -6.183568 -0.010291 6.199005
Sb -6.183568 3.084709 9.294005
Sb -3.088568 3.084709 6.199005
Sb -3.088568 -0.010291 9.294005
Sb -6.183568 -0.010291 12.389005
Sb -6.183568 3.084709 15.484005
Sb -3.088568 3.084709 12.389005
Sb -3.088568 -0.010291 15.484005
Sb -6.183568 -0.010291 18.579005
Sb -6.183568 3.084709 21.674005
Sb -3.088568 3.084709 18.579005
Sb -3.088568 -0.010291 21.674005
Sb -3.088568 3.084709 24.769005
Sb -3.088568 6.179709 -15.465995
Sb -6.183568 6.179709 -12.370995
Sb -6.183568 9.274709 -9.275995
Sb -3.088568 9.274709 -12.370995
Sb -3.088568 6.179709 -9.275995
Sb -6.183568 6.179709 -6.180995
Sb -6.183568 9.274709 -3.085995
Sb -3.088568 9.274709 -6.180995
Sb -3.088568 6.179709 -3.085995
Sb -6.183568 6.179709 0.009005
Sb -6.183568 9.274709 3.104005
Sb -3.088568 9.274709 0.009005
Sb -3.088568 6.179709 3.104005
Sb -6.183568 6.179709 6.199005
Sb -6.183568 9.274709 9.294005
Sb -3.088568 9.274709 6.199005
Sb -3.088568 6.179709 9.294005
Sb -6.183568 6.179709 12.389005
Sb -6.183568 9.274709 15.484005
Sb -3.088568 9.274709 12.389005
Sb -3.088568 6.179709 15.484005
Sb -6.183568 6.179709 18.579005
Sb -6.183568 9.274709 21.674005
Sb -3.088568 9.274709 18.579005
Sb -3.088568 6.179709 21.674005
Sb -6.183568 6.179709 24.769005
Sb -3.088568 12.369709 -9.275995
Sb -6.183568 12.369709 -6.180995
Sb -6.183568 15.464709 -3.085995
Sb -3.088568 15.464709 -6.180995
Sb -3.088568 12.369709 -3.085995
Sb -6.183568 12.369709 0.009005
Sb -6.183568 15.464709 3.104005
Sb -3.088568 15.464709 0.009005
Sb -3.088568 12.369709 3.104005
Sb -6.183568 12.369709 6.199005
Sb -6.183568 15.464709 9.294005
Sb -3.088568 15.464709 6.199005
Sb -3.088568 12.369709 9.294005
Sb -6.183568 12.369709 12.389005
Sb -6.183568 15.464709 15.484005
Sb -3.088568 15.464709 12.389005
Sb -3.088568 12.369709 15.484005
Sb -6.183568 12.369709 18.579005
Sb -3.088568 18.559709 -3.085995
Sb -6.183568 18.559709 0.009005
Sb -6.183568 21.654709 3.104005
Sb -3.088568 21.654709 0.009005
Sb -3.088568 18.559709 3.104005
Sb -6.183568 18.559709 6.199005
Sb -6.183568 21.654709 9.294005
Sb -3.088568 21.654709 6.199005
Sb -3.088568 18.559709 9.294005
Sb -6.183568 18.559709 12.389005
Sb -3.088568 24.749709 3.104005
Sb -6.183568 24.749709 6.199005
Sb 0.006432 -21.675291 -3.085995
Sb 0.006432 -24.770291 0.009005
Sb 0.006432 -21.675291 3.104005
Sb 3.101432 -21.675291 0.009005
Sb 3.101432 -24.770291 3.104005
Sb 3.101432 -21.675291 6.199005
Sb 0.006432 -15.485291 -9.275995
Sb 0.006432 -18.580291 -6.180995
Sb 0.006432 -15.485291 -3.085995
Sb 3.101432 -15.485291 -6.180995
Sb 3.101432 -18.580291 -3.085995
Sb 0.006432 -18.580291 0.009005
Sb 0.006432 -15.485291 3.104005
Sb 3.101432 -15.485291 0.009005
Sb 3.101432 -18.580291 3.104005
Sb 0.006432 -18.580291 6.199005
Sb 0.006432 -15.485291 9.294005
Sb 3.101432 -15.485291 6.199005
Sb 3.101432 -18.580291 9.294005
Sb 3.101432 -15.485291 12.389005
Sb 0.006432 -9.295291 -15.465995
Sb 0.006432 -12.390291 -12.370995
Sb 0.006432 -9.295291 -9.275995
Sb 3.101432 -9.295291 -12.370995
Sb 3.101432 -12.390291 -9.275995
Sb 0.006432 -12.390291 -6.180995
Sb 0.006432 -9.295291 -3.085995
Sb 3.101432 -9.295291 -6.180995
Sb 3.101432 -12.390291 -3.085995
Sb 0.006432 -12.390291 0.009005
Sb 0.006432 -9.295291 3.104005
Sb 3.101432 -9.295291 0.009005
Sb 3.101432 -12.390291 3.104005
Sb 0.006432 -12.390291 6.199005
Sb 0.006432 -9.295291 9.294005
Sb 3.101432 -9.295291 6.199005
Sb 3.101432 -12.390291 9.294005
Sb 0.006432 -12.390291 12.389005
Sb 0.006432 -9.295291 15.484005
Sb 3.101432 -9.295291 12.389005
Sb 3.101432 -12.390291 15.484005
Sb 3.101432 -9.295291 18.579005
Sb 0.006432 -3.105291 -21.655995
Sb 0.006432 -6.200291 -18.560995
Sb 0.006432 -3.105291 -15.465995
Sb 3.101432 -3.105291 -18.560995
Sb 3.101432 -6.200291 -15.465995
Sb 0.006432 -6.200291 -12.370995
Sb 0.006432 -3.105291 -9.275995
Sb 3.101432 -3.105291 -12.370995
Sb 3.101432 -6.200291 -9.275995
Sb 0.006432 -6.200291 -6.180995
Sb 0.006432 -3.105291 -3.085995
Sb 3.101432 -3.105291 -6.180995
Sb 3.101432 -6.200291 -3.085995
Sb 0.006432 -6.200291 0.009005
Sb 0.006432 -3.105291 3.104005
Sb 3.101432 -3.105291 0.009005
Sb 3.101432 -6.200291 3.104005
Sb 0.006432 -6.200291 6.199005
Sb 0.006432 -3.105291 9.294005
Sb 3.101432 -3.105291 6.199005
Sb 3.101432 -6.200291 9.294005
Sb 0.006432 -6.200291 12.389005
Sb 0.006432 -3.105291 15.484005
Sb 3.101432 -3.105291 12.389005
Sb 3.101432 -6.200291 15.484005
Sb 0.006432 -6.200291 18.579005
Sb 0.006432 -3.105291 21.674005
Sb 3.101432 -3.105291 18.579005
Sb 3.101432 -6.200291 21.674005
Sb 3.101432 -3.105291 24.769005
Sb 0.006432 -0.010291 -24.750995
Sb 0.006432 3.084709 -21.655995
Sb 3.101432 3.084709 -24.750995
Sb 3.101432 -0.010291 -21.655995
Sb 0.006432 -0.010291 -18.560995
Sb 0.006432 3.084709 -15.465995
Sb 3.101432 3.084709 -18.560995
Sb 3.101432 -0.010291 -15.465995
Sb 0.006432 -0.010291 -12.370995
Sb 0.006432 3.084709 -9.275995
Sb 3.101432 3.084709 -12.370995
Sb 3.101432 -0.010291 -9.275995
Sb 0.006432 -0.010291 -6.180995
Sb 0.006432 3.084709 -3.085995
Sb 3.101432 3.084709 -6.180995
Sb 3.101432 -0.010291 -3.085995
Sb 0.006432 -0.010291 0.009005
Sb 0.006432 3.084709 3.104005
Sb 3.101432 3.084709 0.009005
Sb 3.101432 -0.010291 3.104005
Sb 0.006432 -0.010291 6.199005
Sb 0.006432 3.084709 9.294005
Sb 3.101432 3.084709 6.199005
Sb 3.101432 -0.010291 9.294005
Sb 0.006432 -0.010291 12.389005
Sb 0.006432 3.084709 15.484005
Sb 3.101432 3.084709 12.389005
Sb 3.101432 -0.010291 15.484005
Sb 0.006432 -0.010291 18.579005
Sb 0.006432 3.084709 21.674005
Sb 3.101432 3.084709 18.579005
Sb 3.101432 -0.010291 21.674005
Sb 0.006432 -0.010291 24.769005
Sb 3.101432 6.179709 -21.655995
Sb 0.006432 6.179709 -18.560995
Sb 0.006432 9.274709 -15.465995
Sb 3.101432 9.274709 -18.560995
Sb 3.101432 6.179709 -15.465995
Sb 0.006432 6.179709 -12.370995
Sb 0.006432 9.274709 -9.275995
Sb 3.101432 9.274709 -12.370995
Sb 3.101432 6.179709 -9.275995
Sb 0.006432 6.179709 -6.180995
Sb 0.006432 9.274709 -3.085995
Sb 3.101432 9.274709 -6.180995
Sb 3.101432 6.179709 -3.085995
Sb 0.006432 6.179709 0.009005
Sb 0.006432 9.274709 3.104005
Sb 3.101432 9.274709 0.009005
Sb 3.101432 6.179709 3.104005
Sb 0.006432 6.179709 6.199005
Sb 0.006432 9.274709 9.294005
Sb 3.101432 9.274709 6.199005
Sb 3.101432 6.179709 9.294005
Sb 0.006432 6.179709 12.389005
Sb 0.006432 9.274709 15.484005
Sb 3.101432 9.274709 12.389005
Sb 3.101432 6.179709 15.484005
Sb 0.006432 6.179709 18.579005
Sb 3.101432 12.369709 -15.465995
Sb 0.006432 12.369709 -12.370995
Sb 0.006432 15.464709 -9.275995
Sb 3.101432 15.464709 -12.370995
Sb 3.101432 12.369709 -9.275995
Sb 0.006432 12.369709 -6.180995
Sb 0.006432 15.464709 -3.085995
Sb 3.101432 15.464709 -6.180995
Sb 3.101432 12.369709 -3.085995
Sb 0.006432 12.369709 0.009005
Sb 0.006432 15.464709 3.104005
Sb 3.101432 15.464709 0.009005
Sb 3.101432 12.369709 3.104005
Sb 0.006432 12.369709 6.199005
Sb 0.006432 15.464709 9.294005
Sb 3.101432 15.464709 6.199005
Sb 3.101432 12.369709 9.294005
Sb 0.006432 12.369709 12.389005
Sb 3.101432 18.559709 -9.275995
Sb 0.006432 18.559709 -6.180995
Sb 0.006432 21.654709 -3.085995
Sb 3.101432 21.654709 -6.180995
Sb 3.101432 18.559709 -3.085995
Sb 0.006432 18.559709 0.009005
Sb 0.006432 21.654709 3.104005
Sb 3.101432 21.654709 0.009005
Sb 3.101432 18.559709 3.104005
Sb 0.006432 18.559709 6.199005
Sb 3.101432 24.749709 -3.085995
Sb 0.006432 24.749709 0.009005
Sb 6.196432 -21.675291 3.104005
Sb 6.196432 -24.770291 6.199005
Sb 6.196432 -21.675291 9.294005
Sb 9.291432 -21.675291 6.199005
Sb 9.291432 -24.770291 9.294005
Sb 9.291432 -21.675291 12.389005
Sb 6.196432 -15.485291 -3.085995
Sb 6.196432 -18.580291 0.009005
Sb 6.196432 -15.485291 3.104005
Sb 9.291432 -15.485291 0.009005
Sb 9.291432 -18.580291 3.104005
Sb 6.196432 -18.580291 6.199005
Sb 6.196432 -15.485291 9.294005
Sb 9.291432 -15.485291 6.199005
Sb 9.291432 -18.580291 9.294005
Sb 6.196432 -18.580291 12.389005
Sb 6.196432 -15.485291 15.484005
Sb 9.291432 -15.485291 12.389005
Sb 9.291432 -18.580291 15.484005
Sb 9.291432 -15.485291 18.579005
Sb 6.196432 -9.295291 -9.275995
Sb 6.196432 -12.390291 -6.180995
Sb 6.196432 -9.295291 -3.085995
Sb 9.291432 -9.295291 -6.180995
Sb 9.291432 -12.390291 -3.085995
Sb 6.196432 -12.390291 0.009005
Sb 6.196432 -9.295291 3.104005
Sb 9.291432 -9.295291 0.009005
Sb 9.291432 -12.390291 3.104005
Sb 6.196432 -12.390291 6.199005
Sb 6.196432 -9.295291 9.294005
Sb 9.291432 -9.295291 6.199005
Sb 9.291432 -12.390291 9.294005
Sb 6.196432 -12.390291 12.389005
Sb 6.196432 -9.295291 15.484005
Sb 9.291432 -9.295291 12.389005
Sb 9.291432 -12.390291 15.484005
Sb 6.196432 -12.390291 18.579005
Sb 6.196432 -9.295291 21.674005
Sb 9.291432 -9.295291 18.579005
Sb 9.291432 -12.390291 21.674005
Sb 9.291432 -9.295291 24.769005
Sb 6.196432 -3.105291 -15.465995
Sb 6.196432 -6.200291 -12.370995
Sb 6.196432 -3.105291 -9.275995
Sb 9.291432 -3.105291 -12.370995
Sb 9.291432 -6.200291 -9.275995
Sb 6.196432 -6.200291 -6.180995
Sb 6.196432 -3.105291 -3.085995
Sb 9.291432 -3.105291 -6.180995
Sb 9.291432 -6.200291 -3.085995
Sb 6.196432 -6.200291 0.009005
Sb 6.196432 -3.105291 3.104005
Sb 9.291432 -3.105291 0.009005
Sb 9.291432 -6.200291 3.104005
Sb 6.196432 -6.200291 6.199005
Sb 6.196432 -3.105291 9.294005
Sb 9.291432 -3.105291 6.199005
Sb 9.291432 -6.200291 9.294005
Sb 6.196432 -6.200291 12.389005
Sb 6.196432 -3.105291 15.484005
Sb 9.291432 -3.105291 12.389005
Sb 9.291432 -6.200291 15.484005
Sb 6.196432 -6.200291 18.579005
Sb 6.196432 -3.105291 21.674005
Sb 9.291432 -3.105291 18.579005
Sb 9.291432 -6.200291 21.674005
Sb 6.196432 -6.200291 24.769005
Sb 6.196432 3.084709 -21.655995
Sb 6.196432 -0.010291 -18.560995
Sb 6.196432 3.084709 -15.465995
Sb 9.291432 3.084709 -18.560995
Sb 9.291432 -0.010291 -15.465995
Sb 6.196432 -0.010291 -12.370995
Sb 6.196432 3.084709 -9.275995
Sb 9.291432 3.084709 -12.370995
Sb 9.291432 -0.010291 -9.275995
Sb 6.196432 -0.010291 -6.180995
Sb 6.196432 3.084709 -3.085995
Sb 9.291432 3.084709 -6.180995
Sb 9.291432 -0.010291 -3.085995
Sb 6.196432 -0.010291 0.009005
Sb 6.196432 3.084709 3.104005
Sb 9.291432 3.084709 0.009005
Sb 9.291432 -0.010291 3.104005
Sb 6.196432 -0.010291 6.199005
Sb 6.196432 3.084709 9.294005
Sb 9.291432 3.084709 6.199005
Sb 9.291432 -0.010291 9.294005
Sb 6.196432 -0.010291 12.389005
Sb 6.196432 3.084709 15.484005
Sb 9.291432 3.084709 12.389005
Sb 9.291432 -0.010291 15.484005
Sb 6.196432 -0.010291 18.579005
Sb 6.196432 6.179709 -24.750995
Sb 6.196432 9.274709 -21.655995
Sb 9.291432 9.274709 -24.750995
Sb 9.291432 6.179709 -21.655995
Sb 6.196432 6.179709 -18.560995
Sb 6.196432 9.274709 -15.465995
Sb 9.291432 9.274709 -18.560995
Sb 9.291432 6.179709 -15.465995
Sb 6.196432 6.179709 -12.370995
Sb 6.196432 9.274709 -9.275995
Sb 9.291432 9.274709 -12.370995
Sb 9.291432 6.179709 -9.275995
Sb 6.196432 6.179709 -6.180995
Sb 6.196432 9.274709 -3.085995
Sb 9.291432 9.274709 -6.180995
Sb 9.291432 6.179709 -3.085995
Sb 6.196432 6.179709 0.009005
Sb 6.196432 9.274709 3.104005
Sb 9.291432 9.274709 0.009005
Sb 9.291432 6.179709 3.104005
Sb 6.196432 6.179709 6.199005
Sb 6.196432 9.274709 9.294005
Sb 9.291432 9.274709 6.199005
Sb 9.291432 6.179709 9.294005
Sb 6.196432 6.179709 12.389005
Sb 9.291432 12.369709 -21.655995
Sb 6.196432 12.369709 -18.560995
Sb 6.196432 15.464709 -15.465995
Sb 9.291432 15.464709 -18.560995
Sb 9.291432 12.369709 -15.465995
Sb 6.196432 12.369709 -12.370995
Sb 6.196432 15.464709 -9.275995
Sb 9.291432 15.464709 -12.370995
Sb 9.291432 12.369709 -9.275995
Sb 6.196432 12.369709 -6.180995
Sb 6.196432 15.464709 -3.085995
Sb 9.291432 15.464709 -6.180995
Sb 9.291432 12.369709 -3.085995
Sb 6.196432 12.369709 0.009005
Sb 6.196432 15.464709 3.104005
Sb 9.291432 15.464709 0.009005
Sb 9.291432 12.369709 3.104005
Sb 6.196432 12.369709 6.199005
Sb 9.291432 18.559709 -15.465995
Sb 6.196432 18.559709 -12.370995
Sb 6.196432 21.654709 -9.275995
Sb 9.291432 21.654709 -12.370995
Sb 9.291432 18.559709 -9.275995
Sb 6.196432 18.559709 -6.180995
Sb 6.196432 21.654709 -3.085995
Sb 9.291432 21.654709 -6.180995
Sb 9.291432 18.559709 -3.085995
Sb 6.196432 18.559709 0.009005
Sb 9.291432 24.749709 -9.275995
Sb 6.196432 24.749709 -6.180995
Sb 12.386432 -21.675291 9.294005
Sb 12.386432 -24.770291 12.389005
Sb 12.386432 -21.675291 15.484005
Sb 15.481432 -21.675291 12.389005
Sb 12.386432 -15.485291 3.104005
Sb 12.386432 -18.580291 6.199005
Sb 12.386432 -15.485291 9.294005
Sb 15.481432 -15.485291 6.199005
Sb 15.481432 -18.580291 9.294005
Sb 12.386432 -18.580291 12.389005
Sb 12.386432 -15.485291 15.484005
Sb 15.481432 -15.485291 12.389005
Sb 15.481432 -18.580291 15.484005
Sb 12.386432 -18.580291 18.579005
Sb 12.386432 -15.485291 21.674005
Sb 15.481432 -15.485291 18.579005
Sb 15.481432 -15.485291 24.769005
Sb 12.386432 -9.295291 -3.085995
Sb 12.386432 -12.390291 0.009005
Sb 12.386432 -9.295291 3.104005
Sb 15.481432 -9.295291 0.009005
Sb 15.481432 -12.390291 3.104005
Sb 12.386432 -12.390291 6.199005
Sb 12.386432 -9.295291 9.294005
Sb 15.481432 -9.295291 6.199005
Sb 15.481432 -12.390291 9.294005
Sb 12.386432 -12.390291 12.389005
Sb 12.386432 -9.295291 15.484005
Sb 15.481432 -9.295291 12.389005
Sb 15.481432 -12.390291 15.484005
Sb 12.386432 -12.390291 18.579005
Sb 12.386432 -9.295291 21.674005
Sb 15.481432 -9.295291 18.579005
Sb 15.481432 -12.390291 21.674005
Sb 12.386432 -12.390291 24.769005
Sb 12.386432 -3.105291 -9.275995
Sb 12.386432 -6.200291 -6.180995
Sb 12.386432 -3.105291 -3.085995
Sb 15.481432 -3.105291 -6.180995
Sb 15.481432 -6.200291 -3.085995
Sb 12.386432 -6.200291 0.009005
Sb 12.386432 -3.105291 3.104005
Sb 15.481432 -3.105291 0.009005
Sb 15.481432 -6.200291 3.104005
Sb 12.386432 -6.200291 6.199005
Sb 12.386432 -3.105291 9.294005
Sb 15.481432 -3.105291 6.199005
Sb 15.481432 -6.200291 9.294005
Sb 12.386432 -6.200291 12.389005
Sb 12.386432 -3.105291 15.484005
Sb 15.481432 -3.105291 12.389005
Sb 15.481432 -6.200291 15.484005
Sb 12.386432 -6.200291 18.579005
Sb 12.386432 3.084709 -15.465995
Sb 12.386432 -0.010291 -12.370995
Sb 12.386432 3.084709 -9.275995
Sb 15.481432 3.084709 -12.370995
Sb 15.481432 -0.010291 -9.275995
Sb 12.386432 -0.010291 -6.180995
Sb 12.386432 3.084709 -3.085995
Sb 15.481432 3.084709 -6.180995
Sb 15.481432 -0.010291 -3.085995
Sb 12.386432 -0.010291 0.009005
Sb 12.386432 3.084709 3.104005
Sb 15.481432 3.084709 0.009005
Sb 15.481432 -0.010291 3.104005
Sb 12.386432 -0.010291 6.199005
Sb 12.386432 3.084709 9.294005
Sb 15.481432 3.084709 6.199005
Sb 15.481432 -0.010291 9.294005
Sb 12.386432 -0.010291 12.389005
Sb 12.386432 9.274709 -21.655995
Sb 12.386432 6.179709 -18.560995
Sb 12.386432 9.274709 -15.465995
Sb 15.481432 9.274709 -18.560995
Sb 15.481432 6.179709 -15.465995
Sb 12.386432 6.179709 -12.370995
Sb 12.386432 9.274709 -9.275995
Sb 15.481432 9.274709 -12.370995
Sb 15.481432 6.179709 -9.275995
Sb 12.386432 6.179709 -6.180995
Sb 12.386432 9.274709 -3.085995
Sb 15.481432 9.274709 -6.180995
Sb 15.481432 6.179709 -3.085995
Sb 12.386432 6.179709 0.009005
Sb 12.386432 9.274709 3.104005
Sb 15.481432 9.274709 0.009005
Sb 15.481432 6.179709 3.104005
Sb 12.386432 6.179709 6.199005
Sb 12.386432 12.369709 -24.750995
Sb 12.386432 15.464709 -21.655995
Sb 15.481432 15.464709 -24.750995
Sb 15.481432 12.369709 -21.655995
Sb 12.386432 12.369709 -18.560995
Sb 12.386432 15.464709 -15.465995
Sb 15.481432 15.464709 -18.560995
Sb 15.481432 12.369709 -15.465995
Sb 12.386432 12.369709 -12.370995
Sb 12.386432 15.464709 -9.275995
Sb 15.481432 15.464709 -12.370995
Sb 15.481432 12.369709 -9.275995
Sb 12.386432 12.369709 -6.180995
Sb 12.386432 15.464709 -3.085995
Sb 15.481432 15.464709 -6.180995
Sb 15.481432 12.369709 -3.085995
Sb 12.386432 12.369709 0.009005
Sb 12.386432 18.559709 -18.560995
Sb 12.386432 21.654709 -15.465995
Sb 15.481432 18.559709 -15.465995
Sb 12.386432 18.559709 -12.370995
Sb 12.386432 21.654709 -9.275995
Sb 15.481432 21.654709 -12.370995
Sb 15.481432 18.559709 -9.275995
Sb 12.386432 18.559709 -6.180995
Sb 12.386432 24.749709 -12.370995
Sb 18.576432 -21.675291 15.484005
Sb 18.576432 -15.485291 9.294005
Sb 18.576432 -18.580291 12.389005
Sb 18.576432 -15.485291 15.484005
Sb 21.671432 -15.485291 12.389005
Sb 18.576432 -9.295291 3.104005
Sb 18.576432 -12.390291 6.199005
Sb 18.576432 -9.295291 9.294005
Sb 21.671432 -9.295291 6.199005
Sb 21.671432 -12.390291 9.294005
Sb 18.576432 -12.390291 12.389005
Sb 18.576432 -9.295291 15.484005
Sb 21.671432 -9.295291 12.389005
Sb 21.671432 -12.390291 15.484005
Sb 18.576432 -12.390291 18.579005
Sb 18.576432 -3.105291 -3.085995
Sb 18.576432 -6.200291 0.009005
Sb 18.576432 -3.105291 3.104005
Sb 21.671432 -3.105291 0.009005
Sb 21.671432 -6.200291 3.104005
Sb 18.576432 -6.200291 6.199005
Sb 18.576432 -3.105291 9.294005
Sb 21.671432 -3.105291 6.199005
Sb 21.671432 -6.200291 9.294005
Sb 18.576432 -6.200291 12.389005
Sb 18.576432 3.084709 -9.275995
Sb 18.576432 -0.010291 -6.180995
Sb 18.576432 3.084709 -3.085995
Sb 21.671432 3.084709 -6.180995
Sb 21.671432 -0.010291 -3.085995
Sb 18.576432 -0.010291 0.009005
Sb 18.576432 3.084709 3.104005
Sb 21.671432 3.084709 0.009005
Sb 21.671432 -0.010291 3.104005
Sb 18.576432 -0.010291 6.199005
Sb 18.576432 9.274709 -15.465995
Sb 18.576432 6.179709 -12.370995
Sb 18.576432 9.274709 -9.275995
Sb 21.671432 9.274709 -12.370995
Sb 21.671432 6.179709 -9.275995
Sb 18.576432 6.179709 -6.180995
Sb 18.576432 9.274709 -3.085995
Sb 21.671432 9.274709 -6.180995
Sb 21.671432 6.179709 -3.085995
Sb 18.576432 6.179709 0.009005
Sb 18.576432 12.369709 -18.560995
Sb 18.576432 15.464709 -15.465995
Sb 21.671432 12.369709 -15.465995
Sb 18.576432 12.369709 -12.370995
Sb 18.576432 15.464709 -9.275995
Sb 21.671432 15.464709 -12.370995
Sb 21.671432 12.369709 -9.275995
Sb 18.576432 12.369709 -6.180995
Sb 18.576432 21.654709 -15.465995
Sb 18.576432 18.559709 -12.370995
Sb 24.766432 -15.485291 15.484005
Sb 24.766432 -9.295291 9.294005
Sb 24.766432 -12.390291 12.389005
Sb 24.766432 -3.105291 3.104005
Sb 24.766432 -6.200291 6.199005
Sb 24.766432 3.084709 -3.085995
Sb 24.766432 -0.010291 0.009005
Sb 24.766432 9.274709 -9.275995
Sb 24.766432 6.179709 -6.180995
Sb 24.766432 15.464709 -15.465995
Sb 24.766432 12.369709 -12.370995
Cl -21.658568 -15.485291 -18.560995
Cl -21.658568 -18.580291 -15.465995
Cl -21.658568 15.464709 18.579005
Cl -21.658568 18.559709 15.484005
Cl -15.468568 -21.675291 -18.560995
Cl -15.468568 -24.770291 -15.465995
Cl -18.563568 -15.485291 -21.655995
Cl -15.468568 -18.580291 -21.655995
Cl -18.563568 -18.580291 -18.560995
Cl -18.563568 15.464709 21.674005
Cl -18.563568 18.559709 18.579005
Cl -15.468568 21.654709 18.579005
Cl -15.468568 18.559709 21.674005
Cl -15.468568 24.749709 15.484005
Cl 15.481432 -24.770291 15.484005
Cl 15.481432 -21.675291 18.579005
Cl 15.481432 -18.580291 21.674005
Cl 15.481432 18.559709 -21.655995
Cl 15.481432 21.654709 -18.560995
Cl 15.481432 24.749709 -15.465995
Cl 21.671432 -18.580291 15.484005
Cl 18.576432 -18.580291 18.579005
Cl 18.576432 -15.485291 21.674005
Cl 21.671432 -15.485291 18.579005
Cl 18.576432 15.464709 -21.655995
Cl 21.671432 15.464709 -18.560995
Cl 18.576432 18.559709 -18.560995
Cl 21.671432 18.559709 -15.465995
Cl -12.373568 -15.485291 -27.845995
Cl 12.386432 15.464709 -27.845995
Cl -15.468568 12.369709 27.864005
Cl 15.481432 -12.390291 27.864005
Cl -27.848568 15.464709 12.389005
Cl 27.861432 -15.485291 12.389005
Cl -15.468568 -27.865291 -12.370995
Cl 15.481432 27.844709 -12.370995
Cl -12.373568 27.844709 15.484005
Cl 12.386432 -27.865291 15.484005
Cl -27.848568 -12.390291 -15.465995
Cl 27.861432 12.369709 -15.465995
Cl -3.088568 -27.865291 -6.180995
Cl 3.101432 27.844709 -6.180995
Cl -27.848568 -6.200291 -3.085995
Cl 27.861432 6.179709 -3.085995
Cl -9.278568 12.369709 27.864005
Cl 9.291432 -12.390291 27.864005
Cl -12.373568 -9.295291 -27.845995
Cl 12.386432 9.274709 -27.845995
Cl -27.848568 9.274709 12.389005
Cl 27.861432 -9.295291 12.389005
Cl -12.373568 27.844709 9.294005
Cl 12.386432 -27.865291 9.294005
Cl 0.006432 -3.105291 -27.845995
Cl 0.006432 3.084709 -27.845995
Cl 3.101432 -0.010291 27.864005
Cl -3.088568 -0.010291 27.864005
Cl -27.848568 -12.390291 -9.275995
Cl 27.861432 12.369709 -9.275995
Cl -9.278568 -27.865291 -12.370995
Cl 9.291432 27.844709 -12.370995
Cl -6.183568 27.844709 9.294005
Cl 6.196432 -27.865291 9.294005
Cl -27.848568 9.274709 6.199005
Cl 27.861432 -9.295291 6.199005
Cl -27.848568 3.084709 6.199005
Cl 27.861432 -3.105291 6.199005
Cl -6.183568 27.844709 3.104005
Cl 6.196432 -27.865291 3.104005
Cl -6.183568 -9.295291 -27.845995
Cl 6.196432 9.274709 -27.845995
Cl -9.278568 6.179709 27.864005
Cl 9.291432 -6.200291 27.864005
Cl -6.183568 -3.105291 -27.845995
Cl 6.196432 3.084709 -27.845995
Cl -3.088568 6.179709 27.864005
Cl 3.101432 -6.200291 27.864005
Cl -27.848568 -6.200291 -9.275995
Cl 27.861432 6.179709 -9.275995
Cl -9.278568 -27.865291 -6.180995
Cl 9.291432 27.844709 -6.180995
Cl -27.848568 3.084709 0.009005
Cl 27.861432 -3.105291 0.009005
Cl 0.006432 -27.865291 3.104005
Cl 0.006432 27.844709 3.104005
Cl -27.848568 -3.105291 0.009005
Cl 27.861432 3.084709 0.009005
Cl 0.006432 -27.865291 -3.085995
Cl 0.006432 27.844709 -3.085995
Cl -12.373568 9.274709 -9.275995
Cl 12.386432 -9.295291 -9.275995
Cl -9.278568 -12.390291 9.294005
Cl 9.291432 12.369709 9.294005
Cl -15.468568 -0.010291 15.484005
Cl 15.481432 -0.010291 15.484005
Cl 0.006432 -15.485291 -15.465995
Cl 0.006432 15.464709 -15.465995
Cl -15.468568 -0.010291 -15.465995
Cl 15.481432 -0.010291 -15.465995
Cl 0.006432 -15.485291 15.484005
Cl 0.006432 15.464709 15.484005
Cl -15.468568 -15.485291 0.009005
Cl -15.468568 15.464709 0.009005
Cl 15.481432 -15.485291 0.009005
Cl 15.481432 15.464709 0.009005
Cl -6.183568 -6.200291 18.579005
Cl -6.183568 6.179709 -18.560995
Cl 6.196432 -6.200291 -18.560995
Cl 6.196432 6.179709 18.579005
Cl -18.563568 -6.200291 6.199005
Cl 18.576432 6.179709 6.199005
Cl -6.183568 18.559709 -6.180995
Cl 6.196432 -18.580291 -6.180995
Cl -21.658568 -12.390291 -21.655995
Cl 21.671432 12.369709 -21.655995
Cl -12.373568 21.654709 21.674005
Cl 12.386432 -21.675291 21.674005
Cl -21.658568 -21.675291 -12.370995
Cl -21.658568 21.654709 12.389005
Cl 21.671432 -21.675291 12.389005
Cl 21.671432 21.654709 -12.370995
Cl -21.658568 12.369709 21.674005
Cl 21.671432 -12.390291 21.674005
Cl -12.373568 -21.675291 -21.655995
Cl 12.386432 21.654709 -21.655995
Cl -21.658568 3.084709 -6.180995
Cl 21.671432 -3.105291 -6.180995
Cl -6.183568 -21.675291 3.104005
Cl 6.196432 21.654709 3.104005
Cl -6.183568 21.654709 15.484005
Cl 6.196432 -21.675291 15.484005
Cl -21.658568 15.464709 6.199005
Cl 21.671432 -15.485291 6.199005
Cl -15.468568 6.179709 21.674005
Cl 15.481432 -6.200291 21.674005
Cl -6.183568 -15.485291 -21.655995
Cl 6.196432 15.464709 -21.655995
Cl -21.658568 -6.200291 -15.465995
Cl 21.671432 6.179709 -15.465995
Cl -15.468568 -21.675291 -6.180995
Cl 15.481432 21.654709 -6.180995
Cl 0.006432 -21.675291 9.294005
Cl 0.006432 21.654709 9.294005
Cl -21.658568 9.274709 0.009005
Cl 21.671432 -9.295291 0.009005
Cl -21.658568 3.084709 12.389005
Cl 21.671432 -3.105291 12.389005
Cl -12.373568 -3.105291 -21.655995
Cl 12.386432 3.084709 -21.655995
Cl -3.088568 12.369709 21.674005
Cl 3.101432 -12.390291 21.674005
Cl -12.373568 21.654709 3.104005
Cl 12.386432 -21.675291 3.104005
Cl -3.088568 -21.675291 -12.370995
Cl 3.101432 21.654709 -12.370995
Cl -21.658568 -12.390291 -3.085995
Cl 21.671432 12.369709 -3.085995
Cl 0.006432 -9.295291 -21.655995
Cl 0.006432 9.274709 -21.655995
Cl -9.278568 -0.010291 21.674005
Cl 9.291432 -0.010291 21.674005
Cl -12.373568 -6.200291 12.389005
Cl 12.386432 6.179709 12.389005
Cl -6.183568 12.369709 -12.370995
Cl 6.196432 -12.390291 -12.370995
Cl -15.468568 -12.390291 -27.845995
Cl 15.481432 12.369709 -27.845995
Cl -12.373568 15.464709 27.864005
Cl 12.386432 -15.485291 27.864005
Cl -15.468568 27.844709 12.389005
Cl 15.481432 -27.865291 12.389005
Cl -27.848568 -15.485291 -12.370995
Cl 27.861432 15.464709 -12.370995
Cl -27.848568 12.369709 15.484005
Cl 27.861432 -12.390291 15.484005
Cl -12.373568 -27.865291 -15.465995
Cl 12.386432 27.844709 -15.465995
Cl -27.848568 -3.105291 -6.180995
Cl 27.861432 3.084709 -6.180995
Cl -6.183568 -27.865291 -3.085995
Cl 6.196432 27.844709 -3.085995
Cl -6.183568 21.654709 -3.085995
Cl 6.196432 -21.675291 -3.085995
Cl -9.278568 -15.485291 6.199005
Cl 9.291432 15.464709 6.199005
Cl -15.468568 6.179709 -9.275995
Cl 15.481432 -6.200291 -9.275995
Cl -21.658568 -3.105291 6.199005
Cl 21.671432 3.084709 6.199005
Cl -3.088568 -6.200291 21.674005
Cl 3.101432 6.179709 21.674005
Cl -6.183568 3.084709 -21.655995
Cl 6.196432 -3.105291 -21.655995
Cl -21.658568 -18.580291 -9.275995
Cl 21.671432 18.559709 -9.275995
Cl -18.563568 -9.295291 -21.655995
Cl 18.576432 9.274709 -21.655995
Cl -9.278568 18.559709 21.674005
Cl 9.291432 -18.580291 21.674005
Cl -18.563568 21.654709 9.294005
Cl 18.576432 -21.675291 9.294005
Cl -9.278568 -21.675291 -18.560995
Cl 9.291432 21.654709 -18.560995
Cl -21.658568 9.274709 18.579005
Cl 21.671432 -9.295291 18.579005
Cl -9.278568 -21.675291 0.009005
Cl 9.291432 21.654709 0.009005
Cl -21.658568 -0.010291 -9.275995
Cl 21.671432 -0.010291 -9.275995
Cl -12.373568 15.464709 -3.085995
Cl 12.386432 -15.485291 -3.085995
Cl -3.088568 -12.390291 15.484005
Cl 3.101432 12.369709 15.484005
Cl -21.658568 -9.295291 0.009005
Cl 21.671432 9.274709 0.009005
Cl 0.006432 -21.675291 -9.275995
Cl 0.006432 21.654709 -9.275995
Cl -12.373568 3.084709 -15.465995
Cl 12.386432 -3.105291 -15.465995
Cl -3.088568 -18.580291 9.294005
Cl 3.101432 18.559709 9.294005
Cl -18.563568 9.274709 -3.085995
Cl 18.576432 -9.295291 -3.085995
Cl -15.468568 -9.295291 6.199005
Cl 15.481432 9.274709 6.199005
Cl -12.373568 9.274709 27.864005
Cl 12.386432 -9.295291 27.864005
Cl -9.278568 -12.390291 -27.845995
Cl 9.291432 12.369709 -27.845995
Cl -9.278568 27.844709 12.389005
Cl 9.291432 -27.865291 12.389005
Cl -27.848568 12.369709 9.294005
Cl 27.861432 -12.390291 9.294005
Cl -3.088568 -0.010291 -27.845995
Cl 3.101432 -0.010291 -27.845995
Cl 0.006432 -3.105291 27.864005
Cl 0.006432 3.084709 27.864005
Cl -12.373568 -27.865291 -9.275995
Cl 12.386432 27.844709 -9.275995
Cl -27.848568 -9.295291 -12.370995
Cl 27.861432 9.274709 -12.370995
Cl -27.848568 6.179709 9.294005
Cl 27.861432 -6.200291 9.294005
Cl -9.278568 27.844709 6.199005
Cl 9.291432 -27.865291 6.199005
Cl -3.088568 27.844709 6.199005
Cl 3.101432 -27.865291 6.199005
Cl -27.848568 6.179709 3.104005
Cl 27.861432 -6.200291 3.104005
Cl -9.278568 -6.200291 -27.845995
Cl 9.291432 6.179709 -27.845995
Cl -6.183568 9.274709 27.864005
Cl 6.196432 -9.295291 27.864005
Cl -3.088568 -6.200291 -27.845995
Cl 3.101432 6.179709 -27.845995
Cl -6.183568 3.084709 27.864005
Cl 6.196432 -3.105291 27.864005
Cl -6.183568 -27.865291 -9.275995
Cl 6.196432 27.844709 -9.275995
Cl -27.848568 -9.295291 -6.180995
Cl 27.861432 9.274709 -6.180995
Cl -18.563568 12.369709 24.769005
Cl 18.576432 -12.390291 24.769005
Cl -24.753568 -12.390291 -18.560995
Cl 24.766432 12.369709 -18.560995
Cl -18.563568 -24.770291 -12.370995
Cl 18.576432 24.749709 -12.370995
Cl -12.373568 -18.580291 -24.750995
Cl 12.386432 18.559709 -24.750995
Cl -24.753568 18.559709 12.389005
Cl 24.766432 -18.580291 12.389005
Cl -12.373568 24.749709 18.579005
Cl 12.386432 -24.770291 18.579005
Cl 3.101432 -27.865291 0.009005
Cl -3.088568 27.844709 0.009005
Cl -27.848568 -0.010291 3.104005
Cl 27.861432 -0.010291 3.104005
Cl -3.088568 -27.865291 0.009005
Cl 3.101432 27.844709 0.009005
Cl -27.848568 -0.010291 -3.085995
Cl 27.861432 -0.010291 -3.085995
Cl -15.468568 3.084709 18.579005
Cl 15.481432 -3.105291 18.579005
Cl 0.006432 -12.390291 -18.560995
Cl 0.006432 12.369709 -18.560995
Cl -15.468568 -18.580291 -3.085995
Cl 15.481432 18.559709 -3.085995
Cl -6.183568 15.464709 -9.275995
Cl 6.196432 -15.485291 -9.275995
Cl -9.278568 -6.200291 15.484005
Cl 9.291432 6.179709 15.484005
Cl -18.563568 -3.105291 -15.465995
Cl 18.576432 3.084709 -15.465995
Cl -6.183568 15.464709 21.674005
Cl 6.196432 -15.485291 21.674005
Cl -15.468568 21.654709 6.199005
Cl 15.481432 -21.675291 6.199005
Cl -18.563568 -0.010291 12.389005
Cl 18.576432 -0.010291 12.389005
Cl -6.183568 -21.675291 -15.465995
Cl 6.196432 21.654709 -15.465995
Cl -15.468568 -6.200291 -21.655995
Cl 15.481432 6.179709 -21.655995
Cl -3.088568 21.654709 12.389005
Cl 3.101432 -21.675291 12.389005
Cl -21.658568 12.369709 3.104005
Cl 21.671432 -12.390291 3.104005
Cl -21.658568 -15.485291 -6.180995
Cl 21.671432 15.464709 -6.180995
Cl -6.183568 9.274709 -15.465995
Cl 6.196432 -9.295291 -15.465995
Cl -21.658568 6.179709 15.484005
Cl 21.671432 -6.200291 15.484005
Cl 0.006432 -9.295291 21.674005
Cl 0.006432 9.274709 21.674005
Cl -9.278568 21.654709 0.009005
Cl 9.291432 -21.675291 0.009005
Cl -12.373568 -15.485291 3.104005
Cl 12.386432 15.464709 3.104005
Cl -9.278568 -0.010291 -21.655995
Cl 9.291432 -0.010291 -21.655995
Cl -12.373568 12.369709 -6.180995
Cl 12.386432 -12.390291 -6.180995
Cl -6.183568 -12.390291 12.389005
Cl 6.196432 12.369709 12.389005
Cl -12.373568 -24.770291 -18.560995
Cl 12.386432 24.749709 -18.560995
Cl -12.373568 18.559709 24.769005
Cl 12.386432 -18.580291 24.769005
Cl -18.563568 24.749709 12.389005
Cl 18.576432 -24.770291 12.389005
Cl -24.753568 12.369709 18.579005
Cl 24.766432 -12.390291 18.579005
Cl -24.753568 -18.580291 -12.370995
Cl 24.766432 18.559709 -12.370995
Cl -18.563568 -12.390291 -24.750995
Cl 18.576432 12.369709 -24.750995
Cl -9.278568 3.084709 24.769005
Cl 9.291432 -3.105291 24.769005
Cl -6.183568 -12.390291 -24.750995
Cl 6.196432 12.369709 -24.750995
Cl -24.753568 -0.010291 6.199005
Cl 24.766432 -0.010291 6.199005
Cl -24.753568 -6.200291 -12.370995
Cl 24.766432 6.179709 -12.370995
Cl -12.373568 -24.770291 -6.180995
Cl 12.386432 24.749709 -6.180995
Cl -24.753568 3.084709 -3.085995
Cl 24.766432 -3.105291 -3.085995
Cl 0.006432 -24.770291 -6.180995
Cl 0.006432 24.749709 -6.180995
Cl -3.088568 -24.770291 3.104005
Cl 3.101432 24.749709 3.104005
Cl 0.006432 -6.200291 -24.750995
Cl 0.006432 6.179709 -24.750995
Cl -24.753568 -6.200291 0.009005
Cl 24.766432 6.179709 0.009005
Cl -18.563568 3.084709 -9.275995
Cl 18.576432 -3.105291 -9.275995
Cl -3.088568 18.559709 15.484005
Cl 3.101432 -18.580291 15.484005
Cl -18.563568 15.464709 3.104005
Cl 18.576432 -15.485291 3.104005
Cl -3.088568 -3.105291 24.769005
Cl 3.101432 3.084709 24.769005
Cl -15.468568 -6.200291 9.294005
Cl 15.481432 6.179709 9.294005
Cl -3.088568 -18.580291 -15.465995
Cl 3.101432 18.559709 -15.465995
Cl -12.373568 -0.010291 18.579005
Cl 12.386432 -0.010291 18.579005
Cl -9.278568 6.179709 -15.465995
Cl 9.291432 -6.200291 -15.465995
Cl -18.563568 -12.390291 0.009005
Cl 18.576432 12.369709 0.009005
Cl 3.101432 -18.580291 -9.275995
Cl -3.088568 18.559709 -9.275995
Cl -6.183568 -18.580291 6.199005
Cl 6.196432 18.559709 6.199005
Cl -24.753568 15.464709 9.294005
Cl 24.766432 -15.485291 9.294005
Cl -15.468568 9.274709 24.769005
Cl 15.481432 -9.295291 24.769005
Cl -12.373568 -6.200291 -24.750995
Cl 12.386432 6.179709 -24.750995
Cl -9.278568 24.749709 15.484005
Cl 9.291432 -24.770291 15.484005
Cl -9.278568 24.749709 3.104005
Cl 9.291432 -24.770291 3.104005
Cl -6.183568 12.369709 24.769005
Cl 6.196432 -12.390291 24.769005
Cl -9.278568 -18.580291 -21.655995
Cl 9.291432 18.559709 -21.655995
Cl -24.753568 6.179709 12.389005
Cl 24.766432 -6.200291 12.389005
Cl -21.658568 -9.295291 -18.560995
Cl 21.671432 9.274709 -18.560995
Cl -18.563568 -21.675291 -9.275995
Cl 18.576432 21.654709 -9.275995
Cl -6.183568 -0.010291 -24.750995
Cl 6.196432 -0.010291 -24.750995
Cl -24.753568 9.274709 3.104005
Cl 24.766432 -9.295291 3.104005
Cl -3.088568 24.749709 9.294005
Cl 3.101432 -24.770291 9.294005
Cl -24.753568 -12.390291 -6.180995
Cl 24.766432 12.369709 -6.180995
Cl -24.753568 -3.105291 -9.275995
Cl 24.766432 3.084709 -9.275995
Cl -9.278568 -24.770291 -3.085995
Cl 9.291432 24.749709 -3.085995
Cl -6.183568 -24.770291 -12.370995
Cl 6.196432 24.749709 -12.370995
Cl -15.468568 9.274709 -6.180995
Cl 15.481432 -9.295291 -6.180995
Cl -6.183568 -9.295291 15.484005
Cl 6.196432 9.274709 15.484005
Cl 3.101432 -24.770291 -3.085995
Cl -3.088568 24.749709 -3.085995
Cl -21.658568 -0.010291 9.294005
Cl 21.671432 -0.010291 9.294005
Cl -3.088568 -12.390291 -21.655995
Cl 3.101432 12.369709 -21.655995
Cl -12.373568 -12.390291 6.199005
Cl 12.386432 12.369709 6.199005
Cl -15.468568 18.559709 3.104005
Cl 15.481432 -18.580291 3.104005
Cl -6.183568 -3.105291 21.674005
Cl 6.196432 3.084709 21.674005
Cl -6.183568 18.559709 18.579005
Cl 6.196432 -18.580291 18.579005
Cl -15.468568 3.084709 -12.370995
Cl 15.481432 -3.105291 -12.370995
Cl -18.563568 6.179709 18.579005
Cl 18.576432 -6.200291 18.579005
Cl 3.101432 -12.390291 -15.465995
Cl -3.088568 12.369709 -15.465995
Cl -21.658568 -6.200291 3.104005
Cl 21.671432 6.179709 3.104005
Cl -15.468568 -3.105291 -18.560995
Cl 15.481432 3.084709 -18.560995
Cl -21.658568 6.179709 -3.085995
Cl 21.671432 -6.200291 -3.085995
Cl -12.373568 -18.580291 0.009005
Cl 12.386432 18.559709 0.009005
Cl 0.006432 -12.390291 18.579005
Cl 0.006432 12.369709 18.579005
Cl -9.278568 15.464709 -6.180995
Cl 9.291432 -15.485291 -6.180995
Cl 3.101432 -6.200291 -21.655995
Cl -3.088568 6.179709 -21.655995
Cl -12.373568 -3.105291 15.484005
Cl 12.386432 3.084709 15.484005
Cl -15.468568 24.749709 9.294005
