1908
InP-In-In835P716Cl357-clean
In -20.636759 -14.756014 -11.800943
In -20.636759 -11.804038 -14.752920
In -20.636759 -8.852061 -11.800943
In -20.636759 -11.804038 -8.848967
In -20.636759 -8.852061 -5.896991
In -20.636759 -5.900085 -8.848967
In -20.636759 -2.948108 -5.896991
In -20.636759 -5.900085 -2.945014
In -20.636759 -2.948108 0.006962
In -20.636759 0.003868 -2.945014
In -20.636759 2.955844 0.006962
In -20.636759 0.003868 2.958939
In -20.636759 2.955844 5.910915
In -20.636759 5.907821 2.958939
In -20.636759 8.859797 5.910915
In -20.636759 5.907821 8.862891
In -20.636759 8.859797 11.814868
In -20.636759 11.811773 8.862891
In -20.636759 14.763750 11.814868
In -20.636759 11.811773 14.766844
In -14.732807 -20.659967 -11.800943
In -14.732807 -14.756014 -17.704896
In -14.732807 -17.707990 -14.752920
In -17.684783 -14.756014 -14.752920
In -17.684783 -17.707990 -11.800943
In -14.732807 -14.756014 -11.800943
In -14.732807 -17.707990 -8.848967
In -17.684783 -14.756014 -8.848967
In -14.732807 -14.756014 -5.896991
In -14.732807 -11.804038 -20.656872
In -17.684783 -11.804038 -17.704896
In -14.732807 -8.852061 -17.704896
In -14.732807 -11.804038 -14.752920
In -17.684783 -8.852061 -14.752920
In -17.684783 -11.804038 -11.800943
In -14.732807 -8.852061 -11.800943
In -14.732807 -11.804038 -8.848967
In -17.684783 -8.852061 -8.848967
In -17.684783 -11.804038 -5.896991
In -14.732807 -8.852061 -5.896991
In -14.732807 -11.804038 -2.945014
In -17.684783 -8.852061 -2.945014
In -14.732807 -8.852061 0.006962
In -14.732807 -5.900085 -14.752920
In -17.684783 -5.900085 -11.800943
In -14.732807 -2.948108 -11.800943
In -14.732807 -5.900085 -8.848967
In -17.684783 -2.948108 -8.848967
In -17.684783 -5.900085 -5.896991
In -14.732807 -2.948108 -5.896991
In -14.732807 -5.900085 -2.945014
In -17.684783 -2.948108 -2.945014
In -17.684783 -5.900085 0.006962
In -14.732807 -2.948108 0.006962
In -14.732807 -5.900085 2.958939
In -17.684783 -2.948108 2.958939
In -14.732807 -2.948108 5.910915
In -14.732807 0.003868 -8.848967
In -17.684783 0.003868 -5.896991
In -14.732807 2.955844 -5.896991
In -14.732807 0.003868 -2.945014
In -17.684783 2.955844 -2.945014
In -17.684783 0.003868 0.006962
In -14.732807 2.955844 0.006962
In -14.732807 0.003868 2.958939
In -17.684783 2.955844 2.958939
In -17.684783 0.003868 5.910915
In -14.732807 2.955844 5.910915
In -14.732807 0.003868 8.862891
In -17.684783 2.955844 8.862891
In -14.732807 2.955844 11.814868
In -14.732807 5.907821 -2.945014
In -17.684783 5.907821 0.006962
In -14.732807 8.859797 0.006962
In -14.732807 5.907821 2.958939
In -17.684783 8.859797 2.958939
In -17.684783 5.907821 5.910915
In -14.732807 8.859797 5.910915
In -14.732807 5.907821 8.862891
In -17.684783 8.859797 8.862891
In -17.684783 5.907821 11.814868
In -14.732807 8.859797 11.814868
In -14.732807 5.907821 14.766844
In -17.684783 8.859797 14.766844
In -14.732807 8.859797 17.718821
In -14.732807 11.811773 2.958939
In -17.684783 11.811773 5.910915
In -14.732807 14.763750 5.910915
In -14.732807 11.811773 8.862891
In -17.684783 14.763750 8.862891
In -17.684783 11.811773 11.814868
In -14.732807 14.763750 11.814868
In -14.732807 11.811773 14.766844
In -17.684783 14.763750 14.766844
In -17.684783 11.811773 17.718821
In -14.732807 14.763750 17.718821
In -14.732807 11.811773 20.670797
In -14.732807 17.715726 8.862891
In -17.684783 17.715726 11.814868
In -14.732807 20.667703 11.814868
In -14.732807 17.715726 14.766844
In -11.780830 -20.659967 -14.752920
In -8.828854 -20.659967 -11.800943
In -11.780830 -20.659967 -8.848967
In -8.828854 -20.659967 -5.896991
In -11.780830 -14.756014 -20.656872
In -11.780830 -17.707990 -17.704896
In -8.828854 -14.756014 -17.704896
In -8.828854 -17.707990 -14.752920
In -11.780830 -14.756014 -14.752920
In -11.780830 -17.707990 -11.800943
In -8.828854 -14.756014 -11.800943
In -8.828854 -17.707990 -8.848967
In -11.780830 -14.756014 -8.848967
In -11.780830 -17.707990 -5.896991
In -8.828854 -14.756014 -5.896991
In -8.828854 -17.707990 -2.945014
In -11.780830 -14.756014 -2.945014
In -8.828854 -14.756014 0.006962
In -8.828854 -11.804038 -20.656872
In -11.780830 -8.852061 -20.656872
In -11.780830 -11.804038 -17.704896
In -8.828854 -8.852061 -17.704896
In -8.828854 -11.804038 -14.752920
In -11.780830 -8.852061 -14.752920
In -11.780830 -11.804038 -11.800943
In -8.828854 -8.852061 -11.800943
In -8.828854 -11.804038 -8.848967
In -11.780830 -8.852061 -8.848967
In -11.780830 -11.804038 -5.896991
In -8.828854 -8.852061 -5.896991
In -8.828854 -11.804038 -2.945014
In -11.780830 -8.852061 -2.945014
In -11.780830 -11.804038 0.006962
In -8.828854 -8.852061 0.006962
In -8.828854 -11.804038 2.958939
In -11.780830 -8.852061 2.958939
In -8.828854 -8.852061 5.910915
In -8.828854 -5.900085 -20.656872
In -11.780830 -5.900085 -17.704896
In -8.828854 -2.948108 -17.704896
In -8.828854 -5.900085 -14.752920
In -11.780830 -2.948108 -14.752920
In -11.780830 -5.900085 -11.800943
In -8.828854 -2.948108 -11.800943
In -8.828854 -5.900085 -8.848967
In -11.780830 -2.948108 -8.848967
In -11.780830 -5.900085 -5.896991
In -8.828854 -2.948108 -5.896991
In -8.828854 -5.900085 -2.945014
In -11.780830 -2.948108 -2.945014
In -11.780830 -5.900085 0.006962
In -8.828854 -2.948108 0.006962
In -8.828854 -5.900085 2.958939
In -11.780830 -2.948108 2.958939
In -11.780830 -5.900085 5.910915
In -8.828854 -2.948108 5.910915
In -8.828854 -5.900085 8.862891
In -11.780830 -2.948108 8.862891
In -8.828854 -2.948108 11.814868
In -8.828854 0.003868 -14.752920
In -11.780830 0.003868 -11.800943
In -8.828854 2.955844 -11.800943
In -8.828854 0.003868 -8.848967
In -11.780830 2.955844 -8.848967
In -11.780830 0.003868 -5.896991
In -8.828854 2.955844 -5.896991
In -8.828854 0.003868 -2.945014
In -11.780830 2.955844 -2.945014
In -11.780830 0.003868 0.006962
In -8.828854 2.955844 0.006962
In -8.828854 0.003868 2.958939
In -11.780830 2.955844 2.958939
In -11.780830 0.003868 5.910915
In -8.828854 2.955844 5.910915
In -8.828854 0.003868 8.862891
In -11.780830 2.955844 8.862891
In -11.780830 0.003868 11.814868
In -8.828854 2.955844 11.814868
In -8.828854 0.003868 14.766844
In -11.780830 2.955844 14.766844
In -8.828854 2.955844 17.718821
In -8.828854 5.907821 -8.848967
In -11.780830 5.907821 -5.896991
In -8.828854 8.859797 -5.896991
In -8.828854 5.907821 -2.945014
In -11.780830 8.859797 -2.945014
In -11.780830 5.907821 0.006962
In -8.828854 8.859797 0.006962
In -8.828854 5.907821 2.958939
In -11.780830 8.859797 2.958939
In -11.780830 5.907821 5.910915
In -8.828854 8.859797 5.910915
In -8.828854 5.907821 8.862891
In -11.780830 8.859797 8.862891
In -11.780830 5.907821 11.814868
In -8.828854 8.859797 11.814868
In -8.828854 5.907821 14.766844
In -11.780830 8.859797 14.766844
In -11.780830 5.907821 17.718821
In -8.828854 8.859797 17.718821
In -8.828854 5.907821 20.670797
In -11.780830 8.859797 20.670797
In -8.828854 11.811773 -2.945014
In -11.780830 11.811773 0.006962
In -8.828854 14.763750 0.006962
In -8.828854 11.811773 2.958939
In -11.780830 14.763750 2.958939
In -11.780830 11.811773 5.910915
In -8.828854 14.763750 5.910915
In -8.828854 11.811773 8.862891
In -11.780830 14.763750 8.862891
In -11.780830 11.811773 11.814868
In -8.828854 14.763750 11.814868
In -8.828854 11.811773 14.766844
In -11.780830 14.763750 14.766844
In -11.780830 11.811773 17.718821
In -8.828854 14.763750 17.718821
In -8.828854 11.811773 20.670797
In -11.780830 14.763750 20.670797
In -8.828854 17.715726 2.958939
In -11.780830 17.715726 5.910915
In -8.828854 20.667703 5.910915
In -8.828854 17.715726 8.862891
In -11.780830 20.667703 8.862891
In -11.780830 17.715726 11.814868
In -8.828854 20.667703 11.814868
In -8.828854 17.715726 14.766844
In -11.780830 20.667703 14.766844
In -11.780830 17.715726 17.718821
In -5.876878 -20.659967 -8.848967
In -2.924901 -20.659967 -5.896991
In -5.876878 -20.659967 -2.945014
In -2.924901 -20.659967 0.006962
In -5.876878 -14.756014 -14.752920
In -5.876878 -17.707990 -11.800943
In -2.924901 -14.756014 -11.800943
In -2.924901 -17.707990 -8.848967
In -5.876878 -14.756014 -8.848967
In -5.876878 -17.707990 -5.896991
In -2.924901 -14.756014 -5.896991
In -2.924901 -17.707990 -2.945014
In -5.876878 -14.756014 -2.945014
In -5.876878 -17.707990 0.006962
In -2.924901 -14.756014 0.006962
In -2.924901 -17.707990 2.958939
In -5.876878 -14.756014 2.958939
In -2.924901 -14.756014 5.910915
In -5.876878 -8.852061 -20.656872
In -5.876878 -11.804038 -17.704896
In -2.924901 -8.852061 -17.704896
In -2.924901 -11.804038 -14.752920
In -5.876878 -8.852061 -14.752920
In -5.876878 -11.804038 -11.800943
In -2.924901 -8.852061 -11.800943
In -2.924901 -11.804038 -8.848967
In -5.876878 -8.852061 -8.848967
In -5.876878 -11.804038 -5.896991
In -2.924901 -8.852061 -5.896991
In -2.924901 -11.804038 -2.945014
In -5.876878 -8.852061 -2.945014
In -5.876878 -11.804038 0.006962
In -2.924901 -8.852061 0.006962
In -2.924901 -11.804038 2.958939
In -5.876878 -8.852061 2.958939
In -5.876878 -11.804038 5.910915
In -2.924901 -8.852061 5.910915
In -2.924901 -11.804038 8.862891
In -5.876878 -8.852061 8.862891
In -2.924901 -8.852061 11.814868
In -2.924901 -5.900085 -20.656872
In -5.876878 -2.948108 -20.656872
In -5.876878 -5.900085 -17.704896
In -2.924901 -2.948108 -17.704896
In -2.924901 -5.900085 -14.752920
In -5.876878 -2.948108 -14.752920
In -5.876878 -5.900085 -11.800943
In -2.924901 -2.948108 -11.800943
In -2.924901 -5.900085 -8.848967
In -5.876878 -2.948108 -8.848967
In -5.876878 -5.900085 -5.896991
In -2.924901 -2.948108 -5.896991
In -2.924901 -5.900085 -2.945014
In -5.876878 -2.948108 -2.945014
In -5.876878 -5.900085 0.006962
In -2.924901 -2.948108 0.006962
In -2.924901 -5.900085 2.958939
In -5.876878 -2.948108 2.958939
In -5.876878 -5.900085 5.910915
In -2.924901 -2.948108 5.910915
In -2.924901 -5.900085 8.862891
In -5.876878 -2.948108 8.862891
In -5.876878 -5.900085 11.814868
In -2.924901 -2.948108 11.814868
In -2.924901 -5.900085 14.766844
In -5.876878 -2.948108 14.766844
In -2.924901 -2.948108 17.718821
In -2.924901 0.003868 -20.656872
In -5.876878 0.003868 -17.704896
In -2.924901 2.955844 -17.704896
In -2.924901 0.003868 -14.752920
In -5.876878 2.955844 -14.752920
In -5.876878 0.003868 -11.800943
In -2.924901 2.955844 -11.800943
In -2.924901 0.003868 -8.848967
In -5.876878 2.955844 -8.848967
In -5.876878 0.003868 -5.896991
In -2.924901 2.955844 -5.896991
In -2.924901 0.003868 -2.945014
In -5.876878 2.955844 -2.945014
In -5.876878 0.003868 0.006962
In -2.924901 2.955844 0.006962
In -2.924901 0.003868 2.958939
In -5.876878 2.955844 2.958939
In -5.876878 0.003868 5.910915
In -2.924901 2.955844 5.910915
In -2.924901 0.003868 8.862891
In -5.876878 2.955844 8.862891
In -5.876878 0.003868 11.814868
In -2.924901 2.955844 11.814868
In -2.924901 0.003868 14.766844
In -5.876878 2.955844 14.766844
In -5.876878 0.003868 17.718821
In -2.924901 2.955844 17.718821
In -2.924901 0.003868 20.670797
In -5.876878 2.955844 20.670797
In -2.924901 5.907821 -14.752920
In -5.876878 5.907821 -11.800943
In -2.924901 8.859797 -11.800943
In -2.924901 5.907821 -8.848967
In -5.876878 8.859797 -8.848967
In -5.876878 5.907821 -5.896991
In -2.924901 8.859797 -5.896991
In -2.924901 5.907821 -2.945014
In -5.876878 8.859797 -2.945014
In -5.876878 5.907821 0.006962
In -2.924901 8.859797 0.006962
In -2.924901 5.907821 2.958939
In -5.876878 8.859797 2.958939
In -5.876878 5.907821 5.910915
In -2.924901 8.859797 5.910915
In -2.924901 5.907821 8.862891
In -5.876878 8.859797 8.862891
In -5.876878 5.907821 11.814868
In -2.924901 8.859797 11.814868
In -2.924901 5.907821 14.766844
In -5.876878 8.859797 14.766844
In -5.876878 5.907821 17.718821
In -2.924901 8.859797 17.718821
In -2.924901 5.907821 20.670797
In -5.876878 8.859797 20.670797
In -2.924901 11.811773 -8.848967
In -5.876878 11.811773 -5.896991
In -2.924901 14.763750 -5.896991
In -2.924901 11.811773 -2.945014
In -5.876878 14.763750 -2.945014
In -5.876878 11.811773 0.006962
In -2.924901 14.763750 0.006962
In -2.924901 11.811773 2.958939
In -5.876878 14.763750 2.958939
In -5.876878 11.811773 5.910915
In -2.924901 14.763750 5.910915
In -2.924901 11.811773 8.862891
In -5.876878 14.763750 8.862891
In -5.876878 11.811773 11.814868
In -2.924901 14.763750 11.814868
In -2.924901 11.811773 14.766844
In -5.876878 14.763750 14.766844
In -5.876878 11.811773 17.718821
In -2.924901 17.715726 -2.945014
In -5.876878 17.715726 0.006962
In -2.924901 20.667703 0.006962
In -2.924901 17.715726 2.958939
In -5.876878 20.667703 2.958939
In -5.876878 17.715726 5.910915
In -2.924901 20.667703 5.910915
In -2.924901 17.715726 8.862891
In -5.876878 20.667703 8.862891
In -5.876878 17.715726 11.814868
In 0.027075 -20.659967 -2.945014
In 2.979052 -20.659967 0.006962
In 0.027075 -20.659967 2.958939
In 2.979052 -20.659967 5.910915
In 0.027075 -14.756014 -8.848967
In 0.027075 -17.707990 -5.896991
In 2.979052 -14.756014 -5.896991
In 2.979052 -17.707990 -2.945014
In 0.027075 -14.756014 -2.945014
In 0.027075 -17.707990 0.006962
In 2.979052 -14.756014 0.006962
In 2.979052 -17.707990 2.958939
In 0.027075 -14.756014 2.958939
In 0.027075 -17.707990 5.910915
In 2.979052 -14.756014 5.910915
In 2.979052 -17.707990 8.862891
In 0.027075 -14.756014 8.862891
In 2.979052 -14.756014 11.814868
In 0.027075 -8.852061 -14.752920
In 0.027075 -11.804038 -11.800943
In 2.979052 -8.852061 -11.800943
In 2.979052 -11.804038 -8.848967
In 0.027075 -8.852061 -8.848967
In 0.027075 -11.804038 -5.896991
In 2.979052 -8.852061 -5.896991
In 2.979052 -11.804038 -2.945014
In 0.027075 -8.852061 -2.945014
In 0.027075 -11.804038 0.006962
In 2.979052 -8.852061 0.006962
In 2.979052 -11.804038 2.958939
In 0.027075 -8.852061 2.958939
In 0.027075 -11.804038 5.910915
In 2.979052 -8.852061 5.910915
In 2.979052 -11.804038 8.862891
In 0.027075 -8.852061 8.862891
In 0.027075 -11.804038 11.814868
In 2.979052 -8.852061 11.814868
In 2.979052 -11.804038 14.766844
In 0.027075 -8.852061 14.766844
In 2.979052 -8.852061 17.718821
In 0.027075 -2.948108 -20.656872
In 0.027075 -5.900085 -17.704896
In 2.979052 -2.948108 -17.704896
In 2.979052 -5.900085 -14.752920
In 0.027075 -2.948108 -14.752920
In 0.027075 -5.900085 -11.800943
In 2.979052 -2.948108 -11.800943
In 2.979052 -5.900085 -8.848967
In 0.027075 -2.948108 -8.848967
In 0.027075 -5.900085 -5.896991
In 2.979052 -2.948108 -5.896991
In 2.979052 -5.900085 -2.945014
In 0.027075 -2.948108 -2.945014
In 0.027075 -5.900085 0.006962
In 2.979052 -2.948108 0.006962
In 2.979052 -5.900085 2.958939
In 0.027075 -2.948108 2.958939
In 0.027075 -5.900085 5.910915
In 2.979052 -2.948108 5.910915
In 2.979052 -5.900085 8.862891
In 0.027075 -2.948108 8.862891
In 0.027075 -5.900085 11.814868
In 2.979052 -2.948108 11.814868
In 2.979052 -5.900085 14.766844
In 0.027075 -2.948108 14.766844
In 0.027075 -5.900085 17.718821
In 2.979052 -2.948108 17.718821
In 2.979052 -5.900085 20.670797
In 0.027075 -2.948108 20.670797
In 2.979052 0.003868 -20.656872
In 0.027075 2.955844 -20.656872
In 0.027075 0.003868 -17.704896
In 2.979052 2.955844 -17.704896
In 2.979052 0.003868 -14.752920
In 0.027075 2.955844 -14.752920
In 0.027075 0.003868 -11.800943
In 2.979052 2.955844 -11.800943
In 2.979052 0.003868 -8.848967
In 0.027075 2.955844 -8.848967
In 0.027075 0.003868 -5.896991
In 2.979052 2.955844 -5.896991
In 2.979052 0.003868 -2.945014
In 0.027075 2.955844 -2.945014
In 0.027075 0.003868 0.006962
In 2.979052 2.955844 0.006962
In 2.979052 0.003868 2.958939
In 0.027075 2.955844 2.958939
In 0.027075 0.003868 5.910915
In 2.979052 2.955844 5.910915
In 2.979052 0.003868 8.862891
In 0.027075 2.955844 8.862891
In 0.027075 0.003868 11.814868
In 2.979052 2.955844 11.814868
In 2.979052 0.003868 14.766844
In 0.027075 2.955844 14.766844
In 0.027075 0.003868 17.718821
In 2.979052 2.955844 17.718821
In 2.979052 0.003868 20.670797
In 0.027075 2.955844 20.670797
In 2.979052 5.907821 -20.656872
In 0.027075 5.907821 -17.704896
In 2.979052 8.859797 -17.704896
In 2.979052 5.907821 -14.752920
In 0.027075 8.859797 -14.752920
In 0.027075 5.907821 -11.800943
In 2.979052 8.859797 -11.800943
In 2.979052 5.907821 -8.848967
In 0.027075 8.859797 -8.848967
In 0.027075 5.907821 -5.896991
In 2.979052 8.859797 -5.896991
In 2.979052 5.907821 -2.945014
In 0.027075 8.859797 -2.945014
In 0.027075 5.907821 0.006962
In 2.979052 8.859797 0.006962
In 2.979052 5.907821 2.958939
In 0.027075 8.859797 2.958939
In 0.027075 5.907821 5.910915
In 2.979052 8.859797 5.910915
In 2.979052 5.907821 8.862891
In 0.027075 8.859797 8.862891
In 0.027075 5.907821 11.814868
In 2.979052 8.859797 11.814868
In 2.979052 5.907821 14.766844
In 0.027075 8.859797 14.766844
In 0.027075 5.907821 17.718821
In 2.979052 11.811773 -14.752920
In 0.027075 11.811773 -11.800943
In 2.979052 14.763750 -11.800943
In 2.979052 11.811773 -8.848967
In 0.027075 14.763750 -8.848967
In 0.027075 11.811773 -5.896991
In 2.979052 14.763750 -5.896991
In 2.979052 11.811773 -2.945014
In 0.027075 14.763750 -2.945014
In 0.027075 11.811773 0.006962
In 2.979052 14.763750 0.006962
In 2.979052 11.811773 2.958939
In 0.027075 14.763750 2.958939
In 0.027075 11.811773 5.910915
In 2.979052 14.763750 5.910915
In 2.979052 11.811773 8.862891
In 0.027075 14.763750 8.862891
In 0.027075 11.811773 11.814868
In 2.979052 17.715726 -8.848967
In 0.027075 17.715726 -5.896991
In 2.979052 20.667703 -5.896991
In 2.979052 17.715726 -2.945014
In 0.027075 20.667703 -2.945014
In 0.027075 17.715726 0.006962
In 2.979052 20.667703 0.006962
In 2.979052 17.715726 2.958939
In 0.027075 20.667703 2.958939
In 0.027075 17.715726 5.910915
In 5.931028 -20.659967 2.958939
In 8.883004 -20.659967 5.910915
In 5.931028 -20.659967 8.862891
In 8.883004 -20.659967 11.814868
In 5.931028 -14.756014 -2.945014
In 5.931028 -17.707990 0.006962
In 8.883004 -14.756014 0.006962
In 8.883004 -17.707990 2.958939
In 5.931028 -14.756014 2.958939
In 5.931028 -17.707990 5.910915
In 8.883004 -14.756014 5.910915
In 8.883004 -17.707990 8.862891
In 5.931028 -14.756014 8.862891
In 5.931028 -17.707990 11.814868
In 8.883004 -14.756014 11.814868
In 8.883004 -17.707990 14.766844
In 5.931028 -14.756014 14.766844
In 8.883004 -14.756014 17.718821
In 5.931028 -8.852061 -8.848967
In 5.931028 -11.804038 -5.896991
In 8.883004 -8.852061 -5.896991
In 8.883004 -11.804038 -2.945014
In 5.931028 -8.852061 -2.945014
In 5.931028 -11.804038 0.006962
In 8.883004 -8.852061 0.006962
In 8.883004 -11.804038 2.958939
In 5.931028 -8.852061 2.958939
In 5.931028 -11.804038 5.910915
In 8.883004 -8.852061 5.910915
In 8.883004 -11.804038 8.862891
In 5.931028 -8.852061 8.862891
In 5.931028 -11.804038 11.814868
In 8.883004 -8.852061 11.814868
In 8.883004 -11.804038 14.766844
In 5.931028 -8.852061 14.766844
In 5.931028 -11.804038 17.718821
In 8.883004 -8.852061 17.718821
In 8.883004 -11.804038 20.670797
In 5.931028 -8.852061 20.670797
In 5.931028 -2.948108 -14.752920
In 5.931028 -5.900085 -11.800943
In 8.883004 -2.948108 -11.800943
In 8.883004 -5.900085 -8.848967
In 5.931028 -2.948108 -8.848967
In 5.931028 -5.900085 -5.896991
In 8.883004 -2.948108 -5.896991
In 8.883004 -5.900085 -2.945014
In 5.931028 -2.948108 -2.945014
In 5.931028 -5.900085 0.006962
In 8.883004 -2.948108 0.006962
In 8.883004 -5.900085 2.958939
In 5.931028 -2.948108 2.958939
In 5.931028 -5.900085 5.910915
In 8.883004 -2.948108 5.910915
In 8.883004 -5.900085 8.862891
In 5.931028 -2.948108 8.862891
In 5.931028 -5.900085 11.814868
In 8.883004 -2.948108 11.814868
In 8.883004 -5.900085 14.766844
In 5.931028 -2.948108 14.766844
In 5.931028 -5.900085 17.718821
In 8.883004 -2.948108 17.718821
In 8.883004 -5.900085 20.670797
In 5.931028 -2.948108 20.670797
In 5.931028 2.955844 -20.656872
In 5.931028 0.003868 -17.704896
In 8.883004 2.955844 -17.704896
In 8.883004 0.003868 -14.752920
In 5.931028 2.955844 -14.752920
In 5.931028 0.003868 -11.800943
In 8.883004 2.955844 -11.800943
In 8.883004 0.003868 -8.848967
In 5.931028 2.955844 -8.848967
In 5.931028 0.003868 -5.896991
In 8.883004 2.955844 -5.896991
In 8.883004 0.003868 -2.945014
In 5.931028 2.955844 -2.945014
In 5.931028 0.003868 0.006962
In 8.883004 2.955844 0.006962
In 8.883004 0.003868 2.958939
In 5.931028 2.955844 2.958939
In 5.931028 0.003868 5.910915
In 8.883004 2.955844 5.910915
In 8.883004 0.003868 8.862891
In 5.931028 2.955844 8.862891
In 5.931028 0.003868 11.814868
In 8.883004 2.955844 11.814868
In 8.883004 0.003868 14.766844
In 5.931028 2.955844 14.766844
In 5.931028 0.003868 17.718821
In 8.883004 5.907821 -20.656872
In 5.931028 8.859797 -20.656872
In 5.931028 5.907821 -17.704896
In 8.883004 8.859797 -17.704896
In 8.883004 5.907821 -14.752920
In 5.931028 8.859797 -14.752920
In 5.931028 5.907821 -11.800943
In 8.883004 8.859797 -11.800943
In 8.883004 5.907821 -8.848967
In 5.931028 8.859797 -8.848967
In 5.931028 5.907821 -5.896991
In 8.883004 8.859797 -5.896991
In 8.883004 5.907821 -2.945014
In 5.931028 8.859797 -2.945014
In 5.931028 5.907821 0.006962
In 8.883004 8.859797 0.006962
In 8.883004 5.907821 2.958939
In 5.931028 8.859797 2.958939
In 5.931028 5.907821 5.910915
In 8.883004 8.859797 5.910915
In 8.883004 5.907821 8.862891
In 5.931028 8.859797 8.862891
In 5.931028 5.907821 11.814868
In 8.883004 11.811773 -20.656872
In 5.931028 11.811773 -17.704896
In 8.883004 14.763750 -17.704896
In 8.883004 11.811773 -14.752920
In 5.931028 14.763750 -14.752920
In 5.931028 11.811773 -11.800943
In 8.883004 14.763750 -11.800943
In 8.883004 11.811773 -8.848967
In 5.931028 14.763750 -8.848967
In 5.931028 11.811773 -5.896991
In 8.883004 14.763750 -5.896991
In 8.883004 11.811773 -2.945014
In 5.931028 14.763750 -2.945014
In 5.931028 11.811773 0.006962
In 8.883004 14.763750 0.006962
In 8.883004 11.811773 2.958939
In 5.931028 14.763750 2.958939
In 5.931028 11.811773 5.910915
In 8.883004 17.715726 -14.752920
In 5.931028 17.715726 -11.800943
In 8.883004 20.667703 -11.800943
In 8.883004 17.715726 -8.848967
In 5.931028 20.667703 -8.848967
In 5.931028 17.715726 -5.896991
In 8.883004 20.667703 -5.896991
In 8.883004 17.715726 -2.945014
In 5.931028 20.667703 -2.945014
In 5.931028 17.715726 0.006962
In 11.834981 -20.659967 8.862891
In 14.786957 -20.659967 11.814868
In 11.834981 -20.659967 14.766844
In 11.834981 -14.756014 2.958939
In 11.834981 -17.707990 5.910915
In 14.786957 -14.756014 5.910915
In 14.786957 -17.707990 8.862891
In 11.834981 -14.756014 8.862891
In 11.834981 -17.707990 11.814868
In 14.786957 -14.756014 11.814868
In 14.786957 -17.707990 14.766844
In 11.834981 -14.756014 14.766844
In 11.834981 -17.707990 17.718821
In 14.786957 -14.756014 17.718821
In 11.834981 -14.756014 20.670797
In 11.834981 -8.852061 -2.945014
In 11.834981 -11.804038 0.006962
In 14.786957 -8.852061 0.006962
In 14.786957 -11.804038 2.958939
In 11.834981 -8.852061 2.958939
In 11.834981 -11.804038 5.910915
In 14.786957 -8.852061 5.910915
In 14.786957 -11.804038 8.862891
In 11.834981 -8.852061 8.862891
In 11.834981 -11.804038 11.814868
In 14.786957 -8.852061 11.814868
In 14.786957 -11.804038 14.766844
In 11.834981 -8.852061 14.766844
In 11.834981 -11.804038 17.718821
In 14.786957 -8.852061 17.718821
In 14.786957 -11.804038 20.670797
In 11.834981 -8.852061 20.670797
In 11.834981 -2.948108 -8.848967
In 11.834981 -5.900085 -5.896991
In 14.786957 -2.948108 -5.896991
In 14.786957 -5.900085 -2.945014
In 11.834981 -2.948108 -2.945014
In 11.834981 -5.900085 0.006962
In 14.786957 -2.948108 0.006962
In 14.786957 -5.900085 2.958939
In 11.834981 -2.948108 2.958939
In 11.834981 -5.900085 5.910915
In 14.786957 -2.948108 5.910915
In 14.786957 -5.900085 8.862891
In 11.834981 -2.948108 8.862891
In 11.834981 -5.900085 11.814868
In 14.786957 -2.948108 11.814868
In 14.786957 -5.900085 14.766844
In 11.834981 -2.948108 14.766844
In 11.834981 -5.900085 17.718821
In 11.834981 2.955844 -14.752920
In 11.834981 0.003868 -11.800943
In 14.786957 2.955844 -11.800943
In 14.786957 0.003868 -8.848967
In 11.834981 2.955844 -8.848967
In 11.834981 0.003868 -5.896991
In 14.786957 2.955844 -5.896991
In 14.786957 0.003868 -2.945014
In 11.834981 2.955844 -2.945014
In 11.834981 0.003868 0.006962
In 14.786957 2.955844 0.006962
In 14.786957 0.003868 2.958939
In 11.834981 2.955844 2.958939
In 11.834981 0.003868 5.910915
In 14.786957 2.955844 5.910915
In 14.786957 0.003868 8.862891
In 11.834981 2.955844 8.862891
In 11.834981 0.003868 11.814868
In 11.834981 8.859797 -20.656872
In 11.834981 5.907821 -17.704896
In 14.786957 8.859797 -17.704896
In 14.786957 5.907821 -14.752920
In 11.834981 8.859797 -14.752920
In 11.834981 5.907821 -11.800943
In 14.786957 8.859797 -11.800943
In 14.786957 5.907821 -8.848967
In 11.834981 8.859797 -8.848967
In 11.834981 5.907821 -5.896991
In 14.786957 8.859797 -5.896991
In 14.786957 5.907821 -2.945014
In 11.834981 8.859797 -2.945014
In 11.834981 5.907821 0.006962
In 14.786957 8.859797 0.006962
In 14.786957 5.907821 2.958939
In 11.834981 8.859797 2.958939
In 11.834981 5.907821 5.910915
In 14.786957 11.811773 -20.656872
In 11.834981 14.763750 -20.656872
In 11.834981 11.811773 -17.704896
In 14.786957 14.763750 -17.704896
In 14.786957 11.811773 -14.752920
In 11.834981 14.763750 -14.752920
In 11.834981 11.811773 -11.800943
In 14.786957 14.763750 -11.800943
In 14.786957 11.811773 -8.848967
In 11.834981 14.763750 -8.848967
In 11.834981 11.811773 -5.896991
In 14.786957 14.763750 -5.896991
In 14.786957 11.811773 -2.945014
In 11.834981 14.763750 -2.945014
In 11.834981 11.811773 0.006962
In 11.834981 17.715726 -17.704896
In 14.786957 17.715726 -14.752920
In 11.834981 20.667703 -14.752920
In 11.834981 17.715726 -11.800943
In 14.786957 20.667703 -11.800943
In 14.786957 17.715726 -8.848967
In 11.834981 20.667703 -8.848967
In 11.834981 17.715726 -5.896991
In 17.738934 -14.756014 8.862891
In 17.738934 -17.707990 11.814868
In 20.690910 -14.756014 11.814868
In 17.738934 -14.756014 14.766844
In 17.738934 -8.852061 2.958939
In 17.738934 -11.804038 5.910915
In 20.690910 -8.852061 5.910915
In 20.690910 -11.804038 8.862891
In 17.738934 -8.852061 8.862891
In 17.738934 -11.804038 11.814868
In 20.690910 -8.852061 11.814868
In 20.690910 -11.804038 14.766844
In 17.738934 -8.852061 14.766844
In 17.738934 -11.804038 17.718821
In 17.738934 -2.948108 -2.945014
In 17.738934 -5.900085 0.006962
In 20.690910 -2.948108 0.006962
In 20.690910 -5.900085 2.958939
In 17.738934 -2.948108 2.958939
In 17.738934 -5.900085 5.910915
In 20.690910 -2.948108 5.910915
In 20.690910 -5.900085 8.862891
In 17.738934 -2.948108 8.862891
In 17.738934 -5.900085 11.814868
In 17.738934 2.955844 -8.848967
In 17.738934 0.003868 -5.896991
In 20.690910 2.955844 -5.896991
In 20.690910 0.003868 -2.945014
In 17.738934 2.955844 -2.945014
In 17.738934 0.003868 0.006962
In 20.690910 2.955844 0.006962
In 20.690910 0.003868 2.958939
In 17.738934 2.955844 2.958939
In 17.738934 0.003868 5.910915
In 17.738934 8.859797 -14.752920
In 17.738934 5.907821 -11.800943
In 20.690910 8.859797 -11.800943
In 20.690910 5.907821 -8.848967
In 17.738934 8.859797 -8.848967
In 17.738934 5.907821 -5.896991
In 20.690910 8.859797 -5.896991
In 20.690910 5.907821 -2.945014
In 17.738934 8.859797 -2.945014
In 17.738934 5.907821 0.006962
In 17.738934 11.811773 -17.704896
In 20.690910 11.811773 -14.752920
In 17.738934 14.763750 -14.752920
In 17.738934 11.811773 -11.800943
In 20.690910 14.763750 -11.800943
In 20.690910 11.811773 -8.848967
In 17.738934 14.763750 -8.848967
In 17.738934 11.811773 -5.896991
In 17.738934 17.715726 -11.800943
P -19.160771 -13.280026 -16.228908
P -19.160771 -16.232002 -13.276932
P -19.160771 -13.280026 -10.324955
P -19.160771 -10.328049 -13.276932
P -19.160771 -7.376073 -10.324955
P -19.160771 -10.328049 -7.372979
P -19.160771 -7.376073 -4.421002
P -19.160771 -4.424097 -7.372979
P -19.160771 -1.472120 -4.421002
P -19.160771 -4.424097 -1.469026
P -19.160771 -1.472120 1.482950
P -19.160771 1.479856 -1.469026
P -19.160771 4.431832 1.482950
P -19.160771 1.479856 4.434927
P -19.160771 4.431832 7.386903
P -19.160771 7.383809 4.434927
P -19.160771 10.335785 7.386903
P -19.160771 7.383809 10.338880
P -19.160771 10.335785 13.290856
P -19.160771 13.287762 10.338880
P -19.160771 16.239738 13.290856
P -19.160771 13.287762 16.242832
P -16.208795 -19.183979 -13.276932
P -13.256818 -19.183979 -16.228908
P -13.256818 -19.183979 -10.324955
P -16.208795 -13.280026 -19.180884
P -13.256818 -16.232002 -19.180884
P -16.208795 -16.232002 -16.228908
P -16.208795 -13.280026 -13.276932
P -13.256818 -13.280026 -16.228908
P -13.256818 -16.232002 -13.276932
P -16.208795 -16.232002 -10.324955
P -16.208795 -13.280026 -7.372979
P -13.256818 -13.280026 -10.324955
P -13.256818 -16.232002 -7.372979
P -13.256818 -13.280026 -4.421002
P -13.256818 -10.328049 -19.180884
P -16.208795 -10.328049 -16.228908
P -16.208795 -7.376073 -13.276932
P -13.256818 -7.376073 -16.228908
P -13.256818 -10.328049 -13.276932
P -16.208795 -10.328049 -10.324955
P -16.208795 -7.376073 -7.372979
P -13.256818 -7.376073 -10.324955
P -13.256818 -10.328049 -7.372979
P -16.208795 -10.328049 -4.421002
P -16.208795 -7.376073 -1.469026
P -13.256818 -7.376073 -4.421002
P -13.256818 -10.328049 -1.469026
P -13.256818 -7.376073 1.482950
P -13.256818 -4.424097 -13.276932
P -16.208795 -4.424097 -10.324955
P -16.208795 -1.472120 -7.372979
P -13.256818 -1.472120 -10.324955
P -13.256818 -4.424097 -7.372979
P -16.208795 -4.424097 -4.421002
P -16.208795 -1.472120 -1.469026
P -13.256818 -1.472120 -4.421002
P -13.256818 -4.424097 -1.469026
P -16.208795 -4.424097 1.482950
P -16.208795 -1.472120 4.434927
P -13.256818 -1.472120 1.482950
P -13.256818 -4.424097 4.434927
P -13.256818 -1.472120 7.386903
P -13.256818 1.479856 -7.372979
P -16.208795 1.479856 -4.421002
P -16.208795 4.431832 -1.469026
P -13.256818 4.431832 -4.421002
P -13.256818 1.479856 -1.469026
P -16.208795 1.479856 1.482950
P -16.208795 4.431832 4.434927
P -13.256818 4.431832 1.482950
P -13.256818 1.479856 4.434927
P -16.208795 1.479856 7.386903
P -16.208795 4.431832 10.338880
P -13.256818 4.431832 7.386903
P -13.256818 1.479856 10.338880
P -13.256818 4.431832 13.290856
P -13.256818 7.383809 -1.469026
P -16.208795 7.383809 1.482950
P -16.208795 10.335785 4.434927
P -13.256818 10.335785 1.482950
P -13.256818 7.383809 4.434927
P -16.208795 7.383809 7.386903
P -16.208795 10.335785 10.338880
P -13.256818 10.335785 7.386903
P -13.256818 7.383809 10.338880
P -16.208795 7.383809 13.290856
P -16.208795 10.335785 16.242832
P -13.256818 10.335785 13.290856
P -13.256818 7.383809 16.242832
P -13.256818 10.335785 19.194809
P -13.256818 13.287762 4.434927
P -16.208795 13.287762 7.386903
P -16.208795 16.239738 10.338880
P -13.256818 16.239738 7.386903
P -13.256818 13.287762 10.338880
P -16.208795 13.287762 13.290856
P -16.208795 16.239738 16.242832
P -13.256818 16.239738 13.290856
P -13.256818 13.287762 16.242832
P -16.208795 13.287762 19.194809
P -13.256818 16.239738 19.194809
P -13.256818 19.191714 10.338880
P -16.208795 19.191714 13.290856
P -13.256818 19.191714 16.242832
P -10.304842 -19.183979 -13.276932
P -10.304842 -19.183979 -7.372979
P -7.352866 -19.183979 -10.324955
P -7.352866 -19.183979 -4.421002
P -10.304842 -13.280026 -19.180884
P -10.304842 -16.232002 -16.228908
P -10.304842 -13.280026 -13.276932
P -7.352866 -13.280026 -16.228908
P -7.352866 -16.232002 -13.276932
P -10.304842 -16.232002 -10.324955
P -10.304842 -13.280026 -7.372979
P -7.352866 -13.280026 -10.324955
P -7.352866 -16.232002 -7.372979
P -10.304842 -16.232002 -4.421002
P -10.304842 -13.280026 -1.469026
P -7.352866 -13.280026 -4.421002
P -7.352866 -16.232002 -1.469026
P -7.352866 -13.280026 1.482950
P -10.304842 -7.376073 -19.180884
P -7.352866 -10.328049 -19.180884
P -10.304842 -10.328049 -16.228908
P -10.304842 -7.376073 -13.276932
P -7.352866 -7.376073 -16.228908
P -7.352866 -10.328049 -13.276932
P -10.304842 -10.328049 -10.324955
P -10.304842 -7.376073 -7.372979
P -7.352866 -7.376073 -10.324955
P -7.352866 -10.328049 -7.372979
P -10.304842 -10.328049 -4.421002
P -10.304842 -7.376073 -1.469026
P -7.352866 -7.376073 -4.421002
P -7.352866 -10.328049 -1.469026
P -10.304842 -10.328049 1.482950
P -10.304842 -7.376073 4.434927
P -7.352866 -7.376073 1.482950
P -7.352866 -10.328049 4.434927
P -7.352866 -7.376073 7.386903
P -7.352866 -4.424097 -19.180884
P -10.304842 -4.424097 -16.228908
P -10.304842 -1.472120 -13.276932
P -7.352866 -1.472120 -16.228908
P -7.352866 -4.424097 -13.276932
P -10.304842 -4.424097 -10.324955
P -10.304842 -1.472120 -7.372979
P -7.352866 -1.472120 -10.324955
P -7.352866 -4.424097 -7.372979
P -10.304842 -4.424097 -4.421002
P -10.304842 -1.472120 -1.469026
P -7.352866 -1.472120 -4.421002
P -7.352866 -4.424097 -1.469026
P -10.304842 -4.424097 1.482950
P -10.304842 -1.472120 4.434927
P -7.352866 -1.472120 1.482950
P -7.352866 -4.424097 4.434927
P -10.304842 -4.424097 7.386903
P -10.304842 -1.472120 10.338880
P -7.352866 -1.472120 7.386903
P -7.352866 -4.424097 10.338880
P -7.352866 -1.472120 13.290856
P -7.352866 1.479856 -13.276932
P -10.304842 1.479856 -10.324955
P -10.304842 4.431832 -7.372979
P -7.352866 4.431832 -10.324955
P -7.352866 1.479856 -7.372979
P -10.304842 1.479856 -4.421002
P -10.304842 4.431832 -1.469026
P -7.352866 4.431832 -4.421002
P -7.352866 1.479856 -1.469026
P -10.304842 1.479856 1.482950
P -10.304842 4.431832 4.434927
P -7.352866 4.431832 1.482950
P -7.352866 1.479856 4.434927
P -10.304842 1.479856 7.386903
P -10.304842 4.431832 10.338880
P -7.352866 4.431832 7.386903
P -7.352866 1.479856 10.338880
P -10.304842 1.479856 13.290856
P -10.304842 4.431832 16.242832
P -7.352866 4.431832 13.290856
P -7.352866 1.479856 16.242832
P -7.352866 4.431832 19.194809
P -7.352866 7.383809 -7.372979
P -10.304842 7.383809 -4.421002
P -10.304842 10.335785 -1.469026
P -7.352866 10.335785 -4.421002
P -7.352866 7.383809 -1.469026
P -10.304842 7.383809 1.482950
P -10.304842 10.335785 4.434927
P -7.352866 10.335785 1.482950
P -7.352866 7.383809 4.434927
P -10.304842 7.383809 7.386903
P -10.304842 10.335785 10.338880
P -7.352866 10.335785 7.386903
P -7.352866 7.383809 10.338880
P -10.304842 7.383809 13.290856
P -10.304842 10.335785 16.242832
P -7.352866 10.335785 13.290856
P -7.352866 7.383809 16.242832
P -10.304842 7.383809 19.194809
P -7.352866 10.335785 19.194809
P -7.352866 13.287762 -1.469026
P -10.304842 13.287762 1.482950
P -10.304842 16.239738 4.434927
P -7.352866 16.239738 1.482950
P -7.352866 13.287762 4.434927
P -10.304842 13.287762 7.386903
P -10.304842 16.239738 10.338880
P -7.352866 16.239738 7.386903
P -7.352866 13.287762 10.338880
P -10.304842 13.287762 13.290856
P -10.304842 16.239738 16.242832
P -7.352866 16.239738 13.290856
P -7.352866 13.287762 16.242832
P -10.304842 13.287762 19.194809
P -7.352866 19.191714 4.434927
P -10.304842 19.191714 7.386903
P -7.352866 19.191714 10.338880
P -10.304842 19.191714 13.290856
P -4.400889 -19.183979 -7.372979
P -4.400889 -19.183979 -1.469026
P -1.448913 -19.183979 -4.421002
P -1.448913 -19.183979 1.482950
P -4.400889 -13.280026 -13.276932
P -4.400889 -16.232002 -10.324955
P -4.400889 -13.280026 -7.372979
P -1.448913 -13.280026 -10.324955
P -1.448913 -16.232002 -7.372979
P -4.400889 -16.232002 -4.421002
P -4.400889 -13.280026 -1.469026
P -1.448913 -13.280026 -4.421002
P -1.448913 -16.232002 -1.469026
P -4.400889 -16.232002 1.482950
P -4.400889 -13.280026 4.434927
P -1.448913 -13.280026 1.482950
P -1.448913 -16.232002 4.434927
P -1.448913 -13.280026 7.386903
P -4.400889 -7.376073 -19.180884
P -4.400889 -10.328049 -16.228908
P -4.400889 -7.376073 -13.276932
P -1.448913 -7.376073 -16.228908
P -1.448913 -10.328049 -13.276932
P -4.400889 -10.328049 -10.324955
P -4.400889 -7.376073 -7.372979
P -1.448913 -7.376073 -10.324955
P -1.448913 -10.328049 -7.372979
P -4.400889 -10.328049 -4.421002
P -4.400889 -7.376073 -1.469026
P -1.448913 -7.376073 -4.421002
P -1.448913 -10.328049 -1.469026
P -4.400889 -10.328049 1.482950
P -4.400889 -7.376073 4.434927
P -1.448913 -7.376073 1.482950
P -1.448913 -10.328049 4.434927
P -4.400889 -10.328049 7.386903
P -4.400889 -7.376073 10.338880
P -1.448913 -7.376073 7.386903
P -1.448913 -10.328049 10.338880
P -1.448913 -7.376073 13.290856
P -4.400889 -1.472120 -19.180884
P -1.448913 -4.424097 -19.180884
P -4.400889 -4.424097 -16.228908
P -4.400889 -1.472120 -13.276932
P -1.448913 -1.472120 -16.228908
P -1.448913 -4.424097 -13.276932
P -4.400889 -4.424097 -10.324955
P -4.400889 -1.472120 -7.372979
P -1.448913 -1.472120 -10.324955
P -1.448913 -4.424097 -7.372979
P -4.400889 -4.424097 -4.421002
P -4.400889 -1.472120 -1.469026
P -1.448913 -1.472120 -4.421002
P -1.448913 -4.424097 -1.469026
P -4.400889 -4.424097 1.482950
P -4.400889 -1.472120 4.434927
P -1.448913 -1.472120 1.482950
P -1.448913 -4.424097 4.434927
P -4.400889 -4.424097 7.386903
P -4.400889 -1.472120 10.338880
P -1.448913 -1.472120 7.386903
P -1.448913 -4.424097 10.338880
P -4.400889 -4.424097 13.290856
P -4.400889 -1.472120 16.242832
P -1.448913 -1.472120 13.290856
P -1.448913 -4.424097 16.242832
P -1.448913 -1.472120 19.194809
P -1.448913 1.479856 -19.180884
P -4.400889 1.479856 -16.228908
P -4.400889 4.431832 -13.276932
P -1.448913 4.431832 -16.228908
P -1.448913 1.479856 -13.276932
P -4.400889 1.479856 -10.324955
P -4.400889 4.431832 -7.372979
P -1.448913 4.431832 -10.324955
P -1.448913 1.479856 -7.372979
P -4.400889 1.479856 -4.421002
P -4.400889 4.431832 -1.469026
P -1.448913 4.431832 -4.421002
P -1.448913 1.479856 -1.469026
P -4.400889 1.479856 1.482950
P -4.400889 4.431832 4.434927
P -1.448913 4.431832 1.482950
P -1.448913 1.479856 4.434927
P -4.400889 1.479856 7.386903
P -4.400889 4.431832 10.338880
P -1.448913 4.431832 7.386903
P -1.448913 1.479856 10.338880
P -4.400889 1.479856 13.290856
P -4.400889 4.431832 16.242832
P -1.448913 4.431832 13.290856
P -1.448913 1.479856 16.242832
P -4.400889 1.479856 19.194809
P -1.448913 4.431832 19.194809
P -1.448913 7.383809 -13.276932
P -4.400889 7.383809 -10.324955
P -4.400889 10.335785 -7.372979
P -1.448913 10.335785 -10.324955
P -1.448913 7.383809 -7.372979
P -4.400889 7.383809 -4.421002
P -4.400889 10.335785 -1.469026
P -1.448913 10.335785 -4.421002
P -1.448913 7.383809 -1.469026
P -4.400889 7.383809 1.482950
P -4.400889 10.335785 4.434927
P -1.448913 10.335785 1.482950
P -1.448913 7.383809 4.434927
P -4.400889 7.383809 7.386903
P -4.400889 10.335785 10.338880
P -1.448913 10.335785 7.386903
P -1.448913 7.383809 10.338880
P -4.400889 7.383809 13.290856
P -4.400889 10.335785 16.242832
P -1.448913 10.335785 13.290856
P -1.448913 7.383809 16.242832
P -4.400889 7.383809 19.194809
P -1.448913 13.287762 -7.372979
P -4.400889 13.287762 -4.421002
P -4.400889 16.239738 -1.469026
P -1.448913 16.239738 -4.421002
P -1.448913 13.287762 -1.469026
P -4.400889 13.287762 1.482950
P -4.400889 16.239738 4.434927
P -1.448913 16.239738 1.482950
P -1.448913 13.287762 4.434927
P -4.400889 13.287762 7.386903
P -4.400889 16.239738 10.338880
P -1.448913 16.239738 7.386903
P -1.448913 13.287762 10.338880
P -4.400889 13.287762 13.290856
P -1.448913 19.191714 -1.469026
P -4.400889 19.191714 1.482950
P -1.448913 19.191714 4.434927
P -4.400889 19.191714 7.386903
P 1.503063 -19.183979 -1.469026
P 1.503063 -19.183979 4.434927
P 4.455040 -19.183979 1.482950
P 4.455040 -19.183979 7.386903
P 1.503063 -13.280026 -7.372979
P 1.503063 -16.232002 -4.421002
P 1.503063 -13.280026 -1.469026
P 4.455040 -13.280026 -4.421002
P 4.455040 -16.232002 -1.469026
P 1.503063 -16.232002 1.482950
P 1.503063 -13.280026 4.434927
P 4.455040 -13.280026 1.482950
P 4.455040 -16.232002 4.434927
P 1.503063 -16.232002 7.386903
P 1.503063 -13.280026 10.338880
P 4.455040 -13.280026 7.386903
P 4.455040 -16.232002 10.338880
P 4.455040 -13.280026 13.290856
P 1.503063 -7.376073 -13.276932
P 1.503063 -10.328049 -10.324955
P 1.503063 -7.376073 -7.372979
P 4.455040 -7.376073 -10.324955
P 4.455040 -10.328049 -7.372979
P 1.503063 -10.328049 -4.421002
P 1.503063 -7.376073 -1.469026
P 4.455040 -7.376073 -4.421002
P 4.455040 -10.328049 -1.469026
P 1.503063 -10.328049 1.482950
P 1.503063 -7.376073 4.434927
P 4.455040 -7.376073 1.482950
P 4.455040 -10.328049 4.434927
P 1.503063 -10.328049 7.386903
P 1.503063 -7.376073 10.338880
P 4.455040 -7.376073 7.386903
P 4.455040 -10.328049 10.338880
P 1.503063 -10.328049 13.290856
P 1.503063 -7.376073 16.242832
P 4.455040 -7.376073 13.290856
P 4.455040 -10.328049 16.242832
P 4.455040 -7.376073 19.194809
P 1.503063 -1.472120 -19.180884
P 1.503063 -4.424097 -16.228908
P 1.503063 -1.472120 -13.276932
P 4.455040 -1.472120 -16.228908
P 4.455040 -4.424097 -13.276932
P 1.503063 -4.424097 -10.324955
P 1.503063 -1.472120 -7.372979
P 4.455040 -1.472120 -10.324955
P 4.455040 -4.424097 -7.372979
P 1.503063 -4.424097 -4.421002
P 1.503063 -1.472120 -1.469026
P 4.455040 -1.472120 -4.421002
P 4.455040 -4.424097 -1.469026
P 1.503063 -4.424097 1.482950
P 1.503063 -1.472120 4.434927
P 4.455040 -1.472120 1.482950
P 4.455040 -4.424097 4.434927
P 1.503063 -4.424097 7.386903
P 1.503063 -1.472120 10.338880
P 4.455040 -1.472120 7.386903
P 4.455040 -4.424097 10.338880
P 1.503063 -4.424097 13.290856
P 1.503063 -1.472120 16.242832
P 4.455040 -1.472120 13.290856
P 4.455040 -4.424097 16.242832
P 1.503063 -4.424097 19.194809
P 4.455040 -1.472120 19.194809
P 1.503063 4.431832 -19.180884
P 4.455040 1.479856 -19.180884
P 1.503063 1.479856 -16.228908
P 1.503063 4.431832 -13.276932
P 4.455040 4.431832 -16.228908
P 4.455040 1.479856 -13.276932
P 1.503063 1.479856 -10.324955
P 1.503063 4.431832 -7.372979
P 4.455040 4.431832 -10.324955
P 4.455040 1.479856 -7.372979
P 1.503063 1.479856 -4.421002
P 1.503063 4.431832 -1.469026
P 4.455040 4.431832 -4.421002
P 4.455040 1.479856 -1.469026
P 1.503063 1.479856 1.482950
P 1.503063 4.431832 4.434927
P 4.455040 4.431832 1.482950
P 4.455040 1.479856 4.434927
P 1.503063 1.479856 7.386903
P 1.503063 4.431832 10.338880
P 4.455040 4.431832 7.386903
P 4.455040 1.479856 10.338880
P 1.503063 1.479856 13.290856
P 1.503063 4.431832 16.242832
P 4.455040 4.431832 13.290856
P 4.455040 1.479856 16.242832
P 1.503063 1.479856 19.194809
P 4.455040 7.383809 -19.180884
P 1.503063 7.383809 -16.228908
P 1.503063 10.335785 -13.276932
P 4.455040 10.335785 -16.228908
P 4.455040 7.383809 -13.276932
P 1.503063 7.383809 -10.324955
P 1.503063 10.335785 -7.372979
P 4.455040 10.335785 -10.324955
P 4.455040 7.383809 -7.372979
P 1.503063 7.383809 -4.421002
P 1.503063 10.335785 -1.469026
P 4.455040 10.335785 -4.421002
P 4.455040 7.383809 -1.469026
P 1.503063 7.383809 1.482950
P 1.503063 10.335785 4.434927
P 4.455040 10.335785 1.482950
P 4.455040 7.383809 4.434927
P 1.503063 7.383809 7.386903
P 1.503063 10.335785 10.338880
P 4.455040 10.335785 7.386903
P 4.455040 7.383809 10.338880
P 1.503063 7.383809 13.290856
P 4.455040 13.287762 -13.276932
P 1.503063 13.287762 -10.324955
P 1.503063 16.239738 -7.372979
P 4.455040 16.239738 -10.324955
P 4.455040 13.287762 -7.372979
P 1.503063 13.287762 -4.421002
P 1.503063 16.239738 -1.469026
P 4.455040 16.239738 -4.421002
P 4.455040 13.287762 -1.469026
P 1.503063 13.287762 1.482950
P 1.503063 16.239738 4.434927
P 4.455040 16.239738 1.482950
P 4.455040 13.287762 4.434927
P 1.503063 13.287762 7.386903
P 4.455040 19.191714 -7.372979
P 1.503063 19.191714 -4.421002
P 4.455040 19.191714 -1.469026
P 1.503063 19.191714 1.482950
P 7.407016 -19.183979 4.434927
P 7.407016 -19.183979 10.338880
P 10.358993 -19.183979 7.386903
P 10.358993 -19.183979 13.290856
P 7.407016 -13.280026 -1.469026
P 7.407016 -16.232002 1.482950
P 7.407016 -13.280026 4.434927
P 10.358993 -13.280026 1.482950
P 10.358993 -16.232002 4.434927
P 7.407016 -16.232002 7.386903
P 7.407016 -13.280026 10.338880
P 10.358993 -13.280026 7.386903
P 10.358993 -16.232002 10.338880
P 7.407016 -16.232002 13.290856
P 7.407016 -13.280026 16.242832
P 10.358993 -13.280026 13.290856
P 10.358993 -16.232002 16.242832
P 10.358993 -13.280026 19.194809
P 7.407016 -7.376073 -7.372979
P 7.407016 -10.328049 -4.421002
P 7.407016 -7.376073 -1.469026
P 10.358993 -7.376073 -4.421002
P 10.358993 -10.328049 -1.469026
P 7.407016 -10.328049 1.482950
P 7.407016 -7.376073 4.434927
P 10.358993 -7.376073 1.482950
P 10.358993 -10.328049 4.434927
P 7.407016 -10.328049 7.386903
P 7.407016 -7.376073 10.338880
P 10.358993 -7.376073 7.386903
P 10.358993 -10.328049 10.338880
P 7.407016 -10.328049 13.290856
P 7.407016 -7.376073 16.242832
P 10.358993 -7.376073 13.290856
P 10.358993 -10.328049 16.242832
P 7.407016 -10.328049 19.194809
P 10.358993 -7.376073 19.194809
P 7.407016 -1.472120 -13.276932
P 7.407016 -4.424097 -10.324955
P 7.407016 -1.472120 -7.372979
P 10.358993 -1.472120 -10.324955
P 10.358993 -4.424097 -7.372979
P 7.407016 -4.424097 -4.421002
P 7.407016 -1.472120 -1.469026
P 10.358993 -1.472120 -4.421002
P 10.358993 -4.424097 -1.469026
P 7.407016 -4.424097 1.482950
P 7.407016 -1.472120 4.434927
P 10.358993 -1.472120 1.482950
P 10.358993 -4.424097 4.434927
P 7.407016 -4.424097 7.386903
P 7.407016 -1.472120 10.338880
P 10.358993 -1.472120 7.386903
P 10.358993 -4.424097 10.338880
P 7.407016 -4.424097 13.290856
P 7.407016 -1.472120 16.242832
P 10.358993 -1.472120 13.290856
P 10.358993 -4.424097 16.242832
P 7.407016 -4.424097 19.194809
P 7.407016 4.431832 -19.180884
P 7.407016 1.479856 -16.228908
P 7.407016 4.431832 -13.276932
P 10.358993 4.431832 -16.228908
P 10.358993 1.479856 -13.276932
P 7.407016 1.479856 -10.324955
P 7.407016 4.431832 -7.372979
P 10.358993 4.431832 -10.324955
P 10.358993 1.479856 -7.372979
P 7.407016 1.479856 -4.421002
P 7.407016 4.431832 -1.469026
P 10.358993 4.431832 -4.421002
P 10.358993 1.479856 -1.469026
P 7.407016 1.479856 1.482950
P 7.407016 4.431832 4.434927
P 10.358993 4.431832 1.482950
P 10.358993 1.479856 4.434927
P 7.407016 1.479856 7.386903
P 7.407016 4.431832 10.338880
P 10.358993 4.431832 7.386903
P 10.358993 1.479856 10.338880
P 7.407016 1.479856 13.290856
P 7.407016 10.335785 -19.180884
P 10.358993 7.383809 -19.180884
P 7.407016 7.383809 -16.228908
P 7.407016 10.335785 -13.276932
P 10.358993 10.335785 -16.228908
P 10.358993 7.383809 -13.276932
P 7.407016 7.383809 -10.324955
P 7.407016 10.335785 -7.372979
P 10.358993 10.335785 -10.324955
P 10.358993 7.383809 -7.372979
P 7.407016 7.383809 -4.421002
P 7.407016 10.335785 -1.469026
P 10.358993 10.335785 -4.421002
P 10.358993 7.383809 -1.469026
P 7.407016 7.383809 1.482950
P 7.407016 10.335785 4.434927
P 10.358993 10.335785 1.482950
P 10.358993 7.383809 4.434927
P 7.407016 7.383809 7.386903
P 10.358993 13.287762 -19.180884
P 7.407016 13.287762 -16.228908
P 7.407016 16.239738 -13.276932
P 10.358993 16.239738 -16.228908
P 10.358993 13.287762 -13.276932
P 7.407016 13.287762 -10.324955
P 7.407016 16.239738 -7.372979
P 10.358993 16.239738 -10.324955
P 10.358993 13.287762 -7.372979
P 7.407016 13.287762 -4.421002
P 7.407016 16.239738 -1.469026
P 10.358993 16.239738 -4.421002
P 10.358993 13.287762 -1.469026
P 7.407016 13.287762 1.482950
P 10.358993 19.191714 -13.276932
P 7.407016 19.191714 -10.324955
P 10.358993 19.191714 -7.372979
P 7.407016 19.191714 -4.421002
P 13.310969 -19.183979 10.338880
P 13.310969 -19.183979 16.242832
P 16.262945 -19.183979 13.290856
P 13.310969 -13.280026 4.434927
P 13.310969 -16.232002 7.386903
P 13.310969 -13.280026 10.338880
P 16.262945 -13.280026 7.386903
P 16.262945 -16.232002 10.338880
P 13.310969 -16.232002 13.290856
P 13.310969 -13.280026 16.242832
P 16.262945 -13.280026 13.290856
P 16.262945 -16.232002 16.242832
P 13.310969 -16.232002 19.194809
P 16.262945 -13.280026 19.194809
P 13.310969 -7.376073 -1.469026
P 13.310969 -10.328049 1.482950
P 13.310969 -7.376073 4.434927
P 16.262945 -7.376073 1.482950
P 16.262945 -10.328049 4.434927
P 13.310969 -10.328049 7.386903
P 13.310969 -7.376073 10.338880
P 16.262945 -7.376073 7.386903
P 16.262945 -10.328049 10.338880
P 13.310969 -10.328049 13.290856
P 13.310969 -7.376073 16.242832
P 16.262945 -7.376073 13.290856
P 16.262945 -10.328049 16.242832
P 13.310969 -10.328049 19.194809
P 13.310969 -1.472120 -7.372979
P 13.310969 -4.424097 -4.421002
P 13.310969 -1.472120 -1.469026
P 16.262945 -1.472120 -4.421002
P 16.262945 -4.424097 -1.469026
P 13.310969 -4.424097 1.482950
P 13.310969 -1.472120 4.434927
P 16.262945 -1.472120 1.482950
P 16.262945 -4.424097 4.434927
P 13.310969 -4.424097 7.386903
P 13.310969 -1.472120 10.338880
P 16.262945 -1.472120 7.386903
P 16.262945 -4.424097 10.338880
P 13.310969 -4.424097 13.290856
P 13.310969 4.431832 -13.276932
P 13.310969 1.479856 -10.324955
P 13.310969 4.431832 -7.372979
P 16.262945 4.431832 -10.324955
P 16.262945 1.479856 -7.372979
P 13.310969 1.479856 -4.421002
P 13.310969 4.431832 -1.469026
P 16.262945 4.431832 -4.421002
P 16.262945 1.479856 -1.469026
P 13.310969 1.479856 1.482950
P 13.310969 4.431832 4.434927
P 16.262945 4.431832 1.482950
P 16.262945 1.479856 4.434927
P 13.310969 1.479856 7.386903
P 13.310969 10.335785 -19.180884
P 13.310969 7.383809 -16.228908
P 13.310969 10.335785 -13.276932
P 16.262945 10.335785 -16.228908
P 16.262945 7.383809 -13.276932
P 13.310969 7.383809 -10.324955
P 13.310969 10.335785 -7.372979
P 16.262945 10.335785 -10.324955
P 16.262945 7.383809 -7.372979
P 13.310969 7.383809 -4.421002
P 13.310969 10.335785 -1.469026
P 16.262945 10.335785 -4.421002
P 16.262945 7.383809 -1.469026
P 13.310969 7.383809 1.482950
P 13.310969 16.239738 -19.180884
P 16.262945 13.287762 -19.180884
P 13.310969 13.287762 -16.228908
P 13.310969 16.239738 -13.276932
P 16.262945 16.239738 -16.228908
P 16.262945 13.287762 -13.276932
P 13.310969 13.287762 -10.324955
P 13.310969 16.239738 -7.372979
P 16.262945 16.239738 -10.324955
P 16.262945 13.287762 -7.372979
P 13.310969 13.287762 -4.421002
P 13.310969 19.191714 -16.228908
P 16.262945 19.191714 -13.276932
P 13.310969 19.191714 -10.324955
P 19.214922 -13.280026 10.338880
P 19.214922 -16.232002 13.290856
P 19.214922 -13.280026 16.242832
P 19.214922 -7.376073 4.434927
P 19.214922 -10.328049 7.386903
P 19.214922 -7.376073 10.338880
P 19.214922 -10.328049 13.290856
P 19.214922 -1.472120 -1.469026
P 19.214922 -4.424097 1.482950
P 19.214922 -1.472120 4.434927
P 19.214922 -4.424097 7.386903
P 19.214922 4.431832 -7.372979
P 19.214922 1.479856 -4.421002
P 19.214922 4.431832 -1.469026
P 19.214922 1.479856 1.482950
P 19.214922 10.335785 -13.276932
P 19.214922 7.383809 -10.324955
P 19.214922 10.335785 -7.372979
P 19.214922 7.383809 -4.421002
P 19.214922 13.287762 -16.228908
P 19.214922 16.239738 -13.276932
P 19.214922 13.287762 -10.324955
Cl -22.112748 -13.280026 -13.276932
Cl -22.112748 -10.328049 -10.324955
Cl -22.112748 -7.376073 -7.372979
Cl -22.112748 -4.424097 -4.421002
Cl -22.112748 -1.472120 -1.469026
Cl -22.112748 1.479856 1.482950
Cl -22.112748 4.431832 4.434927
Cl -22.112748 7.383809 7.386903
Cl -22.112748 10.335785 10.338880
Cl -22.112748 13.287762 13.290856
Cl -13.256818 -22.135955 -13.276932
Cl -13.256818 -13.280026 -22.132861
Cl -13.256818 13.287762 22.146785
Cl -13.256818 22.143691 13.290856
Cl -10.304842 -22.135955 -10.324955
Cl -7.352866 -22.135955 -7.372979
Cl -10.304842 -10.328049 -22.132861
Cl -7.352866 -7.376073 -22.132861
Cl -10.304842 10.335785 22.146785
Cl -7.352866 7.383809 22.146785
Cl -10.304842 22.143691 10.338880
Cl -7.352866 22.143691 7.386903
Cl -4.400889 -22.135955 -4.421002
Cl -1.448913 -22.135955 -1.469026
Cl -4.400889 -4.424097 -22.132861
Cl -1.448913 -1.472120 -22.132861
Cl -4.400889 4.431832 22.146785
Cl -1.448913 1.479856 22.146785
Cl -4.400889 22.143691 4.434927
Cl -1.448913 22.143691 1.482950
Cl 1.503063 -22.135955 1.482950
Cl 4.455040 -22.135955 4.434927
Cl 1.503063 -1.472120 22.146785
Cl 4.455040 -4.424097 22.146785
Cl 1.503063 1.479856 -22.132861
Cl 4.455040 4.431832 -22.132861
Cl 1.503063 22.143691 -1.469026
Cl 4.455040 22.143691 -4.421002
Cl 7.407016 -22.135955 7.386903
Cl 10.358993 -22.135955 10.338880
Cl 7.407016 -7.376073 22.146785
Cl 10.358993 -10.328049 22.146785
Cl 7.407016 7.383809 -22.132861
Cl 10.358993 10.335785 -22.132861
Cl 7.407016 22.143691 -7.372979
Cl 10.358993 22.143691 -10.324955
Cl 13.310969 -22.135955 13.290856
Cl 13.310969 -13.280026 22.146785
Cl 13.310969 13.287762 -22.132861
Cl 13.310969 22.143691 -13.276932
Cl 22.166898 -13.280026 13.290856
Cl 22.166898 -7.376073 7.386903
Cl 22.166898 -10.328049 10.338880
Cl 22.166898 -1.472120 1.482950
Cl 22.166898 -4.424097 4.434927
Cl 22.166898 4.431832 -4.421002
Cl 22.166898 1.479856 -1.469026
Cl 22.166898 10.335785 -10.324955
Cl 22.166898 7.383809 -7.372979
Cl 22.166898 13.287762 -13.276932
Cl -10.304842 -10.328049 7.386903
Cl -10.304842 7.383809 -10.324955
Cl 7.407016 -10.328049 -10.324955
Cl 10.358993 10.335785 7.386903
Cl -16.208795 10.335785 22.146785
Cl -16.208795 22.143691 10.338880
Cl -10.304842 16.239738 22.146785
Cl 22.166898 -16.232002 10.338880
Cl 10.358993 -16.232002 22.146785
Cl 16.262945 -10.328049 22.146785
Cl 10.358993 22.143691 -16.228908
Cl 22.166898 10.335785 -16.228908
Cl -22.112748 -16.232002 -10.324955
Cl -22.112748 -10.328049 -16.228908
Cl -10.304842 -22.135955 -16.228908
Cl 16.262945 22.143691 -10.324955
Cl 1.503063 -22.135955 7.386903
Cl 1.503063 7.383809 -22.132861
Cl 7.407016 1.479856 -22.132861
Cl 22.166898 -1.472120 7.386903
Cl -22.112748 1.479856 7.386903
Cl -22.112748 7.383809 1.482950
Cl -1.448913 22.143691 7.386903
Cl 7.407016 -22.135955 1.482950
Cl -1.448913 -4.424097 22.146785
Cl 4.455040 1.479856 22.146785
Cl -1.448913 22.143691 -4.421002
Cl 22.166898 -1.472120 -4.421002
Cl -10.304842 -22.135955 -4.421002
Cl -10.304842 -4.424097 -22.132861
Cl -4.400889 -10.328049 -22.132861
Cl 22.166898 10.335785 -4.421002
Cl -22.112748 -1.472120 -7.372979
Cl -22.112748 -7.376073 -1.469026
Cl -1.448913 -22.135955 -7.372979
Cl 7.407016 22.143691 -1.469026
Cl -13.256818 1.479856 16.242832
Cl -13.256818 16.239738 1.482950
Cl -1.448913 13.287762 16.242832
Cl 16.262945 -13.280026 1.482950
Cl 1.503063 -13.280026 16.242832
Cl 1.503063 16.239738 -13.276932
Cl 13.310969 -1.472120 16.242832
Cl 16.262945 1.479856 -13.276932
Cl -22.112748 16.239738 10.338880
Cl -22.112748 10.335785 16.242832
Cl -10.304842 22.143691 16.242832
Cl 16.262945 -22.135955 10.338880
Cl 10.358993 -22.135955 16.242832
Cl 16.262945 10.335785 -22.132861
Cl 10.358993 16.239738 -22.132861
Cl 22.166898 -10.328049 16.242832
Cl -16.208795 -22.135955 -10.324955
Cl -16.208795 -10.328049 -22.132861
Cl -10.304842 -16.232002 -22.132861
Cl 22.166898 16.239738 -10.324955
Cl -4.400889 -22.135955 1.482950
Cl -4.400889 1.479856 -22.132861
Cl 1.503063 -4.424097 -22.132861
Cl 22.166898 4.431832 1.482950
Cl -7.352866 1.479856 22.146785
Cl -1.448913 7.383809 22.146785
Cl -7.352866 22.143691 1.482950
Cl 22.166898 -7.376073 1.482950
Cl -16.208795 -13.280026 -1.469026
Cl -16.208795 -1.472120 -13.276932
Cl -1.448913 -16.232002 -13.276932
Cl 13.310969 16.239738 -1.469026
Cl -16.208795 -4.424097 7.386903
Cl -16.208795 7.383809 -4.421002
Cl 4.455040 16.239738 7.386903
Cl 7.407016 -16.232002 -4.421002
Cl -4.400889 -16.232002 7.386903
Cl -4.400889 7.383809 -16.228908
Cl 7.407016 -4.424097 -16.228908
Cl 16.262945 4.431832 7.386903
Cl -7.352866 -4.424097 16.242832
Cl -7.352866 16.239738 -4.421002
Cl 4.455040 7.383809 16.242832
Cl 16.262945 -7.376073 -4.421002
Cl 4.455040 -10.328049 22.146785
Cl 10.358993 -4.424097 22.146785
Cl 4.455040 22.143691 -10.324955
Cl 22.166898 4.431832 -10.324955
Cl -19.160771 4.431832 13.290856
Cl -19.160771 13.287762 4.434927
Cl -4.400889 19.191714 13.290856
Cl 13.310969 -19.183979 4.434927
Cl 4.455040 -19.183979 13.290856
Cl 4.455040 13.287762 -19.180884
Cl 13.310969 4.431832 -19.180884
Cl 19.214922 -4.424097 13.290856
Cl -10.304842 -16.232002 1.482950
Cl -10.304842 1.479856 -16.228908
Cl 1.503063 -10.328049 -16.228908
Cl 16.262945 10.335785 1.482950
Cl -4.400889 -10.328049 13.290856
Cl -4.400889 13.287762 -10.324955
Cl 10.358993 4.431832 13.290856
Cl 13.310969 -4.424097 -10.324955
Cl -22.112748 -7.376073 -13.276932
Cl -22.112748 -13.280026 -7.372979
Cl -7.352866 -22.135955 -13.276932
Cl 13.310969 22.143691 -7.372979
Cl -13.256818 7.383809 22.146785
Cl -7.352866 13.287762 22.146785
Cl -13.256818 22.143691 7.386903
Cl 22.166898 -13.280026 7.386903
Cl -22.112748 -4.424097 1.482950
Cl -22.112748 1.479856 -4.421002
Cl 1.503063 -22.135955 -4.421002
Cl 4.455040 22.143691 1.482950
Cl -16.208795 -19.183979 -7.372979
Cl -16.208795 -7.376073 -19.180884
Cl -7.352866 -16.232002 -19.180884
Cl 19.214922 16.239738 -7.372979
Cl -13.256818 -4.424097 10.338880
Cl -13.256818 10.335785 -4.421002
Cl 4.455040 13.287762 10.338880
Cl 10.358993 -13.280026 -4.421002
Cl 7.407016 -16.232002 19.194809
Cl 7.407016 19.191714 -16.228908
Cl 16.262945 -7.376073 19.194809
Cl 19.214922 7.383809 -16.228908
Cl -16.208795 -10.328049 1.482950
Cl -16.208795 1.479856 -10.324955
Cl 1.503063 -16.232002 -10.324955
Cl 10.358993 16.239738 1.482950
Cl -1.448913 -7.376073 19.194809
Cl -1.448913 19.191714 -7.372979
Cl 7.407016 1.479856 19.194809
Cl 19.214922 -1.472120 -7.372979
Cl -1.448913 -16.232002 10.338880
Cl -1.448913 10.335785 -16.228908
Cl 10.358993 -1.472120 -16.228908
Cl 16.262945 1.479856 10.338880
Cl -22.112748 7.383809 13.290856
Cl -22.112748 13.287762 7.386903
Cl -7.352866 22.143691 13.290856
Cl 13.310969 -22.135955 7.386903
Cl 7.407016 -22.135955 13.290856
Cl 7.407016 13.287762 -22.132861
Cl 13.310969 7.383809 -22.132861
Cl 22.166898 -7.376073 13.290856
Cl -7.352866 -22.135955 -1.469026
Cl -1.448913 -7.376073 -22.132861
Cl -7.352866 -1.472120 -22.132861
Cl 22.166898 7.383809 -1.469026
Cl -10.304842 4.431832 22.146785
Cl -10.304842 22.143691 4.434927
Cl -4.400889 10.335785 22.146785
Cl 22.166898 -10.328049 4.434927
Cl -22.112748 4.431832 -1.469026
Cl -22.112748 -1.472120 4.434927
Cl 4.455040 -22.135955 -1.469026
Cl 1.503063 22.143691 4.434927
Cl -19.160771 10.335785 19.194809
Cl -19.160771 19.191714 10.338880
Cl -10.304842 19.191714 19.194809
Cl 19.214922 -19.183979 10.338880
Cl -1.448913 -22.135955 4.434927
Cl 4.455040 -1.472120 -22.132861
Cl -1.448913 4.431832 -22.132861
Cl 22.166898 1.479856 4.434927
Cl -22.112748 -10.328049 -4.421002
Cl -22.112748 -4.424097 -10.324955
Cl -4.400889 -22.135955 -10.324955
Cl 10.358993 22.143691 -4.421002
Cl -4.400889 -1.472120 22.146785
Cl -4.400889 22.143691 -1.469026
Cl 1.503063 4.431832 22.146785
Cl 22.166898 -4.424097 -1.469026
Cl -16.208795 1.479856 13.290856
Cl -16.208795 13.287762 1.482950
Cl -1.448913 16.239738 13.290856
Cl 13.310969 -16.232002 1.482950
Cl -13.256818 -19.183979 -4.421002
Cl -13.256818 -4.424097 -19.180884
Cl -4.400889 -13.280026 -19.180884
Cl 19.214922 13.287762 -4.421002
Cl -7.352866 -10.328049 10.338880
Cl -7.352866 10.335785 -10.324955
Cl 10.358993 -7.376073 -10.324955
Cl 10.358993 7.383809 10.338880
Cl -10.304842 -13.280026 4.434927
Cl -10.304842 4.431832 -13.276932
Cl 4.455040 -10.328049 -13.276932
Cl 13.310969 10.335785 4.434927
Cl -10.304842 -1.472120 16.242832
Cl -10.304842 16.239738 -1.469026
Cl 1.503063 10.335785 16.242832
Cl 16.262945 -10.328049 -1.469026
Cl 7.407016 -13.280026 22.146785
Cl 7.407016 22.143691 -13.276932
Cl 13.310969 -7.376073 22.146785
Cl 22.166898 7.383809 -13.276932
Cl -19.160771 -19.183979 -10.324955
Cl -19.160771 -10.328049 -19.180884
Cl -10.304842 -19.183979 -19.180884
Cl 19.214922 19.191714 -10.324955
Cl -16.208795 -7.376073 4.434927
Cl -16.208795 4.431832 -7.372979
Cl 4.455040 -16.232002 -7.372979
Cl 7.407016 16.239738 4.434927
Cl 10.358993 -19.183979 19.194809
Cl 10.358993 19.191714 -19.180884
Cl 19.214922 -10.328049 19.194809
Cl 19.214922 10.335785 -19.180884
Cl 4.455040 -22.135955 10.338880
Cl 10.358993 4.431832 -22.132861
Cl 4.455040 10.335785 -22.132861
Cl 22.166898 -4.424097 10.338880
Cl 1.503063 -7.376073 22.146785
Cl 1.503063 22.143691 -7.372979
Cl 7.407016 -1.472120 22.146785
Cl 22.166898 1.479856 -7.372979
Cl -22.112748 10.335785 4.434927
Cl -22.112748 4.431832 10.338880
Cl -4.400889 22.143691 10.338880
Cl 10.358993 -22.135955 4.434927
Cl -16.208795 7.383809 19.194809
Cl -16.208795 19.191714 7.386903
Cl -7.352866 16.239738 19.194809
Cl 19.214922 -16.232002 7.386903
Cl -7.352866 -19.183979 1.482950
Cl -7.352866 1.479856 -19.180884
Cl 1.503063 -7.376073 -19.180884
Cl 19.214922 7.383809 1.482950
Cl -1.448913 -13.280026 13.290856
Cl -1.448913 13.287762 -13.276932
Cl 13.310969 -1.472120 -13.276932
Cl 13.310969 1.479856 13.290856
Cl -19.160771 -13.280026 -4.421002
Cl -19.160771 -4.424097 -13.276932
Cl -4.400889 -19.183979 -13.276932
Cl 13.310969 19.191714 -4.421002
Cl -10.304842 -4.424097 13.290856
Cl -10.304842 13.287762 -4.421002
Cl 4.455040 10.335785 13.290856
Cl 13.310969 -10.328049 -4.421002
Cl -19.160771 -1.472120 7.386903
Cl -19.160771 7.383809 -1.469026
Cl 1.503063 19.191714 7.386903
Cl 7.407016 -19.183979 -1.469026
Cl -13.256818 -22.135955 -7.372979
Cl -7.352866 -13.280026 -22.132861
Cl -13.256818 -7.376073 -22.132861
Cl 22.166898 13.287762 -7.372979
Cl 4.455040 -16.232002 16.242832
Cl 4.455040 16.239738 -16.228908
Cl 16.262945 -4.424097 16.242832
Cl 16.262945 4.431832 -16.228908
Cl -4.400889 -7.376073 16.242832
Cl -4.400889 16.239738 -7.372979
Cl 7.407016 4.431832 16.242832
Cl 16.262945 -4.424097 -7.372979
Cl -13.256818 -16.232002 -1.469026
Cl -13.256818 -1.472120 -16.228908
Cl -1.448913 -13.280026 -16.228908
Cl 16.262945 13.287762 -1.469026
Cl -1.448913 -19.183979 7.386903
Cl -1.448913 7.383809 -19.180884
Cl 7.407016 -1.472120 -19.180884
Cl 19.214922 1.479856 7.386903
Cl -13.256818 4.431832 19.194809
Cl -13.256818 19.191714 4.434927
Cl -4.400889 13.287762 19.194809
Cl 19.214922 -13.280026 4.434927
Cl -19.160771 -7.376073 1.482950
Cl -19.160771 1.479856 -7.372979
Cl 1.503063 -19.183979 -7.372979
Cl 7.407016 19.191714 1.482950
Cl 1.503063 -10.328049 19.194809
Cl 1.503063 19.191714 -10.324955
Cl 10.358993 -1.472120 19.194809
Cl 19.214922 1.479856 -10.324955
Cl -7.352866 -1.472120 19.194809
Cl -7.352866 19.191714 -1.469026
Cl 1.503063 7.383809 19.194809
Cl 19.214922 -7.376073 -1.469026
Cl -7.352866 -13.280026 7.386903
Cl -7.352866 7.383809 -13.276932
Cl 7.407016 -7.376073 -13.276932
Cl 13.310969 7.383809 7.386903
Cl -16.208795 -1.472120 10.338880
Cl -16.208795 10.335785 -1.469026
Cl 1.503063 16.239738 10.338880
Cl 10.358993 -16.232002 -1.469026
Cl -13.256818 -10.328049 4.434927
Cl -13.256818 4.431832 -10.324955
Cl 4.455040 -13.280026 -10.324955
Cl 10.358993 13.287762 4.434927
Cl -19.160771 -16.232002 -7.372979
Cl -19.160771 -7.376073 -16.228908
Cl -7.352866 -19.183979 -16.228908
Cl 16.262945 19.191714 -7.372979
Cl -19.160771 7.383809 16.242832
