738
CdTe-Te-Cd333Te261Cl144-reconstructed
Cd -11.494068 -14.762840 1.629939
Cd -14.776182 -11.480726 1.629939
Cd -11.494068 -4.916499 -8.216402
Cd -11.494068 -8.198613 -4.934289
Cd -14.776182 -4.916499 -4.934289
Cd -14.776182 -8.198613 -1.652175
Cd -11.494068 -4.916499 -1.652175
Cd -11.494068 -8.198613 1.629939
Cd -14.776182 -4.916499 1.629939
Cd -14.776182 -8.198613 4.912052
Cd -11.494068 -4.916499 4.912052
Cd -11.494068 -8.198613 8.194166
Cd -14.776182 -4.916499 8.194166
Cd -11.494068 -4.916499 11.476279
Cd -11.494068 1.647728 -14.780629
Cd -14.776182 1.647728 -11.498516
Cd -14.776182 -1.634386 -8.216402
Cd -11.494068 1.647728 -8.216402
Cd -11.494068 -1.634386 -4.934289
Cd -14.776182 1.647728 -4.934289
Cd -14.776182 -1.634386 -1.652175
Cd -11.494068 1.647728 -1.652175
Cd -11.494068 -1.634386 1.629939
Cd -14.776182 1.647728 1.629939
Cd -14.776182 -1.634386 4.912052
Cd -11.494068 1.647728 4.912052
Cd -11.494068 -1.634386 8.194166
Cd -14.776182 1.647728 8.194166
Cd -14.776182 -1.634386 11.476279
Cd -11.494068 -1.634386 14.758393
Cd -14.776182 4.929841 -8.216402
Cd -11.494068 8.211955 -8.216402
Cd -11.494068 4.929841 -4.934289
Cd -14.776182 4.929841 -1.652175
Cd -11.494068 8.211955 -1.652175
Cd -11.494068 4.929841 1.629939
Cd -14.776182 8.211955 1.629939
Cd -14.776182 4.929841 4.912052
Cd -11.494068 8.211955 4.912052
Cd -11.494068 4.929841 8.194166
Cd -11.494068 11.494068 -4.934289
Cd -14.776182 11.494068 -1.652175
Cd -11.494068 14.776182 -1.652175
Cd -4.929841 -11.480726 -8.216402
Cd -4.929841 -14.762840 -4.934289
Cd -8.211955 -11.480726 -4.934289
Cd -8.211955 -14.762840 -1.652175
Cd -4.929841 -11.480726 -1.652175
Cd -4.929841 -14.762840 1.629939
Cd -8.211955 -11.480726 1.629939
Cd -8.211955 -14.762840 4.912052
Cd -4.929841 -11.480726 4.912052
Cd -4.929841 -14.762840 8.194166
Cd -8.211955 -11.480726 8.194166
Cd -4.929841 -11.480726 11.476279
Cd -4.929841 -4.916499 -14.780629
Cd -4.929841 -8.198613 -11.498516
Cd -8.211955 -4.916499 -11.498516
Cd -4.929841 -4.916499 -8.216402
Cd -4.929841 -8.198613 -4.934289
Cd -8.211955 -4.916499 -4.934289
Cd -8.211955 -8.198613 -1.652175
Cd -4.929841 -4.916499 -1.652175
Cd -4.929841 -8.198613 1.629939
Cd -8.211955 -4.916499 1.629939
Cd -8.211955 -8.198613 4.912052
Cd -4.929841 -4.916499 4.912052
Cd -4.929841 -8.198613 8.194166
Cd -8.211955 -4.916499 8.194166
Cd -4.929841 -4.916499 11.476279
Cd -4.929841 -8.198613 14.758393
Cd -8.211955 -4.916499 14.758393
Cd -8.211955 -1.634386 -14.780629
Cd -4.929841 1.647728 -14.780629
Cd -4.929841 -1.634386 -11.498516
Cd -8.211955 1.647728 -11.498516
Cd -8.211955 -1.634386 -8.216402
Cd -4.929841 1.647728 -8.216402
Cd -4.929841 -1.634386 -4.934289
Cd -8.211955 1.647728 -4.934289
Cd -8.211955 -1.634386 -1.652175
Cd -4.929841 1.647728 -1.652175
Cd -4.929841 -1.634386 1.629939
Cd -8.211955 1.647728 1.629939
Cd -8.211955 -1.634386 4.912052
Cd -4.929841 1.647728 4.912052
Cd -4.929841 -1.634386 8.194166
Cd -8.211955 1.647728 8.194166
Cd -8.211955 -1.634386 11.476279
Cd -4.929841 1.647728 11.476279
Cd -4.929841 -1.634386 14.758393
Cd -8.211955 1.647728 14.758393
Cd -8.211955 4.929841 -14.780629
Cd -4.929841 8.211955 -14.780629
Cd -4.929841 4.929841 -11.498516
Cd -8.211955 8.211955 -11.498516
Cd -8.211955 4.929841 -8.216402
Cd -4.929841 8.211955 -8.216402
Cd -4.929841 4.929841 -4.934289
Cd -8.211955 8.211955 -4.934289
Cd -8.211955 4.929841 -1.652175
Cd -4.929841 8.211955 -1.652175
Cd -4.929841 4.929841 1.629939
Cd -8.211955 8.211955 1.629939
Cd -8.211955 4.929841 4.912052
Cd -4.929841 8.211955 4.912052
Cd -4.929841 4.929841 8.194166
Cd -8.211955 4.929841 11.476279
Cd -4.929841 8.211955 11.476279
Cd -4.929841 4.929841 14.758393
Cd -4.929841 11.494068 -11.498516
Cd -4.929841 14.776182 -8.216402
Cd -4.929841 11.494068 -4.934289
Cd -8.211955 14.776182 -4.934289
Cd -8.211955 11.494068 -1.652175
Cd -4.929841 14.776182 -1.652175
Cd -4.929841 11.494068 1.629939
Cd -8.211955 14.776182 1.629939
Cd -8.211955 11.494068 4.912052
Cd -4.929841 14.776182 4.912052
Cd -4.929841 11.494068 8.194166
Cd 1.634386 -11.480726 -14.780629
Cd 1.634386 -14.762840 -11.498516
Cd -1.647728 -14.762840 -8.216402
Cd 1.634386 -11.480726 -8.216402
Cd 1.634386 -14.762840 -4.934289
Cd -1.647728 -11.480726 -4.934289
Cd -1.647728 -14.762840 -1.652175
Cd 1.634386 -11.480726 -1.652175
Cd 1.634386 -14.762840 1.629939
Cd -1.647728 -11.480726 1.629939
Cd -1.647728 -14.762840 4.912052
Cd 1.634386 -11.480726 4.912052
Cd 1.634386 -14.762840 8.194166
Cd -1.647728 -11.480726 8.194166
Cd -1.647728 -14.762840 11.476279
Cd -1.647728 -11.480726 14.758393
Cd -1.647728 -8.198613 -14.780629
Cd 1.634386 -4.916499 -14.780629
Cd 1.634386 -8.198613 -11.498516
Cd -1.647728 -4.916499 -11.498516
Cd -1.647728 -8.198613 -8.216402
Cd 1.634386 -4.916499 -8.216402
Cd 1.634386 -8.198613 -4.934289
Cd -1.647728 -4.916499 -4.934289
Cd -1.647728 -8.198613 -1.652175
Cd 1.634386 -4.916499 -1.652175
Cd 1.634386 -8.198613 1.629939
Cd -1.647728 -4.916499 1.629939
Cd -1.647728 -8.198613 4.912052
Cd 1.634386 -4.916499 4.912052
Cd 1.634386 -8.198613 8.194166
Cd -1.647728 -4.916499 8.194166
Cd -1.647728 -8.198613 11.476279
Cd 1.634386 -4.916499 11.476279
Cd 1.634386 -8.198613 14.758393
Cd -1.647728 -4.916499 14.758393
Cd -1.647728 -1.634386 -14.780629
Cd 1.634386 1.647728 -14.780629
Cd 1.634386 -1.634386 -11.498516
Cd -1.647728 1.647728 -11.498516
Cd -1.647728 -1.634386 -8.216402
Cd 1.634386 1.647728 -8.216402
Cd 1.634386 -1.634386 -4.934289
Cd -1.647728 1.647728 -4.934289
Cd -1.647728 -1.634386 -1.652175
Cd 1.634386 1.647728 -1.652175
Cd 1.634386 -1.634386 1.629939
Cd -1.647728 1.647728 1.629939
Cd -1.647728 -1.634386 4.912052
Cd 1.634386 1.647728 4.912052
Cd 1.634386 -1.634386 8.194166
Cd -1.647728 1.647728 8.194166
Cd -1.647728 -1.634386 11.476279
Cd 1.634386 1.647728 11.476279
Cd 1.634386 -1.634386 14.758393
Cd -1.647728 1.647728 14.758393
Cd -1.647728 4.929841 -14.780629
Cd 1.634386 8.211955 -14.780629
Cd 1.634386 4.929841 -11.498516
Cd -1.647728 8.211955 -11.498516
Cd -1.647728 4.929841 -8.216402
Cd 1.634386 8.211955 -8.216402
Cd 1.634386 4.929841 -4.934289
Cd -1.647728 8.211955 -4.934289
Cd -1.647728 4.929841 -1.652175
Cd 1.634386 8.211955 -1.652175
Cd 1.634386 4.929841 1.629939
Cd -1.647728 8.211955 1.629939
Cd -1.647728 4.929841 4.912052
Cd 1.634386 8.211955 4.912052
Cd 1.634386 4.929841 8.194166
Cd -1.647728 8.211955 8.194166
Cd -1.647728 4.929841 11.476279
Cd 1.634386 8.211955 11.476279
Cd 1.634386 4.929841 14.758393
Cd -1.647728 8.211955 14.758393
Cd -1.647728 11.494068 -14.780629
Cd -1.647728 14.776182 -11.498516
Cd -1.647728 11.494068 -8.216402
Cd 1.634386 14.776182 -8.216402
Cd 1.634386 11.494068 -4.934289
Cd -1.647728 14.776182 -4.934289
Cd -1.647728 11.494068 -1.652175
Cd 1.634386 14.776182 -1.652175
Cd 1.634386 11.494068 1.629939
Cd -1.647728 14.776182 1.629939
Cd -1.647728 11.494068 4.912052
Cd 1.634386 14.776182 4.912052
Cd 1.634386 11.494068 8.194166
Cd -1.647728 14.776182 8.194166
Cd 1.634386 14.776182 11.476279
Cd 1.634386 11.494068 14.758393
Cd 4.916499 -14.762840 -8.216402
Cd 8.198613 -11.480726 -8.216402
Cd 4.916499 -11.480726 -4.934289
Cd 4.916499 -14.762840 -1.652175
Cd 8.198613 -11.480726 -1.652175
Cd 8.198613 -14.762840 1.629939
Cd 4.916499 -11.480726 1.629939
Cd 4.916499 -14.762840 4.912052
Cd 8.198613 -11.480726 4.912052
Cd 4.916499 -11.480726 8.194166
Cd 4.916499 -8.198613 -14.780629
Cd 8.198613 -4.916499 -14.780629
Cd 8.198613 -8.198613 -11.498516
Cd 4.916499 -4.916499 -11.498516
Cd 4.916499 -8.198613 -8.216402
Cd 8.198613 -4.916499 -8.216402
Cd 8.198613 -8.198613 -4.934289
Cd 4.916499 -4.916499 -4.934289
Cd 4.916499 -8.198613 -1.652175
Cd 8.198613 -4.916499 -1.652175
Cd 8.198613 -8.198613 1.629939
Cd 4.916499 -4.916499 1.629939
Cd 4.916499 -8.198613 4.912052
Cd 8.198613 -4.916499 4.912052
Cd 4.916499 -4.916499 8.194166
Cd 4.916499 -8.198613 11.476279
Cd 8.198613 -4.916499 11.476279
Cd 4.916499 -4.916499 14.758393
Cd 4.916499 -1.634386 -14.780629
Cd 8.198613 1.647728 -14.780629
Cd 8.198613 -1.634386 -11.498516
Cd 4.916499 1.647728 -11.498516
Cd 4.916499 -1.634386 -8.216402
Cd 8.198613 1.647728 -8.216402
Cd 8.198613 -1.634386 -4.934289
Cd 4.916499 1.647728 -4.934289
Cd 4.916499 -1.634386 -1.652175
Cd 8.198613 1.647728 -1.652175
Cd 8.198613 -1.634386 1.629939
Cd 4.916499 1.647728 1.629939
Cd 4.916499 -1.634386 4.912052
Cd 8.198613 1.647728 4.912052
Cd 8.198613 -1.634386 8.194166
Cd 4.916499 1.647728 8.194166
Cd 4.916499 -1.634386 11.476279
Cd 8.198613 1.647728 11.476279
Cd 8.198613 -1.634386 14.758393
Cd 4.916499 1.647728 14.758393
Cd 4.916499 4.929841 -14.780629
Cd 8.198613 4.929841 -11.498516
Cd 4.916499 8.211955 -11.498516
Cd 4.916499 4.929841 -8.216402
Cd 8.198613 4.929841 -4.934289
Cd 4.916499 8.211955 -4.934289
Cd 4.916499 4.929841 -1.652175
Cd 8.198613 8.211955 -1.652175
Cd 8.198613 4.929841 1.629939
Cd 4.916499 8.211955 1.629939
Cd 4.916499 4.929841 4.912052
Cd 8.198613 8.211955 4.912052
Cd 8.198613 4.929841 8.194166
Cd 4.916499 8.211955 8.194166
Cd 4.916499 4.929841 11.476279
Cd 8.198613 4.929841 14.758393
Cd 4.916499 8.211955 14.758393
Cd 4.916499 11.494068 -8.216402
Cd 8.198613 11.494068 -4.934289
Cd 4.916499 14.776182 -4.934289
Cd 4.916499 11.494068 -1.652175
Cd 8.198613 14.776182 -1.652175
Cd 8.198613 11.494068 1.629939
Cd 4.916499 14.776182 1.629939
Cd 4.916499 11.494068 4.912052
Cd 8.198613 14.776182 4.912052
Cd 8.198613 11.494068 8.194166
Cd 4.916499 11.494068 11.476279
Cd 11.480726 -11.480726 -4.934289
Cd 11.480726 -14.762840 -1.652175
Cd 14.762840 -11.480726 -1.652175
Cd 11.480726 -4.916499 -11.498516
Cd 14.762840 -4.916499 -8.216402
Cd 14.762840 -8.198613 -4.934289
Cd 11.480726 -4.916499 -4.934289
Cd 11.480726 -8.198613 -1.652175
Cd 14.762840 -4.916499 -1.652175
Cd 14.762840 -8.198613 1.629939
Cd 11.480726 -4.916499 1.629939
Cd 11.480726 -8.198613 4.912052
Cd 14.762840 -4.916499 4.912052
Cd 11.480726 -4.916499 8.194166
Cd 11.480726 -1.634386 -14.780629
Cd 14.762840 -1.634386 -11.498516
Cd 11.480726 -1.634386 -8.216402
Cd 14.762840 1.647728 -8.216402
Cd 14.762840 -1.634386 -4.934289
Cd 11.480726 1.647728 -4.934289
Cd 11.480726 -1.634386 -1.652175
Cd 14.762840 1.647728 -1.652175
Cd 14.762840 -1.634386 1.629939
Cd 11.480726 1.647728 1.629939
Cd 11.480726 -1.634386 4.912052
Cd 14.762840 1.647728 4.912052
Cd 14.762840 -1.634386 8.194166
Cd 11.480726 1.647728 8.194166
Cd 14.762840 1.647728 11.476279
Cd 11.480726 1.647728 14.758393
Cd 11.480726 4.929841 -8.216402
Cd 14.762840 4.929841 -4.934289
Cd 11.480726 8.211955 -4.934289
Cd 11.480726 4.929841 -1.652175
Cd 14.762840 8.211955 -1.652175
Cd 14.762840 4.929841 1.629939
Cd 11.480726 8.211955 1.629939
Cd 11.480726 4.929841 4.912052
Cd 14.762840 8.211955 4.912052
Cd 14.762840 4.929841 8.194166
Cd 11.480726 8.211955 8.194166
Cd 11.480726 4.929841 11.476279
Cd 14.762840 11.494068 1.629939
Cd 11.480726 14.776182 1.629939
Te -13.135125 -9.839670 3.270995
Te -9.853012 -9.839670 -0.011118
Te -9.853012 -13.121783 3.270995
Te -9.853012 -9.839670 6.553109
Te -13.135125 -6.557556 -6.575345
Te -13.135125 -3.275443 -3.293232
Te -9.853012 -3.275443 -6.575345
Te -9.853012 -6.557556 -3.293232
Te -13.135125 -6.557556 -0.011118
Te -13.135125 -3.275443 3.270995
Te -9.853012 -3.275443 -0.011118
Te -9.853012 -6.557556 3.270995
Te -13.135125 -6.557556 6.553109
Te -13.135125 -3.275443 9.835222
Te -9.853012 -3.275443 6.553109
Te -9.853012 -6.557556 9.835222
Te -9.853012 -3.275443 13.117336
Te -13.135125 3.288785 -9.857459
Te -9.853012 3.288785 -13.139572
Te -9.853012 0.006671 -9.857459
Te -13.135125 0.006671 -6.575345
Te -13.135125 3.288785 -3.293232
Te -9.853012 3.288785 -6.575345
Te -9.853012 0.006671 -3.293232
Te -13.135125 0.006671 -0.011118
Te -13.135125 3.288785 3.270995
Te -9.853012 3.288785 -0.011118
Te -9.853012 0.006671 3.270995
Te -13.135125 0.006671 6.553109
Te -9.853012 3.288785 6.553109
Te -9.853012 0.006671 9.835222
Te -9.853012 6.570898 -9.857459
Te -13.135125 6.570898 -6.575345
Te -13.135125 9.853012 -3.293232
Te -9.853012 9.853012 -6.575345
Te -9.853012 6.570898 -3.293232
Te -13.135125 6.570898 -0.011118
Te -9.853012 9.853012 -0.011118
Te -9.853012 6.570898 3.270995
Te -13.135125 6.570898 6.553109
Te -9.853012 13.135125 -3.293232
Te -6.570898 -13.121783 -6.575345
Te -6.570898 -9.839670 -3.293232
Te -3.288785 -9.839670 -6.575345
Te -3.288785 -13.121783 -3.293232
Te -6.570898 -13.121783 -0.011118
Te -6.570898 -9.839670 3.270995
Te -3.288785 -9.839670 -0.011118
Te -3.288785 -13.121783 3.270995
Te -6.570898 -13.121783 6.553109
Te -6.570898 -9.839670 9.835222
Te -3.288785 -9.839670 6.553109
Te -3.288785 -13.121783 9.835222
Te -3.288785 -9.839670 13.117336
Te -6.570898 -6.557556 -13.139572
Te -6.570898 -3.275443 -9.857459
Te -3.288785 -3.275443 -13.139572
Te -3.288785 -6.557556 -9.857459
Te -6.570898 -6.557556 -6.575345
Te -6.570898 -3.275443 -3.293232
Te -3.288785 -3.275443 -6.575345
Te -3.288785 -6.557556 -3.293232
Te -6.570898 -6.557556 -0.011118
Te -6.570898 -3.275443 3.270995
Te -3.288785 -3.275443 -0.011118
Te -3.288785 -6.557556 3.270995
Te -6.570898 -6.557556 6.553109
Te -6.570898 -3.275443 9.835222
Te -3.288785 -3.275443 6.553109
Te -3.288785 -6.557556 9.835222
Te -6.570898 -6.557556 13.117336
Te -3.288785 -3.275443 13.117336
Te -6.570898 0.006671 -13.139572
Te -6.570898 3.288785 -9.857459
Te -3.288785 3.288785 -13.139572
Te -3.288785 0.006671 -9.857459
Te -6.570898 0.006671 -6.575345
Te -6.570898 3.288785 -3.293232
Te -3.288785 3.288785 -6.575345
Te -3.288785 0.006671 -3.293232
Te -6.570898 0.006671 -0.011118
Te -6.570898 3.288785 3.270995
Te -3.288785 3.288785 -0.011118
Te -3.288785 0.006671 3.270995
Te -6.570898 0.006671 6.553109
Te -6.570898 3.288785 9.835222
Te -3.288785 3.288785 6.553109
Te -3.288785 0.006671 9.835222
Te -6.570898 0.006671 13.117336
Te -3.288785 3.288785 13.117336
Te -6.570898 6.570898 -13.139572
Te -6.570898 9.853012 -9.857459
Te -3.288785 9.853012 -13.139572
Te -3.288785 6.570898 -9.857459
Te -6.570898 6.570898 -6.575345
Te -6.570898 9.853012 -3.293232
Te -3.288785 9.853012 -6.575345
Te -3.288785 6.570898 -3.293232
Te -6.570898 6.570898 -0.011118
Te -6.570898 9.853012 3.270995
Te -3.288785 9.853012 -0.011118
Te -3.288785 6.570898 3.270995
Te -6.570898 6.570898 6.553109
Te -3.288785 9.853012 6.553109
Te -3.288785 6.570898 9.835222
Te -6.570898 6.570898 13.117336
Te -3.288785 13.135125 -9.857459
Te -6.570898 13.135125 -6.575345
Te -3.288785 13.135125 -3.293232
Te -6.570898 13.135125 -0.011118
Te -3.288785 13.135125 3.270995
Te -6.570898 13.135125 6.553109
Te -0.006671 -9.839670 -9.857459
Te 3.275443 -9.839670 -13.139572
Te 3.275443 -13.121783 -9.857459
Te -0.006671 -13.121783 -6.575345
Te -0.006671 -9.839670 -3.293232
Te 3.275443 -9.839670 -6.575345
Te 3.275443 -13.121783 -3.293232
Te -0.006671 -13.121783 -0.011118
Te -0.006671 -9.839670 3.270995
Te 3.275443 -9.839670 -0.011118
Te 3.275443 -13.121783 3.270995
Te -0.006671 -13.121783 6.553109
Te -0.006671 -9.839670 9.835222
Te 3.275443 -9.839670 6.553109
Te -0.006671 -6.557556 -13.139572
Te -0.006671 -3.275443 -9.857459
Te 3.275443 -3.275443 -13.139572
Te 3.275443 -6.557556 -9.857459
Te -0.006671 -6.557556 -6.575345
Te -0.006671 -3.275443 -3.293232
Te 3.275443 -3.275443 -6.575345
Te 3.275443 -6.557556 -3.293232
Te -0.006671 -6.557556 -0.011118
Te -0.006671 -3.275443 3.270995
Te 3.275443 -3.275443 -0.011118
Te 3.275443 -6.557556 3.270995
Te -0.006671 -6.557556 6.553109
Te -0.006671 -3.275443 9.835222
Te 3.275443 -3.275443 6.553109
Te 3.275443 -6.557556 9.835222
Te -0.006671 -6.557556 13.117336
Te 3.275443 -3.275443 13.117336
Te -0.006671 0.006671 -13.139572
Te -0.006671 3.288785 -9.857459
Te 3.275443 3.288785 -13.139572
Te 3.275443 0.006671 -9.857459
Te -0.006671 0.006671 -6.575345
Te -0.006671 3.288785 -3.293232
Te 3.275443 3.288785 -6.575345
Te 3.275443 0.006671 -3.293232
Te -0.006671 0.006671 -0.011118
Te -0.006671 3.288785 3.270995
Te 3.275443 3.288785 -0.011118
Te 3.275443 0.006671 3.270995
Te -0.006671 0.006671 6.553109
Te -0.006671 3.288785 9.835222
Te 3.275443 3.288785 6.553109
Te 3.275443 0.006671 9.835222
Te -0.006671 0.006671 13.117336
Te 3.275443 3.288785 13.117336
Te -0.006671 6.570898 -13.139572
Te -0.006671 9.853012 -9.857459
Te 3.275443 6.570898 -9.857459
Te -0.006671 6.570898 -6.575345
Te -0.006671 9.853012 -3.293232
Te 3.275443 9.853012 -6.575345
Te 3.275443 6.570898 -3.293232
Te -0.006671 6.570898 -0.011118
Te -0.006671 9.853012 3.270995
Te 3.275443 9.853012 -0.011118
Te 3.275443 6.570898 3.270995
Te -0.006671 6.570898 6.553109
Te -0.006671 9.853012 9.835222
Te 3.275443 9.853012 6.553109
Te 3.275443 6.570898 9.835222
Te -0.006671 6.570898 13.117336
Te 3.275443 9.853012 13.117336
Te -0.006671 13.135125 -6.575345
Te 3.275443 13.135125 -3.293232
Te -0.006671 13.135125 -0.011118
Te 3.275443 13.135125 3.270995
Te -0.006671 13.135125 6.553109
Te 3.275443 13.135125 9.835222
Te 6.557556 -9.839670 -9.857459
Te 6.557556 -13.121783 -6.575345
Te 6.557556 -9.839670 -3.293232
Te 9.839670 -9.839670 -6.575345
Te 9.839670 -13.121783 -3.293232
Te 6.557556 -13.121783 -0.011118
Te 6.557556 -9.839670 3.270995
Te 9.839670 -9.839670 -0.011118
Te 6.557556 -13.121783 6.553109
Te 6.557556 -6.557556 -13.139572
Te 6.557556 -3.275443 -9.857459
Te 9.839670 -3.275443 -13.139572
Te 9.839670 -6.557556 -9.857459
Te 6.557556 -6.557556 -6.575345
Te 6.557556 -3.275443 -3.293232
Te 9.839670 -3.275443 -6.575345
Te 9.839670 -6.557556 -3.293232
Te 6.557556 -6.557556 -0.011118
Te 6.557556 -3.275443 3.270995
Te 9.839670 -3.275443 -0.011118
Te 9.839670 -6.557556 3.270995
Te 6.557556 -6.557556 6.553109
Te 6.557556 -3.275443 9.835222
Te 9.839670 -3.275443 6.553109
Te 6.557556 -6.557556 13.117336
Te 6.557556 0.006671 -13.139572
Te 6.557556 3.288785 -9.857459
Te 9.839670 0.006671 -9.857459
Te 6.557556 0.006671 -6.575345
Te 6.557556 3.288785 -3.293232
Te 9.839670 3.288785 -6.575345
Te 9.839670 0.006671 -3.293232
Te 6.557556 0.006671 -0.011118
Te 6.557556 3.288785 3.270995
Te 9.839670 3.288785 -0.011118
Te 9.839670 0.006671 3.270995
Te 6.557556 0.006671 6.553109
Te 6.557556 3.288785 9.835222
Te 9.839670 3.288785 6.553109
Te 9.839670 0.006671 9.835222
Te 6.557556 0.006671 13.117336
Te 9.839670 3.288785 13.117336
Te 6.557556 6.570898 -13.139572
Te 6.557556 6.570898 -6.575345
Te 6.557556 9.853012 -3.293232
Te 9.839670 6.570898 -3.293232
Te 6.557556 6.570898 -0.011118
Te 6.557556 9.853012 3.270995
Te 9.839670 9.853012 -0.011118
Te 9.839670 6.570898 3.270995
Te 6.557556 6.570898 6.553109
Te 6.557556 9.853012 9.835222
Te 9.839670 9.853012 6.553109
Te 9.839670 6.570898 9.835222
Te 6.557556 6.570898 13.117336
Te 6.557556 13.135125 -6.575345
Te 6.557556 13.135125 -0.011118
Te 9.839670 13.135125 3.270995
Te 6.557556 13.135125 6.553109
Te 13.121783 -9.839670 -3.293232
Te 13.121783 -3.275443 -9.857459
Te 13.121783 -6.557556 -6.575345
Te 13.121783 -3.275443 -3.293232
Te 13.121783 -6.557556 -0.011118
Te 13.121783 -3.275443 3.270995
Te 13.121783 -6.557556 6.553109
Te 13.121783 0.006671 -6.575345
Te 13.121783 3.288785 -3.293232
Te 13.121783 0.006671 -0.011118
Te 13.121783 3.288785 3.270995
Te 13.121783 0.006671 6.553109
Te 13.121783 3.288785 9.835222
Te 13.121783 6.570898 -6.575345
Te 13.121783 6.570898 -0.011118
Te 13.121783 9.853012 3.270995
Te 13.121783 6.570898 6.553109
Cl -16.417239 -9.839670 -0.011118
Cl -16.417239 -3.275443 -6.575345
Cl -16.417239 -6.557556 -3.293232
Cl -16.417239 -3.275443 -0.011118
Cl -16.417239 -6.557556 3.270995
Cl -16.417239 -3.275443 6.553109
Cl -16.417239 0.006671 -9.857459
Cl -16.417239 3.288785 -6.575345
Cl -16.417239 0.006671 -3.293232
Cl -16.417239 3.288785 -0.011118
Cl -16.417239 0.006671 3.270995
Cl -16.417239 3.288785 6.553109
Cl -16.417239 0.006671 9.835222
Cl -16.417239 6.570898 -3.293232
Cl -16.417239 9.853012 -0.011118
Cl -16.417239 6.570898 3.270995
Cl -9.853012 -16.403897 -0.011118
Cl -13.135125 -9.839670 -3.293232
Cl -9.853012 -9.839670 -6.575345
Cl -9.853012 -13.121783 -3.293232
Cl -13.135125 -13.121783 -0.011118
Cl -13.135125 -3.275443 -9.857459
Cl -9.853012 -3.275443 -13.139572
Cl -9.853012 -6.557556 -9.857459
Cl -9.853012 0.006671 -16.421686
Cl -13.135125 0.006671 -13.139572
Cl -13.135125 3.288785 9.835222
Cl -13.135125 0.006671 13.117336
Cl -9.853012 3.288785 13.117336
Cl -9.853012 0.006671 16.399450
Cl -13.135125 9.853012 3.270995
Cl -9.853012 9.853012 6.553109
Cl -9.853012 6.570898 9.835222
Cl -13.135125 13.135125 -0.011118
Cl -9.853012 16.417239 -0.011118
Cl -9.853012 13.135125 3.270995
Cl -6.570898 -16.403897 -3.293232
Cl -3.288785 -16.403897 -6.575345
Cl -6.570898 -16.403897 3.270995
Cl -3.288785 -16.403897 -0.011118
Cl -3.288785 -16.403897 6.553109
Cl -6.570898 -9.839670 -9.857459
Cl -3.288785 -9.839670 -13.139572
Cl -3.288785 -13.121783 -9.857459
Cl -6.570898 -3.275443 -16.421686
Cl -3.288785 -6.557556 -16.421686
Cl -6.570898 -3.275443 16.399450
Cl -3.288785 -6.557556 16.399450
Cl -6.570898 3.288785 -16.421686
Cl -3.288785 0.006671 -16.421686
Cl -6.570898 3.288785 16.399450
Cl -3.288785 0.006671 16.399450
Cl -3.288785 6.570898 -16.421686
Cl -6.570898 9.853012 9.835222
Cl -3.288785 9.853012 13.117336
Cl -3.288785 6.570898 16.399450
Cl -6.570898 16.417239 -3.293232
Cl -3.288785 16.417239 -6.575345
Cl -6.570898 16.417239 3.270995
Cl -3.288785 16.417239 -0.011118
Cl -3.288785 16.417239 6.553109
Cl -3.288785 13.135125 9.835222
Cl -0.006671 -16.403897 -9.857459
Cl -0.006671 -16.403897 -3.293232
Cl 3.275443 -16.403897 -6.575345
Cl -0.006671 -16.403897 3.270995
Cl 3.275443 -16.403897 -0.011118
Cl -0.006671 -16.403897 9.835222
Cl 3.275443 -16.403897 6.553109
Cl -0.006671 -9.839670 -16.421686
Cl -0.006671 -13.121783 -13.139572
Cl 3.275443 -13.121783 9.835222
Cl -0.006671 -13.121783 13.117336
Cl -0.006671 -9.839670 16.399450
Cl 3.275443 -9.839670 13.117336
Cl -0.006671 -3.275443 -16.421686
Cl 3.275443 -6.557556 -16.421686
Cl -0.006671 -3.275443 16.399450
Cl 3.275443 -6.557556 16.399450
Cl -0.006671 3.288785 -16.421686
Cl 3.275443 0.006671 -16.421686
Cl -0.006671 3.288785 16.399450
Cl 3.275443 0.006671 16.399450
Cl -0.006671 9.853012 -16.421686
Cl 3.275443 6.570898 -16.421686
Cl 3.275443 9.853012 -13.139572
Cl -0.006671 9.853012 16.399450
Cl 3.275443 6.570898 16.399450
Cl -0.006671 13.135125 -13.139572
Cl -0.006671 16.417239 -9.857459
Cl 3.275443 13.135125 -9.857459
Cl -0.006671 16.417239 -3.293232
Cl 3.275443 16.417239 -6.575345
Cl -0.006671 16.417239 3.270995
Cl 3.275443 16.417239 -0.011118
Cl -0.006671 16.417239 9.835222
Cl 3.275443 16.417239 6.553109
Cl -0.006671 13.135125 13.117336
Cl 6.557556 -16.403897 -3.293232
Cl 6.557556 -16.403897 3.270995
Cl 9.839670 -16.403897 -0.011118
Cl 9.839670 -13.121783 3.270995
Cl 6.557556 -9.839670 9.835222
Cl 9.839670 -9.839670 6.553109
Cl 6.557556 -3.275443 -16.421686
Cl 9.839670 -6.557556 9.835222
Cl 6.557556 -3.275443 16.399450
Cl 9.839670 -3.275443 13.117336
Cl 6.557556 3.288785 -16.421686
Cl 9.839670 0.006671 -16.421686
Cl 9.839670 3.288785 -13.139572
Cl 6.557556 3.288785 16.399450
Cl 9.839670 0.006671 16.399450
Cl 6.557556 9.853012 -9.857459
Cl 9.839670 6.570898 -9.857459
Cl 9.839670 9.853012 -6.575345
Cl 6.557556 16.417239 -3.293232
Cl 9.839670 13.135125 -3.293232
Cl 6.557556 16.417239 3.270995
Cl 9.839670 16.417239 -0.011118
Cl 13.121783 -13.121783 -0.011118
Cl 13.121783 -9.839670 3.270995
Cl 16.403897 -9.839670 -0.011118
Cl 16.403897 -3.275443 -6.575345
Cl 16.403897 -6.557556 -3.293232
Cl 16.403897 -3.275443 -0.011118
Cl 16.403897 -6.557556 3.270995
Cl 13.121783 -3.275443 9.835222
Cl 16.403897 -3.275443 6.553109
Cl 13.121783 0.006671 -13.139572
Cl 13.121783 3.288785 -9.857459
Cl 16.403897 0.006671 -9.857459
Cl 16.403897 3.288785 -6.575345
Cl 16.403897 0.006671 -3.293232
Cl 16.403897 3.288785 -0.011118
Cl 16.403897 0.006671 3.270995
Cl 16.403897 3.288785 6.553109
Cl 16.403897 0.006671 9.835222
Cl 13.121783 0.006671 13.117336
Cl 13.121783 9.853012 -3.293232
Cl 16.403897 6.570898 -3.293232
Cl 16.403897 9.853012 -0.011118
Cl 16.403897 6.570898 3.270995
Cl 13.121783 13.135125 -0.011118
