631
PbSe-Pb-Pb297Se260Cl74-clean
Pb -9.272471 -9.272471 -6.181647
Pb -9.272471 -12.363294 -3.090824
Pb -12.363294 -9.272471 -3.090824
Pb -9.272471 -9.272471 -0.000000
Pb -9.272471 -12.363294 3.090824
Pb -12.363294 -9.272471 3.090824
Pb -9.272471 -9.272471 6.181647
Pb -9.272471 -3.090824 -12.363294
Pb -9.272471 -6.181647 -9.272471
Pb -12.363294 -3.090824 -9.272471
Pb -12.363294 -6.181647 -6.181647
Pb -9.272471 -3.090824 -6.181647
Pb -9.272471 -6.181647 -3.090824
Pb -12.363294 -3.090824 -3.090824
Pb -12.363294 -6.181647 -0.000000
Pb -9.272471 -3.090824 -0.000000
Pb -9.272471 -6.181647 3.090824
Pb -12.363294 -3.090824 3.090824
Pb -12.363294 -6.181647 6.181647
Pb -9.272471 -3.090824 6.181647
Pb -9.272471 -6.181647 9.272471
Pb -12.363294 -3.090824 9.272471
Pb -9.272471 -3.090824 12.363294
Pb -9.272471 3.090824 -12.363294
Pb -9.272471 -0.000000 -9.272471
Pb -12.363294 3.090824 -9.272471
Pb -12.363294 -0.000000 -6.181647
Pb -9.272471 3.090824 -6.181647
Pb -9.272471 -0.000000 -3.090824
Pb -12.363294 3.090824 -3.090824
Pb -12.363294 -0.000000 -0.000000
Pb -9.272471 3.090824 -0.000000
Pb -9.272471 -0.000000 3.090824
Pb -12.363294 3.090824 3.090824
Pb -12.363294 -0.000000 6.181647
Pb -9.272471 3.090824 6.181647
Pb -9.272471 -0.000000 9.272471
Pb -12.363294 3.090824 9.272471
Pb -9.272471 3.090824 12.363294
Pb -9.272471 6.181647 -9.272471
Pb -12.363294 6.181647 -6.181647
Pb -9.272471 9.272471 -6.181647
Pb -9.272471 6.181647 -3.090824
Pb -12.363294 9.272471 -3.090824
Pb -12.363294 6.181647 -0.000000
Pb -9.272471 9.272471 0.000000
Pb -9.272471 6.181647 3.090824
Pb -12.363294 9.272471 3.090824
Pb -12.363294 6.181647 6.181647
Pb -9.272471 9.272471 6.181647
Pb -9.272471 6.181647 9.272471
Pb -9.272471 12.363294 -3.090824
Pb -9.272471 12.363294 3.090824
Pb -3.090824 -9.272471 -12.363294
Pb -3.090824 -12.363294 -9.272471
Pb -6.181647 -9.272471 -9.272471
Pb -6.181647 -12.363294 -6.181647
Pb -3.090824 -9.272471 -6.181647
Pb -3.090824 -12.363294 -3.090824
Pb -6.181647 -9.272471 -3.090824
Pb -6.181647 -12.363294 -0.000000
Pb -3.090824 -9.272471 -0.000000
Pb -3.090824 -12.363294 3.090824
Pb -6.181647 -9.272471 3.090824
Pb -6.181647 -12.363294 6.181647
Pb -3.090824 -9.272471 6.181647
Pb -3.090824 -12.363294 9.272471
Pb -6.181647 -9.272471 9.272471
Pb -3.090824 -9.272471 12.363294
Pb -6.181647 -6.181647 -12.363294
Pb -3.090824 -3.090824 -12.363294
Pb -3.090824 -6.181647 -9.272471
Pb -6.181647 -3.090824 -9.272471
Pb -6.181647 -6.181647 -6.181647
Pb -3.090824 -3.090824 -6.181647
Pb -3.090824 -6.181647 -3.090824
Pb -6.181647 -3.090824 -3.090824
Pb -6.181647 -6.181647 -0.000000
Pb -3.090824 -3.090824 -0.000000
Pb -3.090824 -6.181647 3.090824
Pb -6.181647 -3.090824 3.090824
Pb -6.181647 -6.181647 6.181647
Pb -3.090824 -3.090824 6.181647
Pb -3.090824 -6.181647 9.272471
Pb -6.181647 -3.090824 9.272471
Pb -6.181647 -6.181647 12.363294
Pb -3.090824 -3.090824 12.363294
Pb -6.181647 -0.000000 -12.363294
Pb -3.090824 3.090824 -12.363294
Pb -3.090824 -0.000000 -9.272471
Pb -6.181647 3.090824 -9.272471
Pb -6.181647 -0.000000 -6.181647
Pb -3.090824 3.090824 -6.181647
Pb -3.090824 -0.000000 -3.090824
Pb -6.181647 3.090824 -3.090824
Pb -6.181647 -0.000000 -0.000000
Pb -3.090824 3.090824 0.000000
Pb -3.090824 -0.000000 3.090824
Pb -6.181647 3.090824 3.090824
Pb -6.181647 -0.000000 6.181647
Pb -3.090824 3.090824 6.181647
Pb -3.090824 -0.000000 9.272471
Pb -6.181647 3.090824 9.272471
Pb -6.181647 -0.000000 12.363294
Pb -3.090824 3.090824 12.363294
Pb -6.181647 6.181647 -12.363294
Pb -3.090824 9.272471 -12.363294
Pb -3.090824 6.181647 -9.272471
Pb -6.181647 9.272471 -9.272471
Pb -6.181647 6.181647 -6.181647
Pb -3.090824 9.272471 -6.181647
Pb -3.090824 6.181647 -3.090824
Pb -6.181647 9.272471 -3.090824
Pb -6.181647 6.181647 0.000000
Pb -3.090824 9.272471 0.000000
Pb -3.090824 6.181647 3.090824
Pb -6.181647 9.272471 3.090824
Pb -6.181647 6.181647 6.181647
Pb -3.090824 9.272471 6.181647
Pb -3.090824 6.181647 9.272471
Pb -6.181647 9.272471 9.272471
Pb -6.181647 6.181647 12.363294
Pb -3.090824 9.272471 12.363294
Pb -3.090824 12.363294 -9.272471
Pb -6.181647 12.363294 -6.181647
Pb -3.090824 12.363294 -3.090824
Pb -6.181647 12.363294 0.000000
Pb -3.090824 12.363294 3.090824
Pb -6.181647 12.363294 6.181647
Pb -3.090824 12.363294 9.272471
Pb 3.090824 -9.272471 -12.363294
Pb 3.090824 -12.363294 -9.272471
Pb -0.000000 -9.272471 -9.272471
Pb -0.000000 -12.363294 -6.181647
Pb 3.090824 -9.272471 -6.181647
Pb 3.090824 -12.363294 -3.090824
Pb -0.000000 -9.272471 -3.090824
Pb -0.000000 -12.363294 -0.000000
Pb 3.090824 -9.272471 -0.000000
Pb 3.090824 -12.363294 3.090824
Pb -0.000000 -9.272471 3.090824
Pb -0.000000 -12.363294 6.181647
Pb 3.090824 -9.272471 6.181647
Pb 3.090824 -12.363294 9.272471
Pb -0.000000 -9.272471 9.272471
Pb 3.090824 -9.272471 12.363294
Pb -0.000000 -6.181647 -12.363294
Pb 3.090824 -3.090824 -12.363294
Pb 3.090824 -6.181647 -9.272471
Pb -0.000000 -3.090824 -9.272471
Pb -0.000000 -6.181647 -6.181647
Pb 3.090824 -3.090824 -6.181647
Pb 3.090824 -6.181647 -3.090824
Pb -0.000000 -3.090824 -3.090824
Pb -0.000000 -6.181647 -0.000000
Pb 3.090824 -3.090824 0.000000
Pb 3.090824 -6.181647 3.090824
Pb -0.000000 -3.090824 3.090824
Pb -0.000000 -6.181647 6.181647
Pb 3.090824 -3.090824 6.181647
Pb 3.090824 -6.181647 9.272471
Pb -0.000000 -3.090824 9.272471
Pb -0.000000 -6.181647 12.363294
Pb 3.090824 -3.090824 12.363294
Pb -0.000000 -0.000000 -12.363294
Pb 3.090824 3.090824 -12.363294
Pb 3.090824 -0.000000 -9.272471
Pb -0.000000 3.090824 -9.272471
Pb -0.000000 -0.000000 -6.181647
Pb 3.090824 3.090824 -6.181647
Pb 3.090824 -0.000000 -3.090824
Pb -0.000000 3.090824 -3.090824
Pb -0.000000 -0.000000 0.000000
Pb 3.090824 3.090824 0.000000
Pb 3.090824 -0.000000 3.090824
Pb -0.000000 3.090824 3.090824
Pb -0.000000 -0.000000 6.181647
Pb 3.090824 3.090824 6.181647
Pb 3.090824 -0.000000 9.272471
Pb -0.000000 3.090824 9.272471
Pb -0.000000 -0.000000 12.363294
Pb 3.090824 3.090824 12.363294
Pb -0.000000 6.181647 -12.363294
Pb 3.090824 9.272471 -12.363294
Pb 3.090824 6.181647 -9.272471
Pb -0.000000 9.272471 -9.272471
Pb -0.000000 6.181647 -6.181647
Pb 3.090824 9.272471 -6.181647
Pb 3.090824 6.181647 -3.090824
Pb -0.000000 9.272471 -3.090824
Pb -0.000000 6.181647 0.000000
Pb 3.090824 9.272471 0.000000
Pb 3.090824 6.181647 3.090824
Pb -0.000000 9.272471 3.090824
Pb -0.000000 6.181647 6.181647
Pb 3.090824 9.272471 6.181647
Pb 3.090824 6.181647 9.272471
Pb -0.000000 9.272471 9.272471
Pb -0.000000 6.181647 12.363294
Pb 3.090824 9.272471 12.363294
Pb 3.090824 12.363294 -9.272471
Pb -0.000000 12.363294 -6.181647
Pb 3.090824 12.363294 -3.090824
Pb -0.000000 12.363294 0.000000
Pb 3.090824 12.363294 3.090824
Pb -0.000000 12.363294 6.181647
Pb 3.090824 12.363294 9.272471
Pb 6.181647 -9.272471 -9.272471
Pb 6.181647 -12.363294 -6.181647
Pb 9.272471 -9.272471 -6.181647
Pb 9.272471 -12.363294 -3.090824
Pb 6.181647 -9.272471 -3.090824
Pb 6.181647 -12.363294 -0.000000
Pb 9.272471 -9.272471 0.000000
Pb 9.272471 -12.363294 3.090824
Pb 6.181647 -9.272471 3.090824
Pb 6.181647 -12.363294 6.181647
Pb 9.272471 -9.272471 6.181647
Pb 6.181647 -9.272471 9.272471
Pb 6.181647 -6.181647 -12.363294
Pb 9.272471 -3.090824 -12.363294
Pb 9.272471 -6.181647 -9.272471
Pb 6.181647 -3.090824 -9.272471
Pb 6.181647 -6.181647 -6.181647
Pb 9.272471 -3.090824 -6.181647
Pb 9.272471 -6.181647 -3.090824
Pb 6.181647 -3.090824 -3.090824
Pb 6.181647 -6.181647 0.000000
Pb 9.272471 -3.090824 0.000000
Pb 9.272471 -6.181647 3.090824
Pb 6.181647 -3.090824 3.090824
Pb 6.181647 -6.181647 6.181647
Pb 9.272471 -3.090824 6.181647
Pb 9.272471 -6.181647 9.272471
Pb 6.181647 -3.090824 9.272471
Pb 6.181647 -6.181647 12.363294
Pb 9.272471 -3.090824 12.363294
Pb 6.181647 -0.000000 -12.363294
Pb 9.272471 3.090824 -12.363294
Pb 9.272471 -0.000000 -9.272471
Pb 6.181647 3.090824 -9.272471
Pb 6.181647 -0.000000 -6.181647
Pb 9.272471 3.090824 -6.181647
Pb 9.272471 -0.000000 -3.090824
Pb 6.181647 3.090824 -3.090824
Pb 6.181647 -0.000000 0.000000
Pb 9.272471 3.090824 0.000000
Pb 9.272471 -0.000000 3.090824
Pb 6.181647 3.090824 3.090824
Pb 6.181647 -0.000000 6.181647
Pb 9.272471 3.090824 6.181647
Pb 9.272471 -0.000000 9.272471
Pb 6.181647 3.090824 9.272471
Pb 6.181647 -0.000000 12.363294
Pb 9.272471 3.090824 12.363294
Pb 6.181647 6.181647 -12.363294
Pb 9.272471 6.181647 -9.272471
Pb 6.181647 9.272471 -9.272471
Pb 6.181647 6.181647 -6.181647
Pb 9.272471 9.272471 -6.181647
Pb 9.272471 6.181647 -3.090824
Pb 6.181647 9.272471 -3.090824
Pb 6.181647 6.181647 0.000000
Pb 9.272471 9.272471 0.000000
Pb 9.272471 6.181647 3.090824
Pb 6.181647 9.272471 3.090824
Pb 6.181647 6.181647 6.181647
Pb 9.272471 9.272471 6.181647
Pb 9.272471 6.181647 9.272471
Pb 6.181647 9.272471 9.272471
Pb 6.181647 6.181647 12.363294
Pb 6.181647 12.363294 -6.181647
Pb 9.272471 12.363294 -3.090824
Pb 6.181647 12.363294 0.000000
Pb 9.272471 12.363294 3.090824
Pb 6.181647 12.363294 6.181647
Pb 12.363294 -9.272471 -3.090824
Pb 12.363294 -9.272471 3.090824
Pb 12.363294 -3.090824 -9.272471
Pb 12.363294 -6.181647 -6.181647
Pb 12.363294 -3.090824 -3.090824
Pb 12.363294 -6.181647 0.000000
Pb 12.363294 -3.090824 3.090824
Pb 12.363294 -6.181647 6.181647
Pb 12.363294 -3.090824 9.272471
Pb 12.363294 3.090824 -9.272471
Pb 12.363294 -0.000000 -6.181647
Pb 12.363294 3.090824 -3.090824
Pb 12.363294 -0.000000 0.000000
Pb 12.363294 3.090824 3.090824
Pb 12.363294 -0.000000 6.181647
Pb 12.363294 3.090824 9.272471
Pb 12.363294 6.181647 -6.181647
Pb 12.363294 9.272471 -3.090824
Pb 12.363294 6.181647 0.000000
Pb 12.363294 9.272471 3.090824
Pb 12.363294 6.181647 6.181647
Se -9.272471 -9.272471 -3.090824
Se -9.272471 -12.363294 -0.000000
Se -12.363294 -9.272471 -0.000000
Se -9.272471 -9.272471 3.090824
Se -9.272471 -3.090824 -9.272471
Se -12.363294 -6.181647 -3.090824
Se -9.272471 -6.181647 -6.181647
Se -12.363294 -3.090824 -6.181647
Se -9.272471 -3.090824 -3.090824
Se -12.363294 -6.181647 3.090824
Se -9.272471 -6.181647 -0.000000
Se -12.363294 -3.090824 -0.000000
Se -9.272471 -3.090824 3.090824
Se -9.272471 -6.181647 6.181647
Se -12.363294 -3.090824 6.181647
Se -9.272471 -3.090824 9.272471
Se -12.363294 -0.000000 -9.272471
Se -9.272471 -0.000000 -12.363294
Se -9.272471 3.090824 -9.272471
Se -12.363294 -0.000000 -3.090824
Se -9.272471 -0.000000 -6.181647
Se -12.363294 3.090824 -6.181647
Se -9.272471 3.090824 -3.090824
Se -12.363294 -0.000000 3.090824
Se -9.272471 -0.000000 -0.000000
Se -12.363294 3.090824 -0.000000
Se -9.272471 3.090824 3.090824
Se -12.363294 -0.000000 9.272471
Se -9.272471 -0.000000 6.181647
Se -12.363294 3.090824 6.181647
Se -9.272471 3.090824 9.272471
Se -9.272471 -0.000000 12.363294
Se -12.363294 6.181647 -3.090824
Se -9.272471 6.181647 -6.181647
Se -9.272471 9.272471 -3.090824
Se -12.363294 6.181647 3.090824
Se -9.272471 6.181647 -0.000000
Se -12.363294 9.272471 -0.000000
Se -9.272471 9.272471 3.090824
Se -9.272471 6.181647 6.181647
Se -9.272471 12.363294 0.000000
Se -3.090824 -9.272471 -9.272471
Se -6.181647 -12.363294 -3.090824
Se -3.090824 -12.363294 -6.181647
Se -6.181647 -9.272471 -6.181647
Se -3.090824 -9.272471 -3.090824
Se -6.181647 -12.363294 3.090824
Se -3.090824 -12.363294 -0.000000
Se -6.181647 -9.272471 -0.000000
Se -3.090824 -9.272471 3.090824
Se -3.090824 -12.363294 6.181647
Se -6.181647 -9.272471 6.181647
Se -3.090824 -9.272471 9.272471
Se -6.181647 -6.181647 -9.272471
Se -3.090824 -6.181647 -12.363294
Se -6.181647 -3.090824 -12.363294
Se -3.090824 -3.090824 -9.272471
Se -6.181647 -6.181647 -3.090824
Se -3.090824 -6.181647 -6.181647
Se -6.181647 -3.090824 -6.181647
Se -3.090824 -3.090824 -3.090824
Se -6.181647 -6.181647 3.090824
Se -3.090824 -6.181647 -0.000000
Se -6.181647 -3.090824 -0.000000
Se -3.090824 -3.090824 3.090824
Se -6.181647 -6.181647 9.272471
Se -3.090824 -6.181647 6.181647
Se -6.181647 -3.090824 6.181647
Se -3.090824 -3.090824 9.272471
Se -3.090824 -6.181647 12.363294
Se -6.181647 -3.090824 12.363294
Se -6.181647 -0.000000 -9.272471
Se -3.090824 -0.000000 -12.363294
Se -6.181647 3.090824 -12.363294
Se -3.090824 3.090824 -9.272471
Se -6.181647 -0.000000 -3.090824
Se -3.090824 -0.000000 -6.181647
Se -6.181647 3.090824 -6.181647
Se -3.090824 3.090824 -3.090824
Se -6.181647 -0.000000 3.090824
Se -3.090824 -0.000000 -0.000000
Se -6.181647 3.090824 -0.000000
Se -3.090824 3.090824 3.090824
Se -6.181647 -0.000000 9.272471
Se -3.090824 -0.000000 6.181647
Se -6.181647 3.090824 6.181647
Se -3.090824 3.090824 9.272471
Se -3.090824 -0.000000 12.363294
Se -6.181647 3.090824 12.363294
Se -6.181647 6.181647 -9.272471
Se -3.090824 6.181647 -12.363294
Se -3.090824 9.272471 -9.272471
Se -6.181647 6.181647 -3.090824
Se -3.090824 6.181647 -6.181647
Se -6.181647 9.272471 -6.181647
Se -3.090824 9.272471 -3.090824
Se -6.181647 6.181647 3.090824
Se -3.090824 6.181647 0.000000
Se -6.181647 9.272471 0.000000
Se -3.090824 9.272471 3.090824
Se -6.181647 6.181647 9.272471
Se -3.090824 6.181647 6.181647
Se -6.181647 9.272471 6.181647
Se -3.090824 9.272471 9.272471
Se -3.090824 6.181647 12.363294
Se -6.181647 12.363294 -3.090824
Se -3.090824 12.363294 -6.181647
Se -6.181647 12.363294 3.090824
Se -3.090824 12.363294 0.000000
Se -3.090824 12.363294 6.181647
Se -0.000000 -12.363294 -9.272471
Se -0.000000 -9.272471 -12.363294
Se 3.090824 -9.272471 -9.272471
Se -0.000000 -12.363294 -3.090824
Se 3.090824 -12.363294 -6.181647
Se -0.000000 -9.272471 -6.181647
Se 3.090824 -9.272471 -3.090824
Se -0.000000 -12.363294 3.090824
Se 3.090824 -12.363294 -0.000000
Se -0.000000 -9.272471 -0.000000
Se 3.090824 -9.272471 3.090824
Se -0.000000 -12.363294 9.272471
Se 3.090824 -12.363294 6.181647
Se -0.000000 -9.272471 6.181647
Se 3.090824 -9.272471 9.272471
Se -0.000000 -9.272471 12.363294
Se -0.000000 -6.181647 -9.272471
Se 3.090824 -6.181647 -12.363294
Se -0.000000 -3.090824 -12.363294
Se 3.090824 -3.090824 -9.272471
Se -0.000000 -6.181647 -3.090824
Se 3.090824 -6.181647 -6.181647
Se -0.000000 -3.090824 -6.181647
Se 3.090824 -3.090824 -3.090824
Se -0.000000 -6.181647 3.090824
Se 3.090824 -6.181647 -0.000000
Se -0.000000 -3.090824 -0.000000
Se 3.090824 -3.090824 3.090824
Se -0.000000 -6.181647 9.272471
Se 3.090824 -6.181647 6.181647
Se -0.000000 -3.090824 6.181647
Se 3.090824 -3.090824 9.272471
Se 3.090824 -6.181647 12.363294
Se -0.000000 -3.090824 12.363294
Se -0.000000 -0.000000 -9.272471
Se 3.090824 -0.000000 -12.363294
Se -0.000000 3.090824 -12.363294
Se 3.090824 3.090824 -9.272471
Se -0.000000 -0.000000 -3.090824
Se 3.090824 -0.000000 -6.181647
Se -0.000000 3.090824 -6.181647
Se 3.090824 3.090824 -3.090824
Se -0.000000 -0.000000 3.090824
Se 3.090824 -0.000000 0.000000
Se -0.000000 3.090824 0.000000
Se 3.090824 3.090824 3.090824
Se -0.000000 -0.000000 9.272471
Se 3.090824 -0.000000 6.181647
Se -0.000000 3.090824 6.181647
Se 3.090824 3.090824 9.272471
Se 3.090824 -0.000000 12.363294
Se -0.000000 3.090824 12.363294
Se -0.000000 6.181647 -9.272471
Se 3.090824 6.181647 -12.363294
Se -0.000000 9.272471 -12.363294
Se 3.090824 9.272471 -9.272471
Se -0.000000 6.181647 -3.090824
Se 3.090824 6.181647 -6.181647
Se -0.000000 9.272471 -6.181647
Se 3.090824 9.272471 -3.090824
Se -0.000000 6.181647 3.090824
Se 3.090824 6.181647 0.000000
Se -0.000000 9.272471 0.000000
Se 3.090824 9.272471 3.090824
Se -0.000000 6.181647 9.272471
Se 3.090824 6.181647 6.181647
Se -0.000000 9.272471 6.181647
Se 3.090824 9.272471 9.272471
Se 3.090824 6.181647 12.363294
Se -0.000000 9.272471 12.363294
Se -0.000000 12.363294 -9.272471
Se -0.000000 12.363294 -3.090824
Se 3.090824 12.363294 -6.181647
Se -0.000000 12.363294 3.090824
Se 3.090824 12.363294 0.000000
Se -0.000000 12.363294 9.272471
Se 3.090824 12.363294 6.181647
Se 6.181647 -12.363294 -3.090824
Se 6.181647 -9.272471 -6.181647
Se 9.272471 -9.272471 -3.090824
Se 6.181647 -12.363294 3.090824
Se 9.272471 -12.363294 -0.000000
Se 6.181647 -9.272471 -0.000000
Se 9.272471 -9.272471 3.090824
Se 6.181647 -9.272471 6.181647
Se 6.181647 -6.181647 -9.272471
Se 6.181647 -3.090824 -12.363294
Se 9.272471 -3.090824 -9.272471
Se 6.181647 -6.181647 -3.090824
Se 9.272471 -6.181647 -6.181647
Se 6.181647 -3.090824 -6.181647
Se 9.272471 -3.090824 -3.090824
Se 6.181647 -6.181647 3.090824
Se 9.272471 -6.181647 0.000000
Se 6.181647 -3.090824 0.000000
Se 9.272471 -3.090824 3.090824
Se 6.181647 -6.181647 9.272471
Se 9.272471 -6.181647 6.181647
Se 6.181647 -3.090824 6.181647
Se 9.272471 -3.090824 9.272471
Se 6.181647 -3.090824 12.363294
Se 6.181647 -0.000000 -9.272471
Se 9.272471 -0.000000 -12.363294
Se 6.181647 3.090824 -12.363294
Se 9.272471 3.090824 -9.272471
Se 6.181647 -0.000000 -3.090824
Se 9.272471 -0.000000 -6.181647
Se 6.181647 3.090824 -6.181647
Se 9.272471 3.090824 -3.090824
Se 6.181647 -0.000000 3.090824
Se 9.272471 -0.000000 0.000000
Se 6.181647 3.090824 0.000000
Se 9.272471 3.090824 3.090824
Se 6.181647 -0.000000 9.272471
Se 9.272471 -0.000000 6.181647
Se 6.181647 3.090824 6.181647
Se 9.272471 3.090824 9.272471
Se 9.272471 -0.000000 12.363294
Se 6.181647 3.090824 12.363294
Se 6.181647 6.181647 -9.272471
Se 6.181647 6.181647 -3.090824
Se 9.272471 6.181647 -6.181647
Se 6.181647 9.272471 -6.181647
Se 9.272471 9.272471 -3.090824
Se 6.181647 6.181647 3.090824
Se 9.272471 6.181647 0.000000
Se 6.181647 9.272471 0.000000
Se 9.272471 9.272471 3.090824
Se 6.181647 6.181647 9.272471
Se 9.272471 6.181647 6.181647
Se 6.181647 9.272471 6.181647
Se 6.181647 12.363294 -3.090824
Se 6.181647 12.363294 3.090824
Se 9.272471 12.363294 0.000000
Se 12.363294 -9.272471 0.000000
Se 12.363294 -6.181647 -3.090824
Se 12.363294 -3.090824 -6.181647
Se 12.363294 -6.181647 3.090824
Se 12.363294 -3.090824 0.000000
Se 12.363294 -3.090824 6.181647
Se 12.363294 -0.000000 -9.272471
Se 12.363294 -0.000000 -3.090824
Se 12.363294 3.090824 -6.181647
Se 12.363294 -0.000000 3.090824
Se 12.363294 3.090824 0.000000
Se 12.363294 -0.000000 9.272471
Se 12.363294 3.090824 6.181647
Se 12.363294 6.181647 -3.090824
Se 12.363294 6.181647 3.090824
Se 12.363294 9.272471 0.000000
Cl -9.272471 -12.363294 -6.181647
Cl 9.272471 12.363294 6.181647
Cl -12.363294 6.181647 9.272471
Cl -6.181647 9.272471 -12.363294
Cl 6.181647 -9.272471 12.363294
Cl 12.363294 -6.181647 -9.272471
Cl -9.272471 -9.272471 9.272471
Cl 9.272471 9.272471 -9.272471
Cl -12.363294 9.272471 -6.181647
Cl -9.272471 -6.181647 -12.363294
Cl -6.181647 12.363294 9.272471
Cl 6.181647 -12.363294 -9.272471
Cl 9.272471 6.181647 12.363294
Cl 12.363294 -9.272471 6.181647
Cl -9.272471 -12.363294 6.181647
Cl 6.181647 9.272471 -12.363294
Cl -9.272471 -6.181647 12.363294
Cl 12.363294 9.272471 -6.181647
Cl -12.363294 -9.272471 -6.181647
Cl -12.363294 6.181647 -9.272471
Cl -12.363294 9.272471 6.181647
Cl 6.181647 -9.272471 -12.363294
Cl 6.181647 -12.363294 9.272471
Cl 6.181647 9.272471 12.363294
Cl -6.181647 -9.272471 -12.363294
Cl -6.181647 9.272471 12.363294
Cl -6.181647 12.363294 -9.272471
Cl 12.363294 9.272471 6.181647
Cl 12.363294 -9.272471 -6.181647
Cl 12.363294 -6.181647 9.272471
Cl -12.363294 -9.272471 6.181647
Cl 9.272471 6.181647 -12.363294
Cl -6.181647 -9.272471 12.363294
Cl 9.272471 12.363294 -6.181647
Cl -12.363294 -6.181647 -9.272471
Cl -9.272471 12.363294 -6.181647
Cl -9.272471 12.363294 6.181647
Cl 9.272471 -12.363294 -6.181647
Cl 9.272471 -12.363294 6.181647
Cl 12.363294 6.181647 9.272471
Cl -9.272471 6.181647 12.363294
Cl -6.181647 -12.363294 -9.272471
Cl -9.272471 6.181647 -12.363294
Cl 9.272471 -6.181647 -12.363294
Cl 9.272471 -6.181647 12.363294
Cl 6.181647 12.363294 9.272471
Cl -12.363294 -6.181647 9.272471
Cl 6.181647 12.363294 -9.272471
Cl -6.181647 -12.363294 9.272471
Cl 12.363294 6.181647 -9.272471
Cl -12.363294 -12.363294 -3.090824
Cl -12.363294 3.090824 -12.363294
Cl -12.363294 3.090824 12.363294
Cl 3.090824 -12.363294 -12.363294
Cl 3.090824 -12.363294 12.363294
Cl 3.090824 12.363294 12.363294
Cl -12.363294 -3.090824 -12.363294
Cl -12.363294 12.363294 3.090824
Cl -12.363294 12.363294 -3.090824
Cl 12.363294 3.090824 12.363294
Cl 12.363294 -12.363294 -3.090824
Cl 12.363294 -12.363294 3.090824
Cl -12.363294 -12.363294 3.090824
Cl 3.090824 12.363294 -12.363294
Cl -3.090824 -12.363294 -12.363294
Cl -3.090824 12.363294 -12.363294
Cl -3.090824 12.363294 12.363294
Cl 12.363294 -3.090824 -12.363294
Cl 12.363294 -3.090824 12.363294
Cl 12.363294 12.363294 3.090824
Cl -12.363294 -3.090824 12.363294
Cl 12.363294 3.090824 -12.363294
Cl -3.090824 -12.363294 12.363294
Cl 12.363294 12.363294 -3.090824
