1675
ZnTe-Zn-Zn770Te635Cl270-reconstructed
Zn -15.268039 -18.321830 -3.065648
Zn -18.323654 -15.266215 -3.065648
Zn -15.268039 -15.266215 -0.010033
Zn -15.268039 -9.154986 -12.232492
Zn -18.323654 -12.210601 -6.121262
Zn -15.268039 -12.210601 -9.176877
Zn -18.323654 -9.154986 -9.176877
Zn -15.268039 -9.154986 -6.121262
Zn -18.323654 -12.210601 -0.010033
Zn -15.268039 -12.210601 -3.065648
Zn -18.323654 -9.154986 -3.065648
Zn -15.268039 -9.154986 -0.010033
Zn -18.323654 -9.154986 3.045581
Zn -15.268039 -9.154986 6.101196
Zn -15.268039 -3.043757 -18.343721
Zn -18.323654 -6.099372 -12.232492
Zn -18.323654 -3.043757 -15.288106
Zn -15.268039 -3.043757 -12.232492
Zn -18.323654 -6.099372 -6.121262
Zn -15.268039 -6.099372 -9.176877
Zn -18.323654 -3.043757 -9.176877
Zn -15.268039 -3.043757 -6.121262
Zn -18.323654 -6.099372 -0.010033
Zn -15.268039 -6.099372 -3.065648
Zn -18.323654 -3.043757 -3.065648
Zn -15.268039 -3.043757 -0.010033
Zn -18.323654 -6.099372 6.101196
Zn -15.268039 -6.099372 3.045581
Zn -18.323654 -3.043757 3.045581
Zn -15.268039 -3.043757 6.101196
Zn -15.268039 -6.099372 9.156810
Zn -18.323654 -3.043757 9.156810
Zn -18.323654 0.011858 -12.232492
Zn -15.268039 0.011858 -15.288106
Zn -15.268039 3.067472 -12.232492
Zn -18.323654 0.011858 -6.121262
Zn -15.268039 0.011858 -9.176877
Zn -18.323654 3.067472 -9.176877
Zn -15.268039 3.067472 -6.121262
Zn -18.323654 0.011858 -0.010033
Zn -15.268039 0.011858 -3.065648
Zn -18.323654 3.067472 -3.065648
Zn -15.268039 3.067472 -0.010033
Zn -18.323654 0.011858 6.101196
Zn -15.268039 0.011858 3.045581
Zn -18.323654 3.067472 3.045581
Zn -15.268039 3.067472 6.101196
Zn -18.323654 0.011858 12.212425
Zn -15.268039 0.011858 9.156810
Zn -18.323654 3.067472 9.156810
Zn -15.268039 3.067472 12.212425
Zn -15.268039 0.011858 15.268039
Zn -18.323654 3.067472 15.268039
Zn -15.268039 3.067472 18.323654
Zn -18.323654 6.123087 -6.121262
Zn -15.268039 9.178701 -6.121262
Zn -18.323654 6.123087 -0.010033
Zn -15.268039 6.123087 -3.065648
Zn -18.323654 9.178701 -3.065648
Zn -15.268039 9.178701 -0.010033
Zn -18.323654 6.123087 6.101196
Zn -15.268039 6.123087 3.045581
Zn -18.323654 9.178701 3.045581
Zn -15.268039 9.178701 6.101196
Zn -18.323654 6.123087 12.212425
Zn -15.268039 6.123087 9.156810
Zn -18.323654 9.178701 9.156810
Zn -15.268039 9.178701 12.212425
Zn -18.323654 12.234316 -0.010033
Zn -15.268039 12.234316 -3.065648
Zn -15.268039 15.289930 -0.010033
Zn -18.323654 12.234316 6.101196
Zn -15.268039 12.234316 3.045581
Zn -18.323654 15.289930 3.045581
Zn -15.268039 12.234316 9.156810
Zn -15.268039 18.345545 3.045581
Zn -9.156810 -15.266215 -12.232492
Zn -12.212425 -18.321830 -6.121262
Zn -9.156810 -18.321830 -9.176877
Zn -12.212425 -15.266215 -9.176877
Zn -9.156810 -15.266215 -6.121262
Zn -12.212425 -18.321830 -0.010033
Zn -9.156810 -18.321830 -3.065648
Zn -12.212425 -15.266215 -3.065648
Zn -9.156810 -15.266215 -0.010033
Zn -9.156810 -18.321830 3.045581
Zn -12.212425 -15.266215 3.045581
Zn -9.156810 -9.154986 -18.343721
Zn -9.156810 -12.210601 -15.288106
Zn -12.212425 -9.154986 -15.288106
Zn -9.156810 -9.154986 -12.232492
Zn -12.212425 -12.210601 -6.121262
Zn -9.156810 -12.210601 -9.176877
Zn -12.212425 -9.154986 -9.176877
Zn -9.156810 -9.154986 -6.121262
Zn -12.212425 -12.210601 -0.010033
Zn -9.156810 -12.210601 -3.065648
Zn -12.212425 -9.154986 -3.065648
Zn -9.156810 -9.154986 -0.010033
Zn -12.212425 -12.210601 6.101196
Zn -9.156810 -12.210601 3.045581
Zn -12.212425 -9.154986 3.045581
Zn -9.156810 -9.154986 6.101196
Zn -9.156810 -12.210601 9.156810
Zn -9.156810 -9.154986 12.212425
Zn -12.212425 -6.099372 -18.343721
Zn -9.156810 -3.043757 -18.343721
Zn -12.212425 -6.099372 -12.232492
Zn -9.156810 -6.099372 -15.288106
Zn -12.212425 -3.043757 -15.288106
Zn -9.156810 -3.043757 -12.232492
Zn -12.212425 -6.099372 -6.121262
Zn -9.156810 -6.099372 -9.176877
Zn -12.212425 -3.043757 -9.176877
Zn -9.156810 -3.043757 -6.121262
Zn -12.212425 -6.099372 -0.010033
Zn -9.156810 -6.099372 -3.065648
Zn -12.212425 -3.043757 -3.065648
Zn -9.156810 -3.043757 -0.010033
Zn -12.212425 -6.099372 6.101196
Zn -9.156810 -6.099372 3.045581
Zn -12.212425 -3.043757 3.045581
Zn -9.156810 -3.043757 6.101196
Zn -12.212425 -6.099372 12.212425
Zn -9.156810 -6.099372 9.156810
Zn -12.212425 -3.043757 9.156810
Zn -9.156810 -3.043757 12.212425
Zn -12.212425 -3.043757 15.268039
Zn -9.156810 -3.043757 18.323654
Zn -12.212425 0.011858 -18.343721
Zn -9.156810 3.067472 -18.343721
Zn -12.212425 0.011858 -12.232492
Zn -9.156810 0.011858 -15.288106
Zn -9.156810 3.067472 -12.232492
Zn -12.212425 0.011858 -6.121262
Zn -9.156810 0.011858 -9.176877
Zn -12.212425 3.067472 -9.176877
Zn -9.156810 3.067472 -6.121262
Zn -12.212425 0.011858 -0.010033
Zn -9.156810 0.011858 -3.065648
Zn -12.212425 3.067472 -3.065648
Zn -9.156810 3.067472 -0.010033
Zn -12.212425 0.011858 6.101196
Zn -9.156810 0.011858 3.045581
Zn -12.212425 3.067472 3.045581
Zn -9.156810 3.067472 6.101196
Zn -12.212425 0.011858 12.212425
Zn -9.156810 0.011858 9.156810
Zn -12.212425 3.067472 9.156810
Zn -9.156810 3.067472 12.212425
Zn -12.212425 0.011858 18.323654
Zn -9.156810 0.011858 15.268039
Zn -12.212425 3.067472 15.268039
Zn -9.156810 3.067472 18.323654
Zn -12.212425 6.123087 -12.232492
Zn -9.156810 6.123087 -15.288106
Zn -12.212425 6.123087 -6.121262
Zn -9.156810 6.123087 -9.176877
Zn -12.212425 9.178701 -9.176877
Zn -9.156810 9.178701 -6.121262
Zn -12.212425 6.123087 -0.010033
Zn -9.156810 6.123087 -3.065648
Zn -12.212425 9.178701 -3.065648
Zn -9.156810 9.178701 -0.010033
Zn -12.212425 6.123087 6.101196
Zn -9.156810 6.123087 3.045581
Zn -12.212425 9.178701 3.045581
Zn -9.156810 9.178701 6.101196
Zn -12.212425 6.123087 12.212425
Zn -9.156810 6.123087 9.156810
Zn -12.212425 9.178701 9.156810
Zn -9.156810 9.178701 12.212425
Zn -12.212425 6.123087 18.323654
Zn -9.156810 6.123087 15.268039
Zn -12.212425 9.178701 15.268039
Zn -9.156810 9.178701 18.323654
Zn -9.156810 12.234316 -9.176877
Zn -9.156810 15.289930 -6.121262
Zn -12.212425 12.234316 -0.010033
Zn -9.156810 12.234316 -3.065648
Zn -12.212425 15.289930 -3.065648
Zn -9.156810 15.289930 -0.010033
Zn -12.212425 12.234316 6.101196
Zn -9.156810 12.234316 3.045581
Zn -12.212425 15.289930 3.045581
Zn -9.156810 15.289930 6.101196
Zn -9.156810 12.234316 9.156810
Zn -12.212425 15.289930 9.156810
Zn -9.156810 15.289930 12.212425
Zn -9.156810 12.234316 15.268039
Zn -12.212425 18.345545 -0.010033
Zn -9.156810 18.345545 -3.065648
Zn -12.212425 18.345545 6.101196
Zn -9.156810 18.345545 3.045581
Zn -9.156810 18.345545 9.156810
Zn -3.045581 -15.266215 -18.343721
Zn -6.101196 -18.321830 -12.232492
Zn -3.045581 -18.321830 -15.288106
Zn -3.045581 -15.266215 -12.232492
Zn -6.101196 -18.321830 -6.121262
Zn -3.045581 -18.321830 -9.176877
Zn -6.101196 -15.266215 -9.176877
Zn -3.045581 -15.266215 -6.121262
Zn -6.101196 -18.321830 -0.010033
Zn -3.045581 -18.321830 -3.065648
Zn -6.101196 -15.266215 -3.065648
Zn -3.045581 -15.266215 -0.010033
Zn -6.101196 -18.321830 6.101196
Zn -3.045581 -18.321830 3.045581
Zn -6.101196 -15.266215 3.045581
Zn -3.045581 -15.266215 6.101196
Zn -3.045581 -18.321830 9.156810
Zn -6.101196 -15.266215 9.156810
Zn -3.045581 -15.266215 12.212425
Zn -6.101196 -12.210601 -18.343721
Zn -3.045581 -9.154986 -18.343721
Zn -6.101196 -12.210601 -12.232492
Zn -3.045581 -12.210601 -15.288106
Zn -6.101196 -9.154986 -15.288106
Zn -3.045581 -9.154986 -12.232492
Zn -6.101196 -12.210601 -6.121262
Zn -3.045581 -12.210601 -9.176877
Zn -6.101196 -9.154986 -9.176877
Zn -3.045581 -9.154986 -6.121262
Zn -6.101196 -12.210601 -0.010033
Zn -3.045581 -12.210601 -3.065648
Zn -6.101196 -9.154986 -3.065648
Zn -3.045581 -9.154986 -0.010033
Zn -6.101196 -12.210601 6.101196
Zn -3.045581 -12.210601 3.045581
Zn -6.101196 -9.154986 3.045581
Zn -3.045581 -9.154986 6.101196
Zn -3.045581 -12.210601 9.156810
Zn -6.101196 -9.154986 9.156810
Zn -3.045581 -9.154986 12.212425
Zn -3.045581 -12.210601 15.268039
Zn -6.101196 -9.154986 15.268039
Zn -3.045581 -9.154986 18.323654
Zn -6.101196 -6.099372 -18.343721
Zn -3.045581 -3.043757 -18.343721
Zn -6.101196 -6.099372 -12.232492
Zn -3.045581 -6.099372 -15.288106
Zn -6.101196 -3.043757 -15.288106
Zn -3.045581 -3.043757 -12.232492
Zn -6.101196 -6.099372 -6.121262
Zn -3.045581 -6.099372 -9.176877
Zn -6.101196 -3.043757 -9.176877
Zn -3.045581 -3.043757 -6.121262
Zn -6.101196 -6.099372 -0.010033
Zn -3.045581 -6.099372 -3.065648
Zn -6.101196 -3.043757 -3.065648
Zn -3.045581 -3.043757 -0.010033
Zn -6.101196 -6.099372 6.101196
Zn -3.045581 -6.099372 3.045581
Zn -6.101196 -3.043757 3.045581
Zn -3.045581 -3.043757 6.101196
Zn -6.101196 -6.099372 12.212425
Zn -3.045581 -6.099372 9.156810
Zn -6.101196 -3.043757 9.156810
Zn -3.045581 -3.043757 12.212425
Zn -6.101196 -6.099372 18.323654
Zn -3.045581 -6.099372 15.268039
Zn -6.101196 -3.043757 15.268039
Zn -3.045581 -3.043757 18.323654
Zn -6.101196 0.011858 -18.343721
Zn -3.045581 3.067472 -18.343721
Zn -6.101196 0.011858 -12.232492
Zn -3.045581 0.011858 -15.288106
Zn -6.101196 3.067472 -15.288106
Zn -3.045581 3.067472 -12.232492
Zn -6.101196 0.011858 -6.121262
Zn -3.045581 0.011858 -9.176877
Zn -6.101196 3.067472 -9.176877
Zn -3.045581 3.067472 -6.121262
Zn -6.101196 0.011858 -0.010033
Zn -3.045581 0.011858 -3.065648
Zn -6.101196 3.067472 -3.065648
Zn -3.045581 3.067472 -0.010033
Zn -6.101196 0.011858 6.101196
Zn -3.045581 0.011858 3.045581
Zn -6.101196 3.067472 3.045581
Zn -3.045581 3.067472 6.101196
Zn -6.101196 0.011858 12.212425
Zn -3.045581 0.011858 9.156810
Zn -6.101196 3.067472 9.156810
Zn -3.045581 3.067472 12.212425
Zn -6.101196 0.011858 18.323654
Zn -3.045581 0.011858 15.268039
Zn -6.101196 3.067472 15.268039
Zn -3.045581 3.067472 18.323654
Zn -6.101196 6.123087 -18.343721
Zn -3.045581 9.178701 -18.343721
Zn -6.101196 6.123087 -12.232492
Zn -3.045581 6.123087 -15.288106
Zn -6.101196 9.178701 -15.288106
Zn -3.045581 9.178701 -12.232492
Zn -6.101196 6.123087 -6.121262
Zn -3.045581 6.123087 -9.176877
Zn -6.101196 9.178701 -9.176877
Zn -3.045581 9.178701 -6.121262
Zn -6.101196 6.123087 -0.010033
Zn -3.045581 6.123087 -3.065648
Zn -6.101196 9.178701 -3.065648
Zn -3.045581 9.178701 -0.010033
Zn -6.101196 6.123087 6.101196
Zn -3.045581 6.123087 3.045581
Zn -6.101196 9.178701 3.045581
Zn -3.045581 9.178701 6.101196
Zn -6.101196 6.123087 12.212425
Zn -3.045581 6.123087 9.156810
Zn -6.101196 9.178701 9.156810
Zn -3.045581 9.178701 12.212425
Zn -6.101196 6.123087 18.323654
Zn -3.045581 6.123087 15.268039
Zn -6.101196 9.178701 15.268039
Zn -3.045581 9.178701 18.323654
Zn -6.101196 12.234316 -12.232492
Zn -3.045581 15.289930 -12.232492
Zn -6.101196 12.234316 -6.121262
Zn -3.045581 12.234316 -9.176877
Zn -3.045581 15.289930 -6.121262
Zn -6.101196 12.234316 -0.010033
Zn -3.045581 12.234316 -3.065648
Zn -6.101196 15.289930 -3.065648
Zn -3.045581 15.289930 -0.010033
Zn -6.101196 12.234316 6.101196
Zn -3.045581 12.234316 3.045581
Zn -6.101196 15.289930 3.045581
Zn -3.045581 15.289930 6.101196
Zn -6.101196 12.234316 12.212425
Zn -3.045581 12.234316 9.156810
Zn -6.101196 15.289930 9.156810
Zn -3.045581 15.289930 12.212425
Zn -6.101196 12.234316 18.323654
Zn -3.045581 12.234316 15.268039
Zn -3.045581 15.289930 18.323654
Zn -6.101196 18.345545 -6.121262
Zn -3.045581 18.345545 -9.176877
Zn -6.101196 18.345545 -0.010033
Zn -3.045581 18.345545 -3.065648
Zn -6.101196 18.345545 6.101196
Zn -3.045581 18.345545 3.045581
Zn -6.101196 18.345545 12.212425
Zn -3.045581 18.345545 9.156810
Zn -3.045581 18.345545 15.268039
Zn 0.010033 -18.321830 -12.232492
Zn 0.010033 -15.266215 -15.288106
Zn 0.010033 -18.321830 -6.121262
Zn 3.065648 -18.321830 -9.176877
Zn 0.010033 -15.266215 -9.176877
Zn 3.065648 -15.266215 -6.121262
Zn 0.010033 -18.321830 -0.010033
Zn 3.065648 -18.321830 -3.065648
Zn 0.010033 -15.266215 -3.065648
Zn 3.065648 -15.266215 -0.010033
Zn 0.010033 -18.321830 6.101196
Zn 3.065648 -18.321830 3.045581
Zn 0.010033 -15.266215 3.045581
Zn 3.065648 -15.266215 6.101196
Zn 0.010033 -18.321830 12.212425
Zn 3.065648 -18.321830 9.156810
Zn 0.010033 -15.266215 9.156810
Zn 3.065648 -15.266215 12.212425
Zn 3.065648 -18.321830 15.268039
Zn 0.010033 -15.266215 15.268039
Zn 3.065648 -15.266215 18.323654
Zn 0.010033 -12.210601 -18.343721
Zn 3.065648 -9.154986 -18.343721
Zn 0.010033 -12.210601 -12.232492
Zn 3.065648 -12.210601 -15.288106
Zn 0.010033 -9.154986 -15.288106
Zn 3.065648 -9.154986 -12.232492
Zn 0.010033 -12.210601 -6.121262
Zn 3.065648 -12.210601 -9.176877
Zn 0.010033 -9.154986 -9.176877
Zn 3.065648 -9.154986 -6.121262
Zn 0.010033 -12.210601 -0.010033
Zn 3.065648 -12.210601 -3.065648
Zn 0.010033 -9.154986 -3.065648
Zn 3.065648 -9.154986 -0.010033
Zn 0.010033 -12.210601 6.101196
Zn 3.065648 -12.210601 3.045581
Zn 0.010033 -9.154986 3.045581
Zn 3.065648 -9.154986 6.101196
Zn 0.010033 -12.210601 12.212425
Zn 3.065648 -12.210601 9.156810
Zn 0.010033 -9.154986 9.156810
Zn 3.065648 -9.154986 12.212425
Zn 0.010033 -12.210601 18.323654
Zn 3.065648 -12.210601 15.268039
Zn 0.010033 -9.154986 15.268039
Zn 3.065648 -9.154986 18.323654
Zn 0.010033 -6.099372 -18.343721
Zn 3.065648 -3.043757 -18.343721
Zn 0.010033 -6.099372 -12.232492
Zn 3.065648 -6.099372 -15.288106
Zn 0.010033 -3.043757 -15.288106
Zn 3.065648 -3.043757 -12.232492
Zn 0.010033 -6.099372 -6.121262
Zn 3.065648 -6.099372 -9.176877
Zn 0.010033 -3.043757 -9.176877
Zn 3.065648 -3.043757 -6.121262
Zn 0.010033 -6.099372 -0.010033
Zn 3.065648 -6.099372 -3.065648
Zn 0.010033 -3.043757 -3.065648
Zn 3.065648 -3.043757 -0.010033
Zn 0.010033 -6.099372 6.101196
Zn 3.065648 -6.099372 3.045581
Zn 0.010033 -3.043757 3.045581
Zn 3.065648 -3.043757 6.101196
Zn 0.010033 -6.099372 12.212425
Zn 3.065648 -6.099372 9.156810
Zn 0.010033 -3.043757 9.156810
Zn 3.065648 -3.043757 12.212425
Zn 0.010033 -6.099372 18.323654
Zn 3.065648 -6.099372 15.268039
Zn 0.010033 -3.043757 15.268039
Zn 3.065648 -3.043757 18.323654
Zn 0.010033 0.011858 -18.343721
Zn 3.065648 3.067472 -18.343721
Zn 0.010033 0.011858 -12.232492
Zn 3.065648 0.011858 -15.288106
Zn 0.010033 3.067472 -15.288106
Zn 3.065648 3.067472 -12.232492
Zn 0.010033 0.011858 -6.121262
Zn 3.065648 0.011858 -9.176877
Zn 0.010033 3.067472 -9.176877
Zn 3.065648 3.067472 -6.121262
Zn 0.010033 0.011858 -0.010033
Zn 3.065648 0.011858 -3.065648
Zn 0.010033 3.067472 -3.065648
Zn 3.065648 3.067472 -0.010033
Zn 0.010033 0.011858 6.101196
Zn 3.065648 0.011858 3.045581
Zn 0.010033 3.067472 3.045581
Zn 3.065648 3.067472 6.101196
Zn 0.010033 0.011858 12.212425
Zn 3.065648 0.011858 9.156810
Zn 0.010033 3.067472 9.156810
Zn 3.065648 3.067472 12.212425
Zn 0.010033 0.011858 18.323654
Zn 3.065648 0.011858 15.268039
Zn 0.010033 3.067472 15.268039
Zn 3.065648 3.067472 18.323654
Zn 0.010033 6.123087 -18.343721
Zn 3.065648 9.178701 -18.343721
Zn 0.010033 6.123087 -12.232492
Zn 3.065648 6.123087 -15.288106
Zn 0.010033 9.178701 -15.288106
Zn 3.065648 9.178701 -12.232492
Zn 0.010033 6.123087 -6.121262
Zn 3.065648 6.123087 -9.176877
Zn 0.010033 9.178701 -9.176877
Zn 3.065648 9.178701 -6.121262
Zn 0.010033 6.123087 -0.010033
Zn 3.065648 6.123087 -3.065648
Zn 0.010033 9.178701 -3.065648
Zn 3.065648 9.178701 -0.010033
Zn 0.010033 6.123087 6.101196
Zn 3.065648 6.123087 3.045581
Zn 0.010033 9.178701 3.045581
Zn 3.065648 9.178701 6.101196
Zn 0.010033 6.123087 12.212425
Zn 3.065648 6.123087 9.156810
Zn 0.010033 9.178701 9.156810
Zn 3.065648 9.178701 12.212425
Zn 0.010033 6.123087 18.323654
Zn 3.065648 6.123087 15.268039
Zn 0.010033 9.178701 15.268039
Zn 3.065648 9.178701 18.323654
Zn 0.010033 12.234316 -18.343721
Zn 3.065648 15.289930 -18.343721
Zn 0.010033 12.234316 -12.232492
Zn 3.065648 12.234316 -15.288106
Zn 0.010033 15.289930 -15.288106
Zn 3.065648 15.289930 -12.232492
Zn 0.010033 12.234316 -6.121262
Zn 3.065648 12.234316 -9.176877
Zn 0.010033 15.289930 -9.176877
Zn 3.065648 15.289930 -6.121262
Zn 0.010033 12.234316 -0.010033
Zn 3.065648 12.234316 -3.065648
Zn 0.010033 15.289930 -3.065648
Zn 3.065648 15.289930 -0.010033
Zn 0.010033 12.234316 6.101196
Zn 3.065648 12.234316 3.045581
Zn 0.010033 15.289930 3.045581
Zn 3.065648 15.289930 6.101196
Zn 0.010033 12.234316 12.212425
Zn 3.065648 12.234316 9.156810
Zn 0.010033 15.289930 9.156810
Zn 0.010033 12.234316 18.323654
Zn 3.065648 12.234316 15.268039
Zn 0.010033 15.289930 15.268039
Zn 0.010033 18.345545 -12.232492
Zn 3.065648 18.345545 -15.288106
Zn 0.010033 18.345545 -6.121262
Zn 3.065648 18.345545 -9.176877
Zn 0.010033 18.345545 -0.010033
Zn 3.065648 18.345545 -3.065648
Zn 0.010033 18.345545 6.101196
Zn 3.065648 18.345545 3.045581
Zn 0.010033 18.345545 12.212425
Zn 3.065648 18.345545 9.156810
Zn 6.121262 -18.321830 -6.121262
Zn 6.121262 -15.266215 -9.176877
Zn 9.176877 -15.266215 -6.121262
Zn 6.121262 -18.321830 -0.010033
Zn 9.176877 -18.321830 -3.065648
Zn 6.121262 -15.266215 -3.065648
Zn 9.176877 -15.266215 -0.010033
Zn 6.121262 -18.321830 6.101196
Zn 9.176877 -18.321830 3.045581
Zn 6.121262 -15.266215 3.045581
Zn 9.176877 -15.266215 6.101196
Zn 6.121262 -18.321830 12.212425
Zn 9.176877 -18.321830 9.156810
Zn 6.121262 -15.266215 9.156810
Zn 9.176877 -15.266215 12.212425
Zn 6.121262 -12.210601 -12.232492
Zn 9.176877 -9.154986 -12.232492
Zn 6.121262 -12.210601 -6.121262
Zn 6.121262 -9.154986 -9.176877
Zn 9.176877 -9.154986 -6.121262
Zn 6.121262 -12.210601 -0.010033
Zn 9.176877 -12.210601 -3.065648
Zn 6.121262 -9.154986 -3.065648
Zn 9.176877 -9.154986 -0.010033
Zn 6.121262 -12.210601 6.101196
Zn 9.176877 -12.210601 3.045581
Zn 6.121262 -9.154986 3.045581
Zn 9.176877 -9.154986 6.101196
Zn 6.121262 -12.210601 12.212425
Zn 9.176877 -12.210601 9.156810
Zn 6.121262 -9.154986 9.156810
Zn 9.176877 -9.154986 12.212425
Zn 6.121262 -12.210601 18.323654
Zn 9.176877 -12.210601 15.268039
Zn 6.121262 -9.154986 15.268039
Zn 9.176877 -9.154986 18.323654
Zn 6.121262 -6.099372 -18.343721
Zn 9.176877 -3.043757 -18.343721
Zn 6.121262 -6.099372 -12.232492
Zn 9.176877 -6.099372 -15.288106
Zn 6.121262 -3.043757 -15.288106
Zn 9.176877 -3.043757 -12.232492
Zn 6.121262 -6.099372 -6.121262
Zn 9.176877 -6.099372 -9.176877
Zn 6.121262 -3.043757 -9.176877
Zn 9.176877 -3.043757 -6.121262
Zn 6.121262 -6.099372 -0.010033
Zn 9.176877 -6.099372 -3.065648
Zn 6.121262 -3.043757 -3.065648
Zn 9.176877 -3.043757 -0.010033
Zn 6.121262 -6.099372 6.101196
Zn 9.176877 -6.099372 3.045581
Zn 6.121262 -3.043757 3.045581
Zn 9.176877 -3.043757 6.101196
Zn 6.121262 -6.099372 12.212425
Zn 9.176877 -6.099372 9.156810
Zn 6.121262 -3.043757 9.156810
Zn 9.176877 -3.043757 12.212425
Zn 6.121262 -6.099372 18.323654
Zn 9.176877 -6.099372 15.268039
Zn 6.121262 -3.043757 15.268039
Zn 9.176877 -3.043757 18.323654
Zn 6.121262 0.011858 -18.343721
Zn 9.176877 3.067472 -18.343721
Zn 6.121262 0.011858 -12.232492
Zn 9.176877 0.011858 -15.288106
Zn 6.121262 3.067472 -15.288106
Zn 9.176877 3.067472 -12.232492
Zn 6.121262 0.011858 -6.121262
Zn 9.176877 0.011858 -9.176877
Zn 6.121262 3.067472 -9.176877
Zn 9.176877 3.067472 -6.121262
Zn 6.121262 0.011858 -0.010033
Zn 9.176877 0.011858 -3.065648
Zn 6.121262 3.067472 -3.065648
Zn 9.176877 3.067472 -0.010033
Zn 6.121262 0.011858 6.101196
Zn 9.176877 0.011858 3.045581
Zn 6.121262 3.067472 3.045581
Zn 9.176877 3.067472 6.101196
Zn 6.121262 0.011858 12.212425
Zn 9.176877 0.011858 9.156810
Zn 6.121262 3.067472 9.156810
Zn 9.176877 3.067472 12.212425
Zn 6.121262 0.011858 18.323654
Zn 9.176877 0.011858 15.268039
Zn 6.121262 3.067472 15.268039
Zn 9.176877 3.067472 18.323654
Zn 6.121262 6.123087 -18.343721
Zn 6.121262 6.123087 -12.232492
Zn 9.176877 6.123087 -15.288106
Zn 6.121262 9.178701 -15.288106
Zn 9.176877 9.178701 -12.232492
Zn 6.121262 6.123087 -6.121262
Zn 9.176877 6.123087 -9.176877
Zn 6.121262 9.178701 -9.176877
Zn 9.176877 9.178701 -6.121262
Zn 6.121262 6.123087 -0.010033
Zn 9.176877 6.123087 -3.065648
Zn 6.121262 9.178701 -3.065648
Zn 9.176877 9.178701 -0.010033
Zn 6.121262 6.123087 6.101196
Zn 9.176877 6.123087 3.045581
Zn 6.121262 9.178701 3.045581
Zn 9.176877 9.178701 6.101196
Zn 6.121262 6.123087 12.212425
Zn 9.176877 6.123087 9.156810
Zn 6.121262 9.178701 9.156810
Zn 9.176877 9.178701 12.212425
Zn 6.121262 6.123087 18.323654
Zn 9.176877 6.123087 15.268039
Zn 6.121262 12.234316 -18.343721
Zn 6.121262 12.234316 -12.232492
Zn 9.176877 12.234316 -15.288106
Zn 9.176877 15.289930 -12.232492
Zn 6.121262 12.234316 -6.121262
Zn 9.176877 12.234316 -9.176877
Zn 6.121262 15.289930 -9.176877
Zn 9.176877 15.289930 -6.121262
Zn 6.121262 12.234316 -0.010033
Zn 9.176877 12.234316 -3.065648
Zn 6.121262 15.289930 -3.065648
Zn 9.176877 15.289930 -0.010033
Zn 6.121262 12.234316 6.101196
Zn 9.176877 12.234316 3.045581
Zn 6.121262 15.289930 3.045581
Zn 9.176877 15.289930 6.101196
Zn 6.121262 12.234316 12.212425
Zn 6.121262 15.289930 9.156810
Zn 6.121262 18.345545 -12.232492
Zn 6.121262 18.345545 -6.121262
Zn 9.176877 18.345545 -9.176877
Zn 6.121262 18.345545 -0.010033
Zn 9.176877 18.345545 -3.065648
Zn 6.121262 18.345545 6.101196
Zn 9.176877 18.345545 3.045581
Zn 12.232492 -18.321830 -0.010033
Zn 15.288106 -15.266215 -0.010033
Zn 12.232492 -18.321830 6.101196
Zn 15.288106 -18.321830 3.045581
Zn 12.232492 -15.266215 3.045581
Zn 12.232492 -15.266215 9.156810
Zn 12.232492 -12.210601 -6.121262
Zn 12.232492 -9.154986 -9.176877
Zn 12.232492 -12.210601 -0.010033
Zn 15.288106 -12.210601 -3.065648
Zn 12.232492 -9.154986 -3.065648
Zn 15.288106 -9.154986 -0.010033
Zn 12.232492 -12.210601 6.101196
Zn 15.288106 -12.210601 3.045581
Zn 12.232492 -9.154986 3.045581
Zn 15.288106 -9.154986 6.101196
Zn 15.288106 -12.210601 9.156810
Zn 12.232492 -9.154986 9.156810
Zn 15.288106 -9.154986 12.212425
Zn 12.232492 -9.154986 15.268039
Zn 12.232492 -3.043757 -15.288106
Zn 15.288106 -3.043757 -12.232492
Zn 12.232492 -6.099372 -6.121262
Zn 15.288106 -6.099372 -9.176877
Zn 12.232492 -3.043757 -9.176877
Zn 15.288106 -3.043757 -6.121262
Zn 12.232492 -6.099372 -0.010033
Zn 15.288106 -6.099372 -3.065648
Zn 12.232492 -3.043757 -3.065648
Zn 15.288106 -3.043757 -0.010033
Zn 12.232492 -6.099372 6.101196
Zn 15.288106 -6.099372 3.045581
Zn 12.232492 -3.043757 3.045581
Zn 15.288106 -3.043757 6.101196
Zn 12.232492 -6.099372 12.212425
Zn 15.288106 -6.099372 9.156810
Zn 12.232492 -3.043757 9.156810
Zn 15.288106 -3.043757 12.212425
Zn 12.232492 -6.099372 18.323654
Zn 12.232492 -3.043757 15.268039
Zn 15.288106 -3.043757 18.323654
Zn 12.232492 0.011858 -18.343721
Zn 15.288106 3.067472 -18.343721
Zn 12.232492 0.011858 -12.232492
Zn 15.288106 0.011858 -15.288106
Zn 12.232492 3.067472 -15.288106
Zn 15.288106 3.067472 -12.232492
Zn 12.232492 0.011858 -6.121262
Zn 15.288106 0.011858 -9.176877
Zn 12.232492 3.067472 -9.176877
Zn 15.288106 3.067472 -6.121262
Zn 12.232492 0.011858 -0.010033
Zn 15.288106 0.011858 -3.065648
Zn 12.232492 3.067472 -3.065648
Zn 15.288106 3.067472 -0.010033
Zn 12.232492 0.011858 6.101196
Zn 15.288106 0.011858 3.045581
Zn 12.232492 3.067472 3.045581
Zn 15.288106 3.067472 6.101196
Zn 12.232492 0.011858 12.212425
Zn 15.288106 0.011858 9.156810
Zn 12.232492 3.067472 9.156810
Zn 15.288106 3.067472 12.212425
Zn 12.232492 0.011858 18.323654
Zn 15.288106 0.011858 15.268039
Zn 12.232492 3.067472 15.268039
Zn 12.232492 6.123087 -18.343721
Zn 12.232492 6.123087 -12.232492
Zn 12.232492 9.178701 -15.288106
Zn 15.288106 9.178701 -12.232492
Zn 12.232492 6.123087 -6.121262
Zn 15.288106 6.123087 -9.176877
Zn 12.232492 9.178701 -9.176877
Zn 15.288106 9.178701 -6.121262
Zn 12.232492 6.123087 -0.010033
Zn 15.288106 6.123087 -3.065648
Zn 12.232492 9.178701 -3.065648
Zn 15.288106 9.178701 -0.010033
Zn 12.232492 6.123087 6.101196
Zn 15.288106 6.123087 3.045581
Zn 12.232492 9.178701 3.045581
Zn 15.288106 6.123087 9.156810
Zn 12.232492 9.178701 9.156810
Zn 12.232492 12.234316 -6.121262
Zn 15.288106 12.234316 -9.176877
Zn 12.232492 15.289930 -9.176877
Zn 12.232492 12.234316 -0.010033
Zn 15.288106 12.234316 -3.065648
Zn 12.232492 15.289930 -3.065648
Zn 15.288106 15.289930 -0.010033
Zn 12.232492 12.234316 6.101196
Zn 15.288106 12.234316 3.045581
Zn 12.232492 18.345545 -6.121262
Zn 12.232492 18.345545 -0.010033
Zn 15.288106 18.345545 -3.065648
Zn 18.343721 -15.266215 3.045581
Zn 18.343721 -12.210601 -0.010033
Zn 18.343721 -9.154986 -3.065648
Zn 18.343721 -12.210601 6.101196
Zn 18.343721 -9.154986 3.045581
Zn 18.343721 -9.154986 9.156810
Zn 18.343721 -6.099372 -6.121262
Zn 18.343721 -3.043757 -9.176877
Zn 18.343721 -6.099372 -0.010033
Zn 18.343721 -3.043757 -3.065648
Zn 18.343721 -6.099372 6.101196
Zn 18.343721 -3.043757 3.045581
Zn 18.343721 -6.099372 12.212425
Zn 18.343721 -3.043757 9.156810
Zn 18.343721 -3.043757 15.268039
Zn 18.343721 0.011858 -12.232492
Zn 18.343721 3.067472 -15.288106
Zn 18.343721 0.011858 -6.121262
Zn 18.343721 3.067472 -9.176877
Zn 18.343721 0.011858 -0.010033
Zn 18.343721 3.067472 -3.065648
Zn 18.343721 0.011858 6.101196
Zn 18.343721 3.067472 3.045581
Zn 18.343721 0.011858 12.212425
Zn 18.343721 3.067472 9.156810
Zn 18.343721 6.123087 -12.232492
Zn 18.343721 6.123087 -6.121262
Zn 18.343721 9.178701 -9.176877
Zn 18.343721 6.123087 -0.010033
Zn 18.343721 9.178701 -3.065648
Zn 18.343721 6.123087 6.101196
Zn 18.343721 9.178701 3.045581
Zn 18.343721 12.234316 -6.121262
Zn 18.343721 12.234316 -0.010033
Zn 18.343721 15.289930 -3.065648
Te -16.795847 -13.738408 -4.593455
Te -13.740232 -13.738408 -7.649070
Te -13.740232 -16.794022 -4.593455
Te -13.740232 -13.738408 -1.537841
Te -13.740232 -16.794022 1.517774
Te -16.795847 -7.627179 -10.704684
Te -13.740232 -7.627179 -13.760299
Te -13.740232 -10.682793 -10.704684
Te -16.795847 -10.682793 -7.649070
Te -16.795847 -7.627179 -4.593455
Te -13.740232 -7.627179 -7.649070
Te -13.740232 -10.682793 -4.593455
Te -16.795847 -10.682793 -1.537841
Te -16.795847 -7.627179 1.517774
Te -13.740232 -7.627179 -1.537841
Te -13.740232 -10.682793 1.517774
Te -16.795847 -7.627179 7.629003
Te -13.740232 -7.627179 4.573388
Te -13.740232 -4.571564 -16.815913
Te -16.795847 -4.571564 -13.760299
Te -16.795847 -1.515950 -10.704684
Te -13.740232 -1.515950 -13.760299
Te -13.740232 -4.571564 -10.704684
Te -16.795847 -4.571564 -7.649070
Te -16.795847 -1.515950 -4.593455
Te -13.740232 -1.515950 -7.649070
Te -13.740232 -4.571564 -4.593455
Te -16.795847 -4.571564 -1.537841
Te -16.795847 -1.515950 1.517774
Te -13.740232 -1.515950 -1.537841
Te -13.740232 -4.571564 1.517774
Te -16.795847 -4.571564 4.573388
Te -16.795847 -1.515950 7.629003
Te -13.740232 -1.515950 4.573388
Te -13.740232 -4.571564 7.629003
Te -13.740232 -1.515950 10.684618
Te -13.740232 -1.515950 16.795847
Te -16.795847 1.539665 -13.760299
Te -13.740232 1.539665 -10.704684
Te -16.795847 1.539665 -7.649070
Te -16.795847 4.595279 -4.593455
Te -13.740232 4.595279 -7.649070
Te -13.740232 1.539665 -4.593455
Te -16.795847 1.539665 -1.537841
Te -16.795847 4.595279 1.517774
Te -13.740232 4.595279 -1.537841
Te -13.740232 1.539665 1.517774
Te -16.795847 1.539665 4.573388
Te -16.795847 4.595279 7.629003
Te -13.740232 4.595279 4.573388
Te -13.740232 1.539665 7.629003
Te -16.795847 1.539665 10.684618
Te -16.795847 4.595279 13.740232
Te -13.740232 4.595279 10.684618
Te -13.740232 1.539665 13.740232
Te -13.740232 4.595279 16.795847
Te -16.795847 10.706509 -4.593455
Te -13.740232 7.650894 -4.593455
Te -16.795847 7.650894 -1.537841
Te -16.795847 10.706509 1.517774
Te -13.740232 10.706509 -1.537841
Te -13.740232 7.650894 1.517774
Te -16.795847 7.650894 4.573388
Te -16.795847 10.706509 7.629003
Te -13.740232 10.706509 4.573388
Te -13.740232 7.650894 7.629003
Te -16.795847 7.650894 10.684618
Te -13.740232 10.706509 10.684618
Te -13.740232 7.650894 13.740232
Te -16.795847 16.817738 1.517774
Te -13.740232 13.762123 1.517774
Te -16.795847 13.762123 4.573388
Te -13.740232 16.817738 4.573388
Te -13.740232 13.762123 7.629003
Te -10.684618 -13.738408 -10.704684
Te -7.629003 -13.738408 -13.760299
Te -7.629003 -16.794022 -10.704684
Te -10.684618 -16.794022 -7.649070
Te -10.684618 -13.738408 -4.593455
Te -7.629003 -13.738408 -7.649070
Te -7.629003 -16.794022 -4.593455
Te -10.684618 -16.794022 -1.537841
Te -10.684618 -13.738408 1.517774
Te -7.629003 -13.738408 -1.537841
Te -7.629003 -16.794022 1.517774
Te -7.629003 -13.738408 4.573388
Te -10.684618 -7.627179 -16.815913
Te -7.629003 -10.682793 -16.815913
Te -10.684618 -10.682793 -13.760299
Te -10.684618 -7.627179 -10.704684
Te -7.629003 -7.627179 -13.760299
Te -7.629003 -10.682793 -10.704684
Te -10.684618 -10.682793 -7.649070
Te -10.684618 -7.627179 -4.593455
Te -7.629003 -7.627179 -7.649070
Te -7.629003 -10.682793 -4.593455
Te -10.684618 -10.682793 -1.537841
Te -10.684618 -7.627179 1.517774
Te -7.629003 -7.627179 -1.537841
Te -7.629003 -10.682793 1.517774
Te -10.684618 -10.682793 4.573388
Te -10.684618 -7.627179 7.629003
Te -7.629003 -7.627179 4.573388
Te -7.629003 -10.682793 7.629003
Te -7.629003 -7.627179 10.684618
Te -10.684618 -1.515950 -16.815913
Te -7.629003 -4.571564 -16.815913
Te -10.684618 -4.571564 -13.760299
Te -10.684618 -1.515950 -10.704684
Te -7.629003 -1.515950 -13.760299
Te -7.629003 -4.571564 -10.704684
Te -10.684618 -4.571564 -7.649070
Te -10.684618 -1.515950 -4.593455
Te -7.629003 -1.515950 -7.649070
Te -7.629003 -4.571564 -4.593455
Te -10.684618 -4.571564 -1.537841
Te -10.684618 -1.515950 1.517774
Te -7.629003 -1.515950 -1.537841
Te -7.629003 -4.571564 1.517774
Te -10.684618 -4.571564 4.573388
Te -10.684618 -1.515950 7.629003
Te -7.629003 -1.515950 4.573388
Te -7.629003 -4.571564 7.629003
Te -10.684618 -4.571564 10.684618
Te -10.684618 -1.515950 13.740232
Te -7.629003 -1.515950 10.684618
Te -7.629003 -4.571564 13.740232
Te -7.629003 -1.515950 16.795847
Te -7.629003 1.539665 -16.815913
Te -10.684618 1.539665 -13.760299
Te -10.684618 4.595279 -10.704684
Te -7.629003 4.595279 -13.760299
Te -7.629003 1.539665 -10.704684
Te -10.684618 1.539665 -7.649070
Te -10.684618 4.595279 -4.593455
Te -7.629003 4.595279 -7.649070
Te -7.629003 1.539665 -4.593455
Te -10.684618 1.539665 -1.537841
Te -10.684618 4.595279 1.517774
Te -7.629003 4.595279 -1.537841
Te -7.629003 1.539665 1.517774
Te -10.684618 1.539665 4.573388
Te -10.684618 4.595279 7.629003
Te -7.629003 4.595279 4.573388
Te -7.629003 1.539665 7.629003
Te -10.684618 1.539665 10.684618
Te -10.684618 4.595279 13.740232
Te -7.629003 4.595279 10.684618
Te -7.629003 1.539665 13.740232
Te -10.684618 1.539665 16.795847
Te -7.629003 4.595279 16.795847
Te -7.629003 7.650894 -16.815913
Te -7.629003 7.650894 -10.704684
Te -10.684618 7.650894 -7.649070
Te -10.684618 10.706509 -4.593455
Te -7.629003 10.706509 -7.649070
Te -7.629003 7.650894 -4.593455
Te -10.684618 7.650894 -1.537841
Te -10.684618 10.706509 1.517774
Te -7.629003 10.706509 -1.537841
Te -7.629003 7.650894 1.517774
Te -10.684618 7.650894 4.573388
Te -10.684618 10.706509 7.629003
Te -7.629003 10.706509 4.573388
Te -7.629003 7.650894 7.629003
Te -10.684618 7.650894 10.684618
Te -10.684618 10.706509 13.740232
Te -7.629003 10.706509 10.684618
Te -7.629003 7.650894 13.740232
Te -10.684618 7.650894 16.795847
Te -7.629003 10.706509 16.795847
Te -10.684618 16.817738 -4.593455
Te -7.629003 13.762123 -4.593455
Te -10.684618 13.762123 -1.537841
Te -10.684618 16.817738 1.517774
Te -7.629003 16.817738 -1.537841
Te -7.629003 13.762123 1.517774
Te -10.684618 13.762123 4.573388
Te -10.684618 16.817738 7.629003
Te -7.629003 16.817738 4.573388
Te -7.629003 13.762123 7.629003
Te -10.684618 13.762123 10.684618
Te -7.629003 16.817738 10.684618
Te -7.629003 13.762123 13.740232
Te -4.573388 -13.738408 -16.815913
Te -4.573388 -16.794022 -13.760299
Te -4.573388 -13.738408 -10.704684
Te -1.517774 -13.738408 -13.760299
Te -1.517774 -16.794022 -10.704684
Te -4.573388 -16.794022 -7.649070
Te -4.573388 -13.738408 -4.593455
Te -1.517774 -13.738408 -7.649070
Te -1.517774 -16.794022 -4.593455
Te -4.573388 -16.794022 -1.537841
Te -4.573388 -13.738408 1.517774
Te -1.517774 -13.738408 -1.537841
Te -1.517774 -16.794022 1.517774
Te -4.573388 -16.794022 4.573388
Te -4.573388 -13.738408 7.629003
Te -1.517774 -13.738408 4.573388
Te -1.517774 -16.794022 7.629003
Te -4.573388 -16.794022 10.684618
Te -1.517774 -13.738408 10.684618
Te -4.573388 -7.627179 -16.815913
Te -1.517774 -10.682793 -16.815913
Te -4.573388 -10.682793 -13.760299
Te -4.573388 -7.627179 -10.704684
Te -1.517774 -7.627179 -13.760299
Te -1.517774 -10.682793 -10.704684
Te -4.573388 -10.682793 -7.649070
Te -4.573388 -7.627179 -4.593455
Te -1.517774 -7.627179 -7.649070
Te -1.517774 -10.682793 -4.593455
Te -4.573388 -10.682793 -1.537841
Te -4.573388 -7.627179 1.517774
Te -1.517774 -7.627179 -1.537841
Te -1.517774 -10.682793 1.517774
Te -4.573388 -10.682793 4.573388
Te -4.573388 -7.627179 7.629003
Te -1.517774 -7.627179 4.573388
Te -1.517774 -10.682793 7.629003
Te -4.573388 -10.682793 10.684618
Te -4.573388 -7.627179 13.740232
Te -1.517774 -7.627179 10.684618
Te -1.517774 -10.682793 13.740232
Te -4.573388 -10.682793 16.795847
Te -1.517774 -7.627179 16.795847
Te -4.573388 -1.515950 -16.815913
Te -1.517774 -4.571564 -16.815913
Te -4.573388 -4.571564 -13.760299
Te -4.573388 -1.515950 -10.704684
Te -1.517774 -1.515950 -13.760299
Te -1.517774 -4.571564 -10.704684
Te -4.573388 -4.571564 -7.649070
Te -4.573388 -1.515950 -4.593455
Te -1.517774 -1.515950 -7.649070
Te -1.517774 -4.571564 -4.593455
Te -4.573388 -4.571564 -1.537841
Te -4.573388 -1.515950 1.517774
Te -1.517774 -1.515950 -1.537841
Te -1.517774 -4.571564 1.517774
Te -4.573388 -4.571564 4.573388
Te -4.573388 -1.515950 7.629003
Te -1.517774 -1.515950 4.573388
Te -1.517774 -4.571564 7.629003
Te -4.573388 -4.571564 10.684618
Te -4.573388 -1.515950 13.740232
Te -1.517774 -1.515950 10.684618
Te -1.517774 -4.571564 13.740232
Te -4.573388 -4.571564 16.795847
Te -1.517774 -1.515950 16.795847
Te -4.573388 4.595279 -16.815913
Te -1.517774 1.539665 -16.815913
Te -4.573388 1.539665 -13.760299
Te -4.573388 4.595279 -10.704684
Te -1.517774 4.595279 -13.760299
Te -1.517774 1.539665 -10.704684
Te -4.573388 1.539665 -7.649070
Te -4.573388 4.595279 -4.593455
Te -1.517774 4.595279 -7.649070
Te -1.517774 1.539665 -4.593455
Te -4.573388 1.539665 -1.537841
Te -4.573388 4.595279 1.517774
Te -1.517774 4.595279 -1.537841
Te -1.517774 1.539665 1.517774
Te -4.573388 1.539665 4.573388
Te -4.573388 4.595279 7.629003
Te -1.517774 4.595279 4.573388
Te -1.517774 1.539665 7.629003
Te -4.573388 1.539665 10.684618
Te -4.573388 4.595279 13.740232
Te -1.517774 4.595279 10.684618
Te -1.517774 1.539665 13.740232
Te -4.573388 1.539665 16.795847
Te -1.517774 4.595279 16.795847
Te -1.517774 7.650894 -16.815913
Te -4.573388 7.650894 -13.760299
Te -4.573388 10.706509 -10.704684
Te -1.517774 10.706509 -13.760299
Te -1.517774 7.650894 -10.704684
Te -4.573388 7.650894 -7.649070
Te -4.573388 10.706509 -4.593455
Te -1.517774 10.706509 -7.649070
Te -1.517774 7.650894 -4.593455
Te -4.573388 7.650894 -1.537841
Te -4.573388 10.706509 1.517774
Te -1.517774 10.706509 -1.537841
Te -1.517774 7.650894 1.517774
Te -4.573388 7.650894 4.573388
Te -4.573388 10.706509 7.629003
Te -1.517774 10.706509 4.573388
Te -1.517774 7.650894 7.629003
Te -4.573388 7.650894 10.684618
Te -4.573388 10.706509 13.740232
Te -1.517774 10.706509 10.684618
Te -1.517774 7.650894 13.740232
Te -4.573388 7.650894 16.795847
Te -1.517774 10.706509 16.795847
Te -1.517774 16.817738 -13.760299
Te -1.517774 13.762123 -10.704684
Te -4.573388 13.762123 -7.649070
Te -4.573388 16.817738 -4.593455
Te -1.517774 16.817738 -7.649070
Te -1.517774 13.762123 -4.593455
Te -4.573388 13.762123 -1.537841
Te -4.573388 16.817738 1.517774
Te -1.517774 16.817738 -1.537841
Te -1.517774 13.762123 1.517774
Te -4.573388 13.762123 4.573388
Te -4.573388 16.817738 7.629003
Te -1.517774 16.817738 4.573388
Te -1.517774 13.762123 7.629003
Te -4.573388 13.762123 10.684618
Te -4.573388 16.817738 13.740232
Te -1.517774 16.817738 10.684618
Te -1.517774 13.762123 13.740232
Te -4.573388 13.762123 16.795847
Te 1.537841 -13.738408 -16.815913
Te 1.537841 -13.738408 -10.704684
Te 1.537841 -16.794022 -7.649070
Te 1.537841 -13.738408 -4.593455
Te 4.593455 -13.738408 -7.649070
Te 4.593455 -16.794022 -4.593455
Te 1.537841 -16.794022 -1.537841
Te 1.537841 -13.738408 1.517774
Te 4.593455 -13.738408 -1.537841
Te 4.593455 -16.794022 1.517774
Te 1.537841 -16.794022 4.573388
Te 1.537841 -13.738408 7.629003
Te 4.593455 -13.738408 4.573388
Te 4.593455 -16.794022 7.629003
Te 1.537841 -16.794022 10.684618
Te 1.537841 -13.738408 13.740232
Te 4.593455 -13.738408 10.684618
Te 4.593455 -16.794022 13.740232
Te 1.537841 -16.794022 16.795847
Te 4.593455 -13.738408 16.795847
Te 1.537841 -7.627179 -16.815913
Te 1.537841 -10.682793 -13.760299
Te 1.537841 -7.627179 -10.704684
Te 4.593455 -7.627179 -13.760299
Te 4.593455 -10.682793 -10.704684
Te 1.537841 -10.682793 -7.649070
Te 1.537841 -7.627179 -4.593455
Te 4.593455 -7.627179 -7.649070
Te 4.593455 -10.682793 -4.593455
Te 1.537841 -10.682793 -1.537841
Te 1.537841 -7.627179 1.517774
Te 4.593455 -7.627179 -1.537841
Te 4.593455 -10.682793 1.517774
Te 1.537841 -10.682793 4.573388
Te 1.537841 -7.627179 7.629003
Te 4.593455 -7.627179 4.573388
Te 4.593455 -10.682793 7.629003
Te 1.537841 -10.682793 10.684618
Te 1.537841 -7.627179 13.740232
Te 4.593455 -7.627179 10.684618
Te 4.593455 -10.682793 13.740232
Te 1.537841 -10.682793 16.795847
Te 4.593455 -7.627179 16.795847
Te 1.537841 -1.515950 -16.815913
Te 4.593455 -4.571564 -16.815913
Te 1.537841 -4.571564 -13.760299
Te 1.537841 -1.515950 -10.704684
Te 4.593455 -1.515950 -13.760299
Te 4.593455 -4.571564 -10.704684
Te 1.537841 -4.571564 -7.649070
Te 1.537841 -1.515950 -4.593455
Te 4.593455 -1.515950 -7.649070
Te 4.593455 -4.571564 -4.593455
Te 1.537841 -4.571564 -1.537841
Te 1.537841 -1.515950 1.517774
Te 4.593455 -1.515950 -1.537841
Te 4.593455 -4.571564 1.517774
Te 1.537841 -4.571564 4.573388
Te 1.537841 -1.515950 7.629003
Te 4.593455 -1.515950 4.573388
Te 4.593455 -4.571564 7.629003
Te 1.537841 -4.571564 10.684618
Te 1.537841 -1.515950 13.740232
Te 4.593455 -1.515950 10.684618
Te 4.593455 -4.571564 13.740232
Te 1.537841 -4.571564 16.795847
Te 4.593455 -1.515950 16.795847
Te 1.537841 4.595279 -16.815913
Te 4.593455 1.539665 -16.815913
Te 1.537841 1.539665 -13.760299
Te 1.537841 4.595279 -10.704684
Te 4.593455 4.595279 -13.760299
Te 4.593455 1.539665 -10.704684
Te 1.537841 1.539665 -7.649070
Te 1.537841 4.595279 -4.593455
Te 4.593455 4.595279 -7.649070
Te 4.593455 1.539665 -4.593455
Te 1.537841 1.539665 -1.537841
Te 1.537841 4.595279 1.517774
Te 4.593455 4.595279 -1.537841
Te 4.593455 1.539665 1.517774
Te 1.537841 1.539665 4.573388
Te 1.537841 4.595279 7.629003
Te 4.593455 4.595279 4.573388
Te 4.593455 1.539665 7.629003
Te 1.537841 1.539665 10.684618
Te 1.537841 4.595279 13.740232
Te 4.593455 4.595279 10.684618
Te 4.593455 1.539665 13.740232
Te 1.537841 1.539665 16.795847
Te 4.593455 4.595279 16.795847
Te 1.537841 10.706509 -16.815913
Te 4.593455 7.650894 -16.815913
Te 1.537841 7.650894 -13.760299
Te 1.537841 10.706509 -10.704684
Te 4.593455 10.706509 -13.760299
Te 4.593455 7.650894 -10.704684
Te 1.537841 7.650894 -7.649070
Te 1.537841 10.706509 -4.593455
Te 4.593455 10.706509 -7.649070
Te 4.593455 7.650894 -4.593455
Te 1.537841 7.650894 -1.537841
Te 1.537841 10.706509 1.517774
Te 4.593455 10.706509 -1.537841
Te 4.593455 7.650894 1.517774
Te 1.537841 7.650894 4.573388
Te 1.537841 10.706509 7.629003
Te 4.593455 10.706509 4.573388
Te 4.593455 7.650894 7.629003
Te 1.537841 7.650894 10.684618
Te 1.537841 10.706509 13.740232
Te 4.593455 10.706509 10.684618
Te 4.593455 7.650894 13.740232
Te 1.537841 7.650894 16.795847
Te 4.593455 13.762123 -16.815913
Te 1.537841 13.762123 -13.760299
Te 1.537841 16.817738 -10.704684
Te 4.593455 16.817738 -13.760299
Te 4.593455 13.762123 -10.704684
Te 1.537841 13.762123 -7.649070
Te 1.537841 16.817738 -4.593455
Te 4.593455 16.817738 -7.649070
Te 4.593455 13.762123 -4.593455
Te 1.537841 13.762123 -1.537841
Te 1.537841 16.817738 1.517774
Te 4.593455 16.817738 -1.537841
Te 4.593455 13.762123 1.517774
Te 1.537841 13.762123 4.573388
Te 1.537841 16.817738 7.629003
Te 4.593455 16.817738 4.573388
Te 4.593455 13.762123 7.629003
Te 1.537841 13.762123 10.684618
Te 1.537841 13.762123 16.795847
Te 7.649070 -16.794022 -7.649070
Te 7.649070 -13.738408 -4.593455
Te 7.649070 -16.794022 -1.537841
Te 7.649070 -13.738408 1.517774
Te 10.704684 -13.738408 -1.537841
Te 10.704684 -16.794022 1.517774
Te 7.649070 -16.794022 4.573388
Te 7.649070 -13.738408 7.629003
Te 10.704684 -13.738408 4.573388
Te 10.704684 -16.794022 7.629003
Te 7.649070 -16.794022 10.684618
Te 7.649070 -13.738408 13.740232
Te 10.704684 -13.738408 10.684618
Te 7.649070 -7.627179 -10.704684
Te 7.649070 -10.682793 -7.649070
Te 7.649070 -7.627179 -4.593455
Te 10.704684 -7.627179 -7.649070
Te 10.704684 -10.682793 -4.593455
Te 7.649070 -10.682793 -1.537841
Te 7.649070 -7.627179 1.517774
Te 10.704684 -7.627179 -1.537841
Te 10.704684 -10.682793 1.517774
Te 7.649070 -10.682793 4.573388
Te 7.649070 -7.627179 7.629003
Te 10.704684 -7.627179 4.573388
Te 10.704684 -10.682793 7.629003
Te 7.649070 -10.682793 10.684618
Te 7.649070 -7.627179 13.740232
Te 10.704684 -7.627179 10.684618
Te 10.704684 -10.682793 13.740232
Te 7.649070 -10.682793 16.795847
Te 10.704684 -7.627179 16.795847
Te 7.649070 -1.515950 -16.815913
Te 7.649070 -4.571564 -13.760299
Te 7.649070 -1.515950 -10.704684
Te 10.704684 -1.515950 -13.760299
Te 10.704684 -4.571564 -10.704684
Te 7.649070 -4.571564 -7.649070
Te 7.649070 -1.515950 -4.593455
Te 10.704684 -1.515950 -7.649070
Te 10.704684 -4.571564 -4.593455
Te 7.649070 -4.571564 -1.537841
Te 7.649070 -1.515950 1.517774
Te 10.704684 -1.515950 -1.537841
Te 10.704684 -4.571564 1.517774
Te 7.649070 -4.571564 4.573388
Te 7.649070 -1.515950 7.629003
Te 10.704684 -1.515950 4.573388
Te 10.704684 -4.571564 7.629003
Te 7.649070 -4.571564 10.684618
Te 7.649070 -1.515950 13.740232
Te 10.704684 -1.515950 10.684618
Te 10.704684 -4.571564 13.740232
Te 7.649070 -4.571564 16.795847
Te 10.704684 -1.515950 16.795847
Te 7.649070 4.595279 -16.815913
Te 10.704684 1.539665 -16.815913
Te 7.649070 1.539665 -13.760299
Te 7.649070 4.595279 -10.704684
Te 10.704684 4.595279 -13.760299
Te 10.704684 1.539665 -10.704684
Te 7.649070 1.539665 -7.649070
Te 7.649070 4.595279 -4.593455
Te 10.704684 4.595279 -7.649070
Te 10.704684 1.539665 -4.593455
Te 7.649070 1.539665 -1.537841
Te 7.649070 4.595279 1.517774
Te 10.704684 4.595279 -1.537841
Te 10.704684 1.539665 1.517774
Te 7.649070 1.539665 4.573388
Te 7.649070 4.595279 7.629003
Te 10.704684 4.595279 4.573388
Te 10.704684 1.539665 7.629003
Te 7.649070 1.539665 10.684618
Te 7.649070 4.595279 13.740232
Te 10.704684 4.595279 10.684618
Te 10.704684 1.539665 13.740232
Te 7.649070 1.539665 16.795847
Te 10.704684 4.595279 16.795847
Te 7.649070 10.706509 -16.815913
Te 10.704684 7.650894 -16.815913
Te 7.649070 7.650894 -13.760299
Te 7.649070 10.706509 -10.704684
Te 10.704684 10.706509 -13.760299
Te 10.704684 7.650894 -10.704684
Te 7.649070 7.650894 -7.649070
Te 7.649070 10.706509 -4.593455
Te 10.704684 10.706509 -7.649070
Te 10.704684 7.650894 -4.593455
Te 7.649070 7.650894 -1.537841
Te 7.649070 10.706509 1.517774
Te 10.704684 10.706509 -1.537841
Te 10.704684 7.650894 1.517774
Te 7.649070 7.650894 4.573388
Te 7.649070 10.706509 7.629003
Te 10.704684 10.706509 4.573388
Te 10.704684 7.650894 7.629003
Te 7.649070 7.650894 10.684618
Te 7.649070 13.762123 -13.760299
Te 7.649070 16.817738 -10.704684
Te 10.704684 13.762123 -10.704684
Te 7.649070 13.762123 -7.649070
Te 7.649070 16.817738 -4.593455
Te 10.704684 16.817738 -7.649070
Te 10.704684 13.762123 -4.593455
Te 7.649070 13.762123 -1.537841
Te 7.649070 16.817738 1.517774
Te 10.704684 16.817738 -1.537841
Te 10.704684 13.762123 1.517774
Te 7.649070 13.762123 4.573388
Te 7.649070 16.817738 7.629003
Te 13.760299 -13.738408 1.517774
Te 16.815913 -13.738408 -1.537841
Te 13.760299 -16.794022 4.573388
Te 13.760299 -13.738408 7.629003
Te 16.815913 -13.738408 4.573388
Te 13.760299 -7.627179 -4.593455
Te 13.760299 -10.682793 -1.537841
Te 13.760299 -7.627179 1.517774
Te 16.815913 -7.627179 -1.537841
Te 16.815913 -10.682793 1.517774
Te 13.760299 -10.682793 4.573388
Te 13.760299 -7.627179 7.629003
Te 16.815913 -7.627179 4.573388
Te 16.815913 -10.682793 7.629003
Te 13.760299 -10.682793 10.684618
Te 13.760299 -7.627179 13.740232
Te 16.815913 -7.627179 10.684618
Te 13.760299 -1.515950 -16.815913
Te 13.760299 -1.515950 -10.704684
Te 16.815913 -4.571564 -10.704684
Te 13.760299 -4.571564 -7.649070
Te 13.760299 -1.515950 -4.593455
Te 16.815913 -1.515950 -7.649070
Te 16.815913 -4.571564 -4.593455
Te 13.760299 -4.571564 -1.537841
Te 13.760299 -1.515950 1.517774
Te 16.815913 -1.515950 -1.537841
Te 16.815913 -4.571564 1.517774
Te 13.760299 -4.571564 4.573388
Te 13.760299 -1.515950 7.629003
Te 16.815913 -1.515950 4.573388
Te 16.815913 -4.571564 7.629003
Te 13.760299 -4.571564 10.684618
Te 13.760299 -1.515950 13.740232
Te 16.815913 -1.515950 10.684618
Te 16.815913 -4.571564 13.740232
Te 13.760299 -4.571564 16.795847
Te 16.815913 -1.515950 16.795847
Te 13.760299 4.595279 -16.815913
Te 13.760299 1.539665 -13.760299
Te 13.760299 4.595279 -10.704684
Te 16.815913 4.595279 -13.760299
Te 16.815913 1.539665 -10.704684
Te 13.760299 1.539665 -7.649070
Te 13.760299 4.595279 -4.593455
Te 16.815913 4.595279 -7.649070
Te 16.815913 1.539665 -4.593455
Te 13.760299 1.539665 -1.537841
Te 13.760299 4.595279 1.517774
Te 16.815913 4.595279 -1.537841
Te 16.815913 1.539665 1.517774
Te 13.760299 1.539665 4.573388
Te 13.760299 4.595279 7.629003
Te 16.815913 4.595279 4.573388
Te 16.815913 1.539665 7.629003
Te 13.760299 1.539665 10.684618
Te 16.815913 4.595279 10.684618
Te 13.760299 7.650894 -13.760299
Te 13.760299 10.706509 -10.704684
Te 16.815913 7.650894 -10.704684
Te 13.760299 7.650894 -7.649070
Te 13.760299 10.706509 -4.593455
Te 16.815913 10.706509 -7.649070
Te 16.815913 7.650894 -4.593455
Te 13.760299 7.650894 -1.537841
Te 13.760299 10.706509 1.517774
Te 16.815913 10.706509 -1.537841
Te 16.815913 7.650894 1.517774
Te 13.760299 7.650894 4.573388
Te 13.760299 13.762123 -7.649070
Te 13.760299 16.817738 -4.593455
Te 16.815913 13.762123 -4.593455
Te 13.760299 13.762123 -1.537841
Te 16.815913 13.762123 1.517774
Cl -19.851461 -13.738408 -1.537841
Cl -19.851461 -7.627179 -7.649070
Cl -19.851461 -10.682793 -4.593455
Cl -19.851461 -7.627179 -1.537841
Cl -19.851461 -10.682793 1.517774
Cl -19.851461 -7.627179 4.573388
Cl -19.851461 -1.515950 -13.760299
Cl -19.851461 -4.571564 -10.704684
Cl -19.851461 -1.515950 -7.649070
Cl -19.851461 -4.571564 -4.593455
Cl -19.851461 -1.515950 -1.537841
Cl -19.851461 -4.571564 1.517774
Cl -19.851461 -1.515950 4.573388
Cl -19.851461 -4.571564 7.629003
Cl -19.851461 -1.515950 10.684618
Cl -19.851461 1.539665 -10.704684
Cl -19.851461 4.595279 -7.649070
Cl -19.851461 1.539665 -4.593455
Cl -19.851461 4.595279 -1.537841
Cl -19.851461 1.539665 1.517774
Cl -19.851461 4.595279 4.573388
Cl -19.851461 1.539665 7.629003
Cl -19.851461 4.595279 10.684618
Cl -19.851461 1.539665 13.740232
Cl -19.851461 7.650894 -4.593455
Cl -19.851461 10.706509 -1.537841
Cl -19.851461 7.650894 1.517774
Cl -19.851461 10.706509 4.573388
Cl -19.851461 7.650894 7.629003
Cl -19.851461 13.762123 1.517774
Cl -13.740232 -19.849637 -1.537841
Cl -16.795847 -16.794022 -1.537841
Cl -16.795847 -13.738408 1.517774
Cl -13.740232 -13.738408 4.573388
Cl -16.795847 -10.682793 4.573388
Cl -13.740232 -10.682793 7.629003
Cl -13.740232 -7.627179 10.684618
Cl -16.795847 -1.515950 -16.815913
Cl -13.740232 -1.515950 -19.871528
Cl -16.795847 -4.571564 10.684618
Cl -16.795847 -1.515950 13.740232
Cl -13.740232 -4.571564 13.740232
Cl -13.740232 1.539665 -16.815913
Cl -16.795847 4.595279 -10.704684
Cl -13.740232 4.595279 -13.760299
Cl -16.795847 1.539665 16.795847
Cl -13.740232 1.539665 19.851461
Cl -13.740232 7.650894 -10.704684
Cl -16.795847 7.650894 -7.649070
Cl -13.740232 10.706509 -7.649070
Cl -13.740232 13.762123 -4.593455
Cl -16.795847 13.762123 -1.537841
Cl -13.740232 16.817738 -1.537841
Cl -13.740232 19.873352 1.517774
Cl -10.684618 -19.849637 -4.593455
Cl -7.629003 -19.849637 -7.649070
Cl -10.684618 -19.849637 1.517774
Cl -7.629003 -19.849637 -1.537841
Cl -7.629003 -19.849637 4.573388
Cl -10.684618 -16.794022 4.573388
Cl -10.684618 -13.738408 7.629003
Cl -7.629003 -16.794022 7.629003
Cl -7.629003 -13.738408 10.684618
Cl -7.629003 -7.627179 -19.871528
Cl -10.684618 -10.682793 10.684618
Cl -10.684618 -7.627179 13.740232
Cl -7.629003 -10.682793 13.740232
Cl -7.629003 -7.627179 16.795847
Cl -10.684618 -4.571564 -19.871528
Cl -7.629003 -1.515950 -19.871528
Cl -10.684618 -4.571564 16.795847
Cl -10.684618 -1.515950 19.851461
Cl -7.629003 -4.571564 19.851461
Cl -10.684618 1.539665 -19.871528
Cl -10.684618 4.595279 -16.815913
Cl -7.629003 4.595279 -19.871528
Cl -10.684618 4.595279 19.851461
Cl -7.629003 1.539665 19.851461
Cl -10.684618 7.650894 -13.760299
Cl -10.684618 10.706509 -10.704684
Cl -7.629003 10.706509 -13.760299
Cl -7.629003 7.650894 19.851461
Cl -7.629003 13.762123 -10.704684
Cl -10.684618 13.762123 -7.649070
Cl -7.629003 16.817738 -7.649070
Cl -7.629003 19.873352 -4.593455
Cl -10.684618 19.873352 -1.537841
Cl -7.629003 19.873352 1.517774
Cl -10.684618 19.873352 4.573388
Cl -7.629003 19.873352 7.629003
Cl -4.573388 -19.849637 -10.704684
Cl -1.517774 -19.849637 -13.760299
Cl -4.573388 -19.849637 -4.593455
Cl -1.517774 -19.849637 -7.649070
Cl -4.573388 -19.849637 1.517774
Cl -1.517774 -19.849637 -1.537841
Cl -4.573388 -19.849637 7.629003
Cl -1.517774 -19.849637 4.573388
Cl -1.517774 -19.849637 10.684618
Cl -1.517774 -13.738408 -19.871528
Cl -1.517774 -16.794022 -16.815913
Cl -4.573388 -13.738408 13.740232
Cl -1.517774 -16.794022 13.740232
Cl -1.517774 -13.738408 16.795847
Cl -4.573388 -10.682793 -19.871528
Cl -1.517774 -7.627179 -19.871528
Cl -4.573388 -7.627179 19.851461
Cl -1.517774 -10.682793 19.851461
Cl -4.573388 -4.571564 -19.871528
Cl -1.517774 -1.515950 -19.871528
Cl -4.573388 -1.515950 19.851461
Cl -1.517774 -4.571564 19.851461
Cl -4.573388 1.539665 -19.871528
Cl -1.517774 4.595279 -19.871528
Cl -4.573388 4.595279 19.851461
Cl -1.517774 1.539665 19.851461
Cl -4.573388 7.650894 -19.871528
Cl -4.573388 10.706509 -16.815913
Cl -1.517774 10.706509 -19.871528
Cl -4.573388 10.706509 19.851461
Cl -1.517774 7.650894 19.851461
Cl -1.517774 13.762123 -16.815913
Cl -4.573388 13.762123 -13.760299
Cl -4.573388 16.817738 -10.704684
Cl -1.517774 16.817738 16.795847
Cl -1.517774 13.762123 19.851461
Cl -1.517774 19.873352 -10.704684
Cl -4.573388 19.873352 -7.649070
Cl -1.517774 19.873352 -4.593455
Cl -4.573388 19.873352 -1.537841
Cl -1.517774 19.873352 1.517774
Cl -4.573388 19.873352 4.573388
Cl -1.517774 19.873352 7.629003
Cl -4.573388 19.873352 10.684618
Cl -1.517774 19.873352 13.740232
Cl 1.537841 -19.849637 -10.704684
Cl 1.537841 -19.849637 -4.593455
Cl 4.593455 -19.849637 -7.649070
Cl 1.537841 -19.849637 1.517774
Cl 4.593455 -19.849637 -1.537841
Cl 1.537841 -19.849637 7.629003
Cl 4.593455 -19.849637 4.573388
Cl 1.537841 -19.849637 13.740232
Cl 4.593455 -19.849637 10.684618
Cl 1.537841 -16.794022 -13.760299
Cl 4.593455 -13.738408 -13.760299
Cl 4.593455 -16.794022 -10.704684
Cl 1.537841 -13.738408 19.851461
Cl 1.537841 -10.682793 -19.871528
Cl 4.593455 -7.627179 -19.871528
Cl 4.593455 -10.682793 -16.815913
Cl 1.537841 -7.627179 19.851461
Cl 4.593455 -10.682793 19.851461
Cl 1.537841 -4.571564 -19.871528
Cl 4.593455 -1.515950 -19.871528
Cl 1.537841 -1.515950 19.851461
Cl 4.593455 -4.571564 19.851461
Cl 1.537841 1.539665 -19.871528
Cl 4.593455 4.595279 -19.871528
Cl 1.537841 4.595279 19.851461
Cl 4.593455 1.539665 19.851461
Cl 1.537841 7.650894 -19.871528
Cl 4.593455 10.706509 -19.871528
Cl 1.537841 10.706509 19.851461
Cl 4.593455 10.706509 16.795847
Cl 4.593455 7.650894 19.851461
Cl 1.537841 13.762123 -19.871528
Cl 1.537841 16.817738 -16.815913
Cl 1.537841 16.817738 13.740232
Cl 4.593455 16.817738 10.684618
Cl 4.593455 13.762123 13.740232
Cl 1.537841 19.873352 -13.760299
Cl 4.593455 19.873352 -10.704684
Cl 1.537841 19.873352 -7.649070
Cl 4.593455 19.873352 -4.593455
Cl 1.537841 19.873352 -1.537841
Cl 4.593455 19.873352 1.517774
Cl 1.537841 19.873352 4.573388
Cl 4.593455 19.873352 7.629003
Cl 1.537841 19.873352 10.684618
Cl 7.649070 -19.849637 -4.593455
Cl 7.649070 -19.849637 1.517774
Cl 10.704684 -19.849637 -1.537841
Cl 7.649070 -19.849637 7.629003
Cl 10.704684 -19.849637 4.573388
Cl 7.649070 -13.738408 -10.704684
Cl 10.704684 -13.738408 -7.649070
Cl 10.704684 -16.794022 -4.593455
Cl 7.649070 -7.627179 -16.815913
Cl 7.649070 -10.682793 -13.760299
Cl 10.704684 -7.627179 -13.760299
Cl 10.704684 -10.682793 -10.704684
Cl 7.649070 -7.627179 19.851461
Cl 7.649070 -4.571564 -19.871528
Cl 10.704684 -1.515950 -19.871528
Cl 10.704684 -4.571564 -16.815913
Cl 7.649070 -1.515950 19.851461
Cl 10.704684 -4.571564 19.851461
Cl 7.649070 1.539665 -19.871528
Cl 10.704684 4.595279 -19.871528
Cl 7.649070 4.595279 19.851461
Cl 10.704684 1.539665 19.851461
Cl 7.649070 7.650894 -19.871528
Cl 7.649070 10.706509 13.740232
Cl 10.704684 10.706509 10.684618
Cl 10.704684 7.650894 13.740232
Cl 7.649070 7.650894 16.795847
Cl 10.704684 16.817738 4.573388
Cl 10.704684 13.762123 7.629003
Cl 7.649070 13.762123 10.684618
Cl 7.649070 19.873352 -7.649070
Cl 10.704684 19.873352 -4.593455
Cl 7.649070 19.873352 -1.537841
Cl 10.704684 19.873352 1.517774
Cl 7.649070 19.873352 4.573388
Cl 13.760299 -19.849637 1.517774
Cl 13.760299 -13.738408 -4.593455
Cl 13.760299 -16.794022 -1.537841
Cl 16.815913 -16.794022 1.517774
Cl 13.760299 -7.627179 -10.704684
Cl 13.760299 -10.682793 -7.649070
Cl 16.815913 -7.627179 -7.649070
Cl 16.815913 -10.682793 -4.593455
Cl 13.760299 -4.571564 -13.760299
Cl 16.815913 -1.515950 -13.760299
Cl 13.760299 -1.515950 19.851461
Cl 13.760299 1.539665 -19.871528
Cl 16.815913 1.539665 -16.815913
Cl 13.760299 4.595279 13.740232
Cl 16.815913 1.539665 13.740232
Cl 13.760299 1.539665 16.795847
Cl 13.760299 10.706509 7.629003
Cl 16.815913 10.706509 4.573388
Cl 16.815913 7.650894 7.629003
Cl 13.760299 7.650894 10.684618
Cl 13.760299 16.817738 1.517774
Cl 16.815913 16.817738 -1.537841
Cl 13.760299 13.762123 4.573388
Cl 13.760299 19.873352 -1.537841
Cl 19.871528 -13.738408 1.517774
Cl 19.871528 -7.627179 -4.593455
Cl 19.871528 -10.682793 -1.537841
Cl 19.871528 -7.627179 1.517774
Cl 19.871528 -10.682793 4.573388
Cl 19.871528 -7.627179 7.629003
Cl 19.871528 -1.515950 -10.704684
Cl 19.871528 -4.571564 -7.649070
Cl 19.871528 -1.515950 -4.593455
Cl 19.871528 -4.571564 -1.537841
Cl 19.871528 -1.515950 1.517774
Cl 19.871528 -4.571564 4.573388
Cl 19.871528 -1.515950 7.629003
Cl 19.871528 -4.571564 10.684618
Cl 19.871528 -1.515950 13.740232
Cl 19.871528 1.539665 -13.760299
Cl 19.871528 4.595279 -10.704684
Cl 19.871528 1.539665 -7.649070
Cl 19.871528 4.595279 -4.593455
Cl 19.871528 1.539665 -1.537841
Cl 19.871528 4.595279 1.517774
Cl 19.871528 1.539665 4.573388
Cl 19.871528 4.595279 7.629003
Cl 19.871528 1.539665 10.684618
Cl 19.871528 7.650894 -7.649070
Cl 19.871528 10.706509 -4.593455
Cl 19.871528 7.650894 -1.537841
Cl 19.871528 10.706509 1.517774
Cl 19.871528 7.650894 4.573388
Cl 19.871528 13.762123 -1.537841
Cl -16.795847 -10.682793 -10.704684
