2282
GaSb-Sb-Ga992Sb843Cl447-reconstructed
Ga -22.998396 -16.873290 13.812754
Ga -22.998396 -10.736081 7.675545
Ga -22.998396 -13.804685 10.744149
Ga -22.998396 -10.736081 13.812754
Ga -22.998396 -13.804685 16.881358
Ga -22.998396 -4.598872 1.538336
Ga -22.998396 -7.667477 4.606941
Ga -22.998396 -4.598872 7.675545
Ga -22.998396 -7.667477 10.744149
Ga -22.998396 1.538336 -4.598872
Ga -22.998396 -1.530268 -1.530268
Ga -22.998396 1.538336 1.538336
Ga -22.998396 -1.530268 4.606941
Ga -22.998396 7.675545 -10.736081
Ga -22.998396 4.606941 -7.667477
Ga -22.998396 7.675545 -4.598872
Ga -22.998396 4.606941 -1.530268
Ga -22.998396 13.812754 -16.873290
Ga -22.998396 10.744149 -13.804685
Ga -22.998396 13.812754 -10.736081
Ga -22.998396 10.744149 -7.667477
Ga -22.998396 16.881358 -13.804685
Ga -16.861187 -23.010498 13.812754
Ga -16.861187 -16.873290 7.675545
Ga -16.861187 -19.941894 10.744149
Ga -19.929792 -16.873290 10.744149
Ga -19.929792 -19.941894 13.812754
Ga -16.861187 -16.873290 13.812754
Ga -16.861187 -19.941894 16.881358
Ga -16.861187 -16.873290 19.949962
Ga -16.861187 -10.736081 1.538336
Ga -16.861187 -13.804685 4.606941
Ga -19.929792 -10.736081 4.606941
Ga -19.929792 -13.804685 7.675545
Ga -16.861187 -10.736081 7.675545
Ga -16.861187 -13.804685 10.744149
Ga -19.929792 -10.736081 10.744149
Ga -19.929792 -13.804685 13.812754
Ga -16.861187 -10.736081 13.812754
Ga -16.861187 -13.804685 16.881358
Ga -19.929792 -10.736081 16.881358
Ga -19.929792 -13.804685 19.949962
Ga -16.861187 -10.736081 19.949962
Ga -16.861187 -13.804685 23.018566
Ga -16.861187 -4.598872 -4.598872
Ga -16.861187 -7.667477 -1.530268
Ga -19.929792 -4.598872 -1.530268
Ga -19.929792 -7.667477 1.538336
Ga -16.861187 -4.598872 1.538336
Ga -16.861187 -7.667477 4.606941
Ga -19.929792 -4.598872 4.606941
Ga -19.929792 -7.667477 7.675545
Ga -16.861187 -4.598872 7.675545
Ga -16.861187 -7.667477 10.744149
Ga -19.929792 -4.598872 10.744149
Ga -19.929792 -7.667477 13.812754
Ga -16.861187 -4.598872 13.812754
Ga -16.861187 -7.667477 16.881358
Ga -16.861187 1.538336 -10.736081
Ga -16.861187 -1.530268 -7.667477
Ga -19.929792 1.538336 -7.667477
Ga -19.929792 -1.530268 -4.598872
Ga -16.861187 1.538336 -4.598872
Ga -16.861187 -1.530268 -1.530268
Ga -19.929792 1.538336 -1.530268
Ga -19.929792 -1.530268 1.538336
Ga -16.861187 1.538336 1.538336
Ga -16.861187 -1.530268 4.606941
Ga -19.929792 1.538336 4.606941
Ga -19.929792 -1.530268 7.675545
Ga -16.861187 1.538336 7.675545
Ga -16.861187 -1.530268 10.744149
Ga -16.861187 7.675545 -16.873290
Ga -16.861187 4.606941 -13.804685
Ga -19.929792 7.675545 -13.804685
Ga -19.929792 4.606941 -10.736081
Ga -16.861187 7.675545 -10.736081
Ga -16.861187 4.606941 -7.667477
Ga -19.929792 7.675545 -7.667477
Ga -19.929792 4.606941 -4.598872
Ga -16.861187 7.675545 -4.598872
Ga -16.861187 4.606941 -1.530268
Ga -19.929792 7.675545 -1.530268
Ga -19.929792 4.606941 1.538336
Ga -16.861187 7.675545 1.538336
Ga -16.861187 4.606941 4.606941
Ga -16.861187 13.812754 -23.010498
Ga -16.861187 10.744149 -19.941894
Ga -19.929792 13.812754 -19.941894
Ga -19.929792 10.744149 -16.873290
Ga -16.861187 13.812754 -16.873290
Ga -16.861187 10.744149 -13.804685
Ga -19.929792 13.812754 -13.804685
Ga -19.929792 10.744149 -10.736081
Ga -16.861187 13.812754 -10.736081
Ga -16.861187 10.744149 -7.667477
Ga -19.929792 13.812754 -7.667477
Ga -19.929792 10.744149 -4.598872
Ga -16.861187 13.812754 -4.598872
Ga -16.861187 10.744149 -1.530268
Ga -16.861187 16.881358 -19.941894
Ga -16.861187 19.949962 -16.873290
Ga -16.861187 16.881358 -13.804685
Ga -19.929792 19.949962 -13.804685
Ga -19.929792 16.881358 -10.736081
Ga -16.861187 19.949962 -10.736081
Ga -16.861187 16.881358 -7.667477
Ga -16.861187 23.018566 -13.804685
Ga -10.723979 -23.010498 7.675545
Ga -13.792583 -23.010498 10.744149
Ga -10.723979 -23.010498 13.812754
Ga -13.792583 -23.010498 16.881358
Ga -10.723979 -16.873290 1.538336
Ga -10.723979 -19.941894 4.606941
Ga -13.792583 -16.873290 4.606941
Ga -13.792583 -19.941894 7.675545
Ga -10.723979 -16.873290 7.675545
Ga -10.723979 -19.941894 10.744149
Ga -13.792583 -16.873290 10.744149
Ga -13.792583 -19.941894 13.812754
Ga -10.723979 -16.873290 13.812754
Ga -10.723979 -19.941894 16.881358
Ga -13.792583 -16.873290 16.881358
Ga -13.792583 -19.941894 19.949962
Ga -13.792583 -16.873290 23.018566
Ga -10.723979 -10.736081 -4.598872
Ga -10.723979 -13.804685 -1.530268
Ga -13.792583 -10.736081 -1.530268
Ga -13.792583 -13.804685 1.538336
Ga -10.723979 -10.736081 1.538336
Ga -10.723979 -13.804685 4.606941
Ga -13.792583 -10.736081 4.606941
Ga -13.792583 -13.804685 7.675545
Ga -10.723979 -10.736081 7.675545
Ga -10.723979 -13.804685 10.744149
Ga -13.792583 -10.736081 10.744149
Ga -13.792583 -13.804685 13.812754
Ga -10.723979 -10.736081 13.812754
Ga -10.723979 -13.804685 16.881358
Ga -13.792583 -10.736081 16.881358
Ga -13.792583 -13.804685 19.949962
Ga -10.723979 -10.736081 19.949962
Ga -10.723979 -13.804685 23.018566
Ga -13.792583 -10.736081 23.018566
Ga -10.723979 -4.598872 -10.736081
Ga -10.723979 -7.667477 -7.667477
Ga -13.792583 -4.598872 -7.667477
Ga -13.792583 -7.667477 -4.598872
Ga -10.723979 -4.598872 -4.598872
Ga -10.723979 -7.667477 -1.530268
Ga -13.792583 -4.598872 -1.530268
Ga -13.792583 -7.667477 1.538336
Ga -10.723979 -4.598872 1.538336
Ga -10.723979 -7.667477 4.606941
Ga -13.792583 -4.598872 4.606941
Ga -13.792583 -7.667477 7.675545
Ga -10.723979 -4.598872 7.675545
Ga -10.723979 -7.667477 10.744149
Ga -13.792583 -4.598872 10.744149
Ga -13.792583 -7.667477 13.812754
Ga -10.723979 -4.598872 13.812754
Ga -10.723979 -7.667477 16.881358
Ga -13.792583 -4.598872 16.881358
Ga -13.792583 -7.667477 19.949962
Ga -10.723979 -4.598872 19.949962
Ga -10.723979 -7.667477 23.018566
Ga -10.723979 1.538336 -16.873290
Ga -10.723979 -1.530268 -13.804685
Ga -13.792583 1.538336 -13.804685
Ga -13.792583 -1.530268 -10.736081
Ga -10.723979 1.538336 -10.736081
Ga -10.723979 -1.530268 -7.667477
Ga -13.792583 1.538336 -7.667477
Ga -13.792583 -1.530268 -4.598872
Ga -10.723979 1.538336 -4.598872
Ga -10.723979 -1.530268 -1.530268
Ga -13.792583 1.538336 -1.530268
Ga -13.792583 -1.530268 1.538336
Ga -10.723979 1.538336 1.538336
Ga -10.723979 -1.530268 4.606941
Ga -13.792583 1.538336 4.606941
Ga -13.792583 -1.530268 7.675545
Ga -10.723979 1.538336 7.675545
Ga -10.723979 -1.530268 10.744149
Ga -13.792583 1.538336 10.744149
Ga -13.792583 -1.530268 13.812754
Ga -10.723979 1.538336 13.812754
Ga -10.723979 -1.530268 16.881358
Ga -10.723979 7.675545 -23.010498
Ga -10.723979 4.606941 -19.941894
Ga -13.792583 7.675545 -19.941894
Ga -13.792583 4.606941 -16.873290
Ga -10.723979 7.675545 -16.873290
Ga -10.723979 4.606941 -13.804685
Ga -13.792583 7.675545 -13.804685
Ga -13.792583 4.606941 -10.736081
Ga -10.723979 7.675545 -10.736081
Ga -10.723979 4.606941 -7.667477
Ga -13.792583 7.675545 -7.667477
Ga -13.792583 4.606941 -4.598872
Ga -10.723979 7.675545 -4.598872
Ga -10.723979 4.606941 -1.530268
Ga -13.792583 7.675545 -1.530268
Ga -13.792583 4.606941 1.538336
Ga -10.723979 7.675545 1.538336
Ga -10.723979 4.606941 4.606941
Ga -13.792583 7.675545 4.606941
Ga -13.792583 4.606941 7.675545
Ga -10.723979 7.675545 7.675545
Ga -10.723979 4.606941 10.744149
Ga -13.792583 10.744149 -23.010498
Ga -10.723979 13.812754 -23.010498
Ga -10.723979 10.744149 -19.941894
Ga -13.792583 13.812754 -19.941894
Ga -13.792583 10.744149 -16.873290
Ga -10.723979 13.812754 -16.873290
Ga -10.723979 10.744149 -13.804685
Ga -13.792583 13.812754 -13.804685
Ga -13.792583 10.744149 -10.736081
Ga -10.723979 13.812754 -10.736081
Ga -10.723979 10.744149 -7.667477
Ga -13.792583 13.812754 -7.667477
Ga -13.792583 10.744149 -4.598872
Ga -10.723979 13.812754 -4.598872
Ga -10.723979 10.744149 -1.530268
Ga -13.792583 13.812754 -1.530268
Ga -13.792583 10.744149 1.538336
Ga -10.723979 13.812754 1.538336
Ga -10.723979 10.744149 4.606941
Ga -13.792583 16.881358 -23.010498
Ga -13.792583 19.949962 -19.941894
Ga -13.792583 16.881358 -16.873290
Ga -10.723979 19.949962 -16.873290
Ga -10.723979 16.881358 -13.804685
Ga -13.792583 19.949962 -13.804685
Ga -13.792583 16.881358 -10.736081
Ga -10.723979 19.949962 -10.736081
Ga -10.723979 16.881358 -7.667477
Ga -13.792583 19.949962 -7.667477
Ga -13.792583 16.881358 -4.598872
Ga -10.723979 19.949962 -4.598872
Ga -10.723979 16.881358 -1.530268
Ga -13.792583 23.018566 -16.873290
Ga -10.723979 23.018566 -13.804685
Ga -13.792583 23.018566 -10.736081
Ga -10.723979 23.018566 -7.667477
Ga -4.586770 -23.010498 1.538336
Ga -7.655374 -23.010498 4.606941
Ga -4.586770 -23.010498 7.675545
Ga -7.655374 -23.010498 10.744149
Ga -4.586770 -16.873290 -4.598872
Ga -4.586770 -19.941894 -1.530268
Ga -7.655374 -16.873290 -1.530268
Ga -7.655374 -19.941894 1.538336
Ga -4.586770 -16.873290 1.538336
Ga -4.586770 -19.941894 4.606941
Ga -7.655374 -16.873290 4.606941
Ga -7.655374 -19.941894 7.675545
Ga -4.586770 -16.873290 7.675545
Ga -4.586770 -19.941894 10.744149
Ga -7.655374 -16.873290 10.744149
Ga -7.655374 -19.941894 13.812754
Ga -4.586770 -16.873290 13.812754
Ga -7.655374 -16.873290 16.881358
Ga -4.586770 -10.736081 -10.736081
Ga -4.586770 -13.804685 -7.667477
Ga -7.655374 -10.736081 -7.667477
Ga -7.655374 -13.804685 -4.598872
Ga -4.586770 -10.736081 -4.598872
Ga -4.586770 -13.804685 -1.530268
Ga -7.655374 -10.736081 -1.530268
Ga -7.655374 -13.804685 1.538336
Ga -4.586770 -10.736081 1.538336
Ga -4.586770 -13.804685 4.606941
Ga -7.655374 -10.736081 4.606941
Ga -7.655374 -13.804685 7.675545
Ga -4.586770 -10.736081 7.675545
Ga -4.586770 -13.804685 10.744149
Ga -7.655374 -10.736081 10.744149
Ga -7.655374 -13.804685 13.812754
Ga -4.586770 -10.736081 13.812754
Ga -4.586770 -13.804685 16.881358
Ga -7.655374 -10.736081 16.881358
Ga -7.655374 -13.804685 19.949962
Ga -4.586770 -10.736081 19.949962
Ga -7.655374 -10.736081 23.018566
Ga -4.586770 -4.598872 -16.873290
Ga -4.586770 -7.667477 -13.804685
Ga -7.655374 -4.598872 -13.804685
Ga -7.655374 -7.667477 -10.736081
Ga -4.586770 -4.598872 -10.736081
Ga -4.586770 -7.667477 -7.667477
Ga -7.655374 -4.598872 -7.667477
Ga -7.655374 -7.667477 -4.598872
Ga -4.586770 -4.598872 -4.598872
Ga -4.586770 -7.667477 -1.530268
Ga -7.655374 -4.598872 -1.530268
Ga -7.655374 -7.667477 1.538336
Ga -4.586770 -4.598872 1.538336
Ga -4.586770 -7.667477 4.606941
Ga -7.655374 -4.598872 4.606941
Ga -7.655374 -7.667477 7.675545
Ga -4.586770 -4.598872 7.675545
Ga -4.586770 -7.667477 10.744149
Ga -7.655374 -4.598872 10.744149
Ga -7.655374 -7.667477 13.812754
Ga -4.586770 -4.598872 13.812754
Ga -4.586770 -7.667477 16.881358
Ga -7.655374 -4.598872 16.881358
Ga -7.655374 -7.667477 19.949962
Ga -4.586770 -4.598872 19.949962
Ga -4.586770 -7.667477 23.018566
Ga -7.655374 -4.598872 23.018566
Ga -4.586770 1.538336 -23.010498
Ga -4.586770 -1.530268 -19.941894
Ga -7.655374 1.538336 -19.941894
Ga -7.655374 -1.530268 -16.873290
Ga -4.586770 1.538336 -16.873290
Ga -4.586770 -1.530268 -13.804685
Ga -7.655374 1.538336 -13.804685
Ga -7.655374 -1.530268 -10.736081
Ga -4.586770 1.538336 -10.736081
Ga -4.586770 -1.530268 -7.667477
Ga -7.655374 1.538336 -7.667477
Ga -7.655374 -1.530268 -4.598872
Ga -4.586770 1.538336 -4.598872
Ga -4.586770 -1.530268 -1.530268
Ga -7.655374 1.538336 -1.530268
Ga -7.655374 -1.530268 1.538336
Ga -4.586770 1.538336 1.538336
Ga -4.586770 -1.530268 4.606941
Ga -7.655374 1.538336 4.606941
Ga -7.655374 -1.530268 7.675545
Ga -4.586770 1.538336 7.675545
Ga -4.586770 -1.530268 10.744149
Ga -7.655374 1.538336 10.744149
Ga -7.655374 -1.530268 13.812754
Ga -4.586770 1.538336 13.812754
Ga -4.586770 -1.530268 16.881358
Ga -7.655374 1.538336 16.881358
Ga -7.655374 -1.530268 19.949962
Ga -4.586770 1.538336 19.949962
Ga -4.586770 -1.530268 23.018566
Ga -7.655374 4.606941 -23.010498
Ga -4.586770 7.675545 -23.010498
Ga -4.586770 4.606941 -19.941894
Ga -7.655374 7.675545 -19.941894
Ga -7.655374 4.606941 -16.873290
Ga -4.586770 7.675545 -16.873290
Ga -4.586770 4.606941 -13.804685
Ga -7.655374 7.675545 -13.804685
Ga -7.655374 4.606941 -10.736081
Ga -4.586770 7.675545 -10.736081
Ga -4.586770 4.606941 -7.667477
Ga -7.655374 7.675545 -7.667477
Ga -7.655374 4.606941 -4.598872
Ga -4.586770 7.675545 -4.598872
Ga -4.586770 4.606941 -1.530268
Ga -7.655374 7.675545 -1.530268
Ga -7.655374 4.606941 1.538336
Ga -4.586770 7.675545 1.538336
Ga -4.586770 4.606941 4.606941
Ga -7.655374 7.675545 4.606941
Ga -7.655374 4.606941 7.675545
Ga -4.586770 7.675545 7.675545
Ga -4.586770 4.606941 10.744149
Ga -7.655374 7.675545 10.744149
Ga -7.655374 4.606941 13.812754
Ga -4.586770 7.675545 13.812754
Ga -4.586770 4.606941 16.881358
Ga -7.655374 10.744149 -23.010498
Ga -4.586770 10.744149 -19.941894
Ga -7.655374 13.812754 -19.941894
Ga -7.655374 10.744149 -16.873290
Ga -4.586770 13.812754 -16.873290
Ga -4.586770 10.744149 -13.804685
Ga -7.655374 13.812754 -13.804685
Ga -7.655374 10.744149 -10.736081
Ga -4.586770 13.812754 -10.736081
Ga -4.586770 10.744149 -7.667477
Ga -7.655374 13.812754 -7.667477
Ga -7.655374 10.744149 -4.598872
Ga -4.586770 13.812754 -4.598872
Ga -4.586770 10.744149 -1.530268
Ga -7.655374 13.812754 -1.530268
Ga -7.655374 10.744149 1.538336
Ga -4.586770 13.812754 1.538336
Ga -4.586770 10.744149 4.606941
Ga -7.655374 13.812754 4.606941
Ga -7.655374 10.744149 7.675545
Ga -4.586770 13.812754 7.675545
Ga -4.586770 10.744149 10.744149
Ga -7.655374 16.881358 -16.873290
Ga -4.586770 16.881358 -13.804685
Ga -7.655374 19.949962 -13.804685
Ga -7.655374 16.881358 -10.736081
Ga -4.586770 19.949962 -10.736081
Ga -4.586770 16.881358 -7.667477
Ga -7.655374 19.949962 -7.667477
Ga -7.655374 16.881358 -4.598872
Ga -4.586770 19.949962 -4.598872
Ga -4.586770 16.881358 -1.530268
Ga -7.655374 19.949962 -1.530268
Ga -7.655374 16.881358 1.538336
Ga -4.586770 19.949962 1.538336
Ga -4.586770 16.881358 4.606941
Ga -7.655374 23.018566 -10.736081
Ga -4.586770 23.018566 -7.667477
Ga -7.655374 23.018566 -4.598872
Ga -4.586770 23.018566 -1.530268
Ga 1.550439 -23.010498 -4.598872
Ga -1.518166 -23.010498 -1.530268
Ga 1.550439 -23.010498 1.538336
Ga -1.518166 -23.010498 4.606941
Ga 1.550439 -16.873290 -10.736081
Ga 1.550439 -19.941894 -7.667477
Ga -1.518166 -16.873290 -7.667477
Ga -1.518166 -19.941894 -4.598872
Ga 1.550439 -16.873290 -4.598872
Ga 1.550439 -19.941894 -1.530268
Ga -1.518166 -16.873290 -1.530268
Ga -1.518166 -19.941894 1.538336
Ga 1.550439 -16.873290 1.538336
Ga 1.550439 -19.941894 4.606941
Ga -1.518166 -16.873290 4.606941
Ga -1.518166 -19.941894 7.675545
Ga 1.550439 -16.873290 7.675545
Ga -1.518166 -16.873290 10.744149
Ga 1.550439 -10.736081 -16.873290
Ga 1.550439 -13.804685 -13.804685
Ga -1.518166 -10.736081 -13.804685
Ga -1.518166 -13.804685 -10.736081
Ga 1.550439 -10.736081 -10.736081
Ga 1.550439 -13.804685 -7.667477
Ga -1.518166 -10.736081 -7.667477
Ga -1.518166 -13.804685 -4.598872
Ga 1.550439 -10.736081 -4.598872
Ga 1.550439 -13.804685 -1.530268
Ga -1.518166 -10.736081 -1.530268
Ga -1.518166 -13.804685 1.538336
Ga 1.550439 -10.736081 1.538336
Ga 1.550439 -13.804685 4.606941
Ga -1.518166 -10.736081 4.606941
Ga -1.518166 -13.804685 7.675545
Ga 1.550439 -10.736081 7.675545
Ga 1.550439 -13.804685 10.744149
Ga -1.518166 -10.736081 10.744149
Ga -1.518166 -13.804685 13.812754
Ga 1.550439 -10.736081 13.812754
Ga -1.518166 -10.736081 16.881358
Ga 1.550439 -4.598872 -23.010498
Ga 1.550439 -7.667477 -19.941894
Ga -1.518166 -4.598872 -19.941894
Ga -1.518166 -7.667477 -16.873290
Ga 1.550439 -4.598872 -16.873290
Ga 1.550439 -7.667477 -13.804685
Ga -1.518166 -4.598872 -13.804685
Ga -1.518166 -7.667477 -10.736081
Ga 1.550439 -4.598872 -10.736081
Ga 1.550439 -7.667477 -7.667477
Ga -1.518166 -4.598872 -7.667477
Ga -1.518166 -7.667477 -4.598872
Ga 1.550439 -4.598872 -4.598872
Ga 1.550439 -7.667477 -1.530268
Ga -1.518166 -4.598872 -1.530268
Ga -1.518166 -7.667477 1.538336
Ga 1.550439 -4.598872 1.538336
Ga 1.550439 -7.667477 4.606941
Ga -1.518166 -4.598872 4.606941
Ga -1.518166 -7.667477 7.675545
Ga 1.550439 -4.598872 7.675545
Ga 1.550439 -7.667477 10.744149
Ga -1.518166 -4.598872 10.744149
Ga -1.518166 -7.667477 13.812754
Ga 1.550439 -4.598872 13.812754
Ga 1.550439 -7.667477 16.881358
Ga -1.518166 -4.598872 16.881358
Ga -1.518166 -7.667477 19.949962
Ga 1.550439 -4.598872 19.949962
Ga -1.518166 -4.598872 23.018566
Ga -1.518166 -1.530268 -23.010498
Ga 1.550439 1.538336 -23.010498
Ga 1.550439 -1.530268 -19.941894
Ga -1.518166 1.538336 -19.941894
Ga -1.518166 -1.530268 -16.873290
Ga 1.550439 1.538336 -16.873290
Ga 1.550439 -1.530268 -13.804685
Ga -1.518166 1.538336 -13.804685
Ga -1.518166 -1.530268 -10.736081
Ga 1.550439 1.538336 -10.736081
Ga 1.550439 -1.530268 -7.667477
Ga -1.518166 1.538336 -7.667477
Ga -1.518166 -1.530268 -4.598872
Ga 1.550439 1.538336 -4.598872
Ga 1.550439 -1.530268 -1.530268
Ga -1.518166 1.538336 -1.530268
Ga -1.518166 -1.530268 1.538336
Ga 1.550439 1.538336 1.538336
Ga 1.550439 -1.530268 4.606941
Ga -1.518166 1.538336 4.606941
Ga -1.518166 -1.530268 7.675545
Ga 1.550439 1.538336 7.675545
Ga 1.550439 -1.530268 10.744149
Ga -1.518166 1.538336 10.744149
Ga -1.518166 -1.530268 13.812754
Ga 1.550439 1.538336 13.812754
Ga 1.550439 -1.530268 16.881358
Ga -1.518166 1.538336 16.881358
Ga -1.518166 -1.530268 19.949962
Ga 1.550439 1.538336 19.949962
Ga 1.550439 -1.530268 23.018566
Ga -1.518166 1.538336 23.018566
Ga -1.518166 4.606941 -23.010498
Ga 1.550439 4.606941 -19.941894
Ga -1.518166 7.675545 -19.941894
Ga -1.518166 4.606941 -16.873290
Ga 1.550439 7.675545 -16.873290
Ga 1.550439 4.606941 -13.804685
Ga -1.518166 7.675545 -13.804685
Ga -1.518166 4.606941 -10.736081
Ga 1.550439 7.675545 -10.736081
Ga 1.550439 4.606941 -7.667477
Ga -1.518166 7.675545 -7.667477
Ga -1.518166 4.606941 -4.598872
Ga 1.550439 7.675545 -4.598872
Ga 1.550439 4.606941 -1.530268
Ga -1.518166 7.675545 -1.530268
Ga -1.518166 4.606941 1.538336
Ga 1.550439 7.675545 1.538336
Ga 1.550439 4.606941 4.606941
Ga -1.518166 7.675545 4.606941
Ga -1.518166 4.606941 7.675545
Ga 1.550439 7.675545 7.675545
Ga 1.550439 4.606941 10.744149
Ga -1.518166 7.675545 10.744149
Ga -1.518166 4.606941 13.812754
Ga 1.550439 7.675545 13.812754
Ga 1.550439 4.606941 16.881358
Ga -1.518166 7.675545 16.881358
Ga -1.518166 4.606941 19.949962
Ga 1.550439 7.675545 19.949962
Ga 1.550439 4.606941 23.018566
Ga -1.518166 10.744149 -16.873290
Ga 1.550439 10.744149 -13.804685
Ga -1.518166 13.812754 -13.804685
Ga -1.518166 10.744149 -10.736081
Ga 1.550439 13.812754 -10.736081
Ga 1.550439 10.744149 -7.667477
Ga -1.518166 13.812754 -7.667477
Ga -1.518166 10.744149 -4.598872
Ga 1.550439 13.812754 -4.598872
Ga 1.550439 10.744149 -1.530268
Ga -1.518166 13.812754 -1.530268
Ga -1.518166 10.744149 1.538336
Ga 1.550439 13.812754 1.538336
Ga 1.550439 10.744149 4.606941
Ga -1.518166 13.812754 4.606941
Ga -1.518166 10.744149 7.675545
Ga 1.550439 13.812754 7.675545
Ga 1.550439 10.744149 10.744149
Ga -1.518166 13.812754 10.744149
Ga -1.518166 10.744149 13.812754
Ga 1.550439 13.812754 13.812754
Ga 1.550439 10.744149 16.881358
Ga -1.518166 16.881358 -10.736081
Ga 1.550439 16.881358 -7.667477
Ga -1.518166 19.949962 -7.667477
Ga -1.518166 16.881358 -4.598872
Ga 1.550439 19.949962 -4.598872
Ga 1.550439 16.881358 -1.530268
Ga -1.518166 19.949962 -1.530268
Ga -1.518166 16.881358 1.538336
Ga 1.550439 19.949962 1.538336
Ga 1.550439 16.881358 4.606941
Ga -1.518166 19.949962 4.606941
Ga -1.518166 16.881358 7.675545
Ga 1.550439 19.949962 7.675545
Ga 1.550439 16.881358 10.744149
Ga -1.518166 23.018566 -4.598872
Ga 1.550439 23.018566 -1.530268
Ga -1.518166 23.018566 1.538336
Ga 1.550439 23.018566 4.606941
Ga 7.687647 -23.010498 -10.736081
Ga 4.619043 -23.010498 -7.667477
Ga 7.687647 -23.010498 -4.598872
Ga 4.619043 -23.010498 -1.530268
Ga 7.687647 -16.873290 -16.873290
Ga 7.687647 -19.941894 -13.804685
Ga 4.619043 -16.873290 -13.804685
Ga 4.619043 -19.941894 -10.736081
Ga 7.687647 -16.873290 -10.736081
Ga 7.687647 -19.941894 -7.667477
Ga 4.619043 -16.873290 -7.667477
Ga 4.619043 -19.941894 -4.598872
Ga 7.687647 -16.873290 -4.598872
Ga 7.687647 -19.941894 -1.530268
Ga 4.619043 -16.873290 -1.530268
Ga 4.619043 -19.941894 1.538336
Ga 7.687647 -16.873290 1.538336
Ga 4.619043 -16.873290 4.606941
Ga 7.687647 -10.736081 -23.010498
Ga 7.687647 -13.804685 -19.941894
Ga 4.619043 -10.736081 -19.941894
Ga 4.619043 -13.804685 -16.873290
Ga 7.687647 -10.736081 -16.873290
Ga 7.687647 -13.804685 -13.804685
Ga 4.619043 -10.736081 -13.804685
Ga 4.619043 -13.804685 -10.736081
Ga 7.687647 -10.736081 -10.736081
Ga 7.687647 -13.804685 -7.667477
Ga 4.619043 -10.736081 -7.667477
Ga 4.619043 -13.804685 -4.598872
Ga 7.687647 -10.736081 -4.598872
Ga 7.687647 -13.804685 -1.530268
Ga 4.619043 -10.736081 -1.530268
Ga 4.619043 -13.804685 1.538336
Ga 7.687647 -10.736081 1.538336
Ga 7.687647 -13.804685 4.606941
Ga 4.619043 -10.736081 4.606941
Ga 4.619043 -13.804685 7.675545
Ga 7.687647 -10.736081 7.675545
Ga 4.619043 -10.736081 10.744149
Ga 4.619043 -7.667477 -23.010498
Ga 7.687647 -4.598872 -23.010498
Ga 7.687647 -7.667477 -19.941894
Ga 4.619043 -4.598872 -19.941894
Ga 4.619043 -7.667477 -16.873290
Ga 7.687647 -4.598872 -16.873290
Ga 7.687647 -7.667477 -13.804685
Ga 4.619043 -4.598872 -13.804685
Ga 4.619043 -7.667477 -10.736081
Ga 7.687647 -4.598872 -10.736081
Ga 7.687647 -7.667477 -7.667477
Ga 4.619043 -4.598872 -7.667477
Ga 4.619043 -7.667477 -4.598872
Ga 7.687647 -4.598872 -4.598872
Ga 7.687647 -7.667477 -1.530268
Ga 4.619043 -4.598872 -1.530268
Ga 4.619043 -7.667477 1.538336
Ga 7.687647 -4.598872 1.538336
Ga 7.687647 -7.667477 4.606941
Ga 4.619043 -4.598872 4.606941
Ga 4.619043 -7.667477 7.675545
Ga 7.687647 -4.598872 7.675545
Ga 7.687647 -7.667477 10.744149
Ga 4.619043 -4.598872 10.744149
Ga 4.619043 -7.667477 13.812754
Ga 7.687647 -4.598872 13.812754
Ga 4.619043 -4.598872 16.881358
Ga 4.619043 -1.530268 -23.010498
Ga 7.687647 -1.530268 -19.941894
Ga 4.619043 1.538336 -19.941894
Ga 4.619043 -1.530268 -16.873290
Ga 7.687647 1.538336 -16.873290
Ga 7.687647 -1.530268 -13.804685
Ga 4.619043 1.538336 -13.804685
Ga 4.619043 -1.530268 -10.736081
Ga 7.687647 1.538336 -10.736081
Ga 7.687647 -1.530268 -7.667477
Ga 4.619043 1.538336 -7.667477
Ga 4.619043 -1.530268 -4.598872
Ga 7.687647 1.538336 -4.598872
Ga 7.687647 -1.530268 -1.530268
Ga 4.619043 1.538336 -1.530268
Ga 4.619043 -1.530268 1.538336
Ga 7.687647 1.538336 1.538336
Ga 7.687647 -1.530268 4.606941
Ga 4.619043 1.538336 4.606941
Ga 4.619043 -1.530268 7.675545
Ga 7.687647 1.538336 7.675545
Ga 7.687647 -1.530268 10.744149
Ga 4.619043 1.538336 10.744149
Ga 4.619043 -1.530268 13.812754
Ga 7.687647 1.538336 13.812754
Ga 7.687647 -1.530268 16.881358
Ga 4.619043 1.538336 16.881358
Ga 4.619043 -1.530268 19.949962
Ga 7.687647 1.538336 19.949962
Ga 4.619043 1.538336 23.018566
Ga 4.619043 4.606941 -16.873290
Ga 7.687647 4.606941 -13.804685
Ga 4.619043 7.675545 -13.804685
Ga 4.619043 4.606941 -10.736081
Ga 7.687647 7.675545 -10.736081
Ga 7.687647 4.606941 -7.667477
Ga 4.619043 7.675545 -7.667477
Ga 4.619043 4.606941 -4.598872
Ga 7.687647 7.675545 -4.598872
Ga 7.687647 4.606941 -1.530268
Ga 4.619043 7.675545 -1.530268
Ga 4.619043 4.606941 1.538336
Ga 7.687647 7.675545 1.538336
Ga 7.687647 4.606941 4.606941
Ga 4.619043 7.675545 4.606941
Ga 4.619043 4.606941 7.675545
Ga 7.687647 7.675545 7.675545
Ga 7.687647 4.606941 10.744149
Ga 4.619043 7.675545 10.744149
Ga 4.619043 4.606941 13.812754
Ga 7.687647 7.675545 13.812754
Ga 7.687647 4.606941 16.881358
Ga 4.619043 7.675545 16.881358
Ga 4.619043 4.606941 19.949962
Ga 7.687647 7.675545 19.949962
Ga 7.687647 4.606941 23.018566
Ga 4.619043 7.675545 23.018566
Ga 4.619043 10.744149 -10.736081
Ga 7.687647 10.744149 -7.667477
Ga 4.619043 13.812754 -7.667477
Ga 4.619043 10.744149 -4.598872
Ga 7.687647 13.812754 -4.598872
Ga 7.687647 10.744149 -1.530268
Ga 4.619043 13.812754 -1.530268
Ga 4.619043 10.744149 1.538336
Ga 7.687647 13.812754 1.538336
Ga 7.687647 10.744149 4.606941
Ga 4.619043 13.812754 4.606941
Ga 4.619043 10.744149 7.675545
Ga 7.687647 13.812754 7.675545
Ga 7.687647 10.744149 10.744149
Ga 4.619043 13.812754 10.744149
Ga 4.619043 10.744149 13.812754
Ga 7.687647 13.812754 13.812754
Ga 7.687647 10.744149 16.881358
Ga 4.619043 13.812754 16.881358
Ga 4.619043 10.744149 19.949962
Ga 7.687647 13.812754 19.949962
Ga 7.687647 10.744149 23.018566
Ga 4.619043 16.881358 -4.598872
Ga 7.687647 16.881358 -1.530268
Ga 4.619043 19.949962 -1.530268
Ga 4.619043 16.881358 1.538336
Ga 7.687647 19.949962 1.538336
Ga 7.687647 16.881358 4.606941
Ga 4.619043 19.949962 4.606941
Ga 4.619043 16.881358 7.675545
Ga 7.687647 19.949962 7.675545
Ga 7.687647 16.881358 10.744149
Ga 4.619043 19.949962 10.744149
Ga 4.619043 16.881358 13.812754
Ga 7.687647 19.949962 13.812754
Ga 7.687647 16.881358 16.881358
Ga 4.619043 23.018566 1.538336
Ga 7.687647 23.018566 4.606941
Ga 4.619043 23.018566 7.675545
Ga 7.687647 23.018566 10.744149
Ga 13.824856 -23.010498 -16.873290
Ga 10.756251 -23.010498 -13.804685
Ga 13.824856 -23.010498 -10.736081
Ga 10.756251 -23.010498 -7.667477
Ga 13.824856 -16.873290 -23.010498
Ga 13.824856 -19.941894 -19.941894
Ga 10.756251 -19.941894 -16.873290
Ga 13.824856 -16.873290 -16.873290
Ga 13.824856 -19.941894 -13.804685
Ga 10.756251 -16.873290 -13.804685
Ga 10.756251 -19.941894 -10.736081
Ga 13.824856 -16.873290 -10.736081
Ga 13.824856 -19.941894 -7.667477
Ga 10.756251 -16.873290 -7.667477
Ga 10.756251 -19.941894 -4.598872
Ga 13.824856 -16.873290 -4.598872
Ga 10.756251 -16.873290 -1.530268
Ga 10.756251 -13.804685 -23.010498
Ga 13.824856 -10.736081 -23.010498
Ga 13.824856 -13.804685 -19.941894
Ga 10.756251 -10.736081 -19.941894
Ga 10.756251 -13.804685 -16.873290
Ga 13.824856 -10.736081 -16.873290
Ga 13.824856 -13.804685 -13.804685
Ga 10.756251 -10.736081 -13.804685
Ga 10.756251 -13.804685 -10.736081
Ga 13.824856 -10.736081 -10.736081
Ga 13.824856 -13.804685 -7.667477
Ga 10.756251 -10.736081 -7.667477
Ga 10.756251 -13.804685 -4.598872
Ga 13.824856 -10.736081 -4.598872
Ga 13.824856 -13.804685 -1.530268
Ga 10.756251 -10.736081 -1.530268
Ga 10.756251 -13.804685 1.538336
Ga 13.824856 -10.736081 1.538336
Ga 10.756251 -10.736081 4.606941
Ga 10.756251 -7.667477 -23.010498
Ga 13.824856 -7.667477 -19.941894
Ga 10.756251 -4.598872 -19.941894
Ga 10.756251 -7.667477 -16.873290
Ga 13.824856 -4.598872 -16.873290
Ga 13.824856 -7.667477 -13.804685
Ga 10.756251 -4.598872 -13.804685
Ga 10.756251 -7.667477 -10.736081
Ga 13.824856 -4.598872 -10.736081
Ga 13.824856 -7.667477 -7.667477
Ga 10.756251 -4.598872 -7.667477
Ga 10.756251 -7.667477 -4.598872
Ga 13.824856 -4.598872 -4.598872
Ga 13.824856 -7.667477 -1.530268
Ga 10.756251 -4.598872 -1.530268
Ga 10.756251 -7.667477 1.538336
Ga 13.824856 -4.598872 1.538336
Ga 13.824856 -7.667477 4.606941
Ga 10.756251 -4.598872 4.606941
Ga 10.756251 -7.667477 7.675545
Ga 13.824856 -4.598872 7.675545
Ga 10.756251 -4.598872 10.744149
Ga 10.756251 -1.530268 -16.873290
Ga 13.824856 -1.530268 -13.804685
Ga 10.756251 1.538336 -13.804685
Ga 10.756251 -1.530268 -10.736081
Ga 13.824856 1.538336 -10.736081
Ga 13.824856 -1.530268 -7.667477
Ga 10.756251 1.538336 -7.667477
Ga 10.756251 -1.530268 -4.598872
Ga 13.824856 1.538336 -4.598872
Ga 13.824856 -1.530268 -1.530268
Ga 10.756251 1.538336 -1.530268
Ga 10.756251 -1.530268 1.538336
Ga 13.824856 1.538336 1.538336
Ga 13.824856 -1.530268 4.606941
Ga 10.756251 1.538336 4.606941
Ga 10.756251 -1.530268 7.675545
Ga 13.824856 1.538336 7.675545
Ga 13.824856 -1.530268 10.744149
Ga 10.756251 1.538336 10.744149
Ga 10.756251 -1.530268 13.812754
Ga 13.824856 1.538336 13.812754
Ga 10.756251 1.538336 16.881358
Ga 10.756251 4.606941 -10.736081
Ga 13.824856 4.606941 -7.667477
Ga 10.756251 7.675545 -7.667477
Ga 10.756251 4.606941 -4.598872
Ga 13.824856 7.675545 -4.598872
Ga 13.824856 4.606941 -1.530268
Ga 10.756251 7.675545 -1.530268
Ga 10.756251 4.606941 1.538336
Ga 13.824856 7.675545 1.538336
Ga 13.824856 4.606941 4.606941
Ga 10.756251 7.675545 4.606941
Ga 10.756251 4.606941 7.675545
Ga 13.824856 7.675545 7.675545
Ga 13.824856 4.606941 10.744149
Ga 10.756251 7.675545 10.744149
Ga 10.756251 4.606941 13.812754
Ga 13.824856 7.675545 13.812754
Ga 13.824856 4.606941 16.881358
Ga 10.756251 7.675545 16.881358
Ga 10.756251 4.606941 19.949962
Ga 13.824856 7.675545 19.949962
Ga 10.756251 7.675545 23.018566
Ga 10.756251 10.744149 -4.598872
Ga 13.824856 10.744149 -1.530268
Ga 10.756251 13.812754 -1.530268
Ga 10.756251 10.744149 1.538336
Ga 13.824856 13.812754 1.538336
Ga 13.824856 10.744149 4.606941
Ga 10.756251 13.812754 4.606941
Ga 10.756251 10.744149 7.675545
Ga 13.824856 13.812754 7.675545
Ga 13.824856 10.744149 10.744149
Ga 10.756251 13.812754 10.744149
Ga 10.756251 10.744149 13.812754
Ga 13.824856 13.812754 13.812754
Ga 13.824856 10.744149 16.881358
Ga 10.756251 13.812754 16.881358
Ga 10.756251 10.744149 19.949962
Ga 13.824856 13.812754 19.949962
Ga 13.824856 10.744149 23.018566
Ga 10.756251 13.812754 23.018566
Ga 10.756251 16.881358 1.538336
Ga 13.824856 16.881358 4.606941
Ga 10.756251 19.949962 4.606941
Ga 10.756251 16.881358 7.675545
Ga 13.824856 19.949962 7.675545
Ga 13.824856 16.881358 10.744149
Ga 10.756251 19.949962 10.744149
Ga 10.756251 16.881358 13.812754
Ga 13.824856 19.949962 13.812754
Ga 13.824856 16.881358 16.881358
Ga 10.756251 19.949962 16.881358
Ga 13.824856 19.949962 19.949962
Ga 13.824856 16.881358 23.018566
Ga 10.756251 23.018566 7.675545
Ga 13.824856 23.018566 10.744149
Ga 10.756251 23.018566 13.812754
Ga 13.824856 23.018566 16.881358
Ga 16.893460 -23.010498 -13.804685
Ga 16.893460 -16.873290 -19.941894
Ga 16.893460 -19.941894 -16.873290
Ga 19.962064 -19.941894 -13.804685
Ga 16.893460 -16.873290 -13.804685
Ga 16.893460 -19.941894 -10.736081
Ga 19.962064 -16.873290 -10.736081
Ga 16.893460 -16.873290 -7.667477
Ga 16.893460 -13.804685 -23.010498
Ga 19.962064 -13.804685 -19.941894
Ga 16.893460 -10.736081 -19.941894
Ga 16.893460 -13.804685 -16.873290
Ga 19.962064 -10.736081 -16.873290
Ga 19.962064 -13.804685 -13.804685
Ga 16.893460 -10.736081 -13.804685
Ga 16.893460 -13.804685 -10.736081
Ga 19.962064 -10.736081 -10.736081
Ga 19.962064 -13.804685 -7.667477
Ga 16.893460 -10.736081 -7.667477
Ga 16.893460 -13.804685 -4.598872
Ga 19.962064 -10.736081 -4.598872
Ga 16.893460 -10.736081 -1.530268
Ga 16.893460 -7.667477 -16.873290
Ga 19.962064 -7.667477 -13.804685
Ga 16.893460 -4.598872 -13.804685
Ga 16.893460 -7.667477 -10.736081
Ga 19.962064 -4.598872 -10.736081
Ga 19.962064 -7.667477 -7.667477
Ga 16.893460 -4.598872 -7.667477
Ga 16.893460 -7.667477 -4.598872
Ga 19.962064 -4.598872 -4.598872
Ga 19.962064 -7.667477 -1.530268
Ga 16.893460 -4.598872 -1.530268
Ga 16.893460 -7.667477 1.538336
Ga 19.962064 -4.598872 1.538336
Ga 16.893460 -4.598872 4.606941
Ga 16.893460 -1.530268 -10.736081
Ga 19.962064 -1.530268 -7.667477
Ga 16.893460 1.538336 -7.667477
Ga 16.893460 -1.530268 -4.598872
Ga 19.962064 1.538336 -4.598872
Ga 19.962064 -1.530268 -1.530268
Ga 16.893460 1.538336 -1.530268
Ga 16.893460 -1.530268 1.538336
Ga 19.962064 1.538336 1.538336
Ga 19.962064 -1.530268 4.606941
Ga 16.893460 1.538336 4.606941
Ga 16.893460 -1.530268 7.675545
Ga 19.962064 1.538336 7.675545
Ga 16.893460 1.538336 10.744149
Ga 16.893460 4.606941 -4.598872
Ga 19.962064 4.606941 -1.530268
Ga 16.893460 7.675545 -1.530268
Ga 16.893460 4.606941 1.538336
Ga 19.962064 7.675545 1.538336
Ga 19.962064 4.606941 4.606941
Ga 16.893460 7.675545 4.606941
Ga 16.893460 4.606941 7.675545
Ga 19.962064 7.675545 7.675545
Ga 19.962064 4.606941 10.744149
Ga 16.893460 7.675545 10.744149
Ga 16.893460 4.606941 13.812754
Ga 19.962064 7.675545 13.812754
Ga 16.893460 7.675545 16.881358
Ga 16.893460 10.744149 1.538336
Ga 19.962064 10.744149 4.606941
Ga 16.893460 13.812754 4.606941
Ga 16.893460 10.744149 7.675545
Ga 19.962064 13.812754 7.675545
Ga 19.962064 10.744149 10.744149
Ga 16.893460 13.812754 10.744149
Ga 16.893460 10.744149 13.812754
Ga 19.962064 13.812754 13.812754
Ga 19.962064 10.744149 16.881358
Ga 16.893460 13.812754 16.881358
Ga 16.893460 10.744149 19.949962
Ga 19.962064 13.812754 19.949962
Ga 16.893460 13.812754 23.018566
Ga 16.893460 16.881358 7.675545
Ga 19.962064 16.881358 10.744149
Ga 16.893460 19.949962 10.744149
Ga 16.893460 16.881358 13.812754
Ga 19.962064 19.949962 13.812754
Ga 16.893460 19.949962 16.881358
Ga 16.893460 16.881358 19.949962
Ga 16.893460 23.018566 13.812754
Ga 23.030669 -16.873290 -13.804685
Ga 23.030669 -13.804685 -16.873290
Ga 23.030669 -10.736081 -13.804685
Ga 23.030669 -13.804685 -10.736081
Ga 23.030669 -10.736081 -7.667477
Ga 23.030669 -7.667477 -10.736081
Ga 23.030669 -4.598872 -7.667477
Ga 23.030669 -7.667477 -4.598872
Ga 23.030669 -4.598872 -1.530268
Ga 23.030669 -1.530268 -4.598872
Ga 23.030669 1.538336 -1.530268
Ga 23.030669 -1.530268 1.538336
Ga 23.030669 1.538336 4.606941
Ga 23.030669 4.606941 1.538336
Ga 23.030669 7.675545 4.606941
Ga 23.030669 4.606941 7.675545
Ga 23.030669 7.675545 10.744149
Ga 23.030669 10.744149 7.675545
Ga 23.030669 13.812754 10.744149
Ga 23.030669 10.744149 13.812754
Ga 23.030669 13.812754 16.881358
Ga 23.030669 16.881358 13.812754
Sb -21.464094 -15.338987 12.278451
Sb -21.464094 -9.201779 6.141243
Sb -21.464094 -9.201779 12.278451
Sb -21.464094 -12.270383 9.209847
Sb -21.464094 -12.270383 15.347056
Sb -21.464094 -3.064570 0.004034
Sb -21.464094 -3.064570 6.141243
Sb -21.464094 -6.133175 3.072638
Sb -21.464094 -6.133175 9.209847
Sb -21.464094 3.072638 -6.133175
Sb -21.464094 3.072638 0.004034
Sb -21.464094 0.004034 -3.064570
Sb -21.464094 0.004034 3.072638
Sb -21.464094 9.209847 -12.270383
Sb -21.464094 9.209847 -6.133175
Sb -21.464094 6.141243 -9.201779
Sb -21.464094 6.141243 -3.064570
Sb -21.464094 15.347056 -12.270383
Sb -21.464094 12.278451 -15.338987
Sb -21.464094 12.278451 -9.201779
Sb -15.326885 -21.476196 12.278451
Sb -18.395489 -21.476196 15.347056
Sb -15.326885 -15.338987 6.141243
Sb -18.395489 -18.407592 12.278451
Sb -18.395489 -15.338987 9.209847
Sb -15.326885 -15.338987 12.278451
Sb -15.326885 -18.407592 9.209847
Sb -18.395489 -15.338987 15.347056
Sb -15.326885 -15.338987 18.415660
Sb -15.326885 -18.407592 15.347056
Sb -15.326885 -18.407592 21.484264
Sb -15.326885 -9.201779 0.004034
Sb -18.395489 -12.270383 6.141243
Sb -18.395489 -9.201779 3.072638
Sb -15.326885 -9.201779 6.141243
Sb -15.326885 -12.270383 3.072638
Sb -18.395489 -12.270383 12.278451
Sb -18.395489 -9.201779 9.209847
Sb -15.326885 -9.201779 12.278451
Sb -15.326885 -12.270383 9.209847
Sb -18.395489 -12.270383 18.415660
Sb -18.395489 -9.201779 15.347056
Sb -15.326885 -9.201779 18.415660
Sb -15.326885 -12.270383 15.347056
Sb -15.326885 -12.270383 21.484264
Sb -15.326885 -3.064570 -6.133175
Sb -18.395489 -6.133175 0.004034
Sb -18.395489 -3.064570 -3.064570
Sb -15.326885 -3.064570 0.004034
Sb -15.326885 -6.133175 -3.064570
Sb -18.395489 -6.133175 6.141243
Sb -18.395489 -3.064570 3.072638
Sb -15.326885 -3.064570 6.141243
Sb -15.326885 -6.133175 3.072638
Sb -18.395489 -6.133175 12.278451
Sb -18.395489 -3.064570 9.209847
Sb -15.326885 -3.064570 12.278451
Sb -15.326885 -6.133175 9.209847
Sb -15.326885 -6.133175 15.347056
Sb -15.326885 3.072638 -12.270383
Sb -18.395489 0.004034 -6.133175
Sb -18.395489 3.072638 -9.201779
Sb -15.326885 3.072638 -6.133175
Sb -15.326885 0.004034 -9.201779
Sb -18.395489 0.004034 0.004034
Sb -18.395489 3.072638 -3.064570
Sb -15.326885 3.072638 0.004034
Sb -15.326885 0.004034 -3.064570
Sb -18.395489 0.004034 6.141243
Sb -18.395489 3.072638 3.072638
Sb -15.326885 3.072638 6.141243
Sb -15.326885 0.004034 3.072638
Sb -15.326885 0.004034 9.209847
Sb -15.326885 9.209847 -18.407592
Sb -18.395489 6.141243 -12.270383
Sb -18.395489 9.209847 -15.338987
Sb -15.326885 9.209847 -12.270383
Sb -15.326885 6.141243 -15.338987
Sb -18.395489 6.141243 -6.133175
Sb -18.395489 9.209847 -9.201779
Sb -15.326885 9.209847 -6.133175
Sb -15.326885 6.141243 -9.201779
Sb -18.395489 6.141243 0.004034
Sb -18.395489 9.209847 -3.064570
Sb -15.326885 9.209847 0.004034
Sb -15.326885 6.141243 -3.064570
Sb -15.326885 6.141243 3.072638
Sb -18.395489 12.278451 -18.407592
Sb -15.326885 15.347056 -18.407592
Sb -15.326885 12.278451 -21.476196
Sb -18.395489 12.278451 -12.270383
Sb -18.395489 15.347056 -15.338987
Sb -15.326885 15.347056 -12.270383
Sb -15.326885 12.278451 -15.338987
Sb -18.395489 12.278451 -6.133175
Sb -18.395489 15.347056 -9.201779
Sb -15.326885 15.347056 -6.133175
Sb -15.326885 12.278451 -9.201779
Sb -15.326885 12.278451 -3.064570
Sb -15.326885 18.415660 -21.476196
Sb -18.395489 18.415660 -12.270383
Sb -18.395489 21.484264 -15.338987
Sb -15.326885 21.484264 -12.270383
Sb -15.326885 18.415660 -15.338987
Sb -15.326885 18.415660 -9.201779
Sb -9.189677 -21.476196 6.141243
Sb -12.258281 -21.476196 9.209847
Sb -9.189677 -21.476196 12.278451
Sb -12.258281 -21.476196 15.347056
Sb -9.189677 -15.338987 0.004034
Sb -12.258281 -18.407592 6.141243
Sb -12.258281 -15.338987 3.072638
Sb -9.189677 -15.338987 6.141243
Sb -9.189677 -18.407592 3.072638
Sb -12.258281 -18.407592 12.278451
Sb -12.258281 -15.338987 9.209847
Sb -9.189677 -15.338987 12.278451
Sb -9.189677 -18.407592 9.209847
Sb -12.258281 -18.407592 18.415660
Sb -12.258281 -15.338987 15.347056
Sb -9.189677 -15.338987 18.415660
Sb -9.189677 -18.407592 15.347056
Sb -12.258281 -15.338987 21.484264
Sb -9.189677 -9.201779 -6.133175
Sb -12.258281 -12.270383 0.004034
Sb -12.258281 -9.201779 -3.064570
Sb -9.189677 -9.201779 0.004034
Sb -9.189677 -12.270383 -3.064570
Sb -12.258281 -12.270383 6.141243
Sb -12.258281 -9.201779 3.072638
Sb -9.189677 -9.201779 6.141243
Sb -9.189677 -12.270383 3.072638
Sb -12.258281 -12.270383 12.278451
Sb -12.258281 -9.201779 9.209847
Sb -9.189677 -9.201779 12.278451
Sb -9.189677 -12.270383 9.209847
Sb -12.258281 -12.270383 18.415660
Sb -12.258281 -9.201779 15.347056
Sb -9.189677 -9.201779 18.415660
Sb -9.189677 -12.270383 15.347056
Sb -12.258281 -9.201779 21.484264
Sb -9.189677 -12.270383 21.484264
Sb -9.189677 -3.064570 -12.270383
Sb -12.258281 -6.133175 -6.133175
Sb -12.258281 -3.064570 -9.201779
Sb -9.189677 -3.064570 -6.133175
Sb -9.189677 -6.133175 -9.201779
Sb -12.258281 -6.133175 0.004034
Sb -12.258281 -3.064570 -3.064570
Sb -9.189677 -3.064570 0.004034
Sb -9.189677 -6.133175 -3.064570
Sb -12.258281 -6.133175 6.141243
Sb -12.258281 -3.064570 3.072638
Sb -9.189677 -3.064570 6.141243
Sb -9.189677 -6.133175 3.072638
Sb -12.258281 -6.133175 12.278451
Sb -12.258281 -3.064570 9.209847
Sb -9.189677 -3.064570 12.278451
Sb -9.189677 -6.133175 9.209847
Sb -12.258281 -6.133175 18.415660
Sb -12.258281 -3.064570 15.347056
Sb -9.189677 -3.064570 18.415660
Sb -9.189677 -6.133175 15.347056
Sb -9.189677 -6.133175 21.484264
Sb -9.189677 3.072638 -18.407592
Sb -12.258281 0.004034 -12.270383
Sb -12.258281 3.072638 -15.338987
Sb -9.189677 3.072638 -12.270383
Sb -9.189677 0.004034 -15.338987
Sb -12.258281 0.004034 -6.133175
Sb -12.258281 3.072638 -9.201779
Sb -9.189677 3.072638 -6.133175
Sb -9.189677 0.004034 -9.201779
Sb -12.258281 0.004034 0.004034
Sb -12.258281 3.072638 -3.064570
Sb -9.189677 3.072638 0.004034
Sb -9.189677 0.004034 -3.064570
Sb -12.258281 0.004034 6.141243
Sb -12.258281 3.072638 3.072638
Sb -9.189677 3.072638 6.141243
Sb -9.189677 0.004034 3.072638
Sb -12.258281 0.004034 12.278451
Sb -12.258281 3.072638 9.209847
Sb -9.189677 3.072638 12.278451
Sb -9.189677 0.004034 9.209847
Sb -9.189677 0.004034 15.347056
Sb -12.258281 6.141243 -18.407592
Sb -12.258281 9.209847 -21.476196
Sb -9.189677 9.209847 -18.407592
Sb -9.189677 6.141243 -21.476196
Sb -12.258281 6.141243 -12.270383
Sb -12.258281 9.209847 -15.338987
Sb -9.189677 9.209847 -12.270383
Sb -9.189677 6.141243 -15.338987
Sb -12.258281 6.141243 -6.133175
Sb -12.258281 9.209847 -9.201779
Sb -9.189677 9.209847 -6.133175
Sb -9.189677 6.141243 -9.201779
Sb -12.258281 6.141243 0.004034
Sb -12.258281 9.209847 -3.064570
Sb -9.189677 9.209847 0.004034
Sb -9.189677 6.141243 -3.064570
Sb -12.258281 6.141243 6.141243
Sb -12.258281 9.209847 3.072638
Sb -9.189677 9.209847 6.141243
Sb -9.189677 6.141243 3.072638
Sb -9.189677 6.141243 9.209847
Sb -12.258281 12.278451 -18.407592
Sb -12.258281 15.347056 -21.476196
Sb -9.189677 15.347056 -18.407592
Sb -9.189677 12.278451 -21.476196
Sb -12.258281 12.278451 -12.270383
Sb -12.258281 15.347056 -15.338987
Sb -9.189677 15.347056 -12.270383
Sb -9.189677 12.278451 -15.338987
Sb -12.258281 12.278451 -6.133175
Sb -12.258281 15.347056 -9.201779
Sb -9.189677 15.347056 -6.133175
Sb -9.189677 12.278451 -9.201779
Sb -12.258281 12.278451 0.004034
Sb -12.258281 15.347056 -3.064570
Sb -9.189677 15.347056 0.004034
Sb -9.189677 12.278451 -3.064570
Sb -9.189677 12.278451 3.072638
Sb -12.258281 18.415660 -18.407592
Sb -12.258281 18.415660 -12.270383
Sb -12.258281 21.484264 -15.338987
Sb -9.189677 21.484264 -12.270383
Sb -9.189677 18.415660 -15.338987
Sb -12.258281 18.415660 -6.133175
Sb -12.258281 21.484264 -9.201779
Sb -9.189677 21.484264 -6.133175
Sb -9.189677 18.415660 -9.201779
Sb -9.189677 18.415660 -3.064570
Sb -3.052468 -21.476196 0.004034
Sb -6.121072 -21.476196 3.072638
Sb -3.052468 -21.476196 6.141243
Sb -6.121072 -21.476196 9.209847
Sb -3.052468 -15.338987 -6.133175
Sb -6.121072 -18.407592 0.004034
Sb -6.121072 -15.338987 -3.064570
Sb -3.052468 -15.338987 0.004034
Sb -3.052468 -18.407592 -3.064570
Sb -6.121072 -18.407592 6.141243
Sb -6.121072 -15.338987 3.072638
Sb -3.052468 -15.338987 6.141243
Sb -3.052468 -18.407592 3.072638
Sb -6.121072 -18.407592 12.278451
Sb -6.121072 -15.338987 9.209847
Sb -3.052468 -15.338987 12.278451
Sb -3.052468 -18.407592 9.209847
Sb -6.121072 -15.338987 15.347056
Sb -3.052468 -9.201779 -12.270383
Sb -6.121072 -12.270383 -6.133175
Sb -6.121072 -9.201779 -9.201779
Sb -3.052468 -9.201779 -6.133175
Sb -3.052468 -12.270383 -9.201779
Sb -6.121072 -12.270383 0.004034
Sb -6.121072 -9.201779 -3.064570
Sb -3.052468 -9.201779 0.004034
Sb -3.052468 -12.270383 -3.064570
Sb -6.121072 -12.270383 6.141243
Sb -6.121072 -9.201779 3.072638
Sb -3.052468 -9.201779 6.141243
Sb -3.052468 -12.270383 3.072638
Sb -6.121072 -12.270383 12.278451
Sb -6.121072 -9.201779 9.209847
Sb -3.052468 -9.201779 12.278451
Sb -3.052468 -12.270383 9.209847
Sb -6.121072 -12.270383 18.415660
Sb -6.121072 -9.201779 15.347056
Sb -3.052468 -9.201779 18.415660
Sb -3.052468 -12.270383 15.347056
Sb -6.121072 -9.201779 21.484264
Sb -3.052468 -3.064570 -18.407592
Sb -6.121072 -6.133175 -12.270383
Sb -6.121072 -3.064570 -15.338987
Sb -3.052468 -3.064570 -12.270383
Sb -3.052468 -6.133175 -15.338987
Sb -6.121072 -6.133175 -6.133175
Sb -6.121072 -3.064570 -9.201779
Sb -3.052468 -3.064570 -6.133175
Sb -3.052468 -6.133175 -9.201779
Sb -6.121072 -6.133175 0.004034
Sb -6.121072 -3.064570 -3.064570
Sb -3.052468 -3.064570 0.004034
Sb -3.052468 -6.133175 -3.064570
Sb -6.121072 -6.133175 6.141243
Sb -6.121072 -3.064570 3.072638
Sb -3.052468 -3.064570 6.141243
Sb -3.052468 -6.133175 3.072638
Sb -6.121072 -6.133175 12.278451
Sb -6.121072 -3.064570 9.209847
Sb -3.052468 -3.064570 12.278451
Sb -3.052468 -6.133175 9.209847
Sb -6.121072 -6.133175 18.415660
Sb -6.121072 -3.064570 15.347056
Sb -3.052468 -3.064570 18.415660
Sb -3.052468 -6.133175 15.347056
Sb -6.121072 -3.064570 21.484264
Sb -3.052468 -6.133175 21.484264
Sb -6.121072 0.004034 -18.407592
Sb -6.121072 3.072638 -21.476196
Sb -3.052468 3.072638 -18.407592
Sb -3.052468 0.004034 -21.476196
Sb -6.121072 0.004034 -12.270383
Sb -6.121072 3.072638 -15.338987
Sb -3.052468 3.072638 -12.270383
Sb -3.052468 0.004034 -15.338987
Sb -6.121072 0.004034 -6.133175
Sb -6.121072 3.072638 -9.201779
Sb -3.052468 3.072638 -6.133175
Sb -3.052468 0.004034 -9.201779
Sb -6.121072 0.004034 0.004034
Sb -6.121072 3.072638 -3.064570
Sb -3.052468 3.072638 0.004034
Sb -3.052468 0.004034 -3.064570
Sb -6.121072 0.004034 6.141243
Sb -6.121072 3.072638 3.072638
Sb -3.052468 3.072638 6.141243
Sb -3.052468 0.004034 3.072638
Sb -6.121072 0.004034 12.278451
Sb -6.121072 3.072638 9.209847
Sb -3.052468 3.072638 12.278451
Sb -3.052468 0.004034 9.209847
Sb -6.121072 0.004034 18.415660
Sb -6.121072 3.072638 15.347056
Sb -3.052468 3.072638 18.415660
Sb -3.052468 0.004034 15.347056
Sb -3.052468 0.004034 21.484264
Sb -6.121072 6.141243 -18.407592
Sb -6.121072 9.209847 -21.476196
Sb -3.052468 9.209847 -18.407592
Sb -3.052468 6.141243 -21.476196
Sb -6.121072 6.141243 -12.270383
Sb -6.121072 9.209847 -15.338987
Sb -3.052468 9.209847 -12.270383
Sb -3.052468 6.141243 -15.338987
Sb -6.121072 6.141243 -6.133175
Sb -6.121072 9.209847 -9.201779
Sb -3.052468 9.209847 -6.133175
Sb -3.052468 6.141243 -9.201779
Sb -6.121072 6.141243 0.004034
Sb -6.121072 9.209847 -3.064570
Sb -3.052468 9.209847 0.004034
Sb -3.052468 6.141243 -3.064570
Sb -6.121072 6.141243 6.141243
Sb -6.121072 9.209847 3.072638
Sb -3.052468 9.209847 6.141243
Sb -3.052468 6.141243 3.072638
Sb -6.121072 6.141243 12.278451
Sb -6.121072 9.209847 9.209847
Sb -3.052468 9.209847 12.278451
Sb -3.052468 6.141243 9.209847
Sb -3.052468 6.141243 15.347056
Sb -6.121072 12.278451 -18.407592
Sb -6.121072 12.278451 -12.270383
Sb -6.121072 15.347056 -15.338987
Sb -3.052468 15.347056 -12.270383
Sb -3.052468 12.278451 -15.338987
Sb -6.121072 12.278451 -6.133175
Sb -6.121072 15.347056 -9.201779
Sb -3.052468 15.347056 -6.133175
Sb -3.052468 12.278451 -9.201779
Sb -6.121072 12.278451 0.004034
Sb -6.121072 15.347056 -3.064570
Sb -3.052468 15.347056 0.004034
Sb -3.052468 12.278451 -3.064570
Sb -6.121072 12.278451 6.141243
Sb -6.121072 15.347056 3.072638
Sb -3.052468 15.347056 6.141243
Sb -3.052468 12.278451 3.072638
Sb -3.052468 12.278451 9.209847
Sb -6.121072 18.415660 -12.270383
Sb -6.121072 18.415660 -6.133175
Sb -6.121072 21.484264 -9.201779
Sb -3.052468 21.484264 -6.133175
Sb -3.052468 18.415660 -9.201779
Sb -6.121072 18.415660 0.004034
Sb -6.121072 21.484264 -3.064570
Sb -3.052468 21.484264 0.004034
Sb -3.052468 18.415660 -3.064570
Sb -3.052468 18.415660 3.072638
Sb 3.084741 -21.476196 -6.133175
Sb 0.016136 -21.476196 -3.064570
Sb 3.084741 -21.476196 0.004034
Sb 0.016136 -21.476196 3.072638
Sb 3.084741 -15.338987 -12.270383
Sb 0.016136 -18.407592 -6.133175
Sb 0.016136 -15.338987 -9.201779
Sb 3.084741 -15.338987 -6.133175
Sb 3.084741 -18.407592 -9.201779
Sb 0.016136 -18.407592 0.004034
Sb 0.016136 -15.338987 -3.064570
Sb 3.084741 -15.338987 0.004034
Sb 3.084741 -18.407592 -3.064570
Sb 0.016136 -18.407592 6.141243
Sb 0.016136 -15.338987 3.072638
Sb 3.084741 -15.338987 6.141243
Sb 3.084741 -18.407592 3.072638
Sb 0.016136 -15.338987 9.209847
Sb 3.084741 -9.201779 -18.407592
Sb 0.016136 -12.270383 -12.270383
Sb 0.016136 -9.201779 -15.338987
Sb 3.084741 -9.201779 -12.270383
Sb 3.084741 -12.270383 -15.338987
Sb 0.016136 -12.270383 -6.133175
Sb 0.016136 -9.201779 -9.201779
Sb 3.084741 -9.201779 -6.133175
Sb 3.084741 -12.270383 -9.201779
Sb 0.016136 -12.270383 0.004034
Sb 0.016136 -9.201779 -3.064570
Sb 3.084741 -9.201779 0.004034
Sb 3.084741 -12.270383 -3.064570
Sb 0.016136 -12.270383 6.141243
Sb 0.016136 -9.201779 3.072638
Sb 3.084741 -9.201779 6.141243
Sb 3.084741 -12.270383 3.072638
Sb 0.016136 -12.270383 12.278451
Sb 0.016136 -9.201779 9.209847
Sb 3.084741 -9.201779 12.278451
Sb 3.084741 -12.270383 9.209847
Sb 0.016136 -9.201779 15.347056
Sb 0.016136 -6.133175 -18.407592
Sb 0.016136 -3.064570 -21.476196
Sb 3.084741 -3.064570 -18.407592
Sb 3.084741 -6.133175 -21.476196
Sb 0.016136 -6.133175 -12.270383
Sb 0.016136 -3.064570 -15.338987
Sb 3.084741 -3.064570 -12.270383
Sb 3.084741 -6.133175 -15.338987
Sb 0.016136 -6.133175 -6.133175
Sb 0.016136 -3.064570 -9.201779
Sb 3.084741 -3.064570 -6.133175
Sb 3.084741 -6.133175 -9.201779
Sb 0.016136 -6.133175 0.004034
Sb 0.016136 -3.064570 -3.064570
Sb 3.084741 -3.064570 0.004034
Sb 3.084741 -6.133175 -3.064570
Sb 0.016136 -6.133175 6.141243
Sb 0.016136 -3.064570 3.072638
Sb 3.084741 -3.064570 6.141243
Sb 3.084741 -6.133175 3.072638
Sb 0.016136 -6.133175 12.278451
Sb 0.016136 -3.064570 9.209847
Sb 3.084741 -3.064570 12.278451
Sb 3.084741 -6.133175 9.209847
Sb 0.016136 -6.133175 18.415660
Sb 0.016136 -3.064570 15.347056
Sb 3.084741 -3.064570 18.415660
Sb 3.084741 -6.133175 15.347056
Sb 0.016136 -3.064570 21.484264
Sb 0.016136 0.004034 -18.407592
Sb 0.016136 3.072638 -21.476196
Sb 3.084741 3.072638 -18.407592
Sb 3.084741 0.004034 -21.476196
Sb 0.016136 0.004034 -12.270383
Sb 0.016136 3.072638 -15.338987
Sb 3.084741 3.072638 -12.270383
Sb 3.084741 0.004034 -15.338987
Sb 0.016136 0.004034 -6.133175
Sb 0.016136 3.072638 -9.201779
Sb 3.084741 3.072638 -6.133175
Sb 3.084741 0.004034 -9.201779
Sb 0.016136 0.004034 0.004034
Sb 0.016136 3.072638 -3.064570
Sb 3.084741 3.072638 0.004034
Sb 3.084741 0.004034 -3.064570
Sb 0.016136 0.004034 6.141243
Sb 0.016136 3.072638 3.072638
Sb 3.084741 3.072638 6.141243
Sb 3.084741 0.004034 3.072638
Sb 0.016136 0.004034 12.278451
Sb 0.016136 3.072638 9.209847
Sb 3.084741 3.072638 12.278451
Sb 3.084741 0.004034 9.209847
Sb 0.016136 0.004034 18.415660
Sb 0.016136 3.072638 15.347056
Sb 3.084741 3.072638 18.415660
Sb 3.084741 0.004034 15.347056
Sb 0.016136 3.072638 21.484264
Sb 3.084741 0.004034 21.484264
Sb 0.016136 6.141243 -18.407592
Sb 0.016136 6.141243 -12.270383
Sb 0.016136 9.209847 -15.338987
Sb 3.084741 9.209847 -12.270383
Sb 3.084741 6.141243 -15.338987
Sb 0.016136 6.141243 -6.133175
Sb 0.016136 9.209847 -9.201779
Sb 3.084741 9.209847 -6.133175
Sb 3.084741 6.141243 -9.201779
Sb 0.016136 6.141243 0.004034
Sb 0.016136 9.209847 -3.064570
Sb 3.084741 9.209847 0.004034
Sb 3.084741 6.141243 -3.064570
Sb 0.016136 6.141243 6.141243
Sb 0.016136 9.209847 3.072638
Sb 3.084741 9.209847 6.141243
Sb 3.084741 6.141243 3.072638
Sb 0.016136 6.141243 12.278451
Sb 0.016136 9.209847 9.209847
Sb 3.084741 9.209847 12.278451
Sb 3.084741 6.141243 9.209847
Sb 0.016136 6.141243 18.415660
Sb 0.016136 9.209847 15.347056
Sb 3.084741 9.209847 18.415660
Sb 3.084741 6.141243 15.347056
Sb 3.084741 6.141243 21.484264
Sb 0.016136 12.278451 -12.270383
Sb 0.016136 12.278451 -6.133175
Sb 0.016136 15.347056 -9.201779
Sb 3.084741 15.347056 -6.133175
Sb 3.084741 12.278451 -9.201779
Sb 0.016136 12.278451 0.004034
Sb 0.016136 15.347056 -3.064570
Sb 3.084741 15.347056 0.004034
Sb 3.084741 12.278451 -3.064570
Sb 0.016136 12.278451 6.141243
Sb 0.016136 15.347056 3.072638
Sb 3.084741 15.347056 6.141243
Sb 3.084741 12.278451 3.072638
Sb 0.016136 12.278451 12.278451
Sb 0.016136 15.347056 9.209847
Sb 3.084741 15.347056 12.278451
Sb 3.084741 12.278451 9.209847
Sb 3.084741 12.278451 15.347056
Sb 0.016136 18.415660 -6.133175
Sb 0.016136 18.415660 0.004034
Sb 0.016136 21.484264 -3.064570
Sb 3.084741 21.484264 0.004034
Sb 3.084741 18.415660 -3.064570
Sb 0.016136 18.415660 6.141243
Sb 0.016136 21.484264 3.072638
Sb 3.084741 21.484264 6.141243
Sb 3.084741 18.415660 3.072638
Sb 3.084741 18.415660 9.209847
Sb 9.221949 -21.476196 -12.270383
Sb 6.153345 -21.476196 -9.201779
Sb 9.221949 -21.476196 -6.133175
Sb 6.153345 -21.476196 -3.064570
Sb 9.221949 -15.338987 -18.407592
Sb 6.153345 -18.407592 -12.270383
Sb 6.153345 -15.338987 -15.338987
Sb 9.221949 -15.338987 -12.270383
Sb 9.221949 -18.407592 -15.338987
Sb 6.153345 -18.407592 -6.133175
Sb 6.153345 -15.338987 -9.201779
Sb 9.221949 -15.338987 -6.133175
Sb 9.221949 -18.407592 -9.201779
Sb 6.153345 -18.407592 0.004034
Sb 6.153345 -15.338987 -3.064570
Sb 9.221949 -15.338987 0.004034
Sb 9.221949 -18.407592 -3.064570
Sb 6.153345 -15.338987 3.072638
Sb 6.153345 -12.270383 -18.407592
Sb 6.153345 -9.201779 -21.476196
Sb 9.221949 -9.201779 -18.407592
Sb 9.221949 -12.270383 -21.476196
Sb 6.153345 -12.270383 -12.270383
Sb 6.153345 -9.201779 -15.338987
Sb 9.221949 -9.201779 -12.270383
Sb 9.221949 -12.270383 -15.338987
Sb 6.153345 -12.270383 -6.133175
Sb 6.153345 -9.201779 -9.201779
Sb 9.221949 -9.201779 -6.133175
Sb 9.221949 -12.270383 -9.201779
Sb 6.153345 -12.270383 0.004034
Sb 6.153345 -9.201779 -3.064570
Sb 9.221949 -9.201779 0.004034
Sb 9.221949 -12.270383 -3.064570
Sb 6.153345 -12.270383 6.141243
Sb 6.153345 -9.201779 3.072638
Sb 9.221949 -9.201779 6.141243
Sb 9.221949 -12.270383 3.072638
Sb 6.153345 -9.201779 9.209847
Sb 6.153345 -6.133175 -18.407592
Sb 6.153345 -3.064570 -21.476196
Sb 9.221949 -3.064570 -18.407592
Sb 9.221949 -6.133175 -21.476196
Sb 6.153345 -6.133175 -12.270383
Sb 6.153345 -3.064570 -15.338987
Sb 9.221949 -3.064570 -12.270383
Sb 9.221949 -6.133175 -15.338987
Sb 6.153345 -6.133175 -6.133175
Sb 6.153345 -3.064570 -9.201779
Sb 9.221949 -3.064570 -6.133175
Sb 9.221949 -6.133175 -9.201779
Sb 6.153345 -6.133175 0.004034
Sb 6.153345 -3.064570 -3.064570
Sb 9.221949 -3.064570 0.004034
Sb 9.221949 -6.133175 -3.064570
Sb 6.153345 -6.133175 6.141243
Sb 6.153345 -3.064570 3.072638
Sb 9.221949 -3.064570 6.141243
Sb 9.221949 -6.133175 3.072638
Sb 6.153345 -6.133175 12.278451
Sb 6.153345 -3.064570 9.209847
Sb 9.221949 -3.064570 12.278451
Sb 9.221949 -6.133175 9.209847
Sb 6.153345 -3.064570 15.347056
Sb 6.153345 0.004034 -18.407592
Sb 6.153345 0.004034 -12.270383
Sb 6.153345 3.072638 -15.338987
Sb 9.221949 3.072638 -12.270383
Sb 9.221949 0.004034 -15.338987
Sb 6.153345 0.004034 -6.133175
Sb 6.153345 3.072638 -9.201779
Sb 9.221949 3.072638 -6.133175
Sb 9.221949 0.004034 -9.201779
Sb 6.153345 0.004034 0.004034
Sb 6.153345 3.072638 -3.064570
Sb 9.221949 3.072638 0.004034
Sb 9.221949 0.004034 -3.064570
Sb 6.153345 0.004034 6.141243
Sb 6.153345 3.072638 3.072638
Sb 9.221949 3.072638 6.141243
Sb 9.221949 0.004034 3.072638
Sb 6.153345 0.004034 12.278451
Sb 6.153345 3.072638 9.209847
Sb 9.221949 3.072638 12.278451
Sb 9.221949 0.004034 9.209847
Sb 6.153345 0.004034 18.415660
Sb 6.153345 3.072638 15.347056
Sb 9.221949 3.072638 18.415660
Sb 9.221949 0.004034 15.347056
Sb 6.153345 3.072638 21.484264
Sb 6.153345 6.141243 -12.270383
Sb 6.153345 6.141243 -6.133175
Sb 6.153345 9.209847 -9.201779
Sb 9.221949 9.209847 -6.133175
Sb 9.221949 6.141243 -9.201779
Sb 6.153345 6.141243 0.004034
Sb 6.153345 9.209847 -3.064570
Sb 9.221949 9.209847 0.004034
Sb 9.221949 6.141243 -3.064570
Sb 6.153345 6.141243 6.141243
Sb 6.153345 9.209847 3.072638
Sb 9.221949 9.209847 6.141243
Sb 9.221949 6.141243 3.072638
Sb 6.153345 6.141243 12.278451
Sb 6.153345 9.209847 9.209847
Sb 9.221949 9.209847 12.278451
Sb 9.221949 6.141243 9.209847
Sb 6.153345 6.141243 18.415660
Sb 6.153345 9.209847 15.347056
Sb 9.221949 9.209847 18.415660
Sb 9.221949 6.141243 15.347056
Sb 6.153345 9.209847 21.484264
Sb 9.221949 6.141243 21.484264
Sb 6.153345 12.278451 -6.133175
Sb 6.153345 12.278451 0.004034
Sb 6.153345 15.347056 -3.064570
Sb 9.221949 15.347056 0.004034
Sb 9.221949 12.278451 -3.064570
Sb 6.153345 12.278451 6.141243
Sb 6.153345 15.347056 3.072638
Sb 9.221949 15.347056 6.141243
Sb 9.221949 12.278451 3.072638
Sb 6.153345 12.278451 12.278451
Sb 6.153345 15.347056 9.209847
Sb 9.221949 15.347056 12.278451
Sb 9.221949 12.278451 9.209847
Sb 6.153345 12.278451 18.415660
Sb 6.153345 15.347056 15.347056
Sb 9.221949 15.347056 18.415660
Sb 9.221949 12.278451 15.347056
Sb 9.221949 12.278451 21.484264
Sb 6.153345 18.415660 0.004034
Sb 6.153345 18.415660 6.141243
Sb 6.153345 21.484264 3.072638
Sb 9.221949 21.484264 6.141243
Sb 9.221949 18.415660 3.072638
Sb 6.153345 18.415660 12.278451
Sb 6.153345 21.484264 9.209847
Sb 9.221949 21.484264 12.278451
Sb 9.221949 18.415660 9.209847
Sb 9.221949 18.415660 15.347056
Sb 12.290554 -21.476196 -15.338987
Sb 15.359158 -21.476196 -12.270383
Sb 12.290554 -21.476196 -9.201779
Sb 12.290554 -18.407592 -18.407592
Sb 12.290554 -15.338987 -21.476196
Sb 15.359158 -15.338987 -18.407592
Sb 15.359158 -18.407592 -21.476196
Sb 12.290554 -18.407592 -12.270383
Sb 12.290554 -15.338987 -15.338987
Sb 15.359158 -15.338987 -12.270383
Sb 15.359158 -18.407592 -15.338987
Sb 12.290554 -18.407592 -6.133175
Sb 12.290554 -15.338987 -9.201779
Sb 15.359158 -15.338987 -6.133175
Sb 15.359158 -18.407592 -9.201779
Sb 12.290554 -15.338987 -3.064570
Sb 12.290554 -12.270383 -18.407592
Sb 12.290554 -9.201779 -21.476196
Sb 15.359158 -9.201779 -18.407592
Sb 15.359158 -12.270383 -21.476196
Sb 12.290554 -12.270383 -12.270383
Sb 12.290554 -9.201779 -15.338987
Sb 15.359158 -9.201779 -12.270383
Sb 15.359158 -12.270383 -15.338987
Sb 12.290554 -12.270383 -6.133175
Sb 12.290554 -9.201779 -9.201779
Sb 15.359158 -9.201779 -6.133175
Sb 15.359158 -12.270383 -9.201779
Sb 12.290554 -12.270383 0.004034
Sb 12.290554 -9.201779 -3.064570
Sb 15.359158 -9.201779 0.004034
Sb 15.359158 -12.270383 -3.064570
Sb 12.290554 -9.201779 3.072638
Sb 12.290554 -6.133175 -18.407592
Sb 12.290554 -6.133175 -12.270383
Sb 12.290554 -3.064570 -15.338987
Sb 15.359158 -3.064570 -12.270383
Sb 15.359158 -6.133175 -15.338987
Sb 12.290554 -6.133175 -6.133175
Sb 12.290554 -3.064570 -9.201779
Sb 15.359158 -3.064570 -6.133175
Sb 15.359158 -6.133175 -9.201779
Sb 12.290554 -6.133175 0.004034
Sb 12.290554 -3.064570 -3.064570
Sb 15.359158 -3.064570 0.004034
Sb 15.359158 -6.133175 -3.064570
Sb 12.290554 -6.133175 6.141243
Sb 12.290554 -3.064570 3.072638
Sb 15.359158 -3.064570 6.141243
Sb 15.359158 -6.133175 3.072638
Sb 12.290554 -3.064570 9.209847
Sb 12.290554 0.004034 -12.270383
Sb 12.290554 0.004034 -6.133175
Sb 12.290554 3.072638 -9.201779
Sb 15.359158 3.072638 -6.133175
Sb 15.359158 0.004034 -9.201779
Sb 12.290554 0.004034 0.004034
Sb 12.290554 3.072638 -3.064570
Sb 15.359158 3.072638 0.004034
Sb 15.359158 0.004034 -3.064570
Sb 12.290554 0.004034 6.141243
Sb 12.290554 3.072638 3.072638
Sb 15.359158 3.072638 6.141243
Sb 15.359158 0.004034 3.072638
Sb 12.290554 0.004034 12.278451
Sb 12.290554 3.072638 9.209847
Sb 15.359158 3.072638 12.278451
Sb 15.359158 0.004034 9.209847
Sb 12.290554 3.072638 15.347056
Sb 12.290554 6.141243 -6.133175
Sb 12.290554 6.141243 0.004034
Sb 12.290554 9.209847 -3.064570
Sb 15.359158 9.209847 0.004034
Sb 15.359158 6.141243 -3.064570
Sb 12.290554 6.141243 6.141243
Sb 12.290554 9.209847 3.072638
Sb 15.359158 9.209847 6.141243
Sb 15.359158 6.141243 3.072638
Sb 12.290554 6.141243 12.278451
Sb 12.290554 9.209847 9.209847
Sb 15.359158 9.209847 12.278451
Sb 15.359158 6.141243 9.209847
Sb 12.290554 6.141243 18.415660
Sb 12.290554 9.209847 15.347056
Sb 15.359158 9.209847 18.415660
Sb 15.359158 6.141243 15.347056
Sb 12.290554 9.209847 21.484264
Sb 12.290554 12.278451 0.004034
Sb 12.290554 12.278451 6.141243
Sb 12.290554 15.347056 3.072638
Sb 15.359158 15.347056 6.141243
Sb 15.359158 12.278451 3.072638
Sb 12.290554 12.278451 12.278451
Sb 12.290554 15.347056 9.209847
Sb 15.359158 15.347056 12.278451
Sb 15.359158 12.278451 9.209847
Sb 12.290554 12.278451 18.415660
Sb 12.290554 15.347056 15.347056
Sb 15.359158 15.347056 18.415660
Sb 15.359158 12.278451 15.347056
Sb 12.290554 15.347056 21.484264
Sb 15.359158 12.278451 21.484264
Sb 12.290554 18.415660 6.141243
Sb 12.290554 18.415660 12.278451
Sb 12.290554 21.484264 9.209847
Sb 15.359158 21.484264 12.278451
Sb 15.359158 18.415660 9.209847
Sb 12.290554 18.415660 18.415660
Sb 12.290554 21.484264 15.347056
Sb 15.359158 18.415660 15.347056
Sb 15.359158 18.415660 21.484264
Sb 18.427762 -21.476196 -15.338987
Sb 18.427762 -18.407592 -12.270383
Sb 18.427762 -15.338987 -15.338987
Sb 21.496367 -15.338987 -12.270383
Sb 18.427762 -15.338987 -9.201779
Sb 18.427762 -12.270383 -18.407592
Sb 18.427762 -12.270383 -12.270383
Sb 18.427762 -9.201779 -15.338987
Sb 21.496367 -9.201779 -12.270383
Sb 21.496367 -12.270383 -15.338987
Sb 18.427762 -12.270383 -6.133175
Sb 18.427762 -9.201779 -9.201779
Sb 21.496367 -9.201779 -6.133175
Sb 21.496367 -12.270383 -9.201779
Sb 18.427762 -9.201779 -3.064570
Sb 18.427762 -6.133175 -12.270383
Sb 18.427762 -6.133175 -6.133175
Sb 18.427762 -3.064570 -9.201779
Sb 21.496367 -3.064570 -6.133175
Sb 21.496367 -6.133175 -9.201779
Sb 18.427762 -6.133175 0.004034
Sb 18.427762 -3.064570 -3.064570
Sb 21.496367 -3.064570 0.004034
Sb 21.496367 -6.133175 -3.064570
Sb 18.427762 -3.064570 3.072638
Sb 18.427762 0.004034 -6.133175
Sb 18.427762 0.004034 0.004034
Sb 18.427762 3.072638 -3.064570
Sb 21.496367 3.072638 0.004034
Sb 21.496367 0.004034 -3.064570
Sb 18.427762 0.004034 6.141243
Sb 18.427762 3.072638 3.072638
Sb 21.496367 3.072638 6.141243
Sb 21.496367 0.004034 3.072638
Sb 18.427762 3.072638 9.209847
Sb 18.427762 6.141243 0.004034
Sb 18.427762 6.141243 6.141243
Sb 18.427762 9.209847 3.072638
Sb 21.496367 9.209847 6.141243
Sb 21.496367 6.141243 3.072638
Sb 18.427762 6.141243 12.278451
Sb 18.427762 9.209847 9.209847
Sb 21.496367 9.209847 12.278451
Sb 21.496367 6.141243 9.209847
Sb 18.427762 9.209847 15.347056
Sb 18.427762 12.278451 6.141243
Sb 18.427762 12.278451 12.278451
Sb 18.427762 15.347056 9.209847
Sb 21.496367 15.347056 12.278451
Sb 21.496367 12.278451 9.209847
Sb 18.427762 12.278451 18.415660
Sb 18.427762 15.347056 15.347056
Sb 21.496367 12.278451 15.347056
Sb 18.427762 18.415660 12.278451
Sb 18.427762 21.484264 15.347056
Cl -24.532698 -15.338987 15.347056
Cl -21.464094 -15.338987 18.415660
Cl -21.464094 -18.407592 15.347056
Cl -24.532698 -12.270383 12.278451
Cl -24.532698 -9.201779 9.209847
Cl -24.532698 -6.133175 6.141243
Cl -24.532698 -3.064570 3.072638
Cl -24.532698 0.004034 0.004034
Cl -24.532698 3.072638 -3.064570
Cl -24.532698 6.141243 -6.133175
Cl -24.532698 9.209847 -9.201779
Cl -21.464094 15.347056 -18.407592
Cl -24.532698 12.278451 -12.270383
Cl -24.532698 15.347056 -15.338987
Cl -21.464094 18.415660 -15.338987
Cl -15.326885 -21.476196 18.415660
Cl -15.326885 -24.544800 15.347056
Cl -18.395489 -18.407592 18.415660
Cl -18.395489 -15.338987 21.484264
Cl -15.326885 -15.338987 24.552869
Cl -15.326885 15.347056 -24.544800
Cl -18.395489 15.347056 -21.476196
Cl -18.395489 18.415660 -18.407592
Cl -15.326885 21.484264 -18.407592
Cl -15.326885 24.552869 -15.338987
Cl -12.258281 -24.544800 12.278451
Cl -9.189677 -24.544800 9.209847
Cl -12.258281 -12.270383 24.552869
Cl -9.189677 -9.201779 24.552869
Cl -9.189677 9.209847 -24.544800
Cl -12.258281 12.278451 -24.544800
Cl -12.258281 24.552869 -12.270383
Cl -9.189677 24.552869 -9.201779
Cl -6.121072 -24.544800 6.141243
Cl -3.052468 -24.544800 3.072638
Cl -6.121072 -6.133175 24.552869
Cl -3.052468 -3.064570 24.552869
Cl -3.052468 3.072638 -24.544800
Cl -6.121072 6.141243 -24.544800
Cl -6.121072 24.552869 -6.133175
Cl -3.052468 24.552869 -3.064570
Cl 0.016136 -24.544800 0.004034
Cl 3.084741 -24.544800 -3.064570
Cl 3.084741 -3.064570 -24.544800
Cl 0.016136 0.004034 -24.544800
Cl 0.016136 0.004034 24.552869
Cl 3.084741 3.072638 24.552869
Cl 0.016136 24.552869 0.004034
Cl 3.084741 24.552869 3.072638
Cl 6.153345 -24.544800 -6.133175
Cl 9.221949 -24.544800 -9.201779
Cl 9.221949 -9.201779 -24.544800
Cl 6.153345 -6.133175 -24.544800
Cl 6.153345 6.141243 24.552869
Cl 9.221949 9.209847 24.552869
Cl 6.153345 24.552869 6.141243
Cl 9.221949 24.552869 9.209847
Cl 15.359158 -21.476196 -18.407592
Cl 12.290554 -24.544800 -12.270383
Cl 15.359158 -24.544800 -15.338987
Cl 15.359158 -15.338987 -24.544800
Cl 12.290554 -12.270383 -24.544800
Cl 12.290554 12.278451 24.552869
Cl 15.359158 15.347056 24.552869
Cl 15.359158 21.484264 18.415660
Cl 12.290554 24.552869 12.278451
Cl 15.359158 24.552869 15.347056
Cl 18.427762 -18.407592 -18.407592
Cl 18.427762 -15.338987 -21.476196
Cl 21.496367 -15.338987 -18.407592
Cl 21.496367 -18.407592 -15.338987
Cl 21.496367 15.347056 18.415660
Cl 18.427762 15.347056 21.484264
Cl 18.427762 18.415660 18.415660
Cl 21.496367 18.415660 15.347056
Cl 24.564971 -15.338987 -15.338987
Cl 24.564971 -12.270383 -12.270383
Cl 24.564971 -9.201779 -9.201779
Cl 24.564971 -6.133175 -6.133175
Cl 24.564971 -3.064570 -3.064570
Cl 24.564971 0.004034 0.004034
Cl 24.564971 3.072638 3.072638
Cl 24.564971 6.141243 6.141243
Cl 24.564971 9.209847 9.209847
Cl 24.564971 12.278451 12.278451
Cl 24.564971 15.347056 15.347056
Cl -12.258281 -12.270383 -6.133175
Cl -12.258281 9.209847 9.209847
Cl 9.221949 -12.270383 9.209847
Cl 9.221949 9.209847 -12.270383
Cl -18.395489 12.278451 -24.544800
Cl 12.290554 18.415660 24.552869
Cl 18.427762 12.278451 24.552869
Cl 18.427762 24.552869 12.278451
Cl 12.290554 -18.407592 -24.544800
Cl -18.395489 24.552869 -12.270383
Cl 24.564971 -18.407592 -12.270383
Cl 24.564971 -12.270383 -18.407592
Cl -18.395489 -12.270383 24.552869
Cl -12.258281 -18.407592 24.552869
Cl -12.258281 24.552869 -18.407592
Cl -24.532698 -18.407592 12.278451
Cl -3.052468 -3.064570 -24.544800
Cl 0.016136 24.552869 6.141243
Cl 24.564971 0.004034 6.141243
Cl 24.564971 6.141243 0.004034
Cl 3.084741 -24.544800 -9.201779
Cl 3.084741 -3.064570 24.552869
Cl -3.052468 3.072638 24.552869
Cl 3.084741 24.552869 -3.064570
Cl -24.532698 3.072638 -9.201779
Cl -24.532698 9.209847 -3.064570
Cl 9.221949 -24.544800 -3.064570
Cl 9.221949 -3.064570 -24.544800
Cl -24.532698 -3.064570 9.209847
Cl -3.052468 -24.544800 9.209847
Cl -3.052468 9.209847 -24.544800
Cl -9.189677 -24.544800 3.072638
Cl -24.532698 -9.201779 3.072638
Cl -9.189677 24.552869 -3.064570
Cl 24.564971 -3.064570 -9.201779
Cl 24.564971 -9.201779 -3.064570
Cl 15.359158 0.004034 15.347056
Cl 15.359158 15.347056 0.004034
Cl 0.016136 15.347056 15.347056
Cl -3.052468 -12.270383 -15.338987
Cl -12.258281 -3.064570 -15.338987
Cl 9.221949 24.552869 15.347056
Cl 24.564971 15.347056 9.209847
Cl 24.564971 9.209847 15.347056
Cl -15.326885 -3.064570 18.415660
Cl -3.052468 18.415660 -15.338987
Cl -3.052468 -15.338987 18.415660
Cl 12.290554 -24.544800 -18.407592
Cl -15.326885 15.347056 0.004034
Cl 15.359158 -15.338987 0.004034
Cl 15.359158 0.004034 -15.338987
Cl -24.532698 12.278451 -18.407592
Cl -18.395489 -24.544800 12.278451
Cl -24.532698 18.415660 -12.270383
Cl 18.427762 -24.544800 -12.270383
Cl 18.427762 -12.270383 -24.544800
Cl -24.532698 -12.270383 18.415660
Cl -12.258281 -24.544800 18.415660
Cl -12.258281 18.415660 -24.544800
Cl -12.258281 6.141243 -24.544800
Cl 6.153345 -12.270383 -24.544800
Cl 9.221949 3.072638 24.552869
Cl 3.084741 9.209847 24.552869
Cl 9.221949 24.552869 3.072638
Cl -24.532698 -3.064570 -3.064570
Cl -24.532698 3.072638 3.072638
Cl 3.084741 -24.544800 3.072638
Cl 3.084741 3.072638 -24.544800
Cl -3.052468 -24.544800 -3.064570
Cl -3.052468 -9.201779 24.552869
Cl -9.189677 -3.064570 24.552869
Cl -3.052468 24.552869 -9.201779
Cl -18.395489 -15.338987 3.072638
Cl -6.121072 18.415660 6.141243
Cl 18.427762 -6.133175 6.141243
Cl 18.427762 6.141243 -6.133175
Cl 3.084741 -18.407592 -15.338987
Cl -6.121072 9.209847 15.347056
Cl 9.221949 -6.133175 15.347056
Cl 9.221949 15.347056 -6.133175
Cl -18.395489 3.072638 -15.338987
Cl -18.395489 3.072638 9.209847
Cl 3.084741 -18.407592 9.209847
Cl 3.084741 9.209847 -18.407592
Cl -3.052468 -18.407592 -9.201779
Cl -18.395489 18.415660 -6.133175
Cl 18.427762 -18.407592 -6.133175
Cl 18.427762 -6.133175 -18.407592
Cl -18.395489 -3.064570 -9.201779
Cl 15.359158 6.141243 21.484264
Cl 15.359158 21.484264 6.141243
Cl 6.153345 15.347056 21.484264
Cl -12.258281 -18.407592 0.004034
Cl -21.464094 -6.133175 15.347056
Cl -6.121072 -21.476196 15.347056
Cl -6.121072 15.347056 -21.476196
Cl -9.189677 0.004034 -21.476196
Cl 3.084741 21.484264 12.278451
Cl 21.496367 3.072638 12.278451
Cl 21.496367 12.278451 3.072638
Cl 0.016136 -9.201779 -21.476196
Cl -9.189677 3.072638 18.415660
Cl 3.084741 -9.201779 18.415660
Cl 3.084741 18.415660 -9.201779
Cl -18.395489 9.209847 3.072638
Cl 9.221949 -18.407592 3.072638
Cl 9.221949 3.072638 -18.407592
Cl -18.395489 -9.201779 -3.064570
Cl -15.326885 -21.476196 6.141243
Cl 12.290554 24.552869 18.415660
Cl 24.564971 12.278451 18.415660
Cl 24.564971 18.415660 12.278451
Cl -9.189677 -9.201779 -12.270383
Cl -12.258281 24.552869 -6.133175
Cl 24.564971 -12.270383 -6.133175
Cl 24.564971 -6.133175 -12.270383
Cl -6.121072 -6.133175 -18.407592
Cl -9.189677 -15.338987 24.552869
Cl -15.326885 -9.201779 24.552869
Cl -9.189677 24.552869 -15.338987
Cl 9.221949 -24.544800 -15.338987
Cl -24.532698 12.278451 -6.133175
Cl 12.290554 -24.544800 -6.133175
Cl 12.290554 -6.133175 -24.544800
Cl -24.532698 9.209847 -15.338987
Cl -3.052468 24.552869 3.072638
Cl 24.564971 3.072638 -3.064570
Cl 24.564971 -3.064570 3.072638
Cl -24.532698 -15.338987 9.209847
Cl -6.121072 15.347056 9.209847
Cl 15.359158 -6.133175 9.209847
Cl 15.359158 9.209847 -6.133175
Cl -18.395489 9.209847 -21.476196
Cl 0.016136 9.209847 21.484264
Cl 9.221949 0.004034 21.484264
Cl 9.221949 21.484264 0.004034
Cl 6.153345 -15.338987 -21.476196
Cl -15.326885 3.072638 12.278451
Cl 3.084741 -15.338987 12.278451
Cl 3.084741 12.278451 -15.338987
Cl -6.121072 -18.407592 -6.133175
Cl -12.258281 18.415660 0.004034
Cl 18.427762 -12.270383 0.004034
Cl 18.427762 0.004034 -12.270383
Cl 6.153345 18.415660 18.415660
Cl 18.427762 6.141243 18.415660
Cl 18.427762 18.415660 6.141243
Cl -15.326885 3.072638 -18.407592
Cl -15.326885 -6.133175 -9.201779
Cl -12.258281 12.278451 6.141243
Cl 12.290554 -12.270383 6.141243
Cl 12.290554 6.141243 -12.270383
Cl -24.532698 -9.201779 15.347056
Cl -9.189677 -24.544800 15.347056
Cl -9.189677 15.347056 -24.544800
Cl -15.326885 -24.544800 9.209847
Cl -21.464094 21.484264 -12.270383
Cl 21.496367 -21.476196 -12.270383
Cl 21.496367 -12.270383 -21.476196
Cl 12.290554 -21.476196 -21.476196
Cl -6.121072 0.004034 24.552869
Cl 0.016136 -6.133175 24.552869
Cl 0.016136 24.552869 -6.133175
Cl -24.532698 -6.133175 0.004034
Cl -6.121072 -24.544800 0.004034
Cl 15.359158 9.209847 24.552869
Cl 9.221949 15.347056 24.552869
Cl 15.359158 24.552869 9.209847
Cl -24.532698 0.004034 6.141243
Cl 0.016136 -24.544800 6.141243
Cl 0.016136 6.141243 -24.544800
Cl 0.016136 -6.133175 -24.544800
Cl 3.084741 24.552869 9.209847
Cl 24.564971 9.209847 3.072638
Cl 24.564971 3.072638 9.209847
Cl -9.189677 3.072638 -24.544800
Cl 6.153345 -24.544800 -12.270383
Cl -21.464094 -12.270383 21.484264
Cl -12.258281 -21.476196 21.484264
Cl -12.258281 21.484264 -21.476196
Cl -21.464094 -21.476196 12.278451
Cl -24.532698 15.347056 -9.201779
Cl 15.359158 -24.544800 -9.201779
Cl 15.359158 -9.201779 -24.544800
Cl -24.532698 6.141243 -12.270383
Cl -12.258281 -6.133175 24.552869
Cl -6.121072 -12.270383 24.552869
Cl -6.121072 24.552869 -12.270383
Cl -24.532698 -12.270383 6.141243
Cl -6.121072 24.552869 0.004034
Cl 24.564971 -6.133175 0.004034
Cl 24.564971 0.004034 -6.133175
Cl -24.532698 6.141243 0.004034
Cl 6.153345 -24.544800 0.004034
Cl 6.153345 0.004034 -24.544800
Cl -24.532698 0.004034 -6.133175
Cl -15.326885 24.552869 -9.201779
Cl 24.564971 -9.201779 -15.338987
Cl 24.564971 -15.338987 -9.201779
Cl 0.016136 -24.544800 -6.133175
Cl 12.290554 21.484264 21.484264
Cl 21.496367 12.278451 21.484264
Cl 21.496367 21.484264 12.278451
Cl 0.016136 -15.338987 -15.338987
Cl -3.052468 9.209847 18.415660
Cl 9.221949 -3.064570 18.415660
Cl 9.221949 18.415660 -3.064570
Cl -12.258281 -15.338987 -3.064570
Cl -18.395489 -3.064570 15.347056
Cl -3.052468 -18.407592 15.347056
Cl -3.052468 15.347056 -18.407592
Cl -6.121072 -12.270383 -12.270383
Cl -12.258281 3.072638 15.347056
Cl 3.084741 -12.270383 15.347056
Cl 3.084741 15.347056 -12.270383
Cl -18.395489 -12.270383 0.004034
Cl -18.395489 12.278451 0.004034
Cl 12.290554 -18.407592 0.004034
Cl 12.290554 0.004034 -18.407592
Cl 6.153345 -18.407592 -18.407592
Cl -3.052468 15.347056 12.278451
Cl 15.359158 -3.064570 12.278451
Cl 15.359158 12.278451 -3.064570
Cl -21.464094 12.278451 -21.476196
Cl -18.395489 -18.407592 6.141243
Cl -9.189677 18.415660 3.072638
Cl 18.427762 -9.201779 3.072638
Cl 18.427762 3.072638 -9.201779
Cl -18.395489 0.004034 -12.270383
Cl -18.395489 6.141243 6.141243
Cl 6.153345 -18.407592 6.141243
Cl 6.153345 6.141243 -18.407592
Cl -9.189677 9.209847 12.278451
Cl 9.221949 -9.201779 12.278451
Cl 9.221949 12.278451 -9.201779
Cl 9.221949 -15.338987 -24.544800
Cl -15.326885 9.209847 -24.544800
Cl 6.153345 24.552869 12.278451
Cl 24.564971 6.141243 12.278451
Cl 24.564971 12.278451 6.141243
Cl -6.121072 0.004034 -24.544800
Cl 0.016136 6.141243 24.552869
Cl 6.153345 0.004034 24.552869
Cl 6.153345 24.552869 0.004034
Cl -24.532698 -6.133175 12.278451
Cl -6.121072 -24.544800 12.278451
Cl -6.121072 12.278451 -24.544800
Cl -12.258281 -24.544800 6.141243
Cl 3.084741 -9.201779 -24.544800
Cl 6.153345 12.278451 24.552869
Cl 12.290554 6.141243 24.552869
Cl 12.290554 24.552869 6.141243
Cl -18.395489 -9.201779 21.484264
Cl -9.189677 21.484264 -18.407592
Cl 21.496367 -15.338987 -6.133175
Cl -9.189677 -6.133175 -15.338987
Cl -15.326885 21.484264 -6.133175
Cl 21.496367 -6.133175 -15.338987
Cl -6.121072 -15.338987 21.484264
Cl -6.121072 -21.476196 -3.064570
Cl -21.464094 15.347056 -6.133175
Cl 15.359158 -6.133175 -21.476196
Cl 15.359158 -21.476196 -6.133175
Cl -21.464094 -6.133175 -3.064570
Cl -9.189677 0.004034 21.484264
Cl 0.016136 21.484264 -9.201779
Cl 3.084741 -6.133175 21.484264
Cl -21.464094 6.141243 -15.338987
Cl 0.016136 21.484264 9.209847
Cl 21.496367 9.209847 0.004034
Cl 21.496367 0.004034 9.209847
Cl 3.084741 -21.476196 -12.270383
Cl 3.084741 15.347056 18.415660
Cl 15.359158 18.415660 3.072638
Cl 0.016136 -21.476196 9.209847
Cl -9.189677 -12.270383 -9.201779
Cl -21.464094 0.004034 9.209847
Cl 0.016136 9.209847 -21.476196
Cl 15.359158 3.072638 18.415660
Cl -12.258281 0.004034 -18.407592
Cl 0.016136 -12.270383 -18.407592
Cl 0.016136 -12.270383 18.415660
Cl -6.121072 6.141243 18.415660
Cl 6.153345 18.415660 -6.133175
Cl -15.326885 -9.201779 -6.133175
Cl 21.496367 9.209847 18.415660
Cl 9.221949 21.484264 18.415660
Cl 21.496367 18.415660 9.209847
Cl -21.464094 -18.407592 9.209847
Cl -9.189677 -21.476196 18.415660
Cl -9.189677 21.484264 0.004034
Cl 21.496367 0.004034 -9.201779
Cl 9.221949 -21.476196 -18.407592
Cl 21.496367 -9.201779 0.004034
Cl -15.326885 -6.133175 21.484264
Cl -6.121072 21.484264 -15.338987
Cl -21.464094 9.209847 0.004034
Cl 9.221949 0.004034 -21.476196
Cl 9.221949 -21.476196 0.004034
Cl -12.258281 -21.476196 3.072638
Cl -21.464094 0.004034 -9.201779
Cl 21.496367 -3.064570 6.141243
Cl -3.052468 21.484264 6.141243
Cl 21.496367 6.141243 -3.064570
Cl -15.326885 6.141243 -21.476196
Cl 12.290554 -9.201779 9.209847
Cl -15.326885 0.004034 15.347056
Cl 0.016136 15.347056 -15.338987
Cl -3.052468 -6.133175 -21.476196
Cl -9.189677 12.278451 9.209847
Cl 12.290554 9.209847 -9.201779
Cl 15.359158 -18.407592 -3.064570
Cl -21.464094 -12.270383 3.072638
Cl -18.395489 15.347056 -3.064570
Cl 15.359158 -3.064570 -18.407592
Cl 12.290554 0.004034 18.415660
Cl 0.016136 -21.476196 -9.201779
Cl 0.016136 -18.407592 12.278451
Cl 3.084741 18.415660 15.347056
Cl 18.427762 15.347056 3.072638
Cl -9.189677 -18.407592 -3.064570
Cl -15.326885 9.209847 6.141243
Cl 9.221949 6.141243 -15.338987
Cl 9.221949 -15.338987 6.141243
Cl 6.153345 -6.133175 18.415660
Cl -15.326885 -3.064570 -12.270383
Cl 0.016136 12.278451 18.415660
Cl 12.290554 18.415660 0.004034
Cl 18.427762 0.004034 12.278451
Cl -18.395489 21.484264 -9.201779
Cl 21.496367 -9.201779 -18.407592
Cl -3.052468 -15.338987 -12.270383
Cl 21.496367 -18.407592 -9.201779
Cl -15.326885 -15.338987 0.004034
Cl -21.464094 -9.201779 18.415660
Cl 15.359158 3.072638 -12.270383
Cl -21.464094 9.209847 -18.407592
Cl -12.258281 15.347056 3.072638
Cl 15.359158 -12.270383 3.072638
Cl 6.153345 12.278451 -12.270383
Cl -12.258281 6.141243 12.278451
Cl 6.153345 -12.270383 12.278451
Cl -3.052468 12.278451 -21.476196
Cl 3.084741 -12.270383 -21.476196
Cl -3.052468 -12.270383 21.484264
Cl -6.121072 3.072638 21.484264
Cl 3.084741 21.484264 -6.133175
Cl -6.121072 -3.064570 -21.476196
Cl -21.464094 3.072638 6.141243
Cl 21.496367 6.141243 15.347056
Cl 3.084741 6.141243 -21.476196
Cl -21.464094 -3.064570 -6.133175
Cl 3.084741 -21.476196 6.141243
Cl -3.052468 21.484264 -12.270383
Cl -12.258281 -3.064570 21.484264
Cl -18.395489 -21.476196 9.209847
Cl -21.464094 -3.064570 12.278451
Cl 21.496367 -3.064570 -12.270383
Cl 21.496367 -12.270383 -3.064570
Cl -12.258281 -9.201779 -9.201779
Cl -12.258281 21.484264 -3.064570
