149
CdTe-Te-Cd68Te55Cl26-clean
Cd -4.835060 -4.901143 -1.619029
Cd -4.835060 -8.183256 1.663084
Cd -8.117173 -4.901143 1.663084
Cd -4.835060 -4.901143 4.945198
Cd -4.835060 1.663084 -8.183256
Cd -4.835060 -1.619029 -4.901143
Cd -8.117173 1.663084 -4.901143
Cd -8.117173 -1.619029 -1.619029
Cd -4.835060 1.663084 -1.619029
Cd -4.835060 -1.619029 1.663084
Cd -8.117173 1.663084 1.663084
Cd -8.117173 -1.619029 4.945198
Cd -4.835060 1.663084 4.945198
Cd -4.835060 -1.619029 8.227311
Cd -4.835060 4.945198 -4.901143
Cd -8.117173 4.945198 -1.619029
Cd -4.835060 8.227311 -1.619029
Cd -4.835060 4.945198 1.663084
Cd 1.729167 -4.901143 -8.183256
Cd 1.729167 -8.183256 -4.901143
Cd -1.552946 -4.901143 -4.901143
Cd -1.552946 -8.183256 -1.619029
Cd 1.729167 -4.901143 -1.619029
Cd 1.729167 -8.183256 1.663084
Cd -1.552946 -4.901143 1.663084
Cd -1.552946 -8.183256 4.945198
Cd 1.729167 -4.901143 4.945198
Cd -1.552946 -4.901143 8.227311
Cd -1.552946 -1.619029 -8.183256
Cd 1.729167 1.663084 -8.183256
Cd 1.729167 -1.619029 -4.901143
Cd -1.552946 1.663084 -4.901143
Cd -1.552946 -1.619029 -1.619029
Cd 1.729167 1.663084 -1.619029
Cd 1.729167 -1.619029 1.663084
Cd -1.552946 1.663084 1.663084
Cd -1.552946 -1.619029 4.945198
Cd 1.729167 1.663084 4.945198
Cd 1.729167 -1.619029 8.227311
Cd -1.552946 1.663084 8.227311
Cd -1.552946 4.945198 -8.183256
Cd 1.729167 4.945198 -4.901143
Cd -1.552946 8.227311 -4.901143
Cd -1.552946 4.945198 -1.619029
Cd 1.729167 8.227311 -1.619029
Cd 1.729167 4.945198 1.663084
Cd -1.552946 8.227311 1.663084
Cd -1.552946 4.945198 4.945198
Cd 1.729167 8.227311 4.945198
Cd 1.729167 4.945198 8.227311
Cd 5.011281 -4.901143 -4.901143
Cd 5.011281 -8.183256 -1.619029
Cd 8.293394 -4.901143 -1.619029
Cd 5.011281 -4.901143 1.663084
Cd 5.011281 -1.619029 -8.183256
Cd 8.293394 -1.619029 -4.901143
Cd 5.011281 1.663084 -4.901143
Cd 5.011281 -1.619029 -1.619029
Cd 8.293394 1.663084 -1.619029
Cd 8.293394 -1.619029 1.663084
Cd 5.011281 1.663084 1.663084
Cd 5.011281 -1.619029 4.945198
Cd 8.293394 1.663084 4.945198
Cd 5.011281 1.663084 8.227311
Cd 5.011281 4.945198 -1.619029
Cd 8.293394 4.945198 1.663084
Cd 5.011281 8.227311 1.663084
Cd 5.011281 4.945198 4.945198
Te -6.476117 -3.260086 -3.260086
Te -3.194003 -3.260086 -6.542200
Te -3.194003 -6.542200 -3.260086
Te -6.476117 -6.542200 0.022028
Te -6.476117 -3.260086 3.304141
Te -3.194003 -3.260086 0.022028
Te -3.194003 -6.542200 3.304141
Te -3.194003 -3.260086 6.586255
Te -6.476117 0.022028 -6.542200
Te -6.476117 3.304141 -3.260086
Te -3.194003 3.304141 -6.542200
Te -3.194003 0.022028 -3.260086
Te -6.476117 0.022028 0.022028
Te -6.476117 3.304141 3.304141
Te -3.194003 3.304141 0.022028
Te -3.194003 0.022028 3.304141
Te -6.476117 0.022028 6.586255
Te -3.194003 3.304141 6.586255
Te -3.194003 6.586255 -3.260086
Te -6.476117 6.586255 0.022028
Te -3.194003 6.586255 3.304141
Te 0.088110 -6.542200 -6.542200
Te 0.088110 -3.260086 -3.260086
Te 3.370224 -3.260086 -6.542200
Te 3.370224 -6.542200 -3.260086
Te 0.088110 -6.542200 0.022028
Te 0.088110 -3.260086 3.304141
Te 3.370224 -3.260086 0.022028
Te 3.370224 -6.542200 3.304141
Te 0.088110 -6.542200 6.586255
Te 3.370224 -3.260086 6.586255
Te 0.088110 0.022028 -6.542200
Te 0.088110 3.304141 -3.260086
Te 3.370224 3.304141 -6.542200
Te 3.370224 0.022028 -3.260086
Te 0.088110 0.022028 0.022028
Te 0.088110 3.304141 3.304141
Te 3.370224 3.304141 0.022028
Te 3.370224 0.022028 3.304141
Te 0.088110 0.022028 6.586255
Te 3.370224 3.304141 6.586255
Te 0.088110 6.586255 -6.542200
Te 3.370224 6.586255 -3.260086
Te 0.088110 6.586255 0.022028
Te 3.370224 6.586255 3.304141
Te 0.088110 6.586255 6.586255
Te 6.652338 -3.260086 -3.260086
Te 6.652338 -6.542200 0.022028
Te 6.652338 -3.260086 3.304141
Te 6.652338 0.022028 -6.542200
Te 6.652338 3.304141 -3.260086
Te 6.652338 0.022028 0.022028
Te 6.652338 3.304141 3.304141
Te 6.652338 0.022028 6.586255
Te 6.652338 6.586255 0.022028
Cl -9.758230 -3.260086 0.022028
Cl -9.758230 0.022028 -3.260086
Cl -9.758230 3.304141 0.022028
Cl -9.758230 0.022028 3.304141
Cl -3.194003 -9.824313 0.022028
Cl -3.194003 0.022028 -9.824313
Cl -3.194003 0.022028 9.868368
Cl -3.194003 9.868368 0.022028
Cl 0.088110 -9.824313 -3.260086
Cl 0.088110 -9.824313 3.304141
Cl 3.370224 -9.824313 0.022028
Cl 0.088110 -3.260086 -9.824313
Cl 0.088110 -3.260086 9.868368
Cl 0.088110 3.304141 -9.824313
Cl 3.370224 0.022028 -9.824313
Cl 0.088110 3.304141 9.868368
Cl 3.370224 0.022028 9.868368
Cl 0.088110 9.868368 -3.260086
Cl 0.088110 9.868368 3.304141
Cl 3.370224 9.868368 0.022028
Cl 9.934451 -3.260086 0.022028
Cl 9.934451 0.022028 -3.260086
Cl 9.934451 3.304141 0.022028
Cl 9.934451 0.022028 3.304141
Cl -6.476117 -6.542200 3.304141
Cl -6.476117 3.304141 -6.542200
