2045
HgSe-Hg-Hg975Se880Cl190-reconstructed
Hg -21.636523 -9.289025 -6.198755
Hg -21.636523 -9.289025 -0.006103
Hg -21.636523 -9.289025 6.186549
Hg -21.636523 -6.192699 -9.295081
Hg -21.636523 -3.096373 -6.198755
Hg -21.636523 -6.192699 -3.102429
Hg -21.636523 -3.096373 -0.006103
Hg -21.636523 -6.192699 3.090223
Hg -21.636523 -3.096373 6.186549
Hg -21.636523 -6.192699 9.282875
Hg -21.636523 -0.000047 -9.295081
Hg -21.636523 3.096279 -6.198755
Hg -21.636523 -0.000047 -3.102429
Hg -21.636523 3.096279 -0.006103
Hg -21.636523 -0.000047 3.090223
Hg -21.636523 3.096279 6.186549
Hg -21.636523 -0.000047 9.282875
Hg -21.636523 6.192605 -9.295081
Hg -21.636523 9.288931 -6.198755
Hg -21.636523 6.192605 -3.102429
Hg -21.636523 9.288931 -0.006103
Hg -21.636523 6.192605 3.090223
Hg -21.636523 9.288931 6.186549
Hg -21.636523 6.192605 9.282875
Hg -15.443871 -15.481677 -6.198755
Hg -15.443871 -15.481677 -0.006103
Hg -15.443871 -15.481677 6.186549
Hg -15.443871 -9.289025 -12.391407
Hg -15.443871 -12.385351 -9.295081
Hg -18.540197 -12.385351 -6.198755
Hg -15.443871 -9.289025 -6.198755
Hg -15.443871 -12.385351 -3.102429
Hg -18.540197 -9.289025 -3.102429
Hg -18.540197 -12.385351 -0.006103
Hg -15.443871 -9.289025 -0.006103
Hg -15.443871 -12.385351 3.090223
Hg -18.540197 -9.289025 3.090223
Hg -18.540197 -12.385351 6.186549
Hg -15.443871 -9.289025 6.186549
Hg -15.443871 -12.385351 9.282875
Hg -15.443871 -9.289025 12.379201
Hg -15.443871 -6.192699 -15.487733
Hg -18.540197 -6.192699 -12.391407
Hg -15.443871 -3.096373 -12.391407
Hg -15.443871 -6.192699 -9.295081
Hg -18.540197 -3.096373 -9.295081
Hg -18.540197 -6.192699 -6.198755
Hg -15.443871 -3.096373 -6.198755
Hg -15.443871 -6.192699 -3.102429
Hg -18.540197 -3.096373 -3.102429
Hg -18.540197 -6.192699 -0.006103
Hg -15.443871 -3.096373 -0.006103
Hg -15.443871 -6.192699 3.090223
Hg -18.540197 -3.096373 3.090223
Hg -18.540197 -6.192699 6.186549
Hg -15.443871 -3.096373 6.186549
Hg -15.443871 -6.192699 9.282875
Hg -18.540197 -3.096373 9.282875
Hg -18.540197 -6.192699 12.379201
Hg -15.443871 -3.096373 12.379201
Hg -15.443871 -6.192699 15.475527
Hg -15.443871 -0.000047 -15.487733
Hg -18.540197 -0.000047 -12.391407
Hg -15.443871 3.096279 -12.391407
Hg -15.443871 -0.000047 -9.295081
Hg -18.540197 3.096279 -9.295081
Hg -18.540197 -0.000047 -6.198755
Hg -15.443871 3.096279 -6.198755
Hg -15.443871 -0.000047 -3.102429
Hg -18.540197 3.096279 -3.102429
Hg -18.540197 -0.000047 -0.006103
Hg -15.443871 3.096279 -0.006103
Hg -15.443871 -0.000047 3.090223
Hg -18.540197 3.096279 3.090223
Hg -18.540197 -0.000047 6.186549
Hg -15.443871 3.096279 6.186549
Hg -15.443871 -0.000047 9.282875
Hg -18.540197 3.096279 9.282875
Hg -18.540197 -0.000047 12.379201
Hg -15.443871 3.096279 12.379201
Hg -15.443871 -0.000047 15.475527
Hg -15.443871 6.192605 -15.487733
Hg -18.540197 6.192605 -12.391407
Hg -15.443871 9.288931 -12.391407
Hg -15.443871 6.192605 -9.295081
Hg -18.540197 6.192605 -6.198755
Hg -15.443871 9.288931 -6.198755
Hg -15.443871 6.192605 -3.102429
Hg -18.540197 9.288931 -3.102429
Hg -18.540197 6.192605 -0.006103
Hg -15.443871 9.288931 -0.006103
Hg -15.443871 6.192605 3.090223
Hg -18.540197 9.288931 3.090223
Hg -18.540197 6.192605 6.186549
Hg -15.443871 9.288931 6.186549
Hg -15.443871 6.192605 9.282875
Hg -18.540197 6.192605 12.379201
Hg -15.443871 9.288931 12.379201
Hg -15.443871 6.192605 15.475527
Hg -15.443871 12.385257 -9.295081
Hg -18.540197 12.385257 -6.198755
Hg -15.443871 15.481583 -6.198755
Hg -15.443871 12.385257 -3.102429
Hg -18.540197 12.385257 -0.006103
Hg -15.443871 15.481583 -0.006103
Hg -15.443871 12.385257 3.090223
Hg -18.540197 12.385257 6.186549
Hg -15.443871 15.481583 6.186549
Hg -15.443871 12.385257 9.282875
Hg -9.251219 -21.674329 -6.198755
Hg -9.251219 -21.674329 -0.006103
Hg -9.251219 -21.674329 6.186549
Hg -9.251219 -15.481677 -12.391407
Hg -12.347545 -15.481677 -9.295081
Hg -12.347545 -18.578003 -6.198755
Hg -9.251219 -15.481677 -6.198755
Hg -9.251219 -18.578003 -3.102429
Hg -12.347545 -15.481677 -3.102429
Hg -12.347545 -18.578003 -0.006103
Hg -9.251219 -15.481677 -0.006103
Hg -9.251219 -18.578003 3.090223
Hg -12.347545 -15.481677 3.090223
Hg -12.347545 -18.578003 6.186549
Hg -9.251219 -15.481677 6.186549
Hg -12.347545 -15.481677 9.282875
Hg -9.251219 -15.481677 12.379201
Hg -9.251219 -12.385351 -15.487733
Hg -12.347545 -9.289025 -15.487733
Hg -9.251219 -9.289025 -12.391407
Hg -9.251219 -12.385351 -9.295081
Hg -12.347545 -9.289025 -9.295081
Hg -12.347545 -12.385351 -6.198755
Hg -9.251219 -9.289025 -6.198755
Hg -9.251219 -12.385351 -3.102429
Hg -12.347545 -9.289025 -3.102429
Hg -12.347545 -12.385351 -0.006103
Hg -9.251219 -9.289025 -0.006103
Hg -9.251219 -12.385351 3.090223
Hg -12.347545 -9.289025 3.090223
Hg -12.347545 -12.385351 6.186549
Hg -9.251219 -9.289025 6.186549
Hg -9.251219 -12.385351 9.282875
Hg -12.347545 -9.289025 9.282875
Hg -9.251219 -9.289025 12.379201
Hg -9.251219 -12.385351 15.475527
Hg -12.347545 -9.289025 15.475527
Hg -9.251219 -6.192699 -21.680385
Hg -12.347545 -6.192699 -18.584059
Hg -9.251219 -3.096373 -18.584059
Hg -9.251219 -6.192699 -15.487733
Hg -12.347545 -3.096373 -15.487733
Hg -12.347545 -6.192699 -12.391407
Hg -9.251219 -3.096373 -12.391407
Hg -9.251219 -6.192699 -9.295081
Hg -12.347545 -3.096373 -9.295081
Hg -12.347545 -6.192699 -6.198755
Hg -9.251219 -3.096373 -6.198755
Hg -9.251219 -6.192699 -3.102429
Hg -12.347545 -3.096373 -3.102429
Hg -12.347545 -6.192699 -0.006103
Hg -9.251219 -3.096373 -0.006103
Hg -9.251219 -6.192699 3.090223
Hg -12.347545 -3.096373 3.090223
Hg -12.347545 -6.192699 6.186549
Hg -9.251219 -3.096373 6.186549
Hg -9.251219 -6.192699 9.282875
Hg -12.347545 -3.096373 9.282875
Hg -12.347545 -6.192699 12.379201
Hg -9.251219 -3.096373 12.379201
Hg -9.251219 -6.192699 15.475527
Hg -12.347545 -3.096373 15.475527
Hg -12.347545 -6.192699 18.571853
Hg -9.251219 -3.096373 18.571853
Hg -9.251219 -6.192699 21.668179
Hg -9.251219 -0.000047 -21.680385
Hg -12.347545 -0.000047 -18.584059
Hg -9.251219 3.096279 -18.584059
Hg -9.251219 -0.000047 -15.487733
Hg -12.347545 3.096279 -15.487733
Hg -12.347545 -0.000047 -12.391407
Hg -9.251219 3.096279 -12.391407
Hg -9.251219 -0.000047 -9.295081
Hg -12.347545 3.096279 -9.295081
Hg -12.347545 -0.000047 -6.198755
Hg -9.251219 3.096279 -6.198755
Hg -9.251219 -0.000047 -3.102429
Hg -12.347545 3.096279 -3.102429
Hg -12.347545 -0.000047 -0.006103
Hg -9.251219 3.096279 -0.006103
Hg -9.251219 -0.000047 3.090223
Hg -12.347545 3.096279 3.090223
Hg -12.347545 -0.000047 6.186549
Hg -9.251219 3.096279 6.186549
Hg -9.251219 -0.000047 9.282875
Hg -12.347545 3.096279 9.282875
Hg -12.347545 -0.000047 12.379201
Hg -9.251219 3.096279 12.379201
Hg -9.251219 -0.000047 15.475527
Hg -12.347545 3.096279 15.475527
Hg -12.347545 -0.000047 18.571853
Hg -9.251219 3.096279 18.571853
Hg -9.251219 -0.000047 21.668179
Hg -9.251219 6.192605 -21.680385
Hg -12.347545 6.192605 -18.584059
Hg -9.251219 6.192605 -15.487733
Hg -12.347545 9.288931 -15.487733
Hg -12.347545 6.192605 -12.391407
Hg -9.251219 9.288931 -12.391407
Hg -9.251219 6.192605 -9.295081
Hg -12.347545 9.288931 -9.295081
Hg -12.347545 6.192605 -6.198755
Hg -9.251219 9.288931 -6.198755
Hg -9.251219 6.192605 -3.102429
Hg -12.347545 9.288931 -3.102429
Hg -12.347545 6.192605 -0.006103
Hg -9.251219 9.288931 -0.006103
Hg -9.251219 6.192605 3.090223
Hg -12.347545 9.288931 3.090223
Hg -12.347545 6.192605 6.186549
Hg -9.251219 9.288931 6.186549
Hg -9.251219 6.192605 9.282875
Hg -12.347545 9.288931 9.282875
Hg -12.347545 6.192605 12.379201
Hg -9.251219 9.288931 12.379201
Hg -9.251219 6.192605 15.475527
Hg -12.347545 9.288931 15.475527
Hg -12.347545 6.192605 18.571853
Hg -9.251219 6.192605 21.668179
Hg -9.251219 12.385257 -15.487733
Hg -9.251219 15.481583 -12.391407
Hg -9.251219 12.385257 -9.295081
Hg -12.347545 15.481583 -9.295081
Hg -12.347545 12.385257 -6.198755
Hg -9.251219 15.481583 -6.198755
Hg -9.251219 12.385257 -3.102429
Hg -12.347545 15.481583 -3.102429
Hg -12.347545 12.385257 -0.006103
Hg -9.251219 15.481583 -0.006103
Hg -9.251219 12.385257 3.090223
Hg -12.347545 15.481583 3.090223
Hg -12.347545 12.385257 6.186549
Hg -9.251219 15.481583 6.186549
Hg -9.251219 12.385257 9.282875
Hg -12.347545 15.481583 9.282875
Hg -9.251219 15.481583 12.379201
Hg -9.251219 12.385257 15.475527
Hg -12.347545 18.577909 -6.198755
Hg -9.251219 21.674235 -6.198755
Hg -9.251219 18.577909 -3.102429
Hg -12.347545 18.577909 -0.006103
Hg -9.251219 21.674235 -0.006103
Hg -9.251219 18.577909 3.090223
Hg -12.347545 18.577909 6.186549
Hg -9.251219 21.674235 6.186549
Hg -6.154893 -21.674329 -9.295081
Hg -3.058567 -21.674329 -6.198755
Hg -6.154893 -21.674329 -3.102429
Hg -3.058567 -21.674329 -0.006103
Hg -6.154893 -21.674329 3.090223
Hg -3.058567 -21.674329 6.186549
Hg -6.154893 -21.674329 9.282875
Hg -6.154893 -15.481677 -15.487733
Hg -6.154893 -18.578003 -12.391407
Hg -3.058567 -15.481677 -12.391407
Hg -3.058567 -18.578003 -9.295081
Hg -6.154893 -15.481677 -9.295081
Hg -6.154893 -18.578003 -6.198755
Hg -3.058567 -15.481677 -6.198755
Hg -3.058567 -18.578003 -3.102429
Hg -6.154893 -15.481677 -3.102429
Hg -6.154893 -18.578003 -0.006103
Hg -3.058567 -15.481677 -0.006103
Hg -3.058567 -18.578003 3.090223
Hg -6.154893 -15.481677 3.090223
Hg -6.154893 -18.578003 6.186549
Hg -3.058567 -15.481677 6.186549
Hg -3.058567 -18.578003 9.282875
Hg -6.154893 -15.481677 9.282875
Hg -6.154893 -18.578003 12.379201
Hg -3.058567 -15.481677 12.379201
Hg -6.154893 -15.481677 15.475527
Hg -6.154893 -9.289025 -21.680385
Hg -6.154893 -12.385351 -18.584059
Hg -3.058567 -9.289025 -18.584059
Hg -3.058567 -12.385351 -15.487733
Hg -6.154893 -9.289025 -15.487733
Hg -6.154893 -12.385351 -12.391407
Hg -3.058567 -9.289025 -12.391407
Hg -3.058567 -12.385351 -9.295081
Hg -6.154893 -9.289025 -9.295081
Hg -6.154893 -12.385351 -6.198755
Hg -3.058567 -9.289025 -6.198755
Hg -3.058567 -12.385351 -3.102429
Hg -6.154893 -9.289025 -3.102429
Hg -6.154893 -12.385351 -0.006103
Hg -3.058567 -9.289025 -0.006103
Hg -3.058567 -12.385351 3.090223
Hg -6.154893 -9.289025 3.090223
Hg -6.154893 -12.385351 6.186549
Hg -3.058567 -9.289025 6.186549
Hg -3.058567 -12.385351 9.282875
Hg -6.154893 -9.289025 9.282875
Hg -6.154893 -12.385351 12.379201
Hg -3.058567 -9.289025 12.379201
Hg -3.058567 -12.385351 15.475527
Hg -6.154893 -9.289025 15.475527
Hg -6.154893 -12.385351 18.571853
Hg -3.058567 -9.289025 18.571853
Hg -6.154893 -9.289025 21.668179
Hg -3.058567 -6.192699 -21.680385
Hg -6.154893 -3.096373 -21.680385
Hg -6.154893 -6.192699 -18.584059
Hg -3.058567 -3.096373 -18.584059
Hg -3.058567 -6.192699 -15.487733
Hg -6.154893 -3.096373 -15.487733
Hg -6.154893 -6.192699 -12.391407
Hg -3.058567 -3.096373 -12.391407
Hg -3.058567 -6.192699 -9.295081
Hg -6.154893 -3.096373 -9.295081
Hg -6.154893 -6.192699 -6.198755
Hg -3.058567 -3.096373 -6.198755
Hg -3.058567 -6.192699 -3.102429
Hg -6.154893 -3.096373 -3.102429
Hg -6.154893 -6.192699 -0.006103
Hg -3.058567 -3.096373 -0.006103
Hg -3.058567 -6.192699 3.090223
Hg -6.154893 -3.096373 3.090223
Hg -6.154893 -6.192699 6.186549
Hg -3.058567 -3.096373 6.186549
Hg -3.058567 -6.192699 9.282875
Hg -6.154893 -3.096373 9.282875
Hg -6.154893 -6.192699 12.379201
Hg -3.058567 -3.096373 12.379201
Hg -3.058567 -6.192699 15.475527
Hg -6.154893 -3.096373 15.475527
Hg -6.154893 -6.192699 18.571853
Hg -3.058567 -3.096373 18.571853
Hg -3.058567 -6.192699 21.668179
Hg -6.154893 -3.096373 21.668179
Hg -3.058567 -0.000047 -21.680385
Hg -6.154893 3.096279 -21.680385
Hg -6.154893 -0.000047 -18.584059
Hg -3.058567 3.096279 -18.584059
Hg -3.058567 -0.000047 -15.487733
Hg -6.154893 3.096279 -15.487733
Hg -6.154893 -0.000047 -12.391407
Hg -3.058567 3.096279 -12.391407
Hg -3.058567 -0.000047 -9.295081
Hg -6.154893 3.096279 -9.295081
Hg -6.154893 -0.000047 -6.198755
Hg -3.058567 3.096279 -6.198755
Hg -3.058567 -0.000047 -3.102429
Hg -6.154893 3.096279 -3.102429
Hg -6.154893 -0.000047 -0.006103
Hg -3.058567 3.096279 -0.006103
Hg -3.058567 -0.000047 3.090223
Hg -6.154893 3.096279 3.090223
Hg -6.154893 -0.000047 6.186549
Hg -3.058567 3.096279 6.186549
Hg -3.058567 -0.000047 9.282875
Hg -6.154893 3.096279 9.282875
Hg -6.154893 -0.000047 12.379201
Hg -3.058567 3.096279 12.379201
Hg -3.058567 -0.000047 15.475527
Hg -6.154893 3.096279 15.475527
Hg -6.154893 -0.000047 18.571853
Hg -3.058567 3.096279 18.571853
Hg -3.058567 -0.000047 21.668179
Hg -6.154893 3.096279 21.668179
Hg -3.058567 6.192605 -21.680385
Hg -6.154893 9.288931 -21.680385
Hg -6.154893 6.192605 -18.584059
Hg -3.058567 9.288931 -18.584059
Hg -3.058567 6.192605 -15.487733
Hg -6.154893 9.288931 -15.487733
Hg -6.154893 6.192605 -12.391407
Hg -3.058567 9.288931 -12.391407
Hg -3.058567 6.192605 -9.295081
Hg -6.154893 9.288931 -9.295081
Hg -6.154893 6.192605 -6.198755
Hg -3.058567 9.288931 -6.198755
Hg -3.058567 6.192605 -3.102429
Hg -6.154893 9.288931 -3.102429
Hg -6.154893 6.192605 -0.006103
Hg -3.058567 9.288931 -0.006103
Hg -3.058567 6.192605 3.090223
Hg -6.154893 9.288931 3.090223
Hg -6.154893 6.192605 6.186549
Hg -3.058567 9.288931 6.186549
Hg -3.058567 6.192605 9.282875
Hg -6.154893 9.288931 9.282875
Hg -6.154893 6.192605 12.379201
Hg -3.058567 9.288931 12.379201
Hg -3.058567 6.192605 15.475527
Hg -6.154893 9.288931 15.475527
Hg -6.154893 6.192605 18.571853
Hg -3.058567 9.288931 18.571853
Hg -3.058567 6.192605 21.668179
Hg -6.154893 9.288931 21.668179
Hg -6.154893 12.385257 -18.584059
Hg -3.058567 12.385257 -15.487733
Hg -6.154893 15.481583 -15.487733
Hg -6.154893 12.385257 -12.391407
Hg -3.058567 15.481583 -12.391407
Hg -3.058567 12.385257 -9.295081
Hg -6.154893 15.481583 -9.295081
Hg -6.154893 12.385257 -6.198755
Hg -3.058567 15.481583 -6.198755
Hg -3.058567 12.385257 -3.102429
Hg -6.154893 15.481583 -3.102429
Hg -6.154893 12.385257 -0.006103
Hg -3.058567 15.481583 -0.006103
Hg -3.058567 12.385257 3.090223
Hg -6.154893 15.481583 3.090223
Hg -6.154893 12.385257 6.186549
Hg -3.058567 15.481583 6.186549
Hg -3.058567 12.385257 9.282875
Hg -6.154893 15.481583 9.282875
Hg -6.154893 12.385257 12.379201
Hg -3.058567 15.481583 12.379201
Hg -3.058567 12.385257 15.475527
Hg -6.154893 15.481583 15.475527
Hg -6.154893 12.385257 18.571853
Hg -6.154893 18.577909 -12.391407
Hg -3.058567 18.577909 -9.295081
Hg -6.154893 21.674235 -9.295081
Hg -6.154893 18.577909 -6.198755
Hg -3.058567 21.674235 -6.198755
Hg -3.058567 18.577909 -3.102429
Hg -6.154893 21.674235 -3.102429
Hg -6.154893 18.577909 -0.006103
Hg -3.058567 21.674235 -0.006103
Hg -3.058567 18.577909 3.090223
Hg -6.154893 21.674235 3.090223
Hg -6.154893 18.577909 6.186549
Hg -3.058567 21.674235 6.186549
Hg -3.058567 18.577909 9.282875
Hg -6.154893 21.674235 9.282875
Hg -6.154893 18.577909 12.379201
Hg 0.037759 -21.674329 -9.295081
Hg 3.134085 -21.674329 -6.198755
Hg 0.037759 -21.674329 -3.102429
Hg 3.134085 -21.674329 -0.006103
Hg 0.037759 -21.674329 3.090223
Hg 3.134085 -21.674329 6.186549
Hg 0.037759 -21.674329 9.282875
Hg 0.037759 -15.481677 -15.487733
Hg 0.037759 -18.578003 -12.391407
Hg 3.134085 -15.481677 -12.391407
Hg 3.134085 -18.578003 -9.295081
Hg 0.037759 -15.481677 -9.295081
Hg 0.037759 -18.578003 -6.198755
Hg 3.134085 -15.481677 -6.198755
Hg 3.134085 -18.578003 -3.102429
Hg 0.037759 -15.481677 -3.102429
Hg 0.037759 -18.578003 -0.006103
Hg 3.134085 -15.481677 -0.006103
Hg 3.134085 -18.578003 3.090223
Hg 0.037759 -15.481677 3.090223
Hg 0.037759 -18.578003 6.186549
Hg 3.134085 -15.481677 6.186549
Hg 3.134085 -18.578003 9.282875
Hg 0.037759 -15.481677 9.282875
Hg 0.037759 -18.578003 12.379201
Hg 3.134085 -15.481677 12.379201
Hg 0.037759 -15.481677 15.475527
Hg 0.037759 -9.289025 -21.680385
Hg 0.037759 -12.385351 -18.584059
Hg 3.134085 -9.289025 -18.584059
Hg 3.134085 -12.385351 -15.487733
Hg 0.037759 -9.289025 -15.487733
Hg 0.037759 -12.385351 -12.391407
Hg 3.134085 -9.289025 -12.391407
Hg 3.134085 -12.385351 -9.295081
Hg 0.037759 -9.289025 -9.295081
Hg 0.037759 -12.385351 -6.198755
Hg 3.134085 -9.289025 -6.198755
Hg 3.134085 -12.385351 -3.102429
Hg 0.037759 -9.289025 -3.102429
Hg 0.037759 -12.385351 -0.006103
Hg 3.134085 -9.289025 -0.006103
Hg 3.134085 -12.385351 3.090223
Hg 0.037759 -9.289025 3.090223
Hg 0.037759 -12.385351 6.186549
Hg 3.134085 -9.289025 6.186549
Hg 3.134085 -12.385351 9.282875
Hg 0.037759 -9.289025 9.282875
Hg 0.037759 -12.385351 12.379201
Hg 3.134085 -9.289025 12.379201
Hg 3.134085 -12.385351 15.475527
Hg 0.037759 -9.289025 15.475527
Hg 0.037759 -12.385351 18.571853
Hg 3.134085 -9.289025 18.571853
Hg 0.037759 -9.289025 21.668179
Hg 3.134085 -6.192699 -21.680385
Hg 0.037759 -3.096373 -21.680385
Hg 0.037759 -6.192699 -18.584059
Hg 3.134085 -3.096373 -18.584059
Hg 3.134085 -6.192699 -15.487733
Hg 0.037759 -3.096373 -15.487733
Hg 0.037759 -6.192699 -12.391407
Hg 3.134085 -3.096373 -12.391407
Hg 3.134085 -6.192699 -9.295081
Hg 0.037759 -3.096373 -9.295081
Hg 0.037759 -6.192699 -6.198755
Hg 3.134085 -3.096373 -6.198755
Hg 3.134085 -6.192699 -3.102429
Hg 0.037759 -3.096373 -3.102429
Hg 0.037759 -6.192699 -0.006103
Hg 3.134085 -3.096373 -0.006103
Hg 3.134085 -6.192699 3.090223
Hg 0.037759 -3.096373 3.090223
Hg 0.037759 -6.192699 6.186549
Hg 3.134085 -3.096373 6.186549
Hg 3.134085 -6.192699 9.282875
Hg 0.037759 -3.096373 9.282875
Hg 0.037759 -6.192699 12.379201
Hg 3.134085 -3.096373 12.379201
Hg 3.134085 -6.192699 15.475527
Hg 0.037759 -3.096373 15.475527
Hg 0.037759 -6.192699 18.571853
Hg 3.134085 -3.096373 18.571853
Hg 3.134085 -6.192699 21.668179
Hg 0.037759 -3.096373 21.668179
Hg 3.134085 -0.000047 -21.680385
Hg 0.037759 3.096279 -21.680385
Hg 0.037759 -0.000047 -18.584059
Hg 3.134085 3.096279 -18.584059
Hg 3.134085 -0.000047 -15.487733
Hg 0.037759 3.096279 -15.487733
Hg 0.037759 -0.000047 -12.391407
Hg 3.134085 3.096279 -12.391407
Hg 3.134085 -0.000047 -9.295081
Hg 0.037759 3.096279 -9.295081
Hg 0.037759 -0.000047 -6.198755
Hg 3.134085 3.096279 -6.198755
Hg 3.134085 -0.000047 -3.102429
Hg 0.037759 3.096279 -3.102429
Hg 0.037759 -0.000047 -0.006103
Hg 3.134085 3.096279 -0.006103
Hg 3.134085 -0.000047 3.090223
Hg 0.037759 3.096279 3.090223
Hg 0.037759 -0.000047 6.186549
Hg 3.134085 3.096279 6.186549
Hg 3.134085 -0.000047 9.282875
Hg 0.037759 3.096279 9.282875
Hg 0.037759 -0.000047 12.379201
Hg 3.134085 3.096279 12.379201
Hg 3.134085 -0.000047 15.475527
Hg 0.037759 3.096279 15.475527
Hg 0.037759 -0.000047 18.571853
Hg 3.134085 3.096279 18.571853
Hg 3.134085 -0.000047 21.668179
Hg 0.037759 3.096279 21.668179
Hg 3.134085 6.192605 -21.680385
Hg 0.037759 9.288931 -21.680385
Hg 0.037759 6.192605 -18.584059
Hg 3.134085 9.288931 -18.584059
Hg 3.134085 6.192605 -15.487733
Hg 0.037759 9.288931 -15.487733
Hg 0.037759 6.192605 -12.391407
Hg 3.134085 9.288931 -12.391407
Hg 3.134085 6.192605 -9.295081
Hg 0.037759 9.288931 -9.295081
Hg 0.037759 6.192605 -6.198755
Hg 3.134085 9.288931 -6.198755
Hg 3.134085 6.192605 -3.102429
Hg 0.037759 9.288931 -3.102429
Hg 0.037759 6.192605 -0.006103
Hg 3.134085 9.288931 -0.006103
Hg 3.134085 6.192605 3.090223
Hg 0.037759 9.288931 3.090223
Hg 0.037759 6.192605 6.186549
Hg 3.134085 9.288931 6.186549
Hg 3.134085 6.192605 9.282875
Hg 0.037759 9.288931 9.282875
Hg 0.037759 6.192605 12.379201
Hg 3.134085 9.288931 12.379201
Hg 3.134085 6.192605 15.475527
Hg 0.037759 9.288931 15.475527
Hg 0.037759 6.192605 18.571853
Hg 3.134085 9.288931 18.571853
Hg 3.134085 6.192605 21.668179
Hg 0.037759 9.288931 21.668179
Hg 0.037759 12.385257 -18.584059
Hg 3.134085 12.385257 -15.487733
Hg 0.037759 15.481583 -15.487733
Hg 0.037759 12.385257 -12.391407
Hg 3.134085 15.481583 -12.391407
Hg 3.134085 12.385257 -9.295081
Hg 0.037759 15.481583 -9.295081
Hg 0.037759 12.385257 -6.198755
Hg 3.134085 15.481583 -6.198755
Hg 3.134085 12.385257 -3.102429
Hg 0.037759 15.481583 -3.102429
Hg 0.037759 12.385257 -0.006103
Hg 3.134085 15.481583 -0.006103
Hg 3.134085 12.385257 3.090223
Hg 0.037759 15.481583 3.090223
Hg 0.037759 12.385257 6.186549
Hg 3.134085 15.481583 6.186549
Hg 3.134085 12.385257 9.282875
Hg 0.037759 15.481583 9.282875
Hg 0.037759 12.385257 12.379201
Hg 3.134085 15.481583 12.379201
Hg 3.134085 12.385257 15.475527
Hg 0.037759 15.481583 15.475527
Hg 0.037759 12.385257 18.571853
Hg 0.037759 18.577909 -12.391407
Hg 3.134085 18.577909 -9.295081
Hg 0.037759 21.674235 -9.295081
Hg 0.037759 18.577909 -6.198755
Hg 3.134085 21.674235 -6.198755
Hg 3.134085 18.577909 -3.102429
Hg 0.037759 21.674235 -3.102429
Hg 0.037759 18.577909 -0.006103
Hg 3.134085 21.674235 -0.006103
Hg 3.134085 18.577909 3.090223
Hg 0.037759 21.674235 3.090223
Hg 0.037759 18.577909 6.186549
Hg 3.134085 21.674235 6.186549
Hg 3.134085 18.577909 9.282875
Hg 0.037759 21.674235 9.282875
Hg 0.037759 18.577909 12.379201
Hg 6.230411 -21.674329 -9.295081
Hg 9.326737 -21.674329 -6.198755
Hg 6.230411 -21.674329 -3.102429
Hg 9.326737 -21.674329 -0.006103
Hg 6.230411 -21.674329 3.090223
Hg 9.326737 -21.674329 6.186549
Hg 6.230411 -21.674329 9.282875
Hg 6.230411 -15.481677 -15.487733
Hg 6.230411 -18.578003 -12.391407
Hg 9.326737 -15.481677 -12.391407
Hg 6.230411 -15.481677 -9.295081
Hg 6.230411 -18.578003 -6.198755
Hg 9.326737 -15.481677 -6.198755
Hg 9.326737 -18.578003 -3.102429
Hg 6.230411 -15.481677 -3.102429
Hg 6.230411 -18.578003 -0.006103
Hg 9.326737 -15.481677 -0.006103
Hg 9.326737 -18.578003 3.090223
Hg 6.230411 -15.481677 3.090223
Hg 6.230411 -18.578003 6.186549
Hg 9.326737 -15.481677 6.186549
Hg 6.230411 -15.481677 9.282875
Hg 6.230411 -18.578003 12.379201
Hg 9.326737 -15.481677 12.379201
Hg 6.230411 -15.481677 15.475527
Hg 6.230411 -9.289025 -21.680385
Hg 6.230411 -12.385351 -18.584059
Hg 9.326737 -12.385351 -15.487733
Hg 6.230411 -9.289025 -15.487733
Hg 6.230411 -12.385351 -12.391407
Hg 9.326737 -9.289025 -12.391407
Hg 9.326737 -12.385351 -9.295081
Hg 6.230411 -9.289025 -9.295081
Hg 6.230411 -12.385351 -6.198755
Hg 9.326737 -9.289025 -6.198755
Hg 9.326737 -12.385351 -3.102429
Hg 6.230411 -9.289025 -3.102429
Hg 6.230411 -12.385351 -0.006103
Hg 9.326737 -9.289025 -0.006103
Hg 9.326737 -12.385351 3.090223
Hg 6.230411 -9.289025 3.090223
Hg 6.230411 -12.385351 6.186549
Hg 9.326737 -9.289025 6.186549
Hg 9.326737 -12.385351 9.282875
Hg 6.230411 -9.289025 9.282875
Hg 6.230411 -12.385351 12.379201
Hg 9.326737 -9.289025 12.379201
Hg 9.326737 -12.385351 15.475527
Hg 6.230411 -9.289025 15.475527
Hg 6.230411 -12.385351 18.571853
Hg 6.230411 -9.289025 21.668179
Hg 9.326737 -6.192699 -21.680385
Hg 6.230411 -3.096373 -21.680385
Hg 6.230411 -6.192699 -18.584059
Hg 9.326737 -3.096373 -18.584059
Hg 9.326737 -6.192699 -15.487733
Hg 6.230411 -3.096373 -15.487733
Hg 6.230411 -6.192699 -12.391407
Hg 9.326737 -3.096373 -12.391407
Hg 9.326737 -6.192699 -9.295081
Hg 6.230411 -3.096373 -9.295081
Hg 6.230411 -6.192699 -6.198755
Hg 9.326737 -3.096373 -6.198755
Hg 9.326737 -6.192699 -3.102429
Hg 6.230411 -3.096373 -3.102429
Hg 6.230411 -6.192699 -0.006103
Hg 9.326737 -3.096373 -0.006103
Hg 9.326737 -6.192699 3.090223
Hg 6.230411 -3.096373 3.090223
Hg 6.230411 -6.192699 6.186549
Hg 9.326737 -3.096373 6.186549
Hg 9.326737 -6.192699 9.282875
Hg 6.230411 -3.096373 9.282875
Hg 6.230411 -6.192699 12.379201
Hg 9.326737 -3.096373 12.379201
Hg 9.326737 -6.192699 15.475527
Hg 6.230411 -3.096373 15.475527
Hg 6.230411 -6.192699 18.571853
Hg 9.326737 -3.096373 18.571853
Hg 9.326737 -6.192699 21.668179
Hg 6.230411 -3.096373 21.668179
Hg 9.326737 -0.000047 -21.680385
Hg 6.230411 3.096279 -21.680385
Hg 6.230411 -0.000047 -18.584059
Hg 9.326737 3.096279 -18.584059
Hg 9.326737 -0.000047 -15.487733
Hg 6.230411 3.096279 -15.487733
Hg 6.230411 -0.000047 -12.391407
Hg 9.326737 3.096279 -12.391407
Hg 9.326737 -0.000047 -9.295081
Hg 6.230411 3.096279 -9.295081
Hg 6.230411 -0.000047 -6.198755
Hg 9.326737 3.096279 -6.198755
Hg 9.326737 -0.000047 -3.102429
Hg 6.230411 3.096279 -3.102429
Hg 6.230411 -0.000047 -0.006103
Hg 9.326737 3.096279 -0.006103
Hg 9.326737 -0.000047 3.090223
Hg 6.230411 3.096279 3.090223
Hg 6.230411 -0.000047 6.186549
Hg 9.326737 3.096279 6.186549
Hg 9.326737 -0.000047 9.282875
Hg 6.230411 3.096279 9.282875
Hg 6.230411 -0.000047 12.379201
Hg 9.326737 3.096279 12.379201
Hg 9.326737 -0.000047 15.475527
Hg 6.230411 3.096279 15.475527
Hg 6.230411 -0.000047 18.571853
Hg 9.326737 3.096279 18.571853
Hg 9.326737 -0.000047 21.668179
Hg 6.230411 3.096279 21.668179
Hg 9.326737 6.192605 -21.680385
Hg 6.230411 9.288931 -21.680385
Hg 6.230411 6.192605 -18.584059
Hg 9.326737 6.192605 -15.487733
Hg 6.230411 9.288931 -15.487733
Hg 6.230411 6.192605 -12.391407
Hg 9.326737 9.288931 -12.391407
Hg 9.326737 6.192605 -9.295081
Hg 6.230411 9.288931 -9.295081
Hg 6.230411 6.192605 -6.198755
Hg 9.326737 9.288931 -6.198755
Hg 9.326737 6.192605 -3.102429
Hg 6.230411 9.288931 -3.102429
Hg 6.230411 6.192605 -0.006103
Hg 9.326737 9.288931 -0.006103
Hg 9.326737 6.192605 3.090223
Hg 6.230411 9.288931 3.090223
Hg 6.230411 6.192605 6.186549
Hg 9.326737 9.288931 6.186549
Hg 9.326737 6.192605 9.282875
Hg 6.230411 9.288931 9.282875
Hg 6.230411 6.192605 12.379201
Hg 9.326737 9.288931 12.379201
Hg 9.326737 6.192605 15.475527
Hg 6.230411 9.288931 15.475527
Hg 6.230411 6.192605 18.571853
Hg 9.326737 6.192605 21.668179
Hg 6.230411 9.288931 21.668179
Hg 6.230411 12.385257 -18.584059
Hg 9.326737 12.385257 -15.487733
Hg 6.230411 15.481583 -15.487733
Hg 6.230411 12.385257 -12.391407
Hg 9.326737 15.481583 -12.391407
Hg 9.326737 12.385257 -9.295081
Hg 6.230411 15.481583 -9.295081
Hg 6.230411 12.385257 -6.198755
Hg 9.326737 15.481583 -6.198755
Hg 9.326737 12.385257 -3.102429
Hg 6.230411 15.481583 -3.102429
Hg 6.230411 12.385257 -0.006103
Hg 9.326737 15.481583 -0.006103
Hg 9.326737 12.385257 3.090223
Hg 6.230411 15.481583 3.090223
Hg 6.230411 12.385257 6.186549
Hg 9.326737 15.481583 6.186549
Hg 9.326737 12.385257 9.282875
Hg 6.230411 15.481583 9.282875
Hg 6.230411 12.385257 12.379201
Hg 9.326737 15.481583 12.379201
Hg 9.326737 12.385257 15.475527
Hg 6.230411 15.481583 15.475527
Hg 6.230411 12.385257 18.571853
Hg 6.230411 18.577909 -12.391407
Hg 6.230411 21.674235 -9.295081
Hg 6.230411 18.577909 -6.198755
Hg 9.326737 21.674235 -6.198755
Hg 9.326737 18.577909 -3.102429
Hg 6.230411 21.674235 -3.102429
Hg 6.230411 18.577909 -0.006103
Hg 9.326737 21.674235 -0.006103
Hg 9.326737 18.577909 3.090223
Hg 6.230411 21.674235 3.090223
Hg 6.230411 18.577909 6.186549
Hg 9.326737 21.674235 6.186549
Hg 6.230411 21.674235 9.282875
Hg 6.230411 18.577909 12.379201
Hg 12.423063 -15.481677 -9.295081
Hg 12.423063 -18.578003 -6.198755
Hg 15.519389 -15.481677 -6.198755
Hg 12.423063 -15.481677 -3.102429
Hg 12.423063 -18.578003 -0.006103
Hg 15.519389 -15.481677 -0.006103
Hg 12.423063 -15.481677 3.090223
Hg 12.423063 -18.578003 6.186549
Hg 15.519389 -15.481677 6.186549
Hg 12.423063 -15.481677 9.282875
Hg 12.423063 -9.289025 -15.487733
Hg 15.519389 -9.289025 -12.391407
Hg 15.519389 -12.385351 -9.295081
Hg 12.423063 -9.289025 -9.295081
Hg 12.423063 -12.385351 -6.198755
Hg 15.519389 -9.289025 -6.198755
Hg 15.519389 -12.385351 -3.102429
Hg 12.423063 -9.289025 -3.102429
Hg 12.423063 -12.385351 -0.006103
Hg 15.519389 -9.289025 -0.006103
Hg 15.519389 -12.385351 3.090223
Hg 12.423063 -9.289025 3.090223
Hg 12.423063 -12.385351 6.186549
Hg 15.519389 -9.289025 6.186549
Hg 15.519389 -12.385351 9.282875
Hg 12.423063 -9.289025 9.282875
Hg 15.519389 -9.289025 12.379201
Hg 12.423063 -9.289025 15.475527
Hg 12.423063 -6.192699 -18.584059
Hg 15.519389 -6.192699 -15.487733
Hg 12.423063 -3.096373 -15.487733
Hg 12.423063 -6.192699 -12.391407
Hg 15.519389 -3.096373 -12.391407
Hg 15.519389 -6.192699 -9.295081
Hg 12.423063 -3.096373 -9.295081
Hg 12.423063 -6.192699 -6.198755
Hg 15.519389 -3.096373 -6.198755
Hg 15.519389 -6.192699 -3.102429
Hg 12.423063 -3.096373 -3.102429
Hg 12.423063 -6.192699 -0.006103
Hg 15.519389 -3.096373 -0.006103
Hg 15.519389 -6.192699 3.090223
Hg 12.423063 -3.096373 3.090223
Hg 12.423063 -6.192699 6.186549
Hg 15.519389 -3.096373 6.186549
Hg 15.519389 -6.192699 9.282875
Hg 12.423063 -3.096373 9.282875
Hg 12.423063 -6.192699 12.379201
Hg 15.519389 -3.096373 12.379201
Hg 15.519389 -6.192699 15.475527
Hg 12.423063 -3.096373 15.475527
Hg 12.423063 -6.192699 18.571853
Hg 12.423063 -0.000047 -18.584059
Hg 15.519389 -0.000047 -15.487733
Hg 12.423063 3.096279 -15.487733
Hg 12.423063 -0.000047 -12.391407
Hg 15.519389 3.096279 -12.391407
Hg 15.519389 -0.000047 -9.295081
Hg 12.423063 3.096279 -9.295081
Hg 12.423063 -0.000047 -6.198755
Hg 15.519389 3.096279 -6.198755
Hg 15.519389 -0.000047 -3.102429
Hg 12.423063 3.096279 -3.102429
Hg 12.423063 -0.000047 -0.006103
Hg 15.519389 3.096279 -0.006103
Hg 15.519389 -0.000047 3.090223
Hg 12.423063 3.096279 3.090223
Hg 12.423063 -0.000047 6.186549
Hg 15.519389 3.096279 6.186549
Hg 15.519389 -0.000047 9.282875
Hg 12.423063 3.096279 9.282875
Hg 12.423063 -0.000047 12.379201
Hg 15.519389 3.096279 12.379201
Hg 15.519389 -0.000047 15.475527
Hg 12.423063 3.096279 15.475527
Hg 12.423063 -0.000047 18.571853
Hg 12.423063 6.192605 -18.584059
Hg 15.519389 6.192605 -15.487733
Hg 12.423063 9.288931 -15.487733
Hg 12.423063 6.192605 -12.391407
Hg 15.519389 9.288931 -12.391407
Hg 15.519389 6.192605 -9.295081
Hg 12.423063 9.288931 -9.295081
Hg 12.423063 6.192605 -6.198755
Hg 15.519389 9.288931 -6.198755
Hg 15.519389 6.192605 -3.102429
Hg 12.423063 9.288931 -3.102429
Hg 12.423063 6.192605 -0.006103
Hg 15.519389 9.288931 -0.006103
Hg 15.519389 6.192605 3.090223
Hg 12.423063 9.288931 3.090223
Hg 12.423063 6.192605 6.186549
Hg 15.519389 9.288931 6.186549
Hg 15.519389 6.192605 9.282875
Hg 12.423063 9.288931 9.282875
Hg 12.423063 6.192605 12.379201
Hg 15.519389 9.288931 12.379201
Hg 15.519389 6.192605 15.475527
Hg 12.423063 9.288931 15.475527
Hg 12.423063 6.192605 18.571853
Hg 15.519389 12.385257 -9.295081
Hg 12.423063 15.481583 -9.295081
Hg 12.423063 12.385257 -6.198755
Hg 15.519389 15.481583 -6.198755
Hg 15.519389 12.385257 -3.102429
Hg 12.423063 15.481583 -3.102429
Hg 12.423063 12.385257 -0.006103
Hg 15.519389 15.481583 -0.006103
Hg 15.519389 12.385257 3.090223
Hg 12.423063 15.481583 3.090223
Hg 12.423063 12.385257 6.186549
Hg 15.519389 15.481583 6.186549
Hg 15.519389 12.385257 9.282875
Hg 12.423063 15.481583 9.282875
Hg 12.423063 18.577909 -6.198755
Hg 12.423063 18.577909 -0.006103
Hg 12.423063 18.577909 6.186549
Hg 18.615715 -12.385351 -6.198755
Hg 21.712041 -9.289025 -6.198755
Hg 18.615715 -9.289025 -3.102429
Hg 18.615715 -12.385351 -0.006103
Hg 21.712041 -9.289025 -0.006103
Hg 18.615715 -9.289025 3.090223
Hg 18.615715 -12.385351 6.186549
Hg 21.712041 -9.289025 6.186549
Hg 18.615715 -6.192699 -12.391407
Hg 21.712041 -6.192699 -9.295081
Hg 18.615715 -3.096373 -9.295081
Hg 18.615715 -6.192699 -6.198755
Hg 21.712041 -3.096373 -6.198755
Hg 21.712041 -6.192699 -3.102429
Hg 18.615715 -3.096373 -3.102429
Hg 18.615715 -6.192699 -0.006103
Hg 21.712041 -3.096373 -0.006103
Hg 21.712041 -6.192699 3.090223
Hg 18.615715 -3.096373 3.090223
Hg 18.615715 -6.192699 6.186549
Hg 21.712041 -3.096373 6.186549
Hg 21.712041 -6.192699 9.282875
Hg 18.615715 -3.096373 9.282875
Hg 18.615715 -6.192699 12.379201
Hg 18.615715 -0.000047 -12.391407
Hg 21.712041 -0.000047 -9.295081
Hg 18.615715 3.096279 -9.295081
Hg 18.615715 -0.000047 -6.198755
Hg 21.712041 3.096279 -6.198755
Hg 21.712041 -0.000047 -3.102429
Hg 18.615715 3.096279 -3.102429
Hg 18.615715 -0.000047 -0.006103
Hg 21.712041 3.096279 -0.006103
Hg 21.712041 -0.000047 3.090223
Hg 18.615715 3.096279 3.090223
Hg 18.615715 -0.000047 6.186549
Hg 21.712041 3.096279 6.186549
Hg 21.712041 -0.000047 9.282875
Hg 18.615715 3.096279 9.282875
Hg 18.615715 -0.000047 12.379201
Hg 18.615715 6.192605 -12.391407
Hg 21.712041 6.192605 -9.295081
Hg 18.615715 6.192605 -6.198755
Hg 21.712041 9.288931 -6.198755
Hg 21.712041 6.192605 -3.102429
Hg 18.615715 9.288931 -3.102429
Hg 18.615715 6.192605 -0.006103
Hg 21.712041 9.288931 -0.006103
Hg 21.712041 6.192605 3.090223
Hg 18.615715 9.288931 3.090223
Hg 18.615715 6.192605 6.186549
Hg 21.712041 9.288931 6.186549
Hg 21.712041 6.192605 9.282875
Hg 18.615715 6.192605 12.379201
Hg 18.615715 12.385257 -6.198755
Hg 18.615715 12.385257 -0.006103
Hg 18.615715 12.385257 6.186549
Se -20.088360 -7.740862 -7.746918
Se -20.088360 -7.740862 -1.554266
Se -20.088360 -10.837188 -4.650592
Se -20.088360 -7.740862 4.638386
Se -20.088360 -10.837188 1.542060
Se -20.088360 -1.548210 -7.746918
Se -20.088360 -4.644536 -10.843244
Se -20.088360 -1.548210 -1.554266
Se -20.088360 -4.644536 -4.650592
Se -20.088360 -1.548210 4.638386
Se -20.088360 -4.644536 1.542060
Se -20.088360 -1.548210 10.831038
Se -20.088360 -4.644536 7.734712
Se -20.088360 4.644442 -7.746918
Se -20.088360 1.548116 -10.843244
Se -20.088360 4.644442 -1.554266
Se -20.088360 1.548116 -4.650592
Se -20.088360 4.644442 4.638386
Se -20.088360 1.548116 1.542060
Se -20.088360 4.644442 10.831038
Se -20.088360 1.548116 7.734712
Se -20.088360 10.837094 -1.554266
Se -20.088360 7.740768 -4.650592
Se -20.088360 10.837094 4.638386
Se -20.088360 7.740768 1.542060
Se -20.088360 7.740768 7.734712
Se -13.895708 -13.933514 -7.746918
Se -16.992034 -13.933514 -4.650592
Se -13.895708 -13.933514 -1.554266
Se -13.895708 -17.029840 -4.650592
Se -16.992034 -13.933514 1.542060
Se -13.895708 -13.933514 4.638386
Se -13.895708 -17.029840 1.542060
Se -13.895708 -17.029840 7.734712
Se -13.895708 -7.740862 -13.939570
Se -16.992034 -10.837188 -7.746918
Se -16.992034 -7.740862 -10.843244
Se -13.895708 -7.740862 -7.746918
Se -13.895708 -10.837188 -10.843244
Se -16.992034 -10.837188 -1.554266
Se -16.992034 -7.740862 -4.650592
Se -13.895708 -7.740862 -1.554266
Se -13.895708 -10.837188 -4.650592
Se -16.992034 -10.837188 4.638386
Se -16.992034 -7.740862 1.542060
Se -13.895708 -7.740862 4.638386
Se -13.895708 -10.837188 1.542060
Se -16.992034 -7.740862 7.734712
Se -13.895708 -7.740862 10.831038
Se -13.895708 -10.837188 7.734712
Se -13.895708 -7.740862 17.023690
Se -16.992034 -4.644536 -13.939570
Se -13.895708 -1.548210 -13.939570
Se -13.895708 -4.644536 -17.035896
Se -16.992034 -4.644536 -7.746918
Se -16.992034 -1.548210 -10.843244
Se -13.895708 -1.548210 -7.746918
Se -13.895708 -4.644536 -10.843244
Se -16.992034 -4.644536 -1.554266
Se -16.992034 -1.548210 -4.650592
Se -13.895708 -1.548210 -1.554266
Se -13.895708 -4.644536 -4.650592
Se -16.992034 -4.644536 4.638386
Se -16.992034 -1.548210 1.542060
Se -13.895708 -1.548210 4.638386
Se -13.895708 -4.644536 1.542060
Se -16.992034 -4.644536 10.831038
Se -16.992034 -1.548210 7.734712
Se -13.895708 -1.548210 10.831038
Se -13.895708 -4.644536 7.734712
Se -16.992034 -1.548210 13.927364
Se -13.895708 -1.548210 17.023690
Se -13.895708 -4.644536 13.927364
Se -16.992034 1.548116 -13.939570
Se -13.895708 4.644442 -13.939570
Se -13.895708 1.548116 -17.035896
Se -16.992034 1.548116 -7.746918
Se -16.992034 4.644442 -10.843244
Se -13.895708 4.644442 -7.746918
Se -13.895708 1.548116 -10.843244
Se -16.992034 1.548116 -1.554266
Se -16.992034 4.644442 -4.650592
Se -13.895708 4.644442 -1.554266
Se -13.895708 1.548116 -4.650592
Se -16.992034 1.548116 4.638386
Se -16.992034 4.644442 1.542060
Se -13.895708 4.644442 4.638386
Se -13.895708 1.548116 1.542060
Se -16.992034 1.548116 10.831038
Se -16.992034 4.644442 7.734712
Se -13.895708 4.644442 10.831038
Se -13.895708 1.548116 7.734712
Se -16.992034 4.644442 13.927364
Se -13.895708 4.644442 17.023690
Se -13.895708 1.548116 13.927364
Se -13.895708 7.740768 -17.035896
Se -16.992034 7.740768 -7.746918
Se -13.895708 10.837094 -7.746918
Se -13.895708 7.740768 -10.843244
Se -16.992034 7.740768 -1.554266
Se -16.992034 10.837094 -4.650592
Se -13.895708 10.837094 -1.554266
Se -13.895708 7.740768 -4.650592
Se -16.992034 7.740768 4.638386
Se -16.992034 10.837094 1.542060
Se -13.895708 10.837094 4.638386
Se -13.895708 7.740768 1.542060
Se -16.992034 7.740768 10.831038
Se -16.992034 10.837094 7.734712
Se -13.895708 10.837094 10.831038
Se -13.895708 7.740768 7.734712
Se -13.895708 7.740768 13.927364
Se -13.895708 17.029746 -7.746918
Se -16.992034 13.933420 -1.554266
Se -13.895708 17.029746 -1.554266
Se -13.895708 13.933420 -4.650592
Se -16.992034 13.933420 4.638386
Se -13.895708 17.029746 4.638386
Se -13.895708 13.933420 1.542060
Se -13.895708 13.933420 7.734712
Se -7.703056 -20.126166 -7.746918
Se -10.799382 -20.126166 -4.650592
Se -7.703056 -20.126166 -1.554266
Se -10.799382 -20.126166 1.542060
Se -7.703056 -20.126166 4.638386
Se -7.703056 -13.933514 -13.939570
Se -10.799382 -17.029840 -7.746918
Se -10.799382 -13.933514 -10.843244
Se -7.703056 -13.933514 -7.746918
Se -7.703056 -17.029840 -10.843244
Se -10.799382 -17.029840 -1.554266
Se -10.799382 -13.933514 -4.650592
Se -7.703056 -13.933514 -1.554266
Se -7.703056 -17.029840 -4.650592
Se -10.799382 -17.029840 4.638386
Se -10.799382 -13.933514 1.542060
Se -7.703056 -13.933514 4.638386
Se -7.703056 -17.029840 1.542060
Se -10.799382 -13.933514 7.734712
Se -7.703056 -13.933514 10.831038
Se -7.703056 -17.029840 7.734712
Se -7.703056 -17.029840 13.927364
Se -7.703056 -7.740862 -20.132222
Se -10.799382 -10.837188 -13.939570
Se -10.799382 -7.740862 -17.035896
Se -7.703056 -7.740862 -13.939570
Se -7.703056 -10.837188 -17.035896
Se -10.799382 -10.837188 -7.746918
Se -10.799382 -7.740862 -10.843244
Se -7.703056 -7.740862 -7.746918
Se -7.703056 -10.837188 -10.843244
Se -10.799382 -10.837188 -1.554266
Se -10.799382 -7.740862 -4.650592
Se -7.703056 -7.740862 -1.554266
Se -7.703056 -10.837188 -4.650592
Se -10.799382 -10.837188 4.638386
Se -10.799382 -7.740862 1.542060
Se -7.703056 -7.740862 4.638386
Se -7.703056 -10.837188 1.542060
Se -10.799382 -10.837188 10.831038
Se -10.799382 -7.740862 7.734712
Se -7.703056 -7.740862 10.831038
Se -7.703056 -10.837188 7.734712
Se -10.799382 -7.740862 13.927364
Se -7.703056 -7.740862 17.023690
Se -7.703056 -10.837188 13.927364
Se -10.799382 -4.644536 -20.132222
Se -7.703056 -1.548210 -20.132222
Se -10.799382 -4.644536 -13.939570
Se -10.799382 -1.548210 -17.035896
Se -7.703056 -1.548210 -13.939570
Se -7.703056 -4.644536 -17.035896
Se -10.799382 -4.644536 -7.746918
Se -10.799382 -1.548210 -10.843244
Se -7.703056 -1.548210 -7.746918
Se -7.703056 -4.644536 -10.843244
Se -10.799382 -4.644536 -1.554266
Se -10.799382 -1.548210 -4.650592
Se -7.703056 -1.548210 -1.554266
Se -7.703056 -4.644536 -4.650592
Se -10.799382 -4.644536 4.638386
Se -10.799382 -1.548210 1.542060
Se -7.703056 -1.548210 4.638386
Se -7.703056 -4.644536 1.542060
Se -10.799382 -4.644536 10.831038
Se -10.799382 -1.548210 7.734712
Se -7.703056 -1.548210 10.831038
Se -7.703056 -4.644536 7.734712
Se -10.799382 -4.644536 17.023690
Se -10.799382 -1.548210 13.927364
Se -7.703056 -1.548210 17.023690
Se -7.703056 -4.644536 13.927364
Se -10.799382 -1.548210 20.120016
Se -7.703056 -4.644536 20.120016
Se -10.799382 1.548116 -20.132222
Se -7.703056 4.644442 -20.132222
Se -10.799382 1.548116 -13.939570
Se -10.799382 4.644442 -17.035896
Se -7.703056 4.644442 -13.939570
Se -7.703056 1.548116 -17.035896
Se -10.799382 1.548116 -7.746918
Se -10.799382 4.644442 -10.843244
Se -7.703056 4.644442 -7.746918
Se -7.703056 1.548116 -10.843244
Se -10.799382 1.548116 -1.554266
Se -10.799382 4.644442 -4.650592
Se -7.703056 4.644442 -1.554266
Se -7.703056 1.548116 -4.650592
Se -10.799382 1.548116 4.638386
Se -10.799382 4.644442 1.542060
Se -7.703056 4.644442 4.638386
Se -7.703056 1.548116 1.542060
Se -10.799382 1.548116 10.831038
Se -10.799382 4.644442 7.734712
Se -7.703056 4.644442 10.831038
Se -7.703056 1.548116 7.734712
Se -10.799382 1.548116 17.023690
Se -10.799382 4.644442 13.927364
Se -7.703056 4.644442 17.023690
Se -7.703056 1.548116 13.927364
Se -10.799382 4.644442 20.120016
Se -7.703056 1.548116 20.120016
Se -10.799382 7.740768 -13.939570
Se -7.703056 10.837094 -13.939570
Se -7.703056 7.740768 -17.035896
Se -10.799382 7.740768 -7.746918
Se -10.799382 10.837094 -10.843244
Se -7.703056 10.837094 -7.746918
Se -7.703056 7.740768 -10.843244
Se -10.799382 7.740768 -1.554266
Se -10.799382 10.837094 -4.650592
Se -7.703056 10.837094 -1.554266
Se -7.703056 7.740768 -4.650592
Se -10.799382 7.740768 4.638386
Se -10.799382 10.837094 1.542060
Se -7.703056 10.837094 4.638386
Se -7.703056 7.740768 1.542060
Se -10.799382 7.740768 10.831038
Se -10.799382 10.837094 7.734712
Se -7.703056 10.837094 10.831038
Se -7.703056 7.740768 7.734712
Se -10.799382 7.740768 17.023690
Se -10.799382 10.837094 13.927364
Se -7.703056 10.837094 17.023690
Se -7.703056 7.740768 13.927364
Se -7.703056 7.740768 20.120016
Se -7.703056 13.933420 -17.035896
Se -10.799382 13.933420 -7.746918
Se -7.703056 17.029746 -7.746918
Se -7.703056 13.933420 -10.843244
Se -10.799382 13.933420 -1.554266
Se -10.799382 17.029746 -4.650592
Se -7.703056 17.029746 -1.554266
Se -7.703056 13.933420 -4.650592
Se -10.799382 13.933420 4.638386
Se -10.799382 17.029746 1.542060
Se -7.703056 17.029746 4.638386
Se -7.703056 13.933420 1.542060
Se -10.799382 13.933420 10.831038
Se -10.799382 17.029746 7.734712
Se -7.703056 17.029746 10.831038
Se -7.703056 13.933420 7.734712
Se -7.703056 13.933420 13.927364
Se -10.799382 20.126072 -1.554266
Se -7.703056 20.126072 -4.650592
Se -10.799382 20.126072 4.638386
Se -7.703056 20.126072 1.542060
Se -7.703056 20.126072 7.734712
Se -4.606730 -20.126166 -10.843244
Se -1.510404 -20.126166 -7.746918
Se -4.606730 -20.126166 -4.650592
Se -1.510404 -20.126166 -1.554266
Se -4.606730 -20.126166 1.542060
Se -1.510404 -20.126166 4.638386
Se -4.606730 -20.126166 7.734712
Se -1.510404 -20.126166 10.831038
Se -4.606730 -17.029840 -13.939570
Se -4.606730 -13.933514 -17.035896
Se -1.510404 -13.933514 -13.939570
Se -4.606730 -17.029840 -7.746918
Se -4.606730 -13.933514 -10.843244
Se -1.510404 -13.933514 -7.746918
Se -1.510404 -17.029840 -10.843244
Se -4.606730 -17.029840 -1.554266
Se -4.606730 -13.933514 -4.650592
Se -1.510404 -13.933514 -1.554266
Se -1.510404 -17.029840 -4.650592
Se -4.606730 -17.029840 4.638386
Se -4.606730 -13.933514 1.542060
Se -1.510404 -13.933514 4.638386
Se -1.510404 -17.029840 1.542060
Se -4.606730 -17.029840 10.831038
Se -4.606730 -13.933514 7.734712
Se -1.510404 -13.933514 10.831038
Se -1.510404 -17.029840 7.734712
Se -4.606730 -13.933514 13.927364
Se -1.510404 -13.933514 17.023690
Se -1.510404 -17.029840 13.927364
Se -4.606730 -10.837188 -20.132222
Se -1.510404 -7.740862 -20.132222
Se -4.606730 -10.837188 -13.939570
Se -4.606730 -7.740862 -17.035896
Se -1.510404 -7.740862 -13.939570
Se -1.510404 -10.837188 -17.035896
Se -4.606730 -10.837188 -7.746918
Se -4.606730 -7.740862 -10.843244
Se -1.510404 -7.740862 -7.746918
Se -1.510404 -10.837188 -10.843244
Se -4.606730 -10.837188 -1.554266
Se -4.606730 -7.740862 -4.650592
Se -1.510404 -7.740862 -1.554266
Se -1.510404 -10.837188 -4.650592
Se -4.606730 -10.837188 4.638386
Se -4.606730 -7.740862 1.542060
Se -1.510404 -7.740862 4.638386
Se -1.510404 -10.837188 1.542060
Se -4.606730 -10.837188 10.831038
Se -4.606730 -7.740862 7.734712
Se -1.510404 -7.740862 10.831038
Se -1.510404 -10.837188 7.734712
Se -4.606730 -10.837188 17.023690
Se -4.606730 -7.740862 13.927364
Se -1.510404 -7.740862 17.023690
Se -1.510404 -10.837188 13.927364
Se -4.606730 -7.740862 20.120016
Se -1.510404 -10.837188 20.120016
Se -4.606730 -4.644536 -20.132222
Se -1.510404 -1.548210 -20.132222
Se -4.606730 -4.644536 -13.939570
Se -4.606730 -1.548210 -17.035896
Se -1.510404 -1.548210 -13.939570
Se -1.510404 -4.644536 -17.035896
Se -4.606730 -4.644536 -7.746918
Se -4.606730 -1.548210 -10.843244
Se -1.510404 -1.548210 -7.746918
Se -1.510404 -4.644536 -10.843244
Se -4.606730 -4.644536 -1.554266
Se -4.606730 -1.548210 -4.650592
Se -1.510404 -1.548210 -1.554266
Se -1.510404 -4.644536 -4.650592
Se -4.606730 -4.644536 4.638386
Se -4.606730 -1.548210 1.542060
Se -1.510404 -1.548210 4.638386
Se -1.510404 -4.644536 1.542060
Se -4.606730 -4.644536 10.831038
Se -4.606730 -1.548210 7.734712
Se -1.510404 -1.548210 10.831038
Se -1.510404 -4.644536 7.734712
Se -4.606730 -4.644536 17.023690
Se -4.606730 -1.548210 13.927364
Se -1.510404 -1.548210 17.023690
Se -1.510404 -4.644536 13.927364
Se -4.606730 -1.548210 20.120016
Se -1.510404 -4.644536 20.120016
Se -4.606730 1.548116 -20.132222
Se -1.510404 4.644442 -20.132222
Se -4.606730 1.548116 -13.939570
Se -4.606730 4.644442 -17.035896
Se -1.510404 4.644442 -13.939570
Se -1.510404 1.548116 -17.035896
Se -4.606730 1.548116 -7.746918
Se -4.606730 4.644442 -10.843244
Se -1.510404 4.644442 -7.746918
Se -1.510404 1.548116 -10.843244
Se -4.606730 1.548116 -1.554266
Se -4.606730 4.644442 -4.650592
Se -1.510404 4.644442 -1.554266
Se -1.510404 1.548116 -4.650592
Se -4.606730 1.548116 4.638386
Se -4.606730 4.644442 1.542060
Se -1.510404 4.644442 4.638386
Se -1.510404 1.548116 1.542060
Se -4.606730 1.548116 10.831038
Se -4.606730 4.644442 7.734712
Se -1.510404 4.644442 10.831038
Se -1.510404 1.548116 7.734712
Se -4.606730 1.548116 17.023690
Se -4.606730 4.644442 13.927364
Se -1.510404 4.644442 17.023690
Se -1.510404 1.548116 13.927364
Se -4.606730 4.644442 20.120016
Se -1.510404 1.548116 20.120016
Se -4.606730 7.740768 -20.132222
Se -1.510404 10.837094 -20.132222
Se -4.606730 7.740768 -13.939570
Se -4.606730 10.837094 -17.035896
Se -1.510404 10.837094 -13.939570
Se -1.510404 7.740768 -17.035896
Se -4.606730 7.740768 -7.746918
Se -4.606730 10.837094 -10.843244
Se -1.510404 10.837094 -7.746918
Se -1.510404 7.740768 -10.843244
Se -4.606730 7.740768 -1.554266
Se -4.606730 10.837094 -4.650592
Se -1.510404 10.837094 -1.554266
Se -1.510404 7.740768 -4.650592
Se -4.606730 7.740768 4.638386
Se -4.606730 10.837094 1.542060
Se -1.510404 10.837094 4.638386
Se -1.510404 7.740768 1.542060
Se -4.606730 7.740768 10.831038
Se -4.606730 10.837094 7.734712
Se -1.510404 10.837094 10.831038
Se -1.510404 7.740768 7.734712
Se -4.606730 7.740768 17.023690
Se -4.606730 10.837094 13.927364
Se -1.510404 10.837094 17.023690
Se -1.510404 7.740768 13.927364
Se -4.606730 10.837094 20.120016
Se -1.510404 7.740768 20.120016
Se -4.606730 13.933420 -13.939570
Se -1.510404 17.029746 -13.939570
Se -1.510404 13.933420 -17.035896
Se -4.606730 13.933420 -7.746918
Se -4.606730 17.029746 -10.843244
Se -1.510404 17.029746 -7.746918
Se -1.510404 13.933420 -10.843244
Se -4.606730 13.933420 -1.554266
Se -4.606730 17.029746 -4.650592
Se -1.510404 17.029746 -1.554266
Se -1.510404 13.933420 -4.650592
Se -4.606730 13.933420 4.638386
Se -4.606730 17.029746 1.542060
Se -1.510404 17.029746 4.638386
Se -1.510404 13.933420 1.542060
Se -4.606730 13.933420 10.831038
Se -4.606730 17.029746 7.734712
Se -1.510404 17.029746 10.831038
Se -1.510404 13.933420 7.734712
Se -4.606730 13.933420 17.023690
Se -4.606730 17.029746 13.927364
Se -1.510404 13.933420 13.927364
Se -4.606730 20.126072 -7.746918
Se -1.510404 20.126072 -10.843244
Se -4.606730 20.126072 -1.554266
Se -1.510404 20.126072 -4.650592
Se -4.606730 20.126072 4.638386
Se -1.510404 20.126072 1.542060
Se -4.606730 20.126072 10.831038
Se -1.510404 20.126072 7.734712
Se 1.585922 -20.126166 -10.843244
Se 4.682248 -20.126166 -7.746918
Se 1.585922 -20.126166 -4.650592
Se 4.682248 -20.126166 -1.554266
Se 1.585922 -20.126166 1.542060
Se 4.682248 -20.126166 4.638386
Se 1.585922 -20.126166 7.734712
Se 4.682248 -20.126166 10.831038
Se 1.585922 -17.029840 -13.939570
Se 1.585922 -13.933514 -17.035896
Se 4.682248 -13.933514 -13.939570
Se 1.585922 -17.029840 -7.746918
Se 1.585922 -13.933514 -10.843244
Se 4.682248 -13.933514 -7.746918
Se 4.682248 -17.029840 -10.843244
Se 1.585922 -17.029840 -1.554266
Se 1.585922 -13.933514 -4.650592
Se 4.682248 -13.933514 -1.554266
Se 4.682248 -17.029840 -4.650592
Se 1.585922 -17.029840 4.638386
Se 1.585922 -13.933514 1.542060
Se 4.682248 -13.933514 4.638386
Se 4.682248 -17.029840 1.542060
Se 1.585922 -17.029840 10.831038
Se 1.585922 -13.933514 7.734712
Se 4.682248 -13.933514 10.831038
Se 4.682248 -17.029840 7.734712
Se 1.585922 -13.933514 13.927364
Se 4.682248 -13.933514 17.023690
Se 4.682248 -17.029840 13.927364
Se 1.585922 -10.837188 -20.132222
Se 4.682248 -7.740862 -20.132222
Se 1.585922 -10.837188 -13.939570
Se 1.585922 -7.740862 -17.035896
Se 4.682248 -7.740862 -13.939570
Se 4.682248 -10.837188 -17.035896
Se 1.585922 -10.837188 -7.746918
Se 1.585922 -7.740862 -10.843244
Se 4.682248 -7.740862 -7.746918
Se 4.682248 -10.837188 -10.843244
Se 1.585922 -10.837188 -1.554266
Se 1.585922 -7.740862 -4.650592
Se 4.682248 -7.740862 -1.554266
Se 4.682248 -10.837188 -4.650592
Se 1.585922 -10.837188 4.638386
Se 1.585922 -7.740862 1.542060
Se 4.682248 -7.740862 4.638386
Se 4.682248 -10.837188 1.542060
Se 1.585922 -10.837188 10.831038
Se 1.585922 -7.740862 7.734712
Se 4.682248 -7.740862 10.831038
Se 4.682248 -10.837188 7.734712
Se 1.585922 -10.837188 17.023690
Se 1.585922 -7.740862 13.927364
Se 4.682248 -7.740862 17.023690
Se 4.682248 -10.837188 13.927364
Se 1.585922 -7.740862 20.120016
Se 4.682248 -10.837188 20.120016
Se 1.585922 -4.644536 -20.132222
Se 4.682248 -1.548210 -20.132222
Se 1.585922 -4.644536 -13.939570
Se 1.585922 -1.548210 -17.035896
Se 4.682248 -1.548210 -13.939570
Se 4.682248 -4.644536 -17.035896
Se 1.585922 -4.644536 -7.746918
Se 1.585922 -1.548210 -10.843244
Se 4.682248 -1.548210 -7.746918
Se 4.682248 -4.644536 -10.843244
Se 1.585922 -4.644536 -1.554266
Se 1.585922 -1.548210 -4.650592
Se 4.682248 -1.548210 -1.554266
Se 4.682248 -4.644536 -4.650592
Se 1.585922 -4.644536 4.638386
Se 1.585922 -1.548210 1.542060
Se 4.682248 -1.548210 4.638386
Se 4.682248 -4.644536 1.542060
Se 1.585922 -4.644536 10.831038
Se 1.585922 -1.548210 7.734712
Se 4.682248 -1.548210 10.831038
Se 4.682248 -4.644536 7.734712
Se 1.585922 -4.644536 17.023690
Se 1.585922 -1.548210 13.927364
Se 4.682248 -1.548210 17.023690
Se 4.682248 -4.644536 13.927364
Se 1.585922 -1.548210 20.120016
Se 4.682248 -4.644536 20.120016
Se 1.585922 1.548116 -20.132222
Se 4.682248 4.644442 -20.132222
Se 1.585922 1.548116 -13.939570
Se 1.585922 4.644442 -17.035896
Se 4.682248 4.644442 -13.939570
Se 4.682248 1.548116 -17.035896
Se 1.585922 1.548116 -7.746918
Se 1.585922 4.644442 -10.843244
Se 4.682248 4.644442 -7.746918
Se 4.682248 1.548116 -10.843244
Se 1.585922 1.548116 -1.554266
Se 1.585922 4.644442 -4.650592
Se 4.682248 4.644442 -1.554266
Se 4.682248 1.548116 -4.650592
Se 1.585922 1.548116 4.638386
Se 1.585922 4.644442 1.542060
Se 4.682248 4.644442 4.638386
Se 4.682248 1.548116 1.542060
Se 1.585922 1.548116 10.831038
Se 1.585922 4.644442 7.734712
Se 4.682248 4.644442 10.831038
Se 4.682248 1.548116 7.734712
Se 1.585922 1.548116 17.023690
Se 1.585922 4.644442 13.927364
Se 4.682248 4.644442 17.023690
Se 4.682248 1.548116 13.927364
Se 1.585922 4.644442 20.120016
Se 4.682248 1.548116 20.120016
Se 1.585922 7.740768 -20.132222
Se 4.682248 10.837094 -20.132222
Se 1.585922 7.740768 -13.939570
Se 1.585922 10.837094 -17.035896
Se 4.682248 10.837094 -13.939570
Se 4.682248 7.740768 -17.035896
Se 1.585922 7.740768 -7.746918
Se 1.585922 10.837094 -10.843244
Se 4.682248 10.837094 -7.746918
Se 4.682248 7.740768 -10.843244
Se 1.585922 7.740768 -1.554266
Se 1.585922 10.837094 -4.650592
Se 4.682248 10.837094 -1.554266
Se 4.682248 7.740768 -4.650592
Se 1.585922 7.740768 4.638386
Se 1.585922 10.837094 1.542060
Se 4.682248 10.837094 4.638386
Se 4.682248 7.740768 1.542060
Se 1.585922 7.740768 10.831038
Se 1.585922 10.837094 7.734712
Se 4.682248 10.837094 10.831038
Se 4.682248 7.740768 7.734712
Se 1.585922 7.740768 17.023690
Se 1.585922 10.837094 13.927364
Se 4.682248 10.837094 17.023690
Se 4.682248 7.740768 13.927364
Se 1.585922 10.837094 20.120016
Se 4.682248 7.740768 20.120016
Se 1.585922 13.933420 -13.939570
Se 4.682248 17.029746 -13.939570
Se 4.682248 13.933420 -17.035896
Se 1.585922 13.933420 -7.746918
Se 1.585922 17.029746 -10.843244
Se 4.682248 17.029746 -7.746918
Se 4.682248 13.933420 -10.843244
Se 1.585922 13.933420 -1.554266
Se 1.585922 17.029746 -4.650592
Se 4.682248 17.029746 -1.554266
Se 4.682248 13.933420 -4.650592
Se 1.585922 13.933420 4.638386
Se 1.585922 17.029746 1.542060
Se 4.682248 17.029746 4.638386
Se 4.682248 13.933420 1.542060
Se 1.585922 13.933420 10.831038
Se 1.585922 17.029746 7.734712
Se 4.682248 17.029746 10.831038
Se 4.682248 13.933420 7.734712
Se 1.585922 13.933420 17.023690
Se 1.585922 17.029746 13.927364
Se 4.682248 13.933420 13.927364
Se 1.585922 20.126072 -7.746918
Se 4.682248 20.126072 -10.843244
Se 1.585922 20.126072 -1.554266
Se 4.682248 20.126072 -4.650592
Se 1.585922 20.126072 4.638386
Se 4.682248 20.126072 1.542060
Se 1.585922 20.126072 10.831038
Se 4.682248 20.126072 7.734712
Se 7.778574 -20.126166 -4.650592
Se 10.874900 -20.126166 -1.554266
Se 7.778574 -20.126166 1.542060
Se 10.874900 -20.126166 4.638386
Se 7.778574 -20.126166 7.734712
Se 7.778574 -13.933514 -17.035896
Se 7.778574 -17.029840 -7.746918
Se 7.778574 -13.933514 -10.843244
Se 10.874900 -13.933514 -7.746918
Se 7.778574 -17.029840 -1.554266
Se 7.778574 -13.933514 -4.650592
Se 10.874900 -13.933514 -1.554266
Se 10.874900 -17.029840 -4.650592
Se 7.778574 -17.029840 4.638386
Se 7.778574 -13.933514 1.542060
Se 10.874900 -13.933514 4.638386
Se 10.874900 -17.029840 1.542060
Se 7.778574 -17.029840 10.831038
Se 7.778574 -13.933514 7.734712
Se 10.874900 -13.933514 10.831038
Se 10.874900 -17.029840 7.734712
Se 7.778574 -13.933514 13.927364
Se 7.778574 -10.837188 -13.939570
Se 7.778574 -7.740862 -17.035896
Se 10.874900 -7.740862 -13.939570
Se 7.778574 -10.837188 -7.746918
Se 7.778574 -7.740862 -10.843244
Se 10.874900 -7.740862 -7.746918
Se 10.874900 -10.837188 -10.843244
Se 7.778574 -10.837188 -1.554266
Se 7.778574 -7.740862 -4.650592
Se 10.874900 -7.740862 -1.554266
Se 10.874900 -10.837188 -4.650592
Se 7.778574 -10.837188 4.638386
Se 7.778574 -7.740862 1.542060
Se 10.874900 -7.740862 4.638386
Se 10.874900 -10.837188 1.542060
Se 7.778574 -10.837188 10.831038
Se 7.778574 -7.740862 7.734712
Se 10.874900 -7.740862 10.831038
Se 10.874900 -10.837188 7.734712
Se 7.778574 -10.837188 17.023690
Se 7.778574 -7.740862 13.927364
Se 10.874900 -7.740862 17.023690
Se 10.874900 -10.837188 13.927364
Se 7.778574 -7.740862 20.120016
Se 7.778574 -4.644536 -20.132222
Se 10.874900 -1.548210 -20.132222
Se 7.778574 -4.644536 -13.939570
Se 7.778574 -1.548210 -17.035896
Se 10.874900 -1.548210 -13.939570
Se 10.874900 -4.644536 -17.035896
Se 7.778574 -4.644536 -7.746918
Se 7.778574 -1.548210 -10.843244
Se 10.874900 -1.548210 -7.746918
Se 10.874900 -4.644536 -10.843244
Se 7.778574 -4.644536 -1.554266
Se 7.778574 -1.548210 -4.650592
Se 10.874900 -1.548210 -1.554266
Se 10.874900 -4.644536 -4.650592
Se 7.778574 -4.644536 4.638386
Se 7.778574 -1.548210 1.542060
Se 10.874900 -1.548210 4.638386
Se 10.874900 -4.644536 1.542060
Se 7.778574 -4.644536 10.831038
Se 7.778574 -1.548210 7.734712
Se 10.874900 -1.548210 10.831038
Se 10.874900 -4.644536 7.734712
Se 7.778574 -4.644536 17.023690
Se 7.778574 -1.548210 13.927364
Se 10.874900 -1.548210 17.023690
Se 10.874900 -4.644536 13.927364
Se 7.778574 -1.548210 20.120016
Se 10.874900 -4.644536 20.120016
Se 7.778574 1.548116 -20.132222
Se 10.874900 4.644442 -20.132222
Se 7.778574 1.548116 -13.939570
Se 7.778574 4.644442 -17.035896
Se 10.874900 4.644442 -13.939570
Se 10.874900 1.548116 -17.035896
Se 7.778574 1.548116 -7.746918
Se 7.778574 4.644442 -10.843244
Se 10.874900 4.644442 -7.746918
Se 10.874900 1.548116 -10.843244
Se 7.778574 1.548116 -1.554266
Se 7.778574 4.644442 -4.650592
Se 10.874900 4.644442 -1.554266
Se 10.874900 1.548116 -4.650592
Se 7.778574 1.548116 4.638386
Se 7.778574 4.644442 1.542060
Se 10.874900 4.644442 4.638386
Se 10.874900 1.548116 1.542060
Se 7.778574 1.548116 10.831038
Se 7.778574 4.644442 7.734712
Se 10.874900 4.644442 10.831038
Se 10.874900 1.548116 7.734712
Se 7.778574 1.548116 17.023690
Se 7.778574 4.644442 13.927364
Se 10.874900 4.644442 17.023690
Se 10.874900 1.548116 13.927364
Se 7.778574 4.644442 20.120016
Se 10.874900 1.548116 20.120016
Se 7.778574 7.740768 -20.132222
Se 7.778574 7.740768 -13.939570
Se 7.778574 10.837094 -17.035896
Se 10.874900 10.837094 -13.939570
Se 10.874900 7.740768 -17.035896
Se 7.778574 7.740768 -7.746918
Se 7.778574 10.837094 -10.843244
Se 10.874900 10.837094 -7.746918
Se 10.874900 7.740768 -10.843244
Se 7.778574 7.740768 -1.554266
Se 7.778574 10.837094 -4.650592
Se 10.874900 10.837094 -1.554266
Se 10.874900 7.740768 -4.650592
Se 7.778574 7.740768 4.638386
Se 7.778574 10.837094 1.542060
Se 10.874900 10.837094 4.638386
Se 10.874900 7.740768 1.542060
Se 7.778574 7.740768 10.831038
Se 7.778574 10.837094 7.734712
Se 10.874900 10.837094 10.831038
Se 10.874900 7.740768 7.734712
Se 7.778574 7.740768 17.023690
Se 7.778574 10.837094 13.927364
Se 10.874900 7.740768 13.927364
Se 7.778574 13.933420 -13.939570
Se 7.778574 13.933420 -7.746918
Se 7.778574 17.029746 -10.843244
Se 10.874900 17.029746 -7.746918
Se 10.874900 13.933420 -10.843244
Se 7.778574 13.933420 -1.554266
Se 7.778574 17.029746 -4.650592
Se 10.874900 17.029746 -1.554266
Se 10.874900 13.933420 -4.650592
Se 7.778574 13.933420 4.638386
Se 7.778574 17.029746 1.542060
Se 10.874900 17.029746 4.638386
Se 10.874900 13.933420 1.542060
Se 7.778574 13.933420 10.831038
Se 7.778574 17.029746 7.734712
Se 10.874900 13.933420 7.734712
Se 7.778574 17.029746 13.927364
Se 7.778574 20.126072 -7.746918
Se 7.778574 20.126072 -1.554266
Se 10.874900 20.126072 -4.650592
Se 7.778574 20.126072 4.638386
Se 10.874900 20.126072 1.542060
Se 17.067552 -13.933514 -7.746918
Se 13.971226 -17.029840 -1.554266
Se 13.971226 -13.933514 -4.650592
Se 17.067552 -13.933514 -1.554266
Se 13.971226 -17.029840 4.638386
Se 13.971226 -13.933514 1.542060
Se 17.067552 -13.933514 4.638386
Se 13.971226 -13.933514 7.734712
Se 17.067552 -7.740862 -13.939570
Se 13.971226 -10.837188 -7.746918
Se 13.971226 -7.740862 -10.843244
Se 17.067552 -7.740862 -7.746918
Se 13.971226 -10.837188 -1.554266
Se 13.971226 -7.740862 -4.650592
Se 17.067552 -7.740862 -1.554266
Se 17.067552 -10.837188 -4.650592
Se 13.971226 -10.837188 4.638386
Se 13.971226 -7.740862 1.542060
Se 17.067552 -7.740862 4.638386
Se 17.067552 -10.837188 1.542060
Se 13.971226 -10.837188 10.831038
Se 13.971226 -7.740862 7.734712
Se 17.067552 -7.740862 10.831038
Se 17.067552 -10.837188 7.734712
Se 13.971226 -7.740862 13.927364
Se 13.971226 -4.644536 -13.939570
Se 13.971226 -1.548210 -17.035896
Se 17.067552 -1.548210 -13.939570
Se 13.971226 -4.644536 -7.746918
Se 13.971226 -1.548210 -10.843244
Se 17.067552 -1.548210 -7.746918
Se 17.067552 -4.644536 -10.843244
Se 13.971226 -4.644536 -1.554266
Se 13.971226 -1.548210 -4.650592
Se 17.067552 -1.548210 -1.554266
Se 17.067552 -4.644536 -4.650592
Se 13.971226 -4.644536 4.638386
Se 13.971226 -1.548210 1.542060
Se 17.067552 -1.548210 4.638386
Se 17.067552 -4.644536 1.542060
Se 13.971226 -4.644536 10.831038
Se 13.971226 -1.548210 7.734712
Se 17.067552 -1.548210 10.831038
Se 17.067552 -4.644536 7.734712
Se 13.971226 -4.644536 17.023690
Se 13.971226 -1.548210 13.927364
Se 17.067552 -4.644536 13.927364
Se 13.971226 1.548116 -13.939570
Se 13.971226 4.644442 -17.035896
Se 17.067552 4.644442 -13.939570
Se 13.971226 1.548116 -7.746918
Se 13.971226 4.644442 -10.843244
Se 17.067552 4.644442 -7.746918
Se 17.067552 1.548116 -10.843244
Se 13.971226 1.548116 -1.554266
Se 13.971226 4.644442 -4.650592
Se 17.067552 4.644442 -1.554266
Se 17.067552 1.548116 -4.650592
Se 13.971226 1.548116 4.638386
Se 13.971226 4.644442 1.542060
Se 17.067552 4.644442 4.638386
Se 17.067552 1.548116 1.542060
Se 13.971226 1.548116 10.831038
Se 13.971226 4.644442 7.734712
Se 17.067552 4.644442 10.831038
Se 17.067552 1.548116 7.734712
Se 13.971226 1.548116 17.023690
Se 13.971226 4.644442 13.927364
Se 17.067552 1.548116 13.927364
Se 13.971226 7.740768 -13.939570
Se 13.971226 7.740768 -7.746918
Se 13.971226 10.837094 -10.843244
Se 17.067552 10.837094 -7.746918
Se 17.067552 7.740768 -10.843244
Se 13.971226 7.740768 -1.554266
Se 13.971226 10.837094 -4.650592
Se 17.067552 10.837094 -1.554266
Se 17.067552 7.740768 -4.650592
Se 13.971226 7.740768 4.638386
Se 13.971226 10.837094 1.542060
Se 17.067552 10.837094 4.638386
Se 17.067552 7.740768 1.542060
Se 13.971226 7.740768 10.831038
Se 13.971226 10.837094 7.734712
Se 17.067552 7.740768 7.734712
Se 17.067552 7.740768 13.927364
Se 13.971226 13.933420 -7.746918
Se 13.971226 13.933420 -1.554266
Se 13.971226 17.029746 -4.650592
Se 17.067552 13.933420 -4.650592
Se 13.971226 13.933420 4.638386
Se 13.971226 17.029746 1.542060
Se 17.067552 13.933420 1.542060
Se 17.067552 13.933420 7.734712
Se 20.163878 -10.837188 -1.554266
Se 20.163878 -7.740862 -4.650592
Se 20.163878 -10.837188 4.638386
Se 20.163878 -7.740862 1.542060
Se 20.163878 -7.740862 7.734712
Se 20.163878 -4.644536 -7.746918
Se 20.163878 -1.548210 -10.843244
Se 20.163878 -4.644536 -1.554266
Se 20.163878 -1.548210 -4.650592
Se 20.163878 -4.644536 4.638386
Se 20.163878 -1.548210 1.542060
Se 20.163878 -4.644536 10.831038
Se 20.163878 -1.548210 7.734712
Se 20.163878 1.548116 -7.746918
Se 20.163878 4.644442 -10.843244
Se 20.163878 1.548116 -1.554266
Se 20.163878 4.644442 -4.650592
Se 20.163878 1.548116 4.638386
Se 20.163878 4.644442 1.542060
Se 20.163878 1.548116 10.831038
Se 20.163878 4.644442 7.734712
Se 20.163878 7.740768 -7.746918
Se 20.163878 7.740768 -1.554266
Se 20.163878 10.837094 -4.650592
Se 20.163878 7.740768 4.638386
Se 20.163878 10.837094 1.542060
Cl -23.184686 -7.740862 -4.650592
Cl -23.184686 -7.740862 1.542060
Cl -23.184686 -7.740862 7.734712
Cl -20.088360 -7.740862 10.831038
Cl -20.088360 -10.837188 7.734712
Cl -23.184686 -4.644536 -7.746918
Cl -23.184686 -4.644536 -1.554266
Cl -23.184686 -1.548210 -4.650592
Cl -23.184686 -4.644536 4.638386
Cl -23.184686 -1.548210 1.542060
Cl -23.184686 -1.548210 7.734712
Cl -23.184686 1.548116 -7.746918
Cl -23.184686 1.548116 -1.554266
Cl -23.184686 4.644442 -4.650592
Cl -23.184686 1.548116 4.638386
Cl -23.184686 4.644442 1.542060
Cl -23.184686 4.644442 7.734712
Cl -23.184686 7.740768 -7.746918
Cl -20.088360 10.837094 -7.746918
Cl -20.088360 7.740768 -10.843244
Cl -23.184686 7.740768 -1.554266
Cl -23.184686 7.740768 4.638386
Cl -16.992034 -13.933514 7.734712
Cl -13.895708 -13.933514 10.831038
Cl -16.992034 -10.837188 10.831038
Cl -16.992034 -7.740862 13.927364
Cl -13.895708 -10.837188 13.927364
Cl -16.992034 7.740768 -13.939570
Cl -13.895708 10.837094 -13.939570
Cl -16.992034 10.837094 -10.843244
Cl -16.992034 13.933420 -7.746918
Cl -13.895708 13.933420 -10.843244
Cl -7.703056 -23.222492 -4.650592
Cl -7.703056 -23.222492 1.542060
Cl -10.799382 -20.126166 7.734712
Cl -7.703056 -20.126166 10.831038
Cl -7.703056 -23.222492 7.734712
Cl -10.799382 -17.029840 10.831038
Cl -10.799382 -13.933514 13.927364
Cl -7.703056 -13.933514 17.023690
Cl -10.799382 -10.837188 17.023690
Cl -10.799382 -7.740862 20.120016
Cl -7.703056 -7.740862 23.216342
Cl -7.703056 -10.837188 20.120016
Cl -7.703056 -4.644536 -23.228548
Cl -7.703056 -1.548210 23.216342
Cl -7.703056 1.548116 -23.228548
Cl -7.703056 4.644442 23.216342
Cl -10.799382 7.740768 -20.132222
Cl -7.703056 10.837094 -20.132222
Cl -7.703056 7.740768 -23.228548
Cl -10.799382 10.837094 -17.035896
Cl -10.799382 13.933420 -13.939570
Cl -7.703056 17.029746 -13.939570
Cl -10.799382 17.029746 -10.843244
Cl -10.799382 20.126072 -7.746918
Cl -7.703056 23.222398 -7.746918
Cl -7.703056 20.126072 -10.843244
Cl -7.703056 23.222398 -1.554266
Cl -7.703056 23.222398 4.638386
Cl -4.606730 -23.222492 -7.746918
Cl -4.606730 -23.222492 -1.554266
Cl -1.510404 -23.222492 -4.650592
Cl -4.606730 -23.222492 4.638386
Cl -1.510404 -23.222492 1.542060
Cl -1.510404 -23.222492 7.734712
Cl -4.606730 -7.740862 -23.228548
Cl -1.510404 -7.740862 23.216342
Cl -4.606730 -1.548210 -23.228548
Cl -1.510404 -4.644536 -23.228548
Cl -4.606730 -4.644536 23.216342
Cl -1.510404 -1.548210 23.216342
Cl -4.606730 4.644442 -23.228548
Cl -1.510404 1.548116 -23.228548
Cl -4.606730 1.548116 23.216342
Cl -1.510404 4.644442 23.216342
Cl -1.510404 7.740768 -23.228548
Cl -4.606730 7.740768 23.216342
Cl -1.510404 23.222398 -7.746918
Cl -4.606730 23.222398 -4.650592
Cl -1.510404 23.222398 -1.554266
Cl -4.606730 23.222398 1.542060
Cl -1.510404 23.222398 4.638386
Cl -4.606730 23.222398 7.734712
Cl 1.585922 -23.222492 -7.746918
Cl 1.585922 -23.222492 -1.554266
Cl 4.682248 -23.222492 -4.650592
Cl 1.585922 -23.222492 4.638386
Cl 4.682248 -23.222492 1.542060
Cl 4.682248 -23.222492 7.734712
Cl 1.585922 -7.740862 -23.228548
Cl 4.682248 -7.740862 23.216342
Cl 1.585922 -1.548210 -23.228548
Cl 4.682248 -4.644536 -23.228548
Cl 1.585922 -4.644536 23.216342
Cl 4.682248 -1.548210 23.216342
Cl 1.585922 4.644442 -23.228548
Cl 4.682248 1.548116 -23.228548
Cl 1.585922 1.548116 23.216342
Cl 4.682248 4.644442 23.216342
Cl 4.682248 7.740768 -23.228548
Cl 1.585922 7.740768 23.216342
Cl 4.682248 23.222398 -7.746918
Cl 1.585922 23.222398 -4.650592
Cl 4.682248 23.222398 -1.554266
Cl 1.585922 23.222398 1.542060
Cl 4.682248 23.222398 4.638386
Cl 1.585922 23.222398 7.734712
Cl 7.778574 -23.222492 -7.746918
Cl 7.778574 -20.126166 -10.843244
Cl 10.874900 -20.126166 -7.746918
Cl 7.778574 -23.222492 -1.554266
Cl 7.778574 -23.222492 4.638386
Cl 7.778574 -17.029840 -13.939570
Cl 10.874900 -13.933514 -13.939570
Cl 10.874900 -17.029840 -10.843244
Cl 7.778574 -10.837188 -20.132222
Cl 7.778574 -7.740862 -23.228548
Cl 10.874900 -7.740862 -20.132222
Cl 10.874900 -10.837188 -17.035896
Cl 7.778574 -1.548210 -23.228548
Cl 7.778574 -4.644536 23.216342
Cl 7.778574 4.644442 -23.228548
Cl 7.778574 1.548116 23.216342
Cl 10.874900 10.837094 17.023690
Cl 7.778574 7.740768 23.216342
Cl 7.778574 10.837094 20.120016
Cl 10.874900 7.740768 20.120016
Cl 10.874900 17.029746 10.831038
Cl 7.778574 13.933420 17.023690
Cl 10.874900 13.933420 13.927364
Cl 7.778574 23.222398 -4.650592
Cl 7.778574 23.222398 1.542060
Cl 7.778574 20.126072 10.831038
Cl 7.778574 23.222398 7.734712
Cl 10.874900 20.126072 7.734712
Cl 13.971226 -17.029840 -7.746918
Cl 13.971226 -13.933514 -10.843244
Cl 13.971226 -10.837188 -13.939570
Cl 13.971226 -7.740862 -17.035896
Cl 17.067552 -10.837188 -10.843244
Cl 17.067552 10.837094 10.831038
Cl 13.971226 7.740768 17.023690
Cl 13.971226 10.837094 13.927364
Cl 13.971226 13.933420 10.831038
Cl 13.971226 17.029746 7.734712
Cl 20.163878 -10.837188 -7.746918
Cl 20.163878 -7.740862 -10.843244
Cl 23.260204 -7.740862 -7.746918
Cl 23.260204 -7.740862 -1.554266
Cl 23.260204 -7.740862 4.638386
Cl 23.260204 -1.548210 -7.746918
Cl 23.260204 -1.548210 -1.554266
Cl 23.260204 -4.644536 -4.650592
Cl 23.260204 -1.548210 4.638386
Cl 23.260204 -4.644536 1.542060
Cl 23.260204 -4.644536 7.734712
Cl 23.260204 4.644442 -7.746918
Cl 23.260204 4.644442 -1.554266
Cl 23.260204 1.548116 -4.650592
Cl 23.260204 4.644442 4.638386
Cl 23.260204 1.548116 1.542060
Cl 23.260204 1.548116 7.734712
Cl 23.260204 7.740768 -4.650592
Cl 23.260204 7.740768 1.542060
Cl 20.163878 7.740768 10.831038
Cl 20.163878 10.837094 7.734712
Cl 23.260204 7.740768 7.734712
Cl -16.992034 -17.029840 4.638386
Cl -16.992034 -4.644536 17.023690
Cl -16.992034 4.644442 -17.035896
Cl -16.992034 17.029746 -4.650592
Cl -4.606730 -17.029840 17.023690
Cl -4.606730 17.029746 -17.035896
Cl -16.992034 -13.933514 -7.746918
Cl -16.992034 7.740768 13.927364
Cl 7.778574 -17.029840 13.927364
Cl 7.778574 13.933420 -17.035896
Cl -7.703056 -13.933514 -17.035896
Cl -7.703056 17.029746 13.927364
Cl 17.067552 -7.740862 13.927364
Cl 17.067552 13.933420 -7.746918
Cl -16.992034 -7.740862 -13.939570
Cl -16.992034 13.933420 7.734712
Cl 13.971226 -17.029840 7.734712
Cl 13.971226 7.740768 -17.035896
Cl -7.697771 -20.216543 -10.933622
Cl -7.697771 10.927472 20.210393
Cl 10.965277 -7.735577 20.210393
Cl 10.965277 20.216450 -7.741633
