88
InSb-In-In35Sb26Cl27-clean
In -3.222389 -3.222389 -0.094222
In -3.222389 -6.539000 3.222389
In -6.539000 -3.222389 3.222389
In -6.539000 -6.539000 6.539000
In -3.222389 -3.222389 6.539000
In -3.222389 3.410833 -6.727443
In -3.222389 0.094222 -3.410833
In -6.539000 3.410833 -3.410833
In -6.539000 0.094222 -0.094222
In -3.222389 3.410833 -0.094222
In -3.222389 0.094222 3.222389
In -6.539000 6.727443 -6.727443
In -3.222389 6.727443 -3.410833
In 3.410833 -3.222389 -6.727443
In 3.410833 -6.539000 -3.410833
In 0.094222 -3.222389 -3.410833
In 0.094222 -6.539000 -0.094222
In 3.410833 -3.222389 -0.094222
In 0.094222 -3.222389 3.222389
In 0.094222 0.094222 -6.727443
In 3.410833 0.094222 -3.410833
In 0.094222 3.410833 -3.410833
In 0.094222 0.094222 -0.094222
In 3.410833 3.410833 -0.094222
In 3.410833 0.094222 3.222389
In 0.094222 3.410833 3.222389
In 0.094222 0.094222 6.539000
In 3.410833 3.410833 6.539000
In 0.094222 6.727443 -0.094222
In 3.410833 6.727443 3.222389
In 6.727443 -6.539000 -6.727443
In 6.727443 -3.222389 -3.410833
In 6.727443 0.094222 -0.094222
In 6.727443 3.410833 3.222389
In 6.727443 6.727443 6.539000
Sb -1.564083 -1.564083 -5.069138
Sb -1.564083 -4.880694 -1.752527
Sb -4.880694 -4.880694 1.564083
Sb -4.880694 -1.564083 4.880694
Sb -1.564083 -1.564083 1.564083
Sb -1.564083 -4.880694 4.880694
Sb -4.880694 1.752527 -5.069138
Sb -4.880694 5.069138 -1.752527
Sb -1.564083 5.069138 -5.069138
Sb -1.564083 1.752527 -1.752527
Sb -4.880694 1.752527 1.564083
Sb -1.564083 5.069138 1.564083
Sb -1.564083 1.752527 4.880694
Sb 1.752527 -4.880694 -5.069138
Sb 1.752527 -1.564083 -1.752527
Sb 5.069138 -1.564083 -5.069138
Sb 5.069138 -4.880694 -1.752527
Sb 1.752527 -4.880694 1.564083
Sb 1.752527 -1.564083 4.880694
Sb 5.069138 -1.564083 1.564083
Sb 1.752527 1.752527 -5.069138
Sb 1.752527 5.069138 -1.752527
Sb 1.752527 1.752527 1.564083
Sb 1.752527 5.069138 4.880694
Sb 5.069138 5.069138 1.564083
Sb 5.069138 1.752527 4.880694
Cl -8.197305 -1.564083 1.564083
Cl -8.197305 -4.880694 4.880694
Cl -8.197305 5.069138 -5.069138
Cl -8.197305 1.752527 -1.752527
Cl -4.880694 -8.197305 4.880694
Cl -1.564083 -8.197305 1.564083
Cl -4.880694 -1.564083 -1.752527
Cl -4.880694 -4.880694 8.197305
Cl -1.564083 -1.564083 8.197305
Cl -4.880694 5.069138 -8.385749
Cl -1.564083 1.752527 -8.385749
Cl -4.880694 8.385749 -5.069138
Cl -1.564083 8.385749 -1.752527
Cl 1.752527 -8.197305 -1.752527
Cl 5.069138 -8.197305 -5.069138
Cl 1.752527 -1.564083 -8.385749
Cl 5.069138 -4.880694 -8.385749
Cl 5.069138 1.752527 -1.752527
Cl 1.752527 1.752527 8.197305
Cl 5.069138 5.069138 8.197305
Cl 1.752527 8.385749 1.564083
Cl 5.069138 8.385749 4.880694
Cl 8.385749 -4.880694 -5.069138
Cl 8.385749 -1.564083 -1.752527
Cl 8.385749 1.752527 1.564083
Cl 8.385749 5.069138 4.880694
Cl -8.197305 -8.197305 8.197305
