391
PbTe-Pb-Pb177Te140Cl74-clean
Pb -9.770863 -9.804325 -0.050193
Pb -9.770863 -3.262531 -6.591986
Pb -9.770863 -6.533428 -3.321090
Pb -13.041760 -3.262531 -3.321090
Pb -9.770863 -3.262531 -0.050193
Pb -9.770863 -6.533428 3.220704
Pb -13.041760 -3.262531 3.220704
Pb -9.770863 -3.262531 6.491601
Pb -9.770863 0.008365 -9.862883
Pb -9.770863 3.279262 -6.591986
Pb -13.041760 0.008365 -0.050193
Pb -9.770863 0.008365 -3.321090
Pb -13.041760 3.279262 -3.321090
Pb -9.770863 3.279262 -0.050193
Pb -9.770863 0.008365 3.220704
Pb -13.041760 3.279262 3.220704
Pb -9.770863 3.279262 6.491601
Pb -9.770863 0.008365 9.762498
Pb -9.770863 6.550159 -3.321090
Pb -9.770863 9.821056 -0.050193
Pb -9.770863 6.550159 3.220704
Pb -3.229069 -9.804325 -6.591986
Pb -3.229069 -13.075222 -3.321090
Pb -6.499966 -9.804325 -3.321090
Pb -3.229069 -9.804325 -0.050193
Pb -3.229069 -13.075222 3.220704
Pb -6.499966 -9.804325 3.220704
Pb -3.229069 -9.804325 6.491601
Pb -3.229069 -3.262531 -13.133780
Pb -6.499966 -6.533428 -6.591986
Pb -3.229069 -6.533428 -9.862883
Pb -6.499966 -3.262531 -9.862883
Pb -3.229069 -3.262531 -6.591986
Pb -6.499966 -6.533428 -0.050193
Pb -3.229069 -6.533428 -3.321090
Pb -6.499966 -3.262531 -3.321090
Pb -3.229069 -3.262531 -0.050193
Pb -6.499966 -6.533428 6.491601
Pb -3.229069 -6.533428 3.220704
Pb -6.499966 -3.262531 3.220704
Pb -3.229069 -3.262531 6.491601
Pb -3.229069 -6.533428 9.762498
Pb -6.499966 -3.262531 9.762498
Pb -3.229069 -3.262531 13.033394
Pb -3.229069 3.279262 -13.133780
Pb -6.499966 0.008365 -6.591986
Pb -3.229069 0.008365 -9.862883
Pb -6.499966 3.279262 -9.862883
Pb -3.229069 3.279262 -6.591986
Pb -6.499966 0.008365 -0.050193
Pb -3.229069 0.008365 -3.321090
Pb -6.499966 3.279262 -3.321090
Pb -3.229069 3.279262 -0.050193
Pb -6.499966 0.008365 6.491601
Pb -3.229069 0.008365 3.220704
Pb -6.499966 3.279262 3.220704
Pb -3.229069 3.279262 6.491601
Pb -3.229069 0.008365 9.762498
Pb -6.499966 3.279262 9.762498
Pb -3.229069 3.279262 13.033394
Pb -6.499966 6.550159 -6.591986
Pb -3.229069 6.550159 -9.862883
Pb -3.229069 9.821056 -6.591986
Pb -6.499966 6.550159 -0.050193
Pb -3.229069 6.550159 -3.321090
Pb -6.499966 9.821056 -3.321090
Pb -3.229069 9.821056 -0.050193
Pb -6.499966 6.550159 6.491601
Pb -3.229069 6.550159 3.220704
Pb -6.499966 9.821056 3.220704
Pb -3.229069 9.821056 6.491601
Pb -3.229069 6.550159 9.762498
Pb -3.229069 13.091953 -3.321090
Pb -3.229069 13.091953 3.220704
Pb 0.041827 -9.804325 -9.862883
Pb 3.312724 -9.804325 -6.591986
Pb 0.041827 -13.075222 -0.050193
Pb 3.312724 -13.075222 -3.321090
Pb 0.041827 -9.804325 -3.321090
Pb 3.312724 -9.804325 -0.050193
Pb 3.312724 -13.075222 3.220704
Pb 0.041827 -9.804325 3.220704
Pb 3.312724 -9.804325 6.491601
Pb 0.041827 -9.804325 9.762498
Pb 3.312724 -3.262531 -13.133780
Pb 0.041827 -6.533428 -6.591986
Pb 3.312724 -6.533428 -9.862883
Pb 0.041827 -3.262531 -9.862883
Pb 3.312724 -3.262531 -6.591986
Pb 0.041827 -6.533428 -0.050193
Pb 3.312724 -6.533428 -3.321090
Pb 0.041827 -3.262531 -3.321090
Pb 3.312724 -3.262531 -0.050193
Pb 0.041827 -6.533428 6.491601
Pb 3.312724 -6.533428 3.220704
Pb 0.041827 -3.262531 3.220704
Pb 3.312724 -3.262531 6.491601
Pb 3.312724 -6.533428 9.762498
Pb 0.041827 -3.262531 9.762498
Pb 3.312724 -3.262531 13.033394
Pb 0.041827 0.008365 -13.133780
Pb 3.312724 3.279262 -13.133780
Pb 0.041827 0.008365 -6.591986
Pb 3.312724 0.008365 -9.862883
Pb 0.041827 3.279262 -9.862883
Pb 3.312724 3.279262 -6.591986
Pb 0.041827 0.008365 -0.050193
Pb 3.312724 0.008365 -3.321090
Pb 0.041827 3.279262 -3.321090
Pb 3.312724 3.279262 -0.050193
Pb 0.041827 0.008365 6.491601
Pb 3.312724 0.008365 3.220704
Pb 0.041827 3.279262 3.220704
Pb 3.312724 3.279262 6.491601
Pb 0.041827 0.008365 13.033394
Pb 3.312724 0.008365 9.762498
Pb 0.041827 3.279262 9.762498
Pb 3.312724 3.279262 13.033394
Pb 0.041827 6.550159 -6.591986
Pb 3.312724 6.550159 -9.862883
Pb 0.041827 9.821056 -9.862883
Pb 3.312724 9.821056 -6.591986
Pb 0.041827 6.550159 -0.050193
Pb 3.312724 6.550159 -3.321090
Pb 0.041827 9.821056 -3.321090
Pb 3.312724 9.821056 -0.050193
Pb 0.041827 6.550159 6.491601
Pb 3.312724 6.550159 3.220704
Pb 0.041827 9.821056 3.220704
Pb 3.312724 9.821056 6.491601
Pb 3.312724 6.550159 9.762498
Pb 0.041827 9.821056 9.762498
Pb 0.041827 13.091953 -0.050193
Pb 3.312724 13.091953 -3.321090
Pb 3.312724 13.091953 3.220704
Pb 6.583621 -9.804325 -3.321090
Pb 9.854518 -9.804325 -0.050193
Pb 6.583621 -9.804325 3.220704
Pb 6.583621 -6.533428 -6.591986
Pb 6.583621 -3.262531 -9.862883
Pb 9.854518 -3.262531 -6.591986
Pb 6.583621 -6.533428 -0.050193
Pb 9.854518 -6.533428 -3.321090
Pb 6.583621 -3.262531 -3.321090
Pb 9.854518 -3.262531 -0.050193
Pb 6.583621 -6.533428 6.491601
Pb 9.854518 -6.533428 3.220704
Pb 6.583621 -3.262531 3.220704
Pb 9.854518 -3.262531 6.491601
Pb 6.583621 -3.262531 9.762498
Pb 6.583621 0.008365 -6.591986
Pb 9.854518 0.008365 -9.862883
Pb 6.583621 3.279262 -9.862883
Pb 9.854518 3.279262 -6.591986
Pb 6.583621 0.008365 -0.050193
Pb 9.854518 0.008365 -3.321090
Pb 6.583621 3.279262 -3.321090
Pb 9.854518 3.279262 -0.050193
Pb 6.583621 0.008365 6.491601
Pb 9.854518 0.008365 3.220704
Pb 6.583621 3.279262 3.220704
Pb 9.854518 3.279262 6.491601
Pb 9.854518 0.008365 9.762498
Pb 6.583621 3.279262 9.762498
Pb 6.583621 6.550159 -6.591986
Pb 6.583621 6.550159 -0.050193
Pb 9.854518 6.550159 -3.321090
Pb 6.583621 9.821056 -3.321090
Pb 9.854518 9.821056 -0.050193
Pb 6.583621 6.550159 6.491601
Pb 9.854518 6.550159 3.220704
Pb 6.583621 9.821056 3.220704
Pb 13.125415 -3.262531 -3.321090
Pb 13.125415 -3.262531 3.220704
Pb 13.125415 0.008365 -0.050193
Pb 13.125415 3.279262 -3.321090
Pb 13.125415 3.279262 3.220704
Te -9.770863 -3.262531 -3.321090
Te -9.770863 -6.533428 -0.050193
Te -13.041760 -3.262531 -0.050193
Te -9.770863 -3.262531 3.220704
Te -9.770863 0.008365 -6.591986
Te -13.041760 0.008365 -3.321090
Te -9.770863 3.279262 -3.321090
Te -9.770863 0.008365 -0.050193
Te -13.041760 3.279262 -0.050193
Te -13.041760 0.008365 3.220704
Te -9.770863 3.279262 3.220704
Te -9.770863 0.008365 6.491601
Te -9.770863 6.550159 -0.050193
Te -3.229069 -9.804325 -3.321090
Te -3.229069 -13.075222 -0.050193
Te -6.499966 -9.804325 -0.050193
Te -3.229069 -9.804325 3.220704
Te -3.229069 -3.262531 -9.862883
Te -3.229069 -6.533428 -6.591986
Te -6.499966 -3.262531 -6.591986
Te -6.499966 -6.533428 -3.321090
Te -3.229069 -3.262531 -3.321090
Te -3.229069 -6.533428 -0.050193
Te -6.499966 -3.262531 -0.050193
Te -6.499966 -6.533428 3.220704
Te -3.229069 -3.262531 3.220704
Te -3.229069 -6.533428 6.491601
Te -6.499966 -3.262531 6.491601
Te -3.229069 -3.262531 9.762498
Te -3.229069 0.008365 -13.133780
Te -6.499966 0.008365 -9.862883
Te -3.229069 3.279262 -9.862883
Te -3.229069 0.008365 -6.591986
Te -6.499966 3.279262 -6.591986
Te -6.499966 0.008365 -3.321090
Te -3.229069 3.279262 -3.321090
Te -3.229069 0.008365 -0.050193
Te -6.499966 3.279262 -0.050193
Te -6.499966 0.008365 3.220704
Te -3.229069 3.279262 3.220704
Te -3.229069 0.008365 6.491601
Te -6.499966 3.279262 6.491601
Te -6.499966 0.008365 9.762498
Te -3.229069 3.279262 9.762498
Te -3.229069 0.008365 13.033394
Te -3.229069 6.550159 -6.591986
Te -6.499966 6.550159 -3.321090
Te -3.229069 9.821056 -3.321090
Te -3.229069 6.550159 -0.050193
Te -6.499966 9.821056 -0.050193
Te -6.499966 6.550159 3.220704
Te -3.229069 9.821056 3.220704
Te -3.229069 6.550159 6.491601
Te -3.229069 13.091953 -0.050193
Te 0.041827 -9.804325 -6.591986
Te 0.041827 -13.075222 -3.321090
Te 3.312724 -9.804325 -3.321090
Te 3.312724 -13.075222 -0.050193
Te 0.041827 -9.804325 -0.050193
Te 0.041827 -13.075222 3.220704
Te 3.312724 -9.804325 3.220704
Te 0.041827 -9.804325 6.491601
Te 0.041827 -3.262531 -13.133780
Te 0.041827 -6.533428 -9.862883
Te 3.312724 -3.262531 -9.862883
Te 3.312724 -6.533428 -6.591986
Te 0.041827 -3.262531 -6.591986
Te 0.041827 -6.533428 -3.321090
Te 3.312724 -3.262531 -3.321090
Te 3.312724 -6.533428 -0.050193
Te 0.041827 -3.262531 -0.050193
Te 0.041827 -6.533428 3.220704
Te 3.312724 -3.262531 3.220704
Te 3.312724 -6.533428 6.491601
Te 0.041827 -3.262531 6.491601
Te 0.041827 -6.533428 9.762498
Te 3.312724 -3.262531 9.762498
Te 0.041827 -3.262531 13.033394
Te 3.312724 0.008365 -13.133780
Te 0.041827 3.279262 -13.133780
Te 0.041827 0.008365 -9.862883
Te 3.312724 3.279262 -9.862883
Te 3.312724 0.008365 -6.591986
Te 0.041827 3.279262 -6.591986
Te 0.041827 0.008365 -3.321090
Te 3.312724 3.279262 -3.321090
Te 3.312724 0.008365 -0.050193
Te 0.041827 3.279262 -0.050193
Te 0.041827 0.008365 3.220704
Te 3.312724 3.279262 3.220704
Te 3.312724 0.008365 6.491601
Te 0.041827 3.279262 6.491601
Te 0.041827 0.008365 9.762498
Te 3.312724 3.279262 9.762498
Te 3.312724 0.008365 13.033394
Te 0.041827 3.279262 13.033394
Te 0.041827 6.550159 -9.862883
Te 3.312724 6.550159 -6.591986
Te 0.041827 9.821056 -6.591986
Te 0.041827 6.550159 -3.321090
Te 3.312724 9.821056 -3.321090
Te 3.312724 6.550159 -0.050193
Te 0.041827 9.821056 -0.050193
Te 0.041827 6.550159 3.220704
Te 3.312724 9.821056 3.220704
Te 3.312724 6.550159 6.491601
Te 0.041827 9.821056 6.491601
Te 0.041827 6.550159 9.762498
Te 0.041827 13.091953 -3.321090
Te 3.312724 13.091953 -0.050193
Te 0.041827 13.091953 3.220704
Te 6.583621 -9.804325 -0.050193
Te 6.583621 -3.262531 -6.591986
Te 6.583621 -6.533428 -3.321090
Te 9.854518 -3.262531 -3.321090
Te 9.854518 -6.533428 -0.050193
Te 6.583621 -3.262531 -0.050193
Te 6.583621 -6.533428 3.220704
Te 9.854518 -3.262531 3.220704
Te 6.583621 -3.262531 6.491601
Te 6.583621 0.008365 -9.862883
Te 9.854518 0.008365 -6.591986
Te 6.583621 3.279262 -6.591986
Te 6.583621 0.008365 -3.321090
Te 9.854518 3.279262 -3.321090
Te 9.854518 0.008365 -0.050193
Te 6.583621 3.279262 -0.050193
Te 6.583621 0.008365 3.220704
Te 9.854518 3.279262 3.220704
Te 9.854518 0.008365 6.491601
Te 6.583621 3.279262 6.491601
Te 6.583621 0.008365 9.762498
Te 6.583621 6.550159 -3.321090
Te 9.854518 6.550159 -0.050193
Te 6.583621 9.821056 -0.050193
Te 6.583621 6.550159 3.220704
Te 13.125415 -3.262531 -0.050193
Te 13.125415 0.008365 -3.321090
Te 13.125415 3.279262 -0.050193
Te 13.125415 0.008365 3.220704
Cl -13.041760 -9.804325 -0.050193
Cl 13.125415 9.821056 -0.050193
Cl -9.770863 13.091953 -0.050193
Cl 9.854518 -13.075222 -0.050193
Cl -9.770863 0.008365 13.033394
Cl 0.041827 9.821056 -13.133780
Cl 0.041827 -9.804325 13.033394
Cl 9.854518 0.008365 -13.133780
Cl 0.041827 -9.804325 -13.133780
Cl 0.041827 9.821056 13.033394
Cl 9.854518 0.008365 13.033394
Cl -13.041760 0.008365 -9.862883
Cl -9.770863 -6.533428 6.491601
Cl -6.499966 6.550159 -9.862883
Cl -6.499966 9.821056 6.491601
Cl 6.583621 -9.804325 -6.591986
Cl 9.854518 6.550159 -6.591986
Cl 9.854518 -6.533428 6.491601
Cl 6.583621 9.821056 6.491601
Cl -6.499966 -9.804325 6.491601
Cl -9.770863 6.550159 -6.591986
Cl -9.770863 6.550159 6.491601
Cl 9.854518 -6.533428 -6.591986
Cl 6.583621 9.821056 -6.591986
Cl -6.499966 -9.804325 -6.591986
Cl 6.583621 -9.804325 6.491601
Cl 6.583621 6.550159 9.762498
Cl -6.499966 -6.533428 9.762498
Cl -6.499966 9.821056 -6.591986
Cl -6.499966 6.550159 9.762498
Cl 6.583621 -6.533428 -9.862883
Cl 6.583621 6.550159 -9.862883
Cl -6.499966 -6.533428 -9.862883
Cl 6.583621 -6.533428 9.762498
Cl 9.854518 6.550159 6.491601
Cl -9.770863 -6.533428 -6.591986
Cl -13.041760 -6.533428 3.220704
Cl -6.499966 3.279262 -13.133780
Cl -6.499966 13.091953 3.220704
Cl 6.583621 -13.075222 -3.321090
Cl 13.125415 6.550159 -3.321090
Cl 3.312724 -13.075222 6.491601
Cl 6.583621 3.279262 13.033394
Cl -13.041760 3.279262 -6.591986
Cl -13.041760 6.550159 3.220704
Cl -6.499966 -13.075222 3.220704
Cl 3.312724 -6.533428 -13.133780
Cl 6.583621 13.091953 -3.321090
Cl -6.499966 -3.262531 13.033394
Cl -3.229069 6.550159 13.033394
Cl -3.229069 13.091953 -6.591986
Cl 13.125415 -6.533428 -3.321090
Cl 6.583621 3.279262 -13.133780
Cl -3.229069 -13.075222 -6.591986
Cl 3.312724 -6.533428 13.033394
Cl 13.125415 3.279262 6.491601
Cl 3.312724 13.091953 6.491601
Cl 13.125415 -6.533428 3.220704
Cl -6.499966 -3.262531 -13.133780
Cl -13.041760 -6.533428 -3.321090
Cl 0.041827 13.091953 -9.862883
Cl -13.041760 0.008365 9.762498
Cl 13.125415 0.008365 -9.862883
Cl 9.854518 13.091953 -0.050193
Cl 13.125415 0.008365 9.762498
Cl -13.041760 9.821056 -0.050193
Cl 0.041827 13.091953 9.762498
Cl 0.041827 -13.075222 9.762498
Cl -9.770863 -13.075222 -0.050193
Cl -9.770863 0.008365 -13.133780
Cl 13.125415 -9.804325 -0.050193
Cl 0.041827 -13.075222 -9.862883
Cl -9.770863 -3.262531 9.762498
Cl -3.229069 9.821056 9.762498
