71
ZnS-S-Zn28S13Cl30-clean
Zn -3.888768 -3.964646 -1.422720
Zn -3.888768 -1.270963 -4.116403
Zn -3.888768 1.422720 -1.422720
Zn -3.888768 -1.270963 1.270963
Zn -3.888768 1.422720 3.964646
Zn -3.888768 4.116403 1.270963
Zn -1.195085 -3.964646 -4.116403
Zn 1.498598 -3.964646 -1.422720
Zn -1.195085 -3.964646 1.270963
Zn 1.498598 -3.964646 3.964646
Zn 1.498598 -1.270963 -4.116403
Zn -1.195085 1.422720 -4.116403
Zn -1.195085 -1.270963 -1.422720
Zn 1.498598 1.422720 -1.422720
Zn 1.498598 -1.270963 1.270963
Zn -1.195085 1.422720 1.270963
Zn -1.195085 -1.270963 3.964646
Zn 1.498598 1.422720 3.964646
Zn 1.498598 4.116403 -4.116403
Zn -1.195085 4.116403 -1.422720
Zn 1.498598 4.116403 1.270963
Zn -1.195085 4.116403 3.964646
Zn 4.192281 -3.964646 1.270963
Zn 4.192281 1.422720 -4.116403
Zn 4.192281 -1.270963 -1.422720
Zn 4.192281 1.422720 1.270963
Zn 4.192281 -1.270963 3.964646
Zn 4.192281 4.116403 -1.422720
S -2.541926 -2.617804 -0.075878
S -2.541926 0.075878 -2.769561
S -2.541926 2.769561 -0.075878
S -2.541926 0.075878 2.617804
S 0.151757 -2.617804 -2.769561
S 0.151757 -2.617804 2.617804
S 2.845440 -2.617804 -0.075878
S 0.151757 2.769561 -2.769561
S 2.845440 0.075878 -2.769561
S 0.151757 0.075878 -0.075878
S 0.151757 2.769561 2.617804
S 2.845440 2.769561 -0.075878
S 2.845440 0.075878 2.617804
Cl -5.235609 -2.617804 -2.769561
Cl -2.541926 -2.617804 -5.463244
Cl -2.541926 -5.311487 -2.769561
Cl -5.235609 0.075878 -0.075878
Cl -5.235609 2.769561 2.617804
Cl -2.541926 2.769561 5.311487
Cl -2.541926 5.463244 2.617804
Cl 0.151757 -5.311487 -0.075878
Cl 2.845440 -5.311487 2.617804
Cl 2.845440 -2.617804 5.311487
Cl 0.151757 0.075878 -5.463244
Cl 2.845440 2.769561 -5.463244
Cl 0.151757 0.075878 5.311487
Cl 2.845440 5.463244 -2.769561
Cl 0.151757 5.463244 -0.075878
Cl 5.539123 -2.617804 2.617804
Cl 5.539123 2.769561 -2.769561
Cl 5.539123 0.075878 -0.075878
Cl -2.541926 2.769561 -2.769561
Cl -2.541926 -2.617804 2.617804
Cl 2.845440 -2.617804 -2.769561
Cl 2.845440 2.769561 2.617804
Cl -5.235609 -5.311487 -0.075878
Cl -5.235609 0.075878 -5.463244
Cl 0.151757 -5.311487 -5.463244
Cl 0.151757 5.463244 5.311487
Cl -5.235609 0.075878 5.311487
Cl -5.235609 5.463244 -0.075878
Cl 5.539123 -5.311487 -0.075878
Cl 5.539123 0.075878 5.311487
