2081
HgTe-Hg-Hg1007Te940Cl134-clean
Hg -22.999851 -9.873115 -6.583130
Hg -22.999851 -9.873115 -0.003162
Hg -22.999851 -9.873115 6.576806
Hg -22.999851 -6.583130 -9.873115
Hg -22.999851 -3.293146 -6.583130
Hg -22.999851 -6.583130 -3.293146
Hg -22.999851 -3.293146 -0.003162
Hg -22.999851 -6.583130 3.286822
Hg -22.999851 -3.293146 6.576806
Hg -22.999851 -6.583130 9.866791
Hg -22.999851 -0.003162 -9.873115
Hg -22.999851 3.286822 -6.583130
Hg -22.999851 -0.003162 -3.293146
Hg -22.999851 3.286822 -0.003162
Hg -22.999851 -0.003162 3.286822
Hg -22.999851 3.286822 6.576806
Hg -22.999851 -0.003162 9.866791
Hg -22.999851 6.576806 -9.873115
Hg -22.999851 9.866791 -6.583130
Hg -22.999851 6.576806 -3.293146
Hg -22.999851 9.866791 -0.003162
Hg -22.999851 6.576806 3.286822
Hg -22.999851 9.866791 6.576806
Hg -22.999851 6.576806 9.866791
Hg -16.419883 -16.453083 -6.583130
Hg -16.419883 -16.453083 -0.003162
Hg -16.419883 -16.453083 6.576806
Hg -16.419883 -9.873115 -13.163099
Hg -16.419883 -13.163099 -9.873115
Hg -19.709867 -9.873115 -9.873115
Hg -19.709867 -13.163099 -6.583130
Hg -16.419883 -9.873115 -6.583130
Hg -16.419883 -13.163099 -3.293146
Hg -19.709867 -9.873115 -3.293146
Hg -19.709867 -13.163099 -0.003162
Hg -16.419883 -9.873115 -0.003162
Hg -16.419883 -13.163099 3.286822
Hg -19.709867 -9.873115 3.286822
Hg -19.709867 -13.163099 6.576806
Hg -16.419883 -9.873115 6.576806
Hg -16.419883 -13.163099 9.866791
Hg -19.709867 -9.873115 9.866791
Hg -16.419883 -9.873115 13.156775
Hg -16.419883 -6.583130 -16.453083
Hg -19.709867 -6.583130 -13.163099
Hg -16.419883 -3.293146 -13.163099
Hg -16.419883 -6.583130 -9.873115
Hg -19.709867 -3.293146 -9.873115
Hg -19.709867 -6.583130 -6.583130
Hg -16.419883 -3.293146 -6.583130
Hg -16.419883 -6.583130 -3.293146
Hg -19.709867 -3.293146 -3.293146
Hg -19.709867 -6.583130 -0.003162
Hg -16.419883 -3.293146 -0.003162
Hg -16.419883 -6.583130 3.286822
Hg -19.709867 -3.293146 3.286822
Hg -19.709867 -6.583130 6.576806
Hg -16.419883 -3.293146 6.576806
Hg -16.419883 -6.583130 9.866791
Hg -19.709867 -3.293146 9.866791
Hg -19.709867 -6.583130 13.156775
Hg -16.419883 -3.293146 13.156775
Hg -16.419883 -6.583130 16.446759
Hg -16.419883 -0.003162 -16.453083
Hg -19.709867 -0.003162 -13.163099
Hg -16.419883 3.286822 -13.163099
Hg -16.419883 -0.003162 -9.873115
Hg -19.709867 3.286822 -9.873115
Hg -19.709867 -0.003162 -6.583130
Hg -16.419883 3.286822 -6.583130
Hg -16.419883 -0.003162 -3.293146
Hg -19.709867 3.286822 -3.293146
Hg -19.709867 -0.003162 -0.003162
Hg -16.419883 3.286822 -0.003162
Hg -16.419883 -0.003162 3.286822
Hg -19.709867 3.286822 3.286822
Hg -19.709867 -0.003162 6.576806
Hg -16.419883 3.286822 6.576806
Hg -16.419883 -0.003162 9.866791
Hg -19.709867 3.286822 9.866791
Hg -19.709867 -0.003162 13.156775
Hg -16.419883 3.286822 13.156775
Hg -16.419883 -0.003162 16.446759
Hg -16.419883 6.576806 -16.453083
Hg -19.709867 6.576806 -13.163099
Hg -16.419883 9.866791 -13.163099
Hg -16.419883 6.576806 -9.873115
Hg -19.709867 9.866791 -9.873115
Hg -19.709867 6.576806 -6.583130
Hg -16.419883 9.866791 -6.583130
Hg -16.419883 6.576806 -3.293146
Hg -19.709867 9.866791 -3.293146
Hg -19.709867 6.576806 -0.003162
Hg -16.419883 9.866791 -0.003162
Hg -16.419883 6.576806 3.286822
Hg -19.709867 9.866791 3.286822
Hg -19.709867 6.576806 6.576806
Hg -16.419883 9.866791 6.576806
Hg -16.419883 6.576806 9.866791
Hg -19.709867 9.866791 9.866791
Hg -19.709867 6.576806 13.156775
Hg -16.419883 9.866791 13.156775
Hg -16.419883 6.576806 16.446759
Hg -16.419883 13.156775 -9.873115
Hg -19.709867 13.156775 -6.583130
Hg -16.419883 16.446759 -6.583130
Hg -16.419883 13.156775 -3.293146
Hg -19.709867 13.156775 -0.003162
Hg -16.419883 16.446759 -0.003162
Hg -16.419883 13.156775 3.286822
Hg -19.709867 13.156775 6.576806
Hg -16.419883 16.446759 6.576806
Hg -16.419883 13.156775 9.866791
Hg -9.839914 -23.033051 -6.583130
Hg -9.839914 -23.033051 -0.003162
Hg -9.839914 -23.033051 6.576806
Hg -9.839914 -16.453083 -13.163099
Hg -9.839914 -19.743067 -9.873115
Hg -13.129899 -16.453083 -9.873115
Hg -13.129899 -19.743067 -6.583130
Hg -9.839914 -16.453083 -6.583130
Hg -9.839914 -19.743067 -3.293146
Hg -13.129899 -16.453083 -3.293146
Hg -13.129899 -19.743067 -0.003162
Hg -9.839914 -16.453083 -0.003162
Hg -9.839914 -19.743067 3.286822
Hg -13.129899 -16.453083 3.286822
Hg -13.129899 -19.743067 6.576806
Hg -9.839914 -16.453083 6.576806
Hg -9.839914 -19.743067 9.866791
Hg -13.129899 -16.453083 9.866791
Hg -9.839914 -16.453083 13.156775
Hg -9.839914 -9.873115 -19.743067
Hg -9.839914 -13.163099 -16.453083
Hg -13.129899 -9.873115 -16.453083
Hg -13.129899 -13.163099 -13.163099
Hg -9.839914 -9.873115 -13.163099
Hg -9.839914 -13.163099 -9.873115
Hg -13.129899 -9.873115 -9.873115
Hg -13.129899 -13.163099 -6.583130
Hg -9.839914 -9.873115 -6.583130
Hg -9.839914 -13.163099 -3.293146
Hg -13.129899 -9.873115 -3.293146
Hg -13.129899 -13.163099 -0.003162
Hg -9.839914 -9.873115 -0.003162
Hg -9.839914 -13.163099 3.286822
Hg -13.129899 -9.873115 3.286822
Hg -13.129899 -13.163099 6.576806
Hg -9.839914 -9.873115 6.576806
Hg -9.839914 -13.163099 9.866791
Hg -13.129899 -9.873115 9.866791
Hg -13.129899 -13.163099 13.156775
Hg -9.839914 -9.873115 13.156775
Hg -9.839914 -13.163099 16.446759
Hg -13.129899 -9.873115 16.446759
Hg -9.839914 -9.873115 19.736743
Hg -9.839914 -6.583130 -23.033051
Hg -13.129899 -6.583130 -19.743067
Hg -9.839914 -3.293146 -19.743067
Hg -9.839914 -6.583130 -16.453083
Hg -13.129899 -3.293146 -16.453083
Hg -13.129899 -6.583130 -13.163099
Hg -9.839914 -3.293146 -13.163099
Hg -9.839914 -6.583130 -9.873115
Hg -13.129899 -3.293146 -9.873115
Hg -13.129899 -6.583130 -6.583130
Hg -9.839914 -3.293146 -6.583130
Hg -9.839914 -6.583130 -3.293146
Hg -13.129899 -3.293146 -3.293146
Hg -13.129899 -6.583130 -0.003162
Hg -9.839914 -3.293146 -0.003162
Hg -9.839914 -6.583130 3.286822
Hg -13.129899 -3.293146 3.286822
Hg -13.129899 -6.583130 6.576806
Hg -9.839914 -3.293146 6.576806
Hg -9.839914 -6.583130 9.866791
Hg -13.129899 -3.293146 9.866791
Hg -13.129899 -6.583130 13.156775
Hg -9.839914 -3.293146 13.156775
Hg -9.839914 -6.583130 16.446759
Hg -13.129899 -3.293146 16.446759
Hg -13.129899 -6.583130 19.736743
Hg -9.839914 -3.293146 19.736743
Hg -9.839914 -6.583130 23.026728
Hg -9.839914 -0.003162 -23.033051
Hg -13.129899 -0.003162 -19.743067
Hg -9.839914 3.286822 -19.743067
Hg -9.839914 -0.003162 -16.453083
Hg -13.129899 3.286822 -16.453083
Hg -13.129899 -0.003162 -13.163099
Hg -9.839914 3.286822 -13.163099
Hg -9.839914 -0.003162 -9.873115
Hg -13.129899 3.286822 -9.873115
Hg -13.129899 -0.003162 -6.583130
Hg -9.839914 3.286822 -6.583130
Hg -9.839914 -0.003162 -3.293146
Hg -13.129899 3.286822 -3.293146
Hg -13.129899 -0.003162 -0.003162
Hg -9.839914 3.286822 -0.003162
Hg -9.839914 -0.003162 3.286822
Hg -13.129899 3.286822 3.286822
Hg -13.129899 -0.003162 6.576806
Hg -9.839914 3.286822 6.576806
Hg -9.839914 -0.003162 9.866791
Hg -13.129899 3.286822 9.866791
Hg -13.129899 -0.003162 13.156775
Hg -9.839914 3.286822 13.156775
Hg -9.839914 -0.003162 16.446759
Hg -13.129899 3.286822 16.446759
Hg -13.129899 -0.003162 19.736743
Hg -9.839914 3.286822 19.736743
Hg -9.839914 -0.003162 23.026728
Hg -9.839914 6.576806 -23.033051
Hg -13.129899 6.576806 -19.743067
Hg -9.839914 9.866791 -19.743067
Hg -9.839914 6.576806 -16.453083
Hg -13.129899 9.866791 -16.453083
Hg -13.129899 6.576806 -13.163099
Hg -9.839914 9.866791 -13.163099
Hg -9.839914 6.576806 -9.873115
Hg -13.129899 9.866791 -9.873115
Hg -13.129899 6.576806 -6.583130
Hg -9.839914 9.866791 -6.583130
Hg -9.839914 6.576806 -3.293146
Hg -13.129899 9.866791 -3.293146
Hg -13.129899 6.576806 -0.003162
Hg -9.839914 9.866791 -0.003162
Hg -9.839914 6.576806 3.286822
Hg -13.129899 9.866791 3.286822
Hg -13.129899 6.576806 6.576806
Hg -9.839914 9.866791 6.576806
Hg -9.839914 6.576806 9.866791
Hg -13.129899 9.866791 9.866791
Hg -13.129899 6.576806 13.156775
Hg -9.839914 9.866791 13.156775
Hg -9.839914 6.576806 16.446759
Hg -13.129899 9.866791 16.446759
Hg -13.129899 6.576806 19.736743
Hg -9.839914 9.866791 19.736743
Hg -9.839914 6.576806 23.026728
Hg -9.839914 13.156775 -16.453083
Hg -13.129899 13.156775 -13.163099
Hg -9.839914 16.446759 -13.163099
Hg -9.839914 13.156775 -9.873115
Hg -13.129899 16.446759 -9.873115
Hg -13.129899 13.156775 -6.583130
Hg -9.839914 16.446759 -6.583130
Hg -9.839914 13.156775 -3.293146
Hg -13.129899 16.446759 -3.293146
Hg -13.129899 13.156775 -0.003162
Hg -9.839914 16.446759 -0.003162
Hg -9.839914 13.156775 3.286822
Hg -13.129899 16.446759 3.286822
Hg -13.129899 13.156775 6.576806
Hg -9.839914 16.446759 6.576806
Hg -9.839914 13.156775 9.866791
Hg -13.129899 16.446759 9.866791
Hg -13.129899 13.156775 13.156775
Hg -9.839914 16.446759 13.156775
Hg -9.839914 13.156775 16.446759
Hg -9.839914 19.736743 -9.873115
Hg -13.129899 19.736743 -6.583130
Hg -9.839914 23.026728 -6.583130
Hg -9.839914 19.736743 -3.293146
Hg -13.129899 19.736743 -0.003162
Hg -9.839914 23.026728 -0.003162
Hg -9.839914 19.736743 3.286822
Hg -13.129899 19.736743 6.576806
Hg -9.839914 23.026728 6.576806
Hg -9.839914 19.736743 9.866791
Hg -6.549930 -23.033051 -9.873115
Hg -3.259946 -23.033051 -6.583130
Hg -6.549930 -23.033051 -3.293146
Hg -3.259946 -23.033051 -0.003162
Hg -6.549930 -23.033051 3.286822
Hg -3.259946 -23.033051 6.576806
Hg -6.549930 -23.033051 9.866791
Hg -6.549930 -16.453083 -16.453083
Hg -6.549930 -19.743067 -13.163099
Hg -3.259946 -16.453083 -13.163099
Hg -3.259946 -19.743067 -9.873115
Hg -6.549930 -16.453083 -9.873115
Hg -6.549930 -19.743067 -6.583130
Hg -3.259946 -16.453083 -6.583130
Hg -3.259946 -19.743067 -3.293146
Hg -6.549930 -16.453083 -3.293146
Hg -6.549930 -19.743067 -0.003162
Hg -3.259946 -16.453083 -0.003162
Hg -3.259946 -19.743067 3.286822
Hg -6.549930 -16.453083 3.286822
Hg -6.549930 -19.743067 6.576806
Hg -3.259946 -16.453083 6.576806
Hg -3.259946 -19.743067 9.866791
Hg -6.549930 -16.453083 9.866791
Hg -6.549930 -19.743067 13.156775
Hg -3.259946 -16.453083 13.156775
Hg -6.549930 -16.453083 16.446759
Hg -6.549930 -9.873115 -23.033051
Hg -6.549930 -13.163099 -19.743067
Hg -3.259946 -9.873115 -19.743067
Hg -3.259946 -13.163099 -16.453083
Hg -6.549930 -9.873115 -16.453083
Hg -6.549930 -13.163099 -13.163099
Hg -3.259946 -9.873115 -13.163099
Hg -3.259946 -13.163099 -9.873115
Hg -6.549930 -9.873115 -9.873115
Hg -6.549930 -13.163099 -6.583130
Hg -3.259946 -9.873115 -6.583130
Hg -3.259946 -13.163099 -3.293146
Hg -6.549930 -9.873115 -3.293146
Hg -6.549930 -13.163099 -0.003162
Hg -3.259946 -9.873115 -0.003162
Hg -3.259946 -13.163099 3.286822
Hg -6.549930 -9.873115 3.286822
Hg -6.549930 -13.163099 6.576806
Hg -3.259946 -9.873115 6.576806
Hg -3.259946 -13.163099 9.866791
Hg -6.549930 -9.873115 9.866791
Hg -6.549930 -13.163099 13.156775
Hg -3.259946 -9.873115 13.156775
Hg -3.259946 -13.163099 16.446759
Hg -6.549930 -9.873115 16.446759
Hg -6.549930 -13.163099 19.736743
Hg -3.259946 -9.873115 19.736743
Hg -6.549930 -9.873115 23.026728
Hg -3.259946 -6.583130 -23.033051
Hg -6.549930 -3.293146 -23.033051
Hg -6.549930 -6.583130 -19.743067
Hg -3.259946 -3.293146 -19.743067
Hg -3.259946 -6.583130 -16.453083
Hg -6.549930 -3.293146 -16.453083
Hg -6.549930 -6.583130 -13.163099
Hg -3.259946 -3.293146 -13.163099
Hg -3.259946 -6.583130 -9.873115
Hg -6.549930 -3.293146 -9.873115
Hg -6.549930 -6.583130 -6.583130
Hg -3.259946 -3.293146 -6.583130
Hg -3.259946 -6.583130 -3.293146
Hg -6.549930 -3.293146 -3.293146
Hg -6.549930 -6.583130 -0.003162
Hg -3.259946 -3.293146 -0.003162
Hg -3.259946 -6.583130 3.286822
Hg -6.549930 -3.293146 3.286822
Hg -6.549930 -6.583130 6.576806
Hg -3.259946 -3.293146 6.576806
Hg -3.259946 -6.583130 9.866791
Hg -6.549930 -3.293146 9.866791
Hg -6.549930 -6.583130 13.156775
Hg -3.259946 -3.293146 13.156775
Hg -3.259946 -6.583130 16.446759
Hg -6.549930 -3.293146 16.446759
Hg -6.549930 -6.583130 19.736743
Hg -3.259946 -3.293146 19.736743
Hg -3.259946 -6.583130 23.026728
Hg -6.549930 -3.293146 23.026728
Hg -3.259946 -0.003162 -23.033051
Hg -6.549930 3.286822 -23.033051
Hg -6.549930 -0.003162 -19.743067
Hg -3.259946 3.286822 -19.743067
Hg -3.259946 -0.003162 -16.453083
Hg -6.549930 3.286822 -16.453083
Hg -6.549930 -0.003162 -13.163099
Hg -3.259946 3.286822 -13.163099
Hg -3.259946 -0.003162 -9.873115
Hg -6.549930 3.286822 -9.873115
Hg -6.549930 -0.003162 -6.583130
Hg -3.259946 3.286822 -6.583130
Hg -3.259946 -0.003162 -3.293146
Hg -6.549930 3.286822 -3.293146
Hg -6.549930 -0.003162 -0.003162
Hg -3.259946 3.286822 -0.003162
Hg -3.259946 -0.003162 3.286822
Hg -6.549930 3.286822 3.286822
Hg -6.549930 -0.003162 6.576806
Hg -3.259946 3.286822 6.576806
Hg -3.259946 -0.003162 9.866791
Hg -6.549930 3.286822 9.866791
Hg -6.549930 -0.003162 13.156775
Hg -3.259946 3.286822 13.156775
Hg -3.259946 -0.003162 16.446759
Hg -6.549930 3.286822 16.446759
Hg -6.549930 -0.003162 19.736743
Hg -3.259946 3.286822 19.736743
Hg -3.259946 -0.003162 23.026728
Hg -6.549930 3.286822 23.026728
Hg -3.259946 6.576806 -23.033051
Hg -6.549930 9.866791 -23.033051
Hg -6.549930 6.576806 -19.743067
Hg -3.259946 9.866791 -19.743067
Hg -3.259946 6.576806 -16.453083
Hg -6.549930 9.866791 -16.453083
Hg -6.549930 6.576806 -13.163099
Hg -3.259946 9.866791 -13.163099
Hg -3.259946 6.576806 -9.873115
Hg -6.549930 9.866791 -9.873115
Hg -6.549930 6.576806 -6.583130
Hg -3.259946 9.866791 -6.583130
Hg -3.259946 6.576806 -3.293146
Hg -6.549930 9.866791 -3.293146
Hg -6.549930 6.576806 -0.003162
Hg -3.259946 9.866791 -0.003162
Hg -3.259946 6.576806 3.286822
Hg -6.549930 9.866791 3.286822
Hg -6.549930 6.576806 6.576806
Hg -3.259946 9.866791 6.576806
Hg -3.259946 6.576806 9.866791
Hg -6.549930 9.866791 9.866791
Hg -6.549930 6.576806 13.156775
Hg -3.259946 9.866791 13.156775
Hg -3.259946 6.576806 16.446759
Hg -6.549930 9.866791 16.446759
Hg -6.549930 6.576806 19.736743
Hg -3.259946 9.866791 19.736743
Hg -3.259946 6.576806 23.026728
Hg -6.549930 9.866791 23.026728
Hg -6.549930 13.156775 -19.743067
Hg -3.259946 13.156775 -16.453083
Hg -6.549930 16.446759 -16.453083
Hg -6.549930 13.156775 -13.163099
Hg -3.259946 16.446759 -13.163099
Hg -3.259946 13.156775 -9.873115
Hg -6.549930 16.446759 -9.873115
Hg -6.549930 13.156775 -6.583130
Hg -3.259946 16.446759 -6.583130
Hg -3.259946 13.156775 -3.293146
Hg -6.549930 16.446759 -3.293146
Hg -6.549930 13.156775 -0.003162
Hg -3.259946 16.446759 -0.003162
Hg -3.259946 13.156775 3.286822
Hg -6.549930 16.446759 3.286822
Hg -6.549930 13.156775 6.576806
Hg -3.259946 16.446759 6.576806
Hg -3.259946 13.156775 9.866791
Hg -6.549930 16.446759 9.866791
Hg -6.549930 13.156775 13.156775
Hg -3.259946 16.446759 13.156775
Hg -3.259946 13.156775 16.446759
Hg -6.549930 16.446759 16.446759
Hg -6.549930 13.156775 19.736743
Hg -6.549930 19.736743 -13.163099
Hg -3.259946 19.736743 -9.873115
Hg -6.549930 23.026728 -9.873115
Hg -6.549930 19.736743 -6.583130
Hg -3.259946 23.026728 -6.583130
Hg -3.259946 19.736743 -3.293146
Hg -6.549930 23.026728 -3.293146
Hg -6.549930 19.736743 -0.003162
Hg -3.259946 23.026728 -0.003162
Hg -3.259946 19.736743 3.286822
Hg -6.549930 23.026728 3.286822
Hg -6.549930 19.736743 6.576806
Hg -3.259946 23.026728 6.576806
Hg -3.259946 19.736743 9.866791
Hg -6.549930 23.026728 9.866791
Hg -6.549930 19.736743 13.156775
Hg 0.030038 -23.033051 -9.873115
Hg 3.320023 -23.033051 -6.583130
Hg 0.030038 -23.033051 -3.293146
Hg 3.320023 -23.033051 -0.003162
Hg 0.030038 -23.033051 3.286822
Hg 3.320023 -23.033051 6.576806
Hg 0.030038 -23.033051 9.866791
Hg 0.030038 -16.453083 -16.453083
Hg 0.030038 -19.743067 -13.163099
Hg 3.320023 -16.453083 -13.163099
Hg 3.320023 -19.743067 -9.873115
Hg 0.030038 -16.453083 -9.873115
Hg 0.030038 -19.743067 -6.583130
Hg 3.320023 -16.453083 -6.583130
Hg 3.320023 -19.743067 -3.293146
Hg 0.030038 -16.453083 -3.293146
Hg 0.030038 -19.743067 -0.003162
Hg 3.320023 -16.453083 -0.003162
Hg 3.320023 -19.743067 3.286822
Hg 0.030038 -16.453083 3.286822
Hg 0.030038 -19.743067 6.576806
Hg 3.320023 -16.453083 6.576806
Hg 3.320023 -19.743067 9.866791
Hg 0.030038 -16.453083 9.866791
Hg 0.030038 -19.743067 13.156775
Hg 3.320023 -16.453083 13.156775
Hg 0.030038 -16.453083 16.446759
Hg 0.030038 -9.873115 -23.033051
Hg 0.030038 -13.163099 -19.743067
Hg 3.320023 -9.873115 -19.743067
Hg 3.320023 -13.163099 -16.453083
Hg 0.030038 -9.873115 -16.453083
Hg 0.030038 -13.163099 -13.163099
Hg 3.320023 -9.873115 -13.163099
Hg 3.320023 -13.163099 -9.873115
Hg 0.030038 -9.873115 -9.873115
Hg 0.030038 -13.163099 -6.583130
Hg 3.320023 -9.873115 -6.583130
Hg 3.320023 -13.163099 -3.293146
Hg 0.030038 -9.873115 -3.293146
Hg 0.030038 -13.163099 -0.003162
Hg 3.320023 -9.873115 -0.003162
Hg 3.320023 -13.163099 3.286822
Hg 0.030038 -9.873115 3.286822
Hg 0.030038 -13.163099 6.576806
Hg 3.320023 -9.873115 6.576806
Hg 3.320023 -13.163099 9.866791
Hg 0.030038 -9.873115 9.866791
Hg 0.030038 -13.163099 13.156775
Hg 3.320023 -9.873115 13.156775
Hg 3.320023 -13.163099 16.446759
Hg 0.030038 -9.873115 16.446759
Hg 0.030038 -13.163099 19.736743
Hg 3.320023 -9.873115 19.736743
Hg 0.030038 -9.873115 23.026728
Hg 3.320023 -6.583130 -23.033051
Hg 0.030038 -3.293146 -23.033051
Hg 0.030038 -6.583130 -19.743067
Hg 3.320023 -3.293146 -19.743067
Hg 3.320023 -6.583130 -16.453083
Hg 0.030038 -3.293146 -16.453083
Hg 0.030038 -6.583130 -13.163099
Hg 3.320023 -3.293146 -13.163099
Hg 3.320023 -6.583130 -9.873115
Hg 0.030038 -3.293146 -9.873115
Hg 0.030038 -6.583130 -6.583130
Hg 3.320023 -3.293146 -6.583130
Hg 3.320023 -6.583130 -3.293146
Hg 0.030038 -3.293146 -3.293146
Hg 0.030038 -6.583130 -0.003162
Hg 3.320023 -3.293146 -0.003162
Hg 3.320023 -6.583130 3.286822
Hg 0.030038 -3.293146 3.286822
Hg 0.030038 -6.583130 6.576806
Hg 3.320023 -3.293146 6.576806
Hg 3.320023 -6.583130 9.866791
Hg 0.030038 -3.293146 9.866791
Hg 0.030038 -6.583130 13.156775
Hg 3.320023 -3.293146 13.156775
Hg 3.320023 -6.583130 16.446759
Hg 0.030038 -3.293146 16.446759
Hg 0.030038 -6.583130 19.736743
Hg 3.320023 -3.293146 19.736743
Hg 3.320023 -6.583130 23.026728
Hg 0.030038 -3.293146 23.026728
Hg 3.320023 -0.003162 -23.033051
Hg 0.030038 3.286822 -23.033051
Hg 0.030038 -0.003162 -19.743067
Hg 3.320023 3.286822 -19.743067
Hg 3.320023 -0.003162 -16.453083
Hg 0.030038 3.286822 -16.453083
Hg 0.030038 -0.003162 -13.163099
Hg 3.320023 3.286822 -13.163099
Hg 3.320023 -0.003162 -9.873115
Hg 0.030038 3.286822 -9.873115
Hg 0.030038 -0.003162 -6.583130
Hg 3.320023 3.286822 -6.583130
Hg 3.320023 -0.003162 -3.293146
Hg 0.030038 3.286822 -3.293146
Hg 0.030038 -0.003162 -0.003162
Hg 3.320023 3.286822 -0.003162
Hg 3.320023 -0.003162 3.286822
Hg 0.030038 3.286822 3.286822
Hg 0.030038 -0.003162 6.576806
Hg 3.320023 3.286822 6.576806
Hg 3.320023 -0.003162 9.866791
Hg 0.030038 3.286822 9.866791
Hg 0.030038 -0.003162 13.156775
Hg 3.320023 3.286822 13.156775
Hg 3.320023 -0.003162 16.446759
Hg 0.030038 3.286822 16.446759
Hg 0.030038 -0.003162 19.736743
Hg 3.320023 3.286822 19.736743
Hg 3.320023 -0.003162 23.026728
Hg 0.030038 3.286822 23.026728
Hg 3.320023 6.576806 -23.033051
Hg 0.030038 9.866791 -23.033051
Hg 0.030038 6.576806 -19.743067
Hg 3.320023 9.866791 -19.743067
Hg 3.320023 6.576806 -16.453083
Hg 0.030038 9.866791 -16.453083
Hg 0.030038 6.576806 -13.163099
Hg 3.320023 9.866791 -13.163099
Hg 3.320023 6.576806 -9.873115
Hg 0.030038 9.866791 -9.873115
Hg 0.030038 6.576806 -6.583130
Hg 3.320023 9.866791 -6.583130
Hg 3.320023 6.576806 -3.293146
Hg 0.030038 9.866791 -3.293146
Hg 0.030038 6.576806 -0.003162
Hg 3.320023 9.866791 -0.003162
Hg 3.320023 6.576806 3.286822
Hg 0.030038 9.866791 3.286822
Hg 0.030038 6.576806 6.576806
Hg 3.320023 9.866791 6.576806
Hg 3.320023 6.576806 9.866791
Hg 0.030038 9.866791 9.866791
Hg 0.030038 6.576806 13.156775
Hg 3.320023 9.866791 13.156775
Hg 3.320023 6.576806 16.446759
Hg 0.030038 9.866791 16.446759
Hg 0.030038 6.576806 19.736743
Hg 3.320023 9.866791 19.736743
Hg 3.320023 6.576806 23.026728
Hg 0.030038 9.866791 23.026728
Hg 0.030038 13.156775 -19.743067
Hg 3.320023 13.156775 -16.453083
Hg 0.030038 16.446759 -16.453083
Hg 0.030038 13.156775 -13.163099
Hg 3.320023 16.446759 -13.163099
Hg 3.320023 13.156775 -9.873115
Hg 0.030038 16.446759 -9.873115
Hg 0.030038 13.156775 -6.583130
Hg 3.320023 16.446759 -6.583130
Hg 3.320023 13.156775 -3.293146
Hg 0.030038 16.446759 -3.293146
Hg 0.030038 13.156775 -0.003162
Hg 3.320023 16.446759 -0.003162
Hg 3.320023 13.156775 3.286822
Hg 0.030038 16.446759 3.286822
Hg 0.030038 13.156775 6.576806
Hg 3.320023 16.446759 6.576806
Hg 3.320023 13.156775 9.866791
Hg 0.030038 16.446759 9.866791
Hg 0.030038 13.156775 13.156775
Hg 3.320023 16.446759 13.156775
Hg 3.320023 13.156775 16.446759
Hg 0.030038 16.446759 16.446759
Hg 0.030038 13.156775 19.736743
Hg 0.030038 19.736743 -13.163099
Hg 3.320023 19.736743 -9.873115
Hg 0.030038 23.026728 -9.873115
Hg 0.030038 19.736743 -6.583130
Hg 3.320023 23.026728 -6.583130
Hg 3.320023 19.736743 -3.293146
Hg 0.030038 23.026728 -3.293146
Hg 0.030038 19.736743 -0.003162
Hg 3.320023 23.026728 -0.003162
Hg 3.320023 19.736743 3.286822
Hg 0.030038 23.026728 3.286822
Hg 0.030038 19.736743 6.576806
Hg 3.320023 23.026728 6.576806
Hg 3.320023 19.736743 9.866791
Hg 0.030038 23.026728 9.866791
Hg 0.030038 19.736743 13.156775
Hg 6.610007 -23.033051 -9.873115
Hg 9.899991 -23.033051 -6.583130
Hg 6.610007 -23.033051 -3.293146
Hg 9.899991 -23.033051 -0.003162
Hg 6.610007 -23.033051 3.286822
Hg 9.899991 -23.033051 6.576806
Hg 6.610007 -23.033051 9.866791
Hg 6.610007 -16.453083 -16.453083
Hg 6.610007 -19.743067 -13.163099
Hg 9.899991 -16.453083 -13.163099
Hg 9.899991 -19.743067 -9.873115
Hg 6.610007 -16.453083 -9.873115
Hg 6.610007 -19.743067 -6.583130
Hg 9.899991 -16.453083 -6.583130
Hg 9.899991 -19.743067 -3.293146
Hg 6.610007 -16.453083 -3.293146
Hg 6.610007 -19.743067 -0.003162
Hg 9.899991 -16.453083 -0.003162
Hg 9.899991 -19.743067 3.286822
Hg 6.610007 -16.453083 3.286822
Hg 6.610007 -19.743067 6.576806
Hg 9.899991 -16.453083 6.576806
Hg 9.899991 -19.743067 9.866791
Hg 6.610007 -16.453083 9.866791
Hg 6.610007 -19.743067 13.156775
Hg 9.899991 -16.453083 13.156775
Hg 6.610007 -16.453083 16.446759
Hg 6.610007 -9.873115 -23.033051
Hg 6.610007 -13.163099 -19.743067
Hg 9.899991 -9.873115 -19.743067
Hg 9.899991 -13.163099 -16.453083
Hg 6.610007 -9.873115 -16.453083
Hg 6.610007 -13.163099 -13.163099
Hg 9.899991 -9.873115 -13.163099
Hg 9.899991 -13.163099 -9.873115
Hg 6.610007 -9.873115 -9.873115
Hg 6.610007 -13.163099 -6.583130
Hg 9.899991 -9.873115 -6.583130
Hg 9.899991 -13.163099 -3.293146
Hg 6.610007 -9.873115 -3.293146
Hg 6.610007 -13.163099 -0.003162
Hg 9.899991 -9.873115 -0.003162
Hg 9.899991 -13.163099 3.286822
Hg 6.610007 -9.873115 3.286822
Hg 6.610007 -13.163099 6.576806
Hg 9.899991 -9.873115 6.576806
Hg 9.899991 -13.163099 9.866791
Hg 6.610007 -9.873115 9.866791
Hg 6.610007 -13.163099 13.156775
Hg 9.899991 -9.873115 13.156775
Hg 9.899991 -13.163099 16.446759
Hg 6.610007 -9.873115 16.446759
Hg 6.610007 -13.163099 19.736743
Hg 9.899991 -9.873115 19.736743
Hg 6.610007 -9.873115 23.026728
Hg 9.899991 -6.583130 -23.033051
Hg 6.610007 -3.293146 -23.033051
Hg 6.610007 -6.583130 -19.743067
Hg 9.899991 -3.293146 -19.743067
Hg 9.899991 -6.583130 -16.453083
Hg 6.610007 -3.293146 -16.453083
Hg 6.610007 -6.583130 -13.163099
Hg 9.899991 -3.293146 -13.163099
Hg 9.899991 -6.583130 -9.873115
Hg 6.610007 -3.293146 -9.873115
Hg 6.610007 -6.583130 -6.583130
Hg 9.899991 -3.293146 -6.583130
Hg 9.899991 -6.583130 -3.293146
Hg 6.610007 -3.293146 -3.293146
Hg 6.610007 -6.583130 -0.003162
Hg 9.899991 -3.293146 -0.003162
Hg 9.899991 -6.583130 3.286822
Hg 6.610007 -3.293146 3.286822
Hg 6.610007 -6.583130 6.576806
Hg 9.899991 -3.293146 6.576806
Hg 9.899991 -6.583130 9.866791
Hg 6.610007 -3.293146 9.866791
Hg 6.610007 -6.583130 13.156775
Hg 9.899991 -3.293146 13.156775
Hg 9.899991 -6.583130 16.446759
Hg 6.610007 -3.293146 16.446759
Hg 6.610007 -6.583130 19.736743
Hg 9.899991 -3.293146 19.736743
Hg 9.899991 -6.583130 23.026728
Hg 6.610007 -3.293146 23.026728
Hg 9.899991 -0.003162 -23.033051
Hg 6.610007 3.286822 -23.033051
Hg 6.610007 -0.003162 -19.743067
Hg 9.899991 3.286822 -19.743067
Hg 9.899991 -0.003162 -16.453083
Hg 6.610007 3.286822 -16.453083
Hg 6.610007 -0.003162 -13.163099
Hg 9.899991 3.286822 -13.163099
Hg 9.899991 -0.003162 -9.873115
Hg 6.610007 3.286822 -9.873115
Hg 6.610007 -0.003162 -6.583130
Hg 9.899991 3.286822 -6.583130
Hg 9.899991 -0.003162 -3.293146
Hg 6.610007 3.286822 -3.293146
Hg 6.610007 -0.003162 -0.003162
Hg 9.899991 3.286822 -0.003162
Hg 9.899991 -0.003162 3.286822
Hg 6.610007 3.286822 3.286822
Hg 6.610007 -0.003162 6.576806
Hg 9.899991 3.286822 6.576806
Hg 9.899991 -0.003162 9.866791
Hg 6.610007 3.286822 9.866791
Hg 6.610007 -0.003162 13.156775
Hg 9.899991 3.286822 13.156775
Hg 9.899991 -0.003162 16.446759
Hg 6.610007 3.286822 16.446759
Hg 6.610007 -0.003162 19.736743
Hg 9.899991 3.286822 19.736743
Hg 9.899991 -0.003162 23.026728
Hg 6.610007 3.286822 23.026728
Hg 9.899991 6.576806 -23.033051
Hg 6.610007 9.866791 -23.033051
Hg 6.610007 6.576806 -19.743067
Hg 9.899991 9.866791 -19.743067
Hg 9.899991 6.576806 -16.453083
Hg 6.610007 9.866791 -16.453083
Hg 6.610007 6.576806 -13.163099
Hg 9.899991 9.866791 -13.163099
Hg 9.899991 6.576806 -9.873115
Hg 6.610007 9.866791 -9.873115
Hg 6.610007 6.576806 -6.583130
Hg 9.899991 9.866791 -6.583130
Hg 9.899991 6.576806 -3.293146
Hg 6.610007 9.866791 -3.293146
Hg 6.610007 6.576806 -0.003162
Hg 9.899991 9.866791 -0.003162
Hg 9.899991 6.576806 3.286822
Hg 6.610007 9.866791 3.286822
Hg 6.610007 6.576806 6.576806
Hg 9.899991 9.866791 6.576806
Hg 9.899991 6.576806 9.866791
Hg 6.610007 9.866791 9.866791
Hg 6.610007 6.576806 13.156775
Hg 9.899991 9.866791 13.156775
Hg 9.899991 6.576806 16.446759
Hg 6.610007 9.866791 16.446759
Hg 6.610007 6.576806 19.736743
Hg 9.899991 9.866791 19.736743
Hg 9.899991 6.576806 23.026728
Hg 6.610007 9.866791 23.026728
Hg 6.610007 13.156775 -19.743067
Hg 9.899991 13.156775 -16.453083
Hg 6.610007 16.446759 -16.453083
Hg 6.610007 13.156775 -13.163099
Hg 9.899991 16.446759 -13.163099
Hg 9.899991 13.156775 -9.873115
Hg 6.610007 16.446759 -9.873115
Hg 6.610007 13.156775 -6.583130
Hg 9.899991 16.446759 -6.583130
Hg 9.899991 13.156775 -3.293146
Hg 6.610007 16.446759 -3.293146
Hg 6.610007 13.156775 -0.003162
Hg 9.899991 16.446759 -0.003162
Hg 9.899991 13.156775 3.286822
Hg 6.610007 16.446759 3.286822
Hg 6.610007 13.156775 6.576806
Hg 9.899991 16.446759 6.576806
Hg 9.899991 13.156775 9.866791
Hg 6.610007 16.446759 9.866791
Hg 6.610007 13.156775 13.156775
Hg 9.899991 16.446759 13.156775
Hg 9.899991 13.156775 16.446759
Hg 6.610007 16.446759 16.446759
Hg 6.610007 13.156775 19.736743
Hg 6.610007 19.736743 -13.163099
Hg 9.899991 19.736743 -9.873115
Hg 6.610007 23.026728 -9.873115
Hg 6.610007 19.736743 -6.583130
Hg 9.899991 23.026728 -6.583130
Hg 9.899991 19.736743 -3.293146
Hg 6.610007 23.026728 -3.293146
Hg 6.610007 19.736743 -0.003162
Hg 9.899991 23.026728 -0.003162
Hg 9.899991 19.736743 3.286822
Hg 6.610007 23.026728 3.286822
Hg 6.610007 19.736743 6.576806
Hg 9.899991 23.026728 6.576806
Hg 9.899991 19.736743 9.866791
Hg 6.610007 23.026728 9.866791
Hg 6.610007 19.736743 13.156775
Hg 13.189975 -16.453083 -9.873115
Hg 13.189975 -19.743067 -6.583130
Hg 16.479959 -16.453083 -6.583130
Hg 13.189975 -16.453083 -3.293146
Hg 13.189975 -19.743067 -0.003162
Hg 16.479959 -16.453083 -0.003162
Hg 13.189975 -16.453083 3.286822
Hg 13.189975 -19.743067 6.576806
Hg 16.479959 -16.453083 6.576806
Hg 13.189975 -16.453083 9.866791
Hg 13.189975 -9.873115 -16.453083
Hg 13.189975 -13.163099 -13.163099
Hg 16.479959 -9.873115 -13.163099
Hg 16.479959 -13.163099 -9.873115
Hg 13.189975 -9.873115 -9.873115
Hg 13.189975 -13.163099 -6.583130
Hg 16.479959 -9.873115 -6.583130
Hg 16.479959 -13.163099 -3.293146
Hg 13.189975 -9.873115 -3.293146
Hg 13.189975 -13.163099 -0.003162
Hg 16.479959 -9.873115 -0.003162
Hg 16.479959 -13.163099 3.286822
Hg 13.189975 -9.873115 3.286822
Hg 13.189975 -13.163099 6.576806
Hg 16.479959 -9.873115 6.576806
Hg 16.479959 -13.163099 9.866791
Hg 13.189975 -9.873115 9.866791
Hg 13.189975 -13.163099 13.156775
Hg 16.479959 -9.873115 13.156775
Hg 13.189975 -9.873115 16.446759
Hg 13.189975 -6.583130 -19.743067
Hg 16.479959 -6.583130 -16.453083
Hg 13.189975 -3.293146 -16.453083
Hg 13.189975 -6.583130 -13.163099
Hg 16.479959 -3.293146 -13.163099
Hg 16.479959 -6.583130 -9.873115
Hg 13.189975 -3.293146 -9.873115
Hg 13.189975 -6.583130 -6.583130
Hg 16.479959 -3.293146 -6.583130
Hg 16.479959 -6.583130 -3.293146
Hg 13.189975 -3.293146 -3.293146
Hg 13.189975 -6.583130 -0.003162
Hg 16.479959 -3.293146 -0.003162
Hg 16.479959 -6.583130 3.286822
Hg 13.189975 -3.293146 3.286822
Hg 13.189975 -6.583130 6.576806
Hg 16.479959 -3.293146 6.576806
Hg 16.479959 -6.583130 9.866791
Hg 13.189975 -3.293146 9.866791
Hg 13.189975 -6.583130 13.156775
Hg 16.479959 -3.293146 13.156775
Hg 16.479959 -6.583130 16.446759
Hg 13.189975 -3.293146 16.446759
Hg 13.189975 -6.583130 19.736743
Hg 13.189975 -0.003162 -19.743067
Hg 16.479959 -0.003162 -16.453083
Hg 13.189975 3.286822 -16.453083
Hg 13.189975 -0.003162 -13.163099
Hg 16.479959 3.286822 -13.163099
Hg 16.479959 -0.003162 -9.873115
Hg 13.189975 3.286822 -9.873115
Hg 13.189975 -0.003162 -6.583130
Hg 16.479959 3.286822 -6.583130
Hg 16.479959 -0.003162 -3.293146
Hg 13.189975 3.286822 -3.293146
Hg 13.189975 -0.003162 -0.003162
Hg 16.479959 3.286822 -0.003162
Hg 16.479959 -0.003162 3.286822
Hg 13.189975 3.286822 3.286822
Hg 13.189975 -0.003162 6.576806
Hg 16.479959 3.286822 6.576806
Hg 16.479959 -0.003162 9.866791
Hg 13.189975 3.286822 9.866791
Hg 13.189975 -0.003162 13.156775
Hg 16.479959 3.286822 13.156775
Hg 16.479959 -0.003162 16.446759
Hg 13.189975 3.286822 16.446759
Hg 13.189975 -0.003162 19.736743
Hg 13.189975 6.576806 -19.743067
Hg 16.479959 6.576806 -16.453083
Hg 13.189975 9.866791 -16.453083
Hg 13.189975 6.576806 -13.163099
Hg 16.479959 9.866791 -13.163099
Hg 16.479959 6.576806 -9.873115
Hg 13.189975 9.866791 -9.873115
Hg 13.189975 6.576806 -6.583130
Hg 16.479959 9.866791 -6.583130
Hg 16.479959 6.576806 -3.293146
Hg 13.189975 9.866791 -3.293146
Hg 13.189975 6.576806 -0.003162
Hg 16.479959 9.866791 -0.003162
Hg 16.479959 6.576806 3.286822
Hg 13.189975 9.866791 3.286822
Hg 13.189975 6.576806 6.576806
Hg 16.479959 9.866791 6.576806
Hg 16.479959 6.576806 9.866791
Hg 13.189975 9.866791 9.866791
Hg 13.189975 6.576806 13.156775
Hg 16.479959 9.866791 13.156775
Hg 16.479959 6.576806 16.446759
Hg 13.189975 9.866791 16.446759
Hg 13.189975 6.576806 19.736743
Hg 13.189975 13.156775 -13.163099
Hg 16.479959 13.156775 -9.873115
Hg 13.189975 16.446759 -9.873115
Hg 13.189975 13.156775 -6.583130
Hg 16.479959 16.446759 -6.583130
Hg 16.479959 13.156775 -3.293146
Hg 13.189975 16.446759 -3.293146
Hg 13.189975 13.156775 -0.003162
Hg 16.479959 16.446759 -0.003162
Hg 16.479959 13.156775 3.286822
Hg 13.189975 16.446759 3.286822
Hg 13.189975 13.156775 6.576806
Hg 16.479959 16.446759 6.576806
Hg 16.479959 13.156775 9.866791
Hg 13.189975 16.446759 9.866791
Hg 13.189975 13.156775 13.156775
Hg 13.189975 19.736743 -6.583130
Hg 13.189975 19.736743 -0.003162
Hg 13.189975 19.736743 6.576806
Hg 19.769944 -9.873115 -9.873115
Hg 19.769944 -13.163099 -6.583130
Hg 23.059928 -9.873115 -6.583130
Hg 19.769944 -9.873115 -3.293146
Hg 19.769944 -13.163099 -0.003162
Hg 23.059928 -9.873115 -0.003162
Hg 19.769944 -9.873115 3.286822
Hg 19.769944 -13.163099 6.576806
Hg 23.059928 -9.873115 6.576806
Hg 19.769944 -9.873115 9.866791
Hg 19.769944 -6.583130 -13.163099
Hg 23.059928 -6.583130 -9.873115
Hg 19.769944 -3.293146 -9.873115
Hg 19.769944 -6.583130 -6.583130
Hg 23.059928 -3.293146 -6.583130
Hg 23.059928 -6.583130 -3.293146
Hg 19.769944 -3.293146 -3.293146
Hg 19.769944 -6.583130 -0.003162
Hg 23.059928 -3.293146 -0.003162
Hg 23.059928 -6.583130 3.286822
Hg 19.769944 -3.293146 3.286822
Hg 19.769944 -6.583130 6.576806
Hg 23.059928 -3.293146 6.576806
Hg 23.059928 -6.583130 9.866791
Hg 19.769944 -3.293146 9.866791
Hg 19.769944 -6.583130 13.156775
Hg 19.769944 -0.003162 -13.163099
Hg 23.059928 -0.003162 -9.873115
Hg 19.769944 3.286822 -9.873115
Hg 19.769944 -0.003162 -6.583130
Hg 23.059928 3.286822 -6.583130
Hg 23.059928 -0.003162 -3.293146
Hg 19.769944 3.286822 -3.293146
Hg 19.769944 -0.003162 -0.003162
Hg 23.059928 3.286822 -0.003162
Hg 23.059928 -0.003162 3.286822
Hg 19.769944 3.286822 3.286822
Hg 19.769944 -0.003162 6.576806
Hg 23.059928 3.286822 6.576806
Hg 23.059928 -0.003162 9.866791
Hg 19.769944 3.286822 9.866791
Hg 19.769944 -0.003162 13.156775
Hg 19.769944 6.576806 -13.163099
Hg 23.059928 6.576806 -9.873115
Hg 19.769944 9.866791 -9.873115
Hg 19.769944 6.576806 -6.583130
Hg 23.059928 9.866791 -6.583130
Hg 23.059928 6.576806 -3.293146
Hg 19.769944 9.866791 -3.293146
Hg 19.769944 6.576806 -0.003162
Hg 23.059928 9.866791 -0.003162
Hg 23.059928 6.576806 3.286822
Hg 19.769944 9.866791 3.286822
Hg 19.769944 6.576806 6.576806
Hg 23.059928 9.866791 6.576806
Hg 23.059928 6.576806 9.866791
Hg 19.769944 9.866791 9.866791
Hg 19.769944 6.576806 13.156775
Hg 19.769944 13.156775 -6.583130
Hg 19.769944 13.156775 -0.003162
Hg 19.769944 13.156775 6.576806
Te -21.354859 -8.228122 -11.518107
Te -21.354859 -11.518107 -8.228122
Te -21.354859 -8.228122 -4.938138
Te -21.354859 -11.518107 -1.648154
Te -21.354859 -8.228122 1.641830
Te -21.354859 -11.518107 4.931814
Te -21.354859 -8.228122 8.221799
Te -21.354859 -1.648154 -11.518107
Te -21.354859 -4.938138 -8.228122
Te -21.354859 -1.648154 -4.938138
Te -21.354859 -4.938138 -1.648154
Te -21.354859 -1.648154 1.641830
Te -21.354859 -4.938138 4.931814
Te -21.354859 -1.648154 8.221799
Te -21.354859 -4.938138 11.511783
Te -21.354859 4.931814 -11.518107
Te -21.354859 1.641830 -8.228122
Te -21.354859 4.931814 -4.938138
Te -21.354859 1.641830 -1.648154
Te -21.354859 4.931814 1.641830
Te -21.354859 1.641830 4.931814
Te -21.354859 4.931814 8.221799
Te -21.354859 1.641830 11.511783
Te -21.354859 8.221799 -8.228122
Te -21.354859 11.511783 -4.938138
Te -21.354859 8.221799 -1.648154
Te -21.354859 11.511783 1.641830
Te -21.354859 8.221799 4.931814
Te -21.354859 11.511783 8.221799
Te -21.354859 8.221799 11.511783
Te -18.064875 -14.808091 -8.228122
Te -14.774891 -14.808091 -11.518107
Te -14.774891 -18.098075 -8.228122
Te -18.064875 -14.808091 -1.648154
Te -14.774891 -14.808091 -4.938138
Te -14.774891 -18.098075 -1.648154
Te -18.064875 -14.808091 4.931814
Te -14.774891 -14.808091 1.641830
Te -14.774891 -18.098075 4.931814
Te -14.774891 -14.808091 8.221799
Te -18.064875 -8.228122 -14.808091
Te -14.774891 -8.228122 -18.098075
Te -14.774891 -11.518107 -14.808091
Te -18.064875 -11.518107 -11.518107
Te -18.064875 -8.228122 -8.228122
Te -14.774891 -8.228122 -11.518107
Te -14.774891 -11.518107 -8.228122
Te -18.064875 -11.518107 -4.938138
Te -18.064875 -8.228122 -1.648154
Te -14.774891 -8.228122 -4.938138
Te -14.774891 -11.518107 -1.648154
Te -18.064875 -11.518107 1.641830
Te -18.064875 -8.228122 4.931814
Te -14.774891 -8.228122 1.641830
Te -14.774891 -11.518107 4.931814
Te -18.064875 -11.518107 8.221799
Te -18.064875 -8.228122 11.511783
Te -14.774891 -8.228122 8.221799
Te -14.774891 -11.518107 11.511783
Te -14.774891 -8.228122 14.801767
Te -18.064875 -1.648154 -14.808091
Te -14.774891 -1.648154 -18.098075
Te -14.774891 -4.938138 -14.808091
Te -18.064875 -4.938138 -11.518107
Te -18.064875 -1.648154 -8.228122
Te -14.774891 -1.648154 -11.518107
Te -14.774891 -4.938138 -8.228122
Te -18.064875 -4.938138 -4.938138
Te -18.064875 -1.648154 -1.648154
Te -14.774891 -1.648154 -4.938138
Te -14.774891 -4.938138 -1.648154
Te -18.064875 -4.938138 1.641830
Te -18.064875 -1.648154 4.931814
Te -14.774891 -1.648154 1.641830
Te -14.774891 -4.938138 4.931814
Te -18.064875 -4.938138 8.221799
Te -18.064875 -1.648154 11.511783
Te -14.774891 -1.648154 8.221799
Te -14.774891 -4.938138 11.511783
Te -18.064875 -4.938138 14.801767
Te -14.774891 -1.648154 14.801767
Te -14.774891 -4.938138 18.091751
Te -18.064875 4.931814 -14.808091
Te -14.774891 4.931814 -18.098075
Te -14.774891 1.641830 -14.808091
Te -18.064875 1.641830 -11.518107
Te -18.064875 4.931814 -8.228122
Te -14.774891 4.931814 -11.518107
Te -14.774891 1.641830 -8.228122
Te -18.064875 1.641830 -4.938138
Te -18.064875 4.931814 -1.648154
Te -14.774891 4.931814 -4.938138
Te -14.774891 1.641830 -1.648154
Te -18.064875 1.641830 1.641830
Te -18.064875 4.931814 4.931814
Te -14.774891 4.931814 1.641830
Te -14.774891 1.641830 4.931814
Te -18.064875 1.641830 8.221799
Te -18.064875 4.931814 11.511783
Te -14.774891 4.931814 8.221799
Te -14.774891 1.641830 11.511783
Te -18.064875 1.641830 14.801767
Te -14.774891 4.931814 14.801767
Te -14.774891 1.641830 18.091751
Te -14.774891 8.221799 -14.808091
Te -18.064875 8.221799 -11.518107
Te -18.064875 11.511783 -8.228122
Te -14.774891 11.511783 -11.518107
Te -14.774891 8.221799 -8.228122
Te -18.064875 8.221799 -4.938138
Te -18.064875 11.511783 -1.648154
Te -14.774891 11.511783 -4.938138
Te -14.774891 8.221799 -1.648154
Te -18.064875 8.221799 1.641830
Te -18.064875 11.511783 4.931814
Te -14.774891 11.511783 1.641830
Te -14.774891 8.221799 4.931814
Te -18.064875 8.221799 8.221799
Te -18.064875 11.511783 11.511783
Te -14.774891 11.511783 8.221799
Te -14.774891 8.221799 11.511783
Te -18.064875 8.221799 14.801767
Te -14.774891 11.511783 14.801767
Te -14.774891 8.221799 18.091751
Te -14.774891 14.801767 -8.228122
Te -18.064875 14.801767 -4.938138
Te -14.774891 18.091751 -4.938138
Te -14.774891 14.801767 -1.648154
Te -18.064875 14.801767 1.641830
Te -14.774891 18.091751 1.641830
Te -14.774891 14.801767 4.931814
Te -18.064875 14.801767 8.221799
Te -14.774891 18.091751 8.221799
Te -14.774891 14.801767 11.511783
Te -11.484906 -21.388059 -8.228122
Te -8.194922 -21.388059 -11.518107
Te -11.484906 -21.388059 -1.648154
Te -8.194922 -21.388059 -4.938138
Te -11.484906 -21.388059 4.931814
Te -8.194922 -21.388059 1.641830
Te -8.194922 -21.388059 8.221799
Te -11.484906 -14.808091 -14.808091
Te -8.194922 -14.808091 -18.098075
Te -8.194922 -18.098075 -14.808091
Te -11.484906 -18.098075 -11.518107
Te -11.484906 -14.808091 -8.228122
Te -8.194922 -14.808091 -11.518107
Te -8.194922 -18.098075 -8.228122
Te -11.484906 -18.098075 -4.938138
Te -11.484906 -14.808091 -1.648154
Te -8.194922 -14.808091 -4.938138
Te -8.194922 -18.098075 -1.648154
Te -11.484906 -18.098075 1.641830
Te -11.484906 -14.808091 4.931814
Te -8.194922 -14.808091 1.641830
Te -8.194922 -18.098075 4.931814
Te -11.484906 -18.098075 8.221799
Te -11.484906 -14.808091 11.511783
Te -8.194922 -14.808091 8.221799
Te -8.194922 -18.098075 11.511783
Te -8.194922 -14.808091 14.801767
Te -11.484906 -8.228122 -21.388059
Te -8.194922 -11.518107 -21.388059
Te -11.484906 -11.518107 -18.098075
Te -11.484906 -8.228122 -14.808091
Te -8.194922 -8.228122 -18.098075
Te -8.194922 -11.518107 -14.808091
Te -11.484906 -11.518107 -11.518107
Te -11.484906 -8.228122 -8.228122
Te -8.194922 -8.228122 -11.518107
Te -8.194922 -11.518107 -8.228122
Te -11.484906 -11.518107 -4.938138
Te -11.484906 -8.228122 -1.648154
Te -8.194922 -8.228122 -4.938138
Te -8.194922 -11.518107 -1.648154
Te -11.484906 -11.518107 1.641830
Te -11.484906 -8.228122 4.931814
Te -8.194922 -8.228122 1.641830
Te -8.194922 -11.518107 4.931814
Te -11.484906 -11.518107 8.221799
Te -11.484906 -8.228122 11.511783
Te -8.194922 -8.228122 8.221799
Te -8.194922 -11.518107 11.511783
Te -11.484906 -11.518107 14.801767
Te -11.484906 -8.228122 18.091751
Te -8.194922 -8.228122 14.801767
Te -8.194922 -11.518107 18.091751
Te -8.194922 -8.228122 21.381735
Te -11.484906 -1.648154 -21.388059
Te -8.194922 -4.938138 -21.388059
Te -11.484906 -4.938138 -18.098075
Te -11.484906 -1.648154 -14.808091
Te -8.194922 -1.648154 -18.098075
Te -8.194922 -4.938138 -14.808091
Te -11.484906 -4.938138 -11.518107
Te -11.484906 -1.648154 -8.228122
Te -8.194922 -1.648154 -11.518107
Te -8.194922 -4.938138 -8.228122
Te -11.484906 -4.938138 -4.938138
Te -11.484906 -1.648154 -1.648154
Te -8.194922 -1.648154 -4.938138
Te -8.194922 -4.938138 -1.648154
Te -11.484906 -4.938138 1.641830
Te -11.484906 -1.648154 4.931814
Te -8.194922 -1.648154 1.641830
Te -8.194922 -4.938138 4.931814
Te -11.484906 -4.938138 8.221799
Te -11.484906 -1.648154 11.511783
Te -8.194922 -1.648154 8.221799
Te -8.194922 -4.938138 11.511783
Te -11.484906 -4.938138 14.801767
Te -11.484906 -1.648154 18.091751
Te -8.194922 -1.648154 14.801767
Te -8.194922 -4.938138 18.091751
Te -11.484906 -4.938138 21.381735
Te -8.194922 -1.648154 21.381735
Te -11.484906 4.931814 -21.388059
Te -8.194922 1.641830 -21.388059
Te -11.484906 1.641830 -18.098075
Te -11.484906 4.931814 -14.808091
Te -8.194922 4.931814 -18.098075
Te -8.194922 1.641830 -14.808091
Te -11.484906 1.641830 -11.518107
Te -11.484906 4.931814 -8.228122
Te -8.194922 4.931814 -11.518107
Te -8.194922 1.641830 -8.228122
Te -11.484906 1.641830 -4.938138
Te -11.484906 4.931814 -1.648154
Te -8.194922 4.931814 -4.938138
Te -8.194922 1.641830 -1.648154
Te -11.484906 1.641830 1.641830
Te -11.484906 4.931814 4.931814
Te -8.194922 4.931814 1.641830
Te -8.194922 1.641830 4.931814
Te -11.484906 1.641830 8.221799
Te -11.484906 4.931814 11.511783
Te -8.194922 4.931814 8.221799
Te -8.194922 1.641830 11.511783
Te -11.484906 1.641830 14.801767
Te -11.484906 4.931814 18.091751
Te -8.194922 4.931814 14.801767
Te -8.194922 1.641830 18.091751
Te -11.484906 1.641830 21.381735
Te -8.194922 4.931814 21.381735
Te -8.194922 8.221799 -21.388059
Te -11.484906 8.221799 -18.098075
Te -11.484906 11.511783 -14.808091
Te -8.194922 11.511783 -18.098075
Te -8.194922 8.221799 -14.808091
Te -11.484906 8.221799 -11.518107
Te -11.484906 11.511783 -8.228122
Te -8.194922 11.511783 -11.518107
Te -8.194922 8.221799 -8.228122
Te -11.484906 8.221799 -4.938138
Te -11.484906 11.511783 -1.648154
Te -8.194922 11.511783 -4.938138
Te -8.194922 8.221799 -1.648154
Te -11.484906 8.221799 1.641830
Te -11.484906 11.511783 4.931814
Te -8.194922 11.511783 1.641830
Te -8.194922 8.221799 4.931814
Te -11.484906 8.221799 8.221799
Te -11.484906 11.511783 11.511783
Te -8.194922 11.511783 8.221799
Te -8.194922 8.221799 11.511783
Te -11.484906 8.221799 14.801767
Te -11.484906 11.511783 18.091751
Te -8.194922 11.511783 14.801767
Te -8.194922 8.221799 18.091751
Te -11.484906 8.221799 21.381735
Te -8.194922 11.511783 21.381735
Te -8.194922 14.801767 -14.808091
Te -11.484906 14.801767 -11.518107
Te -11.484906 18.091751 -8.228122
Te -8.194922 18.091751 -11.518107
Te -8.194922 14.801767 -8.228122
Te -11.484906 14.801767 -4.938138
Te -11.484906 18.091751 -1.648154
Te -8.194922 18.091751 -4.938138
Te -8.194922 14.801767 -1.648154
Te -11.484906 14.801767 1.641830
Te -11.484906 18.091751 4.931814
Te -8.194922 18.091751 1.641830
Te -8.194922 14.801767 4.931814
Te -11.484906 14.801767 8.221799
Te -11.484906 18.091751 11.511783
Te -8.194922 18.091751 8.221799
Te -8.194922 14.801767 11.511783
Te -11.484906 14.801767 14.801767
Te -8.194922 18.091751 14.801767
Te -8.194922 14.801767 18.091751
Te -8.194922 21.381735 -8.228122
Te -11.484906 21.381735 -4.938138
Te -8.194922 21.381735 -1.648154
Te -11.484906 21.381735 1.641830
Te -8.194922 21.381735 4.931814
Te -11.484906 21.381735 8.221799
Te -8.194922 21.381735 11.511783
Te -4.904938 -21.388059 -8.228122
Te -1.614954 -21.388059 -11.518107
Te -4.904938 -21.388059 -1.648154
Te -1.614954 -21.388059 -4.938138
Te -4.904938 -21.388059 4.931814
Te -1.614954 -21.388059 1.641830
Te -4.904938 -21.388059 11.511783
Te -1.614954 -21.388059 8.221799
Te -4.904938 -14.808091 -14.808091
Te -1.614954 -14.808091 -18.098075
Te -1.614954 -18.098075 -14.808091
Te -4.904938 -18.098075 -11.518107
Te -4.904938 -14.808091 -8.228122
Te -1.614954 -14.808091 -11.518107
Te -1.614954 -18.098075 -8.228122
Te -4.904938 -18.098075 -4.938138
Te -4.904938 -14.808091 -1.648154
Te -1.614954 -14.808091 -4.938138
Te -1.614954 -18.098075 -1.648154
Te -4.904938 -18.098075 1.641830
Te -4.904938 -14.808091 4.931814
Te -1.614954 -14.808091 1.641830
Te -1.614954 -18.098075 4.931814
Te -4.904938 -18.098075 8.221799
Te -4.904938 -14.808091 11.511783
Te -1.614954 -14.808091 8.221799
Te -1.614954 -18.098075 11.511783
Te -4.904938 -18.098075 14.801767
Te -4.904938 -14.808091 18.091751
Te -1.614954 -14.808091 14.801767
Te -4.904938 -8.228122 -21.388059
Te -1.614954 -11.518107 -21.388059
Te -4.904938 -11.518107 -18.098075
Te -4.904938 -8.228122 -14.808091
Te -1.614954 -8.228122 -18.098075
Te -1.614954 -11.518107 -14.808091
Te -4.904938 -11.518107 -11.518107
Te -4.904938 -8.228122 -8.228122
Te -1.614954 -8.228122 -11.518107
Te -1.614954 -11.518107 -8.228122
Te -4.904938 -11.518107 -4.938138
Te -4.904938 -8.228122 -1.648154
Te -1.614954 -8.228122 -4.938138
Te -1.614954 -11.518107 -1.648154
Te -4.904938 -11.518107 1.641830
Te -4.904938 -8.228122 4.931814
Te -1.614954 -8.228122 1.641830
Te -1.614954 -11.518107 4.931814
Te -4.904938 -11.518107 8.221799
Te -4.904938 -8.228122 11.511783
Te -1.614954 -8.228122 8.221799
Te -1.614954 -11.518107 11.511783
Te -4.904938 -11.518107 14.801767
Te -4.904938 -8.228122 18.091751
Te -1.614954 -8.228122 14.801767
Te -1.614954 -11.518107 18.091751
Te -4.904938 -11.518107 21.381735
Te -1.614954 -8.228122 21.381735
Te -4.904938 -1.648154 -21.388059
Te -1.614954 -4.938138 -21.388059
Te -4.904938 -4.938138 -18.098075
Te -4.904938 -1.648154 -14.808091
Te -1.614954 -1.648154 -18.098075
Te -1.614954 -4.938138 -14.808091
Te -4.904938 -4.938138 -11.518107
Te -4.904938 -1.648154 -8.228122
Te -1.614954 -1.648154 -11.518107
Te -1.614954 -4.938138 -8.228122
Te -4.904938 -4.938138 -4.938138
Te -4.904938 -1.648154 -1.648154
Te -1.614954 -1.648154 -4.938138
Te -1.614954 -4.938138 -1.648154
Te -4.904938 -4.938138 1.641830
Te -4.904938 -1.648154 4.931814
Te -1.614954 -1.648154 1.641830
Te -1.614954 -4.938138 4.931814
Te -4.904938 -4.938138 8.221799
Te -4.904938 -1.648154 11.511783
Te -1.614954 -1.648154 8.221799
Te -1.614954 -4.938138 11.511783
Te -4.904938 -4.938138 14.801767
Te -4.904938 -1.648154 18.091751
Te -1.614954 -1.648154 14.801767
Te -1.614954 -4.938138 18.091751
Te -4.904938 -4.938138 21.381735
Te -1.614954 -1.648154 21.381735
Te -4.904938 4.931814 -21.388059
Te -1.614954 1.641830 -21.388059
Te -4.904938 1.641830 -18.098075
Te -4.904938 4.931814 -14.808091
Te -1.614954 4.931814 -18.098075
Te -1.614954 1.641830 -14.808091
Te -4.904938 1.641830 -11.518107
Te -4.904938 4.931814 -8.228122
Te -1.614954 4.931814 -11.518107
Te -1.614954 1.641830 -8.228122
Te -4.904938 1.641830 -4.938138
Te -4.904938 4.931814 -1.648154
Te -1.614954 4.931814 -4.938138
Te -1.614954 1.641830 -1.648154
Te -4.904938 1.641830 1.641830
Te -4.904938 4.931814 4.931814
Te -1.614954 4.931814 1.641830
Te -1.614954 1.641830 4.931814
Te -4.904938 1.641830 8.221799
Te -4.904938 4.931814 11.511783
Te -1.614954 4.931814 8.221799
Te -1.614954 1.641830 11.511783
Te -4.904938 1.641830 14.801767
Te -4.904938 4.931814 18.091751
Te -1.614954 4.931814 14.801767
Te -1.614954 1.641830 18.091751
Te -4.904938 1.641830 21.381735
Te -1.614954 4.931814 21.381735
Te -4.904938 11.511783 -21.388059
Te -1.614954 8.221799 -21.388059
Te -4.904938 8.221799 -18.098075
Te -4.904938 11.511783 -14.808091
Te -1.614954 11.511783 -18.098075
Te -1.614954 8.221799 -14.808091
Te -4.904938 8.221799 -11.518107
Te -4.904938 11.511783 -8.228122
Te -1.614954 11.511783 -11.518107
Te -1.614954 8.221799 -8.228122
Te -4.904938 8.221799 -4.938138
Te -4.904938 11.511783 -1.648154
Te -1.614954 11.511783 -4.938138
Te -1.614954 8.221799 -1.648154
Te -4.904938 8.221799 1.641830
Te -4.904938 11.511783 4.931814
Te -1.614954 11.511783 1.641830
Te -1.614954 8.221799 4.931814
Te -4.904938 8.221799 8.221799
Te -4.904938 11.511783 11.511783
Te -1.614954 11.511783 8.221799
Te -1.614954 8.221799 11.511783
Te -4.904938 8.221799 14.801767
Te -4.904938 11.511783 18.091751
Te -1.614954 11.511783 14.801767
Te -1.614954 8.221799 18.091751
Te -4.904938 8.221799 21.381735
Te -1.614954 11.511783 21.381735
Te -4.904938 14.801767 -18.098075
Te -4.904938 18.091751 -14.808091
Te -1.614954 14.801767 -14.808091
Te -4.904938 14.801767 -11.518107
Te -4.904938 18.091751 -8.228122
Te -1.614954 18.091751 -11.518107
Te -1.614954 14.801767 -8.228122
Te -4.904938 14.801767 -4.938138
Te -4.904938 18.091751 -1.648154
Te -1.614954 18.091751 -4.938138
Te -1.614954 14.801767 -1.648154
Te -4.904938 14.801767 1.641830
Te -4.904938 18.091751 4.931814
Te -1.614954 18.091751 1.641830
Te -1.614954 14.801767 4.931814
Te -4.904938 14.801767 8.221799
Te -4.904938 18.091751 11.511783
Te -1.614954 18.091751 8.221799
Te -1.614954 14.801767 11.511783
Te -4.904938 14.801767 14.801767
Te -1.614954 18.091751 14.801767
Te -1.614954 14.801767 18.091751
Te -4.904938 21.381735 -11.518107
Te -1.614954 21.381735 -8.228122
Te -4.904938 21.381735 -4.938138
Te -1.614954 21.381735 -1.648154
Te -4.904938 21.381735 1.641830
Te -1.614954 21.381735 4.931814
Te -4.904938 21.381735 8.221799
Te -1.614954 21.381735 11.511783
Te 1.675030 -21.388059 -8.228122
Te 4.965015 -21.388059 -11.518107
Te 1.675030 -21.388059 -1.648154
Te 4.965015 -21.388059 -4.938138
Te 1.675030 -21.388059 4.931814
Te 4.965015 -21.388059 1.641830
Te 1.675030 -21.388059 11.511783
Te 4.965015 -21.388059 8.221799
Te 1.675030 -14.808091 -14.808091
Te 4.965015 -14.808091 -18.098075
Te 4.965015 -18.098075 -14.808091
Te 1.675030 -18.098075 -11.518107
Te 1.675030 -14.808091 -8.228122
Te 4.965015 -14.808091 -11.518107
Te 4.965015 -18.098075 -8.228122
Te 1.675030 -18.098075 -4.938138
Te 1.675030 -14.808091 -1.648154
Te 4.965015 -14.808091 -4.938138
Te 4.965015 -18.098075 -1.648154
Te 1.675030 -18.098075 1.641830
Te 1.675030 -14.808091 4.931814
Te 4.965015 -14.808091 1.641830
Te 4.965015 -18.098075 4.931814
Te 1.675030 -18.098075 8.221799
Te 1.675030 -14.808091 11.511783
Te 4.965015 -14.808091 8.221799
Te 4.965015 -18.098075 11.511783
Te 1.675030 -18.098075 14.801767
Te 1.675030 -14.808091 18.091751
Te 4.965015 -14.808091 14.801767
Te 1.675030 -8.228122 -21.388059
Te 4.965015 -11.518107 -21.388059
Te 1.675030 -11.518107 -18.098075
Te 1.675030 -8.228122 -14.808091
Te 4.965015 -8.228122 -18.098075
Te 4.965015 -11.518107 -14.808091
Te 1.675030 -11.518107 -11.518107
Te 1.675030 -8.228122 -8.228122
Te 4.965015 -8.228122 -11.518107
Te 4.965015 -11.518107 -8.228122
Te 1.675030 -11.518107 -4.938138
Te 1.675030 -8.228122 -1.648154
Te 4.965015 -8.228122 -4.938138
Te 4.965015 -11.518107 -1.648154
Te 1.675030 -11.518107 1.641830
Te 1.675030 -8.228122 4.931814
Te 4.965015 -8.228122 1.641830
Te 4.965015 -11.518107 4.931814
Te 1.675030 -11.518107 8.221799
Te 1.675030 -8.228122 11.511783
Te 4.965015 -8.228122 8.221799
Te 4.965015 -11.518107 11.511783
Te 1.675030 -11.518107 14.801767
Te 1.675030 -8.228122 18.091751
Te 4.965015 -8.228122 14.801767
Te 4.965015 -11.518107 18.091751
Te 1.675030 -11.518107 21.381735
Te 4.965015 -8.228122 21.381735
Te 1.675030 -1.648154 -21.388059
Te 4.965015 -4.938138 -21.388059
Te 1.675030 -4.938138 -18.098075
Te 1.675030 -1.648154 -14.808091
Te 4.965015 -1.648154 -18.098075
Te 4.965015 -4.938138 -14.808091
Te 1.675030 -4.938138 -11.518107
Te 1.675030 -1.648154 -8.228122
Te 4.965015 -1.648154 -11.518107
Te 4.965015 -4.938138 -8.228122
Te 1.675030 -4.938138 -4.938138
Te 1.675030 -1.648154 -1.648154
Te 4.965015 -1.648154 -4.938138
Te 4.965015 -4.938138 -1.648154
Te 1.675030 -4.938138 1.641830
Te 1.675030 -1.648154 4.931814
Te 4.965015 -1.648154 1.641830
Te 4.965015 -4.938138 4.931814
Te 1.675030 -4.938138 8.221799
Te 1.675030 -1.648154 11.511783
Te 4.965015 -1.648154 8.221799
Te 4.965015 -4.938138 11.511783
Te 1.675030 -4.938138 14.801767
Te 1.675030 -1.648154 18.091751
Te 4.965015 -1.648154 14.801767
Te 4.965015 -4.938138 18.091751
Te 1.675030 -4.938138 21.381735
Te 4.965015 -1.648154 21.381735
Te 1.675030 4.931814 -21.388059
Te 4.965015 1.641830 -21.388059
Te 1.675030 1.641830 -18.098075
Te 1.675030 4.931814 -14.808091
Te 4.965015 4.931814 -18.098075
Te 4.965015 1.641830 -14.808091
Te 1.675030 1.641830 -11.518107
Te 1.675030 4.931814 -8.228122
Te 4.965015 4.931814 -11.518107
Te 4.965015 1.641830 -8.228122
Te 1.675030 1.641830 -4.938138
Te 1.675030 4.931814 -1.648154
Te 4.965015 4.931814 -4.938138
Te 4.965015 1.641830 -1.648154
Te 1.675030 1.641830 1.641830
Te 1.675030 4.931814 4.931814
Te 4.965015 4.931814 1.641830
Te 4.965015 1.641830 4.931814
Te 1.675030 1.641830 8.221799
Te 1.675030 4.931814 11.511783
Te 4.965015 4.931814 8.221799
Te 4.965015 1.641830 11.511783
Te 1.675030 1.641830 14.801767
Te 1.675030 4.931814 18.091751
Te 4.965015 4.931814 14.801767
Te 4.965015 1.641830 18.091751
Te 1.675030 1.641830 21.381735
Te 4.965015 4.931814 21.381735
Te 1.675030 11.511783 -21.388059
Te 4.965015 8.221799 -21.388059
Te 1.675030 8.221799 -18.098075
Te 1.675030 11.511783 -14.808091
Te 4.965015 11.511783 -18.098075
Te 4.965015 8.221799 -14.808091
Te 1.675030 8.221799 -11.518107
Te 1.675030 11.511783 -8.228122
Te 4.965015 11.511783 -11.518107
Te 4.965015 8.221799 -8.228122
Te 1.675030 8.221799 -4.938138
Te 1.675030 11.511783 -1.648154
Te 4.965015 11.511783 -4.938138
Te 4.965015 8.221799 -1.648154
Te 1.675030 8.221799 1.641830
Te 1.675030 11.511783 4.931814
Te 4.965015 11.511783 1.641830
Te 4.965015 8.221799 4.931814
Te 1.675030 8.221799 8.221799
Te 1.675030 11.511783 11.511783
Te 4.965015 11.511783 8.221799
Te 4.965015 8.221799 11.511783
Te 1.675030 8.221799 14.801767
Te 1.675030 11.511783 18.091751
Te 4.965015 11.511783 14.801767
Te 4.965015 8.221799 18.091751
Te 1.675030 8.221799 21.381735
Te 4.965015 11.511783 21.381735
Te 1.675030 14.801767 -18.098075
Te 1.675030 18.091751 -14.808091
Te 4.965015 14.801767 -14.808091
Te 1.675030 14.801767 -11.518107
Te 1.675030 18.091751 -8.228122
Te 4.965015 18.091751 -11.518107
Te 4.965015 14.801767 -8.228122
Te 1.675030 14.801767 -4.938138
Te 1.675030 18.091751 -1.648154
Te 4.965015 18.091751 -4.938138
Te 4.965015 14.801767 -1.648154
Te 1.675030 14.801767 1.641830
Te 1.675030 18.091751 4.931814
Te 4.965015 18.091751 1.641830
Te 4.965015 14.801767 4.931814
Te 1.675030 14.801767 8.221799
Te 1.675030 18.091751 11.511783
Te 4.965015 18.091751 8.221799
Te 4.965015 14.801767 11.511783
Te 1.675030 14.801767 14.801767
Te 4.965015 18.091751 14.801767
Te 4.965015 14.801767 18.091751
Te 1.675030 21.381735 -11.518107
Te 4.965015 21.381735 -8.228122
Te 1.675030 21.381735 -4.938138
Te 4.965015 21.381735 -1.648154
Te 1.675030 21.381735 1.641830
Te 4.965015 21.381735 4.931814
Te 1.675030 21.381735 8.221799
Te 4.965015 21.381735 11.511783
Te 8.254999 -21.388059 -8.228122
Te 8.254999 -21.388059 -1.648154
Te 11.544983 -21.388059 -4.938138
Te 8.254999 -21.388059 4.931814
Te 11.544983 -21.388059 1.641830
Te 8.254999 -21.388059 11.511783
Te 11.544983 -21.388059 8.221799
Te 8.254999 -14.808091 -14.808091
Te 8.254999 -18.098075 -11.518107
Te 8.254999 -14.808091 -8.228122
Te 11.544983 -14.808091 -11.518107
Te 11.544983 -18.098075 -8.228122
Te 8.254999 -18.098075 -4.938138
Te 8.254999 -14.808091 -1.648154
Te 11.544983 -14.808091 -4.938138
Te 11.544983 -18.098075 -1.648154
Te 8.254999 -18.098075 1.641830
Te 8.254999 -14.808091 4.931814
Te 11.544983 -14.808091 1.641830
Te 11.544983 -18.098075 4.931814
Te 8.254999 -18.098075 8.221799
Te 8.254999 -14.808091 11.511783
Te 11.544983 -14.808091 8.221799
Te 11.544983 -18.098075 11.511783
Te 8.254999 -18.098075 14.801767
Te 8.254999 -14.808091 18.091751
Te 11.544983 -14.808091 14.801767
Te 8.254999 -8.228122 -21.388059
Te 8.254999 -11.518107 -18.098075
Te 8.254999 -8.228122 -14.808091
Te 11.544983 -8.228122 -18.098075
Te 11.544983 -11.518107 -14.808091
Te 8.254999 -11.518107 -11.518107
Te 8.254999 -8.228122 -8.228122
Te 11.544983 -8.228122 -11.518107
Te 11.544983 -11.518107 -8.228122
Te 8.254999 -11.518107 -4.938138
Te 8.254999 -8.228122 -1.648154
Te 11.544983 -8.228122 -4.938138
Te 11.544983 -11.518107 -1.648154
Te 8.254999 -11.518107 1.641830
Te 8.254999 -8.228122 4.931814
Te 11.544983 -8.228122 1.641830
Te 11.544983 -11.518107 4.931814
Te 8.254999 -11.518107 8.221799
Te 8.254999 -8.228122 11.511783
Te 11.544983 -8.228122 8.221799
Te 11.544983 -11.518107 11.511783
Te 8.254999 -11.518107 14.801767
Te 8.254999 -8.228122 18.091751
Te 11.544983 -8.228122 14.801767
Te 11.544983 -11.518107 18.091751
Te 8.254999 -11.518107 21.381735
Te 11.544983 -8.228122 21.381735
Te 8.254999 -1.648154 -21.388059
Te 11.544983 -4.938138 -21.388059
Te 8.254999 -4.938138 -18.098075
Te 8.254999 -1.648154 -14.808091
Te 11.544983 -1.648154 -18.098075
Te 11.544983 -4.938138 -14.808091
Te 8.254999 -4.938138 -11.518107
Te 8.254999 -1.648154 -8.228122
Te 11.544983 -1.648154 -11.518107
Te 11.544983 -4.938138 -8.228122
Te 8.254999 -4.938138 -4.938138
Te 8.254999 -1.648154 -1.648154
Te 11.544983 -1.648154 -4.938138
Te 11.544983 -4.938138 -1.648154
Te 8.254999 -4.938138 1.641830
Te 8.254999 -1.648154 4.931814
Te 11.544983 -1.648154 1.641830
Te 11.544983 -4.938138 4.931814
Te 8.254999 -4.938138 8.221799
Te 8.254999 -1.648154 11.511783
Te 11.544983 -1.648154 8.221799
Te 11.544983 -4.938138 11.511783
Te 8.254999 -4.938138 14.801767
Te 8.254999 -1.648154 18.091751
Te 11.544983 -1.648154 14.801767
Te 11.544983 -4.938138 18.091751
Te 8.254999 -4.938138 21.381735
Te 11.544983 -1.648154 21.381735
Te 8.254999 4.931814 -21.388059
Te 11.544983 1.641830 -21.388059
Te 8.254999 1.641830 -18.098075
Te 8.254999 4.931814 -14.808091
Te 11.544983 4.931814 -18.098075
Te 11.544983 1.641830 -14.808091
Te 8.254999 1.641830 -11.518107
Te 8.254999 4.931814 -8.228122
Te 11.544983 4.931814 -11.518107
Te 11.544983 1.641830 -8.228122
Te 8.254999 1.641830 -4.938138
Te 8.254999 4.931814 -1.648154
Te 11.544983 4.931814 -4.938138
Te 11.544983 1.641830 -1.648154
Te 8.254999 1.641830 1.641830
Te 8.254999 4.931814 4.931814
Te 11.544983 4.931814 1.641830
Te 11.544983 1.641830 4.931814
Te 8.254999 1.641830 8.221799
Te 8.254999 4.931814 11.511783
Te 11.544983 4.931814 8.221799
Te 11.544983 1.641830 11.511783
Te 8.254999 1.641830 14.801767
Te 8.254999 4.931814 18.091751
Te 11.544983 4.931814 14.801767
Te 11.544983 1.641830 18.091751
Te 8.254999 1.641830 21.381735
Te 11.544983 4.931814 21.381735
Te 8.254999 11.511783 -21.388059
Te 11.544983 8.221799 -21.388059
Te 8.254999 8.221799 -18.098075
Te 8.254999 11.511783 -14.808091
Te 11.544983 11.511783 -18.098075
Te 11.544983 8.221799 -14.808091
Te 8.254999 8.221799 -11.518107
Te 8.254999 11.511783 -8.228122
Te 11.544983 11.511783 -11.518107
Te 11.544983 8.221799 -8.228122
Te 8.254999 8.221799 -4.938138
Te 8.254999 11.511783 -1.648154
Te 11.544983 11.511783 -4.938138
Te 11.544983 8.221799 -1.648154
Te 8.254999 8.221799 1.641830
Te 8.254999 11.511783 4.931814
Te 11.544983 11.511783 1.641830
Te 11.544983 8.221799 4.931814
Te 8.254999 8.221799 8.221799
Te 8.254999 11.511783 11.511783
Te 11.544983 11.511783 8.221799
Te 11.544983 8.221799 11.511783
Te 8.254999 8.221799 14.801767
Te 8.254999 11.511783 18.091751
Te 11.544983 11.511783 14.801767
Te 11.544983 8.221799 18.091751
Te 8.254999 8.221799 21.381735
Te 8.254999 14.801767 -18.098075
Te 8.254999 18.091751 -14.808091
Te 11.544983 14.801767 -14.808091
Te 8.254999 14.801767 -11.518107
Te 8.254999 18.091751 -8.228122
Te 11.544983 18.091751 -11.518107
Te 11.544983 14.801767 -8.228122
Te 8.254999 14.801767 -4.938138
Te 8.254999 18.091751 -1.648154
Te 11.544983 18.091751 -4.938138
Te 11.544983 14.801767 -1.648154
Te 8.254999 14.801767 1.641830
Te 8.254999 18.091751 4.931814
Te 11.544983 18.091751 1.641830
Te 11.544983 14.801767 4.931814
Te 8.254999 14.801767 8.221799
Te 8.254999 18.091751 11.511783
Te 11.544983 18.091751 8.221799
Te 11.544983 14.801767 11.511783
Te 8.254999 14.801767 14.801767
Te 8.254999 21.381735 -11.518107
Te 11.544983 21.381735 -8.228122
Te 8.254999 21.381735 -4.938138
Te 11.544983 21.381735 -1.648154
Te 8.254999 21.381735 1.641830
Te 11.544983 21.381735 4.931814
Te 8.254999 21.381735 8.221799
Te 14.834967 -14.808091 -8.228122
Te 14.834967 -18.098075 -4.938138
Te 14.834967 -14.808091 -1.648154
Te 18.124951 -14.808091 -4.938138
Te 14.834967 -18.098075 1.641830
Te 14.834967 -14.808091 4.931814
Te 18.124951 -14.808091 1.641830
Te 14.834967 -18.098075 8.221799
Te 14.834967 -14.808091 11.511783
Te 18.124951 -14.808091 8.221799
Te 14.834967 -8.228122 -14.808091
Te 14.834967 -11.518107 -11.518107
Te 14.834967 -8.228122 -8.228122
Te 18.124951 -8.228122 -11.518107
Te 18.124951 -11.518107 -8.228122
Te 14.834967 -11.518107 -4.938138
Te 14.834967 -8.228122 -1.648154
Te 18.124951 -8.228122 -4.938138
Te 18.124951 -11.518107 -1.648154
Te 14.834967 -11.518107 1.641830
Te 14.834967 -8.228122 4.931814
Te 18.124951 -8.228122 1.641830
Te 18.124951 -11.518107 4.931814
Te 14.834967 -11.518107 8.221799
Te 14.834967 -8.228122 11.511783
Te 18.124951 -8.228122 8.221799
Te 18.124951 -11.518107 11.511783
Te 14.834967 -11.518107 14.801767
Te 14.834967 -8.228122 18.091751
Te 18.124951 -8.228122 14.801767
Te 14.834967 -4.938138 -18.098075
Te 14.834967 -1.648154 -14.808091
Te 18.124951 -4.938138 -14.808091
Te 14.834967 -4.938138 -11.518107
Te 14.834967 -1.648154 -8.228122
Te 18.124951 -1.648154 -11.518107
Te 18.124951 -4.938138 -8.228122
Te 14.834967 -4.938138 -4.938138
Te 14.834967 -1.648154 -1.648154
Te 18.124951 -1.648154 -4.938138
Te 18.124951 -4.938138 -1.648154
Te 14.834967 -4.938138 1.641830
Te 14.834967 -1.648154 4.931814
Te 18.124951 -1.648154 1.641830
Te 18.124951 -4.938138 4.931814
Te 14.834967 -4.938138 8.221799
Te 14.834967 -1.648154 11.511783
Te 18.124951 -1.648154 8.221799
Te 18.124951 -4.938138 11.511783
Te 14.834967 -4.938138 14.801767
Te 14.834967 -1.648154 18.091751
Te 18.124951 -1.648154 14.801767
Te 14.834967 1.641830 -18.098075
Te 14.834967 4.931814 -14.808091
Te 18.124951 1.641830 -14.808091
Te 14.834967 1.641830 -11.518107
Te 14.834967 4.931814 -8.228122
Te 18.124951 4.931814 -11.518107
Te 18.124951 1.641830 -8.228122
Te 14.834967 1.641830 -4.938138
Te 14.834967 4.931814 -1.648154
Te 18.124951 4.931814 -4.938138
Te 18.124951 1.641830 -1.648154
Te 14.834967 1.641830 1.641830
Te 14.834967 4.931814 4.931814
Te 18.124951 4.931814 1.641830
Te 18.124951 1.641830 4.931814
Te 14.834967 1.641830 8.221799
Te 14.834967 4.931814 11.511783
Te 18.124951 4.931814 8.221799
Te 18.124951 1.641830 11.511783
Te 14.834967 1.641830 14.801767
Te 14.834967 4.931814 18.091751
Te 18.124951 4.931814 14.801767
Te 14.834967 8.221799 -18.098075
Te 14.834967 11.511783 -14.808091
Te 18.124951 8.221799 -14.808091
Te 14.834967 8.221799 -11.518107
Te 14.834967 11.511783 -8.228122
Te 18.124951 11.511783 -11.518107
Te 18.124951 8.221799 -8.228122
Te 14.834967 8.221799 -4.938138
Te 14.834967 11.511783 -1.648154
Te 18.124951 11.511783 -4.938138
Te 18.124951 8.221799 -1.648154
Te 14.834967 8.221799 1.641830
Te 14.834967 11.511783 4.931814
Te 18.124951 11.511783 1.641830
Te 18.124951 8.221799 4.931814
Te 14.834967 8.221799 8.221799
Te 14.834967 11.511783 11.511783
Te 18.124951 11.511783 8.221799
Te 18.124951 8.221799 11.511783
Te 14.834967 8.221799 14.801767
Te 14.834967 14.801767 -11.518107
Te 14.834967 18.091751 -8.228122
Te 18.124951 14.801767 -8.228122
Te 14.834967 14.801767 -4.938138
Te 14.834967 18.091751 -1.648154
Te 18.124951 14.801767 -1.648154
Te 14.834967 14.801767 1.641830
Te 14.834967 18.091751 4.931814
Te 18.124951 14.801767 4.931814
Te 14.834967 14.801767 8.221799
Te 21.414936 -8.228122 -8.228122
Te 21.414936 -11.518107 -4.938138
Te 21.414936 -8.228122 -1.648154
Te 21.414936 -11.518107 1.641830
Te 21.414936 -8.228122 4.931814
Te 21.414936 -11.518107 8.221799
Te 21.414936 -8.228122 11.511783
Te 21.414936 -4.938138 -11.518107
Te 21.414936 -1.648154 -8.228122
Te 21.414936 -4.938138 -4.938138
Te 21.414936 -1.648154 -1.648154
Te 21.414936 -4.938138 1.641830
Te 21.414936 -1.648154 4.931814
Te 21.414936 -4.938138 8.221799
Te 21.414936 -1.648154 11.511783
Te 21.414936 1.641830 -11.518107
Te 21.414936 4.931814 -8.228122
Te 21.414936 1.641830 -4.938138
Te 21.414936 4.931814 -1.648154
Te 21.414936 1.641830 1.641830
Te 21.414936 4.931814 4.931814
Te 21.414936 1.641830 8.221799
Te 21.414936 4.931814 11.511783
Te 21.414936 8.221799 -11.518107
Te 21.414936 11.511783 -8.228122
Te 21.414936 8.221799 -4.938138
Te 21.414936 11.511783 -1.648154
Te 21.414936 8.221799 1.641830
Te 21.414936 11.511783 4.931814
Te 21.414936 8.221799 8.221799
Cl -24.644843 -8.228122 -8.228122
Cl -24.644843 -8.228122 -1.648154
Cl -24.644843 -8.228122 4.931814
Cl -24.644843 -1.648154 -8.228122
Cl -24.644843 -4.938138 -4.938138
Cl -24.644843 -1.648154 -1.648154
Cl -24.644843 -4.938138 1.641830
Cl -24.644843 -1.648154 4.931814
Cl -24.644843 -4.938138 8.221799
Cl -24.644843 4.931814 -8.228122
Cl -24.644843 1.641830 -4.938138
Cl -24.644843 4.931814 -1.648154
Cl -24.644843 1.641830 1.641830
Cl -24.644843 4.931814 4.931814
Cl -24.644843 1.641830 8.221799
Cl -24.644843 8.221799 -4.938138
Cl -24.644843 8.221799 1.641830
Cl -24.644843 8.221799 8.221799
Cl -8.194922 -24.678043 -8.228122
Cl -8.194922 -24.678043 -1.648154
Cl -8.194922 -24.678043 4.931814
Cl -8.194922 -8.228122 -24.678043
Cl -8.194922 -1.648154 -24.678043
Cl -8.194922 -4.938138 24.671720
Cl -8.194922 4.931814 -24.678043
Cl -8.194922 1.641830 24.671720
Cl -8.194922 8.221799 24.671720
Cl -8.194922 24.671720 -4.938138
Cl -8.194922 24.671720 1.641830
Cl -8.194922 24.671720 8.221799
Cl -1.614954 -24.678043 -8.228122
Cl -4.904938 -24.678043 -4.938138
Cl -1.614954 -24.678043 -1.648154
Cl -4.904938 -24.678043 1.641830
Cl -1.614954 -24.678043 4.931814
Cl -4.904938 -24.678043 8.221799
Cl -1.614954 -8.228122 -24.678043
Cl -4.904938 -8.228122 24.671720
Cl -4.904938 -4.938138 -24.678043
Cl -1.614954 -1.648154 -24.678043
Cl -4.904938 -1.648154 24.671720
Cl -1.614954 -4.938138 24.671720
Cl -4.904938 1.641830 -24.678043
Cl -1.614954 4.931814 -24.678043
Cl -4.904938 4.931814 24.671720
Cl -1.614954 1.641830 24.671720
Cl -4.904938 8.221799 -24.678043
Cl -1.614954 8.221799 24.671720
Cl -4.904938 24.671720 -8.228122
Cl -4.904938 24.671720 -1.648154
Cl -1.614954 24.671720 -4.938138
Cl -4.904938 24.671720 4.931814
Cl -1.614954 24.671720 1.641830
Cl -1.614954 24.671720 8.221799
Cl 4.965015 -24.678043 -8.228122
Cl 1.675030 -24.678043 -4.938138
Cl 4.965015 -24.678043 -1.648154
Cl 1.675030 -24.678043 1.641830
Cl 4.965015 -24.678043 4.931814
Cl 1.675030 -24.678043 8.221799
Cl 4.965015 -8.228122 -24.678043
Cl 1.675030 -8.228122 24.671720
Cl 1.675030 -4.938138 -24.678043
Cl 4.965015 -1.648154 -24.678043
Cl 1.675030 -1.648154 24.671720
Cl 4.965015 -4.938138 24.671720
Cl 1.675030 1.641830 -24.678043
Cl 4.965015 4.931814 -24.678043
Cl 1.675030 4.931814 24.671720
Cl 4.965015 1.641830 24.671720
Cl 1.675030 8.221799 -24.678043
Cl 4.965015 8.221799 24.671720
Cl 1.675030 24.671720 -8.228122
Cl 1.675030 24.671720 -1.648154
Cl 4.965015 24.671720 -4.938138
Cl 1.675030 24.671720 4.931814
Cl 4.965015 24.671720 1.641830
Cl 4.965015 24.671720 8.221799
Cl 8.254999 -24.678043 -4.938138
Cl 8.254999 -24.678043 1.641830
Cl 8.254999 -24.678043 8.221799
Cl 8.254999 -8.228122 24.671720
Cl 8.254999 -4.938138 -24.678043
Cl 8.254999 -1.648154 24.671720
Cl 8.254999 1.641830 -24.678043
Cl 8.254999 4.931814 24.671720
Cl 8.254999 8.221799 -24.678043
Cl 8.254999 24.671720 -8.228122
Cl 8.254999 24.671720 -1.648154
Cl 8.254999 24.671720 4.931814
Cl 24.704920 -8.228122 -4.938138
Cl 24.704920 -8.228122 1.641830
Cl 24.704920 -8.228122 8.221799
Cl 24.704920 -4.938138 -8.228122
Cl 24.704920 -1.648154 -4.938138
Cl 24.704920 -4.938138 -1.648154
Cl 24.704920 -1.648154 1.641830
Cl 24.704920 -4.938138 4.931814
Cl 24.704920 -1.648154 8.221799
Cl 24.704920 1.641830 -8.228122
Cl 24.704920 4.931814 -4.938138
Cl 24.704920 1.641830 -1.648154
Cl 24.704920 4.931814 1.641830
Cl 24.704920 1.641830 4.931814
Cl 24.704920 4.931814 8.221799
Cl 24.704920 8.221799 -8.228122
Cl 24.704920 8.221799 -1.648154
Cl 24.704920 8.221799 4.931814
Cl -14.774891 -14.808091 11.511783
Cl -14.774891 11.511783 -14.808091
Cl 11.544983 -14.808091 -14.808091
Cl 11.544983 14.801767 14.801767
Cl -11.484906 -8.228122 21.381735
Cl -11.484906 21.381735 -8.228122
Cl 21.414936 -11.518107 -8.228122
Cl 21.414936 11.511783 8.221799
Cl -8.194922 -21.388059 11.511783
Cl -8.194922 11.511783 -21.388059
Cl 11.544983 -8.228122 -21.388059
Cl 11.544983 8.221799 21.381735
Cl -21.354859 -8.228122 11.511783
Cl -21.354859 11.511783 -8.228122
Cl 11.544983 -21.388059 -8.228122
Cl 11.544983 21.381735 8.221799
Cl -8.194922 -14.808091 18.091751
Cl -8.194922 18.091751 -14.808091
Cl 18.124951 -8.228122 -14.808091
Cl 18.124951 8.221799 14.801767
Cl -18.064875 -18.098075 -4.938138
Cl -18.064875 -4.938138 -18.098075
Cl -18.064875 4.931814 18.091751
Cl -18.064875 18.091751 4.931814
Cl -4.904938 -18.098075 -18.098075
Cl -4.904938 18.091751 18.091751
