1483
HgTe-Hg-Hg695Te602Cl186-reconstructed
Hg -16.503164 -9.869953 -6.579968
Hg -16.503164 -13.159937 -3.289984
Hg -19.793148 -9.869953 -3.289984
Hg -16.503164 -9.869953 -0.000000
Hg -16.503164 -13.159937 3.289984
Hg -19.793148 -9.869953 3.289984
Hg -16.503164 -9.869953 6.579968
Hg -16.503164 -13.159937 9.869953
Hg -19.793148 -9.869953 9.869953
Hg -16.503164 -9.869953 13.159937
Hg -16.503164 -3.289984 -13.159937
Hg -16.503164 -6.579968 -9.869953
Hg -19.793148 -3.289984 -9.869953
Hg -19.793148 -6.579968 -6.579968
Hg -16.503164 -3.289984 -6.579968
Hg -16.503164 -6.579968 -3.289984
Hg -19.793148 -3.289984 -3.289984
Hg -19.793148 -6.579968 -0.000000
Hg -16.503164 -3.289984 -0.000000
Hg -16.503164 -6.579968 3.289984
Hg -19.793148 -3.289984 3.289984
Hg -19.793148 -6.579968 6.579968
Hg -16.503164 -3.289984 6.579968
Hg -16.503164 -6.579968 9.869953
Hg -19.793148 -3.289984 9.869953
Hg -16.503164 -3.289984 13.159937
Hg -16.503164 3.289984 -13.159937
Hg -16.503164 -0.000000 -9.869953
Hg -19.793148 3.289984 -9.869953
Hg -19.793148 -0.000000 -6.579968
Hg -16.503164 3.289984 -6.579968
Hg -16.503164 -0.000000 -3.289984
Hg -19.793148 3.289984 -3.289984
Hg -19.793148 -0.000000 -0.000000
Hg -16.503164 3.289984 -0.000000
Hg -16.503164 -0.000000 3.289984
Hg -19.793148 3.289984 3.289984
Hg -19.793148 -0.000000 6.579968
Hg -16.503164 3.289984 6.579968
Hg -16.503164 -0.000000 9.869953
Hg -19.793148 3.289984 9.869953
Hg -16.503164 3.289984 13.159937
Hg -16.503164 9.869953 -13.159937
Hg -16.503164 6.579968 -9.869953
Hg -19.793148 9.869953 -9.869953
Hg -19.793148 6.579968 -6.579968
Hg -16.503164 9.869953 -6.579968
Hg -16.503164 6.579968 -3.289984
Hg -19.793148 9.869953 -3.289984
Hg -19.793148 6.579968 -0.000000
Hg -16.503164 9.869953 -0.000000
Hg -16.503164 6.579968 3.289984
Hg -19.793148 9.869953 3.289984
Hg -19.793148 6.579968 6.579968
Hg -16.503164 9.869953 6.579968
Hg -16.503164 6.579968 9.869953
Hg -16.503164 13.159937 -9.869953
Hg -16.503164 13.159937 -3.289984
Hg -16.503164 13.159937 3.289984
Hg -9.923196 -19.739905 -3.289984
Hg -13.213180 -16.449921 -3.289984
Hg -9.923196 -16.449921 -0.000000
Hg -9.923196 -19.739905 3.289984
Hg -13.213180 -16.449921 3.289984
Hg -9.923196 -16.449921 6.579968
Hg -9.923196 -19.739905 9.869953
Hg -13.213180 -16.449921 9.869953
Hg -9.923196 -16.449921 13.159937
Hg -9.923196 -9.869953 -13.159937
Hg -9.923196 -13.159937 -9.869953
Hg -13.213180 -13.159937 -6.579968
Hg -9.923196 -9.869953 -6.579968
Hg -9.923196 -13.159937 -3.289984
Hg -13.213180 -9.869953 -3.289984
Hg -13.213180 -13.159937 -0.000000
Hg -9.923196 -9.869953 -0.000000
Hg -9.923196 -13.159937 3.289984
Hg -13.213180 -9.869953 3.289984
Hg -13.213180 -13.159937 6.579968
Hg -9.923196 -9.869953 6.579968
Hg -9.923196 -13.159937 9.869953
Hg -13.213180 -9.869953 9.869953
Hg -9.923196 -9.869953 13.159937
Hg -9.923196 -13.159937 16.449921
Hg -13.213180 -9.869953 16.449921
Hg -9.923196 -9.869953 19.739905
Hg -9.923196 -3.289984 -19.739905
Hg -13.213180 -3.289984 -16.449921
Hg -13.213180 -6.579968 -13.159937
Hg -9.923196 -3.289984 -13.159937
Hg -9.923196 -6.579968 -9.869953
Hg -13.213180 -3.289984 -9.869953
Hg -13.213180 -6.579968 -6.579968
Hg -9.923196 -3.289984 -6.579968
Hg -9.923196 -6.579968 -3.289984
Hg -13.213180 -3.289984 -3.289984
Hg -13.213180 -6.579968 -0.000000
Hg -9.923196 -3.289984 -0.000000
Hg -9.923196 -6.579968 3.289984
Hg -13.213180 -3.289984 3.289984
Hg -13.213180 -6.579968 6.579968
Hg -9.923196 -3.289984 6.579968
Hg -9.923196 -6.579968 9.869953
Hg -13.213180 -3.289984 9.869953
Hg -13.213180 -6.579968 13.159937
Hg -9.923196 -3.289984 13.159937
Hg -9.923196 -6.579968 16.449921
Hg -13.213180 -3.289984 16.449921
Hg -9.923196 -3.289984 19.739905
Hg -9.923196 3.289984 -19.739905
Hg -9.923196 -0.000000 -16.449921
Hg -13.213180 3.289984 -16.449921
Hg -13.213180 -0.000000 -13.159937
Hg -9.923196 3.289984 -13.159937
Hg -9.923196 -0.000000 -9.869953
Hg -13.213180 3.289984 -9.869953
Hg -13.213180 -0.000000 -6.579968
Hg -9.923196 3.289984 -6.579968
Hg -9.923196 -0.000000 -3.289984
Hg -13.213180 3.289984 -3.289984
Hg -13.213180 -0.000000 -0.000000
Hg -9.923196 3.289984 -0.000000
Hg -9.923196 -0.000000 3.289984
Hg -13.213180 3.289984 3.289984
Hg -13.213180 -0.000000 6.579968
Hg -9.923196 3.289984 6.579968
Hg -9.923196 -0.000000 9.869953
Hg -13.213180 3.289984 9.869953
Hg -13.213180 -0.000000 13.159937
Hg -9.923196 3.289984 13.159937
Hg -9.923196 -0.000000 16.449921
Hg -13.213180 3.289984 16.449921
Hg -9.923196 3.289984 19.739905
Hg -9.923196 9.869953 -19.739905
Hg -9.923196 6.579968 -16.449921
Hg -13.213180 9.869953 -16.449921
Hg -13.213180 6.579968 -13.159937
Hg -9.923196 9.869953 -13.159937
Hg -9.923196 6.579968 -9.869953
Hg -13.213180 9.869953 -9.869953
Hg -13.213180 6.579968 -6.579968
Hg -9.923196 9.869953 -6.579968
Hg -9.923196 6.579968 -3.289984
Hg -13.213180 9.869953 -3.289984
Hg -13.213180 6.579968 -0.000000
Hg -9.923196 9.869953 0.000000
Hg -9.923196 6.579968 3.289984
Hg -13.213180 9.869953 3.289984
Hg -13.213180 6.579968 6.579968
Hg -9.923196 9.869953 6.579968
Hg -9.923196 6.579968 9.869953
Hg -13.213180 6.579968 13.159937
Hg -9.923196 9.869953 13.159937
Hg -9.923196 13.159937 -16.449921
Hg -9.923196 16.449921 -13.159937
Hg -9.923196 13.159937 -9.869953
Hg -13.213180 16.449921 -9.869953
Hg -13.213180 13.159937 -6.579968
Hg -9.923196 16.449921 -6.579968
Hg -9.923196 13.159937 -3.289984
Hg -13.213180 16.449921 -3.289984
Hg -13.213180 13.159937 0.000000
Hg -9.923196 16.449921 0.000000
Hg -9.923196 13.159937 3.289984
Hg -13.213180 16.449921 3.289984
Hg -13.213180 13.159937 6.579968
Hg -9.923196 13.159937 9.869953
Hg -9.923196 19.739905 -9.869953
Hg -9.923196 19.739905 -3.289984
Hg -9.923196 19.739905 3.289984
Hg -3.343227 -16.449921 -13.159937
Hg -3.343227 -19.739905 -9.869953
Hg -6.633212 -16.449921 -9.869953
Hg -6.633212 -19.739905 -6.579968
Hg -3.343227 -16.449921 -6.579968
Hg -3.343227 -19.739905 -3.289984
Hg -6.633212 -16.449921 -3.289984
Hg -6.633212 -19.739905 -0.000000
Hg -3.343227 -16.449921 -0.000000
Hg -3.343227 -19.739905 3.289984
Hg -6.633212 -16.449921 3.289984
Hg -6.633212 -19.739905 6.579968
Hg -3.343227 -16.449921 6.579968
Hg -3.343227 -19.739905 9.869953
Hg -6.633212 -16.449921 9.869953
Hg -3.343227 -16.449921 13.159937
Hg -3.343227 -9.869953 -19.739905
Hg -3.343227 -13.159937 -16.449921
Hg -6.633212 -9.869953 -16.449921
Hg -3.343227 -9.869953 -13.159937
Hg -3.343227 -13.159937 -9.869953
Hg -6.633212 -9.869953 -9.869953
Hg -6.633212 -13.159937 -6.579968
Hg -3.343227 -9.869953 -6.579968
Hg -3.343227 -13.159937 -3.289984
Hg -6.633212 -9.869953 -3.289984
Hg -6.633212 -13.159937 -0.000000
Hg -3.343227 -9.869953 -0.000000
Hg -3.343227 -13.159937 3.289984
Hg -6.633212 -9.869953 3.289984
Hg -6.633212 -13.159937 6.579968
Hg -3.343227 -9.869953 6.579968
Hg -3.343227 -13.159937 9.869953
Hg -6.633212 -9.869953 9.869953
Hg -6.633212 -13.159937 13.159937
Hg -3.343227 -9.869953 13.159937
Hg -3.343227 -13.159937 16.449921
Hg -6.633212 -9.869953 16.449921
Hg -3.343227 -9.869953 19.739905
Hg -6.633212 -6.579968 -19.739905
Hg -3.343227 -3.289984 -19.739905
Hg -3.343227 -6.579968 -16.449921
Hg -6.633212 -3.289984 -16.449921
Hg -6.633212 -6.579968 -13.159937
Hg -3.343227 -3.289984 -13.159937
Hg -3.343227 -6.579968 -9.869953
Hg -6.633212 -3.289984 -9.869953
Hg -6.633212 -6.579968 -6.579968
Hg -3.343227 -3.289984 -6.579968
Hg -3.343227 -6.579968 -3.289984
Hg -6.633212 -3.289984 -3.289984
Hg -6.633212 -6.579968 -0.000000
Hg -3.343227 -3.289984 -0.000000
Hg -3.343227 -6.579968 3.289984
Hg -6.633212 -3.289984 3.289984
Hg -6.633212 -6.579968 6.579968
Hg -3.343227 -3.289984 6.579968
Hg -3.343227 -6.579968 9.869953
Hg -6.633212 -3.289984 9.869953
Hg -6.633212 -6.579968 13.159937
Hg -3.343227 -3.289984 13.159937
Hg -3.343227 -6.579968 16.449921
Hg -6.633212 -3.289984 16.449921
Hg -6.633212 -6.579968 19.739905
Hg -3.343227 -3.289984 19.739905
Hg -6.633212 -0.000000 -19.739905
Hg -3.343227 3.289984 -19.739905
Hg -3.343227 -0.000000 -16.449921
Hg -6.633212 3.289984 -16.449921
Hg -6.633212 -0.000000 -13.159937
Hg -3.343227 3.289984 -13.159937
Hg -3.343227 -0.000000 -9.869953
Hg -6.633212 3.289984 -9.869953
Hg -6.633212 -0.000000 -6.579968
Hg -3.343227 3.289984 -6.579968
Hg -3.343227 -0.000000 -3.289984
Hg -6.633212 3.289984 -3.289984
Hg -6.633212 -0.000000 -0.000000
Hg -3.343227 3.289984 0.000000
Hg -3.343227 -0.000000 3.289984
Hg -6.633212 3.289984 3.289984
Hg -6.633212 -0.000000 6.579968
Hg -3.343227 3.289984 6.579968
Hg -3.343227 -0.000000 9.869953
Hg -6.633212 3.289984 9.869953
Hg -6.633212 -0.000000 13.159937
Hg -3.343227 3.289984 13.159937
Hg -3.343227 -0.000000 16.449921
Hg -6.633212 3.289984 16.449921
Hg -6.633212 -0.000000 19.739905
Hg -3.343227 3.289984 19.739905
Hg -6.633212 6.579968 -19.739905
Hg -3.343227 9.869953 -19.739905
Hg -3.343227 6.579968 -16.449921
Hg -6.633212 9.869953 -16.449921
Hg -6.633212 6.579968 -13.159937
Hg -3.343227 9.869953 -13.159937
Hg -3.343227 6.579968 -9.869953
Hg -6.633212 9.869953 -9.869953
Hg -6.633212 6.579968 -6.579968
Hg -3.343227 9.869953 -6.579968
Hg -3.343227 6.579968 -3.289984
Hg -6.633212 9.869953 -3.289984
Hg -6.633212 6.579968 0.000000
Hg -3.343227 9.869953 0.000000
Hg -3.343227 6.579968 3.289984
Hg -6.633212 9.869953 3.289984
Hg -6.633212 6.579968 6.579968
Hg -3.343227 9.869953 6.579968
Hg -3.343227 6.579968 9.869953
Hg -6.633212 9.869953 9.869953
Hg -6.633212 6.579968 13.159937
Hg -3.343227 9.869953 13.159937
Hg -3.343227 6.579968 16.449921
Hg -6.633212 9.869953 16.449921
Hg -6.633212 6.579968 19.739905
Hg -3.343227 9.869953 19.739905
Hg -3.343227 13.159937 -16.449921
Hg -6.633212 13.159937 -13.159937
Hg -3.343227 16.449921 -13.159937
Hg -3.343227 13.159937 -9.869953
Hg -6.633212 16.449921 -9.869953
Hg -6.633212 13.159937 -6.579968
Hg -3.343227 16.449921 -6.579968
Hg -3.343227 13.159937 -3.289984
Hg -6.633212 16.449921 -3.289984
Hg -6.633212 13.159937 0.000000
Hg -3.343227 16.449921 0.000000
Hg -3.343227 13.159937 3.289984
Hg -6.633212 16.449921 3.289984
Hg -6.633212 13.159937 6.579968
Hg -3.343227 16.449921 6.579968
Hg -3.343227 13.159937 9.869953
Hg -6.633212 16.449921 9.869953
Hg -3.343227 16.449921 13.159937
Hg -3.343227 13.159937 16.449921
Hg -3.343227 19.739905 -9.869953
Hg -6.633212 19.739905 -6.579968
Hg -3.343227 19.739905 -3.289984
Hg -6.633212 19.739905 0.000000
Hg -3.343227 19.739905 3.289984
Hg -6.633212 19.739905 6.579968
Hg -3.343227 19.739905 9.869953
Hg 3.236741 -16.449921 -13.159937
Hg 3.236741 -19.739905 -9.869953
Hg -0.053243 -16.449921 -9.869953
Hg -0.053243 -19.739905 -6.579968
Hg 3.236741 -16.449921 -6.579968
Hg 3.236741 -19.739905 -3.289984
Hg -0.053243 -16.449921 -3.289984
Hg -0.053243 -19.739905 -0.000000
Hg 3.236741 -16.449921 -0.000000
Hg 3.236741 -19.739905 3.289984
Hg -0.053243 -16.449921 3.289984
Hg -0.053243 -19.739905 6.579968
Hg 3.236741 -16.449921 6.579968
Hg 3.236741 -19.739905 9.869953
Hg -0.053243 -16.449921 9.869953
Hg 3.236741 -16.449921 13.159937
Hg 3.236741 -9.869953 -19.739905
Hg 3.236741 -13.159937 -16.449921
Hg -0.053243 -9.869953 -16.449921
Hg -0.053243 -13.159937 -13.159937
Hg 3.236741 -9.869953 -13.159937
Hg 3.236741 -13.159937 -9.869953
Hg -0.053243 -9.869953 -9.869953
Hg -0.053243 -13.159937 -6.579968
Hg 3.236741 -9.869953 -6.579968
Hg 3.236741 -13.159937 -3.289984
Hg -0.053243 -9.869953 -3.289984
Hg -0.053243 -13.159937 -0.000000
Hg 3.236741 -9.869953 -0.000000
Hg 3.236741 -13.159937 3.289984
Hg -0.053243 -9.869953 3.289984
Hg -0.053243 -13.159937 6.579968
Hg 3.236741 -9.869953 6.579968
Hg 3.236741 -13.159937 9.869953
Hg -0.053243 -9.869953 9.869953
Hg -0.053243 -13.159937 13.159937
Hg 3.236741 -9.869953 13.159937
Hg 3.236741 -13.159937 16.449921
Hg -0.053243 -9.869953 16.449921
Hg 3.236741 -9.869953 19.739905
Hg -0.053243 -6.579968 -19.739905
Hg 3.236741 -3.289984 -19.739905
Hg 3.236741 -6.579968 -16.449921
Hg -0.053243 -3.289984 -16.449921
Hg -0.053243 -6.579968 -13.159937
Hg 3.236741 -3.289984 -13.159937
Hg 3.236741 -6.579968 -9.869953
Hg -0.053243 -3.289984 -9.869953
Hg -0.053243 -6.579968 -6.579968
Hg 3.236741 -3.289984 -6.579968
Hg 3.236741 -6.579968 -3.289984
Hg -0.053243 -3.289984 -3.289984
Hg -0.053243 -6.579968 -0.000000
Hg 3.236741 -3.289984 0.000000
Hg 3.236741 -6.579968 3.289984
Hg -0.053243 -3.289984 3.289984
Hg -0.053243 -6.579968 6.579968
Hg 3.236741 -3.289984 6.579968
Hg 3.236741 -6.579968 9.869953
Hg -0.053243 -3.289984 9.869953
Hg -0.053243 -6.579968 13.159937
Hg 3.236741 -3.289984 13.159937
Hg 3.236741 -6.579968 16.449921
Hg -0.053243 -3.289984 16.449921
Hg -0.053243 -6.579968 19.739905
Hg 3.236741 -3.289984 19.739905
Hg -0.053243 -0.000000 -19.739905
Hg 3.236741 3.289984 -19.739905
Hg 3.236741 -0.000000 -16.449921
Hg -0.053243 3.289984 -16.449921
Hg -0.053243 -0.000000 -13.159937
Hg 3.236741 3.289984 -13.159937
Hg 3.236741 -0.000000 -9.869953
Hg -0.053243 3.289984 -9.869953
Hg -0.053243 -0.000000 -6.579968
Hg 3.236741 3.289984 -6.579968
Hg 3.236741 -0.000000 -3.289984
Hg -0.053243 3.289984 -3.289984
Hg -0.053243 -0.000000 0.000000
Hg 3.236741 3.289984 0.000000
Hg 3.236741 -0.000000 3.289984
Hg -0.053243 3.289984 3.289984
Hg -0.053243 -0.000000 6.579968
Hg 3.236741 3.289984 6.579968
Hg 3.236741 -0.000000 9.869953
Hg -0.053243 3.289984 9.869953
Hg -0.053243 -0.000000 13.159937
Hg 3.236741 3.289984 13.159937
Hg 3.236741 -0.000000 16.449921
Hg -0.053243 3.289984 16.449921
Hg -0.053243 -0.000000 19.739905
Hg 3.236741 3.289984 19.739905
Hg -0.053243 6.579968 -19.739905
Hg 3.236741 9.869953 -19.739905
Hg 3.236741 6.579968 -16.449921
Hg -0.053243 9.869953 -16.449921
Hg -0.053243 6.579968 -13.159937
Hg 3.236741 9.869953 -13.159937
Hg 3.236741 6.579968 -9.869953
Hg -0.053243 9.869953 -9.869953
Hg -0.053243 6.579968 -6.579968
Hg 3.236741 9.869953 -6.579968
Hg 3.236741 6.579968 -3.289984
Hg -0.053243 9.869953 -3.289984
Hg -0.053243 6.579968 0.000000
Hg 3.236741 9.869953 0.000000
Hg 3.236741 6.579968 3.289984
Hg -0.053243 9.869953 3.289984
Hg -0.053243 6.579968 6.579968
Hg 3.236741 9.869953 6.579968
Hg 3.236741 6.579968 9.869953
Hg -0.053243 9.869953 9.869953
Hg -0.053243 6.579968 13.159937
Hg 3.236741 9.869953 13.159937
Hg 3.236741 6.579968 16.449921
Hg -0.053243 9.869953 16.449921
Hg -0.053243 6.579968 19.739905
Hg 3.236741 9.869953 19.739905
Hg 3.236741 13.159937 -16.449921
Hg -0.053243 13.159937 -13.159937
Hg 3.236741 16.449921 -13.159937
Hg 3.236741 13.159937 -9.869953
Hg -0.053243 16.449921 -9.869953
Hg -0.053243 13.159937 -6.579968
Hg 3.236741 16.449921 -6.579968
Hg 3.236741 13.159937 -3.289984
Hg -0.053243 16.449921 -3.289984
Hg -0.053243 13.159937 0.000000
Hg 3.236741 16.449921 0.000000
Hg 3.236741 13.159937 3.289984
Hg -0.053243 16.449921 3.289984
Hg -0.053243 13.159937 6.579968
Hg 3.236741 16.449921 6.579968
Hg 3.236741 13.159937 9.869953
Hg -0.053243 16.449921 9.869953
Hg -0.053243 13.159937 13.159937
Hg 3.236741 16.449921 13.159937
Hg 3.236741 13.159937 16.449921
Hg 3.236741 19.739905 -9.869953
Hg -0.053243 19.739905 -6.579968
Hg 3.236741 19.739905 -3.289984
Hg -0.053243 19.739905 0.000000
Hg 3.236741 19.739905 3.289984
Hg -0.053243 19.739905 6.579968
Hg 3.236741 19.739905 9.869953
Hg 9.816709 -16.449921 -13.159937
Hg 9.816709 -19.739905 -9.869953
Hg 6.526725 -16.449921 -9.869953
Hg 6.526725 -19.739905 -6.579968
Hg 9.816709 -16.449921 -6.579968
Hg 9.816709 -19.739905 -3.289984
Hg 6.526725 -16.449921 -3.289984
Hg 6.526725 -19.739905 -0.000000
Hg 9.816709 -16.449921 -0.000000
Hg 9.816709 -19.739905 3.289984
Hg 6.526725 -16.449921 3.289984
Hg 6.526725 -19.739905 6.579968
Hg 6.526725 -16.449921 9.869953
Hg 9.816709 -9.869953 -19.739905
Hg 9.816709 -13.159937 -16.449921
Hg 6.526725 -9.869953 -16.449921
Hg 6.526725 -13.159937 -13.159937
Hg 9.816709 -9.869953 -13.159937
Hg 9.816709 -13.159937 -9.869953
Hg 6.526725 -9.869953 -9.869953
Hg 6.526725 -13.159937 -6.579968
Hg 9.816709 -9.869953 -6.579968
Hg 9.816709 -13.159937 -3.289984
Hg 6.526725 -9.869953 -3.289984
Hg 6.526725 -13.159937 -0.000000
Hg 9.816709 -9.869953 0.000000
Hg 9.816709 -13.159937 3.289984
Hg 6.526725 -9.869953 3.289984
Hg 6.526725 -13.159937 6.579968
Hg 9.816709 -9.869953 6.579968
Hg 9.816709 -13.159937 9.869953
Hg 6.526725 -9.869953 9.869953
Hg 9.816709 -9.869953 13.159937
Hg 6.526725 -9.869953 16.449921
Hg 6.526725 -6.579968 -19.739905
Hg 9.816709 -3.289984 -19.739905
Hg 9.816709 -6.579968 -16.449921
Hg 6.526725 -3.289984 -16.449921
Hg 6.526725 -6.579968 -13.159937
Hg 9.816709 -3.289984 -13.159937
Hg 9.816709 -6.579968 -9.869953
Hg 6.526725 -3.289984 -9.869953
Hg 6.526725 -6.579968 -6.579968
Hg 9.816709 -3.289984 -6.579968
Hg 9.816709 -6.579968 -3.289984
Hg 6.526725 -3.289984 -3.289984
Hg 6.526725 -6.579968 0.000000
Hg 9.816709 -3.289984 0.000000
Hg 9.816709 -6.579968 3.289984
Hg 6.526725 -3.289984 3.289984
Hg 6.526725 -6.579968 6.579968
Hg 9.816709 -3.289984 6.579968
Hg 9.816709 -6.579968 9.869953
Hg 6.526725 -3.289984 9.869953
Hg 6.526725 -6.579968 13.159937
Hg 9.816709 -3.289984 13.159937
Hg 6.526725 -3.289984 16.449921
Hg 6.526725 -6.579968 19.739905
Hg 9.816709 -3.289984 19.739905
Hg 6.526725 -0.000000 -19.739905
Hg 9.816709 3.289984 -19.739905
Hg 9.816709 -0.000000 -16.449921
Hg 6.526725 3.289984 -16.449921
Hg 6.526725 -0.000000 -13.159937
Hg 9.816709 3.289984 -13.159937
Hg 9.816709 -0.000000 -9.869953
Hg 6.526725 3.289984 -9.869953
Hg 6.526725 -0.000000 -6.579968
Hg 9.816709 3.289984 -6.579968
Hg 9.816709 -0.000000 -3.289984
Hg 6.526725 3.289984 -3.289984
Hg 6.526725 -0.000000 0.000000
Hg 9.816709 3.289984 0.000000
Hg 9.816709 -0.000000 3.289984
Hg 6.526725 3.289984 3.289984
Hg 6.526725 -0.000000 6.579968
Hg 9.816709 3.289984 6.579968
Hg 9.816709 -0.000000 9.869953
Hg 6.526725 3.289984 9.869953
Hg 6.526725 -0.000000 13.159937
Hg 9.816709 3.289984 13.159937
Hg 9.816709 -0.000000 16.449921
Hg 6.526725 3.289984 16.449921
Hg 6.526725 -0.000000 19.739905
Hg 9.816709 3.289984 19.739905
Hg 6.526725 6.579968 -19.739905
Hg 6.526725 9.869953 -16.449921
Hg 6.526725 6.579968 -13.159937
Hg 9.816709 9.869953 -13.159937
Hg 9.816709 6.579968 -9.869953
Hg 6.526725 9.869953 -9.869953
Hg 6.526725 6.579968 -6.579968
Hg 9.816709 9.869953 -6.579968
Hg 9.816709 6.579968 -3.289984
Hg 6.526725 9.869953 -3.289984
Hg 6.526725 6.579968 0.000000
Hg 9.816709 9.869953 0.000000
Hg 9.816709 6.579968 3.289984
Hg 6.526725 9.869953 3.289984
Hg 6.526725 6.579968 6.579968
Hg 9.816709 9.869953 6.579968
Hg 9.816709 6.579968 9.869953
Hg 6.526725 9.869953 9.869953
Hg 6.526725 6.579968 13.159937
Hg 9.816709 9.869953 13.159937
Hg 9.816709 6.579968 16.449921
Hg 6.526725 9.869953 16.449921
Hg 6.526725 6.579968 19.739905
Hg 9.816709 9.869953 19.739905
Hg 9.816709 13.159937 -9.869953
Hg 6.526725 16.449921 -9.869953
Hg 6.526725 13.159937 -6.579968
Hg 9.816709 13.159937 -3.289984
Hg 6.526725 16.449921 -3.289984
Hg 6.526725 13.159937 0.000000
Hg 9.816709 16.449921 0.000000
Hg 9.816709 13.159937 3.289984
Hg 6.526725 16.449921 3.289984
Hg 6.526725 13.159937 6.579968
Hg 9.816709 16.449921 6.579968
Hg 9.816709 13.159937 9.869953
Hg 6.526725 16.449921 9.869953
Hg 6.526725 13.159937 13.159937
Hg 9.816709 16.449921 13.159937
Hg 9.816709 13.159937 16.449921
Hg 6.526725 19.739905 -6.579968
Hg 9.816709 19.739905 -3.289984
Hg 6.526725 19.739905 0.000000
Hg 9.816709 19.739905 3.289984
Hg 6.526725 19.739905 6.579968
Hg 9.816709 19.739905 9.869953
Hg 13.106694 -16.449921 -9.869953
Hg 13.106694 -16.449921 -3.289984
Hg 13.106694 -16.449921 3.289984
Hg 13.106694 -9.869953 -16.449921
Hg 16.396678 -9.869953 -13.159937
Hg 16.396678 -13.159937 -9.869953
Hg 13.106694 -9.869953 -9.869953
Hg 13.106694 -13.159937 -6.579968
Hg 16.396678 -9.869953 -6.579968
Hg 16.396678 -13.159937 -3.289984
Hg 13.106694 -9.869953 -3.289984
Hg 13.106694 -13.159937 0.000000
Hg 16.396678 -9.869953 0.000000
Hg 16.396678 -13.159937 3.289984
Hg 13.106694 -9.869953 3.289984
Hg 13.106694 -13.159937 6.579968
Hg 16.396678 -9.869953 6.579968
Hg 13.106694 -3.289984 -16.449921
Hg 13.106694 -6.579968 -13.159937
Hg 16.396678 -3.289984 -13.159937
Hg 16.396678 -6.579968 -9.869953
Hg 13.106694 -3.289984 -9.869953
Hg 13.106694 -6.579968 -6.579968
Hg 16.396678 -3.289984 -6.579968
Hg 16.396678 -6.579968 -3.289984
Hg 13.106694 -3.289984 -3.289984
Hg 13.106694 -6.579968 0.000000
Hg 16.396678 -3.289984 0.000000
Hg 16.396678 -6.579968 3.289984
Hg 13.106694 -3.289984 3.289984
Hg 13.106694 -6.579968 6.579968
Hg 16.396678 -3.289984 6.579968
Hg 16.396678 -6.579968 9.869953
Hg 13.106694 -3.289984 9.869953
Hg 13.106694 -6.579968 13.159937
Hg 16.396678 -3.289984 13.159937
Hg 13.106694 -3.289984 16.449921
Hg 13.106694 3.289984 -16.449921
Hg 13.106694 -0.000000 -13.159937
Hg 16.396678 3.289984 -13.159937
Hg 16.396678 -0.000000 -9.869953
Hg 13.106694 3.289984 -9.869953
Hg 13.106694 -0.000000 -6.579968
Hg 16.396678 3.289984 -6.579968
Hg 16.396678 -0.000000 -3.289984
Hg 13.106694 3.289984 -3.289984
Hg 13.106694 -0.000000 0.000000
Hg 16.396678 3.289984 0.000000
Hg 16.396678 -0.000000 3.289984
Hg 13.106694 3.289984 3.289984
Hg 13.106694 -0.000000 6.579968
Hg 16.396678 3.289984 6.579968
Hg 16.396678 -0.000000 9.869953
Hg 13.106694 3.289984 9.869953
Hg 13.106694 -0.000000 13.159937
Hg 16.396678 3.289984 13.159937
Hg 13.106694 3.289984 16.449921
Hg 13.106694 6.579968 -13.159937
Hg 16.396678 6.579968 -9.869953
Hg 13.106694 6.579968 -6.579968
Hg 16.396678 9.869953 -6.579968
Hg 16.396678 6.579968 -3.289984
Hg 13.106694 9.869953 -3.289984
Hg 13.106694 6.579968 0.000000
Hg 16.396678 9.869953 0.000000
Hg 16.396678 6.579968 3.289984
Hg 13.106694 9.869953 3.289984
Hg 13.106694 6.579968 6.579968
Hg 16.396678 9.869953 6.579968
Hg 16.396678 6.579968 9.869953
Hg 13.106694 9.869953 9.869953
Hg 13.106694 6.579968 13.159937
Hg 16.396678 9.869953 13.159937
Hg 13.106694 9.869953 16.449921
Hg 13.106694 13.159937 -6.579968
Hg 16.396678 13.159937 -3.289984
Hg 13.106694 16.449921 -3.289984
Hg 13.106694 13.159937 0.000000
Hg 16.396678 13.159937 3.289984
Hg 13.106694 16.449921 3.289984
Hg 13.106694 13.159937 6.579968
Hg 16.396678 13.159937 9.869953
Hg 13.106694 16.449921 9.869953
Hg 19.686662 -9.869953 -9.869953
Hg 19.686662 -9.869953 -3.289984
Hg 19.686662 -9.869953 3.289984
Hg 19.686662 -3.289984 -9.869953
Hg 19.686662 -6.579968 -6.579968
Hg 19.686662 -3.289984 -3.289984
Hg 19.686662 -6.579968 0.000000
Hg 19.686662 -3.289984 3.289984
Hg 19.686662 -6.579968 6.579968
Hg 19.686662 -3.289984 9.869953
Hg 19.686662 3.289984 -9.869953
Hg 19.686662 -0.000000 -6.579968
Hg 19.686662 3.289984 -3.289984
Hg 19.686662 -0.000000 0.000000
Hg 19.686662 3.289984 3.289984
Hg 19.686662 -0.000000 6.579968
Hg 19.686662 3.289984 9.869953
Hg 19.686662 6.579968 -6.579968
Hg 19.686662 9.869953 -3.289984
Hg 19.686662 6.579968 0.000000
Hg 19.686662 9.869953 3.289984
Hg 19.686662 6.579968 6.579968
Hg 19.686662 9.869953 9.869953
Te -14.858172 -14.804929 -4.934976
Te -14.858172 -14.804929 1.644992
Te -18.148156 -8.224961 -8.224961
Te -18.148156 -8.224961 -1.644992
Te -14.858172 -8.224961 -4.934976
Te -14.858172 -11.514945 -1.644992
Te -18.148156 -11.514945 1.644992
Te -18.148156 -8.224961 4.934976
Te -14.858172 -8.224961 1.644992
Te -14.858172 -11.514945 4.934976
Te -18.148156 -11.514945 8.224961
Te -18.148156 -8.224961 11.514945
Te -14.858172 -8.224961 8.224961
Te -14.858172 -11.514945 11.514945
Te -14.858172 -4.934976 -14.804929
Te -18.148156 -1.644992 -8.224961
Te -14.858172 -1.644992 -11.514945
Te -14.858172 -4.934976 -8.224961
Te -18.148156 -4.934976 -4.934976
Te -18.148156 -1.644992 -1.644992
Te -14.858172 -1.644992 -4.934976
Te -14.858172 -4.934976 -1.644992
Te -18.148156 -4.934976 1.644992
Te -18.148156 -1.644992 4.934976
Te -14.858172 -1.644992 1.644992
Te -14.858172 -4.934976 4.934976
Te -18.148156 -4.934976 8.224961
Te -18.148156 -1.644992 11.514945
Te -14.858172 -1.644992 8.224961
Te -14.858172 -4.934976 11.514945
Te -14.858172 -1.644992 14.804929
Te -14.858172 1.644992 -14.804929
Te -18.148156 1.644992 -11.514945
Te -18.148156 4.934976 -8.224961
Te -14.858172 4.934976 -11.514945
Te -14.858172 1.644992 -8.224961
Te -18.148156 1.644992 -4.934976
Te -18.148156 4.934976 -1.644992
Te -14.858172 4.934976 -4.934976
Te -14.858172 1.644992 -1.644992
Te -18.148156 1.644992 1.644992
Te -18.148156 4.934976 4.934976
Te -14.858172 4.934976 1.644992
Te -14.858172 1.644992 4.934976
Te -18.148156 1.644992 8.224961
Te -14.858172 4.934976 8.224961
Te -14.858172 1.644992 11.514945
Te -14.858172 4.934976 14.804929
Te -14.858172 8.224961 -14.804929
Te -18.148156 8.224961 -11.514945
Te -18.148156 11.514945 -8.224961
Te -14.858172 11.514945 -11.514945
Te -14.858172 8.224961 -8.224961
Te -18.148156 8.224961 -4.934976
Te -18.148156 11.514945 -1.644992
Te -14.858172 11.514945 -4.934976
Te -14.858172 8.224961 -1.644992
Te -18.148156 8.224961 1.644992
Te -14.858172 11.514945 1.644992
Te -14.858172 8.224961 4.934976
Te -18.148156 8.224961 8.224961
Te -14.858172 14.804929 -8.224961
Te -14.858172 14.804929 -1.644992
Te -14.858172 14.804929 4.934976
Te -11.568188 -14.804929 -1.644992
Te -8.278204 -14.804929 -4.934976
Te -8.278204 -18.094913 -1.644992
Te -11.568188 -18.094913 1.644992
Te -11.568188 -14.804929 4.934976
Te -8.278204 -14.804929 1.644992
Te -8.278204 -18.094913 4.934976
Te -11.568188 -18.094913 8.224961
Te -11.568188 -14.804929 11.514945
Te -8.278204 -14.804929 8.224961
Te -8.278204 -18.094913 11.514945
Te -11.568188 -8.224961 -8.224961
Te -8.278204 -8.224961 -11.514945
Te -8.278204 -11.514945 -8.224961
Te -11.568188 -11.514945 -4.934976
Te -11.568188 -8.224961 -1.644992
Te -8.278204 -8.224961 -4.934976
Te -8.278204 -11.514945 -1.644992
Te -11.568188 -11.514945 1.644992
Te -11.568188 -8.224961 4.934976
Te -8.278204 -8.224961 1.644992
Te -8.278204 -11.514945 4.934976
Te -11.568188 -11.514945 8.224961
Te -11.568188 -8.224961 11.514945
Te -8.278204 -8.224961 8.224961
Te -8.278204 -11.514945 11.514945
Te -11.568188 -11.514945 14.804929
Te -11.568188 -8.224961 18.094913
Te -8.278204 -8.224961 14.804929
Te -8.278204 -11.514945 18.094913
Te -11.568188 -1.644992 -14.804929
Te -8.278204 -1.644992 -18.094913
Te -8.278204 -4.934976 -14.804929
Te -11.568188 -4.934976 -11.514945
Te -11.568188 -1.644992 -8.224961
Te -8.278204 -1.644992 -11.514945
Te -8.278204 -4.934976 -8.224961
Te -11.568188 -4.934976 -4.934976
Te -11.568188 -1.644992 -1.644992
Te -8.278204 -1.644992 -4.934976
Te -8.278204 -4.934976 -1.644992
Te -11.568188 -4.934976 1.644992
Te -11.568188 -1.644992 4.934976
Te -8.278204 -1.644992 1.644992
Te -8.278204 -4.934976 4.934976
Te -11.568188 -4.934976 8.224961
Te -11.568188 -1.644992 11.514945
Te -8.278204 -1.644992 8.224961
Te -8.278204 -4.934976 11.514945
Te -11.568188 -4.934976 14.804929
Te -11.568188 -1.644992 18.094913
Te -8.278204 -1.644992 14.804929
Te -8.278204 -4.934976 18.094913
Te -11.568188 1.644992 -18.094913
Te -11.568188 4.934976 -14.804929
Te -8.278204 4.934976 -18.094913
Te -8.278204 1.644992 -14.804929
Te -11.568188 1.644992 -11.514945
Te -11.568188 4.934976 -8.224961
Te -8.278204 4.934976 -11.514945
Te -8.278204 1.644992 -8.224961
Te -11.568188 1.644992 -4.934976
Te -11.568188 4.934976 -1.644992
Te -8.278204 4.934976 -4.934976
Te -8.278204 1.644992 -1.644992
Te -11.568188 1.644992 1.644992
Te -11.568188 4.934976 4.934976
Te -8.278204 4.934976 1.644992
Te -8.278204 1.644992 4.934976
Te -11.568188 1.644992 8.224961
Te -11.568188 4.934976 11.514945
Te -8.278204 4.934976 8.224961
Te -8.278204 1.644992 11.514945
Te -11.568188 1.644992 14.804929
Te -8.278204 4.934976 14.804929
Te -8.278204 1.644992 18.094913
Te -11.568188 8.224961 -18.094913
Te -11.568188 11.514945 -14.804929
Te -8.278204 11.514945 -18.094913
Te -8.278204 8.224961 -14.804929
Te -11.568188 8.224961 -11.514945
Te -11.568188 11.514945 -8.224961
Te -8.278204 11.514945 -11.514945
Te -8.278204 8.224961 -8.224961
Te -11.568188 8.224961 -4.934976
Te -11.568188 11.514945 -1.644992
Te -8.278204 11.514945 -4.934976
Te -8.278204 8.224961 -1.644992
Te -11.568188 8.224961 1.644992
Te -11.568188 11.514945 4.934976
Te -8.278204 11.514945 1.644992
Te -8.278204 8.224961 4.934976
Te -11.568188 8.224961 8.224961
Te -8.278204 11.514945 8.224961
Te -8.278204 8.224961 11.514945
Te -11.568188 14.804929 -11.514945
Te -11.568188 18.094913 -8.224961
Te -8.278204 18.094913 -11.514945
Te -8.278204 14.804929 -8.224961
Te -11.568188 14.804929 -4.934976
Te -11.568188 18.094913 -1.644992
Te -8.278204 18.094913 -4.934976
Te -8.278204 14.804929 -1.644992
Te -11.568188 14.804929 1.644992
Te -8.278204 18.094913 1.644992
Te -8.278204 14.804929 4.934976
Te -4.988219 -18.094913 -11.514945
Te -4.988219 -14.804929 -8.224961
Te -1.698235 -14.804929 -11.514945
Te -1.698235 -18.094913 -8.224961
Te -4.988219 -18.094913 -4.934976
Te -4.988219 -14.804929 -1.644992
Te -1.698235 -14.804929 -4.934976
Te -1.698235 -18.094913 -1.644992
Te -4.988219 -18.094913 1.644992
Te -4.988219 -14.804929 4.934976
Te -1.698235 -14.804929 1.644992
Te -1.698235 -18.094913 4.934976
Te -4.988219 -18.094913 8.224961
Te -4.988219 -14.804929 11.514945
Te -1.698235 -14.804929 8.224961
Te -1.698235 -18.094913 11.514945
Te -1.698235 -14.804929 14.804929
Te -4.988219 -11.514945 -18.094913
Te -4.988219 -8.224961 -14.804929
Te -1.698235 -8.224961 -18.094913
Te -1.698235 -11.514945 -14.804929
Te -4.988219 -11.514945 -11.514945
Te -4.988219 -8.224961 -8.224961
Te -1.698235 -8.224961 -11.514945
Te -1.698235 -11.514945 -8.224961
Te -4.988219 -11.514945 -4.934976
Te -4.988219 -8.224961 -1.644992
Te -1.698235 -8.224961 -4.934976
Te -1.698235 -11.514945 -1.644992
Te -4.988219 -11.514945 1.644992
Te -4.988219 -8.224961 4.934976
Te -1.698235 -8.224961 1.644992
Te -1.698235 -11.514945 4.934976
Te -4.988219 -11.514945 8.224961
Te -4.988219 -8.224961 11.514945
Te -1.698235 -8.224961 8.224961
Te -1.698235 -11.514945 11.514945
Te -4.988219 -11.514945 14.804929
Te -4.988219 -8.224961 18.094913
Te -1.698235 -8.224961 14.804929
Te -1.698235 -11.514945 18.094913
Te -4.988219 -4.934976 -18.094913
Te -4.988219 -1.644992 -14.804929
Te -1.698235 -1.644992 -18.094913
Te -1.698235 -4.934976 -14.804929
Te -4.988219 -4.934976 -11.514945
Te -4.988219 -1.644992 -8.224961
Te -1.698235 -1.644992 -11.514945
Te -1.698235 -4.934976 -8.224961
Te -4.988219 -4.934976 -4.934976
Te -4.988219 -1.644992 -1.644992
Te -1.698235 -1.644992 -4.934976
Te -1.698235 -4.934976 -1.644992
Te -4.988219 -4.934976 1.644992
Te -4.988219 -1.644992 4.934976
Te -1.698235 -1.644992 1.644992
Te -1.698235 -4.934976 4.934976
Te -4.988219 -4.934976 8.224961
Te -4.988219 -1.644992 11.514945
Te -1.698235 -1.644992 8.224961
Te -1.698235 -4.934976 11.514945
Te -4.988219 -4.934976 14.804929
Te -4.988219 -1.644992 18.094913
Te -1.698235 -1.644992 14.804929
Te -1.698235 -4.934976 18.094913
Te -4.988219 1.644992 -18.094913
Te -4.988219 4.934976 -14.804929
Te -1.698235 4.934976 -18.094913
Te -1.698235 1.644992 -14.804929
Te -4.988219 1.644992 -11.514945
Te -4.988219 4.934976 -8.224961
Te -1.698235 4.934976 -11.514945
Te -1.698235 1.644992 -8.224961
Te -4.988219 1.644992 -4.934976
Te -4.988219 4.934976 -1.644992
Te -1.698235 4.934976 -4.934976
Te -1.698235 1.644992 -1.644992
Te -4.988219 1.644992 1.644992
Te -4.988219 4.934976 4.934976
Te -1.698235 4.934976 1.644992
Te -1.698235 1.644992 4.934976
Te -4.988219 1.644992 8.224961
Te -4.988219 4.934976 11.514945
Te -1.698235 4.934976 8.224961
Te -1.698235 1.644992 11.514945
Te -4.988219 1.644992 14.804929
Te -4.988219 4.934976 18.094913
Te -1.698235 4.934976 14.804929
Te -1.698235 1.644992 18.094913
Te -4.988219 8.224961 -18.094913
Te -4.988219 11.514945 -14.804929
Te -1.698235 11.514945 -18.094913
Te -1.698235 8.224961 -14.804929
Te -4.988219 8.224961 -11.514945
Te -4.988219 11.514945 -8.224961
Te -1.698235 11.514945 -11.514945
Te -1.698235 8.224961 -8.224961
Te -4.988219 8.224961 -4.934976
Te -4.988219 11.514945 -1.644992
Te -1.698235 11.514945 -4.934976
Te -1.698235 8.224961 -1.644992
Te -4.988219 8.224961 1.644992
Te -4.988219 11.514945 4.934976
Te -1.698235 11.514945 1.644992
Te -1.698235 8.224961 4.934976
Te -4.988219 8.224961 8.224961
Te -4.988219 11.514945 11.514945
Te -1.698235 11.514945 8.224961
Te -1.698235 8.224961 11.514945
Te -4.988219 8.224961 14.804929
Te -4.988219 11.514945 18.094913
Te -1.698235 11.514945 14.804929
Te -1.698235 8.224961 18.094913
Te -1.698235 14.804929 -14.804929
Te -4.988219 14.804929 -11.514945
Te -4.988219 18.094913 -8.224961
Te -1.698235 18.094913 -11.514945
Te -1.698235 14.804929 -8.224961
Te -4.988219 14.804929 -4.934976
Te -4.988219 18.094913 -1.644992
Te -1.698235 18.094913 -4.934976
Te -1.698235 14.804929 -1.644992
Te -4.988219 14.804929 1.644992
Te -4.988219 18.094913 4.934976
Te -1.698235 18.094913 1.644992
Te -1.698235 14.804929 4.934976
Te -4.988219 14.804929 8.224961
Te -4.988219 18.094913 11.514945
Te -1.698235 18.094913 8.224961
Te -1.698235 14.804929 11.514945
Te 1.591749 -14.804929 -14.804929
Te 1.591749 -18.094913 -11.514945
Te 1.591749 -14.804929 -8.224961
Te 4.881733 -14.804929 -11.514945
Te 4.881733 -18.094913 -8.224961
Te 1.591749 -18.094913 -4.934976
Te 1.591749 -14.804929 -1.644992
Te 4.881733 -14.804929 -4.934976
Te 4.881733 -18.094913 -1.644992
Te 1.591749 -18.094913 1.644992
Te 1.591749 -14.804929 4.934976
Te 4.881733 -14.804929 1.644992
Te 4.881733 -18.094913 4.934976
Te 1.591749 -18.094913 8.224961
Te 1.591749 -14.804929 11.514945
Te 4.881733 -14.804929 8.224961
Te 4.881733 -18.094913 11.514945
Te 1.591749 -11.514945 -18.094913
Te 1.591749 -8.224961 -14.804929
Te 4.881733 -8.224961 -18.094913
Te 4.881733 -11.514945 -14.804929
Te 1.591749 -11.514945 -11.514945
Te 1.591749 -8.224961 -8.224961
Te 4.881733 -8.224961 -11.514945
Te 4.881733 -11.514945 -8.224961
Te 1.591749 -11.514945 -4.934976
Te 1.591749 -8.224961 -1.644992
Te 4.881733 -8.224961 -4.934976
Te 4.881733 -11.514945 -1.644992
Te 1.591749 -11.514945 1.644992
Te 1.591749 -8.224961 4.934976
Te 4.881733 -8.224961 1.644992
Te 4.881733 -11.514945 4.934976
Te 1.591749 -11.514945 8.224961
Te 1.591749 -8.224961 11.514945
Te 4.881733 -8.224961 8.224961
Te 4.881733 -11.514945 11.514945
Te 1.591749 -11.514945 14.804929
Te 1.591749 -8.224961 18.094913
Te 4.881733 -8.224961 14.804929
Te 4.881733 -11.514945 18.094913
Te 1.591749 -4.934976 -18.094913
Te 1.591749 -1.644992 -14.804929
Te 4.881733 -1.644992 -18.094913
Te 4.881733 -4.934976 -14.804929
Te 1.591749 -4.934976 -11.514945
Te 1.591749 -1.644992 -8.224961
Te 4.881733 -1.644992 -11.514945
Te 4.881733 -4.934976 -8.224961
Te 1.591749 -4.934976 -4.934976
Te 1.591749 -1.644992 -1.644992
Te 4.881733 -1.644992 -4.934976
Te 4.881733 -4.934976 -1.644992
Te 1.591749 -4.934976 1.644992
Te 1.591749 -1.644992 4.934976
Te 4.881733 -1.644992 1.644992
Te 4.881733 -4.934976 4.934976
Te 1.591749 -4.934976 8.224961
Te 1.591749 -1.644992 11.514945
Te 4.881733 -1.644992 8.224961
Te 4.881733 -4.934976 11.514945
Te 1.591749 -4.934976 14.804929
Te 1.591749 -1.644992 18.094913
Te 4.881733 -1.644992 14.804929
Te 4.881733 -4.934976 18.094913
Te 1.591749 1.644992 -18.094913
Te 1.591749 4.934976 -14.804929
Te 4.881733 4.934976 -18.094913
Te 4.881733 1.644992 -14.804929
Te 1.591749 1.644992 -11.514945
Te 1.591749 4.934976 -8.224961
Te 4.881733 4.934976 -11.514945
Te 4.881733 1.644992 -8.224961
Te 1.591749 1.644992 -4.934976
Te 1.591749 4.934976 -1.644992
Te 4.881733 4.934976 -4.934976
Te 4.881733 1.644992 -1.644992
Te 1.591749 1.644992 1.644992
Te 1.591749 4.934976 4.934976
Te 4.881733 4.934976 1.644992
Te 4.881733 1.644992 4.934976
Te 1.591749 1.644992 8.224961
Te 1.591749 4.934976 11.514945
Te 4.881733 4.934976 8.224961
Te 4.881733 1.644992 11.514945
Te 1.591749 1.644992 14.804929
Te 1.591749 4.934976 18.094913
Te 4.881733 4.934976 14.804929
Te 4.881733 1.644992 18.094913
Te 1.591749 8.224961 -18.094913
Te 1.591749 11.514945 -14.804929
Te 4.881733 11.514945 -18.094913
Te 4.881733 8.224961 -14.804929
Te 1.591749 8.224961 -11.514945
Te 1.591749 11.514945 -8.224961
Te 4.881733 11.514945 -11.514945
Te 4.881733 8.224961 -8.224961
Te 1.591749 8.224961 -4.934976
Te 1.591749 11.514945 -1.644992
Te 4.881733 11.514945 -4.934976
Te 4.881733 8.224961 -1.644992
Te 1.591749 8.224961 1.644992
Te 1.591749 11.514945 4.934976
Te 4.881733 11.514945 1.644992
Te 4.881733 8.224961 4.934976
Te 1.591749 8.224961 8.224961
Te 1.591749 11.514945 11.514945
Te 4.881733 11.514945 8.224961
Te 4.881733 8.224961 11.514945
Te 1.591749 8.224961 14.804929
Te 1.591749 11.514945 18.094913
Te 4.881733 11.514945 14.804929
Te 4.881733 8.224961 18.094913
Te 1.591749 14.804929 -11.514945
Te 1.591749 18.094913 -8.224961
Te 4.881733 18.094913 -11.514945
Te 4.881733 14.804929 -8.224961
Te 1.591749 14.804929 -4.934976
Te 1.591749 18.094913 -1.644992
Te 4.881733 18.094913 -4.934976
Te 4.881733 14.804929 -1.644992
Te 1.591749 14.804929 1.644992
Te 1.591749 18.094913 4.934976
Te 4.881733 18.094913 1.644992
Te 4.881733 14.804929 4.934976
Te 1.591749 14.804929 8.224961
Te 1.591749 18.094913 11.514945
Te 4.881733 18.094913 8.224961
Te 4.881733 14.804929 11.514945
Te 1.591749 14.804929 14.804929
Te 8.171717 -14.804929 -14.804929
Te 8.171717 -18.094913 -11.514945
Te 8.171717 -14.804929 -8.224961
Te 11.461702 -14.804929 -11.514945
Te 11.461702 -18.094913 -8.224961
Te 8.171717 -18.094913 -4.934976
Te 8.171717 -14.804929 -1.644992
Te 11.461702 -14.804929 -4.934976
Te 11.461702 -18.094913 -1.644992
Te 8.171717 -18.094913 1.644992
Te 8.171717 -14.804929 4.934976
Te 11.461702 -14.804929 1.644992
Te 8.171717 -11.514945 -18.094913
Te 8.171717 -8.224961 -14.804929
Te 11.461702 -8.224961 -18.094913
Te 11.461702 -11.514945 -14.804929
Te 8.171717 -11.514945 -11.514945
Te 8.171717 -8.224961 -8.224961
Te 11.461702 -8.224961 -11.514945
Te 11.461702 -11.514945 -8.224961
Te 8.171717 -11.514945 -4.934976
Te 8.171717 -8.224961 -1.644992
Te 11.461702 -8.224961 -4.934976
Te 11.461702 -11.514945 -1.644992
Te 8.171717 -11.514945 1.644992
Te 8.171717 -8.224961 4.934976
Te 11.461702 -8.224961 1.644992
Te 11.461702 -11.514945 4.934976
Te 8.171717 -11.514945 8.224961
Te 8.171717 -8.224961 11.514945
Te 11.461702 -8.224961 8.224961
Te 8.171717 -4.934976 -18.094913
Te 8.171717 -1.644992 -14.804929
Te 11.461702 -1.644992 -18.094913
Te 11.461702 -4.934976 -14.804929
Te 8.171717 -4.934976 -11.514945
Te 8.171717 -1.644992 -8.224961
Te 11.461702 -1.644992 -11.514945
Te 11.461702 -4.934976 -8.224961
Te 8.171717 -4.934976 -4.934976
Te 8.171717 -1.644992 -1.644992
Te 11.461702 -1.644992 -4.934976
Te 11.461702 -4.934976 -1.644992
Te 8.171717 -4.934976 1.644992
Te 8.171717 -1.644992 4.934976
Te 11.461702 -1.644992 1.644992
Te 11.461702 -4.934976 4.934976
Te 8.171717 -4.934976 8.224961
Te 8.171717 -1.644992 11.514945
Te 11.461702 -1.644992 8.224961
Te 11.461702 -4.934976 11.514945
Te 8.171717 -4.934976 14.804929
Te 8.171717 -1.644992 18.094913
Te 11.461702 -1.644992 14.804929
Te 8.171717 1.644992 -18.094913
Te 8.171717 4.934976 -14.804929
Te 11.461702 1.644992 -14.804929
Te 8.171717 1.644992 -11.514945
Te 8.171717 4.934976 -8.224961
Te 11.461702 4.934976 -11.514945
Te 11.461702 1.644992 -8.224961
Te 8.171717 1.644992 -4.934976
Te 8.171717 4.934976 -1.644992
Te 11.461702 4.934976 -4.934976
Te 11.461702 1.644992 -1.644992
Te 8.171717 1.644992 1.644992
Te 8.171717 4.934976 4.934976
Te 11.461702 4.934976 1.644992
Te 11.461702 1.644992 4.934976
Te 8.171717 1.644992 8.224961
Te 8.171717 4.934976 11.514945
Te 11.461702 4.934976 8.224961
Te 11.461702 1.644992 11.514945
Te 8.171717 1.644992 14.804929
Te 8.171717 4.934976 18.094913
Te 11.461702 4.934976 14.804929
Te 11.461702 1.644992 18.094913
Te 8.171717 8.224961 -11.514945
Te 8.171717 11.514945 -8.224961
Te 11.461702 8.224961 -8.224961
Te 8.171717 8.224961 -4.934976
Te 8.171717 11.514945 -1.644992
Te 11.461702 11.514945 -4.934976
Te 11.461702 8.224961 -1.644992
Te 8.171717 8.224961 1.644992
Te 8.171717 11.514945 4.934976
Te 11.461702 11.514945 1.644992
Te 11.461702 8.224961 4.934976
Te 8.171717 8.224961 8.224961
Te 8.171717 11.514945 11.514945
Te 11.461702 11.514945 8.224961
Te 11.461702 8.224961 11.514945
Te 8.171717 8.224961 14.804929
Te 8.171717 11.514945 18.094913
Te 11.461702 11.514945 14.804929
Te 11.461702 8.224961 18.094913
Te 8.171717 14.804929 -4.934976
Te 8.171717 18.094913 -1.644992
Te 11.461702 14.804929 -1.644992
Te 8.171717 14.804929 1.644992
Te 8.171717 18.094913 4.934976
Te 11.461702 18.094913 1.644992
Te 11.461702 14.804929 4.934976
Te 8.171717 14.804929 8.224961
Te 8.171717 18.094913 11.514945
Te 11.461702 18.094913 8.224961
Te 11.461702 14.804929 11.514945
Te 8.171717 14.804929 14.804929
Te 14.751686 -14.804929 -8.224961
Te 14.751686 -14.804929 -1.644992
Te 14.751686 -14.804929 4.934976
Te 14.751686 -8.224961 -14.804929
Te 14.751686 -11.514945 -11.514945
Te 14.751686 -8.224961 -8.224961
Te 18.041670 -8.224961 -11.514945
Te 18.041670 -11.514945 -8.224961
Te 14.751686 -11.514945 -4.934976
Te 14.751686 -8.224961 -1.644992
Te 18.041670 -8.224961 -4.934976
Te 18.041670 -11.514945 -1.644992
Te 14.751686 -11.514945 1.644992
Te 14.751686 -8.224961 4.934976
Te 18.041670 -8.224961 1.644992
Te 18.041670 -8.224961 8.224961
Te 14.751686 -1.644992 -14.804929
Te 14.751686 -4.934976 -11.514945
Te 14.751686 -1.644992 -8.224961
Te 18.041670 -1.644992 -11.514945
Te 18.041670 -4.934976 -8.224961
Te 14.751686 -4.934976 -4.934976
Te 14.751686 -1.644992 -1.644992
Te 18.041670 -1.644992 -4.934976
Te 18.041670 -4.934976 -1.644992
Te 14.751686 -4.934976 1.644992
Te 14.751686 -1.644992 4.934976
Te 18.041670 -1.644992 1.644992
Te 18.041670 -4.934976 4.934976
Te 14.751686 -4.934976 8.224961
Te 14.751686 -1.644992 11.514945
Te 18.041670 -1.644992 8.224961
Te 14.751686 -4.934976 14.804929
Te 14.751686 4.934976 -14.804929
Te 14.751686 1.644992 -11.514945
Te 14.751686 4.934976 -8.224961
Te 18.041670 1.644992 -8.224961
Te 14.751686 1.644992 -4.934976
Te 14.751686 4.934976 -1.644992
Te 18.041670 4.934976 -4.934976
Te 18.041670 1.644992 -1.644992
Te 14.751686 1.644992 1.644992
Te 14.751686 4.934976 4.934976
Te 18.041670 4.934976 1.644992
Te 18.041670 1.644992 4.934976
Te 14.751686 1.644992 8.224961
Te 14.751686 4.934976 11.514945
Te 18.041670 4.934976 8.224961
Te 18.041670 1.644992 11.514945
Te 14.751686 1.644992 14.804929
Te 18.041670 8.224961 -8.224961
Te 14.751686 8.224961 -4.934976
Te 14.751686 11.514945 -1.644992
Te 18.041670 8.224961 -1.644992
Te 14.751686 8.224961 1.644992
Te 14.751686 11.514945 4.934976
Te 18.041670 11.514945 1.644992
Te 18.041670 8.224961 4.934976
Te 14.751686 8.224961 8.224961
Te 14.751686 11.514945 11.514945
Te 18.041670 11.514945 8.224961
Te 18.041670 8.224961 11.514945
Te 14.751686 14.804929 -4.934976
Te 14.751686 14.804929 1.644992
Cl -21.438141 -8.224961 -4.934976
Cl -21.438141 -8.224961 1.644992
Cl -21.438141 -8.224961 8.224961
Cl -21.438141 -4.934976 -8.224961
Cl -21.438141 -1.644992 -4.934976
Cl -21.438141 -4.934976 -1.644992
Cl -21.438141 -1.644992 1.644992
Cl -21.438141 -4.934976 4.934976
Cl -21.438141 -1.644992 8.224961
Cl -21.438141 1.644992 -8.224961
Cl -21.438141 4.934976 -4.934976
Cl -21.438141 1.644992 -1.644992
Cl -21.438141 4.934976 1.644992
Cl -21.438141 1.644992 4.934976
Cl -21.438141 4.934976 8.224961
Cl -21.438141 8.224961 -8.224961
Cl -21.438141 8.224961 -1.644992
Cl -21.438141 8.224961 4.934976
Cl -14.858172 -14.804929 8.224961
Cl -14.858172 -8.224961 -11.514945
Cl -14.858172 -11.514945 -8.224961
Cl -18.148156 -11.514945 -4.934976
Cl -14.858172 -8.224961 14.804929
Cl -18.148156 -4.934976 -11.514945
Cl -18.148156 4.934976 11.514945
Cl -18.148156 11.514945 4.934976
Cl -14.858172 11.514945 8.224961
Cl -14.858172 8.224961 11.514945
Cl -8.278204 -21.384897 -4.934976
Cl -8.278204 -21.384897 1.644992
Cl -8.278204 -21.384897 8.224961
Cl -11.568188 -14.804929 -8.224961
Cl -8.278204 -14.804929 -11.514945
Cl -8.278204 -18.094913 -8.224961
Cl -11.568188 -18.094913 -4.934976
Cl -8.278204 -14.804929 14.804929
Cl -11.568188 -8.224961 -14.804929
Cl -8.278204 -8.224961 -18.094913
Cl -8.278204 -11.514945 -14.804929
Cl -11.568188 -11.514945 -11.514945
Cl -8.278204 -8.224961 21.384897
Cl -8.278204 -4.934976 -21.384897
Cl -11.568188 -4.934976 -18.094913
Cl -8.278204 -1.644992 21.384897
Cl -8.278204 1.644992 -21.384897
Cl -11.568188 4.934976 18.094913
Cl -8.278204 4.934976 21.384897
Cl -8.278204 8.224961 -21.384897
Cl -11.568188 11.514945 11.514945
Cl -11.568188 8.224961 14.804929
Cl -8.278204 11.514945 14.804929
Cl -8.278204 8.224961 18.094913
Cl -8.278204 14.804929 -14.804929
Cl -11.568188 18.094913 4.934976
Cl -11.568188 14.804929 8.224961
Cl -8.278204 18.094913 8.224961
Cl -8.278204 14.804929 11.514945
Cl -8.278204 21.384897 -8.224961
Cl -8.278204 21.384897 -1.644992
Cl -8.278204 21.384897 4.934976
Cl -4.988219 -21.384897 -8.224961
Cl -4.988219 -21.384897 -1.644992
Cl -1.698235 -21.384897 -4.934976
Cl -4.988219 -21.384897 4.934976
Cl -1.698235 -21.384897 1.644992
Cl -1.698235 -21.384897 8.224961
Cl -4.988219 -14.804929 -14.804929
Cl -4.988219 -8.224961 -21.384897
Cl -1.698235 -8.224961 21.384897
Cl -4.988219 -1.644992 -21.384897
Cl -1.698235 -4.934976 -21.384897
Cl -4.988219 -4.934976 21.384897
Cl -1.698235 -1.644992 21.384897
Cl -4.988219 4.934976 -21.384897
Cl -1.698235 1.644992 -21.384897
Cl -4.988219 1.644992 21.384897
Cl -1.698235 4.934976 21.384897
Cl -1.698235 8.224961 -21.384897
Cl -4.988219 8.224961 21.384897
Cl -4.988219 14.804929 14.804929
Cl -1.698235 21.384897 -8.224961
Cl -4.988219 21.384897 -4.934976
Cl -1.698235 21.384897 -1.644992
Cl -4.988219 21.384897 1.644992
Cl -1.698235 21.384897 4.934976
Cl -4.988219 21.384897 8.224961
Cl 1.591749 -21.384897 -8.224961
Cl 1.591749 -21.384897 -1.644992
Cl 4.881733 -21.384897 -4.934976
Cl 1.591749 -21.384897 4.934976
Cl 4.881733 -21.384897 1.644992
Cl 4.881733 -21.384897 8.224961
Cl 4.881733 -14.804929 14.804929
Cl 1.591749 -8.224961 -21.384897
Cl 4.881733 -8.224961 21.384897
Cl 1.591749 -1.644992 -21.384897
Cl 4.881733 -4.934976 -21.384897
Cl 1.591749 -4.934976 21.384897
Cl 4.881733 -1.644992 21.384897
Cl 1.591749 4.934976 -21.384897
Cl 4.881733 1.644992 -21.384897
Cl 1.591749 1.644992 21.384897
Cl 4.881733 4.934976 21.384897
Cl 4.881733 8.224961 -21.384897
Cl 1.591749 8.224961 21.384897
Cl 4.881733 14.804929 -14.804929
Cl 4.881733 21.384897 -8.224961
Cl 1.591749 21.384897 -4.934976
Cl 4.881733 21.384897 -1.644992
Cl 1.591749 21.384897 1.644992
Cl 4.881733 21.384897 4.934976
Cl 1.591749 21.384897 8.224961
Cl 8.171717 -21.384897 -8.224961
Cl 8.171717 -21.384897 -1.644992
Cl 8.171717 -21.384897 4.934976
Cl 11.461702 -18.094913 4.934976
Cl 8.171717 -18.094913 8.224961
Cl 8.171717 -14.804929 11.514945
Cl 11.461702 -14.804929 8.224961
Cl 8.171717 -8.224961 -21.384897
Cl 11.461702 -11.514945 11.514945
Cl 8.171717 -11.514945 14.804929
Cl 8.171717 -8.224961 18.094913
Cl 11.461702 -8.224961 14.804929
Cl 8.171717 -1.644992 -21.384897
Cl 11.461702 -4.934976 18.094913
Cl 8.171717 -4.934976 21.384897
Cl 8.171717 4.934976 -21.384897
Cl 11.461702 4.934976 -18.094913
Cl 8.171717 1.644992 21.384897
Cl 8.171717 8.224961 -18.094913
Cl 8.171717 11.514945 -14.804929
Cl 11.461702 8.224961 -14.804929
Cl 11.461702 11.514945 -11.514945
Cl 8.171717 8.224961 21.384897
Cl 8.171717 14.804929 -11.514945
Cl 8.171717 18.094913 -8.224961
Cl 11.461702 14.804929 -8.224961
Cl 11.461702 18.094913 -4.934976
Cl 8.171717 21.384897 -4.934976
Cl 8.171717 21.384897 1.644992
Cl 8.171717 21.384897 8.224961
Cl 18.041670 -11.514945 4.934976
Cl 14.751686 -11.514945 8.224961
Cl 14.751686 -8.224961 11.514945
Cl 18.041670 -4.934976 11.514945
Cl 18.041670 4.934976 -11.514945
Cl 14.751686 8.224961 -11.514945
Cl 14.751686 11.514945 -8.224961
Cl 18.041670 11.514945 -4.934976
Cl 14.751686 8.224961 14.804929
Cl 14.751686 14.804929 8.224961
Cl 21.331654 -8.224961 -8.224961
Cl 21.331654 -8.224961 -1.644992
Cl 21.331654 -8.224961 4.934976
Cl 21.331654 -1.644992 -8.224961
Cl 21.331654 -4.934976 -4.934976
Cl 21.331654 -1.644992 -1.644992
Cl 21.331654 -4.934976 1.644992
Cl 21.331654 -1.644992 4.934976
Cl 21.331654 -4.934976 8.224961
Cl 21.331654 4.934976 -8.224961
Cl 21.331654 1.644992 -4.934976
Cl 21.331654 4.934976 -1.644992
Cl 21.331654 1.644992 1.644992
Cl 21.331654 4.934976 4.934976
Cl 21.331654 1.644992 8.224961
Cl 21.331654 8.224961 -4.934976
Cl 21.331654 8.224961 1.644992
Cl 21.331654 8.224961 8.224961
Cl -18.148156 -11.514945 11.514945
Cl -18.148156 11.514945 -11.514945
Cl 11.461702 -18.094913 -11.514945
Cl 11.461702 11.514945 18.094913
Cl -11.568188 -18.094913 11.514945
Cl -11.568188 11.514945 -18.094913
Cl 11.461702 -11.514945 -18.094913
Cl 11.461702 18.094913 11.514945
Cl -11.568188 -11.514945 18.094913
Cl -11.568188 18.094913 -11.514945
Cl 21.331654 -11.514945 -11.514945
Cl 21.331654 11.514945 11.514945
Cl 18.041670 -11.514945 -14.804929
Cl 18.041670 11.514945 14.804929
Cl 18.041670 -14.804929 -11.514945
Cl 18.041670 14.804929 11.514945
