2198
AlP-P-Al976P853Cl369-reconstructed
Al -20.508767 -9.562545 -12.316210
Al -20.508767 -12.297545 -9.581210
Al -23.243767 -9.562545 -9.581210
Al -20.508767 -9.562545 -6.846210
Al -20.508767 -6.827545 -9.581210
Al -23.243767 -6.827545 -6.846210
Al -20.508767 -4.092545 -6.846210
Al -20.508767 -6.827545 -4.111210
Al -23.243767 -4.092545 -4.111210
Al -20.508767 -4.092545 -1.376210
Al -20.508767 -1.357545 -4.111210
Al -23.243767 -1.357545 -1.376210
Al -20.508767 1.377455 -1.376210
Al -20.508767 -1.357545 1.358790
Al -23.243767 1.377455 1.358790
Al -20.508767 1.377455 4.093790
Al -20.508767 4.112455 1.358790
Al -23.243767 4.112455 4.093790
Al -20.508767 6.847455 4.093790
Al -20.508767 4.112455 6.828790
Al -23.243767 6.847455 6.828790
Al -20.508767 6.847455 9.563790
Al -20.508767 9.582455 6.828790
Al -23.243767 9.582455 9.563790
Al -20.508767 12.317455 9.563790
Al -20.508767 9.582455 12.298790
Al -15.038767 -15.032545 -12.316210
Al -15.038767 -17.767545 -9.581210
Al -17.773767 -15.032545 -9.581210
Al -15.038767 -15.032545 -6.846210
Al -15.038767 -9.562545 -17.786210
Al -15.038767 -12.297545 -15.051210
Al -17.773767 -9.562545 -15.051210
Al -15.038767 -9.562545 -12.316210
Al -15.038767 -12.297545 -9.581210
Al -17.773767 -9.562545 -9.581210
Al -15.038767 -9.562545 -6.846210
Al -15.038767 -12.297545 -4.111210
Al -17.773767 -9.562545 -4.111210
Al -15.038767 -9.562545 -1.376210
Al -17.773767 -6.827545 -12.316210
Al -15.038767 -4.092545 -12.316210
Al -15.038767 -6.827545 -9.581210
Al -17.773767 -4.092545 -9.581210
Al -17.773767 -6.827545 -6.846210
Al -15.038767 -4.092545 -6.846210
Al -15.038767 -6.827545 -4.111210
Al -17.773767 -4.092545 -4.111210
Al -17.773767 -6.827545 -1.376210
Al -15.038767 -4.092545 -1.376210
Al -15.038767 -6.827545 1.358790
Al -17.773767 -4.092545 1.358790
Al -15.038767 -4.092545 4.093790
Al -15.038767 -1.357545 -9.581210
Al -17.773767 -1.357545 -6.846210
Al -15.038767 1.377455 -6.846210
Al -15.038767 -1.357545 -4.111210
Al -17.773767 1.377455 -4.111210
Al -17.773767 -1.357545 -1.376210
Al -15.038767 1.377455 -1.376210
Al -15.038767 -1.357545 1.358790
Al -17.773767 1.377455 1.358790
Al -17.773767 -1.357545 4.093790
Al -15.038767 1.377455 4.093790
Al -15.038767 -1.357545 6.828790
Al -17.773767 1.377455 6.828790
Al -15.038767 1.377455 9.563790
Al -15.038767 4.112455 -4.111210
Al -17.773767 4.112455 -1.376210
Al -15.038767 6.847455 -1.376210
Al -15.038767 4.112455 1.358790
Al -17.773767 6.847455 1.358790
Al -17.773767 4.112455 4.093790
Al -15.038767 6.847455 4.093790
Al -15.038767 4.112455 6.828790
Al -17.773767 6.847455 6.828790
Al -17.773767 4.112455 9.563790
Al -15.038767 6.847455 9.563790
Al -15.038767 4.112455 12.298790
Al -17.773767 6.847455 12.298790
Al -15.038767 9.582455 1.358790
Al -17.773767 9.582455 4.093790
Al -15.038767 12.317455 4.093790
Al -15.038767 9.582455 6.828790
Al -17.773767 9.582455 9.563790
Al -15.038767 12.317455 9.563790
Al -15.038767 9.582455 12.298790
Al -17.773767 9.582455 15.033790
Al -15.038767 12.317455 15.033790
Al -15.038767 9.582455 17.768790
Al -15.038767 15.052455 6.828790
Al -17.773767 15.052455 9.563790
Al -15.038767 17.787455 9.563790
Al -15.038767 15.052455 12.298790
Al -9.568767 -20.502545 -12.316210
Al -9.568767 -23.237545 -9.581210
Al -12.303767 -20.502545 -9.581210
Al -9.568767 -20.502545 -6.846210
Al -9.568767 -15.032545 -17.786210
Al -9.568767 -17.767545 -15.051210
Al -12.303767 -15.032545 -15.051210
Al -9.568767 -15.032545 -12.316210
Al -9.568767 -17.767545 -9.581210
Al -12.303767 -15.032545 -9.581210
Al -12.303767 -17.767545 -6.846210
Al -9.568767 -15.032545 -6.846210
Al -9.568767 -17.767545 -4.111210
Al -12.303767 -15.032545 -4.111210
Al -9.568767 -15.032545 -1.376210
Al -9.568767 -9.562545 -23.256210
Al -9.568767 -12.297545 -20.521210
Al -12.303767 -9.562545 -20.521210
Al -9.568767 -9.562545 -17.786210
Al -9.568767 -12.297545 -15.051210
Al -12.303767 -9.562545 -15.051210
Al -12.303767 -12.297545 -12.316210
Al -9.568767 -9.562545 -12.316210
Al -9.568767 -12.297545 -9.581210
Al -12.303767 -9.562545 -9.581210
Al -12.303767 -12.297545 -6.846210
Al -9.568767 -9.562545 -6.846210
Al -9.568767 -12.297545 -4.111210
Al -12.303767 -9.562545 -4.111210
Al -12.303767 -12.297545 -1.376210
Al -9.568767 -9.562545 -1.376210
Al -9.568767 -12.297545 1.358790
Al -12.303767 -9.562545 1.358790
Al -9.568767 -9.562545 4.093790
Al -9.568767 -6.827545 -20.521210
Al -12.303767 -6.827545 -17.786210
Al -9.568767 -4.092545 -17.786210
Al -9.568767 -6.827545 -15.051210
Al -12.303767 -4.092545 -15.051210
Al -12.303767 -6.827545 -12.316210
Al -9.568767 -4.092545 -12.316210
Al -9.568767 -6.827545 -9.581210
Al -12.303767 -4.092545 -9.581210
Al -12.303767 -6.827545 -6.846210
Al -9.568767 -4.092545 -6.846210
Al -9.568767 -6.827545 -4.111210
Al -12.303767 -4.092545 -4.111210
Al -12.303767 -6.827545 -1.376210
Al -9.568767 -4.092545 -1.376210
Al -9.568767 -6.827545 1.358790
Al -12.303767 -4.092545 1.358790
Al -12.303767 -6.827545 4.093790
Al -9.568767 -4.092545 4.093790
Al -9.568767 -6.827545 6.828790
Al -12.303767 -4.092545 6.828790
Al -9.568767 -4.092545 9.563790
Al -9.568767 -1.357545 -15.051210
Al -12.303767 -1.357545 -12.316210
Al -9.568767 1.377455 -12.316210
Al -9.568767 -1.357545 -9.581210
Al -12.303767 1.377455 -9.581210
Al -12.303767 -1.357545 -6.846210
Al -9.568767 1.377455 -6.846210
Al -9.568767 -1.357545 -4.111210
Al -12.303767 1.377455 -4.111210
Al -12.303767 -1.357545 -1.376210
Al -9.568767 1.377455 -1.376210
Al -9.568767 -1.357545 1.358790
Al -12.303767 1.377455 1.358790
Al -12.303767 -1.357545 4.093790
Al -9.568767 1.377455 4.093790
Al -9.568767 -1.357545 6.828790
Al -12.303767 1.377455 6.828790
Al -12.303767 -1.357545 9.563790
Al -9.568767 1.377455 9.563790
Al -9.568767 -1.357545 12.298790
Al -12.303767 1.377455 12.298790
Al -9.568767 1.377455 15.033790
Al -9.568767 4.112455 -9.581210
Al -12.303767 4.112455 -6.846210
Al -9.568767 6.847455 -6.846210
Al -9.568767 4.112455 -4.111210
Al -12.303767 6.847455 -4.111210
Al -12.303767 4.112455 -1.376210
Al -9.568767 6.847455 -1.376210
Al -9.568767 4.112455 1.358790
Al -12.303767 6.847455 1.358790
Al -12.303767 4.112455 4.093790
Al -9.568767 6.847455 4.093790
Al -9.568767 4.112455 6.828790
Al -12.303767 6.847455 6.828790
Al -12.303767 4.112455 9.563790
Al -9.568767 6.847455 9.563790
Al -9.568767 4.112455 12.298790
Al -12.303767 6.847455 12.298790
Al -12.303767 4.112455 15.033790
Al -9.568767 6.847455 15.033790
Al -9.568767 4.112455 17.768790
Al -12.303767 6.847455 17.768790
Al -9.568767 6.847455 20.503790
Al -9.568767 9.582455 -4.111210
Al -12.303767 9.582455 -1.376210
Al -9.568767 12.317455 -1.376210
Al -9.568767 9.582455 1.358790
Al -12.303767 12.317455 1.358790
Al -12.303767 9.582455 4.093790
Al -9.568767 12.317455 4.093790
Al -9.568767 9.582455 6.828790
Al -12.303767 12.317455 6.828790
Al -12.303767 9.582455 9.563790
Al -9.568767 12.317455 9.563790
Al -9.568767 9.582455 12.298790
Al -12.303767 12.317455 12.298790
Al -12.303767 9.582455 15.033790
Al -9.568767 12.317455 15.033790
Al -9.568767 9.582455 17.768790
Al -12.303767 9.582455 20.503790
Al -9.568767 12.317455 20.503790
Al -9.568767 9.582455 23.238790
Al -9.568767 15.052455 1.358790
Al -12.303767 15.052455 4.093790
Al -9.568767 17.787455 4.093790
Al -9.568767 15.052455 6.828790
Al -12.303767 17.787455 6.828790
Al -12.303767 15.052455 9.563790
Al -9.568767 17.787455 9.563790
Al -9.568767 15.052455 12.298790
Al -12.303767 15.052455 15.033790
Al -9.568767 17.787455 15.033790
Al -9.568767 15.052455 17.768790
Al -9.568767 20.522455 6.828790
Al -12.303767 20.522455 9.563790
Al -9.568767 23.257455 9.563790
Al -9.568767 20.522455 12.298790
Al -6.833767 -23.237545 -6.846210
Al -4.098767 -20.502545 -6.846210
Al -4.098767 -23.237545 -4.111210
Al -6.833767 -20.502545 -4.111210
Al -4.098767 -20.502545 -1.376210
Al -6.833767 -15.032545 -15.051210
Al -6.833767 -17.767545 -12.316210
Al -4.098767 -15.032545 -12.316210
Al -4.098767 -17.767545 -9.581210
Al -6.833767 -15.032545 -9.581210
Al -6.833767 -17.767545 -6.846210
Al -4.098767 -15.032545 -6.846210
Al -4.098767 -17.767545 -4.111210
Al -6.833767 -15.032545 -4.111210
Al -6.833767 -17.767545 -1.376210
Al -4.098767 -15.032545 -1.376210
Al -4.098767 -17.767545 1.358790
Al -6.833767 -15.032545 1.358790
Al -4.098767 -15.032545 4.093790
Al -6.833767 -9.562545 -20.521210
Al -6.833767 -12.297545 -17.786210
Al -4.098767 -9.562545 -17.786210
Al -4.098767 -12.297545 -15.051210
Al -6.833767 -9.562545 -15.051210
Al -6.833767 -12.297545 -12.316210
Al -4.098767 -9.562545 -12.316210
Al -4.098767 -12.297545 -9.581210
Al -6.833767 -9.562545 -9.581210
Al -6.833767 -12.297545 -6.846210
Al -4.098767 -9.562545 -6.846210
Al -4.098767 -12.297545 -4.111210
Al -6.833767 -9.562545 -4.111210
Al -6.833767 -12.297545 -1.376210
Al -4.098767 -9.562545 -1.376210
Al -4.098767 -12.297545 1.358790
Al -6.833767 -9.562545 1.358790
Al -6.833767 -12.297545 4.093790
Al -4.098767 -9.562545 4.093790
Al -4.098767 -12.297545 6.828790
Al -6.833767 -9.562545 6.828790
Al -4.098767 -9.562545 9.563790
Al -6.833767 -6.827545 -23.256210
Al -4.098767 -4.092545 -23.256210
Al -4.098767 -6.827545 -20.521210
Al -6.833767 -4.092545 -20.521210
Al -6.833767 -6.827545 -17.786210
Al -4.098767 -4.092545 -17.786210
Al -4.098767 -6.827545 -15.051210
Al -6.833767 -4.092545 -15.051210
Al -6.833767 -6.827545 -12.316210
Al -4.098767 -4.092545 -12.316210
Al -4.098767 -6.827545 -9.581210
Al -6.833767 -4.092545 -9.581210
Al -6.833767 -6.827545 -6.846210
Al -4.098767 -4.092545 -6.846210
Al -4.098767 -6.827545 -4.111210
Al -6.833767 -4.092545 -4.111210
Al -6.833767 -6.827545 -1.376210
Al -4.098767 -4.092545 -1.376210
Al -4.098767 -6.827545 1.358790
Al -6.833767 -4.092545 1.358790
Al -6.833767 -6.827545 4.093790
Al -4.098767 -4.092545 4.093790
Al -4.098767 -6.827545 6.828790
Al -6.833767 -4.092545 6.828790
Al -6.833767 -6.827545 9.563790
Al -4.098767 -4.092545 9.563790
Al -4.098767 -6.827545 12.298790
Al -6.833767 -4.092545 12.298790
Al -4.098767 -4.092545 15.033790
Al -4.098767 -1.357545 -20.521210
Al -6.833767 -1.357545 -17.786210
Al -4.098767 1.377455 -17.786210
Al -4.098767 -1.357545 -15.051210
Al -6.833767 1.377455 -15.051210
Al -6.833767 -1.357545 -12.316210
Al -4.098767 1.377455 -12.316210
Al -4.098767 -1.357545 -9.581210
Al -6.833767 1.377455 -9.581210
Al -6.833767 -1.357545 -6.846210
Al -4.098767 1.377455 -6.846210
Al -4.098767 -1.357545 -4.111210
Al -6.833767 1.377455 -4.111210
Al -6.833767 -1.357545 -1.376210
Al -4.098767 1.377455 -1.376210
Al -4.098767 -1.357545 1.358790
Al -6.833767 1.377455 1.358790
Al -6.833767 -1.357545 4.093790
Al -4.098767 1.377455 4.093790
Al -4.098767 -1.357545 6.828790
Al -6.833767 1.377455 6.828790
Al -6.833767 -1.357545 9.563790
Al -4.098767 1.377455 9.563790
Al -4.098767 -1.357545 12.298790
Al -6.833767 1.377455 12.298790
Al -6.833767 -1.357545 15.033790
Al -4.098767 1.377455 15.033790
Al -4.098767 -1.357545 17.768790
Al -6.833767 1.377455 17.768790
Al -4.098767 1.377455 20.503790
Al -4.098767 4.112455 -15.051210
Al -6.833767 4.112455 -12.316210
Al -4.098767 6.847455 -12.316210
Al -4.098767 4.112455 -9.581210
Al -6.833767 6.847455 -9.581210
Al -6.833767 4.112455 -6.846210
Al -4.098767 6.847455 -6.846210
Al -4.098767 4.112455 -4.111210
Al -6.833767 6.847455 -4.111210
Al -6.833767 4.112455 -1.376210
Al -4.098767 6.847455 -1.376210
Al -4.098767 4.112455 1.358790
Al -6.833767 6.847455 1.358790
Al -6.833767 4.112455 4.093790
Al -4.098767 6.847455 4.093790
Al -4.098767 4.112455 6.828790
Al -6.833767 6.847455 6.828790
Al -6.833767 4.112455 9.563790
Al -4.098767 6.847455 9.563790
Al -4.098767 4.112455 12.298790
Al -6.833767 6.847455 12.298790
Al -6.833767 4.112455 15.033790
Al -4.098767 6.847455 15.033790
Al -4.098767 4.112455 17.768790
Al -6.833767 6.847455 17.768790
Al -6.833767 4.112455 20.503790
Al -4.098767 6.847455 20.503790
Al -4.098767 4.112455 23.238790
Al -6.833767 6.847455 23.238790
Al -4.098767 9.582455 -9.581210
Al -6.833767 9.582455 -6.846210
Al -4.098767 12.317455 -6.846210
Al -4.098767 9.582455 -4.111210
Al -6.833767 12.317455 -4.111210
Al -6.833767 9.582455 -1.376210
Al -4.098767 12.317455 -1.376210
Al -4.098767 9.582455 1.358790
Al -6.833767 12.317455 1.358790
Al -6.833767 9.582455 4.093790
Al -4.098767 12.317455 4.093790
Al -4.098767 9.582455 6.828790
Al -6.833767 12.317455 6.828790
Al -6.833767 9.582455 9.563790
Al -4.098767 12.317455 9.563790
Al -4.098767 9.582455 12.298790
Al -6.833767 12.317455 12.298790
Al -6.833767 9.582455 15.033790
Al -4.098767 12.317455 15.033790
Al -4.098767 9.582455 17.768790
Al -6.833767 12.317455 17.768790
Al -6.833767 9.582455 20.503790
Al -4.098767 15.052455 -4.111210
Al -6.833767 15.052455 -1.376210
Al -4.098767 17.787455 -1.376210
Al -4.098767 15.052455 1.358790
Al -6.833767 17.787455 1.358790
Al -6.833767 15.052455 4.093790
Al -4.098767 17.787455 4.093790
Al -4.098767 15.052455 6.828790
Al -6.833767 17.787455 6.828790
Al -6.833767 15.052455 9.563790
Al -4.098767 17.787455 9.563790
Al -4.098767 15.052455 12.298790
Al -6.833767 17.787455 12.298790
Al -6.833767 15.052455 15.033790
Al -4.098767 20.522455 1.358790
Al -6.833767 20.522455 4.093790
Al -4.098767 23.257455 4.093790
Al -4.098767 20.522455 6.828790
Al -6.833767 23.257455 6.828790
Al -1.363767 -20.502545 -4.111210
Al -1.363767 -23.237545 -1.376210
Al 1.371233 -20.502545 -1.376210
Al 1.371233 -23.237545 1.358790
Al -1.363767 -20.502545 1.358790
Al 1.371233 -20.502545 4.093790
Al -1.363767 -15.032545 -9.581210
Al -1.363767 -17.767545 -6.846210
Al 1.371233 -15.032545 -6.846210
Al 1.371233 -17.767545 -4.111210
Al -1.363767 -15.032545 -4.111210
Al -1.363767 -17.767545 -1.376210
Al 1.371233 -15.032545 -1.376210
Al 1.371233 -17.767545 1.358790
Al -1.363767 -15.032545 1.358790
Al -1.363767 -17.767545 4.093790
Al 1.371233 -15.032545 4.093790
Al 1.371233 -17.767545 6.828790
Al -1.363767 -15.032545 6.828790
Al 1.371233 -15.032545 9.563790
Al -1.363767 -9.562545 -15.051210
Al -1.363767 -12.297545 -12.316210
Al 1.371233 -9.562545 -12.316210
Al 1.371233 -12.297545 -9.581210
Al -1.363767 -9.562545 -9.581210
Al -1.363767 -12.297545 -6.846210
Al 1.371233 -9.562545 -6.846210
Al 1.371233 -12.297545 -4.111210
Al -1.363767 -9.562545 -4.111210
Al -1.363767 -12.297545 -1.376210
Al 1.371233 -9.562545 -1.376210
Al 1.371233 -12.297545 1.358790
Al -1.363767 -9.562545 1.358790
Al -1.363767 -12.297545 4.093790
Al 1.371233 -9.562545 4.093790
Al 1.371233 -12.297545 6.828790
Al -1.363767 -9.562545 6.828790
Al -1.363767 -12.297545 9.563790
Al 1.371233 -9.562545 9.563790
Al 1.371233 -12.297545 12.298790
Al -1.363767 -9.562545 12.298790
Al 1.371233 -9.562545 15.033790
Al -1.363767 -4.092545 -20.521210
Al -1.363767 -6.827545 -17.786210
Al 1.371233 -4.092545 -17.786210
Al 1.371233 -6.827545 -15.051210
Al -1.363767 -4.092545 -15.051210
Al -1.363767 -6.827545 -12.316210
Al 1.371233 -4.092545 -12.316210
Al 1.371233 -6.827545 -9.581210
Al -1.363767 -4.092545 -9.581210
Al -1.363767 -6.827545 -6.846210
Al 1.371233 -4.092545 -6.846210
Al 1.371233 -6.827545 -4.111210
Al -1.363767 -4.092545 -4.111210
Al -1.363767 -6.827545 -1.376210
Al 1.371233 -4.092545 -1.376210
Al 1.371233 -6.827545 1.358790
Al -1.363767 -4.092545 1.358790
Al -1.363767 -6.827545 4.093790
Al 1.371233 -4.092545 4.093790
Al 1.371233 -6.827545 6.828790
Al -1.363767 -4.092545 6.828790
Al -1.363767 -6.827545 9.563790
Al 1.371233 -4.092545 9.563790
Al 1.371233 -6.827545 12.298790
Al -1.363767 -4.092545 12.298790
Al -1.363767 -6.827545 15.033790
Al 1.371233 -4.092545 15.033790
Al 1.371233 -6.827545 17.768790
Al -1.363767 -4.092545 17.768790
Al 1.371233 -4.092545 20.503790
Al -1.363767 -1.357545 -23.256210
Al 1.371233 1.377455 -23.256210
Al 1.371233 -1.357545 -20.521210
Al -1.363767 1.377455 -20.521210
Al -1.363767 -1.357545 -17.786210
Al 1.371233 1.377455 -17.786210
Al 1.371233 -1.357545 -15.051210
Al -1.363767 1.377455 -15.051210
Al -1.363767 -1.357545 -12.316210
Al 1.371233 1.377455 -12.316210
Al 1.371233 -1.357545 -9.581210
Al -1.363767 1.377455 -9.581210
Al -1.363767 -1.357545 -6.846210
Al 1.371233 1.377455 -6.846210
Al 1.371233 -1.357545 -4.111210
Al -1.363767 1.377455 -4.111210
Al -1.363767 -1.357545 -1.376210
Al 1.371233 1.377455 -1.376210
Al 1.371233 -1.357545 1.358790
Al -1.363767 1.377455 1.358790
Al -1.363767 -1.357545 4.093790
Al 1.371233 1.377455 4.093790
Al 1.371233 -1.357545 6.828790
Al -1.363767 1.377455 6.828790
Al -1.363767 -1.357545 9.563790
Al 1.371233 1.377455 9.563790
Al 1.371233 -1.357545 12.298790
Al -1.363767 1.377455 12.298790
Al -1.363767 -1.357545 15.033790
Al 1.371233 1.377455 15.033790
Al 1.371233 -1.357545 17.768790
Al -1.363767 1.377455 17.768790
Al -1.363767 -1.357545 20.503790
Al 1.371233 1.377455 20.503790
Al 1.371233 -1.357545 23.238790
Al -1.363767 1.377455 23.238790
Al 1.371233 4.112455 -20.521210
Al -1.363767 4.112455 -17.786210
Al 1.371233 6.847455 -17.786210
Al 1.371233 4.112455 -15.051210
Al -1.363767 6.847455 -15.051210
Al -1.363767 4.112455 -12.316210
Al 1.371233 6.847455 -12.316210
Al 1.371233 4.112455 -9.581210
Al -1.363767 6.847455 -9.581210
Al -1.363767 4.112455 -6.846210
Al 1.371233 6.847455 -6.846210
Al 1.371233 4.112455 -4.111210
Al -1.363767 6.847455 -4.111210
Al -1.363767 4.112455 -1.376210
Al 1.371233 6.847455 -1.376210
Al 1.371233 4.112455 1.358790
Al -1.363767 6.847455 1.358790
Al -1.363767 4.112455 4.093790
Al 1.371233 6.847455 4.093790
Al 1.371233 4.112455 6.828790
Al -1.363767 6.847455 6.828790
Al -1.363767 4.112455 9.563790
Al 1.371233 6.847455 9.563790
Al 1.371233 4.112455 12.298790
Al -1.363767 6.847455 12.298790
Al -1.363767 4.112455 15.033790
Al 1.371233 6.847455 15.033790
Al 1.371233 4.112455 17.768790
Al -1.363767 6.847455 17.768790
Al -1.363767 4.112455 20.503790
Al 1.371233 9.582455 -15.051210
Al -1.363767 9.582455 -12.316210
Al 1.371233 12.317455 -12.316210
Al 1.371233 9.582455 -9.581210
Al -1.363767 12.317455 -9.581210
Al -1.363767 9.582455 -6.846210
Al 1.371233 12.317455 -6.846210
Al 1.371233 9.582455 -4.111210
Al -1.363767 12.317455 -4.111210
Al -1.363767 9.582455 -1.376210
Al 1.371233 12.317455 -1.376210
Al 1.371233 9.582455 1.358790
Al -1.363767 12.317455 1.358790
Al -1.363767 9.582455 4.093790
Al 1.371233 12.317455 4.093790
Al 1.371233 9.582455 6.828790
Al -1.363767 12.317455 6.828790
Al -1.363767 9.582455 9.563790
Al 1.371233 12.317455 9.563790
Al 1.371233 9.582455 12.298790
Al -1.363767 12.317455 12.298790
Al -1.363767 9.582455 15.033790
Al 1.371233 15.052455 -9.581210
Al -1.363767 15.052455 -6.846210
Al 1.371233 17.787455 -6.846210
Al 1.371233 15.052455 -4.111210
Al -1.363767 17.787455 -4.111210
Al -1.363767 15.052455 -1.376210
Al 1.371233 17.787455 -1.376210
Al 1.371233 15.052455 1.358790
Al -1.363767 17.787455 1.358790
Al -1.363767 15.052455 4.093790
Al 1.371233 17.787455 4.093790
Al 1.371233 15.052455 6.828790
Al -1.363767 17.787455 6.828790
Al -1.363767 15.052455 9.563790
Al 1.371233 20.522455 -4.111210
Al -1.363767 20.522455 -1.376210
Al 1.371233 23.257455 -1.376210
Al 1.371233 20.522455 1.358790
Al -1.363767 23.257455 1.358790
Al -1.363767 20.522455 4.093790
Al 4.106233 -20.502545 1.358790
Al 4.106233 -23.237545 4.093790
Al 6.841233 -20.502545 4.093790
Al 6.841233 -23.237545 6.828790
Al 4.106233 -20.502545 6.828790
Al 4.106233 -15.032545 -4.111210
Al 4.106233 -17.767545 -1.376210
Al 6.841233 -15.032545 -1.376210
Al 6.841233 -17.767545 1.358790
Al 4.106233 -15.032545 1.358790
Al 4.106233 -17.767545 4.093790
Al 6.841233 -15.032545 4.093790
Al 6.841233 -17.767545 6.828790
Al 4.106233 -15.032545 6.828790
Al 4.106233 -17.767545 9.563790
Al 6.841233 -15.032545 9.563790
Al 6.841233 -17.767545 12.298790
Al 4.106233 -15.032545 12.298790
Al 6.841233 -15.032545 15.033790
Al 4.106233 -9.562545 -9.581210
Al 4.106233 -12.297545 -6.846210
Al 6.841233 -9.562545 -6.846210
Al 6.841233 -12.297545 -4.111210
Al 4.106233 -9.562545 -4.111210
Al 4.106233 -12.297545 -1.376210
Al 6.841233 -9.562545 -1.376210
Al 6.841233 -12.297545 1.358790
Al 4.106233 -9.562545 1.358790
Al 4.106233 -12.297545 4.093790
Al 6.841233 -9.562545 4.093790
Al 6.841233 -12.297545 6.828790
Al 4.106233 -9.562545 6.828790
Al 4.106233 -12.297545 9.563790
Al 6.841233 -9.562545 9.563790
Al 6.841233 -12.297545 12.298790
Al 4.106233 -9.562545 12.298790
Al 4.106233 -12.297545 15.033790
Al 6.841233 -9.562545 15.033790
Al 6.841233 -12.297545 17.768790
Al 4.106233 -9.562545 17.768790
Al 6.841233 -9.562545 20.503790
Al 4.106233 -4.092545 -15.051210
Al 4.106233 -6.827545 -12.316210
Al 6.841233 -4.092545 -12.316210
Al 6.841233 -6.827545 -9.581210
Al 4.106233 -4.092545 -9.581210
Al 4.106233 -6.827545 -6.846210
Al 6.841233 -4.092545 -6.846210
Al 6.841233 -6.827545 -4.111210
Al 4.106233 -4.092545 -4.111210
Al 4.106233 -6.827545 -1.376210
Al 6.841233 -4.092545 -1.376210
Al 6.841233 -6.827545 1.358790
Al 4.106233 -4.092545 1.358790
Al 4.106233 -6.827545 4.093790
Al 6.841233 -4.092545 4.093790
Al 6.841233 -6.827545 6.828790
Al 4.106233 -4.092545 6.828790
Al 4.106233 -6.827545 9.563790
Al 6.841233 -4.092545 9.563790
Al 6.841233 -6.827545 12.298790
Al 4.106233 -4.092545 12.298790
Al 4.106233 -6.827545 15.033790
Al 6.841233 -4.092545 15.033790
Al 6.841233 -6.827545 17.768790
Al 4.106233 -4.092545 17.768790
Al 4.106233 -6.827545 20.503790
Al 6.841233 -4.092545 20.503790
Al 6.841233 -6.827545 23.238790
Al 4.106233 -4.092545 23.238790
Al 4.106233 1.377455 -20.521210
Al 4.106233 -1.357545 -17.786210
Al 6.841233 1.377455 -17.786210
Al 6.841233 -1.357545 -15.051210
Al 4.106233 1.377455 -15.051210
Al 4.106233 -1.357545 -12.316210
Al 6.841233 1.377455 -12.316210
Al 6.841233 -1.357545 -9.581210
Al 4.106233 1.377455 -9.581210
Al 4.106233 -1.357545 -6.846210
Al 6.841233 1.377455 -6.846210
Al 6.841233 -1.357545 -4.111210
Al 4.106233 1.377455 -4.111210
Al 4.106233 -1.357545 -1.376210
Al 6.841233 1.377455 -1.376210
Al 6.841233 -1.357545 1.358790
Al 4.106233 1.377455 1.358790
Al 4.106233 -1.357545 4.093790
Al 6.841233 1.377455 4.093790
Al 6.841233 -1.357545 6.828790
Al 4.106233 1.377455 6.828790
Al 4.106233 -1.357545 9.563790
Al 6.841233 1.377455 9.563790
Al 6.841233 -1.357545 12.298790
Al 4.106233 1.377455 12.298790
Al 4.106233 -1.357545 15.033790
Al 6.841233 1.377455 15.033790
Al 6.841233 -1.357545 17.768790
Al 4.106233 1.377455 17.768790
Al 4.106233 -1.357545 20.503790
Al 4.106233 4.112455 -23.256210
Al 6.841233 6.847455 -23.256210
Al 6.841233 4.112455 -20.521210
Al 4.106233 6.847455 -20.521210
Al 4.106233 4.112455 -17.786210
Al 6.841233 6.847455 -17.786210
Al 6.841233 4.112455 -15.051210
Al 4.106233 6.847455 -15.051210
Al 4.106233 4.112455 -12.316210
Al 6.841233 6.847455 -12.316210
Al 6.841233 4.112455 -9.581210
Al 4.106233 6.847455 -9.581210
Al 4.106233 4.112455 -6.846210
Al 6.841233 6.847455 -6.846210
Al 6.841233 4.112455 -4.111210
Al 4.106233 6.847455 -4.111210
Al 4.106233 4.112455 -1.376210
Al 6.841233 6.847455 -1.376210
Al 6.841233 4.112455 1.358790
Al 4.106233 6.847455 1.358790
Al 4.106233 4.112455 4.093790
Al 6.841233 6.847455 4.093790
Al 6.841233 4.112455 6.828790
Al 4.106233 6.847455 6.828790
Al 4.106233 4.112455 9.563790
Al 6.841233 6.847455 9.563790
Al 6.841233 4.112455 12.298790
Al 4.106233 6.847455 12.298790
Al 4.106233 4.112455 15.033790
Al 6.841233 9.582455 -20.521210
Al 4.106233 9.582455 -17.786210
Al 6.841233 12.317455 -17.786210
Al 6.841233 9.582455 -15.051210
Al 4.106233 12.317455 -15.051210
Al 4.106233 9.582455 -12.316210
Al 6.841233 12.317455 -12.316210
Al 6.841233 9.582455 -9.581210
Al 4.106233 12.317455 -9.581210
Al 4.106233 9.582455 -6.846210
Al 6.841233 12.317455 -6.846210
Al 6.841233 9.582455 -4.111210
Al 4.106233 12.317455 -4.111210
Al 4.106233 9.582455 -1.376210
Al 6.841233 12.317455 -1.376210
Al 6.841233 9.582455 1.358790
Al 4.106233 12.317455 1.358790
Al 4.106233 9.582455 4.093790
Al 6.841233 12.317455 4.093790
Al 6.841233 9.582455 6.828790
Al 4.106233 12.317455 6.828790
Al 4.106233 9.582455 9.563790
Al 6.841233 15.052455 -15.051210
Al 4.106233 15.052455 -12.316210
Al 6.841233 17.787455 -12.316210
Al 6.841233 15.052455 -9.581210
Al 4.106233 17.787455 -9.581210
Al 4.106233 15.052455 -6.846210
Al 6.841233 17.787455 -6.846210
Al 6.841233 15.052455 -4.111210
Al 4.106233 17.787455 -4.111210
Al 4.106233 15.052455 -1.376210
Al 6.841233 17.787455 -1.376210
Al 6.841233 15.052455 1.358790
Al 4.106233 17.787455 1.358790
Al 4.106233 15.052455 4.093790
Al 4.106233 20.522455 -6.846210
Al 6.841233 23.257455 -6.846210
Al 6.841233 20.522455 -4.111210
Al 4.106233 23.257455 -4.111210
Al 4.106233 20.522455 -1.376210
Al 9.576233 -20.502545 6.828790
Al 9.576233 -23.237545 9.563790
Al 12.311233 -20.502545 9.563790
Al 9.576233 -20.502545 12.298790
Al 9.576233 -15.032545 1.358790
Al 9.576233 -17.767545 4.093790
Al 12.311233 -15.032545 4.093790
Al 12.311233 -17.767545 6.828790
Al 9.576233 -15.032545 6.828790
Al 9.576233 -17.767545 9.563790
Al 12.311233 -15.032545 9.563790
Al 9.576233 -15.032545 12.298790
Al 9.576233 -17.767545 15.033790
Al 12.311233 -15.032545 15.033790
Al 9.576233 -15.032545 17.768790
Al 9.576233 -9.562545 -4.111210
Al 9.576233 -12.297545 -1.376210
Al 12.311233 -9.562545 -1.376210
Al 12.311233 -12.297545 1.358790
Al 9.576233 -9.562545 1.358790
Al 9.576233 -12.297545 4.093790
Al 12.311233 -9.562545 4.093790
Al 12.311233 -12.297545 6.828790
Al 9.576233 -9.562545 6.828790
Al 9.576233 -12.297545 9.563790
Al 12.311233 -9.562545 9.563790
Al 12.311233 -12.297545 12.298790
Al 9.576233 -9.562545 12.298790
Al 9.576233 -12.297545 15.033790
Al 12.311233 -9.562545 15.033790
Al 9.576233 -9.562545 17.768790
Al 9.576233 -12.297545 20.503790
Al 12.311233 -9.562545 20.503790
Al 9.576233 -9.562545 23.238790
Al 9.576233 -4.092545 -9.581210
Al 9.576233 -6.827545 -6.846210
Al 12.311233 -4.092545 -6.846210
Al 12.311233 -6.827545 -4.111210
Al 9.576233 -4.092545 -4.111210
Al 9.576233 -6.827545 -1.376210
Al 12.311233 -4.092545 -1.376210
Al 12.311233 -6.827545 1.358790
Al 9.576233 -4.092545 1.358790
Al 9.576233 -6.827545 4.093790
Al 12.311233 -4.092545 4.093790
Al 12.311233 -6.827545 6.828790
Al 9.576233 -4.092545 6.828790
Al 9.576233 -6.827545 9.563790
Al 12.311233 -4.092545 9.563790
Al 12.311233 -6.827545 12.298790
Al 9.576233 -4.092545 12.298790
Al 9.576233 -6.827545 15.033790
Al 12.311233 -4.092545 15.033790
Al 12.311233 -6.827545 17.768790
Al 9.576233 -4.092545 17.768790
Al 9.576233 -6.827545 20.503790
Al 9.576233 1.377455 -15.051210
Al 9.576233 -1.357545 -12.316210
Al 12.311233 1.377455 -12.316210
Al 12.311233 -1.357545 -9.581210
Al 9.576233 1.377455 -9.581210
Al 9.576233 -1.357545 -6.846210
Al 12.311233 1.377455 -6.846210
Al 12.311233 -1.357545 -4.111210
Al 9.576233 1.377455 -4.111210
Al 9.576233 -1.357545 -1.376210
Al 12.311233 1.377455 -1.376210
Al 12.311233 -1.357545 1.358790
Al 9.576233 1.377455 1.358790
Al 9.576233 -1.357545 4.093790
Al 12.311233 1.377455 4.093790
Al 12.311233 -1.357545 6.828790
Al 9.576233 1.377455 6.828790
Al 9.576233 -1.357545 9.563790
Al 12.311233 1.377455 9.563790
Al 12.311233 -1.357545 12.298790
Al 9.576233 1.377455 12.298790
Al 9.576233 -1.357545 15.033790
Al 9.576233 6.847455 -20.521210
Al 9.576233 4.112455 -17.786210
Al 12.311233 6.847455 -17.786210
Al 12.311233 4.112455 -15.051210
Al 9.576233 6.847455 -15.051210
Al 9.576233 4.112455 -12.316210
Al 12.311233 6.847455 -12.316210
Al 12.311233 4.112455 -9.581210
Al 9.576233 6.847455 -9.581210
Al 9.576233 4.112455 -6.846210
Al 12.311233 6.847455 -6.846210
Al 12.311233 4.112455 -4.111210
Al 9.576233 6.847455 -4.111210
Al 9.576233 4.112455 -1.376210
Al 12.311233 6.847455 -1.376210
Al 12.311233 4.112455 1.358790
Al 9.576233 6.847455 1.358790
Al 9.576233 4.112455 4.093790
Al 12.311233 6.847455 4.093790
Al 12.311233 4.112455 6.828790
Al 9.576233 6.847455 6.828790
Al 9.576233 4.112455 9.563790
Al 9.576233 9.582455 -23.256210
Al 12.311233 9.582455 -20.521210
Al 9.576233 12.317455 -20.521210
Al 9.576233 9.582455 -17.786210
Al 12.311233 9.582455 -15.051210
Al 9.576233 12.317455 -15.051210
Al 9.576233 9.582455 -12.316210
Al 12.311233 12.317455 -12.316210
Al 12.311233 9.582455 -9.581210
Al 9.576233 12.317455 -9.581210
Al 9.576233 9.582455 -6.846210
Al 12.311233 12.317455 -6.846210
Al 12.311233 9.582455 -4.111210
Al 9.576233 12.317455 -4.111210
Al 9.576233 9.582455 -1.376210
Al 12.311233 12.317455 -1.376210
Al 12.311233 9.582455 1.358790
Al 9.576233 12.317455 1.358790
Al 9.576233 9.582455 4.093790
Al 9.576233 15.052455 -17.786210
Al 12.311233 15.052455 -15.051210
Al 9.576233 17.787455 -15.051210
Al 9.576233 15.052455 -12.316210
Al 12.311233 15.052455 -9.581210
Al 9.576233 17.787455 -9.581210
Al 9.576233 15.052455 -6.846210
Al 12.311233 17.787455 -6.846210
Al 12.311233 15.052455 -4.111210
Al 9.576233 17.787455 -4.111210
Al 9.576233 15.052455 -1.376210
Al 9.576233 20.522455 -12.316210
Al 12.311233 20.522455 -9.581210
Al 9.576233 23.257455 -9.581210
Al 9.576233 20.522455 -6.846210
Al 15.046233 -15.032545 6.828790
Al 15.046233 -17.767545 9.563790
Al 17.781233 -15.032545 9.563790
Al 15.046233 -15.032545 12.298790
Al 15.046233 -9.562545 1.358790
Al 15.046233 -12.297545 4.093790
Al 17.781233 -9.562545 4.093790
Al 15.046233 -9.562545 6.828790
Al 15.046233 -12.297545 9.563790
Al 17.781233 -9.562545 9.563790
Al 15.046233 -9.562545 12.298790
Al 15.046233 -12.297545 15.033790
Al 17.781233 -9.562545 15.033790
Al 15.046233 -9.562545 17.768790
Al 15.046233 -4.092545 -4.111210
Al 15.046233 -6.827545 -1.376210
Al 17.781233 -4.092545 -1.376210
Al 17.781233 -6.827545 1.358790
Al 15.046233 -4.092545 1.358790
Al 15.046233 -6.827545 4.093790
Al 17.781233 -4.092545 4.093790
Al 17.781233 -6.827545 6.828790
Al 15.046233 -4.092545 6.828790
Al 15.046233 -6.827545 9.563790
Al 17.781233 -4.092545 9.563790
Al 17.781233 -6.827545 12.298790
Al 15.046233 -4.092545 12.298790
Al 15.046233 1.377455 -9.581210
Al 15.046233 -1.357545 -6.846210
Al 17.781233 1.377455 -6.846210
Al 17.781233 -1.357545 -4.111210
Al 15.046233 1.377455 -4.111210
Al 15.046233 -1.357545 -1.376210
Al 17.781233 1.377455 -1.376210
Al 17.781233 -1.357545 1.358790
Al 15.046233 1.377455 1.358790
Al 15.046233 -1.357545 4.093790
Al 17.781233 1.377455 4.093790
Al 17.781233 -1.357545 6.828790
Al 15.046233 1.377455 6.828790
Al 15.046233 -1.357545 9.563790
Al 15.046233 4.112455 -12.316210
Al 17.781233 6.847455 -12.316210
Al 17.781233 4.112455 -9.581210
Al 15.046233 6.847455 -9.581210
Al 15.046233 4.112455 -6.846210
Al 17.781233 6.847455 -6.846210
Al 17.781233 4.112455 -4.111210
Al 15.046233 6.847455 -4.111210
Al 15.046233 4.112455 -1.376210
Al 17.781233 6.847455 -1.376210
Al 17.781233 4.112455 1.358790
Al 15.046233 6.847455 1.358790
Al 15.046233 4.112455 4.093790
Al 15.046233 9.582455 -17.786210
Al 17.781233 9.582455 -15.051210
Al 15.046233 12.317455 -15.051210
Al 15.046233 9.582455 -12.316210
Al 17.781233 9.582455 -9.581210
Al 15.046233 12.317455 -9.581210
Al 15.046233 9.582455 -6.846210
Al 17.781233 9.582455 -4.111210
Al 15.046233 12.317455 -4.111210
Al 15.046233 9.582455 -1.376210
Al 15.046233 15.052455 -12.316210
Al 17.781233 15.052455 -9.581210
Al 15.046233 17.787455 -9.581210
Al 15.046233 15.052455 -6.846210
Al 20.516233 -9.562545 6.828790
Al 20.516233 -12.297545 9.563790
Al 23.251233 -9.562545 9.563790
Al 20.516233 -9.562545 12.298790
Al 20.516233 -4.092545 1.358790
Al 20.516233 -6.827545 4.093790
Al 23.251233 -4.092545 4.093790
Al 23.251233 -6.827545 6.828790
Al 20.516233 -4.092545 6.828790
Al 20.516233 -6.827545 9.563790
Al 20.516233 1.377455 -4.111210
Al 20.516233 -1.357545 -1.376210
Al 23.251233 1.377455 -1.376210
Al 23.251233 -1.357545 1.358790
Al 20.516233 1.377455 1.358790
Al 20.516233 -1.357545 4.093790
Al 20.516233 6.847455 -9.581210
Al 20.516233 4.112455 -6.846210
Al 23.251233 6.847455 -6.846210
Al 23.251233 4.112455 -4.111210
Al 20.516233 6.847455 -4.111210
Al 20.516233 4.112455 -1.376210
Al 20.516233 9.582455 -12.316210
Al 23.251233 9.582455 -9.581210
Al 20.516233 12.317455 -9.581210
Al 20.516233 9.582455 -6.846210
P -21.876267 -10.930045 -10.948710
P -21.876267 -8.195045 -8.213710
P -19.141267 -8.195045 -10.948710
P -19.141267 -10.930045 -8.213710
P -19.141267 -8.195045 -5.478710
P -19.141267 -5.460045 -8.213710
P -21.876267 -5.460045 -5.478710
P -21.876267 -2.725045 -2.743710
P -19.141267 -2.725045 -5.478710
P -19.141267 -5.460045 -2.743710
P -19.141267 -2.725045 -0.008710
P -19.141267 0.009955 -2.743710
P -21.876267 0.009955 -0.008710
P -21.876267 2.744955 2.726290
P -19.141267 2.744955 -0.008710
P -19.141267 0.009955 2.726290
P -19.141267 2.744955 5.461290
P -19.141267 5.479955 2.726290
P -21.876267 5.479955 5.461290
P -21.876267 8.214955 8.196290
P -19.141267 8.214955 5.461290
P -19.141267 5.479955 8.196290
P -19.141267 8.214955 10.931290
P -19.141267 10.949955 8.196290
P -21.876267 10.949955 10.931290
P -16.406267 -16.400045 -10.948710
P -16.406267 -13.665045 -8.213710
P -13.671267 -13.665045 -10.948710
P -13.671267 -16.400045 -8.213710
P -13.671267 -13.665045 -5.478710
P -16.406267 -10.930045 -16.418710
P -16.406267 -8.195045 -13.683710
P -13.671267 -8.195045 -16.418710
P -13.671267 -10.930045 -13.683710
P -16.406267 -10.930045 -10.948710
P -16.406267 -8.195045 -8.213710
P -13.671267 -8.195045 -10.948710
P -13.671267 -10.930045 -8.213710
P -16.406267 -10.930045 -5.478710
P -16.406267 -8.195045 -2.743710
P -13.671267 -8.195045 -5.478710
P -13.671267 -10.930045 -2.743710
P -13.671267 -8.195045 -0.008710
P -13.671267 -5.460045 -13.683710
P -16.406267 -5.460045 -10.948710
P -16.406267 -2.725045 -8.213710
P -13.671267 -2.725045 -10.948710
P -13.671267 -5.460045 -8.213710
P -16.406267 -5.460045 -5.478710
P -16.406267 -2.725045 -2.743710
P -13.671267 -2.725045 -5.478710
P -13.671267 -5.460045 -2.743710
P -16.406267 -5.460045 -0.008710
P -16.406267 -2.725045 2.726290
P -13.671267 -2.725045 -0.008710
P -13.671267 -5.460045 2.726290
P -13.671267 -2.725045 5.461290
P -13.671267 0.009955 -8.213710
P -16.406267 0.009955 -5.478710
P -16.406267 2.744955 -2.743710
P -13.671267 2.744955 -5.478710
P -13.671267 0.009955 -2.743710
P -16.406267 0.009955 -0.008710
P -16.406267 2.744955 2.726290
P -13.671267 2.744955 -0.008710
P -13.671267 0.009955 2.726290
P -16.406267 0.009955 5.461290
P -16.406267 2.744955 8.196290
P -13.671267 2.744955 5.461290
P -13.671267 0.009955 8.196290
P -13.671267 2.744955 10.931290
P -13.671267 5.479955 -2.743710
P -16.406267 5.479955 -0.008710
P -16.406267 8.214955 2.726290
P -13.671267 8.214955 -0.008710
P -13.671267 5.479955 2.726290
P -16.406267 5.479955 5.461290
P -16.406267 8.214955 8.196290
P -13.671267 8.214955 5.461290
P -13.671267 5.479955 8.196290
P -16.406267 5.479955 10.931290
P -16.406267 8.214955 13.666290
P -13.671267 8.214955 10.931290
P -13.671267 5.479955 13.666290
P -13.671267 8.214955 16.401290
P -13.671267 10.949955 2.726290
P -16.406267 10.949955 5.461290
P -16.406267 13.684955 8.196290
P -13.671267 13.684955 5.461290
P -13.671267 10.949955 8.196290
P -16.406267 10.949955 10.931290
P -13.671267 13.684955 10.931290
P -13.671267 10.949955 13.666290
P -16.406267 10.949955 16.401290
P -13.671267 16.419955 8.196290
P -16.406267 16.419955 10.931290
P -10.936267 -21.870045 -10.948710
P -10.936267 -19.135045 -8.213710
P -8.201267 -19.135045 -10.948710
P -8.201267 -21.870045 -8.213710
P -8.201267 -19.135045 -5.478710
P -10.936267 -16.400045 -16.418710
P -10.936267 -13.665045 -13.683710
P -8.201267 -13.665045 -16.418710
P -8.201267 -16.400045 -13.683710
P -10.936267 -16.400045 -10.948710
P -10.936267 -13.665045 -8.213710
P -8.201267 -13.665045 -10.948710
P -8.201267 -16.400045 -8.213710
P -10.936267 -16.400045 -5.478710
P -10.936267 -13.665045 -2.743710
P -8.201267 -13.665045 -5.478710
P -8.201267 -16.400045 -2.743710
P -8.201267 -13.665045 -0.008710
P -10.936267 -10.930045 -21.888710
P -10.936267 -8.195045 -19.153710
P -8.201267 -8.195045 -21.888710
P -8.201267 -10.930045 -19.153710
P -10.936267 -10.930045 -16.418710
P -10.936267 -8.195045 -13.683710
P -8.201267 -8.195045 -16.418710
P -8.201267 -10.930045 -13.683710
P -10.936267 -10.930045 -10.948710
P -10.936267 -8.195045 -8.213710
P -8.201267 -8.195045 -10.948710
P -8.201267 -10.930045 -8.213710
P -10.936267 -10.930045 -5.478710
P -10.936267 -8.195045 -2.743710
P -8.201267 -8.195045 -5.478710
P -8.201267 -10.930045 -2.743710
P -10.936267 -10.930045 -0.008710
P -10.936267 -8.195045 2.726290
P -8.201267 -8.195045 -0.008710
P -8.201267 -10.930045 2.726290
P -8.201267 -8.195045 5.461290
P -8.201267 -5.460045 -19.153710
P -10.936267 -5.460045 -16.418710
P -10.936267 -2.725045 -13.683710
P -8.201267 -2.725045 -16.418710
P -8.201267 -5.460045 -13.683710
P -10.936267 -5.460045 -10.948710
P -10.936267 -2.725045 -8.213710
P -8.201267 -2.725045 -10.948710
P -8.201267 -5.460045 -8.213710
P -10.936267 -5.460045 -5.478710
P -10.936267 -2.725045 -2.743710
P -8.201267 -2.725045 -5.478710
P -8.201267 -5.460045 -2.743710
P -10.936267 -5.460045 -0.008710
P -10.936267 -2.725045 2.726290
P -8.201267 -2.725045 -0.008710
P -8.201267 -5.460045 2.726290
P -10.936267 -5.460045 5.461290
P -10.936267 -2.725045 8.196290
P -8.201267 -2.725045 5.461290
P -8.201267 -5.460045 8.196290
P -8.201267 -2.725045 10.931290
P -8.201267 0.009955 -13.683710
P -10.936267 0.009955 -10.948710
P -10.936267 2.744955 -8.213710
P -8.201267 2.744955 -10.948710
P -8.201267 0.009955 -8.213710
P -10.936267 0.009955 -5.478710
P -10.936267 2.744955 -2.743710
P -8.201267 2.744955 -5.478710
P -8.201267 0.009955 -2.743710
P -10.936267 0.009955 -0.008710
P -10.936267 2.744955 2.726290
P -8.201267 2.744955 -0.008710
P -8.201267 0.009955 2.726290
P -10.936267 0.009955 5.461290
P -10.936267 2.744955 8.196290
P -8.201267 2.744955 5.461290
P -8.201267 0.009955 8.196290
P -10.936267 0.009955 10.931290
P -10.936267 2.744955 13.666290
P -8.201267 2.744955 10.931290
P -8.201267 0.009955 13.666290
P -8.201267 2.744955 16.401290
P -8.201267 5.479955 -8.213710
P -10.936267 5.479955 -5.478710
P -10.936267 8.214955 -2.743710
P -8.201267 8.214955 -5.478710
P -8.201267 5.479955 -2.743710
P -10.936267 5.479955 -0.008710
P -10.936267 8.214955 2.726290
P -8.201267 8.214955 -0.008710
P -8.201267 5.479955 2.726290
P -10.936267 5.479955 5.461290
P -10.936267 8.214955 8.196290
P -8.201267 8.214955 5.461290
P -8.201267 5.479955 8.196290
P -10.936267 5.479955 10.931290
P -10.936267 8.214955 13.666290
P -8.201267 8.214955 10.931290
P -8.201267 5.479955 13.666290
P -10.936267 5.479955 16.401290
P -10.936267 8.214955 19.136290
P -8.201267 8.214955 16.401290
P -8.201267 5.479955 19.136290
P -8.201267 8.214955 21.871290
P -8.201267 10.949955 -2.743710
P -10.936267 10.949955 -0.008710
P -10.936267 13.684955 2.726290
P -8.201267 13.684955 -0.008710
P -8.201267 10.949955 2.726290
P -10.936267 10.949955 5.461290
P -10.936267 13.684955 8.196290
P -8.201267 13.684955 5.461290
P -8.201267 10.949955 8.196290
P -10.936267 10.949955 10.931290
P -10.936267 13.684955 13.666290
P -8.201267 13.684955 10.931290
P -8.201267 10.949955 13.666290
P -10.936267 10.949955 16.401290
P -8.201267 13.684955 16.401290
P -8.201267 10.949955 19.136290
P -10.936267 10.949955 21.871290
P -8.201267 16.419955 2.726290
P -10.936267 16.419955 5.461290
P -10.936267 19.154955 8.196290
P -8.201267 19.154955 5.461290
P -8.201267 16.419955 8.196290
P -10.936267 16.419955 10.931290
P -8.201267 19.154955 10.931290
P -8.201267 16.419955 13.666290
P -10.936267 16.419955 16.401290
P -8.201267 21.889955 8.196290
P -10.936267 21.889955 10.931290
P -5.466267 -19.135045 -8.213710
P -5.466267 -21.870045 -5.478710
P -5.466267 -19.135045 -2.743710
P -2.731267 -19.135045 -5.478710
P -2.731267 -21.870045 -2.743710
P -2.731267 -19.135045 -0.008710
P -5.466267 -13.665045 -13.683710
P -5.466267 -16.400045 -10.948710
P -5.466267 -13.665045 -8.213710
P -2.731267 -13.665045 -10.948710
P -2.731267 -16.400045 -8.213710
P -5.466267 -16.400045 -5.478710
P -5.466267 -13.665045 -2.743710
P -2.731267 -13.665045 -5.478710
P -2.731267 -16.400045 -2.743710
P -5.466267 -16.400045 -0.008710
P -5.466267 -13.665045 2.726290
P -2.731267 -13.665045 -0.008710
P -2.731267 -16.400045 2.726290
P -2.731267 -13.665045 5.461290
P -5.466267 -8.195045 -19.153710
P -5.466267 -10.930045 -16.418710
P -5.466267 -8.195045 -13.683710
P -2.731267 -8.195045 -16.418710
P -2.731267 -10.930045 -13.683710
P -5.466267 -10.930045 -10.948710
P -5.466267 -8.195045 -8.213710
P -2.731267 -8.195045 -10.948710
P -2.731267 -10.930045 -8.213710
P -5.466267 -10.930045 -5.478710
P -5.466267 -8.195045 -2.743710
P -2.731267 -8.195045 -5.478710
P -2.731267 -10.930045 -2.743710
P -5.466267 -10.930045 -0.008710
P -5.466267 -8.195045 2.726290
P -2.731267 -8.195045 -0.008710
P -2.731267 -10.930045 2.726290
P -5.466267 -10.930045 5.461290
P -5.466267 -8.195045 8.196290
P -2.731267 -8.195045 5.461290
P -2.731267 -10.930045 8.196290
P -2.731267 -8.195045 10.931290
P -5.466267 -5.460045 -21.888710
P -5.466267 -2.725045 -19.153710
P -2.731267 -2.725045 -21.888710
P -2.731267 -5.460045 -19.153710
P -5.466267 -5.460045 -16.418710
P -5.466267 -2.725045 -13.683710
P -2.731267 -2.725045 -16.418710
P -2.731267 -5.460045 -13.683710
P -5.466267 -5.460045 -10.948710
P -5.466267 -2.725045 -8.213710
P -2.731267 -2.725045 -10.948710
P -2.731267 -5.460045 -8.213710
P -5.466267 -5.460045 -5.478710
P -5.466267 -2.725045 -2.743710
P -2.731267 -2.725045 -5.478710
P -2.731267 -5.460045 -2.743710
P -5.466267 -5.460045 -0.008710
P -5.466267 -2.725045 2.726290
P -2.731267 -2.725045 -0.008710
P -2.731267 -5.460045 2.726290
P -5.466267 -5.460045 5.461290
P -5.466267 -2.725045 8.196290
P -2.731267 -2.725045 5.461290
P -2.731267 -5.460045 8.196290
P -5.466267 -5.460045 10.931290
P -5.466267 -2.725045 13.666290
P -2.731267 -2.725045 10.931290
P -2.731267 -5.460045 13.666290
P -2.731267 -2.725045 16.401290
P -2.731267 0.009955 -19.153710
P -5.466267 0.009955 -16.418710
P -5.466267 2.744955 -13.683710
P -2.731267 2.744955 -16.418710
P -2.731267 0.009955 -13.683710
P -5.466267 0.009955 -10.948710
P -5.466267 2.744955 -8.213710
P -2.731267 2.744955 -10.948710
P -2.731267 0.009955 -8.213710
P -5.466267 0.009955 -5.478710
P -5.466267 2.744955 -2.743710
P -2.731267 2.744955 -5.478710
P -2.731267 0.009955 -2.743710
P -5.466267 0.009955 -0.008710
P -5.466267 2.744955 2.726290
P -2.731267 2.744955 -0.008710
P -2.731267 0.009955 2.726290
P -5.466267 0.009955 5.461290
P -5.466267 2.744955 8.196290
P -2.731267 2.744955 5.461290
P -2.731267 0.009955 8.196290
P -5.466267 0.009955 10.931290
P -5.466267 2.744955 13.666290
P -2.731267 2.744955 10.931290
P -2.731267 0.009955 13.666290
P -5.466267 0.009955 16.401290
P -5.466267 2.744955 19.136290
P -2.731267 2.744955 16.401290
P -2.731267 0.009955 19.136290
P -2.731267 2.744955 21.871290
P -2.731267 5.479955 -13.683710
P -5.466267 5.479955 -10.948710
P -5.466267 8.214955 -8.213710
P -2.731267 8.214955 -10.948710
P -2.731267 5.479955 -8.213710
P -5.466267 5.479955 -5.478710
P -5.466267 8.214955 -2.743710
P -2.731267 8.214955 -5.478710
P -2.731267 5.479955 -2.743710
P -5.466267 5.479955 -0.008710
P -5.466267 8.214955 2.726290
P -2.731267 8.214955 -0.008710
P -2.731267 5.479955 2.726290
P -5.466267 5.479955 5.461290
P -5.466267 8.214955 8.196290
P -2.731267 8.214955 5.461290
P -2.731267 5.479955 8.196290
P -5.466267 5.479955 10.931290
P -5.466267 8.214955 13.666290
P -2.731267 8.214955 10.931290
P -2.731267 5.479955 13.666290
P -5.466267 5.479955 16.401290
P -5.466267 8.214955 19.136290
P -2.731267 8.214955 16.401290
P -2.731267 5.479955 19.136290
P -5.466267 5.479955 21.871290
P -2.731267 10.949955 -8.213710
P -5.466267 10.949955 -5.478710
P -5.466267 13.684955 -2.743710
P -2.731267 13.684955 -5.478710
P -2.731267 10.949955 -2.743710
P -5.466267 10.949955 -0.008710
P -5.466267 13.684955 2.726290
P -2.731267 13.684955 -0.008710
P -2.731267 10.949955 2.726290
P -5.466267 10.949955 5.461290
P -5.466267 13.684955 8.196290
P -2.731267 13.684955 5.461290
P -2.731267 10.949955 8.196290
P -5.466267 10.949955 10.931290
P -5.466267 13.684955 13.666290
P -2.731267 13.684955 10.931290
P -2.731267 10.949955 13.666290
P -5.466267 10.949955 16.401290
P -2.731267 16.419955 -2.743710
P -5.466267 16.419955 -0.008710
P -5.466267 19.154955 2.726290
P -2.731267 19.154955 -0.008710
P -2.731267 16.419955 2.726290
P -5.466267 16.419955 5.461290
P -5.466267 19.154955 8.196290
P -2.731267 19.154955 5.461290
P -2.731267 16.419955 8.196290
P -5.466267 16.419955 10.931290
P -2.731267 21.889955 2.726290
P -5.466267 21.889955 5.461290
P 0.003733 -19.135045 -2.743710
P 0.003733 -21.870045 -0.008710
P 0.003733 -19.135045 2.726290
P 2.738733 -19.135045 -0.008710
P 2.738733 -21.870045 2.726290
P 2.738733 -19.135045 5.461290
P 0.003733 -13.665045 -8.213710
P 0.003733 -16.400045 -5.478710
P 0.003733 -13.665045 -2.743710
P 2.738733 -13.665045 -5.478710
P 2.738733 -16.400045 -2.743710
P 0.003733 -16.400045 -0.008710
P 0.003733 -13.665045 2.726290
P 2.738733 -13.665045 -0.008710
P 2.738733 -16.400045 2.726290
P 0.003733 -16.400045 5.461290
P 0.003733 -13.665045 8.196290
P 2.738733 -13.665045 5.461290
P 2.738733 -16.400045 8.196290
P 2.738733 -13.665045 10.931290
P 0.003733 -8.195045 -13.683710
P 0.003733 -10.930045 -10.948710
P 0.003733 -8.195045 -8.213710
P 2.738733 -8.195045 -10.948710
P 2.738733 -10.930045 -8.213710
P 0.003733 -10.930045 -5.478710
P 0.003733 -8.195045 -2.743710
P 2.738733 -8.195045 -5.478710
P 2.738733 -10.930045 -2.743710
P 0.003733 -10.930045 -0.008710
P 0.003733 -8.195045 2.726290
P 2.738733 -8.195045 -0.008710
P 2.738733 -10.930045 2.726290
P 0.003733 -10.930045 5.461290
P 0.003733 -8.195045 8.196290
P 2.738733 -8.195045 5.461290
P 2.738733 -10.930045 8.196290
P 0.003733 -10.930045 10.931290
P 0.003733 -8.195045 13.666290
P 2.738733 -8.195045 10.931290
P 2.738733 -10.930045 13.666290
P 2.738733 -8.195045 16.401290
P 0.003733 -2.725045 -19.153710
P 0.003733 -5.460045 -16.418710
P 0.003733 -2.725045 -13.683710
P 2.738733 -2.725045 -16.418710
P 2.738733 -5.460045 -13.683710
P 0.003733 -5.460045 -10.948710
P 0.003733 -2.725045 -8.213710
P 2.738733 -2.725045 -10.948710
P 2.738733 -5.460045 -8.213710
P 0.003733 -5.460045 -5.478710
P 0.003733 -2.725045 -2.743710
P 2.738733 -2.725045 -5.478710
P 2.738733 -5.460045 -2.743710
P 0.003733 -5.460045 -0.008710
P 0.003733 -2.725045 2.726290
P 2.738733 -2.725045 -0.008710
P 2.738733 -5.460045 2.726290
P 0.003733 -5.460045 5.461290
P 0.003733 -2.725045 8.196290
P 2.738733 -2.725045 5.461290
P 2.738733 -5.460045 8.196290
P 0.003733 -5.460045 10.931290
P 0.003733 -2.725045 13.666290
P 2.738733 -2.725045 10.931290
P 2.738733 -5.460045 13.666290
P 0.003733 -5.460045 16.401290
P 0.003733 -2.725045 19.136290
P 2.738733 -2.725045 16.401290
P 2.738733 -5.460045 19.136290
P 2.738733 -2.725045 21.871290
P 0.003733 0.009955 -21.888710
P 0.003733 2.744955 -19.153710
P 2.738733 2.744955 -21.888710
P 2.738733 0.009955 -19.153710
P 0.003733 0.009955 -16.418710
P 0.003733 2.744955 -13.683710
P 2.738733 2.744955 -16.418710
P 2.738733 0.009955 -13.683710
P 0.003733 0.009955 -10.948710
P 0.003733 2.744955 -8.213710
P 2.738733 2.744955 -10.948710
P 2.738733 0.009955 -8.213710
P 0.003733 0.009955 -5.478710
P 0.003733 2.744955 -2.743710
P 2.738733 2.744955 -5.478710
P 2.738733 0.009955 -2.743710
P 0.003733 0.009955 -0.008710
P 0.003733 2.744955 2.726290
P 2.738733 2.744955 -0.008710
P 2.738733 0.009955 2.726290
P 0.003733 0.009955 5.461290
P 0.003733 2.744955 8.196290
P 2.738733 2.744955 5.461290
P 2.738733 0.009955 8.196290
P 0.003733 0.009955 10.931290
P 0.003733 2.744955 13.666290
P 2.738733 2.744955 10.931290
P 2.738733 0.009955 13.666290
P 0.003733 0.009955 16.401290
P 0.003733 2.744955 19.136290
P 2.738733 2.744955 16.401290
P 2.738733 0.009955 19.136290
P 0.003733 0.009955 21.871290
P 2.738733 5.479955 -19.153710
P 0.003733 5.479955 -16.418710
P 0.003733 8.214955 -13.683710
P 2.738733 8.214955 -16.418710
P 2.738733 5.479955 -13.683710
P 0.003733 5.479955 -10.948710
P 0.003733 8.214955 -8.213710
P 2.738733 8.214955 -10.948710
P 2.738733 5.479955 -8.213710
P 0.003733 5.479955 -5.478710
P 0.003733 8.214955 -2.743710
P 2.738733 8.214955 -5.478710
P 2.738733 5.479955 -2.743710
P 0.003733 5.479955 -0.008710
P 0.003733 8.214955 2.726290
P 2.738733 8.214955 -0.008710
P 2.738733 5.479955 2.726290
P 0.003733 5.479955 5.461290
P 0.003733 8.214955 8.196290
P 2.738733 8.214955 5.461290
P 2.738733 5.479955 8.196290
P 0.003733 5.479955 10.931290
P 0.003733 8.214955 13.666290
P 2.738733 8.214955 10.931290
P 2.738733 5.479955 13.666290
P 0.003733 5.479955 16.401290
P 2.738733 10.949955 -13.683710
P 0.003733 10.949955 -10.948710
P 0.003733 13.684955 -8.213710
P 2.738733 13.684955 -10.948710
P 2.738733 10.949955 -8.213710
P 0.003733 10.949955 -5.478710
P 0.003733 13.684955 -2.743710
P 2.738733 13.684955 -5.478710
P 2.738733 10.949955 -2.743710
P 0.003733 10.949955 -0.008710
P 0.003733 13.684955 2.726290
P 2.738733 13.684955 -0.008710
P 2.738733 10.949955 2.726290
P 0.003733 10.949955 5.461290
P 0.003733 13.684955 8.196290
P 2.738733 13.684955 5.461290
P 2.738733 10.949955 8.196290
P 0.003733 10.949955 10.931290
P 2.738733 16.419955 -8.213710
P 0.003733 16.419955 -5.478710
P 0.003733 19.154955 -2.743710
P 2.738733 19.154955 -5.478710
P 2.738733 16.419955 -2.743710
P 0.003733 16.419955 -0.008710
P 0.003733 19.154955 2.726290
P 2.738733 19.154955 -0.008710
P 2.738733 16.419955 2.726290
P 0.003733 16.419955 5.461290
P 2.738733 21.889955 -2.743710
P 0.003733 21.889955 -0.008710
P 5.473733 -19.135045 2.726290
P 5.473733 -21.870045 5.461290
P 5.473733 -19.135045 8.196290
P 8.208733 -19.135045 5.461290
P 8.208733 -21.870045 8.196290
P 8.208733 -19.135045 10.931290
P 5.473733 -13.665045 -2.743710
P 5.473733 -16.400045 -0.008710
P 5.473733 -13.665045 2.726290
P 8.208733 -13.665045 -0.008710
P 8.208733 -16.400045 2.726290
P 5.473733 -16.400045 5.461290
P 5.473733 -13.665045 8.196290
P 8.208733 -13.665045 5.461290
P 8.208733 -16.400045 8.196290
P 5.473733 -16.400045 10.931290
P 5.473733 -13.665045 13.666290
P 8.208733 -13.665045 10.931290
P 8.208733 -16.400045 13.666290
P 8.208733 -13.665045 16.401290
P 5.473733 -8.195045 -8.213710
P 5.473733 -10.930045 -5.478710
P 5.473733 -8.195045 -2.743710
P 8.208733 -8.195045 -5.478710
P 8.208733 -10.930045 -2.743710
P 5.473733 -10.930045 -0.008710
P 5.473733 -8.195045 2.726290
P 8.208733 -8.195045 -0.008710
P 8.208733 -10.930045 2.726290
P 5.473733 -10.930045 5.461290
P 5.473733 -8.195045 8.196290
P 8.208733 -8.195045 5.461290
P 8.208733 -10.930045 8.196290
P 5.473733 -10.930045 10.931290
P 5.473733 -8.195045 13.666290
P 8.208733 -8.195045 10.931290
P 8.208733 -10.930045 13.666290
P 5.473733 -10.930045 16.401290
P 5.473733 -8.195045 19.136290
P 8.208733 -8.195045 16.401290
P 8.208733 -10.930045 19.136290
P 8.208733 -8.195045 21.871290
P 5.473733 -2.725045 -13.683710
P 5.473733 -5.460045 -10.948710
P 5.473733 -2.725045 -8.213710
P 8.208733 -2.725045 -10.948710
P 8.208733 -5.460045 -8.213710
P 5.473733 -5.460045 -5.478710
P 5.473733 -2.725045 -2.743710
P 8.208733 -2.725045 -5.478710
P 8.208733 -5.460045 -2.743710
P 5.473733 -5.460045 -0.008710
P 5.473733 -2.725045 2.726290
P 8.208733 -2.725045 -0.008710
P 8.208733 -5.460045 2.726290
P 5.473733 -5.460045 5.461290
P 5.473733 -2.725045 8.196290
P 8.208733 -2.725045 5.461290
P 8.208733 -5.460045 8.196290
P 5.473733 -5.460045 10.931290
P 5.473733 -2.725045 13.666290
P 8.208733 -2.725045 10.931290
P 8.208733 -5.460045 13.666290
P 5.473733 -5.460045 16.401290
P 5.473733 -2.725045 19.136290
P 8.208733 -2.725045 16.401290
P 8.208733 -5.460045 19.136290
P 5.473733 -5.460045 21.871290
P 5.473733 2.744955 -19.153710
P 5.473733 0.009955 -16.418710
P 5.473733 2.744955 -13.683710
P 8.208733 2.744955 -16.418710
P 8.208733 0.009955 -13.683710
P 5.473733 0.009955 -10.948710
P 5.473733 2.744955 -8.213710
P 8.208733 2.744955 -10.948710
P 8.208733 0.009955 -8.213710
P 5.473733 0.009955 -5.478710
P 5.473733 2.744955 -2.743710
P 8.208733 2.744955 -5.478710
P 8.208733 0.009955 -2.743710
P 5.473733 0.009955 -0.008710
P 5.473733 2.744955 2.726290
P 8.208733 2.744955 -0.008710
P 8.208733 0.009955 2.726290
P 5.473733 0.009955 5.461290
P 5.473733 2.744955 8.196290
P 8.208733 2.744955 5.461290
P 8.208733 0.009955 8.196290
P 5.473733 0.009955 10.931290
P 5.473733 2.744955 13.666290
P 8.208733 2.744955 10.931290
P 8.208733 0.009955 13.666290
P 5.473733 0.009955 16.401290
P 5.473733 5.479955 -21.888710
P 5.473733 8.214955 -19.153710
P 8.208733 8.214955 -21.888710
P 8.208733 5.479955 -19.153710
P 5.473733 5.479955 -16.418710
P 5.473733 8.214955 -13.683710
P 8.208733 8.214955 -16.418710
P 8.208733 5.479955 -13.683710
P 5.473733 5.479955 -10.948710
P 5.473733 8.214955 -8.213710
P 8.208733 8.214955 -10.948710
P 8.208733 5.479955 -8.213710
P 5.473733 5.479955 -5.478710
P 5.473733 8.214955 -2.743710
P 8.208733 8.214955 -5.478710
P 8.208733 5.479955 -2.743710
P 5.473733 5.479955 -0.008710
P 5.473733 8.214955 2.726290
P 8.208733 8.214955 -0.008710
P 8.208733 5.479955 2.726290
P 5.473733 5.479955 5.461290
P 5.473733 8.214955 8.196290
P 8.208733 8.214955 5.461290
P 8.208733 5.479955 8.196290
P 5.473733 5.479955 10.931290
P 8.208733 10.949955 -19.153710
P 5.473733 10.949955 -16.418710
P 5.473733 13.684955 -13.683710
P 8.208733 13.684955 -16.418710
P 8.208733 10.949955 -13.683710
P 5.473733 10.949955 -10.948710
P 5.473733 13.684955 -8.213710
P 8.208733 13.684955 -10.948710
P 8.208733 10.949955 -8.213710
P 5.473733 10.949955 -5.478710
P 5.473733 13.684955 -2.743710
P 8.208733 13.684955 -5.478710
P 8.208733 10.949955 -2.743710
P 5.473733 10.949955 -0.008710
P 5.473733 13.684955 2.726290
P 8.208733 13.684955 -0.008710
P 8.208733 10.949955 2.726290
P 5.473733 10.949955 5.461290
P 8.208733 16.419955 -13.683710
P 5.473733 16.419955 -10.948710
P 5.473733 19.154955 -8.213710
P 8.208733 19.154955 -10.948710
P 8.208733 16.419955 -8.213710
P 5.473733 16.419955 -5.478710
P 5.473733 19.154955 -2.743710
P 8.208733 19.154955 -5.478710
P 8.208733 16.419955 -2.743710
P 5.473733 16.419955 -0.008710
P 8.208733 21.889955 -8.213710
P 5.473733 21.889955 -5.478710
P 10.943733 -19.135045 8.196290
P 10.943733 -21.870045 10.931290
P 10.943733 -13.665045 2.726290
P 10.943733 -16.400045 5.461290
P 10.943733 -13.665045 8.196290
P 13.678733 -13.665045 5.461290
P 13.678733 -16.400045 8.196290
P 10.943733 -16.400045 10.931290
P 10.943733 -13.665045 13.666290
P 13.678733 -13.665045 10.931290
P 10.943733 -16.400045 16.401290
P 10.943733 -8.195045 -2.743710
P 10.943733 -10.930045 -0.008710
P 10.943733 -8.195045 2.726290
P 13.678733 -8.195045 -0.008710
P 13.678733 -10.930045 2.726290
P 10.943733 -10.930045 5.461290
P 10.943733 -8.195045 8.196290
P 13.678733 -8.195045 5.461290
P 13.678733 -10.930045 8.196290
P 10.943733 -10.930045 10.931290
P 10.943733 -8.195045 13.666290
P 13.678733 -8.195045 10.931290
P 13.678733 -10.930045 13.666290
P 10.943733 -10.930045 16.401290
P 10.943733 -8.195045 19.136290
P 13.678733 -8.195045 16.401290
P 10.943733 -10.930045 21.871290
P 10.943733 -2.725045 -8.213710
P 10.943733 -5.460045 -5.478710
P 10.943733 -2.725045 -2.743710
P 13.678733 -2.725045 -5.478710
P 13.678733 -5.460045 -2.743710
P 10.943733 -5.460045 -0.008710
P 10.943733 -2.725045 2.726290
P 13.678733 -2.725045 -0.008710
P 13.678733 -5.460045 2.726290
P 10.943733 -5.460045 5.461290
P 10.943733 -2.725045 8.196290
P 13.678733 -2.725045 5.461290
P 13.678733 -5.460045 8.196290
P 10.943733 -5.460045 10.931290
P 10.943733 -2.725045 13.666290
P 13.678733 -2.725045 10.931290
P 13.678733 -5.460045 13.666290
P 10.943733 -5.460045 16.401290
P 10.943733 2.744955 -13.683710
P 10.943733 0.009955 -10.948710
P 10.943733 2.744955 -8.213710
P 13.678733 2.744955 -10.948710
P 13.678733 0.009955 -8.213710
P 10.943733 0.009955 -5.478710
P 10.943733 2.744955 -2.743710
P 13.678733 2.744955 -5.478710
P 13.678733 0.009955 -2.743710
P 10.943733 0.009955 -0.008710
P 10.943733 2.744955 2.726290
P 13.678733 2.744955 -0.008710
P 13.678733 0.009955 2.726290
P 10.943733 0.009955 5.461290
P 10.943733 2.744955 8.196290
P 13.678733 2.744955 5.461290
P 13.678733 0.009955 8.196290
P 10.943733 0.009955 10.931290
P 10.943733 8.214955 -19.153710
P 10.943733 5.479955 -16.418710
P 10.943733 8.214955 -13.683710
P 13.678733 8.214955 -16.418710
P 13.678733 5.479955 -13.683710
P 10.943733 5.479955 -10.948710
P 10.943733 8.214955 -8.213710
P 13.678733 8.214955 -10.948710
P 13.678733 5.479955 -8.213710
P 10.943733 5.479955 -5.478710
P 10.943733 8.214955 -2.743710
P 13.678733 8.214955 -5.478710
P 13.678733 5.479955 -2.743710
P 10.943733 5.479955 -0.008710
P 10.943733 8.214955 2.726290
P 13.678733 8.214955 -0.008710
P 13.678733 5.479955 2.726290
P 10.943733 5.479955 5.461290
P 10.943733 10.949955 -21.888710
P 10.943733 10.949955 -16.418710
P 10.943733 13.684955 -13.683710
P 13.678733 10.949955 -13.683710
P 10.943733 10.949955 -10.948710
P 10.943733 13.684955 -8.213710
P 13.678733 13.684955 -10.948710
P 13.678733 10.949955 -8.213710
P 10.943733 10.949955 -5.478710
P 10.943733 13.684955 -2.743710
P 13.678733 13.684955 -5.478710
P 13.678733 10.949955 -2.743710
P 10.943733 10.949955 -0.008710
P 10.943733 16.419955 -16.418710
P 10.943733 16.419955 -10.948710
P 10.943733 19.154955 -8.213710
P 13.678733 16.419955 -8.213710
P 10.943733 16.419955 -5.478710
P 10.943733 21.889955 -10.948710
P 16.413733 -13.665045 8.196290
P 16.413733 -16.400045 10.931290
P 16.413733 -8.195045 2.726290
P 16.413733 -10.930045 5.461290
P 16.413733 -8.195045 8.196290
P 19.148733 -8.195045 5.461290
P 19.148733 -10.930045 8.196290
P 16.413733 -10.930045 10.931290
P 16.413733 -8.195045 13.666290
P 19.148733 -8.195045 10.931290
P 16.413733 -10.930045 16.401290
P 16.413733 -2.725045 -2.743710
P 16.413733 -5.460045 -0.008710
P 16.413733 -2.725045 2.726290
P 19.148733 -2.725045 -0.008710
P 19.148733 -5.460045 2.726290
P 16.413733 -5.460045 5.461290
P 16.413733 -2.725045 8.196290
P 19.148733 -2.725045 5.461290
P 19.148733 -5.460045 8.196290
P 16.413733 -5.460045 10.931290
P 16.413733 2.744955 -8.213710
P 16.413733 0.009955 -5.478710
P 16.413733 2.744955 -2.743710
P 19.148733 2.744955 -5.478710
P 19.148733 0.009955 -2.743710
P 16.413733 0.009955 -0.008710
P 16.413733 2.744955 2.726290
P 19.148733 2.744955 -0.008710
P 19.148733 0.009955 2.726290
P 16.413733 0.009955 5.461290
P 16.413733 8.214955 -13.683710
P 16.413733 5.479955 -10.948710
P 16.413733 8.214955 -8.213710
P 19.148733 8.214955 -10.948710
P 19.148733 5.479955 -8.213710
P 16.413733 5.479955 -5.478710
P 16.413733 8.214955 -2.743710
P 19.148733 8.214955 -5.478710
P 19.148733 5.479955 -2.743710
P 16.413733 5.479955 -0.008710
P 16.413733 10.949955 -16.418710
P 16.413733 10.949955 -10.948710
P 16.413733 13.684955 -8.213710
P 19.148733 10.949955 -8.213710
P 16.413733 10.949955 -5.478710
P 16.413733 16.419955 -10.948710
P 21.883733 -8.195045 8.196290
P 21.883733 -10.930045 10.931290
P 21.883733 -2.725045 2.726290
P 21.883733 -5.460045 5.461290
P 21.883733 2.744955 -2.743710
P 21.883733 0.009955 -0.008710
P 21.883733 8.214955 -8.213710
P 21.883733 5.479955 -5.478710
P 21.883733 10.949955 -10.948710
Cl -19.141267 -13.665045 -10.948710
Cl -19.141267 -10.930045 -13.683710
Cl -19.141267 13.684955 10.931290
Cl -19.141267 10.949955 13.666290
Cl -13.671267 -19.135045 -10.948710
Cl -16.406267 -13.665045 -13.683710
Cl -13.671267 -13.665045 -16.418710
Cl -13.671267 -16.400045 -13.683710
Cl -13.671267 -10.930045 -19.153710
Cl -16.406267 13.684955 13.666290
Cl -13.671267 13.684955 16.401290
Cl -13.671267 10.949955 19.136290
Cl -13.671267 19.154955 10.931290
Cl -13.671267 16.419955 13.666290
Cl -10.936267 -19.135045 -13.683710
Cl -10.936267 -13.665045 -19.153710
Cl -10.936267 13.684955 19.136290
Cl -10.936267 19.154955 13.666290
Cl 10.943733 -19.135045 13.666290
Cl 13.678733 -19.135045 10.931290
Cl 13.678733 -16.400045 13.666290
Cl 10.943733 -13.665045 19.136290
Cl 13.678733 -13.665045 16.401290
Cl 13.678733 -10.930045 19.136290
Cl 10.943733 13.684955 -19.153710
Cl 13.678733 10.949955 -19.153710
Cl 13.678733 13.684955 -16.418710
Cl 10.943733 19.154955 -13.683710
Cl 13.678733 16.419955 -13.683710
Cl 13.678733 19.154955 -10.948710
Cl 16.413733 -13.665045 13.666290
Cl 19.148733 -13.665045 10.931290
Cl 19.148733 -10.930045 13.666290
Cl 16.413733 13.684955 -13.683710
Cl 19.148733 10.949955 -13.683710
Cl 19.148733 13.684955 -10.948710
Cl -24.611267 -8.195045 -10.948710
Cl -8.201267 24.624955 10.931290
Cl 8.208733 -24.605045 10.931290
Cl 24.618733 8.214955 -10.948710
Cl -8.201267 -10.930045 -24.623710
Cl -10.936267 8.214955 24.606290
Cl 10.943733 -8.195045 24.606290
Cl 8.208733 10.949955 -24.623710
Cl -8.201267 -5.460045 -24.623710
Cl -5.466267 8.214955 24.606290
Cl 5.473733 -8.195045 24.606290
Cl 8.208733 5.479955 -24.623710
Cl -24.611267 10.949955 8.196290
Cl -10.936267 -24.605045 -8.213710
Cl 10.943733 24.624955 -8.213710
Cl 24.618733 -10.930045 8.196290
Cl -24.611267 -8.195045 -5.478710
Cl -8.201267 24.624955 5.461290
Cl 8.208733 -24.605045 5.461290
Cl 24.618733 8.214955 -5.478710
Cl -24.611267 5.479955 8.196290
Cl -5.466267 -24.605045 -8.213710
Cl 5.473733 24.624955 -8.213710
Cl 24.618733 -5.460045 8.196290
Cl -24.611267 -2.725045 -5.478710
Cl -2.731267 24.624955 5.461290
Cl 2.738733 -24.605045 5.461290
Cl 24.618733 2.744955 -5.478710
Cl -5.466267 -2.725045 -24.623710
Cl -2.731267 5.479955 24.606290
Cl 2.738733 -5.460045 24.606290
Cl 5.473733 2.744955 -24.623710
Cl -24.611267 -2.725045 -0.008710
Cl 2.738733 -24.605045 -0.008710
Cl -2.731267 24.624955 -0.008710
Cl 24.618733 2.744955 -0.008710
Cl -24.611267 2.744955 -0.008710
Cl -2.731267 -24.605045 -0.008710
Cl 2.738733 24.624955 -0.008710
Cl 24.618733 -2.725045 -0.008710
Cl 0.003733 -2.725045 -24.623710
Cl 0.003733 2.744955 -24.623710
Cl 2.738733 0.009955 24.606290
Cl -2.731267 0.009955 24.606290
Cl -24.611267 2.744955 5.461290
Cl -2.731267 -24.605045 -5.478710
Cl 2.738733 24.624955 -5.478710
Cl 24.618733 -2.725045 5.461290
Cl -10.936267 8.214955 -8.213710
Cl -8.201267 -10.930045 8.196290
Cl 8.208733 10.949955 8.196290
Cl 10.943733 -8.195045 -8.213710
Cl 0.003733 -13.665045 -13.683710
Cl 0.003733 13.684955 -13.683710
Cl -13.671267 0.009955 13.666290
Cl 13.678733 0.009955 13.666290
Cl -19.141267 -16.400045 -8.213710
Cl -16.406267 19.154955 8.196290
Cl 16.413733 -19.135045 8.196290
Cl 19.148733 16.419955 -8.213710
Cl -16.406267 -8.195045 -19.153710
Cl -8.201267 16.419955 19.136290
Cl 8.208733 -16.400045 19.136290
Cl 16.413733 8.214955 -19.153710
Cl -19.141267 8.214955 16.401290
Cl -8.201267 -19.135045 -16.418710
Cl 8.208733 19.154955 -16.418710
Cl 19.148733 -8.195045 16.401290
Cl -13.671267 -13.665045 -0.008710
Cl -13.671267 13.684955 -0.008710
Cl 13.678733 -13.665045 -0.008710
Cl 13.678733 13.684955 -0.008710
Cl 0.003733 -13.665045 13.666290
Cl 0.003733 13.684955 13.666290
Cl -13.671267 0.009955 -13.683710
Cl 13.678733 0.009955 -13.683710
Cl -5.466267 -5.460045 16.401290
Cl -5.466267 5.479955 -16.418710
Cl 5.473733 -5.460045 -16.418710
Cl 5.473733 5.479955 16.401290
Cl -16.406267 -5.460045 5.461290
Cl -5.466267 16.419955 -5.478710
Cl 5.473733 -16.400045 -5.478710
Cl 16.413733 5.479955 5.461290
Cl -19.141267 8.214955 -0.008710
Cl -8.201267 -19.135045 -0.008710
Cl 8.208733 19.154955 -0.008710
Cl 19.148733 -8.195045 -0.008710
Cl -19.141267 2.744955 -5.478710
Cl -2.731267 -19.135045 5.461290
Cl 2.738733 19.154955 5.461290
Cl 19.148733 -2.725045 -5.478710
Cl -10.936267 2.744955 19.136290
Cl -2.731267 -10.930045 -19.153710
Cl 2.738733 10.949955 -19.153710
Cl 10.943733 -2.725045 19.136290
Cl -19.141267 -5.460045 -13.683710
Cl -5.466267 19.154955 13.666290
Cl 5.473733 -19.135045 13.666290
Cl 19.148733 5.479955 -13.683710
Cl -10.936267 19.154955 2.726290
Cl 10.943733 -19.135045 2.726290
Cl -19.141267 -10.930045 -2.743710
Cl 19.148733 10.949955 -2.743710
Cl -13.671267 -19.135045 -5.478710
Cl 13.678733 19.154955 -5.478710
Cl -2.731267 -19.135045 -10.948710
Cl 2.738733 19.154955 -10.948710
Cl -19.141267 2.744955 10.931290
Cl 19.148733 -2.725045 10.931290
Cl -10.936267 -2.725045 -19.153710
Cl 10.943733 2.744955 -19.153710
Cl -2.731267 10.949955 19.136290
Cl 2.738733 -10.930045 19.136290
Cl -5.466267 10.949955 -10.948710
Cl 5.473733 -10.930045 -10.948710
Cl -10.936267 -5.460045 10.931290
Cl 10.943733 5.479955 10.931290
Cl -21.876267 13.684955 8.196290
Cl 21.883733 -13.665045 8.196290
Cl -10.936267 24.624955 8.196290
Cl 10.943733 -24.605045 8.196290
Cl -24.611267 -10.930045 -8.213710
Cl 24.618733 10.949955 -8.213710
Cl -2.731267 -5.460045 -24.623710
Cl 2.738733 5.479955 -24.623710
Cl -5.466267 2.744955 24.606290
Cl 5.473733 -2.725045 24.606290
Cl -8.201267 -24.605045 -10.948710
Cl 8.208733 24.624955 -10.948710
Cl -24.611267 8.214955 10.931290
Cl 24.618733 -8.195045 10.931290
Cl -10.936267 -8.195045 -24.623710
Cl 10.943733 8.214955 -24.623710
Cl -8.201267 10.949955 24.606290
Cl 8.208733 -10.930045 24.606290
Cl -8.201267 -24.605045 -5.478710
Cl 8.208733 24.624955 -5.478710
Cl -8.201267 -16.400045 -19.153710
Cl 8.208733 16.419955 -19.153710
Cl -16.406267 8.214955 19.136290
Cl 16.413733 -8.195045 19.136290
Cl -24.611267 5.479955 2.726290
Cl 24.618733 -5.460045 2.726290
Cl -2.731267 -16.400045 8.196290
Cl 2.738733 16.419955 8.196290
Cl -13.671267 8.214955 -5.478710
Cl 13.678733 -8.195045 -5.478710
Cl -19.141267 -5.460045 2.726290
Cl 19.148733 5.479955 2.726290
Cl -5.466267 19.154955 -2.743710
Cl 5.473733 -19.135045 -2.743710
Cl -5.466267 2.744955 -19.153710
Cl 5.473733 -2.725045 -19.153710
Cl -2.731267 -5.460045 19.136290
Cl 2.738733 5.479955 19.136290
Cl -19.141267 0.009955 -8.213710
Cl 19.148733 0.009955 -8.213710
Cl -10.936267 -10.930045 5.461290
Cl 10.943733 10.949955 5.461290
Cl -16.406267 16.419955 5.461290
Cl 16.413733 -16.400045 5.461290
Cl -2.731267 21.889955 8.196290
Cl 2.738733 -21.870045 8.196290
Cl -10.936267 2.744955 -13.683710
Cl 10.943733 -2.725045 -13.683710
Cl -8.201267 0.009955 19.136290
Cl 8.208733 0.009955 19.136290
Cl 0.003733 -8.195045 -19.153710
Cl 0.003733 8.214955 -19.153710
Cl -2.731267 -10.930045 13.666290
Cl 2.738733 10.949955 13.666290
Cl 0.003733 -19.135045 -8.213710
Cl 0.003733 19.154955 -8.213710
Cl -19.141267 0.009955 8.196290
Cl 19.148733 0.009955 8.196290
Cl -19.141267 10.949955 2.726290
Cl 19.148733 -10.930045 2.726290
Cl -8.201267 -16.400045 2.726290
Cl 8.208733 16.419955 2.726290
Cl -10.936267 13.684955 -2.743710
Cl 10.943733 -13.665045 -2.743710
Cl -16.406267 -19.135045 -8.213710
Cl 16.413733 19.154955 -8.213710
Cl -21.876267 -8.195045 -13.683710
Cl 21.883733 8.214955 -13.683710
Cl -8.201267 19.154955 16.401290
Cl 8.208733 -19.135045 16.401290
Cl -8.201267 -13.665045 -21.888710
Cl 8.208733 13.684955 -21.888710
Cl -13.671267 8.214955 21.871290
Cl 13.678733 -8.195045 21.871290
Cl -24.611267 -5.460045 -2.743710
Cl 24.618733 5.479955 -2.743710
Cl -5.466267 24.624955 2.726290
Cl 5.473733 -24.605045 2.726290
Cl -24.611267 -5.460045 -8.213710
Cl 24.618733 5.479955 -8.213710
Cl -5.466267 -24.605045 -2.743710
Cl 5.473733 24.624955 -2.743710
Cl -13.671267 -8.195045 -21.888710
Cl 13.678733 8.214955 -21.888710
Cl -8.201267 13.684955 21.871290
Cl 8.208733 -13.665045 21.871290
Cl -21.876267 -13.665045 -8.213710
Cl 21.883733 13.684955 -8.213710
Cl -8.201267 -21.870045 -13.683710
Cl 8.208733 21.889955 -13.683710
Cl -21.876267 8.214955 13.666290
Cl 21.883733 -8.195045 13.666290
Cl -2.731267 0.009955 -24.623710
Cl 2.738733 0.009955 -24.623710
Cl 0.003733 -2.725045 24.606290
Cl 0.003733 2.744955 24.606290
Cl -24.611267 8.214955 5.461290
Cl 24.618733 -8.195045 5.461290
Cl -24.611267 0.009955 2.726290
Cl 24.618733 0.009955 2.726290
Cl 0.003733 -24.605045 -2.743710
Cl 0.003733 24.624955 -2.743710
Cl 0.003733 -24.605045 2.726290
Cl 0.003733 24.624955 2.726290
Cl -13.671267 21.889955 8.196290
Cl 13.678733 -21.870045 8.196290
Cl -24.611267 0.009955 -2.743710
Cl 24.618733 0.009955 -2.743710
Cl -8.201267 5.479955 24.606290
Cl 8.208733 -5.460045 24.606290
Cl -5.466267 -8.195045 -24.623710
Cl 5.473733 8.214955 -24.623710
Cl -16.406267 -10.930045 -0.008710
Cl 16.413733 10.949955 -0.008710
Cl -5.466267 8.214955 -13.683710
Cl 5.473733 -8.195045 -13.683710
Cl -8.201267 -5.460045 13.666290
Cl 8.208733 5.479955 13.666290
Cl -16.406267 -2.725045 -13.683710
Cl 16.413733 2.744955 -13.683710
Cl -2.731267 16.419955 13.666290
Cl 2.738733 -16.400045 13.666290
Cl -5.466267 13.684955 -8.213710
Cl 5.473733 -13.665045 -8.213710
Cl -16.406267 2.744955 13.666290
Cl 16.413733 -2.725045 13.666290
Cl -16.406267 5.479955 -5.478710
Cl 16.413733 -5.460045 -5.478710
Cl -10.936267 -19.135045 -2.743710
Cl 10.943733 19.154955 -2.743710
Cl -2.731267 -13.665045 -16.418710
Cl 2.738733 13.684955 -16.418710
Cl -13.671267 -5.460045 8.196290
Cl 13.678733 5.479955 8.196290
Cl -8.201267 0.009955 -19.153710
Cl 8.208733 0.009955 -19.153710
Cl 0.003733 -8.195045 19.136290
Cl 0.003733 8.214955 19.136290
Cl -8.201267 19.154955 -0.008710
Cl 8.208733 -19.135045 -0.008710
Cl -5.466267 24.624955 8.196290
Cl 5.473733 -24.605045 8.196290
Cl -5.466267 -13.665045 8.196290
Cl 5.473733 13.684955 8.196290
Cl -10.936267 5.479955 -10.948710
Cl 10.943733 -5.460045 -10.948710
Cl -19.141267 16.419955 8.196290
Cl 19.148733 -16.400045 8.196290
Cl -13.671267 -21.870045 -8.213710
Cl 13.678733 21.889955 -8.213710
Cl -19.141267 -8.195045 -16.418710
Cl 19.148733 8.214955 -16.418710
Cl -8.201267 21.889955 13.666290
Cl 8.208733 -21.870045 13.666290
Cl -21.876267 -5.460045 -0.008710
Cl 21.883733 5.479955 -0.008710
Cl -5.466267 -19.135045 -13.683710
Cl 5.473733 19.154955 -13.683710
Cl -13.671267 5.479955 19.136290
Cl 13.678733 -5.460045 19.136290
Cl -21.876267 5.479955 -0.008710
Cl 21.883733 -5.460045 -0.008710
Cl 0.003733 -5.460045 -21.888710
Cl 0.003733 5.479955 -21.888710
Cl -5.466267 0.009955 21.871290
Cl 5.473733 0.009955 21.871290
Cl 0.003733 -21.870045 -5.478710
Cl 0.003733 21.889955 -5.478710
Cl -2.731267 -21.870045 2.726290
Cl 2.738733 21.889955 2.726290
Cl -13.671267 -5.460045 -19.153710
Cl 13.678733 5.479955 -19.153710
Cl -16.406267 -13.665045 -2.743710
Cl 16.413733 13.684955 -2.743710
Cl -5.466267 13.684955 19.136290
Cl 5.473733 -13.665045 19.136290
Cl -21.876267 -2.725045 -8.213710
Cl 21.883733 2.744955 -8.213710
Cl -16.406267 13.684955 2.726290
Cl 16.413733 -13.665045 2.726290
Cl -21.876267 0.009955 5.461290
Cl 21.883733 0.009955 5.461290
Cl -10.936267 -2.725045 13.666290
Cl 10.943733 2.744955 13.666290
Cl 2.738733 -13.665045 -10.948710
Cl -2.731267 13.684955 -10.948710
Cl -10.936267 10.949955 -5.478710
Cl 10.943733 -10.930045 -5.478710
Cl -13.671267 -10.930045 2.726290
Cl 13.678733 10.949955 2.726290
Cl 0.003733 -19.135045 8.196290
Cl 0.003733 19.154955 8.196290
Cl -16.406267 0.009955 -10.948710
Cl 16.413733 0.009955 -10.948710
Cl -5.466267 -10.930045 10.931290
Cl 5.473733 10.949955 10.931290
Cl 2.738733 -8.195045 -16.418710
Cl -2.731267 8.214955 -16.418710
Cl -16.406267 -2.725045 8.196290
Cl 16.413733 2.744955 8.196290
Cl -16.406267 8.214955 -2.743710
Cl 16.413733 -8.195045 -2.743710
Cl -10.936267 21.889955 5.461290
Cl 10.943733 -21.870045 5.461290
Cl -21.876267 -10.930045 -5.478710
Cl 21.883733 10.949955 -5.478710
Cl -5.466267 -10.930045 -21.888710
Cl 5.473733 10.949955 -21.888710
Cl -21.876267 5.479955 10.931290
Cl 21.883733 -5.460045 10.931290
Cl 0.003733 -5.460045 21.871290
Cl 0.003733 5.479955 21.871290
Cl -21.876267 10.949955 5.461290
Cl 21.883733 -10.930045 5.461290
Cl -8.201267 -21.870045 -2.743710
