5187
HgSe-Se-Hg2508Se2337Cl342-reconstructed
Hg -29.411515 -10.846095 -10.844901
Hg -29.411515 -13.942421 -7.748575
Hg -29.411515 -10.846095 -4.652249
Hg -29.411515 -13.942421 -1.555923
Hg -29.411515 -10.846095 1.540403
Hg -29.411515 -13.942421 4.636729
Hg -29.411515 -10.846095 7.733055
Hg -29.411515 -13.942421 10.829381
Hg -29.411515 -10.846095 13.925707
Hg -29.411515 -7.749769 -13.941227
Hg -29.411515 -4.653443 -10.844901
Hg -29.411515 -7.749769 -7.748575
Hg -29.411515 -4.653443 -4.652249
Hg -29.411515 -7.749769 -1.555923
Hg -29.411515 -4.653443 1.540403
Hg -29.411515 -7.749769 4.636729
Hg -29.411515 -4.653443 7.733055
Hg -29.411515 -7.749769 10.829381
Hg -29.411515 -4.653443 13.925707
Hg -29.411515 -1.557117 -13.941227
Hg -29.411515 1.539209 -10.844901
Hg -29.411515 -1.557117 -7.748575
Hg -29.411515 1.539209 -4.652249
Hg -29.411515 -1.557117 -1.555923
Hg -29.411515 1.539209 1.540403
Hg -29.411515 -1.557117 4.636729
Hg -29.411515 1.539209 7.733055
Hg -29.411515 -1.557117 10.829381
Hg -29.411515 1.539209 13.925707
Hg -29.411515 4.635535 -13.941227
Hg -29.411515 7.731861 -10.844901
Hg -29.411515 4.635535 -7.748575
Hg -29.411515 7.731861 -4.652249
Hg -29.411515 4.635535 -1.555923
Hg -29.411515 7.731861 1.540403
Hg -29.411515 4.635535 4.636729
Hg -29.411515 7.731861 7.733055
Hg -29.411515 4.635535 10.829381
Hg -29.411515 7.731861 13.925707
Hg -29.411515 10.828187 -13.941227
Hg -29.411515 13.924513 -10.844901
Hg -29.411515 10.828187 -7.748575
Hg -29.411515 13.924513 -4.652249
Hg -29.411515 10.828187 -1.555923
Hg -29.411515 13.924513 1.540403
Hg -29.411515 10.828187 4.636729
Hg -29.411515 13.924513 7.733055
Hg -29.411515 10.828187 10.829381
Hg -23.218863 -20.135073 -7.748575
Hg -26.315189 -17.038747 -7.748575
Hg -23.218863 -17.038747 -4.652249
Hg -23.218863 -20.135073 -1.555923
Hg -26.315189 -17.038747 -1.555923
Hg -23.218863 -17.038747 1.540403
Hg -23.218863 -20.135073 4.636729
Hg -26.315189 -17.038747 4.636729
Hg -23.218863 -17.038747 7.733055
Hg -23.218863 -20.135073 10.829381
Hg -26.315189 -17.038747 10.829381
Hg -23.218863 -17.038747 13.925707
Hg -23.218863 -10.846095 -17.037553
Hg -23.218863 -13.942421 -13.941227
Hg -26.315189 -13.942421 -10.844901
Hg -23.218863 -10.846095 -10.844901
Hg -23.218863 -13.942421 -7.748575
Hg -26.315189 -10.846095 -7.748575
Hg -26.315189 -13.942421 -4.652249
Hg -23.218863 -10.846095 -4.652249
Hg -23.218863 -13.942421 -1.555923
Hg -26.315189 -10.846095 -1.555923
Hg -26.315189 -13.942421 1.540403
Hg -23.218863 -10.846095 1.540403
Hg -23.218863 -13.942421 4.636729
Hg -26.315189 -10.846095 4.636729
Hg -26.315189 -13.942421 7.733055
Hg -23.218863 -10.846095 7.733055
Hg -23.218863 -13.942421 10.829381
Hg -26.315189 -10.846095 10.829381
Hg -23.218863 -10.846095 13.925707
Hg -23.218863 -13.942421 17.022033
Hg -26.315189 -10.846095 17.022033
Hg -23.218863 -10.846095 20.118359
Hg -23.218863 -7.749769 -20.133879
Hg -26.315189 -7.749769 -17.037553
Hg -23.218863 -4.653443 -17.037553
Hg -23.218863 -7.749769 -13.941227
Hg -26.315189 -4.653443 -13.941227
Hg -26.315189 -7.749769 -10.844901
Hg -23.218863 -4.653443 -10.844901
Hg -23.218863 -7.749769 -7.748575
Hg -26.315189 -4.653443 -7.748575
Hg -26.315189 -7.749769 -4.652249
Hg -23.218863 -4.653443 -4.652249
Hg -23.218863 -7.749769 -1.555923
Hg -26.315189 -4.653443 -1.555923
Hg -26.315189 -7.749769 1.540403
Hg -23.218863 -4.653443 1.540403
Hg -23.218863 -7.749769 4.636729
Hg -26.315189 -4.653443 4.636729
Hg -26.315189 -7.749769 7.733055
Hg -23.218863 -4.653443 7.733055
Hg -23.218863 -7.749769 10.829381
Hg -26.315189 -4.653443 10.829381
Hg -26.315189 -7.749769 13.925707
Hg -23.218863 -4.653443 13.925707
Hg -23.218863 -7.749769 17.022033
Hg -26.315189 -4.653443 17.022033
Hg -23.218863 -4.653443 20.118359
Hg -23.218863 -1.557117 -20.133879
Hg -26.315189 -1.557117 -17.037553
Hg -23.218863 1.539209 -17.037553
Hg -23.218863 -1.557117 -13.941227
Hg -26.315189 1.539209 -13.941227
Hg -26.315189 -1.557117 -10.844901
Hg -23.218863 1.539209 -10.844901
Hg -23.218863 -1.557117 -7.748575
Hg -26.315189 1.539209 -7.748575
Hg -26.315189 -1.557117 -4.652249
Hg -23.218863 1.539209 -4.652249
Hg -23.218863 -1.557117 -1.555923
Hg -26.315189 1.539209 -1.555923
Hg -26.315189 -1.557117 1.540403
Hg -23.218863 1.539209 1.540403
Hg -23.218863 -1.557117 4.636729
Hg -26.315189 1.539209 4.636729
Hg -26.315189 -1.557117 7.733055
Hg -23.218863 1.539209 7.733055
Hg -23.218863 -1.557117 10.829381
Hg -26.315189 1.539209 10.829381
Hg -26.315189 -1.557117 13.925707
Hg -23.218863 1.539209 13.925707
Hg -23.218863 -1.557117 17.022033
Hg -26.315189 1.539209 17.022033
Hg -23.218863 1.539209 20.118359
Hg -23.218863 4.635535 -20.133879
Hg -26.315189 4.635535 -17.037553
Hg -23.218863 7.731861 -17.037553
Hg -23.218863 4.635535 -13.941227
Hg -26.315189 7.731861 -13.941227
Hg -26.315189 4.635535 -10.844901
Hg -23.218863 7.731861 -10.844901
Hg -23.218863 4.635535 -7.748575
Hg -26.315189 7.731861 -7.748575
Hg -26.315189 4.635535 -4.652249
Hg -23.218863 7.731861 -4.652249
Hg -23.218863 4.635535 -1.555923
Hg -26.315189 7.731861 -1.555923
Hg -26.315189 4.635535 1.540403
Hg -23.218863 7.731861 1.540403
Hg -23.218863 4.635535 4.636729
Hg -26.315189 7.731861 4.636729
Hg -26.315189 4.635535 7.733055
Hg -23.218863 7.731861 7.733055
Hg -23.218863 4.635535 10.829381
Hg -26.315189 7.731861 10.829381
Hg -26.315189 4.635535 13.925707
Hg -23.218863 7.731861 13.925707
Hg -23.218863 4.635535 17.022033
Hg -26.315189 7.731861 17.022033
Hg -23.218863 7.731861 20.118359
Hg -23.218863 10.828187 -20.133879
Hg -26.315189 10.828187 -17.037553
Hg -23.218863 13.924513 -17.037553
Hg -23.218863 10.828187 -13.941227
Hg -26.315189 10.828187 -10.844901
Hg -23.218863 13.924513 -10.844901
Hg -23.218863 10.828187 -7.748575
Hg -26.315189 13.924513 -7.748575
Hg -26.315189 10.828187 -4.652249
Hg -23.218863 13.924513 -4.652249
Hg -23.218863 10.828187 -1.555923
Hg -26.315189 13.924513 -1.555923
Hg -26.315189 10.828187 1.540403
Hg -23.218863 13.924513 1.540403
Hg -23.218863 10.828187 4.636729
Hg -26.315189 13.924513 4.636729
Hg -26.315189 10.828187 7.733055
Hg -23.218863 13.924513 7.733055
Hg -23.218863 10.828187 10.829381
Hg -26.315189 10.828187 13.925707
Hg -23.218863 13.924513 13.925707
Hg -23.218863 17.020839 -13.941227
Hg -26.315189 17.020839 -10.844901
Hg -23.218863 20.117165 -10.844901
Hg -23.218863 17.020839 -7.748575
Hg -26.315189 17.020839 -4.652249
Hg -23.218863 20.117165 -4.652249
Hg -23.218863 17.020839 -1.555923
Hg -26.315189 17.020839 1.540403
Hg -23.218863 20.117165 1.540403
Hg -23.218863 17.020839 4.636729
Hg -26.315189 17.020839 7.733055
Hg -23.218863 20.117165 7.733055
Hg -23.218863 17.020839 10.829381
Hg -17.026211 -23.231399 -10.844901
Hg -17.026211 -26.327725 -7.748575
Hg -20.122537 -23.231399 -7.748575
Hg -17.026211 -23.231399 -4.652249
Hg -17.026211 -26.327725 -1.555923
Hg -20.122537 -23.231399 -1.555923
Hg -17.026211 -23.231399 1.540403
Hg -17.026211 -26.327725 4.636729
Hg -20.122537 -23.231399 4.636729
Hg -17.026211 -23.231399 7.733055
Hg -17.026211 -26.327725 10.829381
Hg -20.122537 -23.231399 10.829381
Hg -17.026211 -23.231399 13.925707
Hg -17.026211 -17.038747 -17.037553
Hg -17.026211 -20.135073 -13.941227
Hg -20.122537 -17.038747 -13.941227
Hg -20.122537 -20.135073 -10.844901
Hg -17.026211 -17.038747 -10.844901
Hg -17.026211 -20.135073 -7.748575
Hg -20.122537 -17.038747 -7.748575
Hg -20.122537 -20.135073 -4.652249
Hg -17.026211 -17.038747 -4.652249
Hg -17.026211 -20.135073 -1.555923
Hg -20.122537 -17.038747 -1.555923
Hg -20.122537 -20.135073 1.540403
Hg -17.026211 -17.038747 1.540403
Hg -17.026211 -20.135073 4.636729
Hg -20.122537 -17.038747 4.636729
Hg -20.122537 -20.135073 7.733055
Hg -17.026211 -17.038747 7.733055
Hg -17.026211 -20.135073 10.829381
Hg -20.122537 -17.038747 10.829381
Hg -17.026211 -17.038747 13.925707
Hg -17.026211 -20.135073 17.022033
Hg -20.122537 -17.038747 17.022033
Hg -17.026211 -17.038747 20.118359
Hg -17.026211 -13.942421 -20.133879
Hg -20.122537 -10.846095 -20.133879
Hg -20.122537 -13.942421 -17.037553
Hg -17.026211 -10.846095 -17.037553
Hg -17.026211 -13.942421 -13.941227
Hg -20.122537 -10.846095 -13.941227
Hg -20.122537 -13.942421 -10.844901
Hg -17.026211 -10.846095 -10.844901
Hg -17.026211 -13.942421 -7.748575
Hg -20.122537 -10.846095 -7.748575
Hg -20.122537 -13.942421 -4.652249
Hg -17.026211 -10.846095 -4.652249
Hg -17.026211 -13.942421 -1.555923
Hg -20.122537 -10.846095 -1.555923
Hg -20.122537 -13.942421 1.540403
Hg -17.026211 -10.846095 1.540403
Hg -17.026211 -13.942421 4.636729
Hg -20.122537 -10.846095 4.636729
Hg -20.122537 -13.942421 7.733055
Hg -17.026211 -10.846095 7.733055
Hg -17.026211 -13.942421 10.829381
Hg -20.122537 -10.846095 10.829381
Hg -20.122537 -13.942421 13.925707
Hg -17.026211 -10.846095 13.925707
Hg -17.026211 -13.942421 17.022033
Hg -20.122537 -10.846095 17.022033
Hg -17.026211 -10.846095 20.118359
Hg -17.026211 -13.942421 23.214685
Hg -20.122537 -10.846095 23.214685
Hg -17.026211 -10.846095 26.311011
Hg -17.026211 -7.749769 -26.326531
Hg -20.122537 -7.749769 -23.230205
Hg -17.026211 -4.653443 -23.230205
Hg -17.026211 -7.749769 -20.133879
Hg -20.122537 -4.653443 -20.133879
Hg -20.122537 -7.749769 -17.037553
Hg -17.026211 -4.653443 -17.037553
Hg -17.026211 -7.749769 -13.941227
Hg -20.122537 -4.653443 -13.941227
Hg -20.122537 -7.749769 -10.844901
Hg -17.026211 -4.653443 -10.844901
Hg -17.026211 -7.749769 -7.748575
Hg -20.122537 -4.653443 -7.748575
Hg -20.122537 -7.749769 -4.652249
Hg -17.026211 -4.653443 -4.652249
Hg -17.026211 -7.749769 -1.555923
Hg -20.122537 -4.653443 -1.555923
Hg -20.122537 -7.749769 1.540403
Hg -17.026211 -4.653443 1.540403
Hg -17.026211 -7.749769 4.636729
Hg -20.122537 -4.653443 4.636729
Hg -20.122537 -7.749769 7.733055
Hg -17.026211 -4.653443 7.733055
Hg -17.026211 -7.749769 10.829381
Hg -20.122537 -4.653443 10.829381
Hg -20.122537 -7.749769 13.925707
Hg -17.026211 -4.653443 13.925707
Hg -17.026211 -7.749769 17.022033
Hg -20.122537 -4.653443 17.022033
Hg -20.122537 -7.749769 20.118359
Hg -17.026211 -4.653443 20.118359
Hg -17.026211 -7.749769 23.214685
Hg -20.122537 -4.653443 23.214685
Hg -17.026211 -4.653443 26.311011
Hg -17.026211 -1.557117 -26.326531
Hg -20.122537 -1.557117 -23.230205
Hg -17.026211 1.539209 -23.230205
Hg -17.026211 -1.557117 -20.133879
Hg -20.122537 1.539209 -20.133879
Hg -20.122537 -1.557117 -17.037553
Hg -17.026211 1.539209 -17.037553
Hg -17.026211 -1.557117 -13.941227
Hg -20.122537 1.539209 -13.941227
Hg -20.122537 -1.557117 -10.844901
Hg -17.026211 1.539209 -10.844901
Hg -17.026211 -1.557117 -7.748575
Hg -20.122537 1.539209 -7.748575
Hg -20.122537 -1.557117 -4.652249
Hg -17.026211 1.539209 -4.652249
Hg -17.026211 -1.557117 -1.555923
Hg -20.122537 1.539209 -1.555923
Hg -20.122537 -1.557117 1.540403
Hg -17.026211 1.539209 1.540403
Hg -17.026211 -1.557117 4.636729
Hg -20.122537 1.539209 4.636729
Hg -20.122537 -1.557117 7.733055
Hg -17.026211 1.539209 7.733055
Hg -17.026211 -1.557117 10.829381
Hg -20.122537 1.539209 10.829381
Hg -20.122537 -1.557117 13.925707
Hg -17.026211 1.539209 13.925707
Hg -17.026211 -1.557117 17.022033
Hg -20.122537 1.539209 17.022033
Hg -20.122537 -1.557117 20.118359
Hg -17.026211 1.539209 20.118359
Hg -17.026211 -1.557117 23.214685
Hg -20.122537 1.539209 23.214685
Hg -17.026211 1.539209 26.311011
Hg -17.026211 4.635535 -26.326531
Hg -20.122537 4.635535 -23.230205
Hg -17.026211 7.731861 -23.230205
Hg -17.026211 4.635535 -20.133879
Hg -20.122537 7.731861 -20.133879
Hg -20.122537 4.635535 -17.037553
Hg -17.026211 7.731861 -17.037553
Hg -17.026211 4.635535 -13.941227
Hg -20.122537 7.731861 -13.941227
Hg -20.122537 4.635535 -10.844901
Hg -17.026211 7.731861 -10.844901
Hg -17.026211 4.635535 -7.748575
Hg -20.122537 7.731861 -7.748575
Hg -20.122537 4.635535 -4.652249
Hg -17.026211 7.731861 -4.652249
Hg -17.026211 4.635535 -1.555923
Hg -20.122537 7.731861 -1.555923
Hg -20.122537 4.635535 1.540403
Hg -17.026211 7.731861 1.540403
Hg -17.026211 4.635535 4.636729
Hg -20.122537 7.731861 4.636729
Hg -20.122537 4.635535 7.733055
Hg -17.026211 7.731861 7.733055
Hg -17.026211 4.635535 10.829381
Hg -20.122537 7.731861 10.829381
Hg -20.122537 4.635535 13.925707
Hg -17.026211 7.731861 13.925707
Hg -17.026211 4.635535 17.022033
Hg -20.122537 7.731861 17.022033
Hg -20.122537 4.635535 20.118359
Hg -17.026211 7.731861 20.118359
Hg -17.026211 4.635535 23.214685
Hg -20.122537 7.731861 23.214685
Hg -17.026211 7.731861 26.311011
Hg -17.026211 10.828187 -26.326531
Hg -20.122537 10.828187 -23.230205
Hg -17.026211 13.924513 -23.230205
Hg -17.026211 10.828187 -20.133879
Hg -20.122537 10.828187 -17.037553
Hg -17.026211 13.924513 -17.037553
Hg -17.026211 10.828187 -13.941227
Hg -20.122537 13.924513 -13.941227
Hg -20.122537 10.828187 -10.844901
Hg -17.026211 13.924513 -10.844901
Hg -17.026211 10.828187 -7.748575
Hg -20.122537 13.924513 -7.748575
Hg -20.122537 10.828187 -4.652249
Hg -17.026211 13.924513 -4.652249
Hg -17.026211 10.828187 -1.555923
Hg -20.122537 13.924513 -1.555923
Hg -20.122537 10.828187 1.540403
Hg -17.026211 13.924513 1.540403
Hg -17.026211 10.828187 4.636729
Hg -20.122537 13.924513 4.636729
Hg -20.122537 10.828187 7.733055
Hg -17.026211 13.924513 7.733055
Hg -17.026211 10.828187 10.829381
Hg -20.122537 13.924513 10.829381
Hg -20.122537 10.828187 13.925707
Hg -17.026211 13.924513 13.925707
Hg -17.026211 10.828187 17.022033
Hg -20.122537 13.924513 17.022033
Hg -20.122537 10.828187 20.118359
Hg -17.026211 13.924513 20.118359
Hg -17.026211 10.828187 23.214685
Hg -17.026211 17.020839 -20.133879
Hg -20.122537 17.020839 -17.037553
Hg -17.026211 20.117165 -17.037553
Hg -17.026211 17.020839 -13.941227
Hg -20.122537 17.020839 -10.844901
Hg -17.026211 20.117165 -10.844901
Hg -17.026211 17.020839 -7.748575
Hg -20.122537 20.117165 -7.748575
Hg -20.122537 17.020839 -4.652249
Hg -17.026211 20.117165 -4.652249
Hg -17.026211 17.020839 -1.555923
Hg -20.122537 20.117165 -1.555923
Hg -20.122537 17.020839 1.540403
Hg -17.026211 20.117165 1.540403
Hg -17.026211 17.020839 4.636729
Hg -20.122537 20.117165 4.636729
Hg -20.122537 17.020839 7.733055
Hg -17.026211 20.117165 7.733055
Hg -17.026211 17.020839 10.829381
Hg -20.122537 20.117165 10.829381
Hg -20.122537 17.020839 13.925707
Hg -17.026211 20.117165 13.925707
Hg -17.026211 17.020839 17.022033
Hg -17.026211 23.213491 -13.941227
Hg -20.122537 23.213491 -10.844901
Hg -17.026211 26.309817 -10.844901
Hg -17.026211 23.213491 -7.748575
Hg -20.122537 23.213491 -4.652249
Hg -17.026211 26.309817 -4.652249
Hg -17.026211 23.213491 -1.555923
Hg -20.122537 23.213491 1.540403
Hg -17.026211 26.309817 1.540403
Hg -17.026211 23.213491 4.636729
Hg -20.122537 23.213491 7.733055
Hg -17.026211 26.309817 7.733055
Hg -10.833559 -29.424051 -10.844901
Hg -13.929885 -29.424051 -7.748575
Hg -10.833559 -29.424051 -4.652249
Hg -13.929885 -29.424051 -1.555923
Hg -10.833559 -29.424051 1.540403
Hg -13.929885 -29.424051 4.636729
Hg -10.833559 -29.424051 7.733055
Hg -13.929885 -29.424051 10.829381
Hg -10.833559 -29.424051 13.925707
Hg -10.833559 -26.327725 -13.941227
Hg -13.929885 -23.231399 -13.941227
Hg -10.833559 -23.231399 -10.844901
Hg -10.833559 -26.327725 -7.748575
Hg -13.929885 -23.231399 -7.748575
Hg -13.929885 -26.327725 -4.652249
Hg -10.833559 -23.231399 -4.652249
Hg -10.833559 -26.327725 -1.555923
Hg -13.929885 -23.231399 -1.555923
Hg -13.929885 -26.327725 1.540403
Hg -10.833559 -23.231399 1.540403
Hg -10.833559 -26.327725 4.636729
Hg -13.929885 -23.231399 4.636729
Hg -13.929885 -26.327725 7.733055
Hg -10.833559 -23.231399 7.733055
Hg -10.833559 -26.327725 10.829381
Hg -13.929885 -23.231399 10.829381
Hg -10.833559 -23.231399 13.925707
Hg -10.833559 -26.327725 17.022033
Hg -13.929885 -23.231399 17.022033
Hg -10.833559 -23.231399 20.118359
Hg -10.833559 -17.038747 -23.230205
Hg -10.833559 -20.135073 -20.133879
Hg -13.929885 -17.038747 -20.133879
Hg -13.929885 -20.135073 -17.037553
Hg -10.833559 -17.038747 -17.037553
Hg -10.833559 -20.135073 -13.941227
Hg -13.929885 -17.038747 -13.941227
Hg -13.929885 -20.135073 -10.844901
Hg -10.833559 -17.038747 -10.844901
Hg -10.833559 -20.135073 -7.748575
Hg -13.929885 -17.038747 -7.748575
Hg -13.929885 -20.135073 -4.652249
Hg -10.833559 -17.038747 -4.652249
Hg -10.833559 -20.135073 -1.555923
Hg -13.929885 -17.038747 -1.555923
Hg -13.929885 -20.135073 1.540403
Hg -10.833559 -17.038747 1.540403
Hg -10.833559 -20.135073 4.636729
Hg -13.929885 -17.038747 4.636729
Hg -13.929885 -20.135073 7.733055
Hg -10.833559 -17.038747 7.733055
Hg -10.833559 -20.135073 10.829381
Hg -13.929885 -17.038747 10.829381
Hg -13.929885 -20.135073 13.925707
Hg -10.833559 -17.038747 13.925707
Hg -10.833559 -20.135073 17.022033
Hg -13.929885 -17.038747 17.022033
Hg -10.833559 -17.038747 20.118359
Hg -10.833559 -20.135073 23.214685
Hg -13.929885 -17.038747 23.214685
Hg -10.833559 -17.038747 26.311011
Hg -10.833559 -10.846095 -29.422857
Hg -13.929885 -10.846095 -26.326531
Hg -13.929885 -13.942421 -23.230205
Hg -10.833559 -10.846095 -23.230205
Hg -10.833559 -13.942421 -20.133879
Hg -13.929885 -10.846095 -20.133879
Hg -13.929885 -13.942421 -17.037553
Hg -10.833559 -10.846095 -17.037553
Hg -10.833559 -13.942421 -13.941227
Hg -13.929885 -10.846095 -13.941227
Hg -13.929885 -13.942421 -10.844901
Hg -10.833559 -10.846095 -10.844901
Hg -10.833559 -13.942421 -7.748575
Hg -13.929885 -10.846095 -7.748575
Hg -13.929885 -13.942421 -4.652249
Hg -10.833559 -10.846095 -4.652249
Hg -10.833559 -13.942421 -1.555923
Hg -13.929885 -10.846095 -1.555923
Hg -13.929885 -13.942421 1.540403
Hg -10.833559 -10.846095 1.540403
Hg -10.833559 -13.942421 4.636729
Hg -13.929885 -10.846095 4.636729
Hg -13.929885 -13.942421 7.733055
Hg -10.833559 -10.846095 7.733055
Hg -10.833559 -13.942421 10.829381
Hg -13.929885 -10.846095 10.829381
Hg -13.929885 -13.942421 13.925707
Hg -10.833559 -10.846095 13.925707
Hg -10.833559 -13.942421 17.022033
Hg -13.929885 -10.846095 17.022033
Hg -13.929885 -13.942421 20.118359
Hg -10.833559 -10.846095 20.118359
Hg -10.833559 -13.942421 23.214685
Hg -13.929885 -10.846095 23.214685
Hg -10.833559 -10.846095 26.311011
Hg -10.833559 -13.942421 29.407337
Hg -13.929885 -10.846095 29.407337
Hg -13.929885 -7.749769 -29.422857
Hg -10.833559 -4.653443 -29.422857
Hg -10.833559 -7.749769 -26.326531
Hg -13.929885 -4.653443 -26.326531
Hg -13.929885 -7.749769 -23.230205
Hg -10.833559 -4.653443 -23.230205
Hg -10.833559 -7.749769 -20.133879
Hg -13.929885 -4.653443 -20.133879
Hg -13.929885 -7.749769 -17.037553
Hg -10.833559 -4.653443 -17.037553
Hg -10.833559 -7.749769 -13.941227
Hg -13.929885 -4.653443 -13.941227
Hg -13.929885 -7.749769 -10.844901
Hg -10.833559 -4.653443 -10.844901
Hg -10.833559 -7.749769 -7.748575
Hg -13.929885 -4.653443 -7.748575
Hg -13.929885 -7.749769 -4.652249
Hg -10.833559 -4.653443 -4.652249
Hg -10.833559 -7.749769 -1.555923
Hg -13.929885 -4.653443 -1.555923
Hg -13.929885 -7.749769 1.540403
Hg -10.833559 -4.653443 1.540403
Hg -10.833559 -7.749769 4.636729
Hg -13.929885 -4.653443 4.636729
Hg -13.929885 -7.749769 7.733055
Hg -10.833559 -4.653443 7.733055
Hg -10.833559 -7.749769 10.829381
Hg -13.929885 -4.653443 10.829381
Hg -13.929885 -7.749769 13.925707
Hg -10.833559 -4.653443 13.925707
Hg -10.833559 -7.749769 17.022033
Hg -13.929885 -4.653443 17.022033
Hg -13.929885 -7.749769 20.118359
Hg -10.833559 -4.653443 20.118359
Hg -10.833559 -7.749769 23.214685
Hg -13.929885 -4.653443 23.214685
Hg -13.929885 -7.749769 26.311011
Hg -10.833559 -4.653443 26.311011
Hg -10.833559 -7.749769 29.407337
Hg -13.929885 -4.653443 29.407337
Hg -13.929885 -1.557117 -29.422857
Hg -10.833559 1.539209 -29.422857
Hg -10.833559 -1.557117 -26.326531
Hg -13.929885 1.539209 -26.326531
Hg -13.929885 -1.557117 -23.230205
Hg -10.833559 1.539209 -23.230205
Hg -10.833559 -1.557117 -20.133879
Hg -13.929885 1.539209 -20.133879
Hg -13.929885 -1.557117 -17.037553
Hg -10.833559 1.539209 -17.037553
Hg -10.833559 -1.557117 -13.941227
Hg -13.929885 1.539209 -13.941227
Hg -13.929885 -1.557117 -10.844901
Hg -10.833559 1.539209 -10.844901
Hg -10.833559 -1.557117 -7.748575
Hg -13.929885 1.539209 -7.748575
Hg -13.929885 -1.557117 -4.652249
Hg -10.833559 1.539209 -4.652249
Hg -10.833559 -1.557117 -1.555923
Hg -13.929885 1.539209 -1.555923
Hg -13.929885 -1.557117 1.540403
Hg -10.833559 1.539209 1.540403
Hg -10.833559 -1.557117 4.636729
Hg -13.929885 1.539209 4.636729
Hg -13.929885 -1.557117 7.733055
Hg -10.833559 1.539209 7.733055
Hg -10.833559 -1.557117 10.829381
Hg -13.929885 1.539209 10.829381
Hg -13.929885 -1.557117 13.925707
Hg -10.833559 1.539209 13.925707
Hg -10.833559 -1.557117 17.022033
Hg -13.929885 1.539209 17.022033
Hg -13.929885 -1.557117 20.118359
Hg -10.833559 1.539209 20.118359
Hg -10.833559 -1.557117 23.214685
Hg -13.929885 1.539209 23.214685
Hg -13.929885 -1.557117 26.311011
Hg -10.833559 1.539209 26.311011
Hg -10.833559 -1.557117 29.407337
Hg -13.929885 1.539209 29.407337
Hg -13.929885 4.635535 -29.422857
Hg -10.833559 7.731861 -29.422857
Hg -10.833559 4.635535 -26.326531
Hg -13.929885 7.731861 -26.326531
Hg -13.929885 4.635535 -23.230205
Hg -10.833559 7.731861 -23.230205
Hg -10.833559 4.635535 -20.133879
Hg -13.929885 7.731861 -20.133879
Hg -13.929885 4.635535 -17.037553
Hg -10.833559 7.731861 -17.037553
Hg -10.833559 4.635535 -13.941227
Hg -13.929885 7.731861 -13.941227
Hg -13.929885 4.635535 -10.844901
Hg -10.833559 7.731861 -10.844901
Hg -10.833559 4.635535 -7.748575
Hg -13.929885 7.731861 -7.748575
Hg -13.929885 4.635535 -4.652249
Hg -10.833559 7.731861 -4.652249
Hg -10.833559 4.635535 -1.555923
Hg -13.929885 7.731861 -1.555923
Hg -13.929885 4.635535 1.540403
Hg -10.833559 7.731861 1.540403
Hg -10.833559 4.635535 4.636729
Hg -13.929885 7.731861 4.636729
Hg -13.929885 4.635535 7.733055
Hg -10.833559 7.731861 7.733055
Hg -10.833559 4.635535 10.829381
Hg -13.929885 7.731861 10.829381
Hg -13.929885 4.635535 13.925707
Hg -10.833559 7.731861 13.925707
Hg -10.833559 4.635535 17.022033
Hg -13.929885 7.731861 17.022033
Hg -13.929885 4.635535 20.118359
Hg -10.833559 7.731861 20.118359
Hg -10.833559 4.635535 23.214685
Hg -13.929885 7.731861 23.214685
Hg -13.929885 4.635535 26.311011
Hg -10.833559 7.731861 26.311011
Hg -10.833559 4.635535 29.407337
Hg -13.929885 7.731861 29.407337
Hg -13.929885 10.828187 -29.422857
Hg -10.833559 13.924513 -29.422857
Hg -10.833559 10.828187 -26.326531
Hg -13.929885 10.828187 -23.230205
Hg -10.833559 13.924513 -23.230205
Hg -10.833559 10.828187 -20.133879
Hg -13.929885 13.924513 -20.133879
Hg -13.929885 10.828187 -17.037553
Hg -10.833559 13.924513 -17.037553
Hg -10.833559 10.828187 -13.941227
Hg -13.929885 13.924513 -13.941227
Hg -13.929885 10.828187 -10.844901
Hg -10.833559 13.924513 -10.844901
Hg -10.833559 10.828187 -7.748575
Hg -13.929885 13.924513 -7.748575
Hg -13.929885 10.828187 -4.652249
Hg -10.833559 13.924513 -4.652249
Hg -10.833559 10.828187 -1.555923
Hg -13.929885 13.924513 -1.555923
Hg -13.929885 10.828187 1.540403
Hg -10.833559 13.924513 1.540403
Hg -10.833559 10.828187 4.636729
Hg -13.929885 13.924513 4.636729
Hg -13.929885 10.828187 7.733055
Hg -10.833559 13.924513 7.733055
Hg -10.833559 10.828187 10.829381
Hg -13.929885 13.924513 10.829381
Hg -13.929885 10.828187 13.925707
Hg -10.833559 13.924513 13.925707
Hg -10.833559 10.828187 17.022033
Hg -13.929885 13.924513 17.022033
Hg -13.929885 10.828187 20.118359
Hg -10.833559 13.924513 20.118359
Hg -10.833559 10.828187 23.214685
Hg -13.929885 13.924513 23.214685
Hg -10.833559 13.924513 26.311011
Hg -10.833559 10.828187 29.407337
Hg -10.833559 17.020839 -26.326531
Hg -13.929885 17.020839 -23.230205
Hg -10.833559 20.117165 -23.230205
Hg -10.833559 17.020839 -20.133879
Hg -13.929885 17.020839 -17.037553
Hg -10.833559 20.117165 -17.037553
Hg -10.833559 17.020839 -13.941227
Hg -13.929885 20.117165 -13.941227
Hg -13.929885 17.020839 -10.844901
Hg -10.833559 20.117165 -10.844901
Hg -10.833559 17.020839 -7.748575
Hg -13.929885 20.117165 -7.748575
Hg -13.929885 17.020839 -4.652249
Hg -10.833559 20.117165 -4.652249
Hg -10.833559 17.020839 -1.555923
Hg -13.929885 20.117165 -1.555923
Hg -13.929885 17.020839 1.540403
Hg -10.833559 20.117165 1.540403
Hg -10.833559 17.020839 4.636729
Hg -13.929885 20.117165 4.636729
Hg -13.929885 17.020839 7.733055
Hg -10.833559 20.117165 7.733055
Hg -10.833559 17.020839 10.829381
Hg -13.929885 20.117165 10.829381
Hg -13.929885 17.020839 13.925707
Hg -10.833559 20.117165 13.925707
Hg -10.833559 17.020839 17.022033
Hg -13.929885 20.117165 17.022033
Hg -13.929885 17.020839 20.118359
Hg -10.833559 20.117165 20.118359
Hg -10.833559 23.213491 -20.133879
Hg -13.929885 23.213491 -17.037553
Hg -10.833559 26.309817 -17.037553
Hg -10.833559 23.213491 -13.941227
Hg -13.929885 23.213491 -10.844901
Hg -10.833559 26.309817 -10.844901
Hg -10.833559 23.213491 -7.748575
Hg -13.929885 26.309817 -7.748575
Hg -13.929885 23.213491 -4.652249
Hg -10.833559 26.309817 -4.652249
Hg -10.833559 23.213491 -1.555923
Hg -13.929885 26.309817 -1.555923
Hg -13.929885 23.213491 1.540403
Hg -10.833559 26.309817 1.540403
Hg -10.833559 23.213491 4.636729
Hg -13.929885 26.309817 4.636729
Hg -13.929885 23.213491 7.733055
Hg -10.833559 26.309817 7.733055
Hg -10.833559 23.213491 10.829381
Hg -13.929885 26.309817 10.829381
Hg -13.929885 23.213491 13.925707
Hg -10.833559 23.213491 17.022033
Hg -10.833559 29.406143 -13.941227
Hg -13.929885 29.406143 -10.844901
Hg -10.833559 29.406143 -7.748575
Hg -13.929885 29.406143 -4.652249
Hg -10.833559 29.406143 -1.555923
Hg -13.929885 29.406143 1.540403
Hg -10.833559 29.406143 4.636729
Hg -13.929885 29.406143 7.733055
Hg -10.833559 29.406143 10.829381
Hg -7.737233 -29.424051 -13.941227
Hg -4.640907 -29.424051 -10.844901
Hg -7.737233 -29.424051 -7.748575
Hg -4.640907 -29.424051 -4.652249
Hg -7.737233 -29.424051 -1.555923
Hg -4.640907 -29.424051 1.540403
Hg -7.737233 -29.424051 4.636729
Hg -4.640907 -29.424051 7.733055
Hg -7.737233 -29.424051 10.829381
Hg -4.640907 -29.424051 13.925707
Hg -7.737233 -23.231399 -20.133879
Hg -7.737233 -26.327725 -17.037553
Hg -4.640907 -23.231399 -17.037553
Hg -4.640907 -26.327725 -13.941227
Hg -7.737233 -23.231399 -13.941227
Hg -7.737233 -26.327725 -10.844901
Hg -4.640907 -23.231399 -10.844901
Hg -4.640907 -26.327725 -7.748575
Hg -7.737233 -23.231399 -7.748575
Hg -7.737233 -26.327725 -4.652249
Hg -4.640907 -23.231399 -4.652249
Hg -4.640907 -26.327725 -1.555923
Hg -7.737233 -23.231399 -1.555923
Hg -7.737233 -26.327725 1.540403
Hg -4.640907 -23.231399 1.540403
Hg -4.640907 -26.327725 4.636729
Hg -7.737233 -23.231399 4.636729
Hg -7.737233 -26.327725 7.733055
Hg -4.640907 -23.231399 7.733055
Hg -4.640907 -26.327725 10.829381
Hg -7.737233 -23.231399 10.829381
Hg -7.737233 -26.327725 13.925707
Hg -4.640907 -23.231399 13.925707
Hg -4.640907 -26.327725 17.022033
Hg -7.737233 -23.231399 17.022033
Hg -4.640907 -23.231399 20.118359
Hg -7.737233 -17.038747 -26.326531
Hg -7.737233 -20.135073 -23.230205
Hg -4.640907 -17.038747 -23.230205
Hg -4.640907 -20.135073 -20.133879
Hg -7.737233 -17.038747 -20.133879
Hg -7.737233 -20.135073 -17.037553
Hg -4.640907 -17.038747 -17.037553
Hg -4.640907 -20.135073 -13.941227
Hg -7.737233 -17.038747 -13.941227
Hg -7.737233 -20.135073 -10.844901
Hg -4.640907 -17.038747 -10.844901
Hg -4.640907 -20.135073 -7.748575
Hg -7.737233 -17.038747 -7.748575
Hg -7.737233 -20.135073 -4.652249
Hg -4.640907 -17.038747 -4.652249
Hg -4.640907 -20.135073 -1.555923
Hg -7.737233 -17.038747 -1.555923
Hg -7.737233 -20.135073 1.540403
Hg -4.640907 -17.038747 1.540403
Hg -4.640907 -20.135073 4.636729
Hg -7.737233 -17.038747 4.636729
Hg -7.737233 -20.135073 7.733055
Hg -4.640907 -17.038747 7.733055
Hg -4.640907 -20.135073 10.829381
Hg -7.737233 -17.038747 10.829381
Hg -7.737233 -20.135073 13.925707
Hg -4.640907 -17.038747 13.925707
Hg -4.640907 -20.135073 17.022033
Hg -7.737233 -17.038747 17.022033
Hg -7.737233 -20.135073 20.118359
Hg -4.640907 -17.038747 20.118359
Hg -4.640907 -20.135073 23.214685
Hg -7.737233 -17.038747 23.214685
Hg -4.640907 -17.038747 26.311011
Hg -7.737233 -13.942421 -29.422857
Hg -4.640907 -10.846095 -29.422857
Hg -4.640907 -13.942421 -26.326531
Hg -7.737233 -10.846095 -26.326531
Hg -7.737233 -13.942421 -23.230205
Hg -4.640907 -10.846095 -23.230205
Hg -4.640907 -13.942421 -20.133879
Hg -7.737233 -10.846095 -20.133879
Hg -7.737233 -13.942421 -17.037553
Hg -4.640907 -10.846095 -17.037553
Hg -4.640907 -13.942421 -13.941227
Hg -7.737233 -10.846095 -13.941227
Hg -7.737233 -13.942421 -10.844901
Hg -4.640907 -10.846095 -10.844901
Hg -4.640907 -13.942421 -7.748575
Hg -7.737233 -10.846095 -7.748575
Hg -7.737233 -13.942421 -4.652249
Hg -4.640907 -10.846095 -4.652249
Hg -4.640907 -13.942421 -1.555923
Hg -7.737233 -10.846095 -1.555923
Hg -7.737233 -13.942421 1.540403
Hg -4.640907 -10.846095 1.540403
Hg -4.640907 -13.942421 4.636729
Hg -7.737233 -10.846095 4.636729
Hg -7.737233 -13.942421 7.733055
Hg -4.640907 -10.846095 7.733055
Hg -4.640907 -13.942421 10.829381
Hg -7.737233 -10.846095 10.829381
Hg -7.737233 -13.942421 13.925707
Hg -4.640907 -10.846095 13.925707
Hg -4.640907 -13.942421 17.022033
Hg -7.737233 -10.846095 17.022033
Hg -7.737233 -13.942421 20.118359
Hg -4.640907 -10.846095 20.118359
Hg -4.640907 -13.942421 23.214685
Hg -7.737233 -10.846095 23.214685
Hg -7.737233 -13.942421 26.311011
Hg -4.640907 -10.846095 26.311011
Hg -4.640907 -13.942421 29.407337
Hg -7.737233 -10.846095 29.407337
Hg -7.737233 -7.749769 -29.422857
Hg -4.640907 -4.653443 -29.422857
Hg -4.640907 -7.749769 -26.326531
Hg -7.737233 -4.653443 -26.326531
Hg -7.737233 -7.749769 -23.230205
Hg -4.640907 -4.653443 -23.230205
Hg -4.640907 -7.749769 -20.133879
Hg -7.737233 -4.653443 -20.133879
Hg -7.737233 -7.749769 -17.037553
Hg -4.640907 -4.653443 -17.037553
Hg -4.640907 -7.749769 -13.941227
Hg -7.737233 -4.653443 -13.941227
Hg -7.737233 -7.749769 -10.844901
Hg -4.640907 -4.653443 -10.844901
Hg -4.640907 -7.749769 -7.748575
Hg -7.737233 -4.653443 -7.748575
Hg -7.737233 -7.749769 -4.652249
Hg -4.640907 -4.653443 -4.652249
Hg -4.640907 -7.749769 -1.555923
Hg -7.737233 -4.653443 -1.555923
Hg -7.737233 -7.749769 1.540403
Hg -4.640907 -4.653443 1.540403
Hg -4.640907 -7.749769 4.636729
Hg -7.737233 -4.653443 4.636729
Hg -7.737233 -7.749769 7.733055
Hg -4.640907 -4.653443 7.733055
Hg -4.640907 -7.749769 10.829381
Hg -7.737233 -4.653443 10.829381
Hg -7.737233 -7.749769 13.925707
Hg -4.640907 -4.653443 13.925707
Hg -4.640907 -7.749769 17.022033
Hg -7.737233 -4.653443 17.022033
Hg -7.737233 -7.749769 20.118359
Hg -4.640907 -4.653443 20.118359
Hg -4.640907 -7.749769 23.214685
Hg -7.737233 -4.653443 23.214685
Hg -7.737233 -7.749769 26.311011
Hg -4.640907 -4.653443 26.311011
Hg -4.640907 -7.749769 29.407337
Hg -7.737233 -4.653443 29.407337
Hg -7.737233 -1.557117 -29.422857
Hg -4.640907 1.539209 -29.422857
Hg -4.640907 -1.557117 -26.326531
Hg -7.737233 1.539209 -26.326531
Hg -7.737233 -1.557117 -23.230205
Hg -4.640907 1.539209 -23.230205
Hg -4.640907 -1.557117 -20.133879
Hg -7.737233 1.539209 -20.133879
Hg -7.737233 -1.557117 -17.037553
Hg -4.640907 1.539209 -17.037553
Hg -4.640907 -1.557117 -13.941227
Hg -7.737233 1.539209 -13.941227
Hg -7.737233 -1.557117 -10.844901
Hg -4.640907 1.539209 -10.844901
Hg -4.640907 -1.557117 -7.748575
Hg -7.737233 1.539209 -7.748575
Hg -7.737233 -1.557117 -4.652249
Hg -4.640907 1.539209 -4.652249
Hg -4.640907 -1.557117 -1.555923
Hg -7.737233 1.539209 -1.555923
Hg -7.737233 -1.557117 1.540403
Hg -4.640907 1.539209 1.540403
Hg -4.640907 -1.557117 4.636729
Hg -7.737233 1.539209 4.636729
Hg -7.737233 -1.557117 7.733055
Hg -4.640907 1.539209 7.733055
Hg -4.640907 -1.557117 10.829381
Hg -7.737233 1.539209 10.829381
Hg -7.737233 -1.557117 13.925707
Hg -4.640907 1.539209 13.925707
Hg -4.640907 -1.557117 17.022033
Hg -7.737233 1.539209 17.022033
Hg -7.737233 -1.557117 20.118359
Hg -4.640907 1.539209 20.118359
Hg -4.640907 -1.557117 23.214685
Hg -7.737233 1.539209 23.214685
Hg -7.737233 -1.557117 26.311011
Hg -4.640907 1.539209 26.311011
Hg -4.640907 -1.557117 29.407337
Hg -7.737233 1.539209 29.407337
Hg -7.737233 4.635535 -29.422857
Hg -4.640907 7.731861 -29.422857
Hg -4.640907 4.635535 -26.326531
Hg -7.737233 7.731861 -26.326531
Hg -7.737233 4.635535 -23.230205
Hg -4.640907 7.731861 -23.230205
Hg -4.640907 4.635535 -20.133879
Hg -7.737233 7.731861 -20.133879
Hg -7.737233 4.635535 -17.037553
Hg -4.640907 7.731861 -17.037553
Hg -4.640907 4.635535 -13.941227
Hg -7.737233 7.731861 -13.941227
Hg -7.737233 4.635535 -10.844901
Hg -4.640907 7.731861 -10.844901
Hg -4.640907 4.635535 -7.748575
Hg -7.737233 7.731861 -7.748575
Hg -7.737233 4.635535 -4.652249
Hg -4.640907 7.731861 -4.652249
Hg -4.640907 4.635535 -1.555923
Hg -7.737233 7.731861 -1.555923
Hg -7.737233 4.635535 1.540403
Hg -4.640907 7.731861 1.540403
Hg -4.640907 4.635535 4.636729
Hg -7.737233 7.731861 4.636729
Hg -7.737233 4.635535 7.733055
Hg -4.640907 7.731861 7.733055
Hg -4.640907 4.635535 10.829381
Hg -7.737233 7.731861 10.829381
Hg -7.737233 4.635535 13.925707
Hg -4.640907 7.731861 13.925707
Hg -4.640907 4.635535 17.022033
Hg -7.737233 7.731861 17.022033
Hg -7.737233 4.635535 20.118359
Hg -4.640907 7.731861 20.118359
Hg -4.640907 4.635535 23.214685
Hg -7.737233 7.731861 23.214685
Hg -7.737233 4.635535 26.311011
Hg -4.640907 7.731861 26.311011
Hg -4.640907 4.635535 29.407337
Hg -7.737233 7.731861 29.407337
Hg -7.737233 10.828187 -29.422857
Hg -4.640907 13.924513 -29.422857
Hg -4.640907 10.828187 -26.326531
Hg -7.737233 13.924513 -26.326531
Hg -7.737233 10.828187 -23.230205
Hg -4.640907 13.924513 -23.230205
Hg -4.640907 10.828187 -20.133879
Hg -7.737233 13.924513 -20.133879
Hg -7.737233 10.828187 -17.037553
Hg -4.640907 13.924513 -17.037553
Hg -4.640907 10.828187 -13.941227
Hg -7.737233 13.924513 -13.941227
Hg -7.737233 10.828187 -10.844901
Hg -4.640907 13.924513 -10.844901
Hg -4.640907 10.828187 -7.748575
Hg -7.737233 13.924513 -7.748575
Hg -7.737233 10.828187 -4.652249
Hg -4.640907 13.924513 -4.652249
Hg -4.640907 10.828187 -1.555923
Hg -7.737233 13.924513 -1.555923
Hg -7.737233 10.828187 1.540403
Hg -4.640907 13.924513 1.540403
Hg -4.640907 10.828187 4.636729
Hg -7.737233 13.924513 4.636729
Hg -7.737233 10.828187 7.733055
Hg -4.640907 13.924513 7.733055
Hg -4.640907 10.828187 10.829381
Hg -7.737233 13.924513 10.829381
Hg -7.737233 10.828187 13.925707
Hg -4.640907 13.924513 13.925707
Hg -4.640907 10.828187 17.022033
Hg -7.737233 13.924513 17.022033
Hg -7.737233 10.828187 20.118359
Hg -4.640907 13.924513 20.118359
Hg -4.640907 10.828187 23.214685
Hg -7.737233 13.924513 23.214685
Hg -7.737233 10.828187 26.311011
Hg -4.640907 13.924513 26.311011
Hg -4.640907 10.828187 29.407337
Hg -7.737233 13.924513 29.407337
Hg -4.640907 17.020839 -26.326531
Hg -7.737233 17.020839 -23.230205
Hg -4.640907 20.117165 -23.230205
Hg -4.640907 17.020839 -20.133879
Hg -7.737233 20.117165 -20.133879
Hg -7.737233 17.020839 -17.037553
Hg -4.640907 20.117165 -17.037553
Hg -4.640907 17.020839 -13.941227
Hg -7.737233 20.117165 -13.941227
Hg -7.737233 17.020839 -10.844901
Hg -4.640907 20.117165 -10.844901
Hg -4.640907 17.020839 -7.748575
Hg -7.737233 20.117165 -7.748575
Hg -7.737233 17.020839 -4.652249
Hg -4.640907 20.117165 -4.652249
Hg -4.640907 17.020839 -1.555923
Hg -7.737233 20.117165 -1.555923
Hg -7.737233 17.020839 1.540403
Hg -4.640907 20.117165 1.540403
Hg -4.640907 17.020839 4.636729
Hg -7.737233 20.117165 4.636729
Hg -7.737233 17.020839 7.733055
Hg -4.640907 20.117165 7.733055
Hg -4.640907 17.020839 10.829381
Hg -7.737233 20.117165 10.829381
Hg -7.737233 17.020839 13.925707
Hg -4.640907 20.117165 13.925707
Hg -4.640907 17.020839 17.022033
Hg -7.737233 20.117165 17.022033
Hg -7.737233 17.020839 20.118359
Hg -4.640907 20.117165 20.118359
Hg -4.640907 17.020839 23.214685
Hg -7.737233 20.117165 23.214685
Hg -7.737233 17.020839 26.311011
Hg -4.640907 23.213491 -20.133879
Hg -7.737233 23.213491 -17.037553
Hg -4.640907 26.309817 -17.037553
Hg -4.640907 23.213491 -13.941227
Hg -7.737233 26.309817 -13.941227
Hg -7.737233 23.213491 -10.844901
Hg -4.640907 26.309817 -10.844901
Hg -4.640907 23.213491 -7.748575
Hg -7.737233 26.309817 -7.748575
Hg -7.737233 23.213491 -4.652249
Hg -4.640907 26.309817 -4.652249
Hg -4.640907 23.213491 -1.555923
Hg -7.737233 26.309817 -1.555923
Hg -7.737233 23.213491 1.540403
Hg -4.640907 26.309817 1.540403
Hg -4.640907 23.213491 4.636729
Hg -7.737233 26.309817 4.636729
Hg -7.737233 23.213491 7.733055
Hg -4.640907 26.309817 7.733055
Hg -4.640907 23.213491 10.829381
Hg -7.737233 26.309817 10.829381
Hg -7.737233 23.213491 13.925707
Hg -4.640907 26.309817 13.925707
Hg -4.640907 23.213491 17.022033
Hg -7.737233 26.309817 17.022033
Hg -7.737233 23.213491 20.118359
Hg -4.640907 29.406143 -13.941227
Hg -7.737233 29.406143 -10.844901
Hg -4.640907 29.406143 -7.748575
Hg -7.737233 29.406143 -4.652249
Hg -4.640907 29.406143 -1.555923
Hg -7.737233 29.406143 1.540403
Hg -4.640907 29.406143 4.636729
Hg -7.737233 29.406143 7.733055
Hg -4.640907 29.406143 10.829381
Hg -7.737233 29.406143 13.925707
Hg -1.544581 -29.424051 -13.941227
Hg 1.551745 -29.424051 -10.844901
Hg -1.544581 -29.424051 -7.748575
Hg 1.551745 -29.424051 -4.652249
Hg -1.544581 -29.424051 -1.555923
Hg 1.551745 -29.424051 1.540403
Hg -1.544581 -29.424051 4.636729
Hg 1.551745 -29.424051 7.733055
Hg -1.544581 -29.424051 10.829381
Hg 1.551745 -29.424051 13.925707
Hg -1.544581 -23.231399 -20.133879
Hg -1.544581 -26.327725 -17.037553
Hg 1.551745 -23.231399 -17.037553
Hg 1.551745 -26.327725 -13.941227
Hg -1.544581 -23.231399 -13.941227
Hg -1.544581 -26.327725 -10.844901
Hg 1.551745 -23.231399 -10.844901
Hg 1.551745 -26.327725 -7.748575
Hg -1.544581 -23.231399 -7.748575
Hg -1.544581 -26.327725 -4.652249
Hg 1.551745 -23.231399 -4.652249
Hg 1.551745 -26.327725 -1.555923
Hg -1.544581 -23.231399 -1.555923
Hg -1.544581 -26.327725 1.540403
Hg 1.551745 -23.231399 1.540403
Hg 1.551745 -26.327725 4.636729
Hg -1.544581 -23.231399 4.636729
Hg -1.544581 -26.327725 7.733055
Hg 1.551745 -23.231399 7.733055
Hg 1.551745 -26.327725 10.829381
Hg -1.544581 -23.231399 10.829381
Hg -1.544581 -26.327725 13.925707
Hg 1.551745 -23.231399 13.925707
Hg 1.551745 -26.327725 17.022033
Hg -1.544581 -23.231399 17.022033
Hg 1.551745 -23.231399 20.118359
Hg -1.544581 -17.038747 -26.326531
Hg -1.544581 -20.135073 -23.230205
Hg 1.551745 -17.038747 -23.230205
Hg 1.551745 -20.135073 -20.133879
Hg -1.544581 -17.038747 -20.133879
Hg -1.544581 -20.135073 -17.037553
Hg 1.551745 -17.038747 -17.037553
Hg 1.551745 -20.135073 -13.941227
Hg -1.544581 -17.038747 -13.941227
Hg -1.544581 -20.135073 -10.844901
Hg 1.551745 -17.038747 -10.844901
Hg 1.551745 -20.135073 -7.748575
Hg -1.544581 -17.038747 -7.748575
Hg -1.544581 -20.135073 -4.652249
Hg 1.551745 -17.038747 -4.652249
Hg 1.551745 -20.135073 -1.555923
Hg -1.544581 -17.038747 -1.555923
Hg -1.544581 -20.135073 1.540403
Hg 1.551745 -17.038747 1.540403
Hg 1.551745 -20.135073 4.636729
Hg -1.544581 -17.038747 4.636729
Hg -1.544581 -20.135073 7.733055
Hg 1.551745 -17.038747 7.733055
Hg 1.551745 -20.135073 10.829381
Hg -1.544581 -17.038747 10.829381
Hg -1.544581 -20.135073 13.925707
Hg 1.551745 -17.038747 13.925707
Hg 1.551745 -20.135073 17.022033
Hg -1.544581 -17.038747 17.022033
Hg -1.544581 -20.135073 20.118359
Hg 1.551745 -17.038747 20.118359
Hg 1.551745 -20.135073 23.214685
Hg -1.544581 -17.038747 23.214685
Hg 1.551745 -17.038747 26.311011
Hg -1.544581 -13.942421 -29.422857
Hg 1.551745 -10.846095 -29.422857
Hg 1.551745 -13.942421 -26.326531
Hg -1.544581 -10.846095 -26.326531
Hg -1.544581 -13.942421 -23.230205
Hg 1.551745 -10.846095 -23.230205
Hg 1.551745 -13.942421 -20.133879
Hg -1.544581 -10.846095 -20.133879
Hg -1.544581 -13.942421 -17.037553
Hg 1.551745 -10.846095 -17.037553
Hg 1.551745 -13.942421 -13.941227
Hg -1.544581 -10.846095 -13.941227
Hg -1.544581 -13.942421 -10.844901
Hg 1.551745 -10.846095 -10.844901
Hg 1.551745 -13.942421 -7.748575
Hg -1.544581 -10.846095 -7.748575
Hg -1.544581 -13.942421 -4.652249
Hg 1.551745 -10.846095 -4.652249
Hg 1.551745 -13.942421 -1.555923
Hg -1.544581 -10.846095 -1.555923
Hg -1.544581 -13.942421 1.540403
Hg 1.551745 -10.846095 1.540403
Hg 1.551745 -13.942421 4.636729
Hg -1.544581 -10.846095 4.636729
Hg -1.544581 -13.942421 7.733055
Hg 1.551745 -10.846095 7.733055
Hg 1.551745 -13.942421 10.829381
Hg -1.544581 -10.846095 10.829381
Hg -1.544581 -13.942421 13.925707
Hg 1.551745 -10.846095 13.925707
Hg 1.551745 -13.942421 17.022033
Hg -1.544581 -10.846095 17.022033
Hg -1.544581 -13.942421 20.118359
Hg 1.551745 -10.846095 20.118359
Hg 1.551745 -13.942421 23.214685
Hg -1.544581 -10.846095 23.214685
Hg -1.544581 -13.942421 26.311011
Hg 1.551745 -10.846095 26.311011
Hg 1.551745 -13.942421 29.407337
Hg -1.544581 -10.846095 29.407337
Hg -1.544581 -7.749769 -29.422857
Hg 1.551745 -4.653443 -29.422857
Hg 1.551745 -7.749769 -26.326531
Hg -1.544581 -4.653443 -26.326531
Hg -1.544581 -7.749769 -23.230205
Hg 1.551745 -4.653443 -23.230205
Hg 1.551745 -7.749769 -20.133879
Hg -1.544581 -4.653443 -20.133879
Hg -1.544581 -7.749769 -17.037553
Hg 1.551745 -4.653443 -17.037553
Hg 1.551745 -7.749769 -13.941227
Hg -1.544581 -4.653443 -13.941227
Hg -1.544581 -7.749769 -10.844901
Hg 1.551745 -4.653443 -10.844901
Hg 1.551745 -7.749769 -7.748575
Hg -1.544581 -4.653443 -7.748575
Hg -1.544581 -7.749769 -4.652249
Hg 1.551745 -4.653443 -4.652249
Hg 1.551745 -7.749769 -1.555923
Hg -1.544581 -4.653443 -1.555923
Hg -1.544581 -7.749769 1.540403
Hg 1.551745 -4.653443 1.540403
Hg 1.551745 -7.749769 4.636729
Hg -1.544581 -4.653443 4.636729
Hg -1.544581 -7.749769 7.733055
Hg 1.551745 -4.653443 7.733055
Hg 1.551745 -7.749769 10.829381
Hg -1.544581 -4.653443 10.829381
Hg -1.544581 -7.749769 13.925707
Hg 1.551745 -4.653443 13.925707
Hg 1.551745 -7.749769 17.022033
Hg -1.544581 -4.653443 17.022033
Hg -1.544581 -7.749769 20.118359
Hg 1.551745 -4.653443 20.118359
Hg 1.551745 -7.749769 23.214685
Hg -1.544581 -4.653443 23.214685
Hg -1.544581 -7.749769 26.311011
Hg 1.551745 -4.653443 26.311011
Hg 1.551745 -7.749769 29.407337
Hg -1.544581 -4.653443 29.407337
Hg -1.544581 -1.557117 -29.422857
Hg 1.551745 1.539209 -29.422857
Hg 1.551745 -1.557117 -26.326531
Hg -1.544581 1.539209 -26.326531
Hg -1.544581 -1.557117 -23.230205
Hg 1.551745 1.539209 -23.230205
Hg 1.551745 -1.557117 -20.133879
Hg -1.544581 1.539209 -20.133879
Hg -1.544581 -1.557117 -17.037553
Hg 1.551745 1.539209 -17.037553
Hg 1.551745 -1.557117 -13.941227
Hg -1.544581 1.539209 -13.941227
Hg -1.544581 -1.557117 -10.844901
Hg 1.551745 1.539209 -10.844901
Hg 1.551745 -1.557117 -7.748575
Hg -1.544581 1.539209 -7.748575
Hg -1.544581 -1.557117 -4.652249
Hg 1.551745 1.539209 -4.652249
Hg 1.551745 -1.557117 -1.555923
Hg -1.544581 1.539209 -1.555923
Hg -1.544581 -1.557117 1.540403
Hg 1.551745 1.539209 1.540403
Hg 1.551745 -1.557117 4.636729
Hg -1.544581 1.539209 4.636729
Hg -1.544581 -1.557117 7.733055
Hg 1.551745 1.539209 7.733055
Hg 1.551745 -1.557117 10.829381
Hg -1.544581 1.539209 10.829381
Hg -1.544581 -1.557117 13.925707
Hg 1.551745 1.539209 13.925707
Hg 1.551745 -1.557117 17.022033
Hg -1.544581 1.539209 17.022033
Hg -1.544581 -1.557117 20.118359
Hg 1.551745 1.539209 20.118359
Hg 1.551745 -1.557117 23.214685
Hg -1.544581 1.539209 23.214685
Hg -1.544581 -1.557117 26.311011
Hg 1.551745 1.539209 26.311011
Hg 1.551745 -1.557117 29.407337
Hg -1.544581 1.539209 29.407337
Hg -1.544581 4.635535 -29.422857
Hg 1.551745 7.731861 -29.422857
Hg 1.551745 4.635535 -26.326531
Hg -1.544581 7.731861 -26.326531
Hg -1.544581 4.635535 -23.230205
Hg 1.551745 7.731861 -23.230205
Hg 1.551745 4.635535 -20.133879
Hg -1.544581 7.731861 -20.133879
Hg -1.544581 4.635535 -17.037553
Hg 1.551745 7.731861 -17.037553
Hg 1.551745 4.635535 -13.941227
Hg -1.544581 7.731861 -13.941227
Hg -1.544581 4.635535 -10.844901
Hg 1.551745 7.731861 -10.844901
Hg 1.551745 4.635535 -7.748575
Hg -1.544581 7.731861 -7.748575
Hg -1.544581 4.635535 -4.652249
Hg 1.551745 7.731861 -4.652249
Hg 1.551745 4.635535 -1.555923
Hg -1.544581 7.731861 -1.555923
Hg -1.544581 4.635535 1.540403
Hg 1.551745 7.731861 1.540403
Hg 1.551745 4.635535 4.636729
Hg -1.544581 7.731861 4.636729
Hg -1.544581 4.635535 7.733055
Hg 1.551745 7.731861 7.733055
Hg 1.551745 4.635535 10.829381
Hg -1.544581 7.731861 10.829381
Hg -1.544581 4.635535 13.925707
Hg 1.551745 7.731861 13.925707
Hg 1.551745 4.635535 17.022033
Hg -1.544581 7.731861 17.022033
Hg -1.544581 4.635535 20.118359
Hg 1.551745 7.731861 20.118359
Hg 1.551745 4.635535 23.214685
Hg -1.544581 7.731861 23.214685
Hg -1.544581 4.635535 26.311011
Hg 1.551745 7.731861 26.311011
Hg 1.551745 4.635535 29.407337
Hg -1.544581 7.731861 29.407337
Hg -1.544581 10.828187 -29.422857
Hg 1.551745 13.924513 -29.422857
Hg 1.551745 10.828187 -26.326531
Hg -1.544581 13.924513 -26.326531
Hg -1.544581 10.828187 -23.230205
Hg 1.551745 13.924513 -23.230205
Hg 1.551745 10.828187 -20.133879
Hg -1.544581 13.924513 -20.133879
Hg -1.544581 10.828187 -17.037553
Hg 1.551745 13.924513 -17.037553
Hg 1.551745 10.828187 -13.941227
Hg -1.544581 13.924513 -13.941227
Hg -1.544581 10.828187 -10.844901
Hg 1.551745 13.924513 -10.844901
Hg 1.551745 10.828187 -7.748575
Hg -1.544581 13.924513 -7.748575
Hg -1.544581 10.828187 -4.652249
Hg 1.551745 13.924513 -4.652249
Hg 1.551745 10.828187 -1.555923
Hg -1.544581 13.924513 -1.555923
Hg -1.544581 10.828187 1.540403
Hg 1.551745 13.924513 1.540403
Hg 1.551745 10.828187 4.636729
Hg -1.544581 13.924513 4.636729
Hg -1.544581 10.828187 7.733055
Hg 1.551745 13.924513 7.733055
Hg 1.551745 10.828187 10.829381
Hg -1.544581 13.924513 10.829381
Hg -1.544581 10.828187 13.925707
Hg 1.551745 13.924513 13.925707
Hg 1.551745 10.828187 17.022033
Hg -1.544581 13.924513 17.022033
Hg -1.544581 10.828187 20.118359
Hg 1.551745 13.924513 20.118359
Hg 1.551745 10.828187 23.214685
Hg -1.544581 13.924513 23.214685
Hg -1.544581 10.828187 26.311011
Hg 1.551745 13.924513 26.311011
Hg 1.551745 10.828187 29.407337
Hg -1.544581 13.924513 29.407337
Hg 1.551745 17.020839 -26.326531
Hg -1.544581 17.020839 -23.230205
Hg 1.551745 20.117165 -23.230205
Hg 1.551745 17.020839 -20.133879
Hg -1.544581 20.117165 -20.133879
Hg -1.544581 17.020839 -17.037553
Hg 1.551745 20.117165 -17.037553
Hg 1.551745 17.020839 -13.941227
Hg -1.544581 20.117165 -13.941227
Hg -1.544581 17.020839 -10.844901
Hg 1.551745 20.117165 -10.844901
Hg 1.551745 17.020839 -7.748575
Hg -1.544581 20.117165 -7.748575
Hg -1.544581 17.020839 -4.652249
Hg 1.551745 20.117165 -4.652249
Hg 1.551745 17.020839 -1.555923
Hg -1.544581 20.117165 -1.555923
Hg -1.544581 17.020839 1.540403
Hg 1.551745 20.117165 1.540403
Hg 1.551745 17.020839 4.636729
Hg -1.544581 20.117165 4.636729
Hg -1.544581 17.020839 7.733055
Hg 1.551745 20.117165 7.733055
Hg 1.551745 17.020839 10.829381
Hg -1.544581 20.117165 10.829381
Hg -1.544581 17.020839 13.925707
Hg 1.551745 20.117165 13.925707
Hg 1.551745 17.020839 17.022033
Hg -1.544581 20.117165 17.022033
Hg -1.544581 17.020839 20.118359
Hg 1.551745 20.117165 20.118359
Hg 1.551745 17.020839 23.214685
Hg -1.544581 20.117165 23.214685
Hg -1.544581 17.020839 26.311011
Hg 1.551745 23.213491 -20.133879
Hg -1.544581 23.213491 -17.037553
Hg 1.551745 26.309817 -17.037553
Hg 1.551745 23.213491 -13.941227
Hg -1.544581 26.309817 -13.941227
Hg -1.544581 23.213491 -10.844901
Hg 1.551745 26.309817 -10.844901
Hg 1.551745 23.213491 -7.748575
Hg -1.544581 26.309817 -7.748575
Hg -1.544581 23.213491 -4.652249
Hg 1.551745 26.309817 -4.652249
Hg 1.551745 23.213491 -1.555923
Hg -1.544581 26.309817 -1.555923
Hg -1.544581 23.213491 1.540403
Hg 1.551745 26.309817 1.540403
Hg 1.551745 23.213491 4.636729
Hg -1.544581 26.309817 4.636729
Hg -1.544581 23.213491 7.733055
Hg 1.551745 26.309817 7.733055
Hg 1.551745 23.213491 10.829381
Hg -1.544581 26.309817 10.829381
Hg -1.544581 23.213491 13.925707
Hg 1.551745 26.309817 13.925707
Hg 1.551745 23.213491 17.022033
Hg -1.544581 26.309817 17.022033
Hg -1.544581 23.213491 20.118359
Hg 1.551745 29.406143 -13.941227
Hg -1.544581 29.406143 -10.844901
Hg 1.551745 29.406143 -7.748575
Hg -1.544581 29.406143 -4.652249
Hg 1.551745 29.406143 -1.555923
Hg -1.544581 29.406143 1.540403
Hg 1.551745 29.406143 4.636729
Hg -1.544581 29.406143 7.733055
Hg 1.551745 29.406143 10.829381
Hg -1.544581 29.406143 13.925707
Hg 4.648071 -29.424051 -13.941227
Hg 7.744397 -29.424051 -10.844901
Hg 4.648071 -29.424051 -7.748575
Hg 7.744397 -29.424051 -4.652249
Hg 4.648071 -29.424051 -1.555923
Hg 7.744397 -29.424051 1.540403
Hg 4.648071 -29.424051 4.636729
Hg 7.744397 -29.424051 7.733055
Hg 4.648071 -29.424051 10.829381
Hg 7.744397 -29.424051 13.925707
Hg 4.648071 -23.231399 -20.133879
Hg 4.648071 -26.327725 -17.037553
Hg 7.744397 -23.231399 -17.037553
Hg 7.744397 -26.327725 -13.941227
Hg 4.648071 -23.231399 -13.941227
Hg 4.648071 -26.327725 -10.844901
Hg 7.744397 -23.231399 -10.844901
Hg 7.744397 -26.327725 -7.748575
Hg 4.648071 -23.231399 -7.748575
Hg 4.648071 -26.327725 -4.652249
Hg 7.744397 -23.231399 -4.652249
Hg 7.744397 -26.327725 -1.555923
Hg 4.648071 -23.231399 -1.555923
Hg 4.648071 -26.327725 1.540403
Hg 7.744397 -23.231399 1.540403
Hg 7.744397 -26.327725 4.636729
Hg 4.648071 -23.231399 4.636729
Hg 4.648071 -26.327725 7.733055
Hg 7.744397 -23.231399 7.733055
Hg 7.744397 -26.327725 10.829381
Hg 4.648071 -23.231399 10.829381
Hg 4.648071 -26.327725 13.925707
Hg 7.744397 -23.231399 13.925707
Hg 7.744397 -26.327725 17.022033
Hg 4.648071 -23.231399 17.022033
Hg 7.744397 -23.231399 20.118359
Hg 4.648071 -17.038747 -26.326531
Hg 4.648071 -20.135073 -23.230205
Hg 7.744397 -17.038747 -23.230205
Hg 7.744397 -20.135073 -20.133879
Hg 4.648071 -17.038747 -20.133879
Hg 4.648071 -20.135073 -17.037553
Hg 7.744397 -17.038747 -17.037553
Hg 7.744397 -20.135073 -13.941227
Hg 4.648071 -17.038747 -13.941227
Hg 4.648071 -20.135073 -10.844901
Hg 7.744397 -17.038747 -10.844901
Hg 7.744397 -20.135073 -7.748575
Hg 4.648071 -17.038747 -7.748575
Hg 4.648071 -20.135073 -4.652249
Hg 7.744397 -17.038747 -4.652249
Hg 7.744397 -20.135073 -1.555923
Hg 4.648071 -17.038747 -1.555923
Hg 4.648071 -20.135073 1.540403
Hg 7.744397 -17.038747 1.540403
Hg 7.744397 -20.135073 4.636729
Hg 4.648071 -17.038747 4.636729
Hg 4.648071 -20.135073 7.733055
Hg 7.744397 -17.038747 7.733055
Hg 7.744397 -20.135073 10.829381
Hg 4.648071 -17.038747 10.829381
Hg 4.648071 -20.135073 13.925707
Hg 7.744397 -17.038747 13.925707
Hg 7.744397 -20.135073 17.022033
Hg 4.648071 -17.038747 17.022033
Hg 4.648071 -20.135073 20.118359
Hg 7.744397 -17.038747 20.118359
Hg 7.744397 -20.135073 23.214685
Hg 4.648071 -17.038747 23.214685
Hg 7.744397 -17.038747 26.311011
Hg 4.648071 -13.942421 -29.422857
Hg 7.744397 -10.846095 -29.422857
Hg 7.744397 -13.942421 -26.326531
Hg 4.648071 -10.846095 -26.326531
Hg 4.648071 -13.942421 -23.230205
Hg 7.744397 -10.846095 -23.230205
Hg 7.744397 -13.942421 -20.133879
Hg 4.648071 -10.846095 -20.133879
Hg 4.648071 -13.942421 -17.037553
Hg 7.744397 -10.846095 -17.037553
Hg 7.744397 -13.942421 -13.941227
Hg 4.648071 -10.846095 -13.941227
Hg 4.648071 -13.942421 -10.844901
Hg 7.744397 -10.846095 -10.844901
Hg 7.744397 -13.942421 -7.748575
Hg 4.648071 -10.846095 -7.748575
Hg 4.648071 -13.942421 -4.652249
Hg 7.744397 -10.846095 -4.652249
Hg 7.744397 -13.942421 -1.555923
Hg 4.648071 -10.846095 -1.555923
Hg 4.648071 -13.942421 1.540403
Hg 7.744397 -10.846095 1.540403
Hg 7.744397 -13.942421 4.636729
Hg 4.648071 -10.846095 4.636729
Hg 4.648071 -13.942421 7.733055
Hg 7.744397 -10.846095 7.733055
Hg 7.744397 -13.942421 10.829381
Hg 4.648071 -10.846095 10.829381
Hg 4.648071 -13.942421 13.925707
Hg 7.744397 -10.846095 13.925707
Hg 7.744397 -13.942421 17.022033
Hg 4.648071 -10.846095 17.022033
Hg 4.648071 -13.942421 20.118359
Hg 7.744397 -10.846095 20.118359
Hg 7.744397 -13.942421 23.214685
Hg 4.648071 -10.846095 23.214685
Hg 4.648071 -13.942421 26.311011
Hg 7.744397 -10.846095 26.311011
Hg 7.744397 -13.942421 29.407337
Hg 4.648071 -10.846095 29.407337
Hg 4.648071 -7.749769 -29.422857
Hg 7.744397 -4.653443 -29.422857
Hg 7.744397 -7.749769 -26.326531
Hg 4.648071 -4.653443 -26.326531
Hg 4.648071 -7.749769 -23.230205
Hg 7.744397 -4.653443 -23.230205
Hg 7.744397 -7.749769 -20.133879
Hg 4.648071 -4.653443 -20.133879
Hg 4.648071 -7.749769 -17.037553
Hg 7.744397 -4.653443 -17.037553
Hg 7.744397 -7.749769 -13.941227
Hg 4.648071 -4.653443 -13.941227
Hg 4.648071 -7.749769 -10.844901
Hg 7.744397 -4.653443 -10.844901
Hg 7.744397 -7.749769 -7.748575
Hg 4.648071 -4.653443 -7.748575
Hg 4.648071 -7.749769 -4.652249
Hg 7.744397 -4.653443 -4.652249
Hg 7.744397 -7.749769 -1.555923
Hg 4.648071 -4.653443 -1.555923
Hg 4.648071 -7.749769 1.540403
Hg 7.744397 -4.653443 1.540403
Hg 7.744397 -7.749769 4.636729
Hg 4.648071 -4.653443 4.636729
Hg 4.648071 -7.749769 7.733055
Hg 7.744397 -4.653443 7.733055
Hg 7.744397 -7.749769 10.829381
Hg 4.648071 -4.653443 10.829381
Hg 4.648071 -7.749769 13.925707
Hg 7.744397 -4.653443 13.925707
Hg 7.744397 -7.749769 17.022033
Hg 4.648071 -4.653443 17.022033
Hg 4.648071 -7.749769 20.118359
Hg 7.744397 -4.653443 20.118359
Hg 7.744397 -7.749769 23.214685
Hg 4.648071 -4.653443 23.214685
Hg 4.648071 -7.749769 26.311011
Hg 7.744397 -4.653443 26.311011
Hg 7.744397 -7.749769 29.407337
Hg 4.648071 -4.653443 29.407337
Hg 4.648071 -1.557117 -29.422857
Hg 7.744397 1.539209 -29.422857
Hg 7.744397 -1.557117 -26.326531
Hg 4.648071 1.539209 -26.326531
Hg 4.648071 -1.557117 -23.230205
Hg 7.744397 1.539209 -23.230205
Hg 7.744397 -1.557117 -20.133879
Hg 4.648071 1.539209 -20.133879
Hg 4.648071 -1.557117 -17.037553
Hg 7.744397 1.539209 -17.037553
Hg 7.744397 -1.557117 -13.941227
Hg 4.648071 1.539209 -13.941227
Hg 4.648071 -1.557117 -10.844901
Hg 7.744397 1.539209 -10.844901
Hg 7.744397 -1.557117 -7.748575
Hg 4.648071 1.539209 -7.748575
Hg 4.648071 -1.557117 -4.652249
Hg 7.744397 1.539209 -4.652249
Hg 7.744397 -1.557117 -1.555923
Hg 4.648071 1.539209 -1.555923
Hg 4.648071 -1.557117 1.540403
Hg 7.744397 1.539209 1.540403
Hg 7.744397 -1.557117 4.636729
Hg 4.648071 1.539209 4.636729
Hg 4.648071 -1.557117 7.733055
Hg 7.744397 1.539209 7.733055
Hg 7.744397 -1.557117 10.829381
Hg 4.648071 1.539209 10.829381
Hg 4.648071 -1.557117 13.925707
Hg 7.744397 1.539209 13.925707
Hg 7.744397 -1.557117 17.022033
Hg 4.648071 1.539209 17.022033
Hg 4.648071 -1.557117 20.118359
Hg 7.744397 1.539209 20.118359
Hg 7.744397 -1.557117 23.214685
Hg 4.648071 1.539209 23.214685
Hg 4.648071 -1.557117 26.311011
Hg 7.744397 1.539209 26.311011
Hg 7.744397 -1.557117 29.407337
Hg 4.648071 1.539209 29.407337
Hg 4.648071 4.635535 -29.422857
Hg 7.744397 7.731861 -29.422857
Hg 7.744397 4.635535 -26.326531
Hg 4.648071 7.731861 -26.326531
Hg 4.648071 4.635535 -23.230205
Hg 7.744397 7.731861 -23.230205
Hg 7.744397 4.635535 -20.133879
Hg 4.648071 7.731861 -20.133879
Hg 4.648071 4.635535 -17.037553
Hg 7.744397 7.731861 -17.037553
Hg 7.744397 4.635535 -13.941227
Hg 4.648071 7.731861 -13.941227
Hg 4.648071 4.635535 -10.844901
Hg 7.744397 7.731861 -10.844901
Hg 7.744397 4.635535 -7.748575
Hg 4.648071 7.731861 -7.748575
Hg 4.648071 4.635535 -4.652249
Hg 7.744397 7.731861 -4.652249
Hg 7.744397 4.635535 -1.555923
Hg 4.648071 7.731861 -1.555923
Hg 4.648071 4.635535 1.540403
Hg 7.744397 7.731861 1.540403
Hg 7.744397 4.635535 4.636729
Hg 4.648071 7.731861 4.636729
Hg 4.648071 4.635535 7.733055
Hg 7.744397 7.731861 7.733055
Hg 7.744397 4.635535 10.829381
Hg 4.648071 7.731861 10.829381
Hg 4.648071 4.635535 13.925707
Hg 7.744397 7.731861 13.925707
Hg 7.744397 4.635535 17.022033
Hg 4.648071 7.731861 17.022033
Hg 4.648071 4.635535 20.118359
Hg 7.744397 7.731861 20.118359
Hg 7.744397 4.635535 23.214685
Hg 4.648071 7.731861 23.214685
Hg 4.648071 4.635535 26.311011
Hg 7.744397 7.731861 26.311011
Hg 7.744397 4.635535 29.407337
Hg 4.648071 7.731861 29.407337
Hg 4.648071 10.828187 -29.422857
Hg 7.744397 13.924513 -29.422857
Hg 7.744397 10.828187 -26.326531
Hg 4.648071 13.924513 -26.326531
Hg 4.648071 10.828187 -23.230205
Hg 7.744397 13.924513 -23.230205
Hg 7.744397 10.828187 -20.133879
Hg 4.648071 13.924513 -20.133879
Hg 4.648071 10.828187 -17.037553
Hg 7.744397 13.924513 -17.037553
Hg 7.744397 10.828187 -13.941227
Hg 4.648071 13.924513 -13.941227
Hg 4.648071 10.828187 -10.844901
Hg 7.744397 13.924513 -10.844901
Hg 7.744397 10.828187 -7.748575
Hg 4.648071 13.924513 -7.748575
Hg 4.648071 10.828187 -4.652249
Hg 7.744397 13.924513 -4.652249
Hg 7.744397 10.828187 -1.555923
Hg 4.648071 13.924513 -1.555923
Hg 4.648071 10.828187 1.540403
Hg 7.744397 13.924513 1.540403
Hg 7.744397 10.828187 4.636729
Hg 4.648071 13.924513 4.636729
Hg 4.648071 10.828187 7.733055
Hg 7.744397 13.924513 7.733055
Hg 7.744397 10.828187 10.829381
Hg 4.648071 13.924513 10.829381
Hg 4.648071 10.828187 13.925707
Hg 7.744397 13.924513 13.925707
Hg 7.744397 10.828187 17.022033
Hg 4.648071 13.924513 17.022033
Hg 4.648071 10.828187 20.118359
Hg 7.744397 13.924513 20.118359
Hg 7.744397 10.828187 23.214685
Hg 4.648071 13.924513 23.214685
Hg 4.648071 10.828187 26.311011
Hg 7.744397 13.924513 26.311011
Hg 7.744397 10.828187 29.407337
Hg 4.648071 13.924513 29.407337
Hg 7.744397 17.020839 -26.326531
Hg 4.648071 17.020839 -23.230205
Hg 7.744397 20.117165 -23.230205
Hg 7.744397 17.020839 -20.133879
Hg 4.648071 20.117165 -20.133879
Hg 4.648071 17.020839 -17.037553
Hg 7.744397 20.117165 -17.037553
Hg 7.744397 17.020839 -13.941227
Hg 4.648071 20.117165 -13.941227
Hg 4.648071 17.020839 -10.844901
Hg 7.744397 20.117165 -10.844901
Hg 7.744397 17.020839 -7.748575
Hg 4.648071 20.117165 -7.748575
Hg 4.648071 17.020839 -4.652249
Hg 7.744397 20.117165 -4.652249
Hg 7.744397 17.020839 -1.555923
Hg 4.648071 20.117165 -1.555923
Hg 4.648071 17.020839 1.540403
Hg 7.744397 20.117165 1.540403
Hg 7.744397 17.020839 4.636729
Hg 4.648071 20.117165 4.636729
Hg 4.648071 17.020839 7.733055
Hg 7.744397 20.117165 7.733055
Hg 7.744397 17.020839 10.829381
Hg 4.648071 20.117165 10.829381
Hg 4.648071 17.020839 13.925707
Hg 7.744397 20.117165 13.925707
Hg 7.744397 17.020839 17.022033
Hg 4.648071 20.117165 17.022033
Hg 4.648071 17.020839 20.118359
Hg 7.744397 20.117165 20.118359
Hg 7.744397 17.020839 23.214685
Hg 4.648071 20.117165 23.214685
Hg 4.648071 17.020839 26.311011
Hg 7.744397 23.213491 -20.133879
Hg 4.648071 23.213491 -17.037553
Hg 7.744397 26.309817 -17.037553
Hg 7.744397 23.213491 -13.941227
Hg 4.648071 26.309817 -13.941227
Hg 4.648071 23.213491 -10.844901
Hg 7.744397 26.309817 -10.844901
Hg 7.744397 23.213491 -7.748575
Hg 4.648071 26.309817 -7.748575
Hg 4.648071 23.213491 -4.652249
Hg 7.744397 26.309817 -4.652249
Hg 7.744397 23.213491 -1.555923
Hg 4.648071 26.309817 -1.555923
Hg 4.648071 23.213491 1.540403
Hg 7.744397 26.309817 1.540403
Hg 7.744397 23.213491 4.636729
Hg 4.648071 26.309817 4.636729
Hg 4.648071 23.213491 7.733055
Hg 7.744397 26.309817 7.733055
Hg 7.744397 23.213491 10.829381
Hg 4.648071 26.309817 10.829381
Hg 4.648071 23.213491 13.925707
Hg 7.744397 26.309817 13.925707
Hg 7.744397 23.213491 17.022033
Hg 4.648071 26.309817 17.022033
Hg 4.648071 23.213491 20.118359
Hg 7.744397 29.406143 -13.941227
Hg 4.648071 29.406143 -10.844901
Hg 7.744397 29.406143 -7.748575
Hg 4.648071 29.406143 -4.652249
Hg 7.744397 29.406143 -1.555923
Hg 4.648071 29.406143 1.540403
Hg 7.744397 29.406143 4.636729
Hg 4.648071 29.406143 7.733055
Hg 7.744397 29.406143 10.829381
Hg 4.648071 29.406143 13.925707
Hg 10.840723 -29.424051 -13.941227
Hg 13.937049 -29.424051 -10.844901
Hg 10.840723 -29.424051 -7.748575
Hg 13.937049 -29.424051 -4.652249
Hg 10.840723 -29.424051 -1.555923
Hg 13.937049 -29.424051 1.540403
Hg 10.840723 -29.424051 4.636729
Hg 13.937049 -29.424051 7.733055
Hg 10.840723 -29.424051 10.829381
Hg 10.840723 -23.231399 -20.133879
Hg 10.840723 -26.327725 -17.037553
Hg 13.937049 -23.231399 -17.037553
Hg 10.840723 -23.231399 -13.941227
Hg 10.840723 -26.327725 -10.844901
Hg 13.937049 -23.231399 -10.844901
Hg 13.937049 -26.327725 -7.748575
Hg 10.840723 -23.231399 -7.748575
Hg 10.840723 -26.327725 -4.652249
Hg 13.937049 -23.231399 -4.652249
Hg 13.937049 -26.327725 -1.555923
Hg 10.840723 -23.231399 -1.555923
Hg 10.840723 -26.327725 1.540403
Hg 13.937049 -23.231399 1.540403
Hg 13.937049 -26.327725 4.636729
Hg 10.840723 -23.231399 4.636729
Hg 10.840723 -26.327725 7.733055
Hg 13.937049 -23.231399 7.733055
Hg 10.840723 -23.231399 10.829381
Hg 10.840723 -26.327725 13.925707
Hg 13.937049 -23.231399 13.925707
Hg 10.840723 -17.038747 -26.326531
Hg 10.840723 -20.135073 -23.230205
Hg 13.937049 -17.038747 -23.230205
Hg 10.840723 -17.038747 -20.133879
Hg 10.840723 -20.135073 -17.037553
Hg 13.937049 -17.038747 -17.037553
Hg 13.937049 -20.135073 -13.941227
Hg 10.840723 -17.038747 -13.941227
Hg 10.840723 -20.135073 -10.844901
Hg 13.937049 -17.038747 -10.844901
Hg 13.937049 -20.135073 -7.748575
Hg 10.840723 -17.038747 -7.748575
Hg 10.840723 -20.135073 -4.652249
Hg 13.937049 -17.038747 -4.652249
Hg 13.937049 -20.135073 -1.555923
Hg 10.840723 -17.038747 -1.555923
Hg 10.840723 -20.135073 1.540403
Hg 13.937049 -17.038747 1.540403
Hg 13.937049 -20.135073 4.636729
Hg 10.840723 -17.038747 4.636729
Hg 10.840723 -20.135073 7.733055
Hg 13.937049 -17.038747 7.733055
Hg 13.937049 -20.135073 10.829381
Hg 10.840723 -17.038747 10.829381
Hg 10.840723 -20.135073 13.925707
Hg 13.937049 -17.038747 13.925707
Hg 13.937049 -20.135073 17.022033
Hg 10.840723 -17.038747 17.022033
Hg 10.840723 -20.135073 20.118359
Hg 13.937049 -17.038747 20.118359
Hg 10.840723 -17.038747 23.214685
Hg 10.840723 -13.942421 -29.422857
Hg 13.937049 -10.846095 -29.422857
Hg 10.840723 -10.846095 -26.326531
Hg 10.840723 -13.942421 -23.230205
Hg 13.937049 -10.846095 -23.230205
Hg 13.937049 -13.942421 -20.133879
Hg 10.840723 -10.846095 -20.133879
Hg 10.840723 -13.942421 -17.037553
Hg 13.937049 -10.846095 -17.037553
Hg 13.937049 -13.942421 -13.941227
Hg 10.840723 -10.846095 -13.941227
Hg 10.840723 -13.942421 -10.844901
Hg 13.937049 -10.846095 -10.844901
Hg 13.937049 -13.942421 -7.748575
Hg 10.840723 -10.846095 -7.748575
Hg 10.840723 -13.942421 -4.652249
Hg 13.937049 -10.846095 -4.652249
Hg 13.937049 -13.942421 -1.555923
Hg 10.840723 -10.846095 -1.555923
Hg 10.840723 -13.942421 1.540403
Hg 13.937049 -10.846095 1.540403
Hg 13.937049 -13.942421 4.636729
Hg 10.840723 -10.846095 4.636729
Hg 10.840723 -13.942421 7.733055
Hg 13.937049 -10.846095 7.733055
Hg 13.937049 -13.942421 10.829381
Hg 10.840723 -10.846095 10.829381
Hg 10.840723 -13.942421 13.925707
Hg 13.937049 -10.846095 13.925707
Hg 13.937049 -13.942421 17.022033
Hg 10.840723 -10.846095 17.022033
Hg 10.840723 -13.942421 20.118359
Hg 13.937049 -10.846095 20.118359
Hg 13.937049 -13.942421 23.214685
Hg 10.840723 -10.846095 23.214685
Hg 13.937049 -10.846095 26.311011
Hg 10.840723 -10.846095 29.407337
Hg 10.840723 -7.749769 -29.422857
Hg 13.937049 -4.653443 -29.422857
Hg 13.937049 -7.749769 -26.326531
Hg 10.840723 -4.653443 -26.326531
Hg 10.840723 -7.749769 -23.230205
Hg 13.937049 -4.653443 -23.230205
Hg 13.937049 -7.749769 -20.133879
Hg 10.840723 -4.653443 -20.133879
Hg 10.840723 -7.749769 -17.037553
Hg 13.937049 -4.653443 -17.037553
Hg 13.937049 -7.749769 -13.941227
Hg 10.840723 -4.653443 -13.941227
Hg 10.840723 -7.749769 -10.844901
Hg 13.937049 -4.653443 -10.844901
Hg 13.937049 -7.749769 -7.748575
Hg 10.840723 -4.653443 -7.748575
Hg 10.840723 -7.749769 -4.652249
Hg 13.937049 -4.653443 -4.652249
Hg 13.937049 -7.749769 -1.555923
Hg 10.840723 -4.653443 -1.555923
Hg 10.840723 -7.749769 1.540403
Hg 13.937049 -4.653443 1.540403
Hg 13.937049 -7.749769 4.636729
Hg 10.840723 -4.653443 4.636729
Hg 10.840723 -7.749769 7.733055
Hg 13.937049 -4.653443 7.733055
Hg 13.937049 -7.749769 10.829381
Hg 10.840723 -4.653443 10.829381
Hg 10.840723 -7.749769 13.925707
Hg 13.937049 -4.653443 13.925707
Hg 13.937049 -7.749769 17.022033
Hg 10.840723 -4.653443 17.022033
Hg 10.840723 -7.749769 20.118359
Hg 13.937049 -4.653443 20.118359
Hg 13.937049 -7.749769 23.214685
Hg 10.840723 -4.653443 23.214685
Hg 10.840723 -7.749769 26.311011
Hg 13.937049 -4.653443 26.311011
Hg 13.937049 -7.749769 29.407337
Hg 10.840723 -4.653443 29.407337
Hg 10.840723 -1.557117 -29.422857
Hg 13.937049 1.539209 -29.422857
Hg 13.937049 -1.557117 -26.326531
Hg 10.840723 1.539209 -26.326531
Hg 10.840723 -1.557117 -23.230205
Hg 13.937049 1.539209 -23.230205
Hg 13.937049 -1.557117 -20.133879
Hg 10.840723 1.539209 -20.133879
Hg 10.840723 -1.557117 -17.037553
Hg 13.937049 1.539209 -17.037553
Hg 13.937049 -1.557117 -13.941227
Hg 10.840723 1.539209 -13.941227
Hg 10.840723 -1.557117 -10.844901
Hg 13.937049 1.539209 -10.844901
Hg 13.937049 -1.557117 -7.748575
Hg 10.840723 1.539209 -7.748575
Hg 10.840723 -1.557117 -4.652249
Hg 13.937049 1.539209 -4.652249
Hg 13.937049 -1.557117 -1.555923
Hg 10.840723 1.539209 -1.555923
Hg 10.840723 -1.557117 1.540403
Hg 13.937049 1.539209 1.540403
Hg 13.937049 -1.557117 4.636729
Hg 10.840723 1.539209 4.636729
Hg 10.840723 -1.557117 7.733055
Hg 13.937049 1.539209 7.733055
Hg 13.937049 -1.557117 10.829381
Hg 10.840723 1.539209 10.829381
Hg 10.840723 -1.557117 13.925707
Hg 13.937049 1.539209 13.925707
Hg 13.937049 -1.557117 17.022033
Hg 10.840723 1.539209 17.022033
Hg 10.840723 -1.557117 20.118359
Hg 13.937049 1.539209 20.118359
Hg 13.937049 -1.557117 23.214685
Hg 10.840723 1.539209 23.214685
Hg 10.840723 -1.557117 26.311011
Hg 13.937049 1.539209 26.311011
Hg 13.937049 -1.557117 29.407337
Hg 10.840723 1.539209 29.407337
Hg 10.840723 4.635535 -29.422857
Hg 13.937049 7.731861 -29.422857
Hg 13.937049 4.635535 -26.326531
Hg 10.840723 7.731861 -26.326531
Hg 10.840723 4.635535 -23.230205
Hg 13.937049 7.731861 -23.230205
Hg 13.937049 4.635535 -20.133879
Hg 10.840723 7.731861 -20.133879
Hg 10.840723 4.635535 -17.037553
Hg 13.937049 7.731861 -17.037553
Hg 13.937049 4.635535 -13.941227
Hg 10.840723 7.731861 -13.941227
Hg 10.840723 4.635535 -10.844901
Hg 13.937049 7.731861 -10.844901
Hg 13.937049 4.635535 -7.748575
Hg 10.840723 7.731861 -7.748575
Hg 10.840723 4.635535 -4.652249
Hg 13.937049 7.731861 -4.652249
Hg 13.937049 4.635535 -1.555923
Hg 10.840723 7.731861 -1.555923
Hg 10.840723 4.635535 1.540403
Hg 13.937049 7.731861 1.540403
Hg 13.937049 4.635535 4.636729
Hg 10.840723 7.731861 4.636729
Hg 10.840723 4.635535 7.733055
Hg 13.937049 7.731861 7.733055
Hg 13.937049 4.635535 10.829381
Hg 10.840723 7.731861 10.829381
Hg 10.840723 4.635535 13.925707
Hg 13.937049 7.731861 13.925707
Hg 13.937049 4.635535 17.022033
Hg 10.840723 7.731861 17.022033
Hg 10.840723 4.635535 20.118359
Hg 13.937049 7.731861 20.118359
Hg 13.937049 4.635535 23.214685
Hg 10.840723 7.731861 23.214685
Hg 10.840723 4.635535 26.311011
Hg 13.937049 7.731861 26.311011
Hg 13.937049 4.635535 29.407337
Hg 10.840723 7.731861 29.407337
Hg 10.840723 10.828187 -29.422857
Hg 10.840723 13.924513 -26.326531
Hg 10.840723 10.828187 -23.230205
Hg 13.937049 13.924513 -23.230205
Hg 13.937049 10.828187 -20.133879
Hg 10.840723 13.924513 -20.133879
Hg 10.840723 10.828187 -17.037553
Hg 13.937049 13.924513 -17.037553
Hg 13.937049 10.828187 -13.941227
Hg 10.840723 13.924513 -13.941227
Hg 10.840723 10.828187 -10.844901
Hg 13.937049 13.924513 -10.844901
Hg 13.937049 10.828187 -7.748575
Hg 10.840723 13.924513 -7.748575
Hg 10.840723 10.828187 -4.652249
Hg 13.937049 13.924513 -4.652249
Hg 13.937049 10.828187 -1.555923
Hg 10.840723 13.924513 -1.555923
Hg 10.840723 10.828187 1.540403
Hg 13.937049 13.924513 1.540403
Hg 13.937049 10.828187 4.636729
Hg 10.840723 13.924513 4.636729
Hg 10.840723 10.828187 7.733055
Hg 13.937049 13.924513 7.733055
Hg 13.937049 10.828187 10.829381
Hg 10.840723 13.924513 10.829381
Hg 10.840723 10.828187 13.925707
Hg 13.937049 13.924513 13.925707
Hg 13.937049 10.828187 17.022033
Hg 10.840723 13.924513 17.022033
Hg 10.840723 10.828187 20.118359
Hg 13.937049 13.924513 20.118359
Hg 13.937049 10.828187 23.214685
Hg 10.840723 13.924513 23.214685
Hg 10.840723 10.828187 26.311011
Hg 13.937049 10.828187 29.407337
Hg 10.840723 13.924513 29.407337
Hg 13.937049 17.020839 -20.133879
Hg 10.840723 20.117165 -20.133879
Hg 10.840723 17.020839 -17.037553
Hg 13.937049 20.117165 -17.037553
Hg 13.937049 17.020839 -13.941227
Hg 10.840723 20.117165 -13.941227
Hg 10.840723 17.020839 -10.844901
Hg 13.937049 20.117165 -10.844901
Hg 13.937049 17.020839 -7.748575
Hg 10.840723 20.117165 -7.748575
Hg 10.840723 17.020839 -4.652249
Hg 13.937049 20.117165 -4.652249
Hg 13.937049 17.020839 -1.555923
Hg 10.840723 20.117165 -1.555923
Hg 10.840723 17.020839 1.540403
Hg 13.937049 20.117165 1.540403
Hg 13.937049 17.020839 4.636729
Hg 10.840723 20.117165 4.636729
Hg 10.840723 17.020839 7.733055
Hg 13.937049 20.117165 7.733055
Hg 13.937049 17.020839 10.829381
Hg 10.840723 20.117165 10.829381
Hg 10.840723 17.020839 13.925707
Hg 13.937049 20.117165 13.925707
Hg 13.937049 17.020839 17.022033
Hg 10.840723 20.117165 17.022033
Hg 10.840723 17.020839 20.118359
Hg 13.937049 17.020839 23.214685
Hg 10.840723 20.117165 23.214685
Hg 10.840723 17.020839 26.311011
Hg 10.840723 23.213491 -17.037553
Hg 13.937049 23.213491 -13.941227
Hg 10.840723 23.213491 -10.844901
Hg 13.937049 26.309817 -10.844901
Hg 13.937049 23.213491 -7.748575
Hg 10.840723 26.309817 -7.748575
Hg 10.840723 23.213491 -4.652249
Hg 13.937049 26.309817 -4.652249
Hg 13.937049 23.213491 -1.555923
Hg 10.840723 26.309817 -1.555923
Hg 10.840723 23.213491 1.540403
Hg 13.937049 26.309817 1.540403
Hg 13.937049 23.213491 4.636729
Hg 10.840723 26.309817 4.636729
Hg 10.840723 23.213491 7.733055
Hg 13.937049 26.309817 7.733055
Hg 13.937049 23.213491 10.829381
Hg 10.840723 26.309817 10.829381
Hg 10.840723 23.213491 13.925707
Hg 13.937049 23.213491 17.022033
Hg 10.840723 26.309817 17.022033
Hg 10.840723 23.213491 20.118359
Hg 10.840723 29.406143 -10.844901
Hg 13.937049 29.406143 -7.748575
Hg 10.840723 29.406143 -4.652249
Hg 13.937049 29.406143 -1.555923
Hg 10.840723 29.406143 1.540403
Hg 13.937049 29.406143 4.636729
Hg 10.840723 29.406143 7.733055
Hg 13.937049 29.406143 10.829381
Hg 10.840723 29.406143 13.925707
Hg 17.033375 -23.231399 -13.941227
Hg 17.033375 -26.327725 -10.844901
Hg 20.129701 -23.231399 -10.844901
Hg 17.033375 -23.231399 -7.748575
Hg 17.033375 -26.327725 -4.652249
Hg 20.129701 -23.231399 -4.652249
Hg 17.033375 -23.231399 -1.555923
Hg 17.033375 -26.327725 1.540403
Hg 20.129701 -23.231399 1.540403
Hg 17.033375 -23.231399 4.636729
Hg 17.033375 -26.327725 7.733055
Hg 20.129701 -23.231399 7.733055
Hg 17.033375 -23.231399 10.829381
Hg 17.033375 -17.038747 -20.133879
Hg 17.033375 -20.135073 -17.037553
Hg 20.129701 -17.038747 -17.037553
Hg 17.033375 -17.038747 -13.941227
Hg 17.033375 -20.135073 -10.844901
Hg 20.129701 -17.038747 -10.844901
Hg 20.129701 -20.135073 -7.748575
Hg 17.033375 -17.038747 -7.748575
Hg 17.033375 -20.135073 -4.652249
Hg 20.129701 -17.038747 -4.652249
Hg 20.129701 -20.135073 -1.555923
Hg 17.033375 -17.038747 -1.555923
Hg 17.033375 -20.135073 1.540403
Hg 20.129701 -17.038747 1.540403
Hg 20.129701 -20.135073 4.636729
Hg 17.033375 -17.038747 4.636729
Hg 17.033375 -20.135073 7.733055
Hg 20.129701 -17.038747 7.733055
Hg 20.129701 -20.135073 10.829381
Hg 17.033375 -17.038747 10.829381
Hg 17.033375 -20.135073 13.925707
Hg 20.129701 -17.038747 13.925707
Hg 17.033375 -17.038747 17.022033
Hg 17.033375 -10.846095 -26.326531
Hg 17.033375 -13.942421 -23.230205
Hg 20.129701 -10.846095 -23.230205
Hg 17.033375 -10.846095 -20.133879
Hg 17.033375 -13.942421 -17.037553
Hg 20.129701 -10.846095 -17.037553
Hg 20.129701 -13.942421 -13.941227
Hg 17.033375 -10.846095 -13.941227
Hg 17.033375 -13.942421 -10.844901
Hg 20.129701 -10.846095 -10.844901
Hg 20.129701 -13.942421 -7.748575
Hg 17.033375 -10.846095 -7.748575
Hg 17.033375 -13.942421 -4.652249
Hg 20.129701 -10.846095 -4.652249
Hg 20.129701 -13.942421 -1.555923
Hg 17.033375 -10.846095 -1.555923
Hg 17.033375 -13.942421 1.540403
Hg 20.129701 -10.846095 1.540403
Hg 20.129701 -13.942421 4.636729
Hg 17.033375 -10.846095 4.636729
Hg 17.033375 -13.942421 7.733055
Hg 20.129701 -10.846095 7.733055
Hg 20.129701 -13.942421 10.829381
Hg 17.033375 -10.846095 10.829381
Hg 17.033375 -13.942421 13.925707
Hg 20.129701 -10.846095 13.925707
Hg 20.129701 -13.942421 17.022033
Hg 17.033375 -10.846095 17.022033
Hg 17.033375 -13.942421 20.118359
Hg 20.129701 -10.846095 20.118359
Hg 17.033375 -4.653443 -26.326531
Hg 17.033375 -7.749769 -23.230205
Hg 20.129701 -4.653443 -23.230205
Hg 20.129701 -7.749769 -20.133879
Hg 17.033375 -4.653443 -20.133879
Hg 17.033375 -7.749769 -17.037553
Hg 20.129701 -4.653443 -17.037553
Hg 20.129701 -7.749769 -13.941227
Hg 17.033375 -4.653443 -13.941227
Hg 17.033375 -7.749769 -10.844901
Hg 20.129701 -4.653443 -10.844901
Hg 20.129701 -7.749769 -7.748575
Hg 17.033375 -4.653443 -7.748575
Hg 17.033375 -7.749769 -4.652249
Hg 20.129701 -4.653443 -4.652249
Hg 20.129701 -7.749769 -1.555923
Hg 17.033375 -4.653443 -1.555923
Hg 17.033375 -7.749769 1.540403
Hg 20.129701 -4.653443 1.540403
Hg 20.129701 -7.749769 4.636729
Hg 17.033375 -4.653443 4.636729
Hg 17.033375 -7.749769 7.733055
Hg 20.129701 -4.653443 7.733055
Hg 20.129701 -7.749769 10.829381
Hg 17.033375 -4.653443 10.829381
Hg 17.033375 -7.749769 13.925707
Hg 20.129701 -4.653443 13.925707
Hg 20.129701 -7.749769 17.022033
Hg 17.033375 -4.653443 17.022033
Hg 17.033375 -7.749769 20.118359
Hg 20.129701 -4.653443 20.118359
Hg 20.129701 -7.749769 23.214685
Hg 17.033375 -4.653443 23.214685
Hg 17.033375 -7.749769 26.311011
Hg 17.033375 1.539209 -26.326531
Hg 17.033375 -1.557117 -23.230205
Hg 20.129701 1.539209 -23.230205
Hg 20.129701 -1.557117 -20.133879
Hg 17.033375 1.539209 -20.133879
Hg 17.033375 -1.557117 -17.037553
Hg 20.129701 1.539209 -17.037553
Hg 20.129701 -1.557117 -13.941227
Hg 17.033375 1.539209 -13.941227
Hg 17.033375 -1.557117 -10.844901
Hg 20.129701 1.539209 -10.844901
Hg 20.129701 -1.557117 -7.748575
Hg 17.033375 1.539209 -7.748575
Hg 17.033375 -1.557117 -4.652249
Hg 20.129701 1.539209 -4.652249
Hg 20.129701 -1.557117 -1.555923
Hg 17.033375 1.539209 -1.555923
Hg 17.033375 -1.557117 1.540403
Hg 20.129701 1.539209 1.540403
Hg 20.129701 -1.557117 4.636729
Hg 17.033375 1.539209 4.636729
Hg 17.033375 -1.557117 7.733055
Hg 20.129701 1.539209 7.733055
Hg 20.129701 -1.557117 10.829381
Hg 17.033375 1.539209 10.829381
Hg 17.033375 -1.557117 13.925707
Hg 20.129701 1.539209 13.925707
Hg 20.129701 -1.557117 17.022033
Hg 17.033375 1.539209 17.022033
Hg 17.033375 -1.557117 20.118359
Hg 20.129701 1.539209 20.118359
Hg 20.129701 -1.557117 23.214685
Hg 17.033375 1.539209 23.214685
Hg 17.033375 -1.557117 26.311011
Hg 17.033375 7.731861 -26.326531
Hg 17.033375 4.635535 -23.230205
Hg 20.129701 7.731861 -23.230205
Hg 20.129701 4.635535 -20.133879
Hg 17.033375 7.731861 -20.133879
Hg 17.033375 4.635535 -17.037553
Hg 20.129701 7.731861 -17.037553
Hg 20.129701 4.635535 -13.941227
Hg 17.033375 7.731861 -13.941227
Hg 17.033375 4.635535 -10.844901
Hg 20.129701 7.731861 -10.844901
Hg 20.129701 4.635535 -7.748575
Hg 17.033375 7.731861 -7.748575
Hg 17.033375 4.635535 -4.652249
Hg 20.129701 7.731861 -4.652249
Hg 20.129701 4.635535 -1.555923
Hg 17.033375 7.731861 -1.555923
Hg 17.033375 4.635535 1.540403
Hg 20.129701 7.731861 1.540403
Hg 20.129701 4.635535 4.636729
Hg 17.033375 7.731861 4.636729
Hg 17.033375 4.635535 7.733055
Hg 20.129701 7.731861 7.733055
Hg 20.129701 4.635535 10.829381
Hg 17.033375 7.731861 10.829381
Hg 17.033375 4.635535 13.925707
Hg 20.129701 7.731861 13.925707
Hg 20.129701 4.635535 17.022033
Hg 17.033375 7.731861 17.022033
Hg 17.033375 4.635535 20.118359
Hg 20.129701 7.731861 20.118359
Hg 20.129701 4.635535 23.214685
Hg 17.033375 7.731861 23.214685
Hg 17.033375 4.635535 26.311011
Hg 17.033375 10.828187 -23.230205
Hg 20.129701 10.828187 -20.133879
Hg 17.033375 13.924513 -20.133879
Hg 17.033375 10.828187 -17.037553
Hg 20.129701 13.924513 -17.037553
Hg 20.129701 10.828187 -13.941227
Hg 17.033375 13.924513 -13.941227
Hg 17.033375 10.828187 -10.844901
Hg 20.129701 13.924513 -10.844901
Hg 20.129701 10.828187 -7.748575
Hg 17.033375 13.924513 -7.748575
Hg 17.033375 10.828187 -4.652249
Hg 20.129701 13.924513 -4.652249
Hg 20.129701 10.828187 -1.555923
Hg 17.033375 13.924513 -1.555923
Hg 17.033375 10.828187 1.540403
Hg 20.129701 13.924513 1.540403
Hg 20.129701 10.828187 4.636729
Hg 17.033375 13.924513 4.636729
Hg 17.033375 10.828187 7.733055
Hg 20.129701 13.924513 7.733055
Hg 20.129701 10.828187 10.829381
Hg 17.033375 13.924513 10.829381
Hg 17.033375 10.828187 13.925707
Hg 20.129701 13.924513 13.925707
Hg 20.129701 10.828187 17.022033
Hg 17.033375 13.924513 17.022033
Hg 17.033375 10.828187 20.118359
Hg 20.129701 10.828187 23.214685
Hg 17.033375 13.924513 23.214685
Hg 17.033375 10.828187 26.311011
Hg 17.033375 17.020839 -17.037553
Hg 20.129701 17.020839 -13.941227
Hg 17.033375 20.117165 -13.941227
Hg 17.033375 17.020839 -10.844901
Hg 20.129701 20.117165 -10.844901
Hg 20.129701 17.020839 -7.748575
Hg 17.033375 20.117165 -7.748575
Hg 17.033375 17.020839 -4.652249
Hg 20.129701 20.117165 -4.652249
Hg 20.129701 17.020839 -1.555923
Hg 17.033375 20.117165 -1.555923
Hg 17.033375 17.020839 1.540403
Hg 20.129701 20.117165 1.540403
Hg 20.129701 17.020839 4.636729
Hg 17.033375 20.117165 4.636729
Hg 17.033375 17.020839 7.733055
Hg 20.129701 20.117165 7.733055
Hg 20.129701 17.020839 10.829381
Hg 17.033375 20.117165 10.829381
Hg 17.033375 17.020839 13.925707
Hg 20.129701 17.020839 17.022033
Hg 17.033375 20.117165 17.022033
Hg 17.033375 17.020839 20.118359
Hg 20.129701 23.213491 -7.748575
Hg 17.033375 26.309817 -7.748575
Hg 17.033375 23.213491 -4.652249
Hg 20.129701 23.213491 -1.555923
Hg 17.033375 26.309817 -1.555923
Hg 17.033375 23.213491 1.540403
Hg 20.129701 23.213491 4.636729
Hg 17.033375 26.309817 4.636729
Hg 17.033375 23.213491 7.733055
Hg 20.129701 23.213491 10.829381
Hg 17.033375 26.309817 10.829381
Hg 17.033375 23.213491 13.925707
Hg 23.226027 -17.038747 -13.941227
Hg 23.226027 -20.135073 -10.844901
Hg 26.322353 -17.038747 -10.844901
Hg 23.226027 -17.038747 -7.748575
Hg 23.226027 -20.135073 -4.652249
Hg 26.322353 -17.038747 -4.652249
Hg 23.226027 -17.038747 -1.555923
Hg 23.226027 -20.135073 1.540403
Hg 26.322353 -17.038747 1.540403
Hg 23.226027 -17.038747 4.636729
Hg 23.226027 -20.135073 7.733055
Hg 26.322353 -17.038747 7.733055
Hg 23.226027 -10.846095 -20.133879
Hg 23.226027 -13.942421 -17.037553
Hg 26.322353 -10.846095 -17.037553
Hg 23.226027 -10.846095 -13.941227
Hg 23.226027 -13.942421 -10.844901
Hg 26.322353 -10.846095 -10.844901
Hg 26.322353 -13.942421 -7.748575
Hg 23.226027 -10.846095 -7.748575
Hg 23.226027 -13.942421 -4.652249
Hg 26.322353 -10.846095 -4.652249
Hg 26.322353 -13.942421 -1.555923
Hg 23.226027 -10.846095 -1.555923
Hg 23.226027 -13.942421 1.540403
Hg 26.322353 -10.846095 1.540403
Hg 26.322353 -13.942421 4.636729
Hg 23.226027 -10.846095 4.636729
Hg 23.226027 -13.942421 7.733055
Hg 26.322353 -10.846095 7.733055
Hg 26.322353 -13.942421 10.829381
Hg 23.226027 -10.846095 10.829381
Hg 23.226027 -13.942421 13.925707
Hg 23.226027 -10.846095 17.022033
Hg 23.226027 -4.653443 -20.133879
Hg 23.226027 -7.749769 -17.037553
Hg 26.322353 -4.653443 -17.037553
Hg 26.322353 -7.749769 -13.941227
Hg 23.226027 -4.653443 -13.941227
Hg 23.226027 -7.749769 -10.844901
Hg 26.322353 -4.653443 -10.844901
Hg 26.322353 -7.749769 -7.748575
Hg 23.226027 -4.653443 -7.748575
Hg 23.226027 -7.749769 -4.652249
Hg 26.322353 -4.653443 -4.652249
Hg 26.322353 -7.749769 -1.555923
Hg 23.226027 -4.653443 -1.555923
Hg 23.226027 -7.749769 1.540403
Hg 26.322353 -4.653443 1.540403
Hg 26.322353 -7.749769 4.636729
Hg 23.226027 -4.653443 4.636729
Hg 23.226027 -7.749769 7.733055
Hg 26.322353 -4.653443 7.733055
Hg 26.322353 -7.749769 10.829381
Hg 23.226027 -4.653443 10.829381
Hg 23.226027 -7.749769 13.925707
Hg 26.322353 -4.653443 13.925707
Hg 26.322353 -7.749769 17.022033
Hg 23.226027 -4.653443 17.022033
Hg 23.226027 -7.749769 20.118359
Hg 23.226027 1.539209 -20.133879
Hg 23.226027 -1.557117 -17.037553
Hg 26.322353 1.539209 -17.037553
Hg 26.322353 -1.557117 -13.941227
Hg 23.226027 1.539209 -13.941227
Hg 23.226027 -1.557117 -10.844901
Hg 26.322353 1.539209 -10.844901
Hg 26.322353 -1.557117 -7.748575
Hg 23.226027 1.539209 -7.748575
Hg 23.226027 -1.557117 -4.652249
Hg 26.322353 1.539209 -4.652249
Hg 26.322353 -1.557117 -1.555923
Hg 23.226027 1.539209 -1.555923
Hg 23.226027 -1.557117 1.540403
Hg 26.322353 1.539209 1.540403
Hg 26.322353 -1.557117 4.636729
Hg 23.226027 1.539209 4.636729
Hg 23.226027 -1.557117 7.733055
Hg 26.322353 1.539209 7.733055
Hg 26.322353 -1.557117 10.829381
Hg 23.226027 1.539209 10.829381
Hg 23.226027 -1.557117 13.925707
Hg 26.322353 1.539209 13.925707
Hg 26.322353 -1.557117 17.022033
Hg 23.226027 1.539209 17.022033
Hg 23.226027 -1.557117 20.118359
Hg 23.226027 7.731861 -20.133879
Hg 23.226027 4.635535 -17.037553
Hg 26.322353 7.731861 -17.037553
Hg 26.322353 4.635535 -13.941227
Hg 23.226027 7.731861 -13.941227
Hg 23.226027 4.635535 -10.844901
Hg 26.322353 7.731861 -10.844901
Hg 26.322353 4.635535 -7.748575
Hg 23.226027 7.731861 -7.748575
Hg 23.226027 4.635535 -4.652249
Hg 26.322353 7.731861 -4.652249
Hg 26.322353 4.635535 -1.555923
Hg 23.226027 7.731861 -1.555923
Hg 23.226027 4.635535 1.540403
Hg 26.322353 7.731861 1.540403
Hg 26.322353 4.635535 4.636729
Hg 23.226027 7.731861 4.636729
Hg 23.226027 4.635535 7.733055
Hg 26.322353 7.731861 7.733055
Hg 26.322353 4.635535 10.829381
Hg 23.226027 7.731861 10.829381
Hg 23.226027 4.635535 13.925707
Hg 26.322353 7.731861 13.925707
Hg 26.322353 4.635535 17.022033
Hg 23.226027 7.731861 17.022033
Hg 23.226027 4.635535 20.118359
Hg 26.322353 10.828187 -13.941227
Hg 23.226027 13.924513 -13.941227
Hg 23.226027 10.828187 -10.844901
Hg 26.322353 10.828187 -7.748575
Hg 23.226027 13.924513 -7.748575
Hg 23.226027 10.828187 -4.652249
Hg 26.322353 13.924513 -4.652249
Hg 26.322353 10.828187 -1.555923
Hg 23.226027 13.924513 -1.555923
Hg 23.226027 10.828187 1.540403
Hg 26.322353 13.924513 1.540403
Hg 26.322353 10.828187 4.636729
Hg 23.226027 13.924513 4.636729
Hg 23.226027 10.828187 7.733055
Hg 26.322353 13.924513 7.733055
Hg 26.322353 10.828187 10.829381
Hg 23.226027 13.924513 10.829381
Hg 23.226027 10.828187 13.925707
Hg 26.322353 10.828187 17.022033
Hg 23.226027 13.924513 17.022033
Hg 23.226027 10.828187 20.118359
Hg 23.226027 17.020839 -10.844901
Hg 26.322353 17.020839 -7.748575
Hg 23.226027 20.117165 -7.748575
Hg 23.226027 17.020839 -4.652249
Hg 26.322353 17.020839 -1.555923
Hg 23.226027 20.117165 -1.555923
Hg 23.226027 17.020839 1.540403
Hg 26.322353 17.020839 4.636729
Hg 23.226027 20.117165 4.636729
Hg 23.226027 17.020839 7.733055
Hg 26.322353 17.020839 10.829381
Hg 23.226027 20.117165 10.829381
Hg 23.226027 17.020839 13.925707
Hg 29.418679 -10.846095 -13.941227
Hg 29.418679 -13.942421 -10.844901
Hg 29.418679 -10.846095 -7.748575
Hg 29.418679 -13.942421 -4.652249
Hg 29.418679 -10.846095 -1.555923
Hg 29.418679 -13.942421 1.540403
Hg 29.418679 -10.846095 4.636729
Hg 29.418679 -13.942421 7.733055
Hg 29.418679 -10.846095 10.829381
Hg 29.418679 -4.653443 -13.941227
Hg 29.418679 -7.749769 -10.844901
Hg 29.418679 -4.653443 -7.748575
Hg 29.418679 -7.749769 -4.652249
Hg 29.418679 -4.653443 -1.555923
Hg 29.418679 -7.749769 1.540403
Hg 29.418679 -4.653443 4.636729
Hg 29.418679 -7.749769 7.733055
Hg 29.418679 -4.653443 10.829381
Hg 29.418679 -7.749769 13.925707
Hg 29.418679 1.539209 -13.941227
Hg 29.418679 -1.557117 -10.844901
Hg 29.418679 1.539209 -7.748575
Hg 29.418679 -1.557117 -4.652249
Hg 29.418679 1.539209 -1.555923
Hg 29.418679 -1.557117 1.540403
Hg 29.418679 1.539209 4.636729
Hg 29.418679 -1.557117 7.733055
Hg 29.418679 1.539209 10.829381
Hg 29.418679 -1.557117 13.925707
Hg 29.418679 7.731861 -13.941227
Hg 29.418679 4.635535 -10.844901
Hg 29.418679 7.731861 -7.748575
Hg 29.418679 4.635535 -4.652249
Hg 29.418679 7.731861 -1.555923
Hg 29.418679 4.635535 1.540403
Hg 29.418679 7.731861 4.636729
Hg 29.418679 4.635535 7.733055
Hg 29.418679 7.731861 10.829381
Hg 29.418679 4.635535 13.925707
Hg 29.418679 10.828187 -10.844901
Hg 29.418679 13.924513 -7.748575
Hg 29.418679 10.828187 -4.652249
Hg 29.418679 13.924513 -1.555923
Hg 29.418679 10.828187 1.540403
Hg 29.418679 13.924513 4.636729
Hg 29.418679 10.828187 7.733055
Hg 29.418679 13.924513 10.829381
Hg 29.418679 10.828187 13.925707
Se -27.863352 -15.490584 -6.200412
Se -27.863352 -15.490584 -0.007760
Se -27.863352 -15.490584 6.184892
Se -27.863352 -9.297932 -12.393064
Se -27.863352 -9.297932 -6.200412
Se -27.863352 -12.394258 -9.296738
Se -27.863352 -9.297932 -0.007760
Se -27.863352 -12.394258 -3.104086
Se -27.863352 -9.297932 6.184892
Se -27.863352 -12.394258 3.088566
Se -27.863352 -9.297932 12.377544
Se -27.863352 -12.394258 9.281218
Se -27.863352 -3.105280 -12.393064
Se -27.863352 -6.201606 -15.489390
Se -27.863352 -3.105280 -6.200412
Se -27.863352 -6.201606 -9.296738
Se -27.863352 -3.105280 -0.007760
Se -27.863352 -6.201606 -3.104086
Se -27.863352 -3.105280 6.184892
Se -27.863352 -6.201606 3.088566
Se -27.863352 -3.105280 12.377544
Se -27.863352 -6.201606 9.281218
Se -27.863352 -6.201606 15.473870
Se -27.863352 3.087372 -12.393064
Se -27.863352 -0.008954 -15.489390
Se -27.863352 3.087372 -6.200412
Se -27.863352 -0.008954 -9.296738
Se -27.863352 3.087372 -0.007760
Se -27.863352 -0.008954 -3.104086
Se -27.863352 3.087372 6.184892
Se -27.863352 -0.008954 3.088566
Se -27.863352 3.087372 12.377544
Se -27.863352 -0.008954 9.281218
Se -27.863352 -0.008954 15.473870
Se -27.863352 9.280024 -12.393064
Se -27.863352 6.183698 -15.489390
Se -27.863352 9.280024 -6.200412
Se -27.863352 6.183698 -9.296738
Se -27.863352 9.280024 -0.007760
Se -27.863352 6.183698 -3.104086
Se -27.863352 9.280024 6.184892
Se -27.863352 6.183698 3.088566
Se -27.863352 9.280024 12.377544
Se -27.863352 6.183698 9.281218
Se -27.863352 6.183698 15.473870
Se -27.863352 15.472676 -6.200412
Se -27.863352 12.376350 -9.296738
Se -27.863352 15.472676 -0.007760
Se -27.863352 12.376350 -3.104086
Se -27.863352 15.472676 6.184892
Se -27.863352 12.376350 3.088566
Se -27.863352 12.376350 9.281218
Se -21.670700 -21.683236 -6.200412
Se -21.670700 -21.683236 -0.007760
Se -21.670700 -21.683236 6.184892
Se -21.670700 -15.490584 -12.393064
Se -24.767026 -18.586910 -6.200412
Se -24.767026 -15.490584 -9.296738
Se -21.670700 -15.490584 -6.200412
Se -21.670700 -18.586910 -9.296738
Se -24.767026 -18.586910 -0.007760
Se -24.767026 -15.490584 -3.104086
Se -21.670700 -15.490584 -0.007760
Se -21.670700 -18.586910 -3.104086
Se -24.767026 -18.586910 6.184892
Se -24.767026 -15.490584 3.088566
Se -21.670700 -15.490584 6.184892
Se -21.670700 -18.586910 3.088566
Se -24.767026 -18.586910 12.377544
Se -24.767026 -15.490584 9.281218
Se -21.670700 -15.490584 12.377544
Se -21.670700 -18.586910 9.281218
Se -21.670700 -9.297932 -18.585716
Se -24.767026 -12.394258 -12.393064
Se -24.767026 -9.297932 -15.489390
Se -21.670700 -9.297932 -12.393064
Se -21.670700 -12.394258 -15.489390
Se -24.767026 -12.394258 -6.200412
Se -24.767026 -9.297932 -9.296738
Se -21.670700 -9.297932 -6.200412
Se -21.670700 -12.394258 -9.296738
Se -24.767026 -12.394258 -0.007760
Se -24.767026 -9.297932 -3.104086
Se -21.670700 -9.297932 -0.007760
Se -21.670700 -12.394258 -3.104086
Se -24.767026 -12.394258 6.184892
Se -24.767026 -9.297932 3.088566
Se -21.670700 -9.297932 6.184892
Se -21.670700 -12.394258 3.088566
Se -24.767026 -12.394258 12.377544
Se -24.767026 -9.297932 9.281218
Se -21.670700 -9.297932 12.377544
Se -21.670700 -12.394258 9.281218
Se -24.767026 -12.394258 18.570196
Se -24.767026 -9.297932 15.473870
Se -21.670700 -9.297932 18.570196
Se -21.670700 -12.394258 15.473870
Se -24.767026 -6.201606 -18.585716
Se -21.670700 -3.105280 -18.585716
Se -21.670700 -6.201606 -21.682042
Se -24.767026 -6.201606 -12.393064
Se -24.767026 -3.105280 -15.489390
Se -21.670700 -3.105280 -12.393064
Se -21.670700 -6.201606 -15.489390
Se -24.767026 -6.201606 -6.200412
Se -24.767026 -3.105280 -9.296738
Se -21.670700 -3.105280 -6.200412
Se -21.670700 -6.201606 -9.296738
Se -24.767026 -6.201606 -0.007760
Se -24.767026 -3.105280 -3.104086
Se -21.670700 -3.105280 -0.007760
Se -21.670700 -6.201606 -3.104086
Se -24.767026 -6.201606 6.184892
Se -24.767026 -3.105280 3.088566
Se -21.670700 -3.105280 6.184892
Se -21.670700 -6.201606 3.088566
Se -24.767026 -6.201606 12.377544
Se -24.767026 -3.105280 9.281218
Se -21.670700 -3.105280 12.377544
Se -21.670700 -6.201606 9.281218
Se -24.767026 -6.201606 18.570196
Se -24.767026 -3.105280 15.473870
Se -21.670700 -3.105280 18.570196
Se -21.670700 -6.201606 15.473870
Se -21.670700 -6.201606 21.666522
Se -24.767026 -0.008954 -18.585716
Se -21.670700 3.087372 -18.585716
Se -21.670700 -0.008954 -21.682042
Se -24.767026 -0.008954 -12.393064
Se -24.767026 3.087372 -15.489390
Se -21.670700 3.087372 -12.393064
Se -21.670700 -0.008954 -15.489390
Se -24.767026 -0.008954 -6.200412
Se -24.767026 3.087372 -9.296738
Se -21.670700 3.087372 -6.200412
Se -21.670700 -0.008954 -9.296738
Se -24.767026 -0.008954 -0.007760
Se -24.767026 3.087372 -3.104086
Se -21.670700 3.087372 -0.007760
Se -21.670700 -0.008954 -3.104086
Se -24.767026 -0.008954 6.184892
Se -24.767026 3.087372 3.088566
Se -21.670700 3.087372 6.184892
Se -21.670700 -0.008954 3.088566
Se -24.767026 -0.008954 12.377544
Se -24.767026 3.087372 9.281218
Se -21.670700 3.087372 12.377544
Se -21.670700 -0.008954 9.281218
Se -24.767026 -0.008954 18.570196
Se -24.767026 3.087372 15.473870
Se -21.670700 3.087372 18.570196
Se -21.670700 -0.008954 15.473870
Se -21.670700 -0.008954 21.666522
Se -24.767026 6.183698 -18.585716
Se -21.670700 9.280024 -18.585716
Se -21.670700 6.183698 -21.682042
Se -24.767026 6.183698 -12.393064
Se -24.767026 9.280024 -15.489390
Se -21.670700 9.280024 -12.393064
Se -21.670700 6.183698 -15.489390
Se -24.767026 6.183698 -6.200412
Se -24.767026 9.280024 -9.296738
Se -21.670700 9.280024 -6.200412
Se -21.670700 6.183698 -9.296738
Se -24.767026 6.183698 -0.007760
Se -24.767026 9.280024 -3.104086
Se -21.670700 9.280024 -0.007760
Se -21.670700 6.183698 -3.104086
Se -24.767026 6.183698 6.184892
Se -24.767026 9.280024 3.088566
Se -21.670700 9.280024 6.184892
Se -21.670700 6.183698 3.088566
Se -24.767026 6.183698 12.377544
Se -24.767026 9.280024 9.281218
Se -21.670700 9.280024 12.377544
Se -21.670700 6.183698 9.281218
Se -24.767026 6.183698 18.570196
Se -24.767026 9.280024 15.473870
Se -21.670700 9.280024 18.570196
Se -21.670700 6.183698 15.473870
Se -21.670700 6.183698 21.666522
Se -24.767026 12.376350 -18.585716
Se -24.767026 12.376350 -12.393064
Se -21.670700 15.472676 -12.393064
Se -21.670700 12.376350 -15.489390
Se -24.767026 12.376350 -6.200412
Se -24.767026 15.472676 -9.296738
Se -21.670700 15.472676 -6.200412
Se -21.670700 12.376350 -9.296738
Se -24.767026 12.376350 -0.007760
Se -24.767026 15.472676 -3.104086
Se -21.670700 15.472676 -0.007760
Se -21.670700 12.376350 -3.104086
Se -24.767026 12.376350 6.184892
Se -24.767026 15.472676 3.088566
Se -21.670700 15.472676 6.184892
Se -21.670700 12.376350 3.088566
Se -24.767026 12.376350 12.377544
Se -24.767026 15.472676 9.281218
Se -21.670700 15.472676 12.377544
Se -21.670700 12.376350 9.281218
Se -21.670700 12.376350 15.473870
Se -24.767026 18.569002 -12.393064
Se -24.767026 18.569002 -6.200412
Se -21.670700 21.665328 -6.200412
Se -21.670700 18.569002 -9.296738
Se -24.767026 18.569002 -0.007760
Se -21.670700 21.665328 -0.007760
Se -21.670700 18.569002 -3.104086
Se -24.767026 18.569002 6.184892
Se -21.670700 21.665328 6.184892
Se -21.670700 18.569002 3.088566
Se -21.670700 18.569002 9.281218
Se -15.478048 -27.875888 -6.200412
Se -15.478048 -27.875888 -0.007760
Se -15.478048 -27.875888 6.184892
Se -15.478048 -21.683236 -12.393064
Se -18.574374 -24.779562 -6.200412
Se -18.574374 -21.683236 -9.296738
Se -15.478048 -21.683236 -6.200412
Se -15.478048 -24.779562 -9.296738
Se -18.574374 -24.779562 -0.007760
Se -18.574374 -21.683236 -3.104086
Se -15.478048 -21.683236 -0.007760
Se -15.478048 -24.779562 -3.104086
Se -18.574374 -24.779562 6.184892
Se -18.574374 -21.683236 3.088566
Se -15.478048 -21.683236 6.184892
Se -15.478048 -24.779562 3.088566
Se -18.574374 -24.779562 12.377544
Se -18.574374 -21.683236 9.281218
Se -15.478048 -21.683236 12.377544
Se -15.478048 -24.779562 9.281218
Se -15.478048 -15.490584 -18.585716
Se -18.574374 -18.586910 -12.393064
Se -18.574374 -15.490584 -15.489390
Se -15.478048 -15.490584 -12.393064
Se -15.478048 -18.586910 -15.489390
Se -18.574374 -18.586910 -6.200412
Se -18.574374 -15.490584 -9.296738
Se -15.478048 -15.490584 -6.200412
Se -15.478048 -18.586910 -9.296738
Se -18.574374 -18.586910 -0.007760
Se -18.574374 -15.490584 -3.104086
Se -15.478048 -15.490584 -0.007760
Se -15.478048 -18.586910 -3.104086
Se -18.574374 -18.586910 6.184892
Se -18.574374 -15.490584 3.088566
Se -15.478048 -15.490584 6.184892
Se -15.478048 -18.586910 3.088566
Se -18.574374 -18.586910 12.377544
Se -18.574374 -15.490584 9.281218
Se -15.478048 -15.490584 12.377544
Se -15.478048 -18.586910 9.281218
Se -18.574374 -18.586910 18.570196
Se -18.574374 -15.490584 15.473870
Se -15.478048 -15.490584 18.570196
Se -15.478048 -18.586910 15.473870
Se -15.478048 -9.297932 -24.778368
Se -18.574374 -12.394258 -18.585716
Se -18.574374 -9.297932 -21.682042
Se -15.478048 -9.297932 -18.585716
Se -15.478048 -12.394258 -21.682042
Se -18.574374 -12.394258 -12.393064
Se -18.574374 -9.297932 -15.489390
Se -15.478048 -9.297932 -12.393064
Se -15.478048 -12.394258 -15.489390
Se -18.574374 -12.394258 -6.200412
Se -18.574374 -9.297932 -9.296738
Se -15.478048 -9.297932 -6.200412
Se -15.478048 -12.394258 -9.296738
Se -18.574374 -12.394258 -0.007760
Se -18.574374 -9.297932 -3.104086
Se -15.478048 -9.297932 -0.007760
Se -15.478048 -12.394258 -3.104086
Se -18.574374 -12.394258 6.184892
Se -18.574374 -9.297932 3.088566
Se -15.478048 -9.297932 6.184892
Se -15.478048 -12.394258 3.088566
Se -18.574374 -12.394258 12.377544
Se -18.574374 -9.297932 9.281218
Se -15.478048 -9.297932 12.377544
Se -15.478048 -12.394258 9.281218
Se -18.574374 -12.394258 18.570196
Se -18.574374 -9.297932 15.473870
Se -15.478048 -9.297932 18.570196
Se -15.478048 -12.394258 15.473870
Se -18.574374 -12.394258 24.762848
Se -18.574374 -9.297932 21.666522
Se -15.478048 -9.297932 24.762848
Se -15.478048 -12.394258 21.666522
Se -18.574374 -6.201606 -24.778368
Se -15.478048 -3.105280 -24.778368
Se -15.478048 -6.201606 -27.874694
Se -18.574374 -6.201606 -18.585716
Se -18.574374 -3.105280 -21.682042
Se -15.478048 -3.105280 -18.585716
Se -15.478048 -6.201606 -21.682042
Se -18.574374 -6.201606 -12.393064
Se -18.574374 -3.105280 -15.489390
Se -15.478048 -3.105280 -12.393064
Se -15.478048 -6.201606 -15.489390
Se -18.574374 -6.201606 -6.200412
Se -18.574374 -3.105280 -9.296738
Se -15.478048 -3.105280 -6.200412
Se -15.478048 -6.201606 -9.296738
Se -18.574374 -6.201606 -0.007760
Se -18.574374 -3.105280 -3.104086
Se -15.478048 -3.105280 -0.007760
Se -15.478048 -6.201606 -3.104086
Se -18.574374 -6.201606 6.184892
Se -18.574374 -3.105280 3.088566
Se -15.478048 -3.105280 6.184892
Se -15.478048 -6.201606 3.088566
Se -18.574374 -6.201606 12.377544
Se -18.574374 -3.105280 9.281218
Se -15.478048 -3.105280 12.377544
Se -15.478048 -6.201606 9.281218
Se -18.574374 -6.201606 18.570196
Se -18.574374 -3.105280 15.473870
Se -15.478048 -3.105280 18.570196
Se -15.478048 -6.201606 15.473870
Se -18.574374 -6.201606 24.762848
Se -18.574374 -3.105280 21.666522
Se -15.478048 -3.105280 24.762848
Se -15.478048 -6.201606 21.666522
Se -15.478048 -6.201606 27.859174
Se -18.574374 -0.008954 -24.778368
Se -15.478048 3.087372 -24.778368
Se -15.478048 -0.008954 -27.874694
Se -18.574374 -0.008954 -18.585716
Se -18.574374 3.087372 -21.682042
Se -15.478048 3.087372 -18.585716
Se -15.478048 -0.008954 -21.682042
Se -18.574374 -0.008954 -12.393064
Se -18.574374 3.087372 -15.489390
Se -15.478048 3.087372 -12.393064
Se -15.478048 -0.008954 -15.489390
Se -18.574374 -0.008954 -6.200412
Se -18.574374 3.087372 -9.296738
Se -15.478048 3.087372 -6.200412
Se -15.478048 -0.008954 -9.296738
Se -18.574374 -0.008954 -0.007760
Se -18.574374 3.087372 -3.104086
Se -15.478048 3.087372 -0.007760
Se -15.478048 -0.008954 -3.104086
Se -18.574374 -0.008954 6.184892
Se -18.574374 3.087372 3.088566
Se -15.478048 3.087372 6.184892
Se -15.478048 -0.008954 3.088566
Se -18.574374 -0.008954 12.377544
Se -18.574374 3.087372 9.281218
Se -15.478048 3.087372 12.377544
Se -15.478048 -0.008954 9.281218
Se -18.574374 -0.008954 18.570196
Se -18.574374 3.087372 15.473870
Se -15.478048 3.087372 18.570196
Se -15.478048 -0.008954 15.473870
Se -18.574374 -0.008954 24.762848
Se -18.574374 3.087372 21.666522
Se -15.478048 3.087372 24.762848
Se -15.478048 -0.008954 21.666522
Se -15.478048 -0.008954 27.859174
Se -18.574374 6.183698 -24.778368
Se -15.478048 9.280024 -24.778368
Se -15.478048 6.183698 -27.874694
Se -18.574374 6.183698 -18.585716
Se -18.574374 9.280024 -21.682042
Se -15.478048 9.280024 -18.585716
Se -15.478048 6.183698 -21.682042
Se -18.574374 6.183698 -12.393064
Se -18.574374 9.280024 -15.489390
Se -15.478048 9.280024 -12.393064
Se -15.478048 6.183698 -15.489390
Se -18.574374 6.183698 -6.200412
Se -18.574374 9.280024 -9.296738
Se -15.478048 9.280024 -6.200412
Se -15.478048 6.183698 -9.296738
Se -18.574374 6.183698 -0.007760
Se -18.574374 9.280024 -3.104086
Se -15.478048 9.280024 -0.007760
Se -15.478048 6.183698 -3.104086
Se -18.574374 6.183698 6.184892
Se -18.574374 9.280024 3.088566
Se -15.478048 9.280024 6.184892
Se -15.478048 6.183698 3.088566
Se -18.574374 6.183698 12.377544
Se -18.574374 9.280024 9.281218
Se -15.478048 9.280024 12.377544
Se -15.478048 6.183698 9.281218
Se -18.574374 6.183698 18.570196
Se -18.574374 9.280024 15.473870
Se -15.478048 9.280024 18.570196
Se -15.478048 6.183698 15.473870
Se -18.574374 6.183698 24.762848
Se -18.574374 9.280024 21.666522
Se -15.478048 9.280024 24.762848
Se -15.478048 6.183698 21.666522
Se -15.478048 6.183698 27.859174
Se -18.574374 12.376350 -24.778368
Se -18.574374 12.376350 -18.585716
Se -15.478048 15.472676 -18.585716
Se -15.478048 12.376350 -21.682042
Se -18.574374 12.376350 -12.393064
Se -18.574374 15.472676 -15.489390
Se -15.478048 15.472676 -12.393064
Se -15.478048 12.376350 -15.489390
Se -18.574374 12.376350 -6.200412
Se -18.574374 15.472676 -9.296738
Se -15.478048 15.472676 -6.200412
Se -15.478048 12.376350 -9.296738
Se -18.574374 12.376350 -0.007760
Se -18.574374 15.472676 -3.104086
Se -15.478048 15.472676 -0.007760
Se -15.478048 12.376350 -3.104086
Se -18.574374 12.376350 6.184892
Se -18.574374 15.472676 3.088566
Se -15.478048 15.472676 6.184892
Se -15.478048 12.376350 3.088566
Se -18.574374 12.376350 12.377544
Se -18.574374 15.472676 9.281218
Se -15.478048 15.472676 12.377544
Se -15.478048 12.376350 9.281218
Se -18.574374 12.376350 18.570196
Se -18.574374 15.472676 15.473870
Se -15.478048 15.472676 18.570196
Se -15.478048 12.376350 15.473870
Se -15.478048 12.376350 21.666522
Se -18.574374 18.569002 -18.585716
Se -18.574374 18.569002 -12.393064
Se -15.478048 21.665328 -12.393064
Se -15.478048 18.569002 -15.489390
Se -18.574374 18.569002 -6.200412
Se -18.574374 21.665328 -9.296738
Se -15.478048 21.665328 -6.200412
Se -15.478048 18.569002 -9.296738
Se -18.574374 18.569002 -0.007760
Se -18.574374 21.665328 -3.104086
Se -15.478048 21.665328 -0.007760
Se -15.478048 18.569002 -3.104086
Se -18.574374 18.569002 6.184892
Se -18.574374 21.665328 3.088566
Se -15.478048 21.665328 6.184892
Se -15.478048 18.569002 3.088566
Se -18.574374 18.569002 12.377544
Se -18.574374 21.665328 9.281218
Se -15.478048 21.665328 12.377544
Se -15.478048 18.569002 9.281218
Se -15.478048 18.569002 15.473870
Se -18.574374 24.761654 -12.393064
Se -18.574374 24.761654 -6.200412
Se -15.478048 27.857980 -6.200412
Se -15.478048 24.761654 -9.296738
Se -18.574374 24.761654 -0.007760
Se -15.478048 27.857980 -0.007760
Se -15.478048 24.761654 -3.104086
Se -18.574374 24.761654 6.184892
Se -15.478048 27.857980 6.184892
Se -15.478048 24.761654 3.088566
Se -15.478048 24.761654 9.281218
Se -9.285396 -27.875888 -12.393064
Se -12.381722 -27.875888 -9.296738
Se -9.285396 -27.875888 -6.200412
Se -12.381722 -27.875888 -3.104086
Se -9.285396 -27.875888 -0.007760
Se -12.381722 -27.875888 3.088566
Se -9.285396 -27.875888 6.184892
Se -12.381722 -27.875888 9.281218
Se -9.285396 -27.875888 12.377544
Se -9.285396 -21.683236 -18.585716
Se -12.381722 -24.779562 -12.393064
Se -12.381722 -21.683236 -15.489390
Se -9.285396 -21.683236 -12.393064
Se -9.285396 -24.779562 -15.489390
Se -12.381722 -24.779562 -6.200412
Se -12.381722 -21.683236 -9.296738
Se -9.285396 -21.683236 -6.200412
Se -9.285396 -24.779562 -9.296738
Se -12.381722 -24.779562 -0.007760
Se -12.381722 -21.683236 -3.104086
Se -9.285396 -21.683236 -0.007760
Se -9.285396 -24.779562 -3.104086
Se -12.381722 -24.779562 6.184892
Se -12.381722 -21.683236 3.088566
Se -9.285396 -21.683236 6.184892
Se -9.285396 -24.779562 3.088566
Se -12.381722 -24.779562 12.377544
Se -12.381722 -21.683236 9.281218
Se -9.285396 -21.683236 12.377544
Se -9.285396 -24.779562 9.281218
Se -12.381722 -24.779562 18.570196
Se -12.381722 -21.683236 15.473870
Se -9.285396 -21.683236 18.570196
Se -9.285396 -24.779562 15.473870
Se -9.285396 -15.490584 -24.778368
Se -12.381722 -18.586910 -18.585716
Se -12.381722 -15.490584 -21.682042
Se -9.285396 -15.490584 -18.585716
Se -9.285396 -18.586910 -21.682042
Se -12.381722 -18.586910 -12.393064
Se -12.381722 -15.490584 -15.489390
Se -9.285396 -15.490584 -12.393064
Se -9.285396 -18.586910 -15.489390
Se -12.381722 -18.586910 -6.200412
Se -12.381722 -15.490584 -9.296738
Se -9.285396 -15.490584 -6.200412
Se -9.285396 -18.586910 -9.296738
Se -12.381722 -18.586910 -0.007760
Se -12.381722 -15.490584 -3.104086
Se -9.285396 -15.490584 -0.007760
Se -9.285396 -18.586910 -3.104086
Se -12.381722 -18.586910 6.184892
Se -12.381722 -15.490584 3.088566
Se -9.285396 -15.490584 6.184892
Se -9.285396 -18.586910 3.088566
Se -12.381722 -18.586910 12.377544
Se -12.381722 -15.490584 9.281218
Se -9.285396 -15.490584 12.377544
Se -9.285396 -18.586910 9.281218
Se -12.381722 -18.586910 18.570196
Se -12.381722 -15.490584 15.473870
Se -9.285396 -15.490584 18.570196
Se -9.285396 -18.586910 15.473870
Se -12.381722 -18.586910 24.762848
Se -12.381722 -15.490584 21.666522
Se -9.285396 -15.490584 24.762848
Se -9.285396 -18.586910 21.666522
Se -12.381722 -12.394258 -24.778368
Se -12.381722 -9.297932 -27.874694
Se -9.285396 -9.297932 -24.778368
Se -9.285396 -12.394258 -27.874694
Se -12.381722 -12.394258 -18.585716
Se -12.381722 -9.297932 -21.682042
Se -9.285396 -9.297932 -18.585716
Se -9.285396 -12.394258 -21.682042
Se -12.381722 -12.394258 -12.393064
Se -12.381722 -9.297932 -15.489390
Se -9.285396 -9.297932 -12.393064
Se -9.285396 -12.394258 -15.489390
Se -12.381722 -12.394258 -6.200412
Se -12.381722 -9.297932 -9.296738
Se -9.285396 -9.297932 -6.200412
Se -9.285396 -12.394258 -9.296738
Se -12.381722 -12.394258 -0.007760
Se -12.381722 -9.297932 -3.104086
Se -9.285396 -9.297932 -0.007760
Se -9.285396 -12.394258 -3.104086
Se -12.381722 -12.394258 6.184892
Se -12.381722 -9.297932 3.088566
Se -9.285396 -9.297932 6.184892
Se -9.285396 -12.394258 3.088566
Se -12.381722 -12.394258 12.377544
Se -12.381722 -9.297932 9.281218
Se -9.285396 -9.297932 12.377544
Se -9.285396 -12.394258 9.281218
Se -12.381722 -12.394258 18.570196
Se -12.381722 -9.297932 15.473870
Se -9.285396 -9.297932 18.570196
Se -9.285396 -12.394258 15.473870
Se -12.381722 -12.394258 24.762848
Se -12.381722 -9.297932 21.666522
Se -9.285396 -9.297932 24.762848
Se -9.285396 -12.394258 21.666522
Se -12.381722 -9.297932 27.859174
Se -9.285396 -12.394258 27.859174
Se -12.381722 -6.201606 -24.778368
Se -12.381722 -3.105280 -27.874694
Se -9.285396 -3.105280 -24.778368
Se -9.285396 -6.201606 -27.874694
Se -12.381722 -6.201606 -18.585716
Se -12.381722 -3.105280 -21.682042
Se -9.285396 -3.105280 -18.585716
Se -9.285396 -6.201606 -21.682042
Se -12.381722 -6.201606 -12.393064
Se -12.381722 -3.105280 -15.489390
Se -9.285396 -3.105280 -12.393064
Se -9.285396 -6.201606 -15.489390
Se -12.381722 -6.201606 -6.200412
Se -12.381722 -3.105280 -9.296738
Se -9.285396 -3.105280 -6.200412
Se -9.285396 -6.201606 -9.296738
Se -12.381722 -6.201606 -0.007760
Se -12.381722 -3.105280 -3.104086
Se -9.285396 -3.105280 -0.007760
Se -9.285396 -6.201606 -3.104086
Se -12.381722 -6.201606 6.184892
Se -12.381722 -3.105280 3.088566
Se -9.285396 -3.105280 6.184892
Se -9.285396 -6.201606 3.088566
Se -12.381722 -6.201606 12.377544
Se -12.381722 -3.105280 9.281218
Se -9.285396 -3.105280 12.377544
Se -9.285396 -6.201606 9.281218
Se -12.381722 -6.201606 18.570196
Se -12.381722 -3.105280 15.473870
Se -9.285396 -3.105280 18.570196
Se -9.285396 -6.201606 15.473870
Se -12.381722 -6.201606 24.762848
Se -12.381722 -3.105280 21.666522
Se -9.285396 -3.105280 24.762848
Se -9.285396 -6.201606 21.666522
Se -12.381722 -3.105280 27.859174
Se -9.285396 -6.201606 27.859174
Se -12.381722 -0.008954 -24.778368
Se -12.381722 3.087372 -27.874694
Se -9.285396 3.087372 -24.778368
Se -9.285396 -0.008954 -27.874694
Se -12.381722 -0.008954 -18.585716
Se -12.381722 3.087372 -21.682042
Se -9.285396 3.087372 -18.585716
Se -9.285396 -0.008954 -21.682042
Se -12.381722 -0.008954 -12.393064
Se -12.381722 3.087372 -15.489390
Se -9.285396 3.087372 -12.393064
Se -9.285396 -0.008954 -15.489390
Se -12.381722 -0.008954 -6.200412
Se -12.381722 3.087372 -9.296738
Se -9.285396 3.087372 -6.200412
Se -9.285396 -0.008954 -9.296738
Se -12.381722 -0.008954 -0.007760
Se -12.381722 3.087372 -3.104086
Se -9.285396 3.087372 -0.007760
Se -9.285396 -0.008954 -3.104086
Se -12.381722 -0.008954 6.184892
Se -12.381722 3.087372 3.088566
Se -9.285396 3.087372 6.184892
Se -9.285396 -0.008954 3.088566
Se -12.381722 -0.008954 12.377544
Se -12.381722 3.087372 9.281218
Se -9.285396 3.087372 12.377544
Se -9.285396 -0.008954 9.281218
Se -12.381722 -0.008954 18.570196
Se -12.381722 3.087372 15.473870
Se -9.285396 3.087372 18.570196
Se -9.285396 -0.008954 15.473870
Se -12.381722 -0.008954 24.762848
Se -12.381722 3.087372 21.666522
Se -9.285396 3.087372 24.762848
Se -9.285396 -0.008954 21.666522
Se -12.381722 3.087372 27.859174
Se -9.285396 -0.008954 27.859174
Se -12.381722 6.183698 -24.778368
Se -12.381722 9.280024 -27.874694
Se -9.285396 9.280024 -24.778368
Se -9.285396 6.183698 -27.874694
Se -12.381722 6.183698 -18.585716
Se -12.381722 9.280024 -21.682042
Se -9.285396 9.280024 -18.585716
Se -9.285396 6.183698 -21.682042
Se -12.381722 6.183698 -12.393064
Se -12.381722 9.280024 -15.489390
Se -9.285396 9.280024 -12.393064
Se -9.285396 6.183698 -15.489390
Se -12.381722 6.183698 -6.200412
Se -12.381722 9.280024 -9.296738
Se -9.285396 9.280024 -6.200412
Se -9.285396 6.183698 -9.296738
Se -12.381722 6.183698 -0.007760
Se -12.381722 9.280024 -3.104086
Se -9.285396 9.280024 -0.007760
Se -9.285396 6.183698 -3.104086
Se -12.381722 6.183698 6.184892
Se -12.381722 9.280024 3.088566
Se -9.285396 9.280024 6.184892
Se -9.285396 6.183698 3.088566
Se -12.381722 6.183698 12.377544
Se -12.381722 9.280024 9.281218
Se -9.285396 9.280024 12.377544
Se -9.285396 6.183698 9.281218
Se -12.381722 6.183698 18.570196
Se -12.381722 9.280024 15.473870
Se -9.285396 9.280024 18.570196
Se -9.285396 6.183698 15.473870
Se -12.381722 6.183698 24.762848
Se -12.381722 9.280024 21.666522
Se -9.285396 9.280024 24.762848
Se -9.285396 6.183698 21.666522
Se -12.381722 9.280024 27.859174
Se -9.285396 6.183698 27.859174
Se -12.381722 12.376350 -24.778368
Se -9.285396 15.472676 -24.778368
Se -9.285396 12.376350 -27.874694
Se -12.381722 12.376350 -18.585716
Se -12.381722 15.472676 -21.682042
Se -9.285396 15.472676 -18.585716
Se -9.285396 12.376350 -21.682042
Se -12.381722 12.376350 -12.393064
Se -12.381722 15.472676 -15.489390
Se -9.285396 15.472676 -12.393064
Se -9.285396 12.376350 -15.489390
Se -12.381722 12.376350 -6.200412
Se -12.381722 15.472676 -9.296738
Se -9.285396 15.472676 -6.200412
Se -9.285396 12.376350 -9.296738
Se -12.381722 12.376350 -0.007760
Se -12.381722 15.472676 -3.104086
Se -9.285396 15.472676 -0.007760
Se -9.285396 12.376350 -3.104086
Se -12.381722 12.376350 6.184892
Se -12.381722 15.472676 3.088566
Se -9.285396 15.472676 6.184892
Se -9.285396 12.376350 3.088566
Se -12.381722 12.376350 12.377544
Se -12.381722 15.472676 9.281218
Se -9.285396 15.472676 12.377544
Se -9.285396 12.376350 9.281218
Se -12.381722 12.376350 18.570196
Se -12.381722 15.472676 15.473870
Se -9.285396 15.472676 18.570196
Se -9.285396 12.376350 15.473870
Se -12.381722 12.376350 24.762848
Se -12.381722 15.472676 21.666522
Se -9.285396 15.472676 24.762848
Se -9.285396 12.376350 21.666522
Se -9.285396 12.376350 27.859174
Se -12.381722 18.569002 -24.778368
Se -12.381722 18.569002 -18.585716
Se -9.285396 21.665328 -18.585716
Se -9.285396 18.569002 -21.682042
Se -12.381722 18.569002 -12.393064
Se -12.381722 21.665328 -15.489390
Se -9.285396 21.665328 -12.393064
Se -9.285396 18.569002 -15.489390
Se -12.381722 18.569002 -6.200412
Se -12.381722 21.665328 -9.296738
Se -9.285396 21.665328 -6.200412
Se -9.285396 18.569002 -9.296738
Se -12.381722 18.569002 -0.007760
Se -12.381722 21.665328 -3.104086
Se -9.285396 21.665328 -0.007760
Se -9.285396 18.569002 -3.104086
Se -12.381722 18.569002 6.184892
Se -12.381722 21.665328 3.088566
Se -9.285396 21.665328 6.184892
Se -9.285396 18.569002 3.088566
Se -12.381722 18.569002 12.377544
Se -12.381722 21.665328 9.281218
Se -9.285396 21.665328 12.377544
Se -9.285396 18.569002 9.281218
Se -12.381722 18.569002 18.570196
Se -12.381722 21.665328 15.473870
Se -9.285396 21.665328 18.570196
Se -9.285396 18.569002 15.473870
Se -9.285396 18.569002 21.666522
Se -12.381722 24.761654 -18.585716
Se -12.381722 24.761654 -12.393064
Se -9.285396 27.857980 -12.393064
Se -9.285396 24.761654 -15.489390
Se -12.381722 24.761654 -6.200412
Se -12.381722 27.857980 -9.296738
Se -9.285396 27.857980 -6.200412
Se -9.285396 24.761654 -9.296738
Se -12.381722 24.761654 -0.007760
Se -12.381722 27.857980 -3.104086
Se -9.285396 27.857980 -0.007760
Se -9.285396 24.761654 -3.104086
Se -12.381722 24.761654 6.184892
Se -12.381722 27.857980 3.088566
Se -9.285396 27.857980 6.184892
Se -9.285396 24.761654 3.088566
Se -12.381722 24.761654 12.377544
Se -12.381722 27.857980 9.281218
Se -9.285396 27.857980 12.377544
Se -9.285396 24.761654 9.281218
Se -9.285396 24.761654 15.473870
Se -6.189070 -27.875888 -15.489390
Se -3.092744 -27.875888 -12.393064
Se -6.189070 -27.875888 -9.296738
Se -3.092744 -27.875888 -6.200412
Se -6.189070 -27.875888 -3.104086
Se -3.092744 -27.875888 -0.007760
Se -6.189070 -27.875888 3.088566
Se -3.092744 -27.875888 6.184892
Se -6.189070 -27.875888 9.281218
Se -3.092744 -27.875888 12.377544
Se -6.189070 -27.875888 15.473870
Se -6.189070 -24.779562 -18.585716
Se -6.189070 -21.683236 -21.682042
Se -3.092744 -21.683236 -18.585716
Se -6.189070 -24.779562 -12.393064
Se -6.189070 -21.683236 -15.489390
Se -3.092744 -21.683236 -12.393064
Se -3.092744 -24.779562 -15.489390
Se -6.189070 -24.779562 -6.200412
Se -6.189070 -21.683236 -9.296738
Se -3.092744 -21.683236 -6.200412
Se -3.092744 -24.779562 -9.296738
Se -6.189070 -24.779562 -0.007760
Se -6.189070 -21.683236 -3.104086
Se -3.092744 -21.683236 -0.007760
Se -3.092744 -24.779562 -3.104086
Se -6.189070 -24.779562 6.184892
Se -6.189070 -21.683236 3.088566
Se -3.092744 -21.683236 6.184892
Se -3.092744 -24.779562 3.088566
Se -6.189070 -24.779562 12.377544
Se -6.189070 -21.683236 9.281218
Se -3.092744 -21.683236 12.377544
Se -3.092744 -24.779562 9.281218
Se -6.189070 -24.779562 18.570196
Se -6.189070 -21.683236 15.473870
Se -3.092744 -21.683236 18.570196
Se -3.092744 -24.779562 15.473870
Se -6.189070 -21.683236 21.666522
Se -6.189070 -18.586910 -24.778368
Se -6.189070 -15.490584 -27.874694
Se -3.092744 -15.490584 -24.778368
Se -6.189070 -18.586910 -18.585716
Se -6.189070 -15.490584 -21.682042
Se -3.092744 -15.490584 -18.585716
Se -3.092744 -18.586910 -21.682042
Se -6.189070 -18.586910 -12.393064
Se -6.189070 -15.490584 -15.489390
Se -3.092744 -15.490584 -12.393064
Se -3.092744 -18.586910 -15.489390
Se -6.189070 -18.586910 -6.200412
Se -6.189070 -15.490584 -9.296738
Se -3.092744 -15.490584 -6.200412
Se -3.092744 -18.586910 -9.296738
Se -6.189070 -18.586910 -0.007760
Se -6.189070 -15.490584 -3.104086
Se -3.092744 -15.490584 -0.007760
Se -3.092744 -18.586910 -3.104086
Se -6.189070 -18.586910 6.184892
Se -6.189070 -15.490584 3.088566
Se -3.092744 -15.490584 6.184892
Se -3.092744 -18.586910 3.088566
Se -6.189070 -18.586910 12.377544
Se -6.189070 -15.490584 9.281218
Se -3.092744 -15.490584 12.377544
Se -3.092744 -18.586910 9.281218
Se -6.189070 -18.586910 18.570196
Se -6.189070 -15.490584 15.473870
Se -3.092744 -15.490584 18.570196
Se -3.092744 -18.586910 15.473870
Se -6.189070 -18.586910 24.762848
Se -6.189070 -15.490584 21.666522
Se -3.092744 -15.490584 24.762848
Se -3.092744 -18.586910 21.666522
Se -6.189070 -15.490584 27.859174
Se -6.189070 -12.394258 -24.778368
Se -6.189070 -9.297932 -27.874694
Se -3.092744 -9.297932 -24.778368
Se -3.092744 -12.394258 -27.874694
Se -6.189070 -12.394258 -18.585716
Se -6.189070 -9.297932 -21.682042
Se -3.092744 -9.297932 -18.585716
Se -3.092744 -12.394258 -21.682042
Se -6.189070 -12.394258 -12.393064
Se -6.189070 -9.297932 -15.489390
Se -3.092744 -9.297932 -12.393064
Se -3.092744 -12.394258 -15.489390
Se -6.189070 -12.394258 -6.200412
Se -6.189070 -9.297932 -9.296738
Se -3.092744 -9.297932 -6.200412
Se -3.092744 -12.394258 -9.296738
Se -6.189070 -12.394258 -0.007760
Se -6.189070 -9.297932 -3.104086
Se -3.092744 -9.297932 -0.007760
Se -3.092744 -12.394258 -3.104086
Se -6.189070 -12.394258 6.184892
Se -6.189070 -9.297932 3.088566
Se -3.092744 -9.297932 6.184892
Se -3.092744 -12.394258 3.088566
Se -6.189070 -12.394258 12.377544
Se -6.189070 -9.297932 9.281218
Se -3.092744 -9.297932 12.377544
Se -3.092744 -12.394258 9.281218
Se -6.189070 -12.394258 18.570196
Se -6.189070 -9.297932 15.473870
Se -3.092744 -9.297932 18.570196
Se -3.092744 -12.394258 15.473870
Se -6.189070 -12.394258 24.762848
Se -6.189070 -9.297932 21.666522
Se -3.092744 -9.297932 24.762848
Se -3.092744 -12.394258 21.666522
Se -6.189070 -9.297932 27.859174
Se -3.092744 -12.394258 27.859174
Se -6.189070 -6.201606 -24.778368
Se -6.189070 -3.105280 -27.874694
Se -3.092744 -3.105280 -24.778368
Se -3.092744 -6.201606 -27.874694
Se -6.189070 -6.201606 -18.585716
Se -6.189070 -3.105280 -21.682042
Se -3.092744 -3.105280 -18.585716
Se -3.092744 -6.201606 -21.682042
Se -6.189070 -6.201606 -12.393064
Se -6.189070 -3.105280 -15.489390
Se -3.092744 -3.105280 -12.393064
Se -3.092744 -6.201606 -15.489390
Se -6.189070 -6.201606 -6.200412
Se -6.189070 -3.105280 -9.296738
Se -3.092744 -3.105280 -6.200412
Se -3.092744 -6.201606 -9.296738
Se -6.189070 -6.201606 -0.007760
Se -6.189070 -3.105280 -3.104086
Se -3.092744 -3.105280 -0.007760
Se -3.092744 -6.201606 -3.104086
Se -6.189070 -6.201606 6.184892
Se -6.189070 -3.105280 3.088566
Se -3.092744 -3.105280 6.184892
Se -3.092744 -6.201606 3.088566
Se -6.189070 -6.201606 12.377544
Se -6.189070 -3.105280 9.281218
Se -3.092744 -3.105280 12.377544
Se -3.092744 -6.201606 9.281218
Se -6.189070 -6.201606 18.570196
Se -6.189070 -3.105280 15.473870
Se -3.092744 -3.105280 18.570196
Se -3.092744 -6.201606 15.473870
Se -6.189070 -6.201606 24.762848
Se -6.189070 -3.105280 21.666522
Se -3.092744 -3.105280 24.762848
Se -3.092744 -6.201606 21.666522
Se -6.189070 -3.105280 27.859174
Se -3.092744 -6.201606 27.859174
Se -6.189070 -0.008954 -24.778368
Se -6.189070 3.087372 -27.874694
Se -3.092744 3.087372 -24.778368
Se -3.092744 -0.008954 -27.874694
Se -6.189070 -0.008954 -18.585716
Se -6.189070 3.087372 -21.682042
Se -3.092744 3.087372 -18.585716
Se -3.092744 -0.008954 -21.682042
Se -6.189070 -0.008954 -12.393064
Se -6.189070 3.087372 -15.489390
Se -3.092744 3.087372 -12.393064
Se -3.092744 -0.008954 -15.489390
Se -6.189070 -0.008954 -6.200412
Se -6.189070 3.087372 -9.296738
Se -3.092744 3.087372 -6.200412
Se -3.092744 -0.008954 -9.296738
Se -6.189070 -0.008954 -0.007760
Se -6.189070 3.087372 -3.104086
Se -3.092744 3.087372 -0.007760
Se -3.092744 -0.008954 -3.104086
Se -6.189070 -0.008954 6.184892
Se -6.189070 3.087372 3.088566
Se -3.092744 3.087372 6.184892
Se -3.092744 -0.008954 3.088566
Se -6.189070 -0.008954 12.377544
Se -6.189070 3.087372 9.281218
Se -3.092744 3.087372 12.377544
Se -3.092744 -0.008954 9.281218
Se -6.189070 -0.008954 18.570196
Se -6.189070 3.087372 15.473870
Se -3.092744 3.087372 18.570196
Se -3.092744 -0.008954 15.473870
Se -6.189070 -0.008954 24.762848
Se -6.189070 3.087372 21.666522
Se -3.092744 3.087372 24.762848
Se -3.092744 -0.008954 21.666522
Se -6.189070 3.087372 27.859174
Se -3.092744 -0.008954 27.859174
Se -6.189070 6.183698 -24.778368
Se -6.189070 9.280024 -27.874694
Se -3.092744 9.280024 -24.778368
Se -3.092744 6.183698 -27.874694
Se -6.189070 6.183698 -18.585716
Se -6.189070 9.280024 -21.682042
Se -3.092744 9.280024 -18.585716
Se -3.092744 6.183698 -21.682042
Se -6.189070 6.183698 -12.393064
Se -6.189070 9.280024 -15.489390
Se -3.092744 9.280024 -12.393064
Se -3.092744 6.183698 -15.489390
Se -6.189070 6.183698 -6.200412
Se -6.189070 9.280024 -9.296738
Se -3.092744 9.280024 -6.200412
Se -3.092744 6.183698 -9.296738
Se -6.189070 6.183698 -0.007760
Se -6.189070 9.280024 -3.104086
Se -3.092744 9.280024 -0.007760
Se -3.092744 6.183698 -3.104086
Se -6.189070 6.183698 6.184892
Se -6.189070 9.280024 3.088566
Se -3.092744 9.280024 6.184892
Se -3.092744 6.183698 3.088566
Se -6.189070 6.183698 12.377544
Se -6.189070 9.280024 9.281218
Se -3.092744 9.280024 12.377544
Se -3.092744 6.183698 9.281218
Se -6.189070 6.183698 18.570196
Se -6.189070 9.280024 15.473870
Se -3.092744 9.280024 18.570196
Se -3.092744 6.183698 15.473870
Se -6.189070 6.183698 24.762848
Se -6.189070 9.280024 21.666522
Se -3.092744 9.280024 24.762848
Se -3.092744 6.183698 21.666522
Se -6.189070 9.280024 27.859174
Se -3.092744 6.183698 27.859174
Se -6.189070 12.376350 -24.778368
Se -6.189070 15.472676 -27.874694
Se -3.092744 15.472676 -24.778368
Se -3.092744 12.376350 -27.874694
Se -6.189070 12.376350 -18.585716
Se -6.189070 15.472676 -21.682042
Se -3.092744 15.472676 -18.585716
Se -3.092744 12.376350 -21.682042
Se -6.189070 12.376350 -12.393064
Se -6.189070 15.472676 -15.489390
Se -3.092744 15.472676 -12.393064
Se -3.092744 12.376350 -15.489390
Se -6.189070 12.376350 -6.200412
Se -6.189070 15.472676 -9.296738
Se -3.092744 15.472676 -6.200412
Se -3.092744 12.376350 -9.296738
Se -6.189070 12.376350 -0.007760
Se -6.189070 15.472676 -3.104086
Se -3.092744 15.472676 -0.007760
Se -3.092744 12.376350 -3.104086
Se -6.189070 12.376350 6.184892
Se -6.189070 15.472676 3.088566
Se -3.092744 15.472676 6.184892
Se -3.092744 12.376350 3.088566
Se -6.189070 12.376350 12.377544
Se -6.189070 15.472676 9.281218
Se -3.092744 15.472676 12.377544
Se -3.092744 12.376350 9.281218
Se -6.189070 12.376350 18.570196
Se -6.189070 15.472676 15.473870
Se -3.092744 15.472676 18.570196
Se -3.092744 12.376350 15.473870
Se -6.189070 12.376350 24.762848
Se -6.189070 15.472676 21.666522
Se -3.092744 15.472676 24.762848
Se -3.092744 12.376350 21.666522
Se -6.189070 15.472676 27.859174
Se -3.092744 12.376350 27.859174
Se -6.189070 18.569002 -24.778368
Se -6.189070 18.569002 -18.585716
Se -6.189070 21.665328 -21.682042
Se -3.092744 21.665328 -18.585716
Se -3.092744 18.569002 -21.682042
Se -6.189070 18.569002 -12.393064
Se -6.189070 21.665328 -15.489390
Se -3.092744 21.665328 -12.393064
Se -3.092744 18.569002 -15.489390
Se -6.189070 18.569002 -6.200412
Se -6.189070 21.665328 -9.296738
Se -3.092744 21.665328 -6.200412
Se -3.092744 18.569002 -9.296738
Se -6.189070 18.569002 -0.007760
Se -6.189070 21.665328 -3.104086
Se -3.092744 21.665328 -0.007760
Se -3.092744 18.569002 -3.104086
Se -6.189070 18.569002 6.184892
Se -6.189070 21.665328 3.088566
Se -3.092744 21.665328 6.184892
Se -3.092744 18.569002 3.088566
Se -6.189070 18.569002 12.377544
Se -6.189070 21.665328 9.281218
Se -3.092744 21.665328 12.377544
Se -3.092744 18.569002 9.281218
Se -6.189070 18.569002 18.570196
Se -6.189070 21.665328 15.473870
Se -3.092744 21.665328 18.570196
Se -3.092744 18.569002 15.473870
Se -6.189070 18.569002 24.762848
Se -6.189070 21.665328 21.666522
Se -3.092744 18.569002 21.666522
Se -6.189070 24.761654 -18.585716
Se -6.189070 24.761654 -12.393064
Se -6.189070 27.857980 -15.489390
Se -3.092744 27.857980 -12.393064
Se -3.092744 24.761654 -15.489390
Se -6.189070 24.761654 -6.200412
Se -6.189070 27.857980 -9.296738
Se -3.092744 27.857980 -6.200412
Se -3.092744 24.761654 -9.296738
Se -6.189070 24.761654 -0.007760
Se -6.189070 27.857980 -3.104086
Se -3.092744 27.857980 -0.007760
Se -3.092744 24.761654 -3.104086
Se -6.189070 24.761654 6.184892
Se -6.189070 27.857980 3.088566
Se -3.092744 27.857980 6.184892
Se -3.092744 24.761654 3.088566
Se -6.189070 24.761654 12.377544
Se -6.189070 27.857980 9.281218
Se -3.092744 27.857980 12.377544
Se -3.092744 24.761654 9.281218
Se -6.189070 24.761654 18.570196
Se -6.189070 27.857980 15.473870
Se -3.092744 24.761654 15.473870
Se 0.003582 -27.875888 -15.489390
Se 3.099908 -27.875888 -12.393064
Se 0.003582 -27.875888 -9.296738
Se 3.099908 -27.875888 -6.200412
Se 0.003582 -27.875888 -3.104086
Se 3.099908 -27.875888 -0.007760
Se 0.003582 -27.875888 3.088566
Se 3.099908 -27.875888 6.184892
Se 0.003582 -27.875888 9.281218
Se 3.099908 -27.875888 12.377544
Se 0.003582 -27.875888 15.473870
Se 0.003582 -24.779562 -18.585716
Se 0.003582 -21.683236 -21.682042
Se 3.099908 -21.683236 -18.585716
Se 0.003582 -24.779562 -12.393064
Se 0.003582 -21.683236 -15.489390
Se 3.099908 -21.683236 -12.393064
Se 3.099908 -24.779562 -15.489390
Se 0.003582 -24.779562 -6.200412
Se 0.003582 -21.683236 -9.296738
Se 3.099908 -21.683236 -6.200412
Se 3.099908 -24.779562 -9.296738
Se 0.003582 -24.779562 -0.007760
Se 0.003582 -21.683236 -3.104086
Se 3.099908 -21.683236 -0.007760
Se 3.099908 -24.779562 -3.104086
Se 0.003582 -24.779562 6.184892
Se 0.003582 -21.683236 3.088566
Se 3.099908 -21.683236 6.184892
Se 3.099908 -24.779562 3.088566
Se 0.003582 -24.779562 12.377544
Se 0.003582 -21.683236 9.281218
Se 3.099908 -21.683236 12.377544
Se 3.099908 -24.779562 9.281218
Se 0.003582 -24.779562 18.570196
Se 0.003582 -21.683236 15.473870
Se 3.099908 -21.683236 18.570196
Se 3.099908 -24.779562 15.473870
Se 0.003582 -21.683236 21.666522
Se 0.003582 -18.586910 -24.778368
Se 0.003582 -15.490584 -27.874694
Se 3.099908 -15.490584 -24.778368
Se 0.003582 -18.586910 -18.585716
Se 0.003582 -15.490584 -21.682042
Se 3.099908 -15.490584 -18.585716
Se 3.099908 -18.586910 -21.682042
Se 0.003582 -18.586910 -12.393064
Se 0.003582 -15.490584 -15.489390
Se 3.099908 -15.490584 -12.393064
Se 3.099908 -18.586910 -15.489390
Se 0.003582 -18.586910 -6.200412
Se 0.003582 -15.490584 -9.296738
Se 3.099908 -15.490584 -6.200412
Se 3.099908 -18.586910 -9.296738
Se 0.003582 -18.586910 -0.007760
Se 0.003582 -15.490584 -3.104086
Se 3.099908 -15.490584 -0.007760
Se 3.099908 -18.586910 -3.104086
Se 0.003582 -18.586910 6.184892
Se 0.003582 -15.490584 3.088566
Se 3.099908 -15.490584 6.184892
Se 3.099908 -18.586910 3.088566
Se 0.003582 -18.586910 12.377544
Se 0.003582 -15.490584 9.281218
Se 3.099908 -15.490584 12.377544
Se 3.099908 -18.586910 9.281218
Se 0.003582 -18.586910 18.570196
Se 0.003582 -15.490584 15.473870
Se 3.099908 -15.490584 18.570196
Se 3.099908 -18.586910 15.473870
Se 0.003582 -18.586910 24.762848
Se 0.003582 -15.490584 21.666522
Se 3.099908 -15.490584 24.762848
Se 3.099908 -18.586910 21.666522
Se 0.003582 -15.490584 27.859174
Se 0.003582 -12.394258 -24.778368
Se 0.003582 -9.297932 -27.874694
Se 3.099908 -9.297932 -24.778368
Se 3.099908 -12.394258 -27.874694
Se 0.003582 -12.394258 -18.585716
Se 0.003582 -9.297932 -21.682042
Se 3.099908 -9.297932 -18.585716
Se 3.099908 -12.394258 -21.682042
Se 0.003582 -12.394258 -12.393064
Se 0.003582 -9.297932 -15.489390
Se 3.099908 -9.297932 -12.393064
Se 3.099908 -12.394258 -15.489390
Se 0.003582 -12.394258 -6.200412
Se 0.003582 -9.297932 -9.296738
Se 3.099908 -9.297932 -6.200412
Se 3.099908 -12.394258 -9.296738
Se 0.003582 -12.394258 -0.007760
Se 0.003582 -9.297932 -3.104086
Se 3.099908 -9.297932 -0.007760
Se 3.099908 -12.394258 -3.104086
Se 0.003582 -12.394258 6.184892
Se 0.003582 -9.297932 3.088566
Se 3.099908 -9.297932 6.184892
Se 3.099908 -12.394258 3.088566
Se 0.003582 -12.394258 12.377544
Se 0.003582 -9.297932 9.281218
Se 3.099908 -9.297932 12.377544
Se 3.099908 -12.394258 9.281218
Se 0.003582 -12.394258 18.570196
Se 0.003582 -9.297932 15.473870
Se 3.099908 -9.297932 18.570196
Se 3.099908 -12.394258 15.473870
Se 0.003582 -12.394258 24.762848
Se 0.003582 -9.297932 21.666522
Se 3.099908 -9.297932 24.762848
Se 3.099908 -12.394258 21.666522
Se 0.003582 -9.297932 27.859174
Se 3.099908 -12.394258 27.859174
Se 0.003582 -6.201606 -24.778368
Se 0.003582 -3.105280 -27.874694
Se 3.099908 -3.105280 -24.778368
Se 3.099908 -6.201606 -27.874694
Se 0.003582 -6.201606 -18.585716
Se 0.003582 -3.105280 -21.682042
Se 3.099908 -3.105280 -18.585716
Se 3.099908 -6.201606 -21.682042
Se 0.003582 -6.201606 -12.393064
Se 0.003582 -3.105280 -15.489390
Se 3.099908 -3.105280 -12.393064
Se 3.099908 -6.201606 -15.489390
Se 0.003582 -6.201606 -6.200412
Se 0.003582 -3.105280 -9.296738
Se 3.099908 -3.105280 -6.200412
Se 3.099908 -6.201606 -9.296738
Se 0.003582 -6.201606 -0.007760
Se 0.003582 -3.105280 -3.104086
Se 3.099908 -3.105280 -0.007760
Se 3.099908 -6.201606 -3.104086
Se 0.003582 -6.201606 6.184892
Se 0.003582 -3.105280 3.088566
Se 3.099908 -3.105280 6.184892
Se 3.099908 -6.201606 3.088566
Se 0.003582 -6.201606 12.377544
Se 0.003582 -3.105280 9.281218
Se 3.099908 -3.105280 12.377544
Se 3.099908 -6.201606 9.281218
Se 0.003582 -6.201606 18.570196
Se 0.003582 -3.105280 15.473870
Se 3.099908 -3.105280 18.570196
Se 3.099908 -6.201606 15.473870
Se 0.003582 -6.201606 24.762848
Se 0.003582 -3.105280 21.666522
Se 3.099908 -3.105280 24.762848
Se 3.099908 -6.201606 21.666522
Se 0.003582 -3.105280 27.859174
Se 3.099908 -6.201606 27.859174
Se 0.003582 -0.008954 -24.778368
Se 0.003582 3.087372 -27.874694
Se 3.099908 3.087372 -24.778368
Se 3.099908 -0.008954 -27.874694
Se 0.003582 -0.008954 -18.585716
Se 0.003582 3.087372 -21.682042
Se 3.099908 3.087372 -18.585716
Se 3.099908 -0.008954 -21.682042
Se 0.003582 -0.008954 -12.393064
Se 0.003582 3.087372 -15.489390
Se 3.099908 3.087372 -12.393064
Se 3.099908 -0.008954 -15.489390
Se 0.003582 -0.008954 -6.200412
Se 0.003582 3.087372 -9.296738
Se 3.099908 3.087372 -6.200412
Se 3.099908 -0.008954 -9.296738
Se 0.003582 -0.008954 -0.007760
Se 0.003582 3.087372 -3.104086
Se 3.099908 3.087372 -0.007760
Se 3.099908 -0.008954 -3.104086
Se 0.003582 -0.008954 6.184892
Se 0.003582 3.087372 3.088566
Se 3.099908 3.087372 6.184892
Se 3.099908 -0.008954 3.088566
Se 0.003582 -0.008954 12.377544
Se 0.003582 3.087372 9.281218
Se 3.099908 3.087372 12.377544
Se 3.099908 -0.008954 9.281218
Se 0.003582 -0.008954 18.570196
Se 0.003582 3.087372 15.473870
Se 3.099908 3.087372 18.570196
Se 3.099908 -0.008954 15.473870
Se 0.003582 -0.008954 24.762848
Se 0.003582 3.087372 21.666522
Se 3.099908 3.087372 24.762848
Se 3.099908 -0.008954 21.666522
Se 0.003582 3.087372 27.859174
Se 3.099908 -0.008954 27.859174
Se 0.003582 6.183698 -24.778368
Se 0.003582 9.280024 -27.874694
Se 3.099908 9.280024 -24.778368
Se 3.099908 6.183698 -27.874694
Se 0.003582 6.183698 -18.585716
Se 0.003582 9.280024 -21.682042
Se 3.099908 9.280024 -18.585716
Se 3.099908 6.183698 -21.682042
Se 0.003582 6.183698 -12.393064
Se 0.003582 9.280024 -15.489390
Se 3.099908 9.280024 -12.393064
Se 3.099908 6.183698 -15.489390
Se 0.003582 6.183698 -6.200412
Se 0.003582 9.280024 -9.296738
Se 3.099908 9.280024 -6.200412
Se 3.099908 6.183698 -9.296738
Se 0.003582 6.183698 -0.007760
Se 0.003582 9.280024 -3.104086
Se 3.099908 9.280024 -0.007760
Se 3.099908 6.183698 -3.104086
Se 0.003582 6.183698 6.184892
Se 0.003582 9.280024 3.088566
Se 3.099908 9.280024 6.184892
Se 3.099908 6.183698 3.088566
Se 0.003582 6.183698 12.377544
Se 0.003582 9.280024 9.281218
Se 3.099908 9.280024 12.377544
Se 3.099908 6.183698 9.281218
Se 0.003582 6.183698 18.570196
Se 0.003582 9.280024 15.473870
Se 3.099908 9.280024 18.570196
Se 3.099908 6.183698 15.473870
Se 0.003582 6.183698 24.762848
Se 0.003582 9.280024 21.666522
Se 3.099908 9.280024 24.762848
Se 3.099908 6.183698 21.666522
Se 0.003582 9.280024 27.859174
Se 3.099908 6.183698 27.859174
Se 0.003582 12.376350 -24.778368
Se 0.003582 15.472676 -27.874694
Se 3.099908 15.472676 -24.778368
Se 3.099908 12.376350 -27.874694
Se 0.003582 12.376350 -18.585716
Se 0.003582 15.472676 -21.682042
Se 3.099908 15.472676 -18.585716
Se 3.099908 12.376350 -21.682042
Se 0.003582 12.376350 -12.393064
Se 0.003582 15.472676 -15.489390
Se 3.099908 15.472676 -12.393064
Se 3.099908 12.376350 -15.489390
Se 0.003582 12.376350 -6.200412
Se 0.003582 15.472676 -9.296738
Se 3.099908 15.472676 -6.200412
Se 3.099908 12.376350 -9.296738
Se 0.003582 12.376350 -0.007760
Se 0.003582 15.472676 -3.104086
Se 3.099908 15.472676 -0.007760
Se 3.099908 12.376350 -3.104086
Se 0.003582 12.376350 6.184892
Se 0.003582 15.472676 3.088566
Se 3.099908 15.472676 6.184892
Se 3.099908 12.376350 3.088566
Se 0.003582 12.376350 12.377544
Se 0.003582 15.472676 9.281218
Se 3.099908 15.472676 12.377544
Se 3.099908 12.376350 9.281218
Se 0.003582 12.376350 18.570196
Se 0.003582 15.472676 15.473870
Se 3.099908 15.472676 18.570196
Se 3.099908 12.376350 15.473870
Se 0.003582 12.376350 24.762848
Se 0.003582 15.472676 21.666522
Se 3.099908 15.472676 24.762848
Se 3.099908 12.376350 21.666522
Se 0.003582 15.472676 27.859174
Se 3.099908 12.376350 27.859174
Se 0.003582 18.569002 -24.778368
Se 0.003582 18.569002 -18.585716
Se 0.003582 21.665328 -21.682042
Se 3.099908 21.665328 -18.585716
Se 3.099908 18.569002 -21.682042
Se 0.003582 18.569002 -12.393064
Se 0.003582 21.665328 -15.489390
Se 3.099908 21.665328 -12.393064
Se 3.099908 18.569002 -15.489390
Se 0.003582 18.569002 -6.200412
Se 0.003582 21.665328 -9.296738
Se 3.099908 21.665328 -6.200412
Se 3.099908 18.569002 -9.296738
Se 0.003582 18.569002 -0.007760
Se 0.003582 21.665328 -3.104086
Se 3.099908 21.665328 -0.007760
Se 3.099908 18.569002 -3.104086
Se 0.003582 18.569002 6.184892
Se 0.003582 21.665328 3.088566
Se 3.099908 21.665328 6.184892
Se 3.099908 18.569002 3.088566
Se 0.003582 18.569002 12.377544
Se 0.003582 21.665328 9.281218
Se 3.099908 21.665328 12.377544
Se 3.099908 18.569002 9.281218
Se 0.003582 18.569002 18.570196
Se 0.003582 21.665328 15.473870
Se 3.099908 21.665328 18.570196
Se 3.099908 18.569002 15.473870
Se 0.003582 18.569002 24.762848
Se 0.003582 21.665328 21.666522
Se 3.099908 18.569002 21.666522
Se 0.003582 24.761654 -18.585716
Se 0.003582 24.761654 -12.393064
Se 0.003582 27.857980 -15.489390
Se 3.099908 27.857980 -12.393064
Se 3.099908 24.761654 -15.489390
Se 0.003582 24.761654 -6.200412
Se 0.003582 27.857980 -9.296738
Se 3.099908 27.857980 -6.200412
Se 3.099908 24.761654 -9.296738
Se 0.003582 24.761654 -0.007760
Se 0.003582 27.857980 -3.104086
Se 3.099908 27.857980 -0.007760
Se 3.099908 24.761654 -3.104086
Se 0.003582 24.761654 6.184892
Se 0.003582 27.857980 3.088566
Se 3.099908 27.857980 6.184892
Se 3.099908 24.761654 3.088566
Se 0.003582 24.761654 12.377544
Se 0.003582 27.857980 9.281218
Se 3.099908 27.857980 12.377544
Se 3.099908 24.761654 9.281218
Se 0.003582 24.761654 18.570196
Se 0.003582 27.857980 15.473870
Se 3.099908 24.761654 15.473870
Se 6.196234 -27.875888 -15.489390
Se 9.292560 -27.875888 -12.393064
Se 6.196234 -27.875888 -9.296738
Se 9.292560 -27.875888 -6.200412
Se 6.196234 -27.875888 -3.104086
Se 9.292560 -27.875888 -0.007760
Se 6.196234 -27.875888 3.088566
Se 9.292560 -27.875888 6.184892
Se 6.196234 -27.875888 9.281218
Se 9.292560 -27.875888 12.377544
Se 6.196234 -27.875888 15.473870
Se 6.196234 -24.779562 -18.585716
Se 6.196234 -21.683236 -21.682042
Se 9.292560 -21.683236 -18.585716
Se 6.196234 -24.779562 -12.393064
Se 6.196234 -21.683236 -15.489390
Se 9.292560 -21.683236 -12.393064
Se 9.292560 -24.779562 -15.489390
Se 6.196234 -24.779562 -6.200412
Se 6.196234 -21.683236 -9.296738
Se 9.292560 -21.683236 -6.200412
Se 9.292560 -24.779562 -9.296738
Se 6.196234 -24.779562 -0.007760
Se 6.196234 -21.683236 -3.104086
Se 9.292560 -21.683236 -0.007760
Se 9.292560 -24.779562 -3.104086
Se 6.196234 -24.779562 6.184892
Se 6.196234 -21.683236 3.088566
Se 9.292560 -21.683236 6.184892
Se 9.292560 -24.779562 3.088566
Se 6.196234 -24.779562 12.377544
Se 6.196234 -21.683236 9.281218
Se 9.292560 -21.683236 12.377544
Se 9.292560 -24.779562 9.281218
Se 6.196234 -24.779562 18.570196
Se 6.196234 -21.683236 15.473870
Se 9.292560 -21.683236 18.570196
Se 9.292560 -24.779562 15.473870
Se 6.196234 -21.683236 21.666522
Se 6.196234 -18.586910 -24.778368
Se 6.196234 -15.490584 -27.874694
Se 9.292560 -15.490584 -24.778368
Se 6.196234 -18.586910 -18.585716
Se 6.196234 -15.490584 -21.682042
Se 9.292560 -15.490584 -18.585716
Se 9.292560 -18.586910 -21.682042
Se 6.196234 -18.586910 -12.393064
Se 6.196234 -15.490584 -15.489390
Se 9.292560 -15.490584 -12.393064
Se 9.292560 -18.586910 -15.489390
Se 6.196234 -18.586910 -6.200412
Se 6.196234 -15.490584 -9.296738
Se 9.292560 -15.490584 -6.200412
Se 9.292560 -18.586910 -9.296738
Se 6.196234 -18.586910 -0.007760
Se 6.196234 -15.490584 -3.104086
Se 9.292560 -15.490584 -0.007760
Se 9.292560 -18.586910 -3.104086
Se 6.196234 -18.586910 6.184892
Se 6.196234 -15.490584 3.088566
Se 9.292560 -15.490584 6.184892
Se 9.292560 -18.586910 3.088566
Se 6.196234 -18.586910 12.377544
Se 6.196234 -15.490584 9.281218
Se 9.292560 -15.490584 12.377544
Se 9.292560 -18.586910 9.281218
Se 6.196234 -18.586910 18.570196
Se 6.196234 -15.490584 15.473870
Se 9.292560 -15.490584 18.570196
Se 9.292560 -18.586910 15.473870
Se 6.196234 -18.586910 24.762848
Se 6.196234 -15.490584 21.666522
Se 9.292560 -15.490584 24.762848
Se 9.292560 -18.586910 21.666522
Se 6.196234 -15.490584 27.859174
Se 6.196234 -12.394258 -24.778368
Se 6.196234 -9.297932 -27.874694
Se 9.292560 -9.297932 -24.778368
Se 9.292560 -12.394258 -27.874694
Se 6.196234 -12.394258 -18.585716
Se 6.196234 -9.297932 -21.682042
Se 9.292560 -9.297932 -18.585716
Se 9.292560 -12.394258 -21.682042
Se 6.196234 -12.394258 -12.393064
Se 6.196234 -9.297932 -15.489390
Se 9.292560 -9.297932 -12.393064
Se 9.292560 -12.394258 -15.489390
Se 6.196234 -12.394258 -6.200412
Se 6.196234 -9.297932 -9.296738
Se 9.292560 -9.297932 -6.200412
Se 9.292560 -12.394258 -9.296738
Se 6.196234 -12.394258 -0.007760
Se 6.196234 -9.297932 -3.104086
Se 9.292560 -9.297932 -0.007760
Se 9.292560 -12.394258 -3.104086
Se 6.196234 -12.394258 6.184892
Se 6.196234 -9.297932 3.088566
Se 9.292560 -9.297932 6.184892
Se 9.292560 -12.394258 3.088566
Se 6.196234 -12.394258 12.377544
Se 6.196234 -9.297932 9.281218
Se 9.292560 -9.297932 12.377544
Se 9.292560 -12.394258 9.281218
Se 6.196234 -12.394258 18.570196
Se 6.196234 -9.297932 15.473870
Se 9.292560 -9.297932 18.570196
Se 9.292560 -12.394258 15.473870
Se 6.196234 -12.394258 24.762848
Se 6.196234 -9.297932 21.666522
Se 9.292560 -9.297932 24.762848
Se 9.292560 -12.394258 21.666522
Se 6.196234 -9.297932 27.859174
Se 9.292560 -12.394258 27.859174
Se 6.196234 -6.201606 -24.778368
Se 6.196234 -3.105280 -27.874694
Se 9.292560 -3.105280 -24.778368
Se 9.292560 -6.201606 -27.874694
Se 6.196234 -6.201606 -18.585716
Se 6.196234 -3.105280 -21.682042
Se 9.292560 -3.105280 -18.585716
Se 9.292560 -6.201606 -21.682042
Se 6.196234 -6.201606 -12.393064
Se 6.196234 -3.105280 -15.489390
Se 9.292560 -3.105280 -12.393064
Se 9.292560 -6.201606 -15.489390
Se 6.196234 -6.201606 -6.200412
Se 6.196234 -3.105280 -9.296738
Se 9.292560 -3.105280 -6.200412
Se 9.292560 -6.201606 -9.296738
Se 6.196234 -6.201606 -0.007760
Se 6.196234 -3.105280 -3.104086
Se 9.292560 -3.105280 -0.007760
Se 9.292560 -6.201606 -3.104086
Se 6.196234 -6.201606 6.184892
Se 6.196234 -3.105280 3.088566
Se 9.292560 -3.105280 6.184892
Se 9.292560 -6.201606 3.088566
Se 6.196234 -6.201606 12.377544
Se 6.196234 -3.105280 9.281218
Se 9.292560 -3.105280 12.377544
Se 9.292560 -6.201606 9.281218
Se 6.196234 -6.201606 18.570196
Se 6.196234 -3.105280 15.473870
Se 9.292560 -3.105280 18.570196
Se 9.292560 -6.201606 15.473870
Se 6.196234 -6.201606 24.762848
Se 6.196234 -3.105280 21.666522
Se 9.292560 -3.105280 24.762848
Se 9.292560 -6.201606 21.666522
Se 6.196234 -3.105280 27.859174
Se 9.292560 -6.201606 27.859174
Se 6.196234 -0.008954 -24.778368
Se 6.196234 3.087372 -27.874694
Se 9.292560 3.087372 -24.778368
Se 9.292560 -0.008954 -27.874694
Se 6.196234 -0.008954 -18.585716
Se 6.196234 3.087372 -21.682042
Se 9.292560 3.087372 -18.585716
Se 9.292560 -0.008954 -21.682042
Se 6.196234 -0.008954 -12.393064
Se 6.196234 3.087372 -15.489390
Se 9.292560 3.087372 -12.393064
Se 9.292560 -0.008954 -15.489390
Se 6.196234 -0.008954 -6.200412
Se 6.196234 3.087372 -9.296738
Se 9.292560 3.087372 -6.200412
Se 9.292560 -0.008954 -9.296738
Se 6.196234 -0.008954 -0.007760
Se 6.196234 3.087372 -3.104086
Se 9.292560 3.087372 -0.007760
Se 9.292560 -0.008954 -3.104086
Se 6.196234 -0.008954 6.184892
Se 6.196234 3.087372 3.088566
Se 9.292560 3.087372 6.184892
Se 9.292560 -0.008954 3.088566
Se 6.196234 -0.008954 12.377544
Se 6.196234 3.087372 9.281218
Se 9.292560 3.087372 12.377544
Se 9.292560 -0.008954 9.281218
Se 6.196234 -0.008954 18.570196
Se 6.196234 3.087372 15.473870
Se 9.292560 3.087372 18.570196
Se 9.292560 -0.008954 15.473870
Se 6.196234 -0.008954 24.762848
Se 6.196234 3.087372 21.666522
Se 9.292560 3.087372 24.762848
Se 9.292560 -0.008954 21.666522
Se 6.196234 3.087372 27.859174
Se 9.292560 -0.008954 27.859174
Se 6.196234 6.183698 -24.778368
Se 6.196234 9.280024 -27.874694
Se 9.292560 9.280024 -24.778368
Se 9.292560 6.183698 -27.874694
Se 6.196234 6.183698 -18.585716
Se 6.196234 9.280024 -21.682042
Se 9.292560 9.280024 -18.585716
Se 9.292560 6.183698 -21.682042
Se 6.196234 6.183698 -12.393064
Se 6.196234 9.280024 -15.489390
Se 9.292560 9.280024 -12.393064
Se 9.292560 6.183698 -15.489390
Se 6.196234 6.183698 -6.200412
Se 6.196234 9.280024 -9.296738
Se 9.292560 9.280024 -6.200412
Se 9.292560 6.183698 -9.296738
Se 6.196234 6.183698 -0.007760
Se 6.196234 9.280024 -3.104086
Se 9.292560 9.280024 -0.007760
Se 9.292560 6.183698 -3.104086
Se 6.196234 6.183698 6.184892
Se 6.196234 9.280024 3.088566
Se 9.292560 9.280024 6.184892
Se 9.292560 6.183698 3.088566
Se 6.196234 6.183698 12.377544
Se 6.196234 9.280024 9.281218
Se 9.292560 9.280024 12.377544
Se 9.292560 6.183698 9.281218
Se 6.196234 6.183698 18.570196
Se 6.196234 9.280024 15.473870
Se 9.292560 9.280024 18.570196
Se 9.292560 6.183698 15.473870
Se 6.196234 6.183698 24.762848
Se 6.196234 9.280024 21.666522
Se 9.292560 9.280024 24.762848
Se 9.292560 6.183698 21.666522
Se 6.196234 9.280024 27.859174
Se 9.292560 6.183698 27.859174
Se 6.196234 12.376350 -24.778368
Se 6.196234 15.472676 -27.874694
Se 9.292560 15.472676 -24.778368
Se 9.292560 12.376350 -27.874694
Se 6.196234 12.376350 -18.585716
Se 6.196234 15.472676 -21.682042
Se 9.292560 15.472676 -18.585716
Se 9.292560 12.376350 -21.682042
Se 6.196234 12.376350 -12.393064
Se 6.196234 15.472676 -15.489390
Se 9.292560 15.472676 -12.393064
Se 9.292560 12.376350 -15.489390
Se 6.196234 12.376350 -6.200412
Se 6.196234 15.472676 -9.296738
Se 9.292560 15.472676 -6.200412
Se 9.292560 12.376350 -9.296738
Se 6.196234 12.376350 -0.007760
Se 6.196234 15.472676 -3.104086
Se 9.292560 15.472676 -0.007760
Se 9.292560 12.376350 -3.104086
Se 6.196234 12.376350 6.184892
Se 6.196234 15.472676 3.088566
Se 9.292560 15.472676 6.184892
Se 9.292560 12.376350 3.088566
Se 6.196234 12.376350 12.377544
Se 6.196234 15.472676 9.281218
Se 9.292560 15.472676 12.377544
Se 9.292560 12.376350 9.281218
Se 6.196234 12.376350 18.570196
Se 6.196234 15.472676 15.473870
Se 9.292560 15.472676 18.570196
Se 9.292560 12.376350 15.473870
Se 6.196234 12.376350 24.762848
Se 6.196234 15.472676 21.666522
Se 9.292560 15.472676 24.762848
Se 9.292560 12.376350 21.666522
Se 6.196234 15.472676 27.859174
Se 9.292560 12.376350 27.859174
Se 6.196234 18.569002 -24.778368
Se 6.196234 18.569002 -18.585716
Se 6.196234 21.665328 -21.682042
Se 9.292560 21.665328 -18.585716
Se 9.292560 18.569002 -21.682042
Se 6.196234 18.569002 -12.393064
Se 6.196234 21.665328 -15.489390
Se 9.292560 21.665328 -12.393064
Se 9.292560 18.569002 -15.489390
Se 6.196234 18.569002 -6.200412
Se 6.196234 21.665328 -9.296738
Se 9.292560 21.665328 -6.200412
Se 9.292560 18.569002 -9.296738
Se 6.196234 18.569002 -0.007760
Se 6.196234 21.665328 -3.104086
Se 9.292560 21.665328 -0.007760
Se 9.292560 18.569002 -3.104086
Se 6.196234 18.569002 6.184892
Se 6.196234 21.665328 3.088566
Se 9.292560 21.665328 6.184892
Se 9.292560 18.569002 3.088566
Se 6.196234 18.569002 12.377544
Se 6.196234 21.665328 9.281218
Se 9.292560 21.665328 12.377544
Se 9.292560 18.569002 9.281218
Se 6.196234 18.569002 18.570196
Se 6.196234 21.665328 15.473870
Se 9.292560 21.665328 18.570196
Se 9.292560 18.569002 15.473870
Se 6.196234 18.569002 24.762848
Se 6.196234 21.665328 21.666522
Se 9.292560 18.569002 21.666522
Se 6.196234 24.761654 -18.585716
Se 6.196234 24.761654 -12.393064
Se 6.196234 27.857980 -15.489390
Se 9.292560 27.857980 -12.393064
Se 9.292560 24.761654 -15.489390
Se 6.196234 24.761654 -6.200412
Se 6.196234 27.857980 -9.296738
Se 9.292560 27.857980 -6.200412
Se 9.292560 24.761654 -9.296738
Se 6.196234 24.761654 -0.007760
Se 6.196234 27.857980 -3.104086
Se 9.292560 27.857980 -0.007760
Se 9.292560 24.761654 -3.104086
Se 6.196234 24.761654 6.184892
Se 6.196234 27.857980 3.088566
Se 9.292560 27.857980 6.184892
Se 9.292560 24.761654 3.088566
Se 6.196234 24.761654 12.377544
Se 6.196234 27.857980 9.281218
Se 9.292560 27.857980 12.377544
Se 9.292560 24.761654 9.281218
Se 6.196234 24.761654 18.570196
Se 6.196234 27.857980 15.473870
Se 9.292560 24.761654 15.473870
Se 12.388886 -27.875888 -9.296738
Se 15.485212 -27.875888 -6.200412
Se 12.388886 -27.875888 -3.104086
Se 15.485212 -27.875888 -0.007760
Se 12.388886 -27.875888 3.088566
Se 15.485212 -27.875888 6.184892
Se 12.388886 -27.875888 9.281218
Se 12.388886 -24.779562 -18.585716
Se 12.388886 -24.779562 -12.393064
Se 12.388886 -21.683236 -15.489390
Se 15.485212 -21.683236 -12.393064
Se 12.388886 -24.779562 -6.200412
Se 12.388886 -21.683236 -9.296738
Se 15.485212 -21.683236 -6.200412
Se 15.485212 -24.779562 -9.296738
Se 12.388886 -24.779562 -0.007760
Se 12.388886 -21.683236 -3.104086
Se 15.485212 -21.683236 -0.007760
Se 15.485212 -24.779562 -3.104086
Se 12.388886 -24.779562 6.184892
Se 12.388886 -21.683236 3.088566
Se 15.485212 -21.683236 6.184892
Se 15.485212 -24.779562 3.088566
Se 12.388886 -24.779562 12.377544
Se 12.388886 -21.683236 9.281218
Se 15.485212 -21.683236 12.377544
Se 15.485212 -24.779562 9.281218
Se 12.388886 -21.683236 15.473870
Se 12.388886 -18.586910 -24.778368
Se 12.388886 -18.586910 -18.585716
Se 12.388886 -15.490584 -21.682042
Se 15.485212 -15.490584 -18.585716
Se 12.388886 -18.586910 -12.393064
Se 12.388886 -15.490584 -15.489390
Se 15.485212 -15.490584 -12.393064
Se 15.485212 -18.586910 -15.489390
Se 12.388886 -18.586910 -6.200412
Se 12.388886 -15.490584 -9.296738
Se 15.485212 -15.490584 -6.200412
Se 15.485212 -18.586910 -9.296738
Se 12.388886 -18.586910 -0.007760
Se 12.388886 -15.490584 -3.104086
Se 15.485212 -15.490584 -0.007760
Se 15.485212 -18.586910 -3.104086
Se 12.388886 -18.586910 6.184892
Se 12.388886 -15.490584 3.088566
Se 15.485212 -15.490584 6.184892
Se 15.485212 -18.586910 3.088566
Se 12.388886 -18.586910 12.377544
Se 12.388886 -15.490584 9.281218
Se 15.485212 -15.490584 12.377544
Se 15.485212 -18.586910 9.281218
Se 12.388886 -18.586910 18.570196
Se 12.388886 -15.490584 15.473870
Se 15.485212 -15.490584 18.570196
Se 15.485212 -18.586910 15.473870
Se 12.388886 -15.490584 21.666522
Se 12.388886 -12.394258 -24.778368
Se 12.388886 -9.297932 -27.874694
Se 15.485212 -9.297932 -24.778368
Se 12.388886 -12.394258 -18.585716
Se 12.388886 -9.297932 -21.682042
Se 15.485212 -9.297932 -18.585716
Se 15.485212 -12.394258 -21.682042
Se 12.388886 -12.394258 -12.393064
Se 12.388886 -9.297932 -15.489390
Se 15.485212 -9.297932 -12.393064
Se 15.485212 -12.394258 -15.489390
Se 12.388886 -12.394258 -6.200412
Se 12.388886 -9.297932 -9.296738
Se 15.485212 -9.297932 -6.200412
Se 15.485212 -12.394258 -9.296738
Se 12.388886 -12.394258 -0.007760
Se 12.388886 -9.297932 -3.104086
Se 15.485212 -9.297932 -0.007760
Se 15.485212 -12.394258 -3.104086
Se 12.388886 -12.394258 6.184892
Se 12.388886 -9.297932 3.088566
Se 15.485212 -9.297932 6.184892
Se 15.485212 -12.394258 3.088566
Se 12.388886 -12.394258 12.377544
Se 12.388886 -9.297932 9.281218
Se 15.485212 -9.297932 12.377544
Se 15.485212 -12.394258 9.281218
Se 12.388886 -12.394258 18.570196
Se 12.388886 -9.297932 15.473870
Se 15.485212 -9.297932 18.570196
Se 15.485212 -12.394258 15.473870
Se 12.388886 -12.394258 24.762848
Se 12.388886 -9.297932 21.666522
Se 15.485212 -9.297932 24.762848
Se 15.485212 -12.394258 21.666522
Se 12.388886 -9.297932 27.859174
Se 12.388886 -6.201606 -24.778368
Se 12.388886 -3.105280 -27.874694
Se 15.485212 -3.105280 -24.778368
Se 15.485212 -6.201606 -27.874694
Se 12.388886 -6.201606 -18.585716
Se 12.388886 -3.105280 -21.682042
Se 15.485212 -3.105280 -18.585716
Se 15.485212 -6.201606 -21.682042
Se 12.388886 -6.201606 -12.393064
Se 12.388886 -3.105280 -15.489390
Se 15.485212 -3.105280 -12.393064
Se 15.485212 -6.201606 -15.489390
Se 12.388886 -6.201606 -6.200412
Se 12.388886 -3.105280 -9.296738
Se 15.485212 -3.105280 -6.200412
Se 15.485212 -6.201606 -9.296738
Se 12.388886 -6.201606 -0.007760
Se 12.388886 -3.105280 -3.104086
Se 15.485212 -3.105280 -0.007760
Se 15.485212 -6.201606 -3.104086
Se 12.388886 -6.201606 6.184892
Se 12.388886 -3.105280 3.088566
Se 15.485212 -3.105280 6.184892
Se 15.485212 -6.201606 3.088566
Se 12.388886 -6.201606 12.377544
Se 12.388886 -3.105280 9.281218
Se 15.485212 -3.105280 12.377544
Se 15.485212 -6.201606 9.281218
Se 12.388886 -6.201606 18.570196
Se 12.388886 -3.105280 15.473870
Se 15.485212 -3.105280 18.570196
Se 15.485212 -6.201606 15.473870
Se 12.388886 -6.201606 24.762848
Se 12.388886 -3.105280 21.666522
Se 15.485212 -3.105280 24.762848
Se 15.485212 -6.201606 21.666522
Se 12.388886 -3.105280 27.859174
Se 15.485212 -6.201606 27.859174
Se 12.388886 -0.008954 -24.778368
Se 12.388886 3.087372 -27.874694
Se 15.485212 3.087372 -24.778368
Se 15.485212 -0.008954 -27.874694
Se 12.388886 -0.008954 -18.585716
Se 12.388886 3.087372 -21.682042
Se 15.485212 3.087372 -18.585716
Se 15.485212 -0.008954 -21.682042
Se 12.388886 -0.008954 -12.393064
Se 12.388886 3.087372 -15.489390
Se 15.485212 3.087372 -12.393064
Se 15.485212 -0.008954 -15.489390
Se 12.388886 -0.008954 -6.200412
Se 12.388886 3.087372 -9.296738
Se 15.485212 3.087372 -6.200412
Se 15.485212 -0.008954 -9.296738
Se 12.388886 -0.008954 -0.007760
Se 12.388886 3.087372 -3.104086
Se 15.485212 3.087372 -0.007760
Se 15.485212 -0.008954 -3.104086
Se 12.388886 -0.008954 6.184892
Se 12.388886 3.087372 3.088566
Se 15.485212 3.087372 6.184892
Se 15.485212 -0.008954 3.088566
Se 12.388886 -0.008954 12.377544
Se 12.388886 3.087372 9.281218
Se 15.485212 3.087372 12.377544
Se 15.485212 -0.008954 9.281218
Se 12.388886 -0.008954 18.570196
Se 12.388886 3.087372 15.473870
Se 15.485212 3.087372 18.570196
Se 15.485212 -0.008954 15.473870
Se 12.388886 -0.008954 24.762848
Se 12.388886 3.087372 21.666522
Se 15.485212 3.087372 24.762848
Se 15.485212 -0.008954 21.666522
Se 12.388886 3.087372 27.859174
Se 15.485212 -0.008954 27.859174
Se 12.388886 6.183698 -24.778368
Se 12.388886 9.280024 -27.874694
Se 15.485212 9.280024 -24.778368
Se 15.485212 6.183698 -27.874694
Se 12.388886 6.183698 -18.585716
Se 12.388886 9.280024 -21.682042
Se 15.485212 9.280024 -18.585716
Se 15.485212 6.183698 -21.682042
Se 12.388886 6.183698 -12.393064
Se 12.388886 9.280024 -15.489390
Se 15.485212 9.280024 -12.393064
Se 15.485212 6.183698 -15.489390
Se 12.388886 6.183698 -6.200412
Se 12.388886 9.280024 -9.296738
Se 15.485212 9.280024 -6.200412
Se 15.485212 6.183698 -9.296738
Se 12.388886 6.183698 -0.007760
Se 12.388886 9.280024 -3.104086
Se 15.485212 9.280024 -0.007760
Se 15.485212 6.183698 -3.104086
Se 12.388886 6.183698 6.184892
Se 12.388886 9.280024 3.088566
Se 15.485212 9.280024 6.184892
Se 15.485212 6.183698 3.088566
Se 12.388886 6.183698 12.377544
Se 12.388886 9.280024 9.281218
Se 15.485212 9.280024 12.377544
Se 15.485212 6.183698 9.281218
Se 12.388886 6.183698 18.570196
Se 12.388886 9.280024 15.473870
Se 15.485212 9.280024 18.570196
Se 15.485212 6.183698 15.473870
Se 12.388886 6.183698 24.762848
Se 12.388886 9.280024 21.666522
Se 15.485212 9.280024 24.762848
Se 15.485212 6.183698 21.666522
Se 12.388886 9.280024 27.859174
Se 15.485212 6.183698 27.859174
Se 12.388886 12.376350 -24.778368
Se 12.388886 12.376350 -18.585716
Se 12.388886 15.472676 -21.682042
Se 15.485212 15.472676 -18.585716
Se 15.485212 12.376350 -21.682042
Se 12.388886 12.376350 -12.393064
Se 12.388886 15.472676 -15.489390
Se 15.485212 15.472676 -12.393064
Se 15.485212 12.376350 -15.489390
Se 12.388886 12.376350 -6.200412
Se 12.388886 15.472676 -9.296738
Se 15.485212 15.472676 -6.200412
Se 15.485212 12.376350 -9.296738
Se 12.388886 12.376350 -0.007760
Se 12.388886 15.472676 -3.104086
Se 15.485212 15.472676 -0.007760
Se 15.485212 12.376350 -3.104086
Se 12.388886 12.376350 6.184892
Se 12.388886 15.472676 3.088566
Se 15.485212 15.472676 6.184892
Se 15.485212 12.376350 3.088566
Se 12.388886 12.376350 12.377544
Se 12.388886 15.472676 9.281218
Se 15.485212 15.472676 12.377544
Se 15.485212 12.376350 9.281218
Se 12.388886 12.376350 18.570196
Se 12.388886 15.472676 15.473870
Se 15.485212 15.472676 18.570196
Se 15.485212 12.376350 15.473870
Se 12.388886 12.376350 24.762848
Se 12.388886 15.472676 21.666522
Se 15.485212 12.376350 21.666522
Se 12.388886 18.569002 -18.585716
Se 12.388886 18.569002 -12.393064
Se 12.388886 21.665328 -15.489390
Se 15.485212 21.665328 -12.393064
Se 15.485212 18.569002 -15.489390
Se 12.388886 18.569002 -6.200412
Se 12.388886 21.665328 -9.296738
Se 15.485212 21.665328 -6.200412
Se 15.485212 18.569002 -9.296738
Se 12.388886 18.569002 -0.007760
Se 12.388886 21.665328 -3.104086
Se 15.485212 21.665328 -0.007760
Se 15.485212 18.569002 -3.104086
Se 12.388886 18.569002 6.184892
Se 12.388886 21.665328 3.088566
Se 15.485212 21.665328 6.184892
Se 15.485212 18.569002 3.088566
Se 12.388886 18.569002 12.377544
Se 12.388886 21.665328 9.281218
Se 15.485212 21.665328 12.377544
Se 15.485212 18.569002 9.281218
Se 12.388886 18.569002 18.570196
Se 12.388886 21.665328 15.473870
Se 15.485212 18.569002 15.473870
Se 12.388886 18.569002 24.762848
Se 12.388886 24.761654 -12.393064
Se 12.388886 24.761654 -6.200412
Se 12.388886 27.857980 -9.296738
Se 15.485212 27.857980 -6.200412
Se 15.485212 24.761654 -9.296738
Se 12.388886 24.761654 -0.007760
Se 12.388886 27.857980 -3.104086
Se 15.485212 27.857980 -0.007760
Se 15.485212 24.761654 -3.104086
Se 12.388886 24.761654 6.184892
Se 12.388886 27.857980 3.088566
Se 15.485212 27.857980 6.184892
Se 15.485212 24.761654 3.088566
Se 12.388886 24.761654 12.377544
Se 12.388886 27.857980 9.281218
Se 15.485212 24.761654 9.281218
Se 12.388886 24.761654 18.570196
Se 18.581538 -24.779562 -12.393064
Se 18.581538 -24.779562 -6.200412
Se 18.581538 -21.683236 -9.296738
Se 21.677864 -21.683236 -6.200412
Se 18.581538 -24.779562 -0.007760
Se 18.581538 -21.683236 -3.104086
Se 21.677864 -21.683236 -0.007760
Se 18.581538 -24.779562 6.184892
Se 18.581538 -21.683236 3.088566
Se 21.677864 -21.683236 6.184892
Se 18.581538 -21.683236 9.281218
Se 18.581538 -18.586910 -18.585716
Se 18.581538 -18.586910 -12.393064
Se 18.581538 -15.490584 -15.489390
Se 21.677864 -15.490584 -12.393064
Se 18.581538 -18.586910 -6.200412
Se 18.581538 -15.490584 -9.296738
Se 21.677864 -15.490584 -6.200412
Se 21.677864 -18.586910 -9.296738
Se 18.581538 -18.586910 -0.007760
Se 18.581538 -15.490584 -3.104086
Se 21.677864 -15.490584 -0.007760
Se 21.677864 -18.586910 -3.104086
Se 18.581538 -18.586910 6.184892
Se 18.581538 -15.490584 3.088566
Se 21.677864 -15.490584 6.184892
Se 21.677864 -18.586910 3.088566
Se 18.581538 -18.586910 12.377544
Se 18.581538 -15.490584 9.281218
Se 21.677864 -15.490584 12.377544
Se 21.677864 -18.586910 9.281218
Se 18.581538 -15.490584 15.473870
Se 18.581538 -12.394258 -24.778368
Se 18.581538 -12.394258 -18.585716
Se 18.581538 -9.297932 -21.682042
Se 21.677864 -9.297932 -18.585716
Se 18.581538 -12.394258 -12.393064
Se 18.581538 -9.297932 -15.489390
Se 21.677864 -9.297932 -12.393064
Se 21.677864 -12.394258 -15.489390
Se 18.581538 -12.394258 -6.200412
Se 18.581538 -9.297932 -9.296738
Se 21.677864 -9.297932 -6.200412
Se 21.677864 -12.394258 -9.296738
Se 18.581538 -12.394258 -0.007760
Se 18.581538 -9.297932 -3.104086
Se 21.677864 -9.297932 -0.007760
Se 21.677864 -12.394258 -3.104086
Se 18.581538 -12.394258 6.184892
Se 18.581538 -9.297932 3.088566
Se 21.677864 -9.297932 6.184892
Se 21.677864 -12.394258 3.088566
Se 18.581538 -12.394258 12.377544
Se 18.581538 -9.297932 9.281218
Se 21.677864 -9.297932 12.377544
Se 21.677864 -12.394258 9.281218
Se 18.581538 -12.394258 18.570196
Se 18.581538 -9.297932 15.473870
Se 21.677864 -9.297932 18.570196
Se 21.677864 -12.394258 15.473870
Se 18.581538 -9.297932 21.666522
Se 18.581538 -6.201606 -24.778368
Se 18.581538 -6.201606 -18.585716
Se 18.581538 -3.105280 -21.682042
Se 21.677864 -3.105280 -18.585716
Se 21.677864 -6.201606 -21.682042
Se 18.581538 -6.201606 -12.393064
Se 18.581538 -3.105280 -15.489390
Se 21.677864 -3.105280 -12.393064
Se 21.677864 -6.201606 -15.489390
Se 18.581538 -6.201606 -6.200412
Se 18.581538 -3.105280 -9.296738
Se 21.677864 -3.105280 -6.200412
Se 21.677864 -6.201606 -9.296738
Se 18.581538 -6.201606 -0.007760
Se 18.581538 -3.105280 -3.104086
Se 21.677864 -3.105280 -0.007760
Se 21.677864 -6.201606 -3.104086
Se 18.581538 -6.201606 6.184892
Se 18.581538 -3.105280 3.088566
Se 21.677864 -3.105280 6.184892
Se 21.677864 -6.201606 3.088566
Se 18.581538 -6.201606 12.377544
Se 18.581538 -3.105280 9.281218
Se 21.677864 -3.105280 12.377544
Se 21.677864 -6.201606 9.281218
Se 18.581538 -6.201606 18.570196
Se 18.581538 -3.105280 15.473870
Se 21.677864 -3.105280 18.570196
Se 21.677864 -6.201606 15.473870
Se 18.581538 -6.201606 24.762848
Se 18.581538 -3.105280 21.666522
Se 21.677864 -6.201606 21.666522
Se 18.581538 -0.008954 -24.778368
Se 18.581538 -0.008954 -18.585716
Se 18.581538 3.087372 -21.682042
Se 21.677864 3.087372 -18.585716
Se 21.677864 -0.008954 -21.682042
Se 18.581538 -0.008954 -12.393064
Se 18.581538 3.087372 -15.489390
Se 21.677864 3.087372 -12.393064
Se 21.677864 -0.008954 -15.489390
Se 18.581538 -0.008954 -6.200412
Se 18.581538 3.087372 -9.296738
Se 21.677864 3.087372 -6.200412
Se 21.677864 -0.008954 -9.296738
Se 18.581538 -0.008954 -0.007760
Se 18.581538 3.087372 -3.104086
Se 21.677864 3.087372 -0.007760
Se 21.677864 -0.008954 -3.104086
Se 18.581538 -0.008954 6.184892
Se 18.581538 3.087372 3.088566
Se 21.677864 3.087372 6.184892
Se 21.677864 -0.008954 3.088566
Se 18.581538 -0.008954 12.377544
Se 18.581538 3.087372 9.281218
Se 21.677864 3.087372 12.377544
Se 21.677864 -0.008954 9.281218
Se 18.581538 -0.008954 18.570196
Se 18.581538 3.087372 15.473870
Se 21.677864 3.087372 18.570196
Se 21.677864 -0.008954 15.473870
Se 18.581538 -0.008954 24.762848
Se 18.581538 3.087372 21.666522
Se 21.677864 -0.008954 21.666522
Se 18.581538 6.183698 -24.778368
Se 18.581538 6.183698 -18.585716
Se 18.581538 9.280024 -21.682042
Se 21.677864 9.280024 -18.585716
Se 21.677864 6.183698 -21.682042
Se 18.581538 6.183698 -12.393064
Se 18.581538 9.280024 -15.489390
Se 21.677864 9.280024 -12.393064
Se 21.677864 6.183698 -15.489390
Se 18.581538 6.183698 -6.200412
Se 18.581538 9.280024 -9.296738
Se 21.677864 9.280024 -6.200412
Se 21.677864 6.183698 -9.296738
Se 18.581538 6.183698 -0.007760
Se 18.581538 9.280024 -3.104086
Se 21.677864 9.280024 -0.007760
Se 21.677864 6.183698 -3.104086
Se 18.581538 6.183698 6.184892
Se 18.581538 9.280024 3.088566
Se 21.677864 9.280024 6.184892
Se 21.677864 6.183698 3.088566
Se 18.581538 6.183698 12.377544
Se 18.581538 9.280024 9.281218
Se 21.677864 9.280024 12.377544
Se 21.677864 6.183698 9.281218
Se 18.581538 6.183698 18.570196
Se 18.581538 9.280024 15.473870
Se 21.677864 9.280024 18.570196
Se 21.677864 6.183698 15.473870
Se 18.581538 6.183698 24.762848
Se 18.581538 9.280024 21.666522
Se 21.677864 6.183698 21.666522
Se 18.581538 12.376350 -18.585716
Se 18.581538 12.376350 -12.393064
Se 18.581538 15.472676 -15.489390
Se 21.677864 15.472676 -12.393064
Se 21.677864 12.376350 -15.489390
Se 18.581538 12.376350 -6.200412
Se 18.581538 15.472676 -9.296738
Se 21.677864 15.472676 -6.200412
Se 21.677864 12.376350 -9.296738
Se 18.581538 12.376350 -0.007760
Se 18.581538 15.472676 -3.104086
Se 21.677864 15.472676 -0.007760
Se 21.677864 12.376350 -3.104086
Se 18.581538 12.376350 6.184892
Se 18.581538 15.472676 3.088566
Se 21.677864 15.472676 6.184892
Se 21.677864 12.376350 3.088566
Se 18.581538 12.376350 12.377544
Se 18.581538 15.472676 9.281218
Se 21.677864 15.472676 12.377544
Se 21.677864 12.376350 9.281218
Se 18.581538 12.376350 18.570196
Se 18.581538 15.472676 15.473870
Se 21.677864 12.376350 15.473870
Se 18.581538 12.376350 24.762848
Se 18.581538 18.569002 -12.393064
Se 18.581538 18.569002 -6.200412
Se 18.581538 21.665328 -9.296738
Se 21.677864 21.665328 -6.200412
Se 21.677864 18.569002 -9.296738
Se 18.581538 18.569002 -0.007760
Se 18.581538 21.665328 -3.104086
Se 21.677864 21.665328 -0.007760
Se 21.677864 18.569002 -3.104086
Se 18.581538 18.569002 6.184892
Se 18.581538 21.665328 3.088566
Se 21.677864 21.665328 6.184892
Se 21.677864 18.569002 3.088566
Se 18.581538 18.569002 12.377544
Se 18.581538 21.665328 9.281218
Se 21.677864 18.569002 9.281218
Se 18.581538 18.569002 18.570196
Se 18.581538 24.761654 -6.200412
Se 18.581538 24.761654 -0.007760
Se 18.581538 24.761654 6.184892
Se 18.581538 24.761654 12.377544
Se 24.774190 -18.586910 -12.393064
Se 24.774190 -18.586910 -6.200412
Se 24.774190 -15.490584 -9.296738
Se 27.870516 -15.490584 -6.200412
Se 24.774190 -18.586910 -0.007760
Se 24.774190 -15.490584 -3.104086
Se 27.870516 -15.490584 -0.007760
Se 24.774190 -18.586910 6.184892
Se 24.774190 -15.490584 3.088566
Se 27.870516 -15.490584 6.184892
Se 24.774190 -15.490584 9.281218
Se 24.774190 -12.394258 -18.585716
Se 24.774190 -12.394258 -12.393064
Se 24.774190 -9.297932 -15.489390
Se 27.870516 -9.297932 -12.393064
Se 24.774190 -12.394258 -6.200412
Se 24.774190 -9.297932 -9.296738
Se 27.870516 -9.297932 -6.200412
Se 27.870516 -12.394258 -9.296738
Se 24.774190 -12.394258 -0.007760
Se 24.774190 -9.297932 -3.104086
Se 27.870516 -9.297932 -0.007760
Se 27.870516 -12.394258 -3.104086
Se 24.774190 -12.394258 6.184892
Se 24.774190 -9.297932 3.088566
Se 27.870516 -9.297932 6.184892
Se 27.870516 -12.394258 3.088566
Se 24.774190 -12.394258 12.377544
Se 24.774190 -9.297932 9.281218
Se 27.870516 -9.297932 12.377544
Se 27.870516 -12.394258 9.281218
Se 24.774190 -9.297932 15.473870
Se 24.774190 -6.201606 -18.585716
Se 24.774190 -6.201606 -12.393064
Se 24.774190 -3.105280 -15.489390
Se 27.870516 -3.105280 -12.393064
Se 27.870516 -6.201606 -15.489390
Se 24.774190 -6.201606 -6.200412
Se 24.774190 -3.105280 -9.296738
Se 27.870516 -3.105280 -6.200412
Se 27.870516 -6.201606 -9.296738
Se 24.774190 -6.201606 -0.007760
Se 24.774190 -3.105280 -3.104086
Se 27.870516 -3.105280 -0.007760
Se 27.870516 -6.201606 -3.104086
Se 24.774190 -6.201606 6.184892
Se 24.774190 -3.105280 3.088566
Se 27.870516 -3.105280 6.184892
Se 27.870516 -6.201606 3.088566
Se 24.774190 -6.201606 12.377544
Se 24.774190 -3.105280 9.281218
Se 27.870516 -3.105280 12.377544
Se 27.870516 -6.201606 9.281218
Se 24.774190 -6.201606 18.570196
Se 24.774190 -3.105280 15.473870
Se 27.870516 -6.201606 15.473870
Se 24.774190 -0.008954 -18.585716
Se 24.774190 -0.008954 -12.393064
Se 24.774190 3.087372 -15.489390
Se 27.870516 3.087372 -12.393064
Se 27.870516 -0.008954 -15.489390
Se 24.774190 -0.008954 -6.200412
Se 24.774190 3.087372 -9.296738
Se 27.870516 3.087372 -6.200412
Se 27.870516 -0.008954 -9.296738
Se 24.774190 -0.008954 -0.007760
Se 24.774190 3.087372 -3.104086
Se 27.870516 3.087372 -0.007760
Se 27.870516 -0.008954 -3.104086
Se 24.774190 -0.008954 6.184892
Se 24.774190 3.087372 3.088566
Se 27.870516 3.087372 6.184892
Se 27.870516 -0.008954 3.088566
Se 24.774190 -0.008954 12.377544
Se 24.774190 3.087372 9.281218
Se 27.870516 3.087372 12.377544
Se 27.870516 -0.008954 9.281218
Se 24.774190 -0.008954 18.570196
Se 24.774190 3.087372 15.473870
Se 27.870516 -0.008954 15.473870
Se 24.774190 6.183698 -18.585716
Se 24.774190 6.183698 -12.393064
Se 24.774190 9.280024 -15.489390
Se 27.870516 9.280024 -12.393064
Se 27.870516 6.183698 -15.489390
Se 24.774190 6.183698 -6.200412
Se 24.774190 9.280024 -9.296738
Se 27.870516 9.280024 -6.200412
Se 27.870516 6.183698 -9.296738
Se 24.774190 6.183698 -0.007760
Se 24.774190 9.280024 -3.104086
Se 27.870516 9.280024 -0.007760
Se 27.870516 6.183698 -3.104086
Se 24.774190 6.183698 6.184892
Se 24.774190 9.280024 3.088566
Se 27.870516 9.280024 6.184892
Se 27.870516 6.183698 3.088566
Se 24.774190 6.183698 12.377544
Se 24.774190 9.280024 9.281218
Se 27.870516 9.280024 12.377544
Se 27.870516 6.183698 9.281218
Se 24.774190 6.183698 18.570196
Se 24.774190 9.280024 15.473870
Se 27.870516 6.183698 15.473870
Se 24.774190 12.376350 -12.393064
Se 24.774190 12.376350 -6.200412
Se 24.774190 15.472676 -9.296738
Se 27.870516 15.472676 -6.200412
Se 27.870516 12.376350 -9.296738
Se 24.774190 12.376350 -0.007760
Se 24.774190 15.472676 -3.104086
Se 27.870516 15.472676 -0.007760
Se 27.870516 12.376350 -3.104086
Se 24.774190 12.376350 6.184892
Se 24.774190 15.472676 3.088566
Se 27.870516 15.472676 6.184892
Se 27.870516 12.376350 3.088566
Se 24.774190 12.376350 12.377544
Se 24.774190 15.472676 9.281218
Se 27.870516 12.376350 9.281218
Se 24.774190 12.376350 18.570196
Se 24.774190 18.569002 -6.200412
Se 24.774190 18.569002 -0.007760
Se 24.774190 18.569002 6.184892
Se 24.774190 18.569002 12.377544
Cl -27.863352 -15.490584 12.377544
Cl -30.959678 -12.394258 -6.200412
Cl -30.959678 -9.297932 -9.296738
Cl -30.959678 -12.394258 -0.007760
Cl -30.959678 -9.297932 -3.104086
Cl -30.959678 -12.394258 6.184892
Cl -30.959678 -9.297932 3.088566
Cl -30.959678 -12.394258 12.377544
Cl -30.959678 -9.297932 9.281218
Cl -27.863352 -12.394258 15.473870
Cl -30.959678 -6.201606 -12.393064
Cl -30.959678 -6.201606 -6.200412
Cl -30.959678 -3.105280 -9.296738
Cl -30.959678 -6.201606 -0.007760
Cl -30.959678 -3.105280 -3.104086
Cl -30.959678 -6.201606 6.184892
Cl -30.959678 -3.105280 3.088566
Cl -30.959678 -6.201606 12.377544
Cl -30.959678 -3.105280 9.281218
Cl -30.959678 -0.008954 -12.393064
Cl -30.959678 -0.008954 -6.200412
Cl -30.959678 3.087372 -9.296738
Cl -30.959678 -0.008954 -0.007760
Cl -30.959678 3.087372 -3.104086
Cl -30.959678 -0.008954 6.184892
Cl -30.959678 3.087372 3.088566
Cl -30.959678 -0.008954 12.377544
Cl -30.959678 3.087372 9.281218
Cl -30.959678 6.183698 -12.393064
Cl -30.959678 6.183698 -6.200412
Cl -30.959678 9.280024 -9.296738
Cl -30.959678 6.183698 -0.007760
Cl -30.959678 9.280024 -3.104086
Cl -30.959678 6.183698 6.184892
Cl -30.959678 9.280024 3.088566
Cl -30.959678 6.183698 12.377544
Cl -30.959678 9.280024 9.281218
Cl -30.959678 12.376350 -12.393064
Cl -27.863352 15.472676 -12.393064
Cl -27.863352 12.376350 -15.489390
Cl -30.959678 12.376350 -6.200412
Cl -30.959678 12.376350 -0.007760
Cl -30.959678 12.376350 6.184892
Cl -21.670700 -21.683236 12.377544
Cl -24.767026 -15.490584 15.473870
Cl -21.670700 -15.490584 18.570196
Cl -21.670700 -18.586910 15.473870
Cl -21.670700 -12.394258 21.666522
Cl -21.670700 15.472676 -18.585716
Cl -21.670700 12.376350 -21.682042
Cl -24.767026 15.472676 -15.489390
Cl -21.670700 21.665328 -12.393064
Cl -21.670700 18.569002 -15.489390
Cl -15.478048 -27.875888 12.377544
Cl -18.574374 -21.683236 15.473870
Cl -15.478048 -21.683236 18.570196
Cl -15.478048 -24.779562 15.473870
Cl -18.574374 -15.490584 21.666522
Cl -15.478048 -15.490584 24.762848
Cl -15.478048 -18.586910 21.666522
Cl -15.478048 -12.394258 27.859174
Cl -15.478048 15.472676 -24.778368
Cl -15.478048 12.376350 -27.874694
Cl -18.574374 15.472676 -21.682042
Cl -15.478048 21.665328 -18.585716
Cl -15.478048 18.569002 -21.682042
Cl -18.574374 21.665328 -15.489390
Cl -15.478048 27.857980 -12.393064
Cl -15.478048 24.761654 -15.489390
Cl -12.381722 -30.972214 -6.200412
Cl -9.285396 -30.972214 -9.296738
Cl -12.381722 -30.972214 -0.007760
Cl -9.285396 -30.972214 -3.104086
Cl -12.381722 -30.972214 6.184892
Cl -9.285396 -30.972214 3.088566
Cl -12.381722 -30.972214 12.377544
Cl -9.285396 -30.972214 9.281218
Cl -12.381722 -27.875888 15.473870
Cl -12.381722 -21.683236 21.666522
Cl -12.381722 -15.490584 27.859174
Cl -9.285396 -9.297932 -30.971020
Cl -12.381722 -12.394258 30.955500
Cl -9.285396 -9.297932 30.955500
Cl -12.381722 -6.201606 -30.971020
Cl -9.285396 -3.105280 -30.971020
Cl -12.381722 -6.201606 30.955500
Cl -9.285396 -3.105280 30.955500
Cl -12.381722 -0.008954 -30.971020
Cl -9.285396 3.087372 -30.971020
Cl -12.381722 -0.008954 30.955500
Cl -9.285396 3.087372 30.955500
Cl -12.381722 6.183698 -30.971020
Cl -9.285396 9.280024 -30.971020
Cl -12.381722 6.183698 30.955500
Cl -9.285396 9.280024 30.955500
Cl -12.381722 12.376350 -30.971020
Cl -12.381722 15.472676 -27.874694
Cl -12.381722 21.665328 -21.682042
Cl -12.381722 27.857980 -15.489390
Cl -12.381722 30.954306 -12.393064
Cl -12.381722 30.954306 -6.200412
Cl -9.285396 30.954306 -9.296738
Cl -12.381722 30.954306 -0.007760
Cl -9.285396 30.954306 -3.104086
Cl -12.381722 30.954306 6.184892
Cl -9.285396 30.954306 3.088566
Cl -9.285396 30.954306 9.281218
Cl -6.189070 -30.972214 -12.393064
Cl -6.189070 -30.972214 -6.200412
Cl -3.092744 -30.972214 -9.296738
Cl -6.189070 -30.972214 -0.007760
Cl -3.092744 -30.972214 -3.104086
Cl -6.189070 -30.972214 6.184892
Cl -3.092744 -30.972214 3.088566
Cl -6.189070 -30.972214 12.377544
Cl -3.092744 -30.972214 9.281218
Cl -6.189070 -12.394258 -30.971020
Cl -3.092744 -9.297932 -30.971020
Cl -6.189070 -12.394258 30.955500
Cl -3.092744 -9.297932 30.955500
Cl -6.189070 -6.201606 -30.971020
Cl -3.092744 -3.105280 -30.971020
Cl -6.189070 -6.201606 30.955500
Cl -3.092744 -3.105280 30.955500
Cl -6.189070 -0.008954 -30.971020
Cl -3.092744 3.087372 -30.971020
Cl -6.189070 -0.008954 30.955500
Cl -3.092744 3.087372 30.955500
Cl -6.189070 6.183698 -30.971020
Cl -3.092744 9.280024 -30.971020
Cl -6.189070 6.183698 30.955500
Cl -3.092744 9.280024 30.955500
Cl -6.189070 12.376350 -30.971020
Cl -6.189070 12.376350 30.955500
Cl -6.189070 30.954306 -12.393064
Cl -6.189070 30.954306 -6.200412
Cl -3.092744 30.954306 -9.296738
Cl -6.189070 30.954306 -0.007760
Cl -3.092744 30.954306 -3.104086
Cl -6.189070 30.954306 6.184892
Cl -3.092744 30.954306 3.088566
Cl -6.189070 30.954306 12.377544
Cl -3.092744 30.954306 9.281218
Cl 0.003582 -30.972214 -12.393064
Cl 0.003582 -30.972214 -6.200412
Cl 3.099908 -30.972214 -9.296738
Cl 0.003582 -30.972214 -0.007760
Cl 3.099908 -30.972214 -3.104086
Cl 0.003582 -30.972214 6.184892
Cl 3.099908 -30.972214 3.088566
Cl 0.003582 -30.972214 12.377544
Cl 3.099908 -30.972214 9.281218
Cl 0.003582 -12.394258 -30.971020
Cl 3.099908 -9.297932 -30.971020
Cl 0.003582 -12.394258 30.955500
Cl 3.099908 -9.297932 30.955500
Cl 0.003582 -6.201606 -30.971020
Cl 3.099908 -3.105280 -30.971020
Cl 0.003582 -6.201606 30.955500
Cl 3.099908 -3.105280 30.955500
Cl 0.003582 -0.008954 -30.971020
Cl 3.099908 3.087372 -30.971020
Cl 0.003582 -0.008954 30.955500
Cl 3.099908 3.087372 30.955500
Cl 0.003582 6.183698 -30.971020
Cl 3.099908 9.280024 -30.971020
Cl 0.003582 6.183698 30.955500
Cl 3.099908 9.280024 30.955500
Cl 0.003582 12.376350 -30.971020
Cl 0.003582 12.376350 30.955500
Cl 0.003582 30.954306 -12.393064
Cl 0.003582 30.954306 -6.200412
Cl 3.099908 30.954306 -9.296738
Cl 0.003582 30.954306 -0.007760
Cl 3.099908 30.954306 -3.104086
Cl 0.003582 30.954306 6.184892
Cl 3.099908 30.954306 3.088566
Cl 0.003582 30.954306 12.377544
Cl 3.099908 30.954306 9.281218
Cl 6.196234 -30.972214 -12.393064
Cl 6.196234 -30.972214 -6.200412
Cl 9.292560 -30.972214 -9.296738
Cl 6.196234 -30.972214 -0.007760
Cl 9.292560 -30.972214 -3.104086
Cl 6.196234 -30.972214 6.184892
Cl 9.292560 -30.972214 3.088566
Cl 6.196234 -30.972214 12.377544
Cl 9.292560 -30.972214 9.281218
Cl 6.196234 -12.394258 -30.971020
Cl 9.292560 -9.297932 -30.971020
Cl 6.196234 -12.394258 30.955500
Cl 9.292560 -9.297932 30.955500
Cl 6.196234 -6.201606 -30.971020
Cl 9.292560 -3.105280 -30.971020
Cl 6.196234 -6.201606 30.955500
Cl 9.292560 -3.105280 30.955500
Cl 6.196234 -0.008954 -30.971020
Cl 9.292560 3.087372 -30.971020
Cl 6.196234 -0.008954 30.955500
Cl 9.292560 3.087372 30.955500
Cl 6.196234 6.183698 -30.971020
Cl 9.292560 9.280024 -30.971020
Cl 6.196234 6.183698 30.955500
Cl 9.292560 9.280024 30.955500
Cl 6.196234 12.376350 -30.971020
Cl 6.196234 12.376350 30.955500
Cl 6.196234 30.954306 -12.393064
Cl 6.196234 30.954306 -6.200412
Cl 9.292560 30.954306 -9.296738
Cl 6.196234 30.954306 -0.007760
Cl 9.292560 30.954306 -3.104086
Cl 6.196234 30.954306 6.184892
Cl 9.292560 30.954306 3.088566
Cl 6.196234 30.954306 12.377544
Cl 9.292560 30.954306 9.281218
Cl 12.388886 -30.972214 -12.393064
Cl 12.388886 -27.875888 -15.489390
Cl 15.485212 -27.875888 -12.393064
Cl 12.388886 -30.972214 -6.200412
Cl 12.388886 -30.972214 -0.007760
Cl 12.388886 -30.972214 6.184892
Cl 12.388886 -21.683236 -21.682042
Cl 15.485212 -21.683236 -18.585716
Cl 15.485212 -24.779562 -15.489390
Cl 12.388886 -15.490584 -27.874694
Cl 15.485212 -15.490584 -24.778368
Cl 15.485212 -18.586910 -21.682042
Cl 12.388886 -12.394258 -30.971020
Cl 15.485212 -12.394258 -27.874694
Cl 12.388886 -6.201606 -30.971020
Cl 12.388886 -6.201606 30.955500
Cl 12.388886 -0.008954 -30.971020
Cl 12.388886 -0.008954 30.955500
Cl 12.388886 6.183698 -30.971020
Cl 12.388886 6.183698 30.955500
Cl 15.485212 15.472676 24.762848
Cl 12.388886 12.376350 30.955500
Cl 12.388886 15.472676 27.859174
Cl 15.485212 12.376350 27.859174
Cl 15.485212 21.665328 18.570196
Cl 12.388886 21.665328 21.666522
Cl 15.485212 18.569002 21.666522
Cl 15.485212 27.857980 12.377544
Cl 12.388886 27.857980 15.473870
Cl 15.485212 24.761654 15.473870
Cl 12.388886 30.954306 -6.200412
Cl 12.388886 30.954306 -0.007760
Cl 12.388886 30.954306 6.184892
Cl 12.388886 30.954306 12.377544
Cl 18.581538 -21.683236 -15.489390
Cl 21.677864 -21.683236 -12.393064
Cl 18.581538 -15.490584 -21.682042
Cl 21.677864 -15.490584 -18.585716
Cl 21.677864 -18.586910 -15.489390
Cl 21.677864 -12.394258 -21.682042
Cl 21.677864 15.472676 18.570196
Cl 18.581538 15.472676 21.666522
Cl 21.677864 12.376350 21.666522
Cl 21.677864 21.665328 12.377544
Cl 18.581538 21.665328 15.473870
Cl 21.677864 18.569002 15.473870
Cl 24.774190 -15.490584 -15.489390
Cl 27.870516 -15.490584 -12.393064
Cl 27.870516 -12.394258 -15.489390
Cl 27.870516 15.472676 12.377544
Cl 24.774190 15.472676 15.473870
Cl 27.870516 12.376350 15.473870
Cl 30.966842 -12.394258 -12.393064
Cl 30.966842 -12.394258 -6.200412
Cl 30.966842 -9.297932 -9.296738
Cl 30.966842 -12.394258 -0.007760
Cl 30.966842 -9.297932 -3.104086
Cl 30.966842 -12.394258 6.184892
Cl 30.966842 -9.297932 3.088566
Cl 30.966842 -9.297932 9.281218
Cl 30.966842 -6.201606 -12.393064
Cl 30.966842 -6.201606 -6.200412
Cl 30.966842 -3.105280 -9.296738
Cl 30.966842 -6.201606 -0.007760
Cl 30.966842 -3.105280 -3.104086
Cl 30.966842 -6.201606 6.184892
Cl 30.966842 -3.105280 3.088566
Cl 30.966842 -6.201606 12.377544
Cl 30.966842 -3.105280 9.281218
Cl 30.966842 -0.008954 -12.393064
Cl 30.966842 -0.008954 -6.200412
Cl 30.966842 3.087372 -9.296738
Cl 30.966842 -0.008954 -0.007760
Cl 30.966842 3.087372 -3.104086
Cl 30.966842 -0.008954 6.184892
Cl 30.966842 3.087372 3.088566
Cl 30.966842 -0.008954 12.377544
Cl 30.966842 3.087372 9.281218
Cl 30.966842 6.183698 -12.393064
Cl 30.966842 6.183698 -6.200412
Cl 30.966842 9.280024 -9.296738
Cl 30.966842 6.183698 -0.007760
Cl 30.966842 9.280024 -3.104086
Cl 30.966842 6.183698 6.184892
Cl 30.966842 9.280024 3.088566
Cl 30.966842 6.183698 12.377544
Cl 30.966842 9.280024 9.281218
Cl 30.966842 12.376350 -6.200412
Cl 30.966842 12.376350 -0.007760
Cl 30.966842 12.376350 6.184892
Cl 30.966842 12.376350 12.377544
Cl -24.767026 -21.683236 3.088566
Cl -24.767026 -9.297932 21.666522
Cl -24.767026 3.087372 -21.682042
Cl -24.767026 21.665328 -9.296738
Cl -9.285396 -24.779562 21.666522
Cl -9.285396 21.665328 -24.778368
Cl 3.099908 -24.779562 -21.682042
Cl 3.099908 21.665328 24.762848
Cl 21.677864 -24.779562 -9.296738
Cl 21.677864 -9.297932 -24.778368
Cl 21.677864 3.087372 24.762848
Cl 21.677864 24.761654 3.088566
Cl -15.478048 3.087372 30.955500
Cl -15.478048 30.954306 3.088566
Cl 3.099908 -15.490584 30.955500
Cl 3.099908 30.954306 -15.489390
Cl -21.670700 -12.394258 -18.585716
Cl -21.670700 18.569002 12.377544
Cl 15.485212 -18.586910 18.570196
Cl 15.485212 18.569002 -18.585716
Cl -9.285396 -27.875888 -15.489390
Cl -9.285396 15.472676 27.859174
Cl 27.870516 -15.490584 9.281218
Cl 27.870516 9.280024 -15.489390
Cl 15.485212 -9.297932 27.859174
Cl 15.485212 27.857980 -9.296738
Cl -21.670700 -21.683236 -9.296738
Cl -21.670700 9.280024 21.666522
Cl -9.285396 -18.586910 -24.778368
Cl -9.285396 24.761654 18.570196
Cl 9.292560 -27.875888 15.473870
Cl 9.292560 15.472676 -27.874694
Cl -15.478048 -9.297932 -27.874694
Cl -15.478048 27.857980 9.281218
Cl 24.774190 -9.297932 18.570196
Cl 24.774190 18.569002 -9.296738
