2406
InAs-As-In1052As901Cl453-reconstructed
In -25.955274 -13.733413 -13.748642
In -25.955274 -7.626289 -7.641519
In -25.955274 -10.679851 -10.695081
In -25.955274 -1.519166 -1.534396
In -25.955274 -4.572728 -4.587957
In -25.955274 4.587957 4.572728
In -25.955274 1.534396 1.519166
In -25.955274 10.695081 10.679851
In -25.955274 7.641519 7.626289
In -25.955274 13.748642 13.733413
In -19.848151 -19.840536 -13.748642
In -19.848151 -13.733413 -19.855766
In -22.901712 -16.786974 -13.748642
In -22.901712 -13.733413 -16.802204
In -19.848151 -13.733413 -13.748642
In -19.848151 -16.786974 -16.802204
In -22.901712 -13.733413 -10.695081
In -19.848151 -13.733413 -7.641519
In -19.848151 -16.786974 -10.695081
In -22.901712 -10.679851 -13.748642
In -19.848151 -7.626289 -13.748642
In -19.848151 -10.679851 -16.802204
In -22.901712 -10.679851 -7.641519
In -22.901712 -7.626289 -10.695081
In -19.848151 -7.626289 -7.641519
In -19.848151 -10.679851 -10.695081
In -22.901712 -7.626289 -4.587957
In -19.848151 -7.626289 -1.534396
In -19.848151 -10.679851 -4.587957
In -22.901712 -4.572728 -7.641519
In -19.848151 -1.519166 -7.641519
In -19.848151 -4.572728 -10.695081
In -22.901712 -4.572728 -1.534396
In -22.901712 -1.519166 -4.587957
In -19.848151 -1.519166 -1.534396
In -19.848151 -4.572728 -4.587957
In -22.901712 -1.519166 1.519166
In -19.848151 -1.519166 4.572728
In -19.848151 -4.572728 1.519166
In -22.901712 1.534396 -1.534396
In -19.848151 4.587957 -1.534396
In -19.848151 1.534396 -4.587957
In -22.901712 1.534396 4.572728
In -22.901712 4.587957 1.519166
In -19.848151 4.587957 4.572728
In -19.848151 1.534396 1.519166
In -22.901712 4.587957 7.626289
In -19.848151 4.587957 10.679851
In -19.848151 1.534396 7.626289
In -22.901712 7.641519 4.572728
In -19.848151 10.695081 4.572728
In -19.848151 7.641519 1.519166
In -22.901712 7.641519 10.679851
In -22.901712 10.695081 7.626289
In -19.848151 10.695081 10.679851
In -19.848151 7.641519 7.626289
In -22.901712 10.695081 13.733413
In -19.848151 10.695081 16.786974
In -19.848151 7.641519 13.733413
In -22.901712 13.748642 10.679851
In -19.848151 16.802204 10.679851
In -19.848151 13.748642 7.626289
In -22.901712 13.748642 16.786974
In -22.901712 16.802204 13.733413
In -19.848151 16.802204 16.786974
In -19.848151 13.748642 13.733413
In -19.848151 13.748642 19.840536
In -19.848151 19.855766 13.733413
In -13.741027 -25.947659 -13.748642
In -13.741027 -19.840536 -19.855766
In -16.794589 -22.894098 -13.748642
In -16.794589 -19.840536 -16.802204
In -13.741027 -19.840536 -13.748642
In -13.741027 -22.894098 -16.802204
In -16.794589 -19.840536 -10.695081
In -13.741027 -19.840536 -7.641519
In -13.741027 -13.733413 -25.962889
In -16.794589 -13.733413 -22.909327
In -13.741027 -13.733413 -19.855766
In -13.741027 -16.786974 -22.909327
In -16.794589 -16.786974 -13.748642
In -16.794589 -13.733413 -16.802204
In -13.741027 -13.733413 -13.748642
In -13.741027 -16.786974 -16.802204
In -16.794589 -16.786974 -7.641519
In -16.794589 -13.733413 -10.695081
In -13.741027 -13.733413 -7.641519
In -13.741027 -16.786974 -10.695081
In -16.794589 -13.733413 -4.587957
In -13.741027 -13.733413 -1.534396
In -13.741027 -16.786974 -4.587957
In -16.794589 -10.679851 -19.855766
In -13.741027 -7.626289 -19.855766
In -13.741027 -10.679851 -22.909327
In -16.794589 -10.679851 -13.748642
In -16.794589 -7.626289 -16.802204
In -13.741027 -7.626289 -13.748642
In -13.741027 -10.679851 -16.802204
In -16.794589 -10.679851 -7.641519
In -16.794589 -7.626289 -10.695081
In -13.741027 -7.626289 -7.641519
In -13.741027 -10.679851 -10.695081
In -16.794589 -10.679851 -1.534396
In -16.794589 -7.626289 -4.587957
In -13.741027 -7.626289 -1.534396
In -13.741027 -10.679851 -4.587957
In -16.794589 -7.626289 1.519166
In -13.741027 -7.626289 4.572728
In -13.741027 -10.679851 1.519166
In -16.794589 -4.572728 -13.748642
In -13.741027 -1.519166 -13.748642
In -13.741027 -4.572728 -16.802204
In -16.794589 -4.572728 -7.641519
In -16.794589 -1.519166 -10.695081
In -13.741027 -1.519166 -7.641519
In -13.741027 -4.572728 -10.695081
In -16.794589 -4.572728 -1.534396
In -16.794589 -1.519166 -4.587957
In -13.741027 -1.519166 -1.534396
In -13.741027 -4.572728 -4.587957
In -16.794589 -4.572728 4.572728
In -16.794589 -1.519166 1.519166
In -13.741027 -1.519166 4.572728
In -13.741027 -4.572728 1.519166
In -16.794589 -1.519166 7.626289
In -13.741027 -1.519166 10.679851
In -13.741027 -4.572728 7.626289
In -16.794589 1.534396 -7.641519
In -13.741027 4.587957 -7.641519
In -13.741027 1.534396 -10.695081
In -16.794589 1.534396 -1.534396
In -16.794589 4.587957 -4.587957
In -13.741027 4.587957 -1.534396
In -13.741027 1.534396 -4.587957
In -16.794589 1.534396 4.572728
In -16.794589 4.587957 1.519166
In -13.741027 4.587957 4.572728
In -13.741027 1.534396 1.519166
In -16.794589 1.534396 10.679851
In -16.794589 4.587957 7.626289
In -13.741027 4.587957 10.679851
In -13.741027 1.534396 7.626289
In -16.794589 4.587957 13.733413
In -13.741027 4.587957 16.786974
In -13.741027 1.534396 13.733413
In -16.794589 7.641519 -1.534396
In -13.741027 10.695081 -1.534396
In -13.741027 7.641519 -4.587957
In -16.794589 7.641519 4.572728
In -16.794589 10.695081 1.519166
In -13.741027 10.695081 4.572728
In -13.741027 7.641519 1.519166
In -16.794589 7.641519 10.679851
In -16.794589 10.695081 7.626289
In -13.741027 10.695081 10.679851
In -13.741027 7.641519 7.626289
In -16.794589 7.641519 16.786974
In -16.794589 10.695081 13.733413
In -13.741027 10.695081 16.786974
In -13.741027 7.641519 13.733413
In -16.794589 10.695081 19.840536
In -13.741027 10.695081 22.894098
In -13.741027 7.641519 19.840536
In -16.794589 13.748642 4.572728
In -13.741027 16.802204 4.572728
In -13.741027 13.748642 1.519166
In -16.794589 13.748642 10.679851
In -16.794589 16.802204 7.626289
In -13.741027 16.802204 10.679851
In -13.741027 13.748642 7.626289
In -16.794589 13.748642 16.786974
In -16.794589 16.802204 13.733413
In -13.741027 16.802204 16.786974
In -13.741027 13.748642 13.733413
In -16.794589 13.748642 22.894098
In -13.741027 16.802204 22.894098
In -13.741027 13.748642 19.840536
In -13.741027 13.748642 25.947659
In -16.794589 19.855766 10.679851
In -13.741027 19.855766 7.626289
In -16.794589 19.855766 16.786974
In -16.794589 22.909327 13.733413
In -13.741027 22.909327 16.786974
In -13.741027 19.855766 13.733413
In -13.741027 19.855766 19.840536
In -13.741027 25.962889 13.733413
In -10.687466 -25.947659 -10.695081
In -7.633904 -25.947659 -7.641519
In -10.687466 -22.894098 -13.748642
In -10.687466 -19.840536 -16.802204
In -7.633904 -19.840536 -13.748642
In -10.687466 -22.894098 -7.641519
In -10.687466 -19.840536 -10.695081
In -7.633904 -19.840536 -7.641519
In -7.633904 -22.894098 -10.695081
In -10.687466 -19.840536 -4.587957
In -7.633904 -19.840536 -1.534396
In -7.633904 -22.894098 -4.587957
In -10.687466 -16.786974 -19.855766
In -10.687466 -13.733413 -22.909327
In -7.633904 -13.733413 -19.855766
In -10.687466 -16.786974 -13.748642
In -10.687466 -13.733413 -16.802204
In -7.633904 -13.733413 -13.748642
In -7.633904 -16.786974 -16.802204
In -10.687466 -16.786974 -7.641519
In -10.687466 -13.733413 -10.695081
In -7.633904 -13.733413 -7.641519
In -7.633904 -16.786974 -10.695081
In -10.687466 -16.786974 -1.534396
In -10.687466 -13.733413 -4.587957
In -7.633904 -13.733413 -1.534396
In -7.633904 -16.786974 -4.587957
In -10.687466 -13.733413 1.519166
In -7.633904 -13.733413 4.572728
In -7.633904 -16.786974 1.519166
In -10.687466 -10.679851 -25.962889
In -7.633904 -7.626289 -25.962889
In -10.687466 -10.679851 -19.855766
In -10.687466 -7.626289 -22.909327
In -7.633904 -7.626289 -19.855766
In -7.633904 -10.679851 -22.909327
In -10.687466 -10.679851 -13.748642
In -10.687466 -7.626289 -16.802204
In -7.633904 -7.626289 -13.748642
In -7.633904 -10.679851 -16.802204
In -10.687466 -10.679851 -7.641519
In -10.687466 -7.626289 -10.695081
In -7.633904 -7.626289 -7.641519
In -7.633904 -10.679851 -10.695081
In -10.687466 -10.679851 -1.534396
In -10.687466 -7.626289 -4.587957
In -7.633904 -7.626289 -1.534396
In -7.633904 -10.679851 -4.587957
In -10.687466 -10.679851 4.572728
In -10.687466 -7.626289 1.519166
In -7.633904 -7.626289 4.572728
In -7.633904 -10.679851 1.519166
In -10.687466 -7.626289 7.626289
In -7.633904 -7.626289 10.679851
In -7.633904 -10.679851 7.626289
In -10.687466 -4.572728 -19.855766
In -7.633904 -1.519166 -19.855766
In -7.633904 -4.572728 -22.909327
In -10.687466 -4.572728 -13.748642
In -10.687466 -1.519166 -16.802204
In -7.633904 -1.519166 -13.748642
In -7.633904 -4.572728 -16.802204
In -10.687466 -4.572728 -7.641519
In -10.687466 -1.519166 -10.695081
In -7.633904 -1.519166 -7.641519
In -7.633904 -4.572728 -10.695081
In -10.687466 -4.572728 -1.534396
In -10.687466 -1.519166 -4.587957
In -7.633904 -1.519166 -1.534396
In -7.633904 -4.572728 -4.587957
In -10.687466 -4.572728 4.572728
In -10.687466 -1.519166 1.519166
In -7.633904 -1.519166 4.572728
In -7.633904 -4.572728 1.519166
In -10.687466 -4.572728 10.679851
In -10.687466 -1.519166 7.626289
In -7.633904 -1.519166 10.679851
In -7.633904 -4.572728 7.626289
In -10.687466 -1.519166 13.733413
In -7.633904 -1.519166 16.786974
In -7.633904 -4.572728 13.733413
In -10.687466 1.534396 -13.748642
In -7.633904 4.587957 -13.748642
In -7.633904 1.534396 -16.802204
In -10.687466 1.534396 -7.641519
In -10.687466 4.587957 -10.695081
In -7.633904 4.587957 -7.641519
In -7.633904 1.534396 -10.695081
In -10.687466 1.534396 -1.534396
In -10.687466 4.587957 -4.587957
In -7.633904 4.587957 -1.534396
In -7.633904 1.534396 -4.587957
In -10.687466 1.534396 4.572728
In -10.687466 4.587957 1.519166
In -7.633904 4.587957 4.572728
In -7.633904 1.534396 1.519166
In -10.687466 1.534396 10.679851
In -10.687466 4.587957 7.626289
In -7.633904 4.587957 10.679851
In -7.633904 1.534396 7.626289
In -10.687466 1.534396 16.786974
In -10.687466 4.587957 13.733413
In -7.633904 4.587957 16.786974
In -7.633904 1.534396 13.733413
In -10.687466 4.587957 19.840536
In -7.633904 4.587957 22.894098
In -7.633904 1.534396 19.840536
In -10.687466 7.641519 -7.641519
In -7.633904 10.695081 -7.641519
In -7.633904 7.641519 -10.695081
In -10.687466 7.641519 -1.534396
In -10.687466 10.695081 -4.587957
In -7.633904 10.695081 -1.534396
In -7.633904 7.641519 -4.587957
In -10.687466 7.641519 4.572728
In -10.687466 10.695081 1.519166
In -7.633904 10.695081 4.572728
In -7.633904 7.641519 1.519166
In -10.687466 7.641519 10.679851
In -10.687466 10.695081 7.626289
In -7.633904 10.695081 10.679851
In -7.633904 7.641519 7.626289
In -10.687466 7.641519 16.786974
In -10.687466 10.695081 13.733413
In -7.633904 10.695081 16.786974
In -7.633904 7.641519 13.733413
In -10.687466 7.641519 22.894098
In -10.687466 10.695081 19.840536
In -7.633904 10.695081 22.894098
In -7.633904 7.641519 19.840536
In -10.687466 10.695081 25.947659
In -7.633904 7.641519 25.947659
In -10.687466 13.748642 -1.534396
In -7.633904 16.802204 -1.534396
In -7.633904 13.748642 -4.587957
In -10.687466 13.748642 4.572728
In -10.687466 16.802204 1.519166
In -7.633904 16.802204 4.572728
In -7.633904 13.748642 1.519166
In -10.687466 13.748642 10.679851
In -10.687466 16.802204 7.626289
In -7.633904 16.802204 10.679851
In -7.633904 13.748642 7.626289
In -10.687466 13.748642 16.786974
In -10.687466 16.802204 13.733413
In -7.633904 16.802204 16.786974
In -7.633904 13.748642 13.733413
In -10.687466 13.748642 22.894098
In -10.687466 16.802204 19.840536
In -7.633904 13.748642 19.840536
In -10.687466 19.855766 4.572728
In -7.633904 22.909327 4.572728
In -7.633904 19.855766 1.519166
In -10.687466 19.855766 10.679851
In -10.687466 22.909327 7.626289
In -7.633904 22.909327 10.679851
In -7.633904 19.855766 7.626289
In -10.687466 19.855766 16.786974
In -10.687466 22.909327 13.733413
In -7.633904 19.855766 13.733413
In -10.687466 25.962889 10.679851
In -7.633904 25.962889 7.626289
In -4.580342 -25.947659 -4.587957
In -1.526781 -25.947659 -1.534396
In -4.580342 -22.894098 -7.641519
In -4.580342 -19.840536 -10.695081
In -1.526781 -19.840536 -7.641519
In -4.580342 -22.894098 -1.534396
In -4.580342 -19.840536 -4.587957
In -1.526781 -19.840536 -1.534396
In -1.526781 -22.894098 -4.587957
In -4.580342 -19.840536 1.519166
In -1.526781 -19.840536 4.572728
In -1.526781 -22.894098 1.519166
In -4.580342 -16.786974 -13.748642
In -4.580342 -13.733413 -16.802204
In -1.526781 -13.733413 -13.748642
In -4.580342 -16.786974 -7.641519
In -4.580342 -13.733413 -10.695081
In -1.526781 -13.733413 -7.641519
In -1.526781 -16.786974 -10.695081
In -4.580342 -16.786974 -1.534396
In -4.580342 -13.733413 -4.587957
In -1.526781 -13.733413 -1.534396
In -1.526781 -16.786974 -4.587957
In -4.580342 -16.786974 4.572728
In -4.580342 -13.733413 1.519166
In -1.526781 -13.733413 4.572728
In -1.526781 -16.786974 1.519166
In -4.580342 -13.733413 7.626289
In -1.526781 -13.733413 10.679851
In -1.526781 -16.786974 7.626289
In -4.580342 -10.679851 -19.855766
In -4.580342 -7.626289 -22.909327
In -1.526781 -7.626289 -19.855766
In -4.580342 -10.679851 -13.748642
In -4.580342 -7.626289 -16.802204
In -1.526781 -7.626289 -13.748642
In -1.526781 -10.679851 -16.802204
In -4.580342 -10.679851 -7.641519
In -4.580342 -7.626289 -10.695081
In -1.526781 -7.626289 -7.641519
In -1.526781 -10.679851 -10.695081
In -4.580342 -10.679851 -1.534396
In -4.580342 -7.626289 -4.587957
In -1.526781 -7.626289 -1.534396
In -1.526781 -10.679851 -4.587957
In -4.580342 -10.679851 4.572728
In -4.580342 -7.626289 1.519166
In -1.526781 -7.626289 4.572728
In -1.526781 -10.679851 1.519166
In -4.580342 -10.679851 10.679851
In -4.580342 -7.626289 7.626289
In -1.526781 -7.626289 10.679851
In -1.526781 -10.679851 7.626289
In -4.580342 -7.626289 13.733413
In -1.526781 -7.626289 16.786974
In -1.526781 -10.679851 13.733413
In -4.580342 -4.572728 -25.962889
In -1.526781 -1.519166 -25.962889
In -4.580342 -4.572728 -19.855766
In -4.580342 -1.519166 -22.909327
In -1.526781 -1.519166 -19.855766
In -1.526781 -4.572728 -22.909327
In -4.580342 -4.572728 -13.748642
In -4.580342 -1.519166 -16.802204
In -1.526781 -1.519166 -13.748642
In -1.526781 -4.572728 -16.802204
In -4.580342 -4.572728 -7.641519
In -4.580342 -1.519166 -10.695081
In -1.526781 -1.519166 -7.641519
In -1.526781 -4.572728 -10.695081
In -4.580342 -4.572728 -1.534396
In -4.580342 -1.519166 -4.587957
In -1.526781 -1.519166 -1.534396
In -1.526781 -4.572728 -4.587957
In -4.580342 -4.572728 4.572728
In -4.580342 -1.519166 1.519166
In -1.526781 -1.519166 4.572728
In -1.526781 -4.572728 1.519166
In -4.580342 -4.572728 10.679851
In -4.580342 -1.519166 7.626289
In -1.526781 -1.519166 10.679851
In -1.526781 -4.572728 7.626289
In -4.580342 -4.572728 16.786974
In -4.580342 -1.519166 13.733413
In -1.526781 -1.519166 16.786974
In -1.526781 -4.572728 13.733413
In -4.580342 -1.519166 19.840536
In -1.526781 -1.519166 22.894098
In -1.526781 -4.572728 19.840536
In -4.580342 1.534396 -19.855766
In -1.526781 4.587957 -19.855766
In -1.526781 1.534396 -22.909327
In -4.580342 1.534396 -13.748642
In -4.580342 4.587957 -16.802204
In -1.526781 4.587957 -13.748642
In -1.526781 1.534396 -16.802204
In -4.580342 1.534396 -7.641519
In -4.580342 4.587957 -10.695081
In -1.526781 4.587957 -7.641519
In -1.526781 1.534396 -10.695081
In -4.580342 1.534396 -1.534396
In -4.580342 4.587957 -4.587957
In -1.526781 4.587957 -1.534396
In -1.526781 1.534396 -4.587957
In -4.580342 1.534396 4.572728
In -4.580342 4.587957 1.519166
In -1.526781 4.587957 4.572728
In -1.526781 1.534396 1.519166
In -4.580342 1.534396 10.679851
In -4.580342 4.587957 7.626289
In -1.526781 4.587957 10.679851
In -1.526781 1.534396 7.626289
In -4.580342 1.534396 16.786974
In -4.580342 4.587957 13.733413
In -1.526781 4.587957 16.786974
In -1.526781 1.534396 13.733413
In -4.580342 1.534396 22.894098
In -4.580342 4.587957 19.840536
In -1.526781 4.587957 22.894098
In -1.526781 1.534396 19.840536
In -4.580342 4.587957 25.947659
In -1.526781 1.534396 25.947659
In -4.580342 7.641519 -13.748642
In -1.526781 10.695081 -13.748642
In -1.526781 7.641519 -16.802204
In -4.580342 7.641519 -7.641519
In -4.580342 10.695081 -10.695081
In -1.526781 10.695081 -7.641519
In -1.526781 7.641519 -10.695081
In -4.580342 7.641519 -1.534396
In -4.580342 10.695081 -4.587957
In -1.526781 10.695081 -1.534396
In -1.526781 7.641519 -4.587957
In -4.580342 7.641519 4.572728
In -4.580342 10.695081 1.519166
In -1.526781 10.695081 4.572728
In -1.526781 7.641519 1.519166
In -4.580342 7.641519 10.679851
In -4.580342 10.695081 7.626289
In -1.526781 10.695081 10.679851
In -1.526781 7.641519 7.626289
In -4.580342 7.641519 16.786974
In -4.580342 10.695081 13.733413
In -1.526781 10.695081 16.786974
In -1.526781 7.641519 13.733413
In -4.580342 7.641519 22.894098
In -4.580342 10.695081 19.840536
In -1.526781 7.641519 19.840536
In -4.580342 13.748642 -7.641519
In -1.526781 16.802204 -7.641519
In -1.526781 13.748642 -10.695081
In -4.580342 13.748642 -1.534396
In -4.580342 16.802204 -4.587957
In -1.526781 16.802204 -1.534396
In -1.526781 13.748642 -4.587957
In -4.580342 13.748642 4.572728
In -4.580342 16.802204 1.519166
In -1.526781 16.802204 4.572728
In -1.526781 13.748642 1.519166
In -4.580342 13.748642 10.679851
In -4.580342 16.802204 7.626289
In -1.526781 16.802204 10.679851
In -1.526781 13.748642 7.626289
In -4.580342 13.748642 16.786974
In -4.580342 16.802204 13.733413
In -1.526781 13.748642 13.733413
In -4.580342 19.855766 -1.534396
In -1.526781 22.909327 -1.534396
In -1.526781 19.855766 -4.587957
In -4.580342 19.855766 4.572728
In -4.580342 22.909327 1.519166
In -1.526781 22.909327 4.572728
In -1.526781 19.855766 1.519166
In -4.580342 19.855766 10.679851
In -4.580342 22.909327 7.626289
In -1.526781 19.855766 7.626289
In -4.580342 25.962889 4.572728
In -1.526781 25.962889 1.519166
In 1.526781 -25.947659 1.519166
In 4.580342 -25.947659 4.572728
In 1.526781 -22.894098 -1.534396
In 1.526781 -19.840536 -4.587957
In 4.580342 -19.840536 -1.534396
In 1.526781 -22.894098 4.572728
In 1.526781 -19.840536 1.519166
In 4.580342 -19.840536 4.572728
In 4.580342 -22.894098 1.519166
In 1.526781 -19.840536 7.626289
In 4.580342 -19.840536 10.679851
In 4.580342 -22.894098 7.626289
In 1.526781 -16.786974 -7.641519
In 1.526781 -13.733413 -10.695081
In 4.580342 -13.733413 -7.641519
In 1.526781 -16.786974 -1.534396
In 1.526781 -13.733413 -4.587957
In 4.580342 -13.733413 -1.534396
In 4.580342 -16.786974 -4.587957
In 1.526781 -16.786974 4.572728
In 1.526781 -13.733413 1.519166
In 4.580342 -13.733413 4.572728
In 4.580342 -16.786974 1.519166
In 1.526781 -16.786974 10.679851
In 1.526781 -13.733413 7.626289
In 4.580342 -13.733413 10.679851
In 4.580342 -16.786974 7.626289
In 1.526781 -13.733413 13.733413
In 4.580342 -13.733413 16.786974
In 4.580342 -16.786974 13.733413
In 1.526781 -10.679851 -13.748642
In 1.526781 -7.626289 -16.802204
In 4.580342 -7.626289 -13.748642
In 1.526781 -10.679851 -7.641519
In 1.526781 -7.626289 -10.695081
In 4.580342 -7.626289 -7.641519
In 4.580342 -10.679851 -10.695081
In 1.526781 -10.679851 -1.534396
In 1.526781 -7.626289 -4.587957
In 4.580342 -7.626289 -1.534396
In 4.580342 -10.679851 -4.587957
In 1.526781 -10.679851 4.572728
In 1.526781 -7.626289 1.519166
In 4.580342 -7.626289 4.572728
In 4.580342 -10.679851 1.519166
In 1.526781 -10.679851 10.679851
In 1.526781 -7.626289 7.626289
In 4.580342 -7.626289 10.679851
In 4.580342 -10.679851 7.626289
In 1.526781 -10.679851 16.786974
In 1.526781 -7.626289 13.733413
In 4.580342 -7.626289 16.786974
In 4.580342 -10.679851 13.733413
In 1.526781 -7.626289 19.840536
In 4.580342 -7.626289 22.894098
In 4.580342 -10.679851 19.840536
In 1.526781 -4.572728 -19.855766
In 1.526781 -1.519166 -22.909327
In 4.580342 -1.519166 -19.855766
In 1.526781 -4.572728 -13.748642
In 1.526781 -1.519166 -16.802204
In 4.580342 -1.519166 -13.748642
In 4.580342 -4.572728 -16.802204
In 1.526781 -4.572728 -7.641519
In 1.526781 -1.519166 -10.695081
In 4.580342 -1.519166 -7.641519
In 4.580342 -4.572728 -10.695081
In 1.526781 -4.572728 -1.534396
In 1.526781 -1.519166 -4.587957
In 4.580342 -1.519166 -1.534396
In 4.580342 -4.572728 -4.587957
In 1.526781 -4.572728 4.572728
In 1.526781 -1.519166 1.519166
In 4.580342 -1.519166 4.572728
In 4.580342 -4.572728 1.519166
In 1.526781 -4.572728 10.679851
In 1.526781 -1.519166 7.626289
In 4.580342 -1.519166 10.679851
In 4.580342 -4.572728 7.626289
In 1.526781 -4.572728 16.786974
In 1.526781 -1.519166 13.733413
In 4.580342 -1.519166 16.786974
In 4.580342 -4.572728 13.733413
In 1.526781 -4.572728 22.894098
In 1.526781 -1.519166 19.840536
In 4.580342 -1.519166 22.894098
In 4.580342 -4.572728 19.840536
In 1.526781 -1.519166 25.947659
In 4.580342 -4.572728 25.947659
In 1.526781 1.534396 -25.962889
In 4.580342 4.587957 -25.962889
In 1.526781 1.534396 -19.855766
In 1.526781 4.587957 -22.909327
In 4.580342 4.587957 -19.855766
In 4.580342 1.534396 -22.909327
In 1.526781 1.534396 -13.748642
In 1.526781 4.587957 -16.802204
In 4.580342 4.587957 -13.748642
In 4.580342 1.534396 -16.802204
In 1.526781 1.534396 -7.641519
In 1.526781 4.587957 -10.695081
In 4.580342 4.587957 -7.641519
In 4.580342 1.534396 -10.695081
In 1.526781 1.534396 -1.534396
In 1.526781 4.587957 -4.587957
In 4.580342 4.587957 -1.534396
In 4.580342 1.534396 -4.587957
In 1.526781 1.534396 4.572728
In 1.526781 4.587957 1.519166
In 4.580342 4.587957 4.572728
In 4.580342 1.534396 1.519166
In 1.526781 1.534396 10.679851
In 1.526781 4.587957 7.626289
In 4.580342 4.587957 10.679851
In 4.580342 1.534396 7.626289
In 1.526781 1.534396 16.786974
In 1.526781 4.587957 13.733413
In 4.580342 4.587957 16.786974
In 4.580342 1.534396 13.733413
In 1.526781 1.534396 22.894098
In 1.526781 4.587957 19.840536
In 4.580342 1.534396 19.840536
In 1.526781 7.641519 -19.855766
In 4.580342 10.695081 -19.855766
In 4.580342 7.641519 -22.909327
In 1.526781 7.641519 -13.748642
In 1.526781 10.695081 -16.802204
In 4.580342 10.695081 -13.748642
In 4.580342 7.641519 -16.802204
In 1.526781 7.641519 -7.641519
In 1.526781 10.695081 -10.695081
In 4.580342 10.695081 -7.641519
In 4.580342 7.641519 -10.695081
In 1.526781 7.641519 -1.534396
In 1.526781 10.695081 -4.587957
In 4.580342 10.695081 -1.534396
In 4.580342 7.641519 -4.587957
In 1.526781 7.641519 4.572728
In 1.526781 10.695081 1.519166
In 4.580342 10.695081 4.572728
In 4.580342 7.641519 1.519166
In 1.526781 7.641519 10.679851
In 1.526781 10.695081 7.626289
In 4.580342 10.695081 10.679851
In 4.580342 7.641519 7.626289
In 1.526781 7.641519 16.786974
In 1.526781 10.695081 13.733413
In 4.580342 7.641519 13.733413
In 1.526781 13.748642 -13.748642
In 4.580342 16.802204 -13.748642
In 4.580342 13.748642 -16.802204
In 1.526781 13.748642 -7.641519
In 1.526781 16.802204 -10.695081
In 4.580342 16.802204 -7.641519
In 4.580342 13.748642 -10.695081
In 1.526781 13.748642 -1.534396
In 1.526781 16.802204 -4.587957
In 4.580342 16.802204 -1.534396
In 4.580342 13.748642 -4.587957
In 1.526781 13.748642 4.572728
In 1.526781 16.802204 1.519166
In 4.580342 16.802204 4.572728
In 4.580342 13.748642 1.519166
In 1.526781 13.748642 10.679851
In 1.526781 16.802204 7.626289
In 4.580342 13.748642 7.626289
In 1.526781 19.855766 -7.641519
In 4.580342 22.909327 -7.641519
In 4.580342 19.855766 -10.695081
In 1.526781 19.855766 -1.534396
In 1.526781 22.909327 -4.587957
In 4.580342 22.909327 -1.534396
In 4.580342 19.855766 -4.587957
In 1.526781 19.855766 4.572728
In 1.526781 22.909327 1.519166
In 4.580342 19.855766 1.519166
In 1.526781 25.962889 -1.534396
In 4.580342 25.962889 -4.587957
In 7.633904 -25.947659 7.626289
In 10.687466 -25.947659 10.679851
In 7.633904 -22.894098 4.572728
In 7.633904 -19.840536 1.519166
In 10.687466 -19.840536 4.572728
In 7.633904 -22.894098 10.679851
In 7.633904 -19.840536 7.626289
In 10.687466 -19.840536 10.679851
In 10.687466 -22.894098 7.626289
In 7.633904 -19.840536 13.733413
In 10.687466 -19.840536 16.786974
In 10.687466 -22.894098 13.733413
In 7.633904 -16.786974 -1.534396
In 7.633904 -13.733413 -4.587957
In 10.687466 -13.733413 -1.534396
In 7.633904 -16.786974 4.572728
In 7.633904 -13.733413 1.519166
In 10.687466 -13.733413 4.572728
In 10.687466 -16.786974 1.519166
In 7.633904 -16.786974 10.679851
In 7.633904 -13.733413 7.626289
In 10.687466 -13.733413 10.679851
In 10.687466 -16.786974 7.626289
In 7.633904 -16.786974 16.786974
In 7.633904 -13.733413 13.733413
In 10.687466 -13.733413 16.786974
In 10.687466 -16.786974 13.733413
In 7.633904 -13.733413 19.840536
In 10.687466 -13.733413 22.894098
In 10.687466 -16.786974 19.840536
In 7.633904 -10.679851 -7.641519
In 7.633904 -7.626289 -10.695081
In 10.687466 -7.626289 -7.641519
In 7.633904 -10.679851 -1.534396
In 7.633904 -7.626289 -4.587957
In 10.687466 -7.626289 -1.534396
In 10.687466 -10.679851 -4.587957
In 7.633904 -10.679851 4.572728
In 7.633904 -7.626289 1.519166
In 10.687466 -7.626289 4.572728
In 10.687466 -10.679851 1.519166
In 7.633904 -10.679851 10.679851
In 7.633904 -7.626289 7.626289
In 10.687466 -7.626289 10.679851
In 10.687466 -10.679851 7.626289
In 7.633904 -10.679851 16.786974
In 7.633904 -7.626289 13.733413
In 10.687466 -7.626289 16.786974
In 10.687466 -10.679851 13.733413
In 7.633904 -10.679851 22.894098
In 7.633904 -7.626289 19.840536
In 10.687466 -7.626289 22.894098
In 10.687466 -10.679851 19.840536
In 7.633904 -7.626289 25.947659
In 10.687466 -10.679851 25.947659
In 7.633904 -4.572728 -13.748642
In 7.633904 -1.519166 -16.802204
In 10.687466 -1.519166 -13.748642
In 7.633904 -4.572728 -7.641519
In 7.633904 -1.519166 -10.695081
In 10.687466 -1.519166 -7.641519
In 10.687466 -4.572728 -10.695081
In 7.633904 -4.572728 -1.534396
In 7.633904 -1.519166 -4.587957
In 10.687466 -1.519166 -1.534396
In 10.687466 -4.572728 -4.587957
In 7.633904 -4.572728 4.572728
In 7.633904 -1.519166 1.519166
In 10.687466 -1.519166 4.572728
In 10.687466 -4.572728 1.519166
In 7.633904 -4.572728 10.679851
In 7.633904 -1.519166 7.626289
In 10.687466 -1.519166 10.679851
In 10.687466 -4.572728 7.626289
In 7.633904 -4.572728 16.786974
In 7.633904 -1.519166 13.733413
In 10.687466 -1.519166 16.786974
In 10.687466 -4.572728 13.733413
In 7.633904 -4.572728 22.894098
In 7.633904 -1.519166 19.840536
In 10.687466 -4.572728 19.840536
In 7.633904 1.534396 -19.855766
In 7.633904 4.587957 -22.909327
In 10.687466 4.587957 -19.855766
In 7.633904 1.534396 -13.748642
In 7.633904 4.587957 -16.802204
In 10.687466 4.587957 -13.748642
In 10.687466 1.534396 -16.802204
In 7.633904 1.534396 -7.641519
In 7.633904 4.587957 -10.695081
In 10.687466 4.587957 -7.641519
In 10.687466 1.534396 -10.695081
In 7.633904 1.534396 -1.534396
In 7.633904 4.587957 -4.587957
In 10.687466 4.587957 -1.534396
In 10.687466 1.534396 -4.587957
In 7.633904 1.534396 4.572728
In 7.633904 4.587957 1.519166
In 10.687466 4.587957 4.572728
In 10.687466 1.534396 1.519166
In 7.633904 1.534396 10.679851
In 7.633904 4.587957 7.626289
In 10.687466 4.587957 10.679851
In 10.687466 1.534396 7.626289
In 7.633904 1.534396 16.786974
In 7.633904 4.587957 13.733413
In 10.687466 1.534396 13.733413
In 7.633904 7.641519 -25.962889
In 10.687466 10.695081 -25.962889
In 7.633904 7.641519 -19.855766
In 7.633904 10.695081 -22.909327
In 10.687466 10.695081 -19.855766
In 10.687466 7.641519 -22.909327
In 7.633904 7.641519 -13.748642
In 7.633904 10.695081 -16.802204
In 10.687466 10.695081 -13.748642
In 10.687466 7.641519 -16.802204
In 7.633904 7.641519 -7.641519
In 7.633904 10.695081 -10.695081
In 10.687466 10.695081 -7.641519
In 10.687466 7.641519 -10.695081
In 7.633904 7.641519 -1.534396
In 7.633904 10.695081 -4.587957
In 10.687466 10.695081 -1.534396
In 10.687466 7.641519 -4.587957
In 7.633904 7.641519 4.572728
In 7.633904 10.695081 1.519166
In 10.687466 10.695081 4.572728
In 10.687466 7.641519 1.519166
In 7.633904 7.641519 10.679851
In 7.633904 10.695081 7.626289
In 10.687466 7.641519 7.626289
In 7.633904 13.748642 -19.855766
In 10.687466 16.802204 -19.855766
In 10.687466 13.748642 -22.909327
In 7.633904 13.748642 -13.748642
In 7.633904 16.802204 -16.802204
In 10.687466 16.802204 -13.748642
In 10.687466 13.748642 -16.802204
In 7.633904 13.748642 -7.641519
In 7.633904 16.802204 -10.695081
In 10.687466 16.802204 -7.641519
In 10.687466 13.748642 -10.695081
In 7.633904 13.748642 -1.534396
In 7.633904 16.802204 -4.587957
In 10.687466 16.802204 -1.534396
In 10.687466 13.748642 -4.587957
In 7.633904 13.748642 4.572728
In 7.633904 16.802204 1.519166
In 10.687466 13.748642 1.519166
In 7.633904 19.855766 -13.748642
In 10.687466 22.909327 -13.748642
In 10.687466 19.855766 -16.802204
In 7.633904 19.855766 -7.641519
In 7.633904 22.909327 -10.695081
In 10.687466 22.909327 -7.641519
In 10.687466 19.855766 -10.695081
In 7.633904 19.855766 -1.534396
In 7.633904 22.909327 -4.587957
In 10.687466 19.855766 -4.587957
In 7.633904 25.962889 -7.641519
In 10.687466 25.962889 -10.695081
In 13.741027 -25.947659 13.733413
In 13.741027 -19.840536 7.626289
In 16.794589 -19.840536 10.679851
In 13.741027 -22.894098 16.786974
In 13.741027 -19.840536 13.733413
In 16.794589 -19.840536 16.786974
In 16.794589 -22.894098 13.733413
In 13.741027 -19.840536 19.840536
In 13.741027 -16.786974 4.572728
In 13.741027 -13.733413 1.519166
In 16.794589 -13.733413 4.572728
In 13.741027 -16.786974 10.679851
In 13.741027 -13.733413 7.626289
In 16.794589 -13.733413 10.679851
In 16.794589 -16.786974 7.626289
In 13.741027 -16.786974 16.786974
In 13.741027 -13.733413 13.733413
In 16.794589 -13.733413 16.786974
In 16.794589 -16.786974 13.733413
In 13.741027 -16.786974 22.894098
In 13.741027 -13.733413 19.840536
In 16.794589 -13.733413 22.894098
In 13.741027 -13.733413 25.947659
In 13.741027 -10.679851 -1.534396
In 13.741027 -7.626289 -4.587957
In 16.794589 -7.626289 -1.534396
In 13.741027 -10.679851 4.572728
In 13.741027 -7.626289 1.519166
In 16.794589 -7.626289 4.572728
In 16.794589 -10.679851 1.519166
In 13.741027 -10.679851 10.679851
In 13.741027 -7.626289 7.626289
In 16.794589 -7.626289 10.679851
In 16.794589 -10.679851 7.626289
In 13.741027 -10.679851 16.786974
In 13.741027 -7.626289 13.733413
In 16.794589 -7.626289 16.786974
In 16.794589 -10.679851 13.733413
In 13.741027 -10.679851 22.894098
In 13.741027 -7.626289 19.840536
In 16.794589 -10.679851 19.840536
In 13.741027 -4.572728 -7.641519
In 13.741027 -1.519166 -10.695081
In 16.794589 -1.519166 -7.641519
In 13.741027 -4.572728 -1.534396
In 13.741027 -1.519166 -4.587957
In 16.794589 -1.519166 -1.534396
In 16.794589 -4.572728 -4.587957
In 13.741027 -4.572728 4.572728
In 13.741027 -1.519166 1.519166
In 16.794589 -1.519166 4.572728
In 16.794589 -4.572728 1.519166
In 13.741027 -4.572728 10.679851
In 13.741027 -1.519166 7.626289
In 16.794589 -1.519166 10.679851
In 16.794589 -4.572728 7.626289
In 13.741027 -4.572728 16.786974
In 13.741027 -1.519166 13.733413
In 16.794589 -4.572728 13.733413
In 13.741027 1.534396 -13.748642
In 13.741027 4.587957 -16.802204
In 16.794589 4.587957 -13.748642
In 13.741027 1.534396 -7.641519
In 13.741027 4.587957 -10.695081
In 16.794589 4.587957 -7.641519
In 16.794589 1.534396 -10.695081
In 13.741027 1.534396 -1.534396
In 13.741027 4.587957 -4.587957
In 16.794589 4.587957 -1.534396
In 16.794589 1.534396 -4.587957
In 13.741027 1.534396 4.572728
In 13.741027 4.587957 1.519166
In 16.794589 4.587957 4.572728
In 16.794589 1.534396 1.519166
In 13.741027 1.534396 10.679851
In 13.741027 4.587957 7.626289
In 16.794589 1.534396 7.626289
In 13.741027 7.641519 -19.855766
In 13.741027 10.695081 -22.909327
In 16.794589 10.695081 -19.855766
In 13.741027 7.641519 -13.748642
In 13.741027 10.695081 -16.802204
In 16.794589 10.695081 -13.748642
In 16.794589 7.641519 -16.802204
In 13.741027 7.641519 -7.641519
In 13.741027 10.695081 -10.695081
In 16.794589 10.695081 -7.641519
In 16.794589 7.641519 -10.695081
In 13.741027 7.641519 -1.534396
In 13.741027 10.695081 -4.587957
In 16.794589 10.695081 -1.534396
In 16.794589 7.641519 -4.587957
In 13.741027 7.641519 4.572728
In 13.741027 10.695081 1.519166
In 16.794589 7.641519 1.519166
In 13.741027 13.748642 -25.962889
In 13.741027 13.748642 -19.855766
In 13.741027 16.802204 -22.909327
In 16.794589 13.748642 -22.909327
In 13.741027 13.748642 -13.748642
In 13.741027 16.802204 -16.802204
In 16.794589 16.802204 -13.748642
In 16.794589 13.748642 -16.802204
In 13.741027 13.748642 -7.641519
In 13.741027 16.802204 -10.695081
In 16.794589 16.802204 -7.641519
In 16.794589 13.748642 -10.695081
In 13.741027 13.748642 -1.534396
In 13.741027 16.802204 -4.587957
In 16.794589 13.748642 -4.587957
In 13.741027 19.855766 -19.855766
In 13.741027 19.855766 -13.748642
In 13.741027 22.909327 -16.802204
In 16.794589 22.909327 -13.748642
In 16.794589 19.855766 -16.802204
In 13.741027 19.855766 -7.641519
In 16.794589 19.855766 -10.695081
In 13.741027 25.962889 -13.748642
In 19.848151 -19.840536 13.733413
In 19.848151 -16.786974 10.679851
In 19.848151 -13.733413 7.626289
In 22.901712 -13.733413 10.679851
In 19.848151 -16.786974 16.786974
In 19.848151 -13.733413 13.733413
In 22.901712 -13.733413 16.786974
In 22.901712 -16.786974 13.733413
In 19.848151 -13.733413 19.840536
In 19.848151 -10.679851 4.572728
In 19.848151 -7.626289 1.519166
In 22.901712 -7.626289 4.572728
In 19.848151 -10.679851 10.679851
In 19.848151 -7.626289 7.626289
In 22.901712 -7.626289 10.679851
In 22.901712 -10.679851 7.626289
In 19.848151 -10.679851 16.786974
In 19.848151 -7.626289 13.733413
In 22.901712 -10.679851 13.733413
In 19.848151 -4.572728 -1.534396
In 19.848151 -1.519166 -4.587957
In 22.901712 -1.519166 -1.534396
In 19.848151 -4.572728 4.572728
In 19.848151 -1.519166 1.519166
In 22.901712 -1.519166 4.572728
In 22.901712 -4.572728 1.519166
In 19.848151 -4.572728 10.679851
In 19.848151 -1.519166 7.626289
In 22.901712 -4.572728 7.626289
In 19.848151 1.534396 -7.641519
In 19.848151 4.587957 -10.695081
In 22.901712 4.587957 -7.641519
In 19.848151 1.534396 -1.534396
In 19.848151 4.587957 -4.587957
In 22.901712 4.587957 -1.534396
In 22.901712 1.534396 -4.587957
In 19.848151 1.534396 4.572728
In 19.848151 4.587957 1.519166
In 22.901712 1.534396 1.519166
In 19.848151 7.641519 -13.748642
In 19.848151 10.695081 -16.802204
In 22.901712 10.695081 -13.748642
In 19.848151 7.641519 -7.641519
In 19.848151 10.695081 -10.695081
In 22.901712 10.695081 -7.641519
In 22.901712 7.641519 -10.695081
In 19.848151 7.641519 -1.534396
In 19.848151 10.695081 -4.587957
In 22.901712 7.641519 -4.587957
In 19.848151 13.748642 -19.855766
In 19.848151 13.748642 -13.748642
In 19.848151 16.802204 -16.802204
In 22.901712 16.802204 -13.748642
In 22.901712 13.748642 -16.802204
In 19.848151 13.748642 -7.641519
In 19.848151 16.802204 -10.695081
In 22.901712 13.748642 -10.695081
In 19.848151 19.855766 -13.748642
In 25.955274 -13.733413 13.733413
In 25.955274 -10.679851 10.679851
In 25.955274 -7.626289 7.626289
In 25.955274 -4.572728 4.572728
In 25.955274 -1.519166 1.519166
In 25.955274 1.534396 -1.534396
In 25.955274 4.587957 -4.587957
In 25.955274 7.641519 -7.641519
In 25.955274 10.695081 -10.695081
In 25.955274 13.748642 -13.748642
As -24.428493 -15.260193 -15.275423
As -21.374932 -15.260193 -12.221861
As -21.374932 -12.206632 -15.275423
As -24.428493 -12.206632 -12.221861
As -21.374932 -9.153070 -12.221861
As -21.374932 -12.206632 -9.168300
As -24.428493 -9.153070 -9.168300
As -21.374932 -9.153070 -6.114738
As -21.374932 -6.099508 -9.168300
As -24.428493 -6.099508 -6.114738
As -21.374932 -3.045947 -6.114738
As -21.374932 -6.099508 -3.061177
As -24.428493 -3.045947 -3.061177
As -21.374932 -3.045947 -0.007615
As -21.374932 0.007615 -3.061177
As -24.428493 0.007615 -0.007615
As -21.374932 3.061177 -0.007615
As -21.374932 0.007615 3.045947
As -24.428493 3.061177 3.045947
As -21.374932 3.061177 6.099508
As -21.374932 6.114738 3.045947
As -24.428493 6.114738 6.099508
As -21.374932 9.168300 6.099508
As -21.374932 6.114738 9.153070
As -24.428493 9.168300 9.153070
As -21.374932 9.168300 12.206632
As -21.374932 12.221861 9.153070
As -24.428493 12.221861 12.206632
As -21.374932 15.275423 12.206632
As -21.374932 12.221861 15.260193
As -24.428493 15.275423 15.260193
As -18.321370 -21.367317 -15.275423
As -15.267808 -21.367317 -12.221861
As -15.267808 -15.260193 -24.436108
As -15.267808 -15.260193 -18.328985
As -15.267808 -18.313755 -15.275423
As -18.321370 -15.260193 -15.275423
As -18.321370 -18.313755 -12.221861
As -15.267808 -15.260193 -12.221861
As -15.267808 -18.313755 -9.168300
As -18.321370 -15.260193 -9.168300
As -15.267808 -15.260193 -6.114738
As -15.267808 -12.206632 -21.382546
As -18.321370 -12.206632 -18.328985
As -15.267808 -9.153070 -18.328985
As -15.267808 -12.206632 -15.275423
As -18.321370 -9.153070 -15.275423
As -18.321370 -12.206632 -12.221861
As -15.267808 -9.153070 -12.221861
As -15.267808 -12.206632 -9.168300
As -18.321370 -9.153070 -9.168300
As -18.321370 -12.206632 -6.114738
As -15.267808 -9.153070 -6.114738
As -15.267808 -12.206632 -3.061177
As -18.321370 -9.153070 -3.061177
As -15.267808 -9.153070 -0.007615
As -15.267808 -6.099508 -15.275423
As -18.321370 -6.099508 -12.221861
As -15.267808 -3.045947 -12.221861
As -15.267808 -6.099508 -9.168300
As -18.321370 -3.045947 -9.168300
As -18.321370 -6.099508 -6.114738
As -15.267808 -3.045947 -6.114738
As -15.267808 -6.099508 -3.061177
As -18.321370 -3.045947 -3.061177
As -18.321370 -6.099508 -0.007615
As -15.267808 -3.045947 -0.007615
As -15.267808 -6.099508 3.045947
As -18.321370 -3.045947 3.045947
As -15.267808 -3.045947 6.099508
As -15.267808 0.007615 -9.168300
As -18.321370 0.007615 -6.114738
As -15.267808 3.061177 -6.114738
As -15.267808 0.007615 -3.061177
As -18.321370 3.061177 -3.061177
As -18.321370 0.007615 -0.007615
As -15.267808 3.061177 -0.007615
As -15.267808 0.007615 3.045947
As -18.321370 3.061177 3.045947
As -18.321370 0.007615 6.099508
As -15.267808 3.061177 6.099508
As -15.267808 0.007615 9.153070
As -18.321370 3.061177 9.153070
As -15.267808 3.061177 12.206632
As -15.267808 6.114738 -3.061177
As -18.321370 6.114738 -0.007615
As -15.267808 9.168300 -0.007615
As -15.267808 6.114738 3.045947
As -18.321370 9.168300 3.045947
As -18.321370 6.114738 6.099508
As -15.267808 9.168300 6.099508
As -15.267808 6.114738 9.153070
As -18.321370 9.168300 9.153070
As -18.321370 6.114738 12.206632
As -15.267808 9.168300 12.206632
As -15.267808 6.114738 15.260193
As -18.321370 9.168300 15.260193
As -15.267808 9.168300 18.313755
As -15.267808 12.221861 3.045947
As -18.321370 12.221861 6.099508
As -15.267808 15.275423 6.099508
As -15.267808 12.221861 9.153070
As -18.321370 15.275423 9.153070
As -18.321370 12.221861 12.206632
As -15.267808 15.275423 12.206632
As -15.267808 12.221861 15.260193
As -18.321370 15.275423 15.260193
As -18.321370 12.221861 18.313755
As -15.267808 15.275423 18.313755
As -15.267808 12.221861 21.367317
As -15.267808 15.275423 24.420878
As -15.267808 18.328985 9.153070
As -18.321370 18.328985 12.206632
As -15.267808 21.382546 12.206632
As -15.267808 18.328985 15.260193
As -18.321370 21.382546 15.260193
As -12.214247 -21.367317 -15.275423
As -12.214247 -24.420878 -12.221861
As -9.160685 -21.367317 -12.221861
As -9.160685 -24.420878 -9.168300
As -12.214247 -21.367317 -9.168300
As -9.160685 -21.367317 -6.114738
As -12.214247 -15.260193 -21.382546
As -12.214247 -18.313755 -18.328985
As -9.160685 -15.260193 -18.328985
As -9.160685 -18.313755 -15.275423
As -12.214247 -15.260193 -15.275423
As -12.214247 -18.313755 -12.221861
As -9.160685 -15.260193 -12.221861
As -9.160685 -18.313755 -9.168300
As -12.214247 -15.260193 -9.168300
As -12.214247 -18.313755 -6.114738
As -9.160685 -15.260193 -6.114738
As -9.160685 -18.313755 -3.061177
As -12.214247 -15.260193 -3.061177
As -9.160685 -15.260193 -0.007615
As -12.214247 -12.206632 -24.436108
As -9.160685 -9.153070 -24.436108
As -9.160685 -12.206632 -21.382546
As -12.214247 -9.153070 -21.382546
As -12.214247 -12.206632 -18.328985
As -9.160685 -9.153070 -18.328985
As -9.160685 -12.206632 -15.275423
As -12.214247 -9.153070 -15.275423
As -12.214247 -12.206632 -12.221861
As -9.160685 -9.153070 -12.221861
As -9.160685 -12.206632 -9.168300
As -12.214247 -9.153070 -9.168300
As -12.214247 -12.206632 -6.114738
As -9.160685 -9.153070 -6.114738
As -9.160685 -12.206632 -3.061177
As -12.214247 -9.153070 -3.061177
As -12.214247 -12.206632 -0.007615
As -9.160685 -9.153070 -0.007615
As -9.160685 -12.206632 3.045947
As -12.214247 -9.153070 3.045947
As -9.160685 -9.153070 6.099508
As -9.160685 -6.099508 -21.382546
As -12.214247 -6.099508 -18.328985
As -9.160685 -3.045947 -18.328985
As -9.160685 -6.099508 -15.275423
As -12.214247 -3.045947 -15.275423
As -12.214247 -6.099508 -12.221861
As -9.160685 -3.045947 -12.221861
As -9.160685 -6.099508 -9.168300
As -12.214247 -3.045947 -9.168300
As -12.214247 -6.099508 -6.114738
As -9.160685 -3.045947 -6.114738
As -9.160685 -6.099508 -3.061177
As -12.214247 -3.045947 -3.061177
As -12.214247 -6.099508 -0.007615
As -9.160685 -3.045947 -0.007615
As -9.160685 -6.099508 3.045947
As -12.214247 -3.045947 3.045947
As -12.214247 -6.099508 6.099508
As -9.160685 -3.045947 6.099508
As -9.160685 -6.099508 9.153070
As -12.214247 -3.045947 9.153070
As -9.160685 -3.045947 12.206632
As -9.160685 0.007615 -15.275423
As -12.214247 0.007615 -12.221861
As -9.160685 3.061177 -12.221861
As -9.160685 0.007615 -9.168300
As -12.214247 3.061177 -9.168300
As -12.214247 0.007615 -6.114738
As -9.160685 3.061177 -6.114738
As -9.160685 0.007615 -3.061177
As -12.214247 3.061177 -3.061177
As -12.214247 0.007615 -0.007615
As -9.160685 3.061177 -0.007615
As -9.160685 0.007615 3.045947
As -12.214247 3.061177 3.045947
As -12.214247 0.007615 6.099508
As -9.160685 3.061177 6.099508
As -9.160685 0.007615 9.153070
As -12.214247 3.061177 9.153070
As -12.214247 0.007615 12.206632
As -9.160685 3.061177 12.206632
As -9.160685 0.007615 15.260193
As -12.214247 3.061177 15.260193
As -9.160685 3.061177 18.313755
As -9.160685 6.114738 -9.168300
As -12.214247 6.114738 -6.114738
As -9.160685 9.168300 -6.114738
As -9.160685 6.114738 -3.061177
As -12.214247 9.168300 -3.061177
As -12.214247 6.114738 -0.007615
As -9.160685 9.168300 -0.007615
As -9.160685 6.114738 3.045947
As -12.214247 9.168300 3.045947
As -12.214247 6.114738 6.099508
As -9.160685 9.168300 6.099508
As -9.160685 6.114738 9.153070
As -12.214247 9.168300 9.153070
As -12.214247 6.114738 12.206632
As -9.160685 9.168300 12.206632
As -9.160685 6.114738 15.260193
As -12.214247 9.168300 15.260193
As -12.214247 6.114738 18.313755
As -9.160685 9.168300 18.313755
As -9.160685 6.114738 21.367317
As -12.214247 9.168300 21.367317
As -9.160685 9.168300 24.420878
As -9.160685 12.221861 -3.061177
As -12.214247 12.221861 -0.007615
As -9.160685 15.275423 -0.007615
As -9.160685 12.221861 3.045947
As -12.214247 15.275423 3.045947
As -12.214247 12.221861 6.099508
As -9.160685 15.275423 6.099508
As -9.160685 12.221861 9.153070
As -12.214247 15.275423 9.153070
As -12.214247 12.221861 12.206632
As -9.160685 15.275423 12.206632
As -9.160685 12.221861 15.260193
As -12.214247 15.275423 15.260193
As -12.214247 12.221861 18.313755
As -9.160685 15.275423 18.313755
As -9.160685 12.221861 21.367317
As -12.214247 15.275423 21.367317
As -12.214247 12.221861 24.420878
As -9.160685 18.328985 3.045947
As -12.214247 18.328985 6.099508
As -9.160685 21.382546 6.099508
As -9.160685 18.328985 9.153070
As -12.214247 21.382546 9.153070
As -12.214247 18.328985 12.206632
As -9.160685 21.382546 12.206632
As -9.160685 18.328985 15.260193
As -12.214247 21.382546 15.260193
As -12.214247 18.328985 18.313755
As -9.160685 24.436108 9.153070
As -12.214247 24.436108 12.206632
As -6.107123 -21.367317 -9.168300
As -6.107123 -24.420878 -6.114738
As -3.053562 -21.367317 -6.114738
As -3.053562 -24.420878 -3.061177
As -6.107123 -21.367317 -3.061177
As -3.053562 -21.367317 -0.007615
As -6.107123 -15.260193 -15.275423
As -6.107123 -18.313755 -12.221861
As -3.053562 -15.260193 -12.221861
As -3.053562 -18.313755 -9.168300
As -6.107123 -15.260193 -9.168300
As -6.107123 -18.313755 -6.114738
As -3.053562 -15.260193 -6.114738
As -3.053562 -18.313755 -3.061177
As -6.107123 -15.260193 -3.061177
As -6.107123 -18.313755 -0.007615
As -3.053562 -15.260193 -0.007615
As -3.053562 -18.313755 3.045947
As -6.107123 -15.260193 3.045947
As -3.053562 -15.260193 6.099508
As -6.107123 -9.153070 -21.382546
As -6.107123 -12.206632 -18.328985
As -3.053562 -9.153070 -18.328985
As -3.053562 -12.206632 -15.275423
As -6.107123 -9.153070 -15.275423
As -6.107123 -12.206632 -12.221861
As -3.053562 -9.153070 -12.221861
As -3.053562 -12.206632 -9.168300
As -6.107123 -9.153070 -9.168300
As -6.107123 -12.206632 -6.114738
As -3.053562 -9.153070 -6.114738
As -3.053562 -12.206632 -3.061177
As -6.107123 -9.153070 -3.061177
As -6.107123 -12.206632 -0.007615
As -3.053562 -9.153070 -0.007615
As -3.053562 -12.206632 3.045947
As -6.107123 -9.153070 3.045947
As -6.107123 -12.206632 6.099508
As -3.053562 -9.153070 6.099508
As -3.053562 -12.206632 9.153070
As -6.107123 -9.153070 9.153070
As -3.053562 -9.153070 12.206632
As -6.107123 -6.099508 -24.436108
As -3.053562 -3.045947 -24.436108
As -3.053562 -6.099508 -21.382546
As -6.107123 -3.045947 -21.382546
As -6.107123 -6.099508 -18.328985
As -3.053562 -3.045947 -18.328985
As -3.053562 -6.099508 -15.275423
As -6.107123 -3.045947 -15.275423
As -6.107123 -6.099508 -12.221861
As -3.053562 -3.045947 -12.221861
As -3.053562 -6.099508 -9.168300
As -6.107123 -3.045947 -9.168300
As -6.107123 -6.099508 -6.114738
As -3.053562 -3.045947 -6.114738
As -3.053562 -6.099508 -3.061177
As -6.107123 -3.045947 -3.061177
As -6.107123 -6.099508 -0.007615
As -3.053562 -3.045947 -0.007615
As -3.053562 -6.099508 3.045947
As -6.107123 -3.045947 3.045947
As -6.107123 -6.099508 6.099508
As -3.053562 -3.045947 6.099508
As -3.053562 -6.099508 9.153070
As -6.107123 -3.045947 9.153070
As -6.107123 -6.099508 12.206632
As -3.053562 -3.045947 12.206632
As -3.053562 -6.099508 15.260193
As -6.107123 -3.045947 15.260193
As -3.053562 -3.045947 18.313755
As -3.053562 0.007615 -21.382546
As -6.107123 0.007615 -18.328985
As -3.053562 3.061177 -18.328985
As -3.053562 0.007615 -15.275423
As -6.107123 3.061177 -15.275423
As -6.107123 0.007615 -12.221861
As -3.053562 3.061177 -12.221861
As -3.053562 0.007615 -9.168300
As -6.107123 3.061177 -9.168300
As -6.107123 0.007615 -6.114738
As -3.053562 3.061177 -6.114738
As -3.053562 0.007615 -3.061177
As -6.107123 3.061177 -3.061177
As -6.107123 0.007615 -0.007615
As -3.053562 3.061177 -0.007615
As -3.053562 0.007615 3.045947
As -6.107123 3.061177 3.045947
As -6.107123 0.007615 6.099508
As -3.053562 3.061177 6.099508
As -3.053562 0.007615 9.153070
As -6.107123 3.061177 9.153070
As -6.107123 0.007615 12.206632
As -3.053562 3.061177 12.206632
As -3.053562 0.007615 15.260193
As -6.107123 3.061177 15.260193
As -6.107123 0.007615 18.313755
As -3.053562 3.061177 18.313755
As -3.053562 0.007615 21.367317
As -6.107123 3.061177 21.367317
As -3.053562 3.061177 24.420878
As -3.053562 6.114738 -15.275423
As -6.107123 6.114738 -12.221861
As -3.053562 9.168300 -12.221861
As -3.053562 6.114738 -9.168300
As -6.107123 9.168300 -9.168300
As -6.107123 6.114738 -6.114738
As -3.053562 9.168300 -6.114738
As -3.053562 6.114738 -3.061177
As -6.107123 9.168300 -3.061177
As -6.107123 6.114738 -0.007615
As -3.053562 9.168300 -0.007615
As -3.053562 6.114738 3.045947
As -6.107123 9.168300 3.045947
As -6.107123 6.114738 6.099508
As -3.053562 9.168300 6.099508
As -3.053562 6.114738 9.153070
As -6.107123 9.168300 9.153070
As -6.107123 6.114738 12.206632
As -3.053562 9.168300 12.206632
As -3.053562 6.114738 15.260193
As -6.107123 9.168300 15.260193
As -6.107123 6.114738 18.313755
As -3.053562 9.168300 18.313755
As -3.053562 6.114738 21.367317
As -6.107123 9.168300 21.367317
As -6.107123 6.114738 24.420878
As -3.053562 12.221861 -9.168300
As -6.107123 12.221861 -6.114738
As -3.053562 15.275423 -6.114738
As -3.053562 12.221861 -3.061177
As -6.107123 15.275423 -3.061177
As -6.107123 12.221861 -0.007615
As -3.053562 15.275423 -0.007615
As -3.053562 12.221861 3.045947
As -6.107123 15.275423 3.045947
As -6.107123 12.221861 6.099508
As -3.053562 15.275423 6.099508
As -3.053562 12.221861 9.153070
As -6.107123 15.275423 9.153070
As -6.107123 12.221861 12.206632
As -3.053562 15.275423 12.206632
As -3.053562 12.221861 15.260193
As -6.107123 15.275423 15.260193
As -6.107123 12.221861 18.313755
As -3.053562 18.328985 -3.061177
As -6.107123 18.328985 -0.007615
As -3.053562 21.382546 -0.007615
As -3.053562 18.328985 3.045947
As -6.107123 21.382546 3.045947
As -6.107123 18.328985 6.099508
As -3.053562 21.382546 6.099508
As -3.053562 18.328985 9.153070
As -6.107123 21.382546 9.153070
As -6.107123 18.328985 12.206632
As -3.053562 24.436108 3.045947
As -6.107123 24.436108 6.099508
As -0.000000 -21.367317 -3.061177
As -0.000000 -24.420878 -0.007615
As 3.053562 -21.367317 -0.007615
As 3.053562 -24.420878 3.045947
As -0.000000 -21.367317 3.045947
As 3.053562 -21.367317 6.099508
As -0.000000 -15.260193 -9.168300
As -0.000000 -18.313755 -6.114738
As 3.053562 -15.260193 -6.114738
As 3.053562 -18.313755 -3.061177
As -0.000000 -15.260193 -3.061177
As -0.000000 -18.313755 -0.007615
As 3.053562 -15.260193 -0.007615
As 3.053562 -18.313755 3.045947
As -0.000000 -15.260193 3.045947
As -0.000000 -18.313755 6.099508
As 3.053562 -15.260193 6.099508
As 3.053562 -18.313755 9.153070
As -0.000000 -15.260193 9.153070
As 3.053562 -15.260193 12.206632
As -0.000000 -9.153070 -15.275423
As -0.000000 -12.206632 -12.221861
As 3.053562 -9.153070 -12.221861
As 3.053562 -12.206632 -9.168300
As -0.000000 -9.153070 -9.168300
As -0.000000 -12.206632 -6.114738
As 3.053562 -9.153070 -6.114738
As 3.053562 -12.206632 -3.061177
As -0.000000 -9.153070 -3.061177
As -0.000000 -12.206632 -0.007615
As 3.053562 -9.153070 -0.007615
As 3.053562 -12.206632 3.045947
As -0.000000 -9.153070 3.045947
As -0.000000 -12.206632 6.099508
As 3.053562 -9.153070 6.099508
As 3.053562 -12.206632 9.153070
As -0.000000 -9.153070 9.153070
As -0.000000 -12.206632 12.206632
As 3.053562 -9.153070 12.206632
As 3.053562 -12.206632 15.260193
As -0.000000 -9.153070 15.260193
As 3.053562 -9.153070 18.313755
As -0.000000 -3.045947 -21.382546
As -0.000000 -6.099508 -18.328985
As 3.053562 -3.045947 -18.328985
As 3.053562 -6.099508 -15.275423
As -0.000000 -3.045947 -15.275423
As -0.000000 -6.099508 -12.221861
As 3.053562 -3.045947 -12.221861
As 3.053562 -6.099508 -9.168300
As -0.000000 -3.045947 -9.168300
As -0.000000 -6.099508 -6.114738
As 3.053562 -3.045947 -6.114738
As 3.053562 -6.099508 -3.061177
As -0.000000 -3.045947 -3.061177
As -0.000000 -6.099508 -0.007615
As 3.053562 -3.045947 -0.007615
As 3.053562 -6.099508 3.045947
As -0.000000 -3.045947 3.045947
As -0.000000 -6.099508 6.099508
As 3.053562 -3.045947 6.099508
As 3.053562 -6.099508 9.153070
As -0.000000 -3.045947 9.153070
As -0.000000 -6.099508 12.206632
As 3.053562 -3.045947 12.206632
As 3.053562 -6.099508 15.260193
As -0.000000 -3.045947 15.260193
As -0.000000 -6.099508 18.313755
As 3.053562 -3.045947 18.313755
As 3.053562 -6.099508 21.367317
As -0.000000 -3.045947 21.367317
As 3.053562 -3.045947 24.420878
As -0.000000 0.007615 -24.436108
As 3.053562 3.061177 -24.436108
As 3.053562 0.007615 -21.382546
As -0.000000 3.061177 -21.382546
As -0.000000 0.007615 -18.328985
As 3.053562 3.061177 -18.328985
As 3.053562 0.007615 -15.275423
As -0.000000 3.061177 -15.275423
As -0.000000 0.007615 -12.221861
As 3.053562 3.061177 -12.221861
As 3.053562 0.007615 -9.168300
As -0.000000 3.061177 -9.168300
As -0.000000 0.007615 -6.114738
As 3.053562 3.061177 -6.114738
As 3.053562 0.007615 -3.061177
As -0.000000 3.061177 -3.061177
As -0.000000 0.007615 -0.007615
As 3.053562 3.061177 -0.007615
As 3.053562 0.007615 3.045947
As -0.000000 3.061177 3.045947
As -0.000000 0.007615 6.099508
As 3.053562 3.061177 6.099508
As 3.053562 0.007615 9.153070
As -0.000000 3.061177 9.153070
As -0.000000 0.007615 12.206632
As 3.053562 3.061177 12.206632
As 3.053562 0.007615 15.260193
As -0.000000 3.061177 15.260193
As -0.000000 0.007615 18.313755
As 3.053562 3.061177 18.313755
As 3.053562 0.007615 21.367317
As -0.000000 3.061177 21.367317
As -0.000000 0.007615 24.420878
As 3.053562 6.114738 -21.382546
As -0.000000 6.114738 -18.328985
As 3.053562 9.168300 -18.328985
As 3.053562 6.114738 -15.275423
As -0.000000 9.168300 -15.275423
As -0.000000 6.114738 -12.221861
As 3.053562 9.168300 -12.221861
As 3.053562 6.114738 -9.168300
As -0.000000 9.168300 -9.168300
As -0.000000 6.114738 -6.114738
As 3.053562 9.168300 -6.114738
As 3.053562 6.114738 -3.061177
As -0.000000 9.168300 -3.061177
As -0.000000 6.114738 -0.007615
As 3.053562 9.168300 -0.007615
As 3.053562 6.114738 3.045947
As -0.000000 9.168300 3.045947
As -0.000000 6.114738 6.099508
As 3.053562 9.168300 6.099508
As 3.053562 6.114738 9.153070
As -0.000000 9.168300 9.153070
As -0.000000 6.114738 12.206632
As 3.053562 9.168300 12.206632
As 3.053562 6.114738 15.260193
As -0.000000 9.168300 15.260193
As -0.000000 6.114738 18.313755
As 3.053562 12.221861 -15.275423
As -0.000000 12.221861 -12.221861
As 3.053562 15.275423 -12.221861
As 3.053562 12.221861 -9.168300
As -0.000000 15.275423 -9.168300
As -0.000000 12.221861 -6.114738
As 3.053562 15.275423 -6.114738
As 3.053562 12.221861 -3.061177
As -0.000000 15.275423 -3.061177
As -0.000000 12.221861 -0.007615
As 3.053562 15.275423 -0.007615
As 3.053562 12.221861 3.045947
As -0.000000 15.275423 3.045947
As -0.000000 12.221861 6.099508
As 3.053562 15.275423 6.099508
As 3.053562 12.221861 9.153070
As -0.000000 15.275423 9.153070
As -0.000000 12.221861 12.206632
As 3.053562 18.328985 -9.168300
As -0.000000 18.328985 -6.114738
As 3.053562 21.382546 -6.114738
As 3.053562 18.328985 -3.061177
As -0.000000 21.382546 -3.061177
As -0.000000 18.328985 -0.007615
As 3.053562 21.382546 -0.007615
As 3.053562 18.328985 3.045947
As -0.000000 21.382546 3.045947
As -0.000000 18.328985 6.099508
As 3.053562 24.436108 -3.061177
As -0.000000 24.436108 -0.007615
As 6.107123 -21.367317 3.045947
As 6.107123 -24.420878 6.099508
As 9.160685 -21.367317 6.099508
As 9.160685 -24.420878 9.153070
As 6.107123 -21.367317 9.153070
As 9.160685 -21.367317 12.206632
As 6.107123 -15.260193 -3.061177
As 6.107123 -18.313755 -0.007615
As 9.160685 -15.260193 -0.007615
As 9.160685 -18.313755 3.045947
As 6.107123 -15.260193 3.045947
As 6.107123 -18.313755 6.099508
As 9.160685 -15.260193 6.099508
As 9.160685 -18.313755 9.153070
As 6.107123 -15.260193 9.153070
As 6.107123 -18.313755 12.206632
As 9.160685 -15.260193 12.206632
As 9.160685 -18.313755 15.260193
As 6.107123 -15.260193 15.260193
As 9.160685 -15.260193 18.313755
As 6.107123 -9.153070 -9.168300
As 6.107123 -12.206632 -6.114738
As 9.160685 -9.153070 -6.114738
As 9.160685 -12.206632 -3.061177
As 6.107123 -9.153070 -3.061177
As 6.107123 -12.206632 -0.007615
As 9.160685 -9.153070 -0.007615
As 9.160685 -12.206632 3.045947
As 6.107123 -9.153070 3.045947
As 6.107123 -12.206632 6.099508
As 9.160685 -9.153070 6.099508
As 9.160685 -12.206632 9.153070
As 6.107123 -9.153070 9.153070
As 6.107123 -12.206632 12.206632
As 9.160685 -9.153070 12.206632
As 9.160685 -12.206632 15.260193
As 6.107123 -9.153070 15.260193
As 6.107123 -12.206632 18.313755
As 9.160685 -9.153070 18.313755
As 9.160685 -12.206632 21.367317
As 6.107123 -9.153070 21.367317
As 9.160685 -9.153070 24.420878
As 6.107123 -3.045947 -15.275423
As 6.107123 -6.099508 -12.221861
As 9.160685 -3.045947 -12.221861
As 9.160685 -6.099508 -9.168300
As 6.107123 -3.045947 -9.168300
As 6.107123 -6.099508 -6.114738
As 9.160685 -3.045947 -6.114738
As 9.160685 -6.099508 -3.061177
As 6.107123 -3.045947 -3.061177
As 6.107123 -6.099508 -0.007615
As 9.160685 -3.045947 -0.007615
As 9.160685 -6.099508 3.045947
As 6.107123 -3.045947 3.045947
As 6.107123 -6.099508 6.099508
As 9.160685 -3.045947 6.099508
As 9.160685 -6.099508 9.153070
As 6.107123 -3.045947 9.153070
As 6.107123 -6.099508 12.206632
As 9.160685 -3.045947 12.206632
As 9.160685 -6.099508 15.260193
As 6.107123 -3.045947 15.260193
As 6.107123 -6.099508 18.313755
As 9.160685 -3.045947 18.313755
As 9.160685 -6.099508 21.367317
As 6.107123 -3.045947 21.367317
As 6.107123 -6.099508 24.420878
As 6.107123 3.061177 -21.382546
As 6.107123 0.007615 -18.328985
As 9.160685 3.061177 -18.328985
As 9.160685 0.007615 -15.275423
As 6.107123 3.061177 -15.275423
As 6.107123 0.007615 -12.221861
As 9.160685 3.061177 -12.221861
As 9.160685 0.007615 -9.168300
As 6.107123 3.061177 -9.168300
As 6.107123 0.007615 -6.114738
As 9.160685 3.061177 -6.114738
As 9.160685 0.007615 -3.061177
As 6.107123 3.061177 -3.061177
As 6.107123 0.007615 -0.007615
As 9.160685 3.061177 -0.007615
As 9.160685 0.007615 3.045947
As 6.107123 3.061177 3.045947
As 6.107123 0.007615 6.099508
As 9.160685 3.061177 6.099508
As 9.160685 0.007615 9.153070
As 6.107123 3.061177 9.153070
As 6.107123 0.007615 12.206632
As 9.160685 3.061177 12.206632
As 9.160685 0.007615 15.260193
As 6.107123 3.061177 15.260193
As 6.107123 0.007615 18.313755
As 6.107123 6.114738 -24.436108
As 9.160685 9.168300 -24.436108
As 9.160685 6.114738 -21.382546
As 6.107123 9.168300 -21.382546
As 6.107123 6.114738 -18.328985
As 9.160685 9.168300 -18.328985
As 9.160685 6.114738 -15.275423
As 6.107123 9.168300 -15.275423
As 6.107123 6.114738 -12.221861
As 9.160685 9.168300 -12.221861
As 9.160685 6.114738 -9.168300
As 6.107123 9.168300 -9.168300
As 6.107123 6.114738 -6.114738
As 9.160685 9.168300 -6.114738
As 9.160685 6.114738 -3.061177
As 6.107123 9.168300 -3.061177
As 6.107123 6.114738 -0.007615
As 9.160685 9.168300 -0.007615
As 9.160685 6.114738 3.045947
As 6.107123 9.168300 3.045947
As 6.107123 6.114738 6.099508
As 9.160685 9.168300 6.099508
As 9.160685 6.114738 9.153070
As 6.107123 9.168300 9.153070
As 6.107123 6.114738 12.206632
As 9.160685 12.221861 -21.382546
As 6.107123 12.221861 -18.328985
As 9.160685 15.275423 -18.328985
As 9.160685 12.221861 -15.275423
As 6.107123 15.275423 -15.275423
As 6.107123 12.221861 -12.221861
As 9.160685 15.275423 -12.221861
As 9.160685 12.221861 -9.168300
As 6.107123 15.275423 -9.168300
As 6.107123 12.221861 -6.114738
As 9.160685 15.275423 -6.114738
As 9.160685 12.221861 -3.061177
As 6.107123 15.275423 -3.061177
As 6.107123 12.221861 -0.007615
As 9.160685 15.275423 -0.007615
As 9.160685 12.221861 3.045947
As 6.107123 15.275423 3.045947
As 6.107123 12.221861 6.099508
As 9.160685 18.328985 -15.275423
As 6.107123 18.328985 -12.221861
As 9.160685 21.382546 -12.221861
As 9.160685 18.328985 -9.168300
As 6.107123 21.382546 -9.168300
As 6.107123 18.328985 -6.114738
As 9.160685 21.382546 -6.114738
As 9.160685 18.328985 -3.061177
As 6.107123 21.382546 -3.061177
As 6.107123 18.328985 -0.007615
As 9.160685 24.436108 -9.168300
As 6.107123 24.436108 -6.114738
As 12.214247 -21.367317 9.153070
As 12.214247 -24.420878 12.206632
As 15.267808 -21.367317 12.206632
As 12.214247 -21.367317 15.260193
As 12.214247 -15.260193 3.045947
As 12.214247 -18.313755 6.099508
As 15.267808 -15.260193 6.099508
As 15.267808 -18.313755 9.153070
As 12.214247 -15.260193 9.153070
As 12.214247 -18.313755 12.206632
As 15.267808 -15.260193 12.206632
As 15.267808 -18.313755 15.260193
As 12.214247 -15.260193 15.260193
As 12.214247 -18.313755 18.313755
As 15.267808 -15.260193 18.313755
As 12.214247 -15.260193 21.367317
As 15.267808 -15.260193 24.420878
As 12.214247 -9.153070 -3.061177
As 12.214247 -12.206632 -0.007615
As 15.267808 -9.153070 -0.007615
As 15.267808 -12.206632 3.045947
As 12.214247 -9.153070 3.045947
As 12.214247 -12.206632 6.099508
As 15.267808 -9.153070 6.099508
As 15.267808 -12.206632 9.153070
As 12.214247 -9.153070 9.153070
As 12.214247 -12.206632 12.206632
As 15.267808 -9.153070 12.206632
As 15.267808 -12.206632 15.260193
As 12.214247 -9.153070 15.260193
As 12.214247 -12.206632 18.313755
As 15.267808 -9.153070 18.313755
As 15.267808 -12.206632 21.367317
As 12.214247 -9.153070 21.367317
As 12.214247 -12.206632 24.420878
As 12.214247 -3.045947 -9.168300
As 12.214247 -6.099508 -6.114738
As 15.267808 -3.045947 -6.114738
As 15.267808 -6.099508 -3.061177
As 12.214247 -3.045947 -3.061177
As 12.214247 -6.099508 -0.007615
As 15.267808 -3.045947 -0.007615
As 15.267808 -6.099508 3.045947
As 12.214247 -3.045947 3.045947
As 12.214247 -6.099508 6.099508
As 15.267808 -3.045947 6.099508
As 15.267808 -6.099508 9.153070
As 12.214247 -3.045947 9.153070
As 12.214247 -6.099508 12.206632
As 15.267808 -3.045947 12.206632
As 15.267808 -6.099508 15.260193
As 12.214247 -3.045947 15.260193
As 12.214247 -6.099508 18.313755
As 12.214247 3.061177 -15.275423
As 12.214247 0.007615 -12.221861
As 15.267808 3.061177 -12.221861
As 15.267808 0.007615 -9.168300
As 12.214247 3.061177 -9.168300
As 12.214247 0.007615 -6.114738
As 15.267808 3.061177 -6.114738
As 15.267808 0.007615 -3.061177
As 12.214247 3.061177 -3.061177
As 12.214247 0.007615 -0.007615
As 15.267808 3.061177 -0.007615
As 15.267808 0.007615 3.045947
As 12.214247 3.061177 3.045947
As 12.214247 0.007615 6.099508
As 15.267808 3.061177 6.099508
As 15.267808 0.007615 9.153070
As 12.214247 3.061177 9.153070
As 12.214247 0.007615 12.206632
As 12.214247 9.168300 -21.382546
As 12.214247 6.114738 -18.328985
As 15.267808 9.168300 -18.328985
As 15.267808 6.114738 -15.275423
As 12.214247 9.168300 -15.275423
As 12.214247 6.114738 -12.221861
As 15.267808 9.168300 -12.221861
As 15.267808 6.114738 -9.168300
As 12.214247 9.168300 -9.168300
As 12.214247 6.114738 -6.114738
As 15.267808 9.168300 -6.114738
As 15.267808 6.114738 -3.061177
As 12.214247 9.168300 -3.061177
As 12.214247 6.114738 -0.007615
As 15.267808 9.168300 -0.007615
As 15.267808 6.114738 3.045947
As 12.214247 9.168300 3.045947
As 12.214247 6.114738 6.099508
As 12.214247 12.221861 -24.436108
As 15.267808 15.275423 -24.436108
As 15.267808 12.221861 -21.382546
As 12.214247 15.275423 -21.382546
As 12.214247 12.221861 -18.328985
As 15.267808 15.275423 -18.328985
As 15.267808 12.221861 -15.275423
As 12.214247 15.275423 -15.275423
As 12.214247 12.221861 -12.221861
As 15.267808 15.275423 -12.221861
As 15.267808 12.221861 -9.168300
As 12.214247 15.275423 -9.168300
As 12.214247 12.221861 -6.114738
As 15.267808 15.275423 -6.114738
As 15.267808 12.221861 -3.061177
As 12.214247 15.275423 -3.061177
As 12.214247 12.221861 -0.007615
As 12.214247 18.328985 -18.328985
As 15.267808 18.328985 -15.275423
As 12.214247 21.382546 -15.275423
As 12.214247 18.328985 -12.221861
As 15.267808 21.382546 -12.221861
As 15.267808 18.328985 -9.168300
As 12.214247 21.382546 -9.168300
As 12.214247 18.328985 -6.114738
As 12.214247 24.436108 -12.221861
As 18.321370 -21.367317 15.260193
As 18.321370 -15.260193 9.153070
As 18.321370 -18.313755 12.206632
As 21.374932 -15.260193 12.206632
As 18.321370 -15.260193 15.260193
As 18.321370 -9.153070 3.045947
As 18.321370 -12.206632 6.099508
As 21.374932 -9.153070 6.099508
As 21.374932 -12.206632 9.153070
As 18.321370 -9.153070 9.153070
As 18.321370 -12.206632 12.206632
As 21.374932 -9.153070 12.206632
As 21.374932 -12.206632 15.260193
As 18.321370 -9.153070 15.260193
As 18.321370 -12.206632 18.313755
As 18.321370 -3.045947 -3.061177
As 18.321370 -6.099508 -0.007615
As 21.374932 -3.045947 -0.007615
As 21.374932 -6.099508 3.045947
As 18.321370 -3.045947 3.045947
As 18.321370 -6.099508 6.099508
As 21.374932 -3.045947 6.099508
As 21.374932 -6.099508 9.153070
As 18.321370 -3.045947 9.153070
As 18.321370 -6.099508 12.206632
As 18.321370 3.061177 -9.168300
As 18.321370 0.007615 -6.114738
As 21.374932 3.061177 -6.114738
As 21.374932 0.007615 -3.061177
As 18.321370 3.061177 -3.061177
As 18.321370 0.007615 -0.007615
As 21.374932 3.061177 -0.007615
As 21.374932 0.007615 3.045947
As 18.321370 3.061177 3.045947
As 18.321370 0.007615 6.099508
As 18.321370 9.168300 -15.275423
As 18.321370 6.114738 -12.221861
As 21.374932 9.168300 -12.221861
As 21.374932 6.114738 -9.168300
As 18.321370 9.168300 -9.168300
As 18.321370 6.114738 -6.114738
As 21.374932 9.168300 -6.114738
As 21.374932 6.114738 -3.061177
As 18.321370 9.168300 -3.061177
As 18.321370 6.114738 -0.007615
As 18.321370 12.221861 -18.328985
As 21.374932 12.221861 -15.275423
As 18.321370 15.275423 -15.275423
As 18.321370 12.221861 -12.221861
As 21.374932 15.275423 -12.221861
As 21.374932 12.221861 -9.168300
As 18.321370 15.275423 -9.168300
As 18.321370 12.221861 -6.114738
As 18.321370 21.382546 -15.275423
As 18.321370 18.328985 -12.221861
As 24.428493 -15.260193 15.260193
As 24.428493 -9.153070 9.153070
As 24.428493 -12.206632 12.206632
As 24.428493 -3.045947 3.045947
As 24.428493 -6.099508 6.099508
As 24.428493 3.061177 -3.061177
As 24.428493 0.007615 -0.007615
As 24.428493 9.168300 -9.168300
As 24.428493 6.114738 -6.114738
As 24.428493 15.275423 -15.275423
As 24.428493 12.221861 -12.221861
Cl -21.374932 -15.260193 -18.328985
Cl -21.374932 -18.313755 -15.275423
Cl -21.374932 15.275423 18.313755
Cl -21.374932 18.328985 15.260193
Cl -15.267808 -21.367317 -18.328985
Cl -15.267808 -24.420878 -15.275423
Cl -15.267808 -18.313755 -21.382546
Cl -18.321370 -15.260193 -21.382546
Cl -18.321370 -18.313755 -18.328985
Cl -18.321370 15.275423 21.367317
Cl -18.321370 18.328985 18.313755
Cl -15.267808 21.382546 18.313755
Cl -15.267808 18.328985 21.367317
Cl -15.267808 24.436108 15.260193
Cl 15.267808 -24.420878 15.260193
Cl 15.267808 -21.367317 18.313755
Cl 15.267808 -18.313755 21.367317
Cl 15.267808 18.328985 -21.382546
Cl 15.267808 21.382546 -18.328985
Cl 15.267808 24.436108 -15.275423
Cl 21.374932 -18.313755 15.260193
Cl 18.321370 -18.313755 18.313755
Cl 21.374932 -15.260193 18.313755
Cl 18.321370 -15.260193 21.367317
Cl 18.321370 15.275423 -21.382546
Cl 21.374932 15.275423 -18.328985
Cl 18.321370 18.328985 -18.328985
Cl 21.374932 18.328985 -15.275423
Cl -27.482055 15.275423 12.206632
Cl -15.267808 -27.474440 -12.221861
Cl 15.267808 27.489670 -12.221861
Cl 27.482055 -15.260193 12.206632
Cl -12.214247 -15.260193 -27.489670
Cl -15.267808 12.221861 27.474440
Cl 15.267808 -12.206632 27.474440
Cl 12.214247 15.275423 -27.489670
Cl -27.482055 -12.206632 -15.275423
Cl -12.214247 27.489670 15.260193
Cl 12.214247 -27.474440 15.260193
Cl 27.482055 12.221861 -15.275423
Cl -27.482055 -6.099508 -3.061177
Cl -6.107123 27.489670 3.045947
Cl 6.107123 -27.474440 3.045947
Cl 27.482055 6.114738 -3.061177
Cl -27.482055 9.168300 12.206632
Cl -9.160685 -27.474440 -12.221861
Cl 9.160685 27.489670 -12.221861
Cl 27.482055 -9.153070 12.206632
Cl -12.214247 -9.153070 -27.489670
Cl -9.160685 12.221861 27.474440
Cl 9.160685 -12.206632 27.474440
Cl 12.214247 9.168300 -27.489670
Cl -27.482055 -12.206632 -9.168300
Cl -12.214247 27.489670 9.153070
Cl 12.214247 -27.474440 9.153070
Cl 27.482055 12.221861 -9.168300
Cl -0.000000 -3.045947 -27.489670
Cl -3.053562 0.007615 27.474440
Cl 3.053562 0.007615 27.474440
Cl -0.000000 3.061177 -27.489670
Cl -27.482055 9.168300 6.099508
Cl -9.160685 -27.474440 -6.114738
Cl 9.160685 27.489670 -6.114738
Cl 27.482055 -9.153070 6.099508
Cl -27.482055 3.061177 6.099508
Cl -3.053562 -27.474440 -6.114738
Cl 3.053562 27.489670 -6.114738
Cl 27.482055 -3.045947 6.099508
Cl -6.107123 -9.153070 -27.489670
Cl -9.160685 6.114738 27.474440
Cl 9.160685 -6.099508 27.474440
Cl 6.107123 9.168300 -27.489670
Cl -27.482055 -3.045947 -0.007615
Cl -3.053562 27.489670 -0.007615
Cl 3.053562 -27.474440 -0.007615
Cl 27.482055 3.061177 -0.007615
Cl -6.107123 -3.045947 -27.489670
Cl -3.053562 6.114738 27.474440
Cl 3.053562 -6.099508 27.474440
Cl 6.107123 3.061177 -27.489670
Cl -27.482055 -6.099508 -9.168300
Cl -6.107123 27.489670 9.153070
Cl 6.107123 -27.474440 9.153070
Cl 27.482055 6.114738 -9.168300
Cl -27.482055 3.061177 -0.007615
Cl -3.053562 -27.474440 -0.007615
Cl 3.053562 27.489670 -0.007615
Cl 27.482055 -3.045947 -0.007615
Cl -9.160685 -12.206632 9.153070
Cl -12.214247 9.168300 -9.168300
Cl 12.214247 -9.153070 -9.168300
Cl 9.160685 12.221861 9.153070
Cl -15.267808 0.007615 15.260193
Cl -0.000000 -15.260193 -15.275423
Cl -0.000000 15.275423 -15.275423
Cl 15.267808 0.007615 15.260193
Cl -15.267808 0.007615 -15.275423
Cl -0.000000 15.275423 15.260193
Cl -0.000000 -15.260193 15.260193
Cl 15.267808 0.007615 -15.275423
Cl -15.267808 -15.260193 -0.007615
Cl -15.267808 15.275423 -0.007615
Cl 15.267808 -15.260193 -0.007615
Cl 15.267808 15.275423 -0.007615
Cl -6.107123 -6.099508 18.313755
Cl -6.107123 6.114738 -18.328985
Cl 6.107123 -6.099508 -18.328985
Cl 6.107123 6.114738 18.313755
Cl -18.321370 -6.099508 6.099508
Cl -6.107123 18.328985 -6.114738
Cl 6.107123 -18.313755 -6.114738
Cl 18.321370 6.114738 6.099508
Cl -21.374932 -12.206632 -21.382546
Cl -12.214247 21.382546 21.367317
Cl 12.214247 -21.367317 21.367317
Cl 21.374932 12.221861 -21.382546
Cl -21.374932 -21.367317 -12.221861
Cl -21.374932 21.382546 12.206632
Cl 21.374932 -21.367317 12.206632
Cl 21.374932 21.382546 -12.221861
Cl -21.374932 12.221861 21.367317
Cl -12.214247 -21.367317 -21.382546
Cl 12.214247 21.382546 -21.382546
Cl 21.374932 -12.206632 21.367317
Cl -21.374932 3.061177 -6.114738
Cl -3.053562 -21.367317 6.099508
Cl 3.053562 21.382546 6.099508
Cl 21.374932 -3.045947 -6.114738
Cl -21.374932 15.275423 6.099508
Cl 21.374932 -15.260193 6.099508
Cl -15.267808 -21.367317 -6.114738
Cl 15.267808 21.382546 -6.114738
Cl -15.267808 6.114738 21.367317
Cl -6.107123 -15.260193 -21.382546
Cl 6.107123 15.275423 -21.382546
Cl 15.267808 -6.099508 21.367317
Cl -21.374932 -6.099508 -15.275423
Cl -6.107123 21.382546 15.260193
Cl 6.107123 -21.367317 15.260193
Cl 21.374932 6.114738 -15.275423
Cl -21.374932 9.168300 -0.007615
Cl -9.160685 -21.367317 -0.007615
Cl 9.160685 21.382546 -0.007615
Cl 21.374932 -9.153070 -0.007615
Cl -21.374932 3.061177 12.206632
Cl -3.053562 -21.367317 -12.221861
Cl 3.053562 21.382546 -12.221861
Cl 21.374932 -3.045947 12.206632
Cl -12.214247 -3.045947 -21.382546
Cl -3.053562 12.221861 21.367317
Cl 3.053562 -12.206632 21.367317
Cl 12.214247 3.061177 -21.382546
Cl -21.374932 -12.206632 -3.061177
Cl -12.214247 21.382546 3.045947
Cl 12.214247 -21.367317 3.045947
Cl 21.374932 12.221861 -3.061177
Cl -9.160685 0.007615 21.367317
Cl -0.000000 -9.153070 -21.382546
Cl -0.000000 9.168300 -21.382546
Cl 9.160685 0.007615 21.367317
Cl -12.214247 -6.099508 12.206632
Cl -6.107123 12.221861 -12.221861
Cl 6.107123 -12.206632 -12.221861
Cl 12.214247 6.114738 12.206632
Cl -15.267808 -12.206632 -27.489670
Cl -12.214247 15.275423 27.474440
Cl 12.214247 -15.260193 27.474440
Cl 15.267808 12.221861 -27.489670
Cl -27.482055 12.221861 15.260193
Cl -12.214247 -27.474440 -15.275423
Cl 12.214247 27.489670 -15.275423
Cl 27.482055 -12.206632 15.260193
Cl -27.482055 -15.260193 -12.221861
Cl -15.267808 27.489670 12.206632
Cl 15.267808 -27.474440 12.206632
Cl 27.482055 15.275423 -12.221861
Cl -27.482055 -3.045947 -6.114738
Cl -3.053562 27.489670 6.099508
Cl 3.053562 -27.474440 6.099508
Cl 27.482055 3.061177 -6.114738
Cl -15.267808 6.114738 -9.168300
Cl -6.107123 -15.260193 9.153070
Cl 6.107123 15.275423 9.153070
Cl 15.267808 -6.099508 -9.168300
Cl -21.374932 -3.045947 6.099508
Cl -3.053562 21.382546 -6.114738
Cl 3.053562 -21.367317 -6.114738
Cl 21.374932 3.061177 6.099508
Cl -3.053562 -6.099508 21.367317
Cl -6.107123 3.061177 -21.382546
Cl 6.107123 -3.045947 -21.382546
Cl 3.053562 6.114738 21.367317
Cl -21.374932 -18.313755 -9.168300
Cl -18.321370 21.382546 9.153070
Cl 18.321370 -21.367317 9.153070
Cl 21.374932 18.328985 -9.168300
Cl -18.321370 -9.153070 -21.382546
Cl -9.160685 18.328985 21.367317
Cl 9.160685 -18.313755 21.367317
Cl 18.321370 9.168300 -21.382546
Cl -21.374932 9.168300 18.313755
Cl -9.160685 -21.367317 -18.328985
Cl 9.160685 21.382546 -18.328985
Cl 21.374932 -9.153070 18.313755
Cl -15.267808 -12.206632 3.045947
Cl -12.214247 15.275423 -3.061177
Cl 12.214247 -15.260193 -3.061177
Cl 15.267808 12.221861 3.045947
Cl -21.374932 0.007615 -9.168300
Cl -0.000000 21.382546 9.153070
Cl -0.000000 -21.367317 9.153070
Cl 21.374932 0.007615 -9.168300
Cl -12.214247 3.061177 -15.275423
Cl -3.053562 -12.206632 15.260193
Cl 3.053562 12.221861 15.260193
Cl 12.214247 -3.045947 -15.275423
Cl -21.374932 -9.153070 -0.007615
Cl -9.160685 21.382546 -0.007615
Cl 9.160685 -21.367317 -0.007615
Cl 21.374932 9.168300 -0.007615
Cl -18.321370 9.168300 -3.061177
Cl -9.160685 -18.313755 3.045947
Cl 9.160685 18.328985 3.045947
Cl 18.321370 -9.153070 -3.061177
Cl -9.160685 -12.206632 -27.489670
Cl -12.214247 9.168300 27.474440
Cl 12.214247 -9.153070 27.474440
Cl 9.160685 12.221861 -27.489670
Cl -27.482055 12.221861 9.153070
Cl -12.214247 -27.474440 -9.168300
Cl 12.214247 27.489670 -9.168300
Cl 27.482055 -12.206632 9.153070
Cl -3.053562 0.007615 -27.489670
Cl -0.000000 3.061177 27.474440
Cl -0.000000 -3.045947 27.474440
Cl 3.053562 0.007615 -27.489670
Cl -27.482055 -9.153070 -12.221861
Cl -9.160685 27.489670 12.206632
Cl 9.160685 -27.474440 12.206632
Cl 27.482055 9.168300 -12.221861
Cl -27.482055 6.114738 9.153070
Cl -6.107123 -27.474440 -9.168300
Cl 6.107123 27.489670 -9.168300
Cl 27.482055 -6.099508 9.153070
Cl -27.482055 6.114738 3.045947
Cl -6.107123 -27.474440 -3.061177
Cl 6.107123 27.489670 -3.061177
Cl 27.482055 -6.099508 3.045947
Cl -9.160685 -6.099508 -27.489670
Cl -6.107123 9.168300 27.474440
Cl 6.107123 -9.153070 27.474440
Cl 9.160685 6.114738 -27.489670
Cl -3.053562 -6.099508 -27.489670
Cl -6.107123 3.061177 27.474440
Cl 6.107123 -3.045947 27.474440
Cl 3.053562 6.114738 -27.489670
Cl -27.482055 0.007615 3.045947
Cl 0.000000 -27.474440 -3.061177
Cl -0.000000 27.489670 -3.061177
Cl 27.482055 0.007615 3.045947
Cl -12.214247 -18.313755 -24.436108
Cl -18.321370 12.221861 24.420878
Cl 18.321370 -12.206632 24.420878
Cl 12.214247 18.328985 -24.436108
Cl -24.428493 18.328985 12.206632
Cl -18.321370 -24.420878 -12.221861
Cl 18.321370 24.436108 -12.221861
Cl 24.428493 -18.313755 12.206632
Cl -24.428493 -12.206632 -18.328985
Cl -12.214247 24.436108 18.313755
Cl 12.214247 -24.420878 18.313755
Cl 24.428493 12.221861 -18.328985
Cl -27.482055 -9.153070 -6.114738
Cl -9.160685 27.489670 6.099508
Cl 9.160685 -27.474440 6.099508
Cl 27.482055 9.168300 -6.114738
Cl -27.482055 0.007615 -3.061177
Cl -0.000000 27.489670 3.045947
Cl -0.000000 -27.474440 3.045947
Cl 27.482055 0.007615 -3.061177
Cl -15.267808 -3.045947 12.206632
Cl -3.053562 15.275423 -12.221861
Cl 3.053562 -15.260193 -12.221861
Cl 15.267808 3.061177 12.206632
Cl -15.267808 3.061177 18.313755
Cl -3.053562 -15.260193 -18.328985
Cl 3.053562 15.275423 -18.328985
Cl 15.267808 -3.045947 18.313755
Cl -18.321370 -3.045947 -15.275423
Cl -3.053562 18.328985 15.260193
Cl 3.053562 -18.313755 15.260193
Cl 18.321370 3.061177 -15.275423
Cl -15.267808 -18.313755 -3.061177
Cl -18.321370 15.275423 3.045947
Cl 18.321370 -15.260193 3.045947
Cl 15.267808 18.328985 -3.061177
Cl -9.160685 -6.099508 15.260193
Cl -6.107123 9.168300 -15.275423
Cl 6.107123 -9.153070 -15.275423
Cl 9.160685 6.114738 15.260193
Cl -15.267808 -6.099508 -21.382546
Cl -6.107123 15.275423 21.367317
Cl 6.107123 -15.260193 21.367317
Cl 15.267808 6.114738 -21.382546
Cl -21.374932 6.114738 15.260193
Cl -6.107123 -21.367317 -15.275423
Cl 6.107123 21.382546 -15.275423
Cl 21.374932 -6.099508 15.260193
Cl -21.374932 -15.260193 -6.114738
Cl -15.267808 21.382546 6.099508
Cl 15.267808 -21.367317 6.099508
Cl 21.374932 15.275423 -6.114738
Cl -15.267808 -9.153070 6.099508
Cl -9.160685 15.275423 -6.114738
Cl 9.160685 -15.260193 -6.114738
Cl 15.267808 9.168300 6.099508
Cl -9.160685 0.007615 -21.382546
Cl -0.000000 9.168300 21.367317
Cl -0.000000 -9.153070 21.367317
Cl 9.160685 0.007615 -21.382546
Cl -21.374932 0.007615 9.153070
Cl 0.000000 -21.367317 -9.168300
Cl -0.000000 21.382546 -9.168300
Cl 21.374932 0.007615 9.153070
Cl -18.321370 -12.206632 -24.436108
Cl -12.214247 18.328985 24.420878
Cl 12.214247 -18.313755 24.420878
Cl 18.321370 12.221861 -24.436108
Cl -24.428493 -18.313755 -12.221861
Cl -18.321370 24.436108 12.206632
Cl 18.321370 -24.420878 12.206632
Cl 24.428493 18.328985 -12.221861
Cl -24.428493 12.221861 18.313755
Cl -12.214247 -24.420878 -18.328985
Cl 12.214247 24.436108 -18.328985
Cl 24.428493 -12.206632 18.313755
Cl -9.160685 3.061177 24.420878
Cl -3.053562 -9.153070 -24.436108
Cl 3.053562 9.168300 -24.436108
Cl 9.160685 -3.045947 24.420878
Cl -24.428493 9.168300 3.045947
Cl -9.160685 -24.420878 -3.061177
Cl 9.160685 24.436108 -3.061177
Cl 24.428493 -9.153070 3.045947
Cl -24.428493 -6.099508 -12.221861
Cl -6.107123 24.436108 12.206632
Cl 6.107123 -24.420878 12.206632
Cl 24.428493 6.114738 -12.221861
Cl -18.321370 3.061177 -9.168300
Cl -3.053562 -18.313755 9.153070
Cl 3.053562 18.328985 9.153070
Cl 18.321370 -3.045947 -9.168300
Cl -24.428493 -6.099508 -0.007615
Cl -6.107123 24.436108 -0.007615
Cl 6.107123 -24.420878 -0.007615
Cl 24.428493 6.114738 -0.007615
Cl -3.053562 -3.045947 24.420878
Cl -3.053562 3.061177 -24.436108
Cl 3.053562 -3.045947 -24.436108
Cl 3.053562 3.061177 24.420878
Cl -24.428493 3.061177 -3.061177
Cl -3.053562 -24.420878 3.045947
Cl 3.053562 24.436108 3.045947
Cl 24.428493 -3.045947 -3.061177
Cl -9.160685 -9.153070 12.206632
Cl -9.160685 9.168300 -12.221861
Cl 9.160685 -9.153070 -12.221861
Cl 9.160685 9.168300 12.206632
Cl -15.267808 12.221861 -3.061177
Cl -12.214247 -15.260193 3.045947
Cl 12.214247 15.275423 3.045947
Cl 15.267808 -12.206632 -3.061177
Cl -12.214247 0.007615 18.313755
Cl -0.000000 -12.206632 -18.328985
Cl -0.000000 12.221861 -18.328985
Cl 12.214247 0.007615 18.313755
Cl -24.428493 15.275423 9.153070
Cl 24.428493 -15.260193 9.153070
Cl -15.267808 9.168300 24.420878
Cl 15.267808 -9.153070 24.420878
Cl -9.160685 -15.260193 -24.436108
Cl 9.160685 15.275423 -24.436108
Cl -18.321370 -21.367317 -9.168300
Cl 18.321370 21.382546 -9.168300
Cl -3.053562 -24.420878 -9.168300
Cl 3.053562 24.436108 -9.168300
Cl -24.428493 3.061177 9.153070
Cl 24.428493 -3.045947 9.153070
Cl -6.107123 12.221861 24.420878
Cl 6.107123 -12.206632 24.420878
Cl -12.214247 -6.099508 -24.436108
Cl 12.214247 6.114738 -24.436108
Cl -12.214247 24.436108 6.099508
Cl 12.214247 -24.420878 6.099508
Cl -24.428493 -12.206632 -6.114738
Cl 24.428493 12.221861 -6.114738
Cl -9.160685 21.382546 18.313755
Cl 9.160685 -21.367317 18.313755
Cl -21.374932 -9.153070 -18.328985
Cl 21.374932 9.168300 -18.328985
Cl -12.214247 -24.420878 -6.114738
Cl 12.214247 24.436108 -6.114738
Cl -24.428493 -3.045947 -9.168300
Cl 24.428493 3.061177 -9.168300
Cl -3.053562 24.436108 9.153070
Cl 3.053562 -24.420878 9.153070
Cl -3.053562 24.436108 -3.061177
Cl 3.053562 -24.420878 -3.061177
Cl -24.428493 -3.045947 3.045947
Cl 24.428493 3.061177 3.045947
Cl -9.160685 3.061177 -18.328985
Cl 9.160685 -3.045947 -18.328985
Cl -3.053562 -9.153070 18.313755
Cl 3.053562 9.168300 18.313755
Cl -6.107123 -18.313755 -18.328985
Cl 6.107123 18.328985 -18.328985
Cl -18.321370 6.114738 18.313755
Cl 18.321370 -6.099508 18.313755
Cl -21.374932 12.221861 3.045947
Cl 21.374932 -12.206632 3.045947
Cl -9.160685 -15.260193 6.099508
Cl 9.160685 15.275423 6.099508
Cl -15.267808 9.168300 -6.114738
Cl 15.267808 -9.153070 -6.114738
Cl -15.267808 -6.099508 9.153070
Cl 15.267808 6.114738 9.153070
Cl -6.107123 15.275423 -9.168300
Cl 6.107123 -15.260193 -9.168300
Cl -18.321370 18.328985 6.099508
Cl 18.321370 -18.313755 6.099508
Cl -3.053562 -15.260193 12.206632
Cl 3.053562 15.275423 12.206632
Cl -15.267808 3.061177 -12.221861
Cl 15.267808 -3.045947 -12.221861
Cl -18.321370 -12.206632 -0.007615
Cl 18.321370 12.221861 -0.007615
Cl -3.053562 6.114738 -21.382546
Cl 3.053562 -6.099508 -21.382546
Cl -6.107123 -3.045947 21.367317
Cl 6.107123 3.061177 21.367317
Cl -6.107123 -21.367317 3.045947
Cl 6.107123 21.382546 3.045947
Cl -15.267808 -3.045947 -18.328985
Cl 15.267808 3.061177 -18.328985
Cl -3.053562 15.275423 18.313755
Cl 3.053562 -15.260193 18.313755
Cl -12.214247 18.328985 -0.007615
Cl 12.214247 -18.313755 -0.007615
Cl -21.374932 6.114738 -3.061177
Cl 21.374932 -6.099508 -3.061177
Cl -18.321370 0.007615 12.206632
Cl 18.321370 0.007615 12.206632
Cl -0.000000 -18.313755 -12.221861
