687
ZnTe-Zn-Zn309Te240Cl138-clean
Zn -9.091232 -9.166844 -6.111229
Zn -12.146846 -12.222458 -0.000000
Zn -9.091232 -12.222458 -3.055615
Zn -12.146846 -9.166844 -3.055615
Zn -9.091232 -9.166844 -0.000000
Zn -9.091232 -12.222458 3.055615
Zn -12.146846 -9.166844 3.055615
Zn -9.091232 -9.166844 6.111229
Zn -9.091232 -3.055615 -12.222458
Zn -12.146846 -6.111229 -6.111229
Zn -9.091232 -6.111229 -9.166844
Zn -12.146846 -3.055615 -9.166844
Zn -9.091232 -3.055615 -6.111229
Zn -12.146846 -6.111229 -0.000000
Zn -9.091232 -6.111229 -3.055615
Zn -12.146846 -3.055615 -3.055615
Zn -9.091232 -3.055615 -0.000000
Zn -12.146846 -6.111229 6.111229
Zn -9.091232 -6.111229 3.055615
Zn -12.146846 -3.055615 3.055615
Zn -9.091232 -3.055615 6.111229
Zn -9.091232 -6.111229 9.166844
Zn -12.146846 -3.055615 9.166844
Zn -9.091232 -3.055615 12.222458
Zn -12.146846 -0.000000 -12.222458
Zn -9.091232 3.055615 -12.222458
Zn -12.146846 -0.000000 -6.111229
Zn -9.091232 -0.000000 -9.166844
Zn -12.146846 3.055615 -9.166844
Zn -9.091232 3.055615 -6.111229
Zn -12.146846 -0.000000 -0.000000
Zn -9.091232 -0.000000 -3.055615
Zn -12.146846 3.055615 -3.055615
Zn -9.091232 3.055615 -0.000000
Zn -12.146846 -0.000000 6.111229
Zn -9.091232 -0.000000 3.055615
Zn -12.146846 3.055615 3.055615
Zn -9.091232 3.055615 6.111229
Zn -12.146846 -0.000000 12.222458
Zn -9.091232 -0.000000 9.166844
Zn -12.146846 3.055615 9.166844
Zn -9.091232 3.055615 12.222458
Zn -12.146846 6.111229 -6.111229
Zn -9.091232 6.111229 -9.166844
Zn -9.091232 9.166844 -6.111229
Zn -12.146846 6.111229 -0.000000
Zn -9.091232 6.111229 -3.055615
Zn -12.146846 9.166844 -3.055615
Zn -9.091232 9.166844 0.000000
Zn -12.146846 6.111229 6.111229
Zn -9.091232 6.111229 3.055615
Zn -12.146846 9.166844 3.055615
Zn -9.091232 9.166844 6.111229
Zn -9.091232 6.111229 9.166844
Zn -12.146846 12.222458 0.000000
Zn -9.091232 12.222458 -3.055615
Zn -9.091232 12.222458 3.055615
Zn -2.980003 -9.166844 -12.222458
Zn -6.035617 -12.222458 -6.111229
Zn -2.980003 -12.222458 -9.166844
Zn -6.035617 -9.166844 -9.166844
Zn -2.980003 -9.166844 -6.111229
Zn -6.035617 -12.222458 -0.000000
Zn -2.980003 -12.222458 -3.055615
Zn -6.035617 -9.166844 -3.055615
Zn -2.980003 -9.166844 -0.000000
Zn -6.035617 -12.222458 6.111229
Zn -2.980003 -12.222458 3.055615
Zn -6.035617 -9.166844 3.055615
Zn -2.980003 -9.166844 6.111229
Zn -2.980003 -12.222458 9.166844
Zn -6.035617 -9.166844 9.166844
Zn -2.980003 -9.166844 12.222458
Zn -6.035617 -6.111229 -12.222458
Zn -2.980003 -3.055615 -12.222458
Zn -6.035617 -6.111229 -6.111229
Zn -2.980003 -6.111229 -9.166844
Zn -6.035617 -3.055615 -9.166844
Zn -2.980003 -3.055615 -6.111229
Zn -6.035617 -6.111229 -0.000000
Zn -2.980003 -6.111229 -3.055615
Zn -6.035617 -3.055615 -3.055615
Zn -2.980003 -3.055615 -0.000000
Zn -6.035617 -6.111229 6.111229
Zn -2.980003 -6.111229 3.055615
Zn -6.035617 -3.055615 3.055615
Zn -2.980003 -3.055615 6.111229
Zn -6.035617 -6.111229 12.222458
Zn -2.980003 -6.111229 9.166844
Zn -6.035617 -3.055615 9.166844
Zn -2.980003 -3.055615 12.222458
Zn -6.035617 -0.000000 -12.222458
Zn -2.980003 3.055615 -12.222458
Zn -6.035617 -0.000000 -6.111229
Zn -2.980003 -0.000000 -9.166844
Zn -6.035617 3.055615 -9.166844
Zn -2.980003 3.055615 -6.111229
Zn -6.035617 -0.000000 -0.000000
Zn -2.980003 -0.000000 -3.055615
Zn -6.035617 3.055615 -3.055615
Zn -2.980003 3.055615 0.000000
Zn -6.035617 -0.000000 6.111229
Zn -2.980003 -0.000000 3.055615
Zn -6.035617 3.055615 3.055615
Zn -2.980003 3.055615 6.111229
Zn -6.035617 -0.000000 12.222458
Zn -2.980003 -0.000000 9.166844
Zn -6.035617 3.055615 9.166844
Zn -2.980003 3.055615 12.222458
Zn -6.035617 6.111229 -12.222458
Zn -2.980003 9.166844 -12.222458
Zn -6.035617 6.111229 -6.111229
Zn -2.980003 6.111229 -9.166844
Zn -6.035617 9.166844 -9.166844
Zn -2.980003 9.166844 -6.111229
Zn -6.035617 6.111229 0.000000
Zn -2.980003 6.111229 -3.055615
Zn -6.035617 9.166844 -3.055615
Zn -2.980003 9.166844 0.000000
Zn -6.035617 6.111229 6.111229
Zn -2.980003 6.111229 3.055615
Zn -6.035617 9.166844 3.055615
Zn -2.980003 9.166844 6.111229
Zn -6.035617 6.111229 12.222458
Zn -2.980003 6.111229 9.166844
Zn -6.035617 9.166844 9.166844
Zn -2.980003 9.166844 12.222458
Zn -6.035617 12.222458 -6.111229
Zn -2.980003 12.222458 -9.166844
Zn -6.035617 12.222458 0.000000
Zn -2.980003 12.222458 -3.055615
Zn -6.035617 12.222458 6.111229
Zn -2.980003 12.222458 3.055615
Zn -2.980003 12.222458 9.166844
Zn 0.075612 -12.222458 -12.222458
Zn 3.131227 -9.166844 -12.222458
Zn 0.075612 -12.222458 -6.111229
Zn 3.131227 -12.222458 -9.166844
Zn 0.075612 -9.166844 -9.166844
Zn 3.131227 -9.166844 -6.111229
Zn 0.075612 -12.222458 -0.000000
Zn 3.131227 -12.222458 -3.055615
Zn 0.075612 -9.166844 -3.055615
Zn 3.131227 -9.166844 -0.000000
Zn 0.075612 -12.222458 6.111229
Zn 3.131227 -12.222458 3.055615
Zn 0.075612 -9.166844 3.055615
Zn 3.131227 -9.166844 6.111229
Zn 0.075612 -12.222458 12.222458
Zn 3.131227 -12.222458 9.166844
Zn 0.075612 -9.166844 9.166844
Zn 3.131227 -9.166844 12.222458
Zn 0.075612 -6.111229 -12.222458
Zn 3.131227 -3.055615 -12.222458
Zn 0.075612 -6.111229 -6.111229
Zn 3.131227 -6.111229 -9.166844
Zn 0.075612 -3.055615 -9.166844
Zn 3.131227 -3.055615 -6.111229
Zn 0.075612 -6.111229 -0.000000
Zn 3.131227 -6.111229 -3.055615
Zn 0.075612 -3.055615 -3.055615
Zn 3.131227 -3.055615 0.000000
Zn 0.075612 -6.111229 6.111229
Zn 3.131227 -6.111229 3.055615
Zn 0.075612 -3.055615 3.055615
Zn 3.131227 -3.055615 6.111229
Zn 0.075612 -6.111229 12.222458
Zn 3.131227 -6.111229 9.166844
Zn 0.075612 -3.055615 9.166844
Zn 3.131227 -3.055615 12.222458
Zn 0.075612 -0.000000 -12.222458
Zn 3.131227 3.055615 -12.222458
Zn 0.075612 -0.000000 -6.111229
Zn 3.131227 -0.000000 -9.166844
Zn 0.075612 3.055615 -9.166844
Zn 3.131227 3.055615 -6.111229
Zn 0.075612 -0.000000 0.000000
Zn 3.131227 -0.000000 -3.055615
Zn 0.075612 3.055615 -3.055615
Zn 3.131227 3.055615 0.000000
Zn 0.075612 -0.000000 6.111229
Zn 3.131227 -0.000000 3.055615
Zn 0.075612 3.055615 3.055615
Zn 3.131227 3.055615 6.111229
Zn 0.075612 -0.000000 12.222458
Zn 3.131227 -0.000000 9.166844
Zn 0.075612 3.055615 9.166844
Zn 3.131227 3.055615 12.222458
Zn 0.075612 6.111229 -12.222458
Zn 3.131227 9.166844 -12.222458
Zn 0.075612 6.111229 -6.111229
Zn 3.131227 6.111229 -9.166844
Zn 0.075612 9.166844 -9.166844
Zn 3.131227 9.166844 -6.111229
Zn 0.075612 6.111229 0.000000
Zn 3.131227 6.111229 -3.055615
Zn 0.075612 9.166844 -3.055615
Zn 3.131227 9.166844 0.000000
Zn 0.075612 6.111229 6.111229
Zn 3.131227 6.111229 3.055615
Zn 0.075612 9.166844 3.055615
Zn 3.131227 9.166844 6.111229
Zn 0.075612 6.111229 12.222458
Zn 3.131227 6.111229 9.166844
Zn 0.075612 9.166844 9.166844
Zn 3.131227 9.166844 12.222458
Zn 0.075612 12.222458 -12.222458
Zn 0.075612 12.222458 -6.111229
Zn 3.131227 12.222458 -9.166844
Zn 0.075612 12.222458 0.000000
Zn 3.131227 12.222458 -3.055615
Zn 0.075612 12.222458 6.111229
Zn 3.131227 12.222458 3.055615
Zn 0.075612 12.222458 12.222458
Zn 3.131227 12.222458 9.166844
Zn 6.186841 -12.222458 -6.111229
Zn 6.186841 -9.166844 -9.166844
Zn 9.242456 -9.166844 -6.111229
Zn 6.186841 -12.222458 -0.000000
Zn 9.242456 -12.222458 -3.055615
Zn 6.186841 -9.166844 -3.055615
Zn 9.242456 -9.166844 0.000000
Zn 6.186841 -12.222458 6.111229
Zn 9.242456 -12.222458 3.055615
Zn 6.186841 -9.166844 3.055615
Zn 9.242456 -9.166844 6.111229
Zn 6.186841 -9.166844 9.166844
Zn 6.186841 -6.111229 -12.222458
Zn 9.242456 -3.055615 -12.222458
Zn 6.186841 -6.111229 -6.111229
Zn 9.242456 -6.111229 -9.166844
Zn 6.186841 -3.055615 -9.166844
Zn 9.242456 -3.055615 -6.111229
Zn 6.186841 -6.111229 0.000000
Zn 9.242456 -6.111229 -3.055615
Zn 6.186841 -3.055615 -3.055615
Zn 9.242456 -3.055615 0.000000
Zn 6.186841 -6.111229 6.111229
Zn 9.242456 -6.111229 3.055615
Zn 6.186841 -3.055615 3.055615
Zn 9.242456 -3.055615 6.111229
Zn 6.186841 -6.111229 12.222458
Zn 9.242456 -6.111229 9.166844
Zn 6.186841 -3.055615 9.166844
Zn 9.242456 -3.055615 12.222458
Zn 6.186841 -0.000000 -12.222458
Zn 9.242456 3.055615 -12.222458
Zn 6.186841 -0.000000 -6.111229
Zn 9.242456 -0.000000 -9.166844
Zn 6.186841 3.055615 -9.166844
Zn 9.242456 3.055615 -6.111229
Zn 6.186841 -0.000000 0.000000
Zn 9.242456 -0.000000 -3.055615
Zn 6.186841 3.055615 -3.055615
Zn 9.242456 3.055615 0.000000
Zn 6.186841 -0.000000 6.111229
Zn 9.242456 -0.000000 3.055615
Zn 6.186841 3.055615 3.055615
Zn 9.242456 3.055615 6.111229
Zn 6.186841 -0.000000 12.222458
Zn 9.242456 -0.000000 9.166844
Zn 6.186841 3.055615 9.166844
Zn 9.242456 3.055615 12.222458
Zn 6.186841 6.111229 -12.222458
Zn 6.186841 6.111229 -6.111229
Zn 9.242456 6.111229 -9.166844
Zn 6.186841 9.166844 -9.166844
Zn 9.242456 9.166844 -6.111229
Zn 6.186841 6.111229 0.000000
Zn 9.242456 6.111229 -3.055615
Zn 6.186841 9.166844 -3.055615
Zn 9.242456 9.166844 0.000000
Zn 6.186841 6.111229 6.111229
Zn 9.242456 6.111229 3.055615
Zn 6.186841 9.166844 3.055615
Zn 9.242456 9.166844 6.111229
Zn 6.186841 6.111229 12.222458
Zn 9.242456 6.111229 9.166844
Zn 6.186841 9.166844 9.166844
Zn 6.186841 12.222458 -6.111229
Zn 6.186841 12.222458 0.000000
Zn 9.242456 12.222458 -3.055615
Zn 6.186841 12.222458 6.111229
Zn 9.242456 12.222458 3.055615
Zn 12.298070 -12.222458 0.000000
Zn 12.298070 -9.166844 -3.055615
Zn 12.298070 -9.166844 3.055615
Zn 12.298070 -6.111229 -6.111229
Zn 12.298070 -3.055615 -9.166844
Zn 12.298070 -6.111229 0.000000
Zn 12.298070 -3.055615 -3.055615
Zn 12.298070 -6.111229 6.111229
Zn 12.298070 -3.055615 3.055615
Zn 12.298070 -3.055615 9.166844
Zn 12.298070 -0.000000 -12.222458
Zn 12.298070 -0.000000 -6.111229
Zn 12.298070 3.055615 -9.166844
Zn 12.298070 -0.000000 0.000000
Zn 12.298070 3.055615 -3.055615
Zn 12.298070 -0.000000 6.111229
Zn 12.298070 3.055615 3.055615
Zn 12.298070 -0.000000 12.222458
Zn 12.298070 3.055615 9.166844
Zn 12.298070 6.111229 -6.111229
Zn 12.298070 6.111229 0.000000
Zn 12.298070 9.166844 -3.055615
Zn 12.298070 6.111229 6.111229
Zn 12.298070 9.166844 3.055615
Zn 12.298070 12.222458 0.000000
Te -10.619039 -7.639036 -4.583422
Te -7.563424 -7.639036 -7.639036
Te -7.563424 -10.694651 -4.583422
Te -10.619039 -10.694651 -1.527807
Te -10.619039 -7.639036 1.527807
Te -7.563424 -7.639036 -1.527807
Te -7.563424 -10.694651 1.527807
Te -10.619039 -10.694651 4.583422
Te -10.619039 -7.639036 7.639036
Te -7.563424 -7.639036 4.583422
Te -7.563424 -10.694651 7.639036
Te -7.563424 -7.639036 10.694651
Te -10.619039 -1.527807 -10.694651
Te -7.563424 -4.583422 -10.694651
Te -10.619039 -4.583422 -7.639036
Te -10.619039 -1.527807 -4.583422
Te -7.563424 -1.527807 -7.639036
Te -7.563424 -4.583422 -4.583422
Te -10.619039 -4.583422 -1.527807
Te -10.619039 -1.527807 1.527807
Te -7.563424 -1.527807 -1.527807
Te -7.563424 -4.583422 1.527807
Te -10.619039 -4.583422 4.583422
Te -10.619039 -1.527807 7.639036
Te -7.563424 -1.527807 4.583422
Te -7.563424 -4.583422 7.639036
Te -10.619039 -4.583422 10.694651
Te -7.563424 -1.527807 10.694651
Te -10.619039 4.583422 -10.694651
Te -7.563424 1.527807 -10.694651
Te -10.619039 1.527807 -7.639036
Te -10.619039 4.583422 -4.583422
Te -7.563424 4.583422 -7.639036
Te -7.563424 1.527807 -4.583422
Te -10.619039 1.527807 -1.527807
Te -10.619039 4.583422 1.527807
Te -7.563424 4.583422 -1.527807
Te -7.563424 1.527807 1.527807
Te -10.619039 1.527807 4.583422
Te -10.619039 4.583422 7.639036
Te -7.563424 4.583422 4.583422
Te -7.563424 1.527807 7.639036
Te -10.619039 1.527807 10.694651
Te -7.563424 4.583422 10.694651
Te -7.563424 7.639036 -10.694651
Te -10.619039 7.639036 -7.639036
Te -10.619039 10.694651 -4.583422
Te -7.563424 10.694651 -7.639036
Te -7.563424 7.639036 -4.583422
Te -10.619039 7.639036 -1.527807
Te -10.619039 10.694651 1.527807
Te -7.563424 10.694651 -1.527807
Te -7.563424 7.639036 1.527807
Te -10.619039 7.639036 4.583422
Te -7.563424 10.694651 4.583422
Te -7.563424 7.639036 7.639036
Te -4.507810 -7.639036 -10.694651
Te -1.452195 -10.694651 -10.694651
Te -4.507810 -10.694651 -7.639036
Te -4.507810 -7.639036 -4.583422
Te -1.452195 -7.639036 -7.639036
Te -1.452195 -10.694651 -4.583422
Te -4.507810 -10.694651 -1.527807
Te -4.507810 -7.639036 1.527807
Te -1.452195 -7.639036 -1.527807
Te -1.452195 -10.694651 1.527807
Te -4.507810 -10.694651 4.583422
Te -4.507810 -7.639036 7.639036
Te -1.452195 -7.639036 4.583422
Te -1.452195 -10.694651 7.639036
Te -4.507810 -10.694651 10.694651
Te -1.452195 -7.639036 10.694651
Te -4.507810 -1.527807 -10.694651
Te -1.452195 -4.583422 -10.694651
Te -4.507810 -4.583422 -7.639036
Te -4.507810 -1.527807 -4.583422
Te -1.452195 -1.527807 -7.639036
Te -1.452195 -4.583422 -4.583422
Te -4.507810 -4.583422 -1.527807
Te -4.507810 -1.527807 1.527807
Te -1.452195 -1.527807 -1.527807
Te -1.452195 -4.583422 1.527807
Te -4.507810 -4.583422 4.583422
Te -4.507810 -1.527807 7.639036
Te -1.452195 -1.527807 4.583422
Te -1.452195 -4.583422 7.639036
Te -4.507810 -4.583422 10.694651
Te -1.452195 -1.527807 10.694651
Te -4.507810 4.583422 -10.694651
Te -1.452195 1.527807 -10.694651
Te -4.507810 1.527807 -7.639036
Te -4.507810 4.583422 -4.583422
Te -1.452195 4.583422 -7.639036
Te -1.452195 1.527807 -4.583422
Te -4.507810 1.527807 -1.527807
Te -4.507810 4.583422 1.527807
Te -1.452195 4.583422 -1.527807
Te -1.452195 1.527807 1.527807
Te -4.507810 1.527807 4.583422
Te -4.507810 4.583422 7.639036
Te -1.452195 4.583422 4.583422
Te -1.452195 1.527807 7.639036
Te -4.507810 1.527807 10.694651
Te -1.452195 4.583422 10.694651
Te -4.507810 10.694651 -10.694651
Te -1.452195 7.639036 -10.694651
Te -4.507810 7.639036 -7.639036
Te -4.507810 10.694651 -4.583422
Te -1.452195 10.694651 -7.639036
Te -1.452195 7.639036 -4.583422
Te -4.507810 7.639036 -1.527807
Te -4.507810 10.694651 1.527807
Te -1.452195 10.694651 -1.527807
Te -1.452195 7.639036 1.527807
Te -4.507810 7.639036 4.583422
Te -4.507810 10.694651 7.639036
Te -1.452195 10.694651 4.583422
Te -1.452195 7.639036 7.639036
Te -4.507810 7.639036 10.694651
Te -1.452195 10.694651 10.694651
Te 1.603419 -7.639036 -10.694651
Te 4.659034 -10.694651 -10.694651
Te 1.603419 -10.694651 -7.639036
Te 1.603419 -7.639036 -4.583422
Te 4.659034 -7.639036 -7.639036
Te 4.659034 -10.694651 -4.583422
Te 1.603419 -10.694651 -1.527807
Te 1.603419 -7.639036 1.527807
Te 4.659034 -7.639036 -1.527807
Te 4.659034 -10.694651 1.527807
Te 1.603419 -10.694651 4.583422
Te 1.603419 -7.639036 7.639036
Te 4.659034 -7.639036 4.583422
Te 4.659034 -10.694651 7.639036
Te 1.603419 -10.694651 10.694651
Te 4.659034 -7.639036 10.694651
Te 1.603419 -1.527807 -10.694651
Te 4.659034 -4.583422 -10.694651
Te 1.603419 -4.583422 -7.639036
Te 1.603419 -1.527807 -4.583422
Te 4.659034 -1.527807 -7.639036
Te 4.659034 -4.583422 -4.583422
Te 1.603419 -4.583422 -1.527807
Te 1.603419 -1.527807 1.527807
Te 4.659034 -1.527807 -1.527807
Te 4.659034 -4.583422 1.527807
Te 1.603419 -4.583422 4.583422
Te 1.603419 -1.527807 7.639036
Te 4.659034 -1.527807 4.583422
Te 4.659034 -4.583422 7.639036
Te 1.603419 -4.583422 10.694651
Te 4.659034 -1.527807 10.694651
Te 1.603419 4.583422 -10.694651
Te 4.659034 1.527807 -10.694651
Te 1.603419 1.527807 -7.639036
Te 1.603419 4.583422 -4.583422
Te 4.659034 4.583422 -7.639036
Te 4.659034 1.527807 -4.583422
Te 1.603419 1.527807 -1.527807
Te 1.603419 4.583422 1.527807
Te 4.659034 4.583422 -1.527807
Te 4.659034 1.527807 1.527807
Te 1.603419 1.527807 4.583422
Te 1.603419 4.583422 7.639036
Te 4.659034 4.583422 4.583422
Te 4.659034 1.527807 7.639036
Te 1.603419 1.527807 10.694651
Te 4.659034 4.583422 10.694651
Te 1.603419 10.694651 -10.694651
Te 4.659034 7.639036 -10.694651
Te 1.603419 7.639036 -7.639036
Te 1.603419 10.694651 -4.583422
Te 4.659034 10.694651 -7.639036
Te 4.659034 7.639036 -4.583422
Te 1.603419 7.639036 -1.527807
Te 1.603419 10.694651 1.527807
Te 4.659034 10.694651 -1.527807
Te 4.659034 7.639036 1.527807
Te 1.603419 7.639036 4.583422
Te 1.603419 10.694651 7.639036
Te 4.659034 10.694651 4.583422
Te 4.659034 7.639036 7.639036
Te 1.603419 7.639036 10.694651
Te 4.659034 10.694651 10.694651
Te 7.714648 -7.639036 -10.694651
Te 7.714648 -10.694651 -7.639036
Te 7.714648 -7.639036 -4.583422
Te 10.770263 -7.639036 -7.639036
Te 10.770263 -10.694651 -4.583422
Te 7.714648 -10.694651 -1.527807
Te 7.714648 -7.639036 1.527807
Te 10.770263 -7.639036 -1.527807
Te 10.770263 -10.694651 1.527807
Te 7.714648 -10.694651 4.583422
Te 7.714648 -7.639036 7.639036
Te 10.770263 -7.639036 4.583422
Te 7.714648 -1.527807 -10.694651
Te 10.770263 -4.583422 -10.694651
Te 7.714648 -4.583422 -7.639036
Te 7.714648 -1.527807 -4.583422
Te 10.770263 -1.527807 -7.639036
Te 10.770263 -4.583422 -4.583422
Te 7.714648 -4.583422 -1.527807
Te 7.714648 -1.527807 1.527807
Te 10.770263 -1.527807 -1.527807
Te 10.770263 -4.583422 1.527807
Te 7.714648 -4.583422 4.583422
Te 7.714648 -1.527807 7.639036
Te 10.770263 -1.527807 4.583422
Te 10.770263 -4.583422 7.639036
Te 7.714648 -4.583422 10.694651
Te 10.770263 -1.527807 10.694651
Te 7.714648 4.583422 -10.694651
Te 10.770263 1.527807 -10.694651
Te 7.714648 1.527807 -7.639036
Te 7.714648 4.583422 -4.583422
Te 10.770263 4.583422 -7.639036
Te 10.770263 1.527807 -4.583422
Te 7.714648 1.527807 -1.527807
Te 7.714648 4.583422 1.527807
Te 10.770263 4.583422 -1.527807
Te 10.770263 1.527807 1.527807
Te 7.714648 1.527807 4.583422
Te 7.714648 4.583422 7.639036
Te 10.770263 4.583422 4.583422
Te 10.770263 1.527807 7.639036
Te 7.714648 1.527807 10.694651
Te 10.770263 4.583422 10.694651
Te 7.714648 7.639036 -7.639036
Te 7.714648 10.694651 -4.583422
Te 10.770263 7.639036 -4.583422
Te 7.714648 7.639036 -1.527807
Te 7.714648 10.694651 1.527807
Te 10.770263 10.694651 -1.527807
Te 10.770263 7.639036 1.527807
Te 7.714648 7.639036 4.583422
Te 7.714648 10.694651 7.639036
Te 10.770263 10.694651 4.583422
Te 10.770263 7.639036 7.639036
Te 7.714648 7.639036 10.694651
Cl -13.674654 -7.639036 -1.527807
Cl -13.674654 -10.694651 1.527807
Cl -13.674654 -7.639036 4.583422
Cl -13.674654 -1.527807 -7.639036
Cl -13.674654 -4.583422 -4.583422
Cl -13.674654 -1.527807 -1.527807
Cl -13.674654 -4.583422 1.527807
Cl -13.674654 -1.527807 4.583422
Cl -13.674654 -4.583422 7.639036
Cl -13.674654 -1.527807 10.694651
Cl -13.674654 1.527807 -10.694651
Cl -13.674654 4.583422 -7.639036
Cl -13.674654 1.527807 -4.583422
Cl -13.674654 4.583422 -1.527807
Cl -13.674654 1.527807 1.527807
Cl -13.674654 4.583422 4.583422
Cl -13.674654 1.527807 7.639036
Cl -13.674654 7.639036 -4.583422
Cl -13.674654 10.694651 -1.527807
Cl -13.674654 7.639036 1.527807
Cl -10.619039 -13.750266 1.527807
Cl -7.563424 -13.750266 -1.527807
Cl -7.563424 -13.750266 4.583422
Cl -7.563424 -1.527807 -13.750266
Cl -10.619039 -1.527807 13.750266
Cl -7.563424 -4.583422 13.750266
Cl -10.619039 1.527807 -13.750266
Cl -7.563424 4.583422 -13.750266
Cl -7.563424 1.527807 13.750266
Cl -7.563424 13.750266 -4.583422
Cl -10.619039 13.750266 -1.527807
Cl -7.563424 13.750266 1.527807
Cl -4.507810 -13.750266 -4.583422
Cl -1.452195 -13.750266 -7.639036
Cl -4.507810 -13.750266 1.527807
Cl -1.452195 -13.750266 -1.527807
Cl -4.507810 -13.750266 7.639036
Cl -1.452195 -13.750266 4.583422
Cl -1.452195 -13.750266 10.694651
Cl -1.452195 -7.639036 -13.750266
Cl -4.507810 -7.639036 13.750266
Cl -1.452195 -10.694651 13.750266
Cl -4.507810 -4.583422 -13.750266
Cl -1.452195 -1.527807 -13.750266
Cl -4.507810 -1.527807 13.750266
Cl -1.452195 -4.583422 13.750266
Cl -4.507810 1.527807 -13.750266
Cl -1.452195 4.583422 -13.750266
Cl -4.507810 4.583422 13.750266
Cl -1.452195 1.527807 13.750266
Cl -4.507810 7.639036 -13.750266
Cl -1.452195 10.694651 -13.750266
Cl -1.452195 7.639036 13.750266
Cl -1.452195 13.750266 -10.694651
Cl -4.507810 13.750266 -7.639036
Cl -1.452195 13.750266 -4.583422
Cl -4.507810 13.750266 -1.527807
Cl -1.452195 13.750266 1.527807
Cl -4.507810 13.750266 4.583422
Cl -1.452195 13.750266 7.639036
Cl 1.603419 -13.750266 -10.694651
Cl 1.603419 -13.750266 -4.583422
Cl 4.659034 -13.750266 -7.639036
Cl 1.603419 -13.750266 1.527807
Cl 4.659034 -13.750266 -1.527807
Cl 1.603419 -13.750266 7.639036
Cl 4.659034 -13.750266 4.583422
Cl 1.603419 -10.694651 -13.750266
Cl 4.659034 -7.639036 -13.750266
Cl 1.603419 -7.639036 13.750266
Cl 1.603419 -4.583422 -13.750266
Cl 4.659034 -1.527807 -13.750266
Cl 1.603419 -1.527807 13.750266
Cl 4.659034 -4.583422 13.750266
Cl 1.603419 1.527807 -13.750266
Cl 4.659034 4.583422 -13.750266
Cl 1.603419 4.583422 13.750266
Cl 4.659034 1.527807 13.750266
Cl 1.603419 7.639036 -13.750266
Cl 1.603419 10.694651 13.750266
Cl 4.659034 7.639036 13.750266
Cl 1.603419 13.750266 -7.639036
Cl 4.659034 13.750266 -4.583422
Cl 1.603419 13.750266 -1.527807
Cl 4.659034 13.750266 1.527807
Cl 1.603419 13.750266 4.583422
Cl 4.659034 13.750266 7.639036
Cl 1.603419 13.750266 10.694651
Cl 7.714648 -13.750266 -4.583422
Cl 7.714648 -13.750266 1.527807
Cl 10.770263 -13.750266 -1.527807
Cl 7.714648 -4.583422 -13.750266
Cl 10.770263 -1.527807 -13.750266
Cl 7.714648 -1.527807 13.750266
Cl 7.714648 1.527807 -13.750266
Cl 7.714648 4.583422 13.750266
Cl 10.770263 1.527807 13.750266
Cl 7.714648 13.750266 -1.527807
Cl 10.770263 13.750266 1.527807
Cl 7.714648 13.750266 4.583422
Cl 13.825878 -7.639036 -4.583422
Cl 13.825878 -10.694651 -1.527807
Cl 13.825878 -7.639036 1.527807
Cl 13.825878 -1.527807 -10.694651
Cl 13.825878 -4.583422 -7.639036
Cl 13.825878 -1.527807 -4.583422
Cl 13.825878 -4.583422 -1.527807
Cl 13.825878 -1.527807 1.527807
Cl 13.825878 -4.583422 4.583422
Cl 13.825878 -1.527807 7.639036
Cl 13.825878 1.527807 -7.639036
Cl 13.825878 4.583422 -4.583422
Cl 13.825878 1.527807 -1.527807
Cl 13.825878 4.583422 1.527807
Cl 13.825878 1.527807 4.583422
Cl 13.825878 4.583422 7.639036
Cl 13.825878 1.527807 10.694651
Cl 13.825878 7.639036 -1.527807
Cl 13.825878 10.694651 1.527807
Cl 13.825878 7.639036 4.583422
Cl -10.619039 -10.694651 -4.583422
Cl -10.619039 4.583422 10.694651
Cl 4.659034 -10.694651 10.694651
Cl 4.659034 10.694651 -10.694651
Cl -10.619039 -4.583422 -10.694651
Cl -10.619039 10.694651 4.583422
Cl 10.770263 -10.694651 4.583422
Cl 10.770263 4.583422 -10.694651
Cl -4.507810 -10.694651 -10.694651
Cl -4.507810 10.694651 10.694651
Cl 10.770263 -4.583422 10.694651
Cl 10.770263 10.694651 -4.583422
Cl -13.674654 -13.750266 -1.527807
Cl -13.674654 1.527807 13.750266
Cl 1.603419 -13.750266 13.750266
Cl 1.603419 13.750266 -13.750266
Cl -13.674654 -1.527807 -13.750266
Cl -13.674654 13.750266 1.527807
