2004
InP-In-In889P776Cl339-clean
In -20.655733 -14.753253 -11.796858
In -20.655733 -11.801277 -14.748834
In -23.607709 -11.801277 -11.796858
In -20.655733 -8.849300 -11.796858
In -20.655733 -11.801277 -8.844881
In -23.607709 -8.849300 -8.844881
In -20.655733 -8.849300 -5.892905
In -20.655733 -5.897324 -8.844881
In -23.607709 -5.897324 -5.892905
In -20.655733 -2.945348 -5.892905
In -20.655733 -5.897324 -2.940929
In -23.607709 -2.945348 -2.940929
In -20.655733 -2.945348 0.011048
In -20.655733 0.006629 -2.940929
In -23.607709 0.006629 0.011048
In -20.655733 2.958605 0.011048
In -20.655733 0.006629 2.963024
In -23.607709 2.958605 2.963024
In -20.655733 2.958605 5.915001
In -20.655733 5.910581 2.963024
In -23.607709 5.910581 5.915001
In -20.655733 8.862558 5.915001
In -20.655733 5.910581 8.866977
In -23.607709 8.862558 8.866977
In -20.655733 8.862558 11.818953
In -20.655733 11.814534 8.866977
In -23.607709 11.814534 11.818953
In -20.655733 14.766511 11.818953
In -20.655733 11.814534 14.770930
In -14.751780 -20.657206 -11.796858
In -14.751780 -14.753253 -17.700810
In -14.751780 -17.705230 -14.748834
In -17.703757 -14.753253 -14.748834
In -17.703757 -17.705230 -11.796858
In -14.751780 -14.753253 -11.796858
In -14.751780 -17.705230 -8.844881
In -17.703757 -14.753253 -8.844881
In -14.751780 -14.753253 -5.892905
In -14.751780 -11.801277 -20.652787
In -17.703757 -11.801277 -17.700810
In -14.751780 -8.849300 -17.700810
In -14.751780 -11.801277 -14.748834
In -17.703757 -8.849300 -14.748834
In -17.703757 -11.801277 -11.796858
In -14.751780 -8.849300 -11.796858
In -14.751780 -11.801277 -8.844881
In -17.703757 -8.849300 -8.844881
In -17.703757 -11.801277 -5.892905
In -14.751780 -8.849300 -5.892905
In -14.751780 -11.801277 -2.940929
In -17.703757 -8.849300 -2.940929
In -14.751780 -8.849300 0.011048
In -14.751780 -5.897324 -14.748834
In -17.703757 -5.897324 -11.796858
In -14.751780 -2.945348 -11.796858
In -14.751780 -5.897324 -8.844881
In -17.703757 -2.945348 -8.844881
In -17.703757 -5.897324 -5.892905
In -14.751780 -2.945348 -5.892905
In -14.751780 -5.897324 -2.940929
In -17.703757 -2.945348 -2.940929
In -17.703757 -5.897324 0.011048
In -14.751780 -2.945348 0.011048
In -14.751780 -5.897324 2.963024
In -17.703757 -2.945348 2.963024
In -14.751780 -2.945348 5.915001
In -14.751780 0.006629 -8.844881
In -17.703757 0.006629 -5.892905
In -14.751780 2.958605 -5.892905
In -14.751780 0.006629 -2.940929
In -17.703757 2.958605 -2.940929
In -17.703757 0.006629 0.011048
In -14.751780 2.958605 0.011048
In -14.751780 0.006629 2.963024
In -17.703757 2.958605 2.963024
In -17.703757 0.006629 5.915001
In -14.751780 2.958605 5.915001
In -14.751780 0.006629 8.866977
In -17.703757 2.958605 8.866977
In -14.751780 2.958605 11.818953
In -14.751780 5.910581 -2.940929
In -17.703757 5.910581 0.011048
In -14.751780 8.862558 0.011048
In -14.751780 5.910581 2.963024
In -17.703757 8.862558 2.963024
In -17.703757 5.910581 5.915001
In -14.751780 8.862558 5.915001
In -14.751780 5.910581 8.866977
In -17.703757 8.862558 8.866977
In -17.703757 5.910581 11.818953
In -14.751780 8.862558 11.818953
In -14.751780 5.910581 14.770930
In -17.703757 8.862558 14.770930
In -14.751780 8.862558 17.722906
In -14.751780 11.814534 2.963024
In -17.703757 11.814534 5.915001
In -14.751780 14.766511 5.915001
In -14.751780 11.814534 8.866977
In -17.703757 14.766511 8.866977
In -17.703757 11.814534 11.818953
In -14.751780 14.766511 11.818953
In -14.751780 11.814534 14.770930
In -17.703757 14.766511 14.770930
In -17.703757 11.814534 17.722906
In -14.751780 14.766511 17.722906
In -14.751780 11.814534 20.674883
In -14.751780 17.718487 8.866977
In -17.703757 17.718487 11.818953
In -14.751780 20.670463 11.818953
In -14.751780 17.718487 14.770930
In -11.799804 -20.657206 -14.748834
In -11.799804 -23.609182 -11.796858
In -8.847827 -20.657206 -11.796858
In -8.847827 -23.609182 -8.844881
In -11.799804 -20.657206 -8.844881
In -8.847827 -20.657206 -5.892905
In -11.799804 -14.753253 -20.652787
In -11.799804 -17.705230 -17.700810
In -8.847827 -14.753253 -17.700810
In -8.847827 -17.705230 -14.748834
In -11.799804 -14.753253 -14.748834
In -11.799804 -17.705230 -11.796858
In -8.847827 -14.753253 -11.796858
In -8.847827 -17.705230 -8.844881
In -11.799804 -14.753253 -8.844881
In -11.799804 -17.705230 -5.892905
In -8.847827 -14.753253 -5.892905
In -8.847827 -17.705230 -2.940929
In -11.799804 -14.753253 -2.940929
In -8.847827 -14.753253 0.011048
In -11.799804 -11.801277 -23.604763
In -8.847827 -8.849300 -23.604763
In -8.847827 -11.801277 -20.652787
In -11.799804 -8.849300 -20.652787
In -11.799804 -11.801277 -17.700810
In -8.847827 -8.849300 -17.700810
In -8.847827 -11.801277 -14.748834
In -11.799804 -8.849300 -14.748834
In -11.799804 -11.801277 -11.796858
In -8.847827 -8.849300 -11.796858
In -8.847827 -11.801277 -8.844881
In -11.799804 -8.849300 -8.844881
In -11.799804 -11.801277 -5.892905
In -8.847827 -8.849300 -5.892905
In -8.847827 -11.801277 -2.940929
In -11.799804 -8.849300 -2.940929
In -11.799804 -11.801277 0.011048
In -8.847827 -8.849300 0.011048
In -8.847827 -11.801277 2.963024
In -11.799804 -8.849300 2.963024
In -8.847827 -8.849300 5.915001
In -8.847827 -5.897324 -20.652787
In -11.799804 -5.897324 -17.700810
In -8.847827 -2.945348 -17.700810
In -8.847827 -5.897324 -14.748834
In -11.799804 -2.945348 -14.748834
In -11.799804 -5.897324 -11.796858
In -8.847827 -2.945348 -11.796858
In -8.847827 -5.897324 -8.844881
In -11.799804 -2.945348 -8.844881
In -11.799804 -5.897324 -5.892905
In -8.847827 -2.945348 -5.892905
In -8.847827 -5.897324 -2.940929
In -11.799804 -2.945348 -2.940929
In -11.799804 -5.897324 0.011048
In -8.847827 -2.945348 0.011048
In -8.847827 -5.897324 2.963024
In -11.799804 -2.945348 2.963024
In -11.799804 -5.897324 5.915001
In -8.847827 -2.945348 5.915001
In -8.847827 -5.897324 8.866977
In -11.799804 -2.945348 8.866977
In -8.847827 -2.945348 11.818953
In -8.847827 0.006629 -14.748834
In -11.799804 0.006629 -11.796858
In -8.847827 2.958605 -11.796858
In -8.847827 0.006629 -8.844881
In -11.799804 2.958605 -8.844881
In -11.799804 0.006629 -5.892905
In -8.847827 2.958605 -5.892905
In -8.847827 0.006629 -2.940929
In -11.799804 2.958605 -2.940929
In -11.799804 0.006629 0.011048
In -8.847827 2.958605 0.011048
In -8.847827 0.006629 2.963024
In -11.799804 2.958605 2.963024
In -11.799804 0.006629 5.915001
In -8.847827 2.958605 5.915001
In -8.847827 0.006629 8.866977
In -11.799804 2.958605 8.866977
In -11.799804 0.006629 11.818953
In -8.847827 2.958605 11.818953
In -8.847827 0.006629 14.770930
In -11.799804 2.958605 14.770930
In -8.847827 2.958605 17.722906
In -8.847827 5.910581 -8.844881
In -11.799804 5.910581 -5.892905
In -8.847827 8.862558 -5.892905
In -8.847827 5.910581 -2.940929
In -11.799804 8.862558 -2.940929
In -11.799804 5.910581 0.011048
In -8.847827 8.862558 0.011048
In -8.847827 5.910581 2.963024
In -11.799804 8.862558 2.963024
In -11.799804 5.910581 5.915001
In -8.847827 8.862558 5.915001
In -8.847827 5.910581 8.866977
In -11.799804 8.862558 8.866977
In -11.799804 5.910581 11.818953
In -8.847827 8.862558 11.818953
In -8.847827 5.910581 14.770930
In -11.799804 8.862558 14.770930
In -11.799804 5.910581 17.722906
In -8.847827 8.862558 17.722906
In -8.847827 5.910581 20.674883
In -11.799804 8.862558 20.674883
In -8.847827 8.862558 23.626859
In -8.847827 11.814534 -2.940929
In -11.799804 11.814534 0.011048
In -8.847827 14.766511 0.011048
In -8.847827 11.814534 2.963024
In -11.799804 14.766511 2.963024
In -11.799804 11.814534 5.915001
In -8.847827 14.766511 5.915001
In -8.847827 11.814534 8.866977
In -11.799804 14.766511 8.866977
In -11.799804 11.814534 11.818953
In -8.847827 14.766511 11.818953
In -8.847827 11.814534 14.770930
In -11.799804 14.766511 14.770930
In -11.799804 11.814534 17.722906
In -8.847827 14.766511 17.722906
In -8.847827 11.814534 20.674883
In -11.799804 14.766511 20.674883
In -11.799804 11.814534 23.626859
In -8.847827 17.718487 2.963024
In -11.799804 17.718487 5.915001
In -8.847827 20.670463 5.915001
In -8.847827 17.718487 8.866977
In -11.799804 20.670463 8.866977
In -11.799804 17.718487 11.818953
In -8.847827 20.670463 11.818953
In -8.847827 17.718487 14.770930
In -11.799804 20.670463 14.770930
In -11.799804 17.718487 17.722906
In -8.847827 23.622440 8.866977
In -11.799804 23.622440 11.818953
In -5.895851 -20.657206 -8.844881
In -5.895851 -23.609182 -5.892905
In -2.943875 -20.657206 -5.892905
In -2.943875 -23.609182 -2.940929
In -5.895851 -20.657206 -2.940929
In -2.943875 -20.657206 0.011048
In -5.895851 -14.753253 -14.748834
In -5.895851 -17.705230 -11.796858
In -2.943875 -14.753253 -11.796858
In -2.943875 -17.705230 -8.844881
In -5.895851 -14.753253 -8.844881
In -5.895851 -17.705230 -5.892905
In -2.943875 -14.753253 -5.892905
In -2.943875 -17.705230 -2.940929
In -5.895851 -14.753253 -2.940929
In -5.895851 -17.705230 0.011048
In -2.943875 -14.753253 0.011048
In -2.943875 -17.705230 2.963024
In -5.895851 -14.753253 2.963024
In -2.943875 -14.753253 5.915001
In -5.895851 -8.849300 -20.652787
In -5.895851 -11.801277 -17.700810
In -2.943875 -8.849300 -17.700810
In -2.943875 -11.801277 -14.748834
In -5.895851 -8.849300 -14.748834
In -5.895851 -11.801277 -11.796858
In -2.943875 -8.849300 -11.796858
In -2.943875 -11.801277 -8.844881
In -5.895851 -8.849300 -8.844881
In -5.895851 -11.801277 -5.892905
In -2.943875 -8.849300 -5.892905
In -2.943875 -11.801277 -2.940929
In -5.895851 -8.849300 -2.940929
In -5.895851 -11.801277 0.011048
In -2.943875 -8.849300 0.011048
In -2.943875 -11.801277 2.963024
In -5.895851 -8.849300 2.963024
In -5.895851 -11.801277 5.915001
In -2.943875 -8.849300 5.915001
In -2.943875 -11.801277 8.866977
In -5.895851 -8.849300 8.866977
In -2.943875 -8.849300 11.818953
In -5.895851 -5.897324 -23.604763
In -2.943875 -2.945348 -23.604763
In -2.943875 -5.897324 -20.652787
In -5.895851 -2.945348 -20.652787
In -5.895851 -5.897324 -17.700810
In -2.943875 -2.945348 -17.700810
In -2.943875 -5.897324 -14.748834
In -5.895851 -2.945348 -14.748834
In -5.895851 -5.897324 -11.796858
In -2.943875 -2.945348 -11.796858
In -2.943875 -5.897324 -8.844881
In -5.895851 -2.945348 -8.844881
In -5.895851 -5.897324 -5.892905
In -2.943875 -2.945348 -5.892905
In -2.943875 -5.897324 -2.940929
In -5.895851 -2.945348 -2.940929
In -5.895851 -5.897324 0.011048
In -2.943875 -2.945348 0.011048
In -2.943875 -5.897324 2.963024
In -5.895851 -2.945348 2.963024
In -5.895851 -5.897324 5.915001
In -2.943875 -2.945348 5.915001
In -2.943875 -5.897324 8.866977
In -5.895851 -2.945348 8.866977
In -5.895851 -5.897324 11.818953
In -2.943875 -2.945348 11.818953
In -2.943875 -5.897324 14.770930
In -5.895851 -2.945348 14.770930
In -2.943875 -2.945348 17.722906
In -2.943875 0.006629 -20.652787
In -5.895851 0.006629 -17.700810
In -2.943875 2.958605 -17.700810
In -2.943875 0.006629 -14.748834
In -5.895851 2.958605 -14.748834
In -5.895851 0.006629 -11.796858
In -2.943875 2.958605 -11.796858
In -2.943875 0.006629 -8.844881
In -5.895851 2.958605 -8.844881
In -5.895851 0.006629 -5.892905
In -2.943875 2.958605 -5.892905
In -2.943875 0.006629 -2.940929
In -5.895851 2.958605 -2.940929
In -5.895851 0.006629 0.011048
In -2.943875 2.958605 0.011048
In -2.943875 0.006629 2.963024
In -5.895851 2.958605 2.963024
In -5.895851 0.006629 5.915001
In -2.943875 2.958605 5.915001
In -2.943875 0.006629 8.866977
In -5.895851 2.958605 8.866977
In -5.895851 0.006629 11.818953
In -2.943875 2.958605 11.818953
In -2.943875 0.006629 14.770930
In -5.895851 2.958605 14.770930
In -5.895851 0.006629 17.722906
In -2.943875 2.958605 17.722906
In -2.943875 0.006629 20.674883
In -5.895851 2.958605 20.674883
In -2.943875 2.958605 23.626859
In -2.943875 5.910581 -14.748834
In -5.895851 5.910581 -11.796858
In -2.943875 8.862558 -11.796858
In -2.943875 5.910581 -8.844881
In -5.895851 8.862558 -8.844881
In -5.895851 5.910581 -5.892905
In -2.943875 8.862558 -5.892905
In -2.943875 5.910581 -2.940929
In -5.895851 8.862558 -2.940929
In -5.895851 5.910581 0.011048
In -2.943875 8.862558 0.011048
In -2.943875 5.910581 2.963024
In -5.895851 8.862558 2.963024
In -5.895851 5.910581 5.915001
In -2.943875 8.862558 5.915001
In -2.943875 5.910581 8.866977
In -5.895851 8.862558 8.866977
In -5.895851 5.910581 11.818953
In -2.943875 8.862558 11.818953
In -2.943875 5.910581 14.770930
In -5.895851 8.862558 14.770930
In -5.895851 5.910581 17.722906
In -2.943875 8.862558 17.722906
In -2.943875 5.910581 20.674883
In -5.895851 8.862558 20.674883
In -5.895851 5.910581 23.626859
In -2.943875 11.814534 -8.844881
In -5.895851 11.814534 -5.892905
In -2.943875 14.766511 -5.892905
In -2.943875 11.814534 -2.940929
In -5.895851 14.766511 -2.940929
In -5.895851 11.814534 0.011048
In -2.943875 14.766511 0.011048
In -2.943875 11.814534 2.963024
In -5.895851 14.766511 2.963024
In -5.895851 11.814534 5.915001
In -2.943875 14.766511 5.915001
In -2.943875 11.814534 8.866977
In -5.895851 14.766511 8.866977
In -5.895851 11.814534 11.818953
In -2.943875 14.766511 11.818953
In -2.943875 11.814534 14.770930
In -5.895851 14.766511 14.770930
In -5.895851 11.814534 17.722906
In -2.943875 17.718487 -2.940929
In -5.895851 17.718487 0.011048
In -2.943875 20.670463 0.011048
In -2.943875 17.718487 2.963024
In -5.895851 20.670463 2.963024
In -5.895851 17.718487 5.915001
In -2.943875 20.670463 5.915001
In -2.943875 17.718487 8.866977
In -5.895851 20.670463 8.866977
In -5.895851 17.718487 11.818953
In -2.943875 23.622440 2.963024
In -5.895851 23.622440 5.915001
In 0.008102 -20.657206 -2.940929
In 0.008102 -23.609182 0.011048
In 2.960078 -20.657206 0.011048
In 2.960078 -23.609182 2.963024
In 0.008102 -20.657206 2.963024
In 2.960078 -20.657206 5.915001
In 0.008102 -14.753253 -8.844881
In 0.008102 -17.705230 -5.892905
In 2.960078 -14.753253 -5.892905
In 2.960078 -17.705230 -2.940929
In 0.008102 -14.753253 -2.940929
In 0.008102 -17.705230 0.011048
In 2.960078 -14.753253 0.011048
In 2.960078 -17.705230 2.963024
In 0.008102 -14.753253 2.963024
In 0.008102 -17.705230 5.915001
In 2.960078 -14.753253 5.915001
In 2.960078 -17.705230 8.866977
In 0.008102 -14.753253 8.866977
In 2.960078 -14.753253 11.818953
In 0.008102 -8.849300 -14.748834
In 0.008102 -11.801277 -11.796858
In 2.960078 -8.849300 -11.796858
In 2.960078 -11.801277 -8.844881
In 0.008102 -8.849300 -8.844881
In 0.008102 -11.801277 -5.892905
In 2.960078 -8.849300 -5.892905
In 2.960078 -11.801277 -2.940929
In 0.008102 -8.849300 -2.940929
In 0.008102 -11.801277 0.011048
In 2.960078 -8.849300 0.011048
In 2.960078 -11.801277 2.963024
In 0.008102 -8.849300 2.963024
In 0.008102 -11.801277 5.915001
In 2.960078 -8.849300 5.915001
In 2.960078 -11.801277 8.866977
In 0.008102 -8.849300 8.866977
In 0.008102 -11.801277 11.818953
In 2.960078 -8.849300 11.818953
In 2.960078 -11.801277 14.770930
In 0.008102 -8.849300 14.770930
In 2.960078 -8.849300 17.722906
In 0.008102 -2.945348 -20.652787
In 0.008102 -5.897324 -17.700810
In 2.960078 -2.945348 -17.700810
In 2.960078 -5.897324 -14.748834
In 0.008102 -2.945348 -14.748834
In 0.008102 -5.897324 -11.796858
In 2.960078 -2.945348 -11.796858
In 2.960078 -5.897324 -8.844881
In 0.008102 -2.945348 -8.844881
In 0.008102 -5.897324 -5.892905
In 2.960078 -2.945348 -5.892905
In 2.960078 -5.897324 -2.940929
In 0.008102 -2.945348 -2.940929
In 0.008102 -5.897324 0.011048
In 2.960078 -2.945348 0.011048
In 2.960078 -5.897324 2.963024
In 0.008102 -2.945348 2.963024
In 0.008102 -5.897324 5.915001
In 2.960078 -2.945348 5.915001
In 2.960078 -5.897324 8.866977
In 0.008102 -2.945348 8.866977
In 0.008102 -5.897324 11.818953
In 2.960078 -2.945348 11.818953
In 2.960078 -5.897324 14.770930
In 0.008102 -2.945348 14.770930
In 0.008102 -5.897324 17.722906
In 2.960078 -2.945348 17.722906
In 2.960078 -5.897324 20.674883
In 0.008102 -2.945348 20.674883
In 2.960078 -2.945348 23.626859
In 0.008102 0.006629 -23.604763
In 2.960078 2.958605 -23.604763
In 2.960078 0.006629 -20.652787
In 0.008102 2.958605 -20.652787
In 0.008102 0.006629 -17.700810
In 2.960078 2.958605 -17.700810
In 2.960078 0.006629 -14.748834
In 0.008102 2.958605 -14.748834
In 0.008102 0.006629 -11.796858
In 2.960078 2.958605 -11.796858
In 2.960078 0.006629 -8.844881
In 0.008102 2.958605 -8.844881
In 0.008102 0.006629 -5.892905
In 2.960078 2.958605 -5.892905
In 2.960078 0.006629 -2.940929
In 0.008102 2.958605 -2.940929
In 0.008102 0.006629 0.011048
In 2.960078 2.958605 0.011048
In 2.960078 0.006629 2.963024
In 0.008102 2.958605 2.963024
In 0.008102 0.006629 5.915001
In 2.960078 2.958605 5.915001
In 2.960078 0.006629 8.866977
In 0.008102 2.958605 8.866977
In 0.008102 0.006629 11.818953
In 2.960078 2.958605 11.818953
In 2.960078 0.006629 14.770930
In 0.008102 2.958605 14.770930
In 0.008102 0.006629 17.722906
In 2.960078 2.958605 17.722906
In 2.960078 0.006629 20.674883
In 0.008102 2.958605 20.674883
In 0.008102 0.006629 23.626859
In 2.960078 5.910581 -20.652787
In 0.008102 5.910581 -17.700810
In 2.960078 8.862558 -17.700810
In 2.960078 5.910581 -14.748834
In 0.008102 8.862558 -14.748834
In 0.008102 5.910581 -11.796858
In 2.960078 8.862558 -11.796858
In 2.960078 5.910581 -8.844881
In 0.008102 8.862558 -8.844881
In 0.008102 5.910581 -5.892905
In 2.960078 8.862558 -5.892905
In 2.960078 5.910581 -2.940929
In 0.008102 8.862558 -2.940929
In 0.008102 5.910581 0.011048
In 2.960078 8.862558 0.011048
In 2.960078 5.910581 2.963024
In 0.008102 8.862558 2.963024
In 0.008102 5.910581 5.915001
In 2.960078 8.862558 5.915001
In 2.960078 5.910581 8.866977
In 0.008102 8.862558 8.866977
In 0.008102 5.910581 11.818953
In 2.960078 8.862558 11.818953
In 2.960078 5.910581 14.770930
In 0.008102 8.862558 14.770930
In 0.008102 5.910581 17.722906
In 2.960078 11.814534 -14.748834
In 0.008102 11.814534 -11.796858
In 2.960078 14.766511 -11.796858
In 2.960078 11.814534 -8.844881
In 0.008102 14.766511 -8.844881
In 0.008102 11.814534 -5.892905
In 2.960078 14.766511 -5.892905
In 2.960078 11.814534 -2.940929
In 0.008102 14.766511 -2.940929
In 0.008102 11.814534 0.011048
In 2.960078 14.766511 0.011048
In 2.960078 11.814534 2.963024
In 0.008102 14.766511 2.963024
In 0.008102 11.814534 5.915001
In 2.960078 14.766511 5.915001
In 2.960078 11.814534 8.866977
In 0.008102 14.766511 8.866977
In 0.008102 11.814534 11.818953
In 2.960078 17.718487 -8.844881
In 0.008102 17.718487 -5.892905
In 2.960078 20.670463 -5.892905
In 2.960078 17.718487 -2.940929
In 0.008102 20.670463 -2.940929
In 0.008102 17.718487 0.011048
In 2.960078 20.670463 0.011048
In 2.960078 17.718487 2.963024
In 0.008102 20.670463 2.963024
In 0.008102 17.718487 5.915001
In 2.960078 23.622440 -2.940929
In 0.008102 23.622440 0.011048
In 5.912055 -20.657206 2.963024
In 5.912055 -23.609182 5.915001
In 8.864031 -20.657206 5.915001
In 8.864031 -23.609182 8.866977
In 5.912055 -20.657206 8.866977
In 8.864031 -20.657206 11.818953
In 5.912055 -14.753253 -2.940929
In 5.912055 -17.705230 0.011048
In 8.864031 -14.753253 0.011048
In 8.864031 -17.705230 2.963024
In 5.912055 -14.753253 2.963024
In 5.912055 -17.705230 5.915001
In 8.864031 -14.753253 5.915001
In 8.864031 -17.705230 8.866977
In 5.912055 -14.753253 8.866977
In 5.912055 -17.705230 11.818953
In 8.864031 -14.753253 11.818953
In 8.864031 -17.705230 14.770930
In 5.912055 -14.753253 14.770930
In 8.864031 -14.753253 17.722906
In 5.912055 -8.849300 -8.844881
In 5.912055 -11.801277 -5.892905
In 8.864031 -8.849300 -5.892905
In 8.864031 -11.801277 -2.940929
In 5.912055 -8.849300 -2.940929
In 5.912055 -11.801277 0.011048
In 8.864031 -8.849300 0.011048
In 8.864031 -11.801277 2.963024
In 5.912055 -8.849300 2.963024
In 5.912055 -11.801277 5.915001
In 8.864031 -8.849300 5.915001
In 8.864031 -11.801277 8.866977
In 5.912055 -8.849300 8.866977
In 5.912055 -11.801277 11.818953
In 8.864031 -8.849300 11.818953
In 8.864031 -11.801277 14.770930
In 5.912055 -8.849300 14.770930
In 5.912055 -11.801277 17.722906
In 8.864031 -8.849300 17.722906
In 8.864031 -11.801277 20.674883
In 5.912055 -8.849300 20.674883
In 8.864031 -8.849300 23.626859
In 5.912055 -2.945348 -14.748834
In 5.912055 -5.897324 -11.796858
In 8.864031 -2.945348 -11.796858
In 8.864031 -5.897324 -8.844881
In 5.912055 -2.945348 -8.844881
In 5.912055 -5.897324 -5.892905
In 8.864031 -2.945348 -5.892905
In 8.864031 -5.897324 -2.940929
In 5.912055 -2.945348 -2.940929
In 5.912055 -5.897324 0.011048
In 8.864031 -2.945348 0.011048
In 8.864031 -5.897324 2.963024
In 5.912055 -2.945348 2.963024
In 5.912055 -5.897324 5.915001
In 8.864031 -2.945348 5.915001
In 8.864031 -5.897324 8.866977
In 5.912055 -2.945348 8.866977
In 5.912055 -5.897324 11.818953
In 8.864031 -2.945348 11.818953
In 8.864031 -5.897324 14.770930
In 5.912055 -2.945348 14.770930
In 5.912055 -5.897324 17.722906
In 8.864031 -2.945348 17.722906
In 8.864031 -5.897324 20.674883
In 5.912055 -2.945348 20.674883
In 5.912055 -5.897324 23.626859
In 5.912055 2.958605 -20.652787
In 5.912055 0.006629 -17.700810
In 8.864031 2.958605 -17.700810
In 8.864031 0.006629 -14.748834
In 5.912055 2.958605 -14.748834
In 5.912055 0.006629 -11.796858
In 8.864031 2.958605 -11.796858
In 8.864031 0.006629 -8.844881
In 5.912055 2.958605 -8.844881
In 5.912055 0.006629 -5.892905
In 8.864031 2.958605 -5.892905
In 8.864031 0.006629 -2.940929
In 5.912055 2.958605 -2.940929
In 5.912055 0.006629 0.011048
In 8.864031 2.958605 0.011048
In 8.864031 0.006629 2.963024
In 5.912055 2.958605 2.963024
In 5.912055 0.006629 5.915001
In 8.864031 2.958605 5.915001
In 8.864031 0.006629 8.866977
In 5.912055 2.958605 8.866977
In 5.912055 0.006629 11.818953
In 8.864031 2.958605 11.818953
In 8.864031 0.006629 14.770930
In 5.912055 2.958605 14.770930
In 5.912055 0.006629 17.722906
In 5.912055 5.910581 -23.604763
In 8.864031 8.862558 -23.604763
In 8.864031 5.910581 -20.652787
In 5.912055 8.862558 -20.652787
In 5.912055 5.910581 -17.700810
In 8.864031 8.862558 -17.700810
In 8.864031 5.910581 -14.748834
In 5.912055 8.862558 -14.748834
In 5.912055 5.910581 -11.796858
In 8.864031 8.862558 -11.796858
In 8.864031 5.910581 -8.844881
In 5.912055 8.862558 -8.844881
In 5.912055 5.910581 -5.892905
In 8.864031 8.862558 -5.892905
In 8.864031 5.910581 -2.940929
In 5.912055 8.862558 -2.940929
In 5.912055 5.910581 0.011048
In 8.864031 8.862558 0.011048
In 8.864031 5.910581 2.963024
In 5.912055 8.862558 2.963024
In 5.912055 5.910581 5.915001
In 8.864031 8.862558 5.915001
In 8.864031 5.910581 8.866977
In 5.912055 8.862558 8.866977
In 5.912055 5.910581 11.818953
In 8.864031 11.814534 -20.652787
In 5.912055 11.814534 -17.700810
In 8.864031 14.766511 -17.700810
In 8.864031 11.814534 -14.748834
In 5.912055 14.766511 -14.748834
In 5.912055 11.814534 -11.796858
In 8.864031 14.766511 -11.796858
In 8.864031 11.814534 -8.844881
In 5.912055 14.766511 -8.844881
In 5.912055 11.814534 -5.892905
In 8.864031 14.766511 -5.892905
In 8.864031 11.814534 -2.940929
In 5.912055 14.766511 -2.940929
In 5.912055 11.814534 0.011048
In 8.864031 14.766511 0.011048
In 8.864031 11.814534 2.963024
In 5.912055 14.766511 2.963024
In 5.912055 11.814534 5.915001
In 8.864031 17.718487 -14.748834
In 5.912055 17.718487 -11.796858
In 8.864031 20.670463 -11.796858
In 8.864031 17.718487 -8.844881
In 5.912055 20.670463 -8.844881
In 5.912055 17.718487 -5.892905
In 8.864031 20.670463 -5.892905
In 8.864031 17.718487 -2.940929
In 5.912055 20.670463 -2.940929
In 5.912055 17.718487 0.011048
In 8.864031 23.622440 -8.844881
In 5.912055 23.622440 -5.892905
In 11.816007 -20.657206 8.866977
In 11.816007 -23.609182 11.818953
In 14.767984 -20.657206 11.818953
In 11.816007 -20.657206 14.770930
In 11.816007 -14.753253 2.963024
In 11.816007 -17.705230 5.915001
In 14.767984 -14.753253 5.915001
In 14.767984 -17.705230 8.866977
In 11.816007 -14.753253 8.866977
In 11.816007 -17.705230 11.818953
In 14.767984 -14.753253 11.818953
In 14.767984 -17.705230 14.770930
In 11.816007 -14.753253 14.770930
In 11.816007 -17.705230 17.722906
In 14.767984 -14.753253 17.722906
In 11.816007 -14.753253 20.674883
In 11.816007 -8.849300 -2.940929
In 11.816007 -11.801277 0.011048
In 14.767984 -8.849300 0.011048
In 14.767984 -11.801277 2.963024
In 11.816007 -8.849300 2.963024
In 11.816007 -11.801277 5.915001
In 14.767984 -8.849300 5.915001
In 14.767984 -11.801277 8.866977
In 11.816007 -8.849300 8.866977
In 11.816007 -11.801277 11.818953
In 14.767984 -8.849300 11.818953
In 14.767984 -11.801277 14.770930
In 11.816007 -8.849300 14.770930
In 11.816007 -11.801277 17.722906
In 14.767984 -8.849300 17.722906
In 14.767984 -11.801277 20.674883
In 11.816007 -8.849300 20.674883
In 11.816007 -11.801277 23.626859
In 11.816007 -2.945348 -8.844881
In 11.816007 -5.897324 -5.892905
In 14.767984 -2.945348 -5.892905
In 14.767984 -5.897324 -2.940929
In 11.816007 -2.945348 -2.940929
In 11.816007 -5.897324 0.011048
In 14.767984 -2.945348 0.011048
In 14.767984 -5.897324 2.963024
In 11.816007 -2.945348 2.963024
In 11.816007 -5.897324 5.915001
In 14.767984 -2.945348 5.915001
In 14.767984 -5.897324 8.866977
In 11.816007 -2.945348 8.866977
In 11.816007 -5.897324 11.818953
In 14.767984 -2.945348 11.818953
In 14.767984 -5.897324 14.770930
In 11.816007 -2.945348 14.770930
In 11.816007 -5.897324 17.722906
In 11.816007 2.958605 -14.748834
In 11.816007 0.006629 -11.796858
In 14.767984 2.958605 -11.796858
In 14.767984 0.006629 -8.844881
In 11.816007 2.958605 -8.844881
In 11.816007 0.006629 -5.892905
In 14.767984 2.958605 -5.892905
In 14.767984 0.006629 -2.940929
In 11.816007 2.958605 -2.940929
In 11.816007 0.006629 0.011048
In 14.767984 2.958605 0.011048
In 14.767984 0.006629 2.963024
In 11.816007 2.958605 2.963024
In 11.816007 0.006629 5.915001
In 14.767984 2.958605 5.915001
In 14.767984 0.006629 8.866977
In 11.816007 2.958605 8.866977
In 11.816007 0.006629 11.818953
In 11.816007 8.862558 -20.652787
In 11.816007 5.910581 -17.700810
In 14.767984 8.862558 -17.700810
In 14.767984 5.910581 -14.748834
In 11.816007 8.862558 -14.748834
In 11.816007 5.910581 -11.796858
In 14.767984 8.862558 -11.796858
In 14.767984 5.910581 -8.844881
In 11.816007 8.862558 -8.844881
In 11.816007 5.910581 -5.892905
In 14.767984 8.862558 -5.892905
In 14.767984 5.910581 -2.940929
In 11.816007 8.862558 -2.940929
In 11.816007 5.910581 0.011048
In 14.767984 8.862558 0.011048
In 14.767984 5.910581 2.963024
In 11.816007 8.862558 2.963024
In 11.816007 5.910581 5.915001
In 11.816007 11.814534 -23.604763
In 14.767984 11.814534 -20.652787
In 11.816007 14.766511 -20.652787
In 11.816007 11.814534 -17.700810
In 14.767984 14.766511 -17.700810
In 14.767984 11.814534 -14.748834
In 11.816007 14.766511 -14.748834
In 11.816007 11.814534 -11.796858
In 14.767984 14.766511 -11.796858
In 14.767984 11.814534 -8.844881
In 11.816007 14.766511 -8.844881
In 11.816007 11.814534 -5.892905
In 14.767984 14.766511 -5.892905
In 14.767984 11.814534 -2.940929
In 11.816007 14.766511 -2.940929
In 11.816007 11.814534 0.011048
In 11.816007 17.718487 -17.700810
In 14.767984 17.718487 -14.748834
In 11.816007 20.670463 -14.748834
In 11.816007 17.718487 -11.796858
In 14.767984 20.670463 -11.796858
In 14.767984 17.718487 -8.844881
In 11.816007 20.670463 -8.844881
In 11.816007 17.718487 -5.892905
In 11.816007 23.622440 -11.796858
In 17.719960 -14.753253 8.866977
In 17.719960 -17.705230 11.818953
In 20.671936 -14.753253 11.818953
In 17.719960 -14.753253 14.770930
In 17.719960 -8.849300 2.963024
In 17.719960 -11.801277 5.915001
In 20.671936 -8.849300 5.915001
In 20.671936 -11.801277 8.866977
In 17.719960 -8.849300 8.866977
In 17.719960 -11.801277 11.818953
In 20.671936 -8.849300 11.818953
In 20.671936 -11.801277 14.770930
In 17.719960 -8.849300 14.770930
In 17.719960 -11.801277 17.722906
In 17.719960 -2.945348 -2.940929
In 17.719960 -5.897324 0.011048
In 20.671936 -2.945348 0.011048
In 20.671936 -5.897324 2.963024
In 17.719960 -2.945348 2.963024
In 17.719960 -5.897324 5.915001
In 20.671936 -2.945348 5.915001
In 20.671936 -5.897324 8.866977
In 17.719960 -2.945348 8.866977
In 17.719960 -5.897324 11.818953
In 17.719960 2.958605 -8.844881
In 17.719960 0.006629 -5.892905
In 20.671936 2.958605 -5.892905
In 20.671936 0.006629 -2.940929
In 17.719960 2.958605 -2.940929
In 17.719960 0.006629 0.011048
In 20.671936 2.958605 0.011048
In 20.671936 0.006629 2.963024
In 17.719960 2.958605 2.963024
In 17.719960 0.006629 5.915001
In 17.719960 8.862558 -14.748834
In 17.719960 5.910581 -11.796858
In 20.671936 8.862558 -11.796858
In 20.671936 5.910581 -8.844881
In 17.719960 8.862558 -8.844881
In 17.719960 5.910581 -5.892905
In 20.671936 8.862558 -5.892905
In 20.671936 5.910581 -2.940929
In 17.719960 8.862558 -2.940929
In 17.719960 5.910581 0.011048
In 17.719960 11.814534 -17.700810
In 20.671936 11.814534 -14.748834
In 17.719960 14.766511 -14.748834
In 17.719960 11.814534 -11.796858
In 20.671936 14.766511 -11.796858
In 20.671936 11.814534 -8.844881
In 17.719960 14.766511 -8.844881
In 17.719960 11.814534 -5.892905
In 17.719960 17.718487 -11.796858
In 23.623913 -8.849300 8.866977
In 23.623913 -11.801277 11.818953
In 23.623913 -2.945348 2.963024
In 23.623913 -5.897324 5.915001
In 23.623913 2.958605 -2.940929
In 23.623913 0.006629 0.011048
In 23.623913 8.862558 -8.844881
In 23.623913 5.910581 -5.892905
In 23.623913 11.814534 -11.796858
P -22.131721 -13.277265 -13.272846
P -19.179745 -13.277265 -16.224822
P -19.179745 -16.229241 -13.272846
P -19.179745 -13.277265 -10.320870
P -19.179745 -10.325289 -13.272846
P -22.131721 -10.325289 -10.320870
P -22.131721 -7.373312 -7.368893
P -19.179745 -7.373312 -10.320870
P -19.179745 -10.325289 -7.368893
P -19.179745 -7.373312 -4.416917
P -19.179745 -4.421336 -7.368893
P -22.131721 -4.421336 -4.416917
P -22.131721 -1.469360 -1.464940
P -19.179745 -1.469360 -4.416917
P -19.179745 -4.421336 -1.464940
P -19.179745 -1.469360 1.487036
P -19.179745 1.482617 -1.464940
P -22.131721 1.482617 1.487036
P -22.131721 4.434593 4.439012
P -19.179745 4.434593 1.487036
P -19.179745 1.482617 4.439012
P -19.179745 4.434593 7.390989
P -19.179745 7.386570 4.439012
P -22.131721 7.386570 7.390989
P -22.131721 10.338546 10.342965
P -19.179745 10.338546 7.390989
P -19.179745 7.386570 10.342965
P -19.179745 10.338546 13.294942
P -19.179745 13.290522 10.342965
P -22.131721 13.290522 13.294942
P -19.179745 16.242499 13.294942
P -19.179745 13.290522 16.246918
P -16.227768 -19.181218 -13.272846
P -13.275792 -19.181218 -16.224822
P -13.275792 -22.133194 -13.272846
P -13.275792 -19.181218 -10.320870
P -16.227768 -13.277265 -19.176799
P -13.275792 -13.277265 -22.128775
P -13.275792 -16.229241 -19.176799
P -16.227768 -16.229241 -16.224822
P -16.227768 -13.277265 -13.272846
P -13.275792 -13.277265 -16.224822
P -13.275792 -16.229241 -13.272846
P -16.227768 -16.229241 -10.320870
P -16.227768 -13.277265 -7.368893
P -13.275792 -13.277265 -10.320870
P -13.275792 -16.229241 -7.368893
P -13.275792 -13.277265 -4.416917
P -13.275792 -10.325289 -19.176799
P -16.227768 -10.325289 -16.224822
P -16.227768 -7.373312 -13.272846
P -13.275792 -7.373312 -16.224822
P -13.275792 -10.325289 -13.272846
P -16.227768 -10.325289 -10.320870
P -16.227768 -7.373312 -7.368893
P -13.275792 -7.373312 -10.320870
P -13.275792 -10.325289 -7.368893
P -16.227768 -10.325289 -4.416917
P -16.227768 -7.373312 -1.464940
P -13.275792 -7.373312 -4.416917
P -13.275792 -10.325289 -1.464940
P -13.275792 -7.373312 1.487036
P -13.275792 -4.421336 -13.272846
P -16.227768 -4.421336 -10.320870
P -16.227768 -1.469360 -7.368893
P -13.275792 -1.469360 -10.320870
P -13.275792 -4.421336 -7.368893
P -16.227768 -4.421336 -4.416917
P -16.227768 -1.469360 -1.464940
P -13.275792 -1.469360 -4.416917
P -13.275792 -4.421336 -1.464940
P -16.227768 -4.421336 1.487036
P -16.227768 -1.469360 4.439012
P -13.275792 -1.469360 1.487036
P -13.275792 -4.421336 4.439012
P -13.275792 -1.469360 7.390989
P -13.275792 1.482617 -7.368893
P -16.227768 1.482617 -4.416917
P -16.227768 4.434593 -1.464940
P -13.275792 4.434593 -4.416917
P -13.275792 1.482617 -1.464940
P -16.227768 1.482617 1.487036
P -16.227768 4.434593 4.439012
P -13.275792 4.434593 1.487036
P -13.275792 1.482617 4.439012
P -16.227768 1.482617 7.390989
P -16.227768 4.434593 10.342965
P -13.275792 4.434593 7.390989
P -13.275792 1.482617 10.342965
P -13.275792 4.434593 13.294942
P -13.275792 7.386570 -1.464940
P -16.227768 7.386570 1.487036
P -16.227768 10.338546 4.439012
P -13.275792 10.338546 1.487036
P -13.275792 7.386570 4.439012
P -16.227768 7.386570 7.390989
P -16.227768 10.338546 10.342965
P -13.275792 10.338546 7.390989
P -13.275792 7.386570 10.342965
P -16.227768 7.386570 13.294942
P -16.227768 10.338546 16.246918
P -13.275792 10.338546 13.294942
P -13.275792 7.386570 16.246918
P -13.275792 10.338546 19.198894
P -13.275792 13.290522 4.439012
P -16.227768 13.290522 7.390989
P -16.227768 16.242499 10.342965
P -13.275792 16.242499 7.390989
P -13.275792 13.290522 10.342965
P -16.227768 13.290522 13.294942
P -16.227768 16.242499 16.246918
P -13.275792 16.242499 13.294942
P -13.275792 13.290522 16.246918
P -16.227768 13.290522 19.198894
P -13.275792 16.242499 19.198894
P -13.275792 13.290522 22.150871
P -13.275792 19.194475 10.342965
P -16.227768 19.194475 13.294942
P -13.275792 22.146452 13.294942
P -13.275792 19.194475 16.246918
P -10.323816 -19.181218 -13.272846
P -10.323816 -22.133194 -10.320870
P -10.323816 -19.181218 -7.368893
P -7.371839 -19.181218 -10.320870
P -7.371839 -22.133194 -7.368893
P -7.371839 -19.181218 -4.416917
P -10.323816 -13.277265 -19.176799
P -10.323816 -16.229241 -16.224822
P -10.323816 -13.277265 -13.272846
P -7.371839 -13.277265 -16.224822
P -7.371839 -16.229241 -13.272846
P -10.323816 -16.229241 -10.320870
P -10.323816 -13.277265 -7.368893
P -7.371839 -13.277265 -10.320870
P -7.371839 -16.229241 -7.368893
P -10.323816 -16.229241 -4.416917
P -10.323816 -13.277265 -1.464940
P -7.371839 -13.277265 -4.416917
P -7.371839 -16.229241 -1.464940
P -7.371839 -13.277265 1.487036
P -10.323816 -10.325289 -22.128775
P -10.323816 -7.373312 -19.176799
P -7.371839 -7.373312 -22.128775
P -7.371839 -10.325289 -19.176799
P -10.323816 -10.325289 -16.224822
P -10.323816 -7.373312 -13.272846
P -7.371839 -7.373312 -16.224822
P -7.371839 -10.325289 -13.272846
P -10.323816 -10.325289 -10.320870
P -10.323816 -7.373312 -7.368893
P -7.371839 -7.373312 -10.320870
P -7.371839 -10.325289 -7.368893
P -10.323816 -10.325289 -4.416917
P -10.323816 -7.373312 -1.464940
P -7.371839 -7.373312 -4.416917
P -7.371839 -10.325289 -1.464940
P -10.323816 -10.325289 1.487036
P -10.323816 -7.373312 4.439012
P -7.371839 -7.373312 1.487036
P -7.371839 -10.325289 4.439012
P -7.371839 -7.373312 7.390989
P -7.371839 -4.421336 -19.176799
P -10.323816 -4.421336 -16.224822
P -10.323816 -1.469360 -13.272846
P -7.371839 -1.469360 -16.224822
P -7.371839 -4.421336 -13.272846
P -10.323816 -4.421336 -10.320870
P -10.323816 -1.469360 -7.368893
P -7.371839 -1.469360 -10.320870
P -7.371839 -4.421336 -7.368893
P -10.323816 -4.421336 -4.416917
P -10.323816 -1.469360 -1.464940
P -7.371839 -1.469360 -4.416917
P -7.371839 -4.421336 -1.464940
P -10.323816 -4.421336 1.487036
P -10.323816 -1.469360 4.439012
P -7.371839 -1.469360 1.487036
P -7.371839 -4.421336 4.439012
P -10.323816 -4.421336 7.390989
P -10.323816 -1.469360 10.342965
P -7.371839 -1.469360 7.390989
P -7.371839 -4.421336 10.342965
P -7.371839 -1.469360 13.294942
P -7.371839 1.482617 -13.272846
P -10.323816 1.482617 -10.320870
P -10.323816 4.434593 -7.368893
P -7.371839 4.434593 -10.320870
P -7.371839 1.482617 -7.368893
P -10.323816 1.482617 -4.416917
P -10.323816 4.434593 -1.464940
P -7.371839 4.434593 -4.416917
P -7.371839 1.482617 -1.464940
P -10.323816 1.482617 1.487036
P -10.323816 4.434593 4.439012
P -7.371839 4.434593 1.487036
P -7.371839 1.482617 4.439012
P -10.323816 1.482617 7.390989
P -10.323816 4.434593 10.342965
P -7.371839 4.434593 7.390989
P -7.371839 1.482617 10.342965
P -10.323816 1.482617 13.294942
P -10.323816 4.434593 16.246918
P -7.371839 4.434593 13.294942
P -7.371839 1.482617 16.246918
P -7.371839 4.434593 19.198894
P -7.371839 7.386570 -7.368893
P -10.323816 7.386570 -4.416917
P -10.323816 10.338546 -1.464940
P -7.371839 10.338546 -4.416917
P -7.371839 7.386570 -1.464940
P -10.323816 7.386570 1.487036
P -10.323816 10.338546 4.439012
P -7.371839 10.338546 1.487036
P -7.371839 7.386570 4.439012
P -10.323816 7.386570 7.390989
P -10.323816 10.338546 10.342965
P -7.371839 10.338546 7.390989
P -7.371839 7.386570 10.342965
P -10.323816 7.386570 13.294942
P -10.323816 10.338546 16.246918
P -7.371839 10.338546 13.294942
P -7.371839 7.386570 16.246918
P -10.323816 7.386570 19.198894
P -10.323816 10.338546 22.150871
P -7.371839 10.338546 19.198894
P -7.371839 7.386570 22.150871
P -7.371839 13.290522 -1.464940
P -10.323816 13.290522 1.487036
P -10.323816 16.242499 4.439012
P -7.371839 16.242499 1.487036
P -7.371839 13.290522 4.439012
P -10.323816 13.290522 7.390989
P -10.323816 16.242499 10.342965
P -7.371839 16.242499 7.390989
P -7.371839 13.290522 10.342965
P -10.323816 13.290522 13.294942
P -10.323816 16.242499 16.246918
P -7.371839 16.242499 13.294942
P -7.371839 13.290522 16.246918
P -10.323816 13.290522 19.198894
P -7.371839 19.194475 4.439012
P -10.323816 19.194475 7.390989
P -10.323816 22.146452 10.342965
P -7.371839 22.146452 7.390989
P -7.371839 19.194475 10.342965
P -10.323816 19.194475 13.294942
P -4.419863 -19.181218 -7.368893
P -4.419863 -22.133194 -4.416917
P -4.419863 -19.181218 -1.464940
P -1.467886 -19.181218 -4.416917
P -1.467886 -22.133194 -1.464940
P -1.467886 -19.181218 1.487036
P -4.419863 -13.277265 -13.272846
P -4.419863 -16.229241 -10.320870
P -4.419863 -13.277265 -7.368893
P -1.467886 -13.277265 -10.320870
P -1.467886 -16.229241 -7.368893
P -4.419863 -16.229241 -4.416917
P -4.419863 -13.277265 -1.464940
P -1.467886 -13.277265 -4.416917
P -1.467886 -16.229241 -1.464940
P -4.419863 -16.229241 1.487036
P -4.419863 -13.277265 4.439012
P -1.467886 -13.277265 1.487036
P -1.467886 -16.229241 4.439012
P -1.467886 -13.277265 7.390989
P -4.419863 -7.373312 -19.176799
P -4.419863 -10.325289 -16.224822
P -4.419863 -7.373312 -13.272846
P -1.467886 -7.373312 -16.224822
P -1.467886 -10.325289 -13.272846
P -4.419863 -10.325289 -10.320870
P -4.419863 -7.373312 -7.368893
P -1.467886 -7.373312 -10.320870
P -1.467886 -10.325289 -7.368893
P -4.419863 -10.325289 -4.416917
P -4.419863 -7.373312 -1.464940
P -1.467886 -7.373312 -4.416917
P -1.467886 -10.325289 -1.464940
P -4.419863 -10.325289 1.487036
P -4.419863 -7.373312 4.439012
P -1.467886 -7.373312 1.487036
P -1.467886 -10.325289 4.439012
P -4.419863 -10.325289 7.390989
P -4.419863 -7.373312 10.342965
P -1.467886 -7.373312 7.390989
P -1.467886 -10.325289 10.342965
P -1.467886 -7.373312 13.294942
P -4.419863 -4.421336 -22.128775
P -4.419863 -1.469360 -19.176799
P -1.467886 -1.469360 -22.128775
P -1.467886 -4.421336 -19.176799
P -4.419863 -4.421336 -16.224822
P -4.419863 -1.469360 -13.272846
P -1.467886 -1.469360 -16.224822
P -1.467886 -4.421336 -13.272846
P -4.419863 -4.421336 -10.320870
P -4.419863 -1.469360 -7.368893
P -1.467886 -1.469360 -10.320870
P -1.467886 -4.421336 -7.368893
P -4.419863 -4.421336 -4.416917
P -4.419863 -1.469360 -1.464940
P -1.467886 -1.469360 -4.416917
P -1.467886 -4.421336 -1.464940
P -4.419863 -4.421336 1.487036
P -4.419863 -1.469360 4.439012
P -1.467886 -1.469360 1.487036
P -1.467886 -4.421336 4.439012
P -4.419863 -4.421336 7.390989
P -4.419863 -1.469360 10.342965
P -1.467886 -1.469360 7.390989
P -1.467886 -4.421336 10.342965
P -4.419863 -4.421336 13.294942
P -4.419863 -1.469360 16.246918
P -1.467886 -1.469360 13.294942
P -1.467886 -4.421336 16.246918
P -1.467886 -1.469360 19.198894
P -1.467886 1.482617 -19.176799
P -4.419863 1.482617 -16.224822
P -4.419863 4.434593 -13.272846
P -1.467886 4.434593 -16.224822
P -1.467886 1.482617 -13.272846
P -4.419863 1.482617 -10.320870
P -4.419863 4.434593 -7.368893
P -1.467886 4.434593 -10.320870
P -1.467886 1.482617 -7.368893
P -4.419863 1.482617 -4.416917
P -4.419863 4.434593 -1.464940
P -1.467886 4.434593 -4.416917
P -1.467886 1.482617 -1.464940
P -4.419863 1.482617 1.487036
P -4.419863 4.434593 4.439012
P -1.467886 4.434593 1.487036
P -1.467886 1.482617 4.439012
P -4.419863 1.482617 7.390989
P -4.419863 4.434593 10.342965
P -1.467886 4.434593 7.390989
P -1.467886 1.482617 10.342965
P -4.419863 1.482617 13.294942
P -4.419863 4.434593 16.246918
P -1.467886 4.434593 13.294942
P -1.467886 1.482617 16.246918
P -4.419863 1.482617 19.198894
P -4.419863 4.434593 22.150871
P -1.467886 4.434593 19.198894
P -1.467886 1.482617 22.150871
P -1.467886 7.386570 -13.272846
P -4.419863 7.386570 -10.320870
P -4.419863 10.338546 -7.368893
P -1.467886 10.338546 -10.320870
P -1.467886 7.386570 -7.368893
P -4.419863 7.386570 -4.416917
P -4.419863 10.338546 -1.464940
P -1.467886 10.338546 -4.416917
P -1.467886 7.386570 -1.464940
P -4.419863 7.386570 1.487036
P -4.419863 10.338546 4.439012
P -1.467886 10.338546 1.487036
P -1.467886 7.386570 4.439012
P -4.419863 7.386570 7.390989
P -4.419863 10.338546 10.342965
P -1.467886 10.338546 7.390989
P -1.467886 7.386570 10.342965
P -4.419863 7.386570 13.294942
P -4.419863 10.338546 16.246918
P -1.467886 10.338546 13.294942
P -1.467886 7.386570 16.246918
P -4.419863 7.386570 19.198894
P -1.467886 13.290522 -7.368893
P -4.419863 13.290522 -4.416917
P -4.419863 16.242499 -1.464940
P -1.467886 16.242499 -4.416917
P -1.467886 13.290522 -1.464940
P -4.419863 13.290522 1.487036
P -4.419863 16.242499 4.439012
P -1.467886 16.242499 1.487036
P -1.467886 13.290522 4.439012
P -4.419863 13.290522 7.390989
P -4.419863 16.242499 10.342965
P -1.467886 16.242499 7.390989
P -1.467886 13.290522 10.342965
P -4.419863 13.290522 13.294942
P -1.467886 19.194475 -1.464940
P -4.419863 19.194475 1.487036
P -4.419863 22.146452 4.439012
P -1.467886 22.146452 1.487036
P -1.467886 19.194475 4.439012
P -4.419863 19.194475 7.390989
P 1.484090 -19.181218 -1.464940
P 1.484090 -22.133194 1.487036
P 1.484090 -19.181218 4.439012
P 4.436066 -19.181218 1.487036
P 4.436066 -22.133194 4.439012
P 4.436066 -19.181218 7.390989
P 1.484090 -13.277265 -7.368893
P 1.484090 -16.229241 -4.416917
P 1.484090 -13.277265 -1.464940
P 4.436066 -13.277265 -4.416917
P 4.436066 -16.229241 -1.464940
P 1.484090 -16.229241 1.487036
P 1.484090 -13.277265 4.439012
P 4.436066 -13.277265 1.487036
P 4.436066 -16.229241 4.439012
P 1.484090 -16.229241 7.390989
P 1.484090 -13.277265 10.342965
P 4.436066 -13.277265 7.390989
P 4.436066 -16.229241 10.342965
P 4.436066 -13.277265 13.294942
P 1.484090 -7.373312 -13.272846
P 1.484090 -10.325289 -10.320870
P 1.484090 -7.373312 -7.368893
P 4.436066 -7.373312 -10.320870
P 4.436066 -10.325289 -7.368893
P 1.484090 -10.325289 -4.416917
P 1.484090 -7.373312 -1.464940
P 4.436066 -7.373312 -4.416917
P 4.436066 -10.325289 -1.464940
P 1.484090 -10.325289 1.487036
P 1.484090 -7.373312 4.439012
P 4.436066 -7.373312 1.487036
P 4.436066 -10.325289 4.439012
P 1.484090 -10.325289 7.390989
P 1.484090 -7.373312 10.342965
P 4.436066 -7.373312 7.390989
P 4.436066 -10.325289 10.342965
P 1.484090 -10.325289 13.294942
P 1.484090 -7.373312 16.246918
P 4.436066 -7.373312 13.294942
P 4.436066 -10.325289 16.246918
P 4.436066 -7.373312 19.198894
P 1.484090 -1.469360 -19.176799
P 1.484090 -4.421336 -16.224822
P 1.484090 -1.469360 -13.272846
P 4.436066 -1.469360 -16.224822
P 4.436066 -4.421336 -13.272846
P 1.484090 -4.421336 -10.320870
P 1.484090 -1.469360 -7.368893
P 4.436066 -1.469360 -10.320870
P 4.436066 -4.421336 -7.368893
P 1.484090 -4.421336 -4.416917
P 1.484090 -1.469360 -1.464940
P 4.436066 -1.469360 -4.416917
P 4.436066 -4.421336 -1.464940
P 1.484090 -4.421336 1.487036
P 1.484090 -1.469360 4.439012
P 4.436066 -1.469360 1.487036
P 4.436066 -4.421336 4.439012
P 1.484090 -4.421336 7.390989
P 1.484090 -1.469360 10.342965
P 4.436066 -1.469360 7.390989
P 4.436066 -4.421336 10.342965
P 1.484090 -4.421336 13.294942
P 1.484090 -1.469360 16.246918
P 4.436066 -1.469360 13.294942
P 4.436066 -4.421336 16.246918
P 1.484090 -4.421336 19.198894
P 1.484090 -1.469360 22.150871
P 4.436066 -1.469360 19.198894
P 4.436066 -4.421336 22.150871
P 1.484090 1.482617 -22.128775
P 1.484090 4.434593 -19.176799
P 4.436066 4.434593 -22.128775
P 4.436066 1.482617 -19.176799
P 1.484090 1.482617 -16.224822
P 1.484090 4.434593 -13.272846
P 4.436066 4.434593 -16.224822
P 4.436066 1.482617 -13.272846
P 1.484090 1.482617 -10.320870
P 1.484090 4.434593 -7.368893
P 4.436066 4.434593 -10.320870
P 4.436066 1.482617 -7.368893
P 1.484090 1.482617 -4.416917
P 1.484090 4.434593 -1.464940
P 4.436066 4.434593 -4.416917
P 4.436066 1.482617 -1.464940
P 1.484090 1.482617 1.487036
P 1.484090 4.434593 4.439012
P 4.436066 4.434593 1.487036
P 4.436066 1.482617 4.439012
P 1.484090 1.482617 7.390989
P 1.484090 4.434593 10.342965
P 4.436066 4.434593 7.390989
P 4.436066 1.482617 10.342965
P 1.484090 1.482617 13.294942
P 1.484090 4.434593 16.246918
P 4.436066 4.434593 13.294942
P 4.436066 1.482617 16.246918
P 1.484090 1.482617 19.198894
P 4.436066 7.386570 -19.176799
P 1.484090 7.386570 -16.224822
P 1.484090 10.338546 -13.272846
P 4.436066 10.338546 -16.224822
P 4.436066 7.386570 -13.272846
P 1.484090 7.386570 -10.320870
P 1.484090 10.338546 -7.368893
P 4.436066 10.338546 -10.320870
P 4.436066 7.386570 -7.368893
P 1.484090 7.386570 -4.416917
P 1.484090 10.338546 -1.464940
P 4.436066 10.338546 -4.416917
P 4.436066 7.386570 -1.464940
P 1.484090 7.386570 1.487036
P 1.484090 10.338546 4.439012
P 4.436066 10.338546 1.487036
P 4.436066 7.386570 4.439012
P 1.484090 7.386570 7.390989
P 1.484090 10.338546 10.342965
P 4.436066 10.338546 7.390989
P 4.436066 7.386570 10.342965
P 1.484090 7.386570 13.294942
P 4.436066 13.290522 -13.272846
P 1.484090 13.290522 -10.320870
P 1.484090 16.242499 -7.368893
P 4.436066 16.242499 -10.320870
P 4.436066 13.290522 -7.368893
P 1.484090 13.290522 -4.416917
P 1.484090 16.242499 -1.464940
P 4.436066 16.242499 -4.416917
P 4.436066 13.290522 -1.464940
P 1.484090 13.290522 1.487036
P 1.484090 16.242499 4.439012
P 4.436066 16.242499 1.487036
P 4.436066 13.290522 4.439012
P 1.484090 13.290522 7.390989
P 4.436066 19.194475 -7.368893
P 1.484090 19.194475 -4.416917
P 1.484090 22.146452 -1.464940
P 4.436066 22.146452 -4.416917
P 4.436066 19.194475 -1.464940
P 1.484090 19.194475 1.487036
P 7.388043 -19.181218 4.439012
P 7.388043 -22.133194 7.390989
P 7.388043 -19.181218 10.342965
P 10.340019 -19.181218 7.390989
P 10.340019 -22.133194 10.342965
P 10.340019 -19.181218 13.294942
P 7.388043 -13.277265 -1.464940
P 7.388043 -16.229241 1.487036
P 7.388043 -13.277265 4.439012
P 10.340019 -13.277265 1.487036
P 10.340019 -16.229241 4.439012
P 7.388043 -16.229241 7.390989
P 7.388043 -13.277265 10.342965
P 10.340019 -13.277265 7.390989
P 10.340019 -16.229241 10.342965
P 7.388043 -16.229241 13.294942
P 7.388043 -13.277265 16.246918
P 10.340019 -13.277265 13.294942
P 10.340019 -16.229241 16.246918
P 10.340019 -13.277265 19.198894
P 7.388043 -7.373312 -7.368893
P 7.388043 -10.325289 -4.416917
P 7.388043 -7.373312 -1.464940
P 10.340019 -7.373312 -4.416917
P 10.340019 -10.325289 -1.464940
P 7.388043 -10.325289 1.487036
P 7.388043 -7.373312 4.439012
P 10.340019 -7.373312 1.487036
P 10.340019 -10.325289 4.439012
P 7.388043 -10.325289 7.390989
P 7.388043 -7.373312 10.342965
P 10.340019 -7.373312 7.390989
P 10.340019 -10.325289 10.342965
P 7.388043 -10.325289 13.294942
P 7.388043 -7.373312 16.246918
P 10.340019 -7.373312 13.294942
P 10.340019 -10.325289 16.246918
P 7.388043 -10.325289 19.198894
P 7.388043 -7.373312 22.150871
P 10.340019 -7.373312 19.198894
P 10.340019 -10.325289 22.150871
P 7.388043 -1.469360 -13.272846
P 7.388043 -4.421336 -10.320870
P 7.388043 -1.469360 -7.368893
P 10.340019 -1.469360 -10.320870
P 10.340019 -4.421336 -7.368893
P 7.388043 -4.421336 -4.416917
P 7.388043 -1.469360 -1.464940
P 10.340019 -1.469360 -4.416917
P 10.340019 -4.421336 -1.464940
P 7.388043 -4.421336 1.487036
P 7.388043 -1.469360 4.439012
P 10.340019 -1.469360 1.487036
P 10.340019 -4.421336 4.439012
P 7.388043 -4.421336 7.390989
P 7.388043 -1.469360 10.342965
P 10.340019 -1.469360 7.390989
P 10.340019 -4.421336 10.342965
P 7.388043 -4.421336 13.294942
P 7.388043 -1.469360 16.246918
P 10.340019 -1.469360 13.294942
P 10.340019 -4.421336 16.246918
P 7.388043 -4.421336 19.198894
P 7.388043 4.434593 -19.176799
P 7.388043 1.482617 -16.224822
P 7.388043 4.434593 -13.272846
P 10.340019 4.434593 -16.224822
P 10.340019 1.482617 -13.272846
P 7.388043 1.482617 -10.320870
P 7.388043 4.434593 -7.368893
P 10.340019 4.434593 -10.320870
P 10.340019 1.482617 -7.368893
P 7.388043 1.482617 -4.416917
P 7.388043 4.434593 -1.464940
P 10.340019 4.434593 -4.416917
P 10.340019 1.482617 -1.464940
P 7.388043 1.482617 1.487036
P 7.388043 4.434593 4.439012
P 10.340019 4.434593 1.487036
P 10.340019 1.482617 4.439012
P 7.388043 1.482617 7.390989
P 7.388043 4.434593 10.342965
P 10.340019 4.434593 7.390989
P 10.340019 1.482617 10.342965
P 7.388043 1.482617 13.294942
P 7.388043 7.386570 -22.128775
P 7.388043 10.338546 -19.176799
P 10.340019 10.338546 -22.128775
P 10.340019 7.386570 -19.176799
P 7.388043 7.386570 -16.224822
P 7.388043 10.338546 -13.272846
P 10.340019 10.338546 -16.224822
P 10.340019 7.386570 -13.272846
P 7.388043 7.386570 -10.320870
P 7.388043 10.338546 -7.368893
P 10.340019 10.338546 -10.320870
P 10.340019 7.386570 -7.368893
P 7.388043 7.386570 -4.416917
P 7.388043 10.338546 -1.464940
P 10.340019 10.338546 -4.416917
P 10.340019 7.386570 -1.464940
P 7.388043 7.386570 1.487036
P 7.388043 10.338546 4.439012
P 10.340019 10.338546 1.487036
P 10.340019 7.386570 4.439012
P 7.388043 7.386570 7.390989
P 10.340019 13.290522 -19.176799
P 7.388043 13.290522 -16.224822
P 7.388043 16.242499 -13.272846
P 10.340019 16.242499 -16.224822
P 10.340019 13.290522 -13.272846
P 7.388043 13.290522 -10.320870
P 7.388043 16.242499 -7.368893
P 10.340019 16.242499 -10.320870
P 10.340019 13.290522 -7.368893
P 7.388043 13.290522 -4.416917
P 7.388043 16.242499 -1.464940
P 10.340019 16.242499 -4.416917
P 10.340019 13.290522 -1.464940
P 7.388043 13.290522 1.487036
P 10.340019 19.194475 -13.272846
P 7.388043 19.194475 -10.320870
P 7.388043 22.146452 -7.368893
P 10.340019 22.146452 -10.320870
P 10.340019 19.194475 -7.368893
P 7.388043 19.194475 -4.416917
P 13.291995 -19.181218 10.342965
P 13.291995 -22.133194 13.294942
P 13.291995 -19.181218 16.246918
P 16.243972 -19.181218 13.294942
P 13.291995 -13.277265 4.439012
P 13.291995 -16.229241 7.390989
P 13.291995 -13.277265 10.342965
P 16.243972 -13.277265 7.390989
P 16.243972 -16.229241 10.342965
P 13.291995 -16.229241 13.294942
P 13.291995 -13.277265 16.246918
P 16.243972 -13.277265 13.294942
P 16.243972 -16.229241 16.246918
P 13.291995 -16.229241 19.198894
P 13.291995 -13.277265 22.150871
P 16.243972 -13.277265 19.198894
P 13.291995 -7.373312 -1.464940
P 13.291995 -10.325289 1.487036
P 13.291995 -7.373312 4.439012
P 16.243972 -7.373312 1.487036
P 16.243972 -10.325289 4.439012
P 13.291995 -10.325289 7.390989
P 13.291995 -7.373312 10.342965
P 16.243972 -7.373312 7.390989
P 16.243972 -10.325289 10.342965
P 13.291995 -10.325289 13.294942
P 13.291995 -7.373312 16.246918
P 16.243972 -7.373312 13.294942
P 16.243972 -10.325289 16.246918
P 13.291995 -10.325289 19.198894
P 13.291995 -1.469360 -7.368893
P 13.291995 -4.421336 -4.416917
P 13.291995 -1.469360 -1.464940
P 16.243972 -1.469360 -4.416917
P 16.243972 -4.421336 -1.464940
P 13.291995 -4.421336 1.487036
P 13.291995 -1.469360 4.439012
P 16.243972 -1.469360 1.487036
P 16.243972 -4.421336 4.439012
P 13.291995 -4.421336 7.390989
P 13.291995 -1.469360 10.342965
P 16.243972 -1.469360 7.390989
P 16.243972 -4.421336 10.342965
P 13.291995 -4.421336 13.294942
P 13.291995 4.434593 -13.272846
P 13.291995 1.482617 -10.320870
P 13.291995 4.434593 -7.368893
P 16.243972 4.434593 -10.320870
P 16.243972 1.482617 -7.368893
P 13.291995 1.482617 -4.416917
P 13.291995 4.434593 -1.464940
P 16.243972 4.434593 -4.416917
P 16.243972 1.482617 -1.464940
P 13.291995 1.482617 1.487036
P 13.291995 4.434593 4.439012
P 16.243972 4.434593 1.487036
P 16.243972 1.482617 4.439012
P 13.291995 1.482617 7.390989
P 13.291995 10.338546 -19.176799
P 13.291995 7.386570 -16.224822
P 13.291995 10.338546 -13.272846
P 16.243972 10.338546 -16.224822
P 16.243972 7.386570 -13.272846
P 13.291995 7.386570 -10.320870
P 13.291995 10.338546 -7.368893
P 16.243972 10.338546 -10.320870
P 16.243972 7.386570 -7.368893
P 13.291995 7.386570 -4.416917
P 13.291995 10.338546 -1.464940
P 16.243972 10.338546 -4.416917
P 16.243972 7.386570 -1.464940
P 13.291995 7.386570 1.487036
P 13.291995 13.290522 -22.128775
P 13.291995 16.242499 -19.176799
P 16.243972 13.290522 -19.176799
P 13.291995 13.290522 -16.224822
P 13.291995 16.242499 -13.272846
P 16.243972 16.242499 -16.224822
P 16.243972 13.290522 -13.272846
P 13.291995 13.290522 -10.320870
P 13.291995 16.242499 -7.368893
P 16.243972 16.242499 -10.320870
P 16.243972 13.290522 -7.368893
P 13.291995 13.290522 -4.416917
P 13.291995 19.194475 -16.224822
P 13.291995 22.146452 -13.272846
P 16.243972 19.194475 -13.272846
P 13.291995 19.194475 -10.320870
P 19.195948 -13.277265 10.342965
P 19.195948 -16.229241 13.294942
P 19.195948 -13.277265 16.246918
P 22.147925 -13.277265 13.294942
P 19.195948 -7.373312 4.439012
P 19.195948 -10.325289 7.390989
P 19.195948 -7.373312 10.342965
P 22.147925 -7.373312 7.390989
P 22.147925 -10.325289 10.342965
P 19.195948 -10.325289 13.294942
P 19.195948 -1.469360 -1.464940
P 19.195948 -4.421336 1.487036
P 19.195948 -1.469360 4.439012
P 22.147925 -1.469360 1.487036
P 22.147925 -4.421336 4.439012
P 19.195948 -4.421336 7.390989
P 19.195948 4.434593 -7.368893
P 19.195948 1.482617 -4.416917
P 19.195948 4.434593 -1.464940
P 22.147925 4.434593 -4.416917
P 22.147925 1.482617 -1.464940
P 19.195948 1.482617 1.487036
P 19.195948 10.338546 -13.272846
P 19.195948 7.386570 -10.320870
P 19.195948 10.338546 -7.368893
P 22.147925 10.338546 -10.320870
P 22.147925 7.386570 -7.368893
P 19.195948 7.386570 -4.416917
P 19.195948 13.290522 -16.224822
P 19.195948 16.242499 -13.272846
P 22.147925 13.290522 -13.272846
P 19.195948 13.290522 -10.320870
Cl -25.083698 -13.277265 -10.320870
Cl 25.099901 13.290522 -10.320870
Cl -13.275792 25.098428 10.342965
Cl 13.291995 -25.085171 10.342965
Cl -13.275792 -10.325289 -25.080751
Cl -10.323816 13.290522 25.102847
Cl 10.340019 -13.277265 25.102847
Cl 13.291995 10.338546 -25.080751
Cl -25.083698 10.338546 13.294942
Cl -10.323816 -25.085171 -13.272846
Cl 10.340019 25.098428 -13.272846
Cl 25.099901 -10.325289 13.294942
Cl -25.083698 1.482617 -1.464940
Cl -1.467886 -25.085171 1.487036
Cl 1.484090 25.098428 1.487036
Cl 25.099901 -1.469360 -1.464940
Cl -4.419863 -7.373312 -25.080751
Cl -7.371839 4.434593 25.102847
Cl 7.388043 -4.421336 25.102847
Cl 4.436066 7.386570 -25.080751
Cl -25.083698 -4.421336 -1.464940
Cl -4.419863 25.098428 1.487036
Cl 4.436066 -25.085171 1.487036
Cl 25.099901 4.434593 -1.464940
Cl -25.083698 -7.373312 -10.320870
Cl -7.371839 25.098428 10.342965
Cl 7.388043 -25.085171 10.342965
Cl 25.099901 7.386570 -10.320870
Cl -25.083698 10.338546 7.390989
Cl -10.323816 -25.085171 -7.368893
Cl 10.340019 25.098428 -7.368893
Cl 25.099901 -10.325289 7.390989
Cl -4.419863 -1.469360 -25.080751
Cl -1.467886 4.434593 25.102847
Cl 1.484090 -4.421336 25.102847
Cl 4.436066 1.482617 -25.080751
Cl -25.083698 4.434593 7.390989
Cl -4.419863 -25.085171 -7.368893
Cl 4.436066 25.098428 -7.368893
Cl 25.099901 -4.421336 7.390989
Cl -7.371839 -10.325289 -25.080751
Cl -10.323816 7.386570 25.102847
Cl 10.340019 -7.373312 25.102847
Cl 7.388043 10.338546 -25.080751
Cl -25.083698 -4.421336 -7.368893
Cl -4.419863 25.098428 7.390989
Cl 4.436066 -25.085171 7.390989
Cl 25.099901 4.434593 -7.368893
Cl -25.083698 1.482617 4.439012
Cl -1.467886 -25.085171 -4.416917
Cl 1.484090 25.098428 -4.416917
Cl 25.099901 -1.469360 4.439012
Cl -1.467886 1.482617 -25.080751
Cl -1.467886 -1.469360 25.102847
Cl 10.340019 -7.373312 -10.320870
Cl 7.388043 10.338546 10.342965
Cl -10.323816 -10.325289 7.390989
Cl -10.323816 10.338546 -7.368893
Cl 13.291995 -16.229241 1.487036
Cl 16.243972 13.290522 -1.464940
Cl -13.275792 -1.469360 -16.224822
Cl 1.484090 -13.277265 16.246918
Cl 1.484090 -13.277265 -13.272846
Cl 13.291995 1.482617 13.294942
Cl -16.227768 -16.229241 -4.416917
Cl -16.227768 16.242499 4.439012
Cl -1.467886 13.290522 16.246918
Cl 13.291995 1.482617 -16.224822
Cl -13.275792 -1.469360 13.294942
Cl -1.467886 13.290522 -13.272846
Cl 19.195948 -19.181218 10.342965
Cl 19.195948 19.194475 -10.320870
Cl -10.323816 -19.181218 -19.176799
Cl 19.195948 -10.325289 19.198894
Cl -19.179745 10.338546 19.198894
Cl 10.340019 19.194475 -19.176799
Cl -10.323816 19.194475 19.198894
Cl 19.195948 10.338546 -19.176799
Cl -19.179745 -10.325289 -19.176799
Cl 10.340019 -19.181218 19.198894
Cl 7.388043 16.242499 4.439012
Cl 16.243972 -7.373312 -4.416917
Cl -19.179745 7.386570 -1.464940
Cl -7.371839 -19.181218 1.487036
Cl 4.436066 -4.421336 -19.176799
Cl 4.436066 4.434593 19.198894
Cl -4.419863 -7.373312 16.246918
Cl -7.371839 4.434593 -16.224822
Cl 7.388043 -16.229241 -4.416917
Cl 16.243972 7.386570 4.439012
Cl -16.227768 -10.325289 1.487036
Cl -10.323816 16.242499 -1.464940
Cl -19.179745 1.482617 -7.368893
Cl -1.467886 -19.181218 7.390989
Cl -4.419863 -19.181218 -13.272846
Cl 19.195948 -4.421336 13.294942
Cl -19.179745 4.434593 13.294942
Cl 4.436066 19.194475 -13.272846
Cl 10.340019 19.194475 -1.464940
Cl 19.195948 -10.325289 1.487036
Cl -22.131721 16.242499 10.342965
Cl -16.227768 -22.133194 -10.320870
Cl -1.467886 19.194475 10.342965
Cl 19.195948 1.482617 -10.320870
Cl -19.179745 -4.421336 4.439012
Cl -4.419863 19.194475 -4.416917
Cl -4.419863 10.338546 22.150871
Cl 10.340019 4.434593 -22.128775
Cl 10.340019 -22.133194 4.439012
Cl 22.147925 10.338546 -4.416917
Cl -22.131721 -10.325289 -4.416917
Cl -10.323816 22.146452 4.439012
Cl -10.323816 -4.421336 -22.128775
Cl 4.436066 -10.325289 22.150871
Cl -4.419863 -13.277265 -19.176799
Cl 13.291995 -4.421336 19.198894
Cl -10.323816 1.482617 19.198894
Cl 1.484090 10.338546 -19.176799
Cl 1.484090 -19.181218 -7.368893
Cl 19.195948 1.482617 7.390989
Cl -13.275792 4.434593 -10.320870
Cl -4.419863 -13.277265 10.342965
Cl 13.291995 25.098428 -10.320870
Cl 25.099901 -13.277265 10.342965
Cl -19.179745 -4.421336 -13.272846
Cl 4.436066 -19.181218 13.294942
Cl -10.323816 25.098428 13.294942
Cl 25.099901 10.338546 -13.272846
Cl -13.275792 10.338546 25.102847
Cl 10.340019 13.290522 -25.080751
Cl -10.323816 -13.277265 -25.080751
Cl 13.291995 -10.325289 25.102847
Cl -25.083698 7.386570 4.439012
Cl -7.371839 -25.085171 -4.416917
Cl 4.436066 25.098428 -1.464940
Cl 25.099901 -4.421336 1.487036
Cl -25.083698 -10.325289 -13.272846
Cl 10.340019 -25.085171 13.294942
Cl 1.484090 -1.469360 -25.080751
Cl 1.484090 1.482617 25.102847
Cl -22.131721 -16.229241 -10.320870
Cl -16.227768 22.146452 10.342965
Cl 7.388043 -7.373312 -13.272846
Cl 7.388043 7.386570 13.294942
Cl -13.275792 -4.421336 10.342965
Cl -4.419863 13.290522 -10.320870
Cl 16.243972 19.194475 -7.368893
Cl 19.195948 -16.229241 7.390989
Cl -16.227768 10.338546 -1.464940
Cl -10.323816 -16.229241 1.487036
Cl -7.371839 19.194475 16.246918
Cl 19.195948 7.386570 -16.224822
Cl 10.340019 -13.277265 -4.416917
Cl 13.291995 10.338546 4.439012
Cl -4.419863 -4.421336 19.198894
Cl -4.419863 4.434593 -19.176799
Cl 1.484090 19.194475 7.390989
Cl 19.195948 -1.469360 -7.368893
Cl -16.227768 7.386570 19.198894
Cl 7.388043 16.242499 -19.176799
Cl 1.484090 -7.373312 -19.176799
Cl 7.388043 1.482617 19.198894
Cl -16.227768 -7.373312 -19.176799
Cl 7.388043 -16.229241 19.198894
Cl 4.436066 -22.133194 -1.464940
Cl 22.147925 4.434593 1.487036
Cl -19.179745 -1.469360 7.390989
Cl -1.467886 19.194475 -7.368893
Cl 1.484090 10.338546 16.246918
Cl 10.340019 -1.469360 -16.224822
Cl -19.179745 13.290522 4.439012
Cl -13.275792 -19.181218 -4.416917
Cl 4.436066 -13.277265 -10.320870
Cl 13.291995 4.434593 10.342965
Cl -7.371839 -7.373312 13.294942
Cl -7.371839 7.386570 -13.272846
Cl 10.340019 -25.085171 7.390989
Cl 25.099901 10.338546 -7.368893
Cl -25.083698 13.290522 10.342965
Cl -13.275792 -25.085171 -10.320870
Cl -7.371839 10.338546 25.102847
Cl 10.340019 7.386570 -25.080751
Cl -25.083698 -7.373312 -4.416917
Cl -7.371839 25.098428 4.439012
Cl 4.436066 13.290522 10.342965
Cl 13.291995 -4.421336 -10.320870
Cl -10.323816 -7.373312 -25.080751
Cl 7.388043 -10.325289 25.102847
Cl -10.323816 -22.133194 -16.224822
Cl 22.147925 -10.325289 16.246918
Cl -25.083698 7.386570 10.342965
Cl 7.388043 25.098428 -10.320870
Cl -25.083698 -1.469360 -4.416917
Cl 1.484090 -25.085171 4.439012
Cl 7.388043 25.098428 -4.416917
Cl 25.099901 -7.373312 4.439012
Cl 16.243972 -22.133194 10.342965
Cl 22.147925 16.242499 -10.320870
Cl -4.419863 1.482617 25.102847
Cl 1.484090 4.434593 -25.080751
Cl -10.323816 16.242499 22.150871
Cl 16.243972 10.338546 -22.128775
Cl -19.179745 -19.181218 -10.320870
Cl -19.179745 19.194475 10.342965
Cl -10.323816 -16.229241 -22.128775
Cl 16.243972 -10.325289 22.150871
Cl -22.131721 10.338546 16.246918
Cl 10.340019 22.146452 -16.224822
Cl -7.371839 -25.085171 -10.320870
Cl 25.099901 -7.373312 10.342965
Cl -25.083698 4.434593 1.487036
Cl -4.419863 -25.085171 -1.464940
Cl -22.131721 -10.325289 -16.224822
Cl 10.340019 -22.133194 16.246918
Cl -1.467886 25.098428 4.439012
Cl 25.099901 1.482617 -4.416917
Cl -1.467886 -4.421336 -25.080751
Cl 4.436066 -1.469360 25.102847
Cl -25.083698 -1.469360 1.487036
Cl -1.467886 25.098428 -1.464940
Cl 16.243972 -13.277265 1.487036
Cl 13.291995 16.242499 -1.464940
Cl -16.227768 4.434593 -7.368893
Cl -4.419863 -16.229241 7.390989
Cl -13.275792 -10.325289 4.439012
Cl -10.323816 13.290522 -4.416917
Cl -1.467886 -13.277265 -16.224822
Cl 13.291995 -1.469360 16.246918
Cl -13.275792 1.482617 16.246918
Cl 1.484090 13.290522 -16.224822
Cl -4.419863 16.242499 16.246918
Cl 16.243972 4.434593 -16.224822
Cl -10.323816 -1.469360 -19.176799
Cl 1.484090 -10.325289 19.198894
Cl 10.340019 -19.181218 1.487036
Cl 19.195948 10.338546 -1.464940
Cl -19.179745 -10.325289 -1.464940
Cl -10.323816 19.194475 1.487036
Cl 4.436066 19.194475 4.439012
Cl 19.195948 -4.421336 -4.416917
Cl -1.467886 7.386570 22.150871
Cl 7.388043 1.482617 -22.128775
Cl -16.227768 -1.469360 -13.272846
Cl 1.484090 -16.229241 13.294942
Cl -1.467886 -19.181218 -10.320870
Cl 19.195948 -1.469360 10.342965
Cl -19.179745 1.482617 10.342965
Cl 1.484090 19.194475 -10.320870
Cl -7.371839 -1.469360 19.198894
Cl -1.467886 7.386570 -19.176799
Cl 10.340019 13.290522 4.439012
Cl 13.291995 -10.325289 -4.416917
Cl 16.243972 22.146452 -10.320870
Cl 22.147925 -16.229241 10.342965
Cl -16.227768 10.338546 22.150871
Cl 10.340019 16.242499 -22.128775
Cl 1.484090 -25.085171 -1.464940
Cl 25.099901 1.482617 1.487036
Cl -25.083698 -10.325289 -7.368893
Cl -10.323816 25.098428 7.390989
Cl -10.323816 22.146452 16.246918
Cl 22.147925 10.338546 -16.224822
Cl -16.227768 -10.325289 -22.128775
Cl 10.340019 -16.229241 22.150871
Cl -7.371839 -4.421336 -25.080751
Cl 4.436066 -7.373312 25.102847
Cl 7.388043 -25.085171 4.439012
Cl 25.099901 7.386570 -4.416917
Cl -22.131721 4.434593 -1.464940
Cl -4.419863 -22.133194 1.487036
Cl -7.371839 -16.229241 -19.176799
Cl 16.243972 -7.373312 19.198894
Cl 7.388043 22.146452 -1.464940
Cl 22.147925 -7.373312 1.487036
Cl -16.227768 13.290522 1.487036
Cl -13.275792 -16.229241 -1.464940
Cl -22.131721 -4.421336 -10.320870
Cl 4.436066 -22.133194 10.342965
Cl -1.467886 -7.373312 -22.128775
Cl 7.388043 -1.469360 22.150871
Cl -4.419863 22.146452 10.342965
Cl 22.147925 4.434593 -10.320870
Cl -10.323816 7.386570 -10.320870
Cl -7.371839 -10.325289 10.342965
Cl -19.179745 -16.229241 -7.368893
Cl -16.227768 19.194475 7.390989
Cl 16.243972 -19.181218 7.390989
Cl 19.195948 16.242499 -7.368893
Cl -10.323816 4.434593 22.150871
Cl 4.436066 10.338546 -22.128775
Cl 4.436066 7.386570 16.246918
Cl 7.388043 -4.421336 -16.224822
Cl -22.131721 -4.421336 1.487036
Cl -4.419863 22.146452 -1.464940
Cl 4.436066 -19.181218 -4.416917
Cl 19.195948 4.434593 4.439012
Cl -4.419863 1.482617 -22.128775
Cl -1.467886 -4.421336 22.150871
Cl 7.388043 -10.325289 -10.320870
Cl 10.340019 7.386570 10.342965
Cl -22.131721 10.338546 4.439012
Cl -10.323816 -22.133194 -4.416917
Cl -4.419863 7.386570 25.102847
Cl 7.388043 4.434593 -25.080751
Cl -16.227768 4.434593 16.246918
Cl 4.436066 16.242499 -16.224822
Cl 1.484090 16.242499 10.342965
Cl 16.243972 -1.469360 -10.320870
Cl -16.227768 -4.421336 7.390989
Cl -4.419863 16.242499 -7.368893
Cl 13.291995 19.194475 -4.416917
Cl 19.195948 -13.277265 4.439012
Cl -13.275792 1.482617 -13.272846
Cl -1.467886 -13.277265 13.294942
Cl -4.419863 13.290522 19.198894
Cl 13.291995 4.434593 -19.176799
Cl -16.227768 7.386570 -4.416917
Cl -7.371839 -16.229241 4.439012
Cl 1.484090 -10.325289 -16.224822
Cl 10.340019 1.482617 16.246918
Cl -10.323816 -4.421336 13.294942
Cl -4.419863 10.338546 -13.272846
Cl -7.371839 -22.133194 -13.272846
Cl 22.147925 -7.373312 13.294942
Cl -22.131721 7.386570 13.294942
Cl 7.388043 22.146452 -13.272846
Cl -1.467886 -22.133194 -7.368893
Cl 22.147925 -1.469360 7.390989
Cl -19.179745 -7.373312 -16.224822
Cl 7.388043 -19.181218 16.246918
Cl 1.484090 22.146452 4.439012
Cl 22.147925 -1.469360 -4.416917
Cl -22.131721 -1.469360 -7.368893
Cl 1.484090 -22.133194 7.390989
Cl -4.419863 -10.325289 -22.128775
Cl 10.340019 -4.421336 22.150871
Cl -22.131721 1.482617 7.390989
Cl 1.484090 22.146452 -7.368893
Cl 4.436066 -1.469360 -22.128775
