800
InP-P-In360P320Cl120-clean
In -16.213730 -10.313467 10.313467
In -16.213730 -13.265444 13.265444
In -16.213730 -4.409515 4.409515
In -16.213730 -7.361491 7.361491
In -16.213730 1.494438 -1.494438
In -16.213730 -1.457538 1.457538
In -16.213730 7.398391 -7.398391
In -16.213730 4.446414 -4.446414
In -16.213730 13.302344 -13.302344
In -16.213730 10.350367 -10.350367
In -10.309778 -16.217420 10.313467
In -13.261754 -16.217420 13.265444
In -10.309778 -10.313467 4.409515
In -10.309778 -13.265444 7.361491
In -13.261754 -10.313467 7.361491
In -13.261754 -13.265444 10.313467
In -10.309778 -10.313467 10.313467
In -10.309778 -13.265444 13.265444
In -13.261754 -10.313467 13.265444
In -13.261754 -13.265444 16.217420
In -10.309778 -10.313467 16.217420
In -10.309778 -4.409515 -1.494438
In -10.309778 -7.361491 1.457538
In -13.261754 -4.409515 1.457538
In -13.261754 -7.361491 4.409515
In -10.309778 -4.409515 4.409515
In -10.309778 -7.361491 7.361491
In -13.261754 -4.409515 7.361491
In -13.261754 -7.361491 10.313467
In -10.309778 -4.409515 10.313467
In -10.309778 -7.361491 13.265444
In -10.309778 1.494438 -7.398391
In -10.309778 -1.457538 -4.446414
In -13.261754 1.494438 -4.446414
In -13.261754 -1.457538 -1.494438
In -10.309778 1.494438 -1.494438
In -10.309778 -1.457538 1.457538
In -13.261754 1.494438 1.457538
In -13.261754 -1.457538 4.409515
In -10.309778 1.494438 4.409515
In -10.309778 -1.457538 7.361491
In -10.309778 7.398391 -13.302344
In -10.309778 4.446414 -10.350367
In -13.261754 7.398391 -10.350367
In -13.261754 4.446414 -7.398391
In -10.309778 7.398391 -7.398391
In -10.309778 4.446414 -4.446414
In -13.261754 7.398391 -4.446414
In -13.261754 4.446414 -1.494438
In -10.309778 7.398391 -1.494438
In -10.309778 4.446414 1.457538
In -10.309778 10.350367 -16.254320
In -13.261754 13.302344 -16.254320
In -13.261754 10.350367 -13.302344
In -10.309778 13.302344 -13.302344
In -10.309778 10.350367 -10.350367
In -13.261754 13.302344 -10.350367
In -13.261754 10.350367 -7.398391
In -10.309778 13.302344 -7.398391
In -10.309778 10.350367 -4.446414
In -13.261754 16.254320 -13.302344
In -10.309778 16.254320 -10.350367
In -4.405825 -16.217420 4.409515
In -7.357801 -16.217420 7.361491
In -4.405825 -10.313467 -1.494438
In -4.405825 -13.265444 1.457538
In -7.357801 -10.313467 1.457538
In -7.357801 -13.265444 4.409515
In -4.405825 -10.313467 4.409515
In -4.405825 -13.265444 7.361491
In -7.357801 -10.313467 7.361491
In -7.357801 -13.265444 10.313467
In -4.405825 -10.313467 10.313467
In -7.357801 -10.313467 13.265444
In -4.405825 -4.409515 -7.398391
In -4.405825 -7.361491 -4.446414
In -7.357801 -4.409515 -4.446414
In -7.357801 -7.361491 -1.494438
In -4.405825 -4.409515 -1.494438
In -4.405825 -7.361491 1.457538
In -7.357801 -4.409515 1.457538
In -7.357801 -7.361491 4.409515
In -4.405825 -4.409515 4.409515
In -4.405825 -7.361491 7.361491
In -7.357801 -4.409515 7.361491
In -7.357801 -7.361491 10.313467
In -4.405825 -4.409515 10.313467
In -4.405825 -7.361491 13.265444
In -7.357801 -4.409515 13.265444
In -7.357801 -7.361491 16.217420
In -4.405825 -4.409515 16.217420
In -4.405825 1.494438 -13.302344
In -4.405825 -1.457538 -10.350367
In -7.357801 1.494438 -10.350367
In -7.357801 -1.457538 -7.398391
In -4.405825 1.494438 -7.398391
In -4.405825 -1.457538 -4.446414
In -7.357801 1.494438 -4.446414
In -7.357801 -1.457538 -1.494438
In -4.405825 1.494438 -1.494438
In -4.405825 -1.457538 1.457538
In -7.357801 1.494438 1.457538
In -7.357801 -1.457538 4.409515
In -4.405825 1.494438 4.409515
In -4.405825 -1.457538 7.361491
In -7.357801 1.494438 7.361491
In -7.357801 -1.457538 10.313467
In -4.405825 1.494438 10.313467
In -4.405825 -1.457538 13.265444
In -4.405825 4.446414 -16.254320
In -7.357801 7.398391 -16.254320
In -7.357801 4.446414 -13.302344
In -4.405825 7.398391 -13.302344
In -4.405825 4.446414 -10.350367
In -7.357801 7.398391 -10.350367
In -7.357801 4.446414 -7.398391
In -4.405825 7.398391 -7.398391
In -4.405825 4.446414 -4.446414
In -7.357801 7.398391 -4.446414
In -7.357801 4.446414 -1.494438
In -4.405825 7.398391 -1.494438
In -4.405825 4.446414 1.457538
In -7.357801 7.398391 1.457538
In -7.357801 4.446414 4.409515
In -4.405825 7.398391 4.409515
In -4.405825 4.446414 7.361491
In -7.357801 10.350367 -13.302344
In -4.405825 10.350367 -10.350367
In -7.357801 13.302344 -10.350367
In -7.357801 10.350367 -7.398391
In -4.405825 13.302344 -7.398391
In -4.405825 10.350367 -4.446414
In -7.357801 13.302344 -4.446414
In -7.357801 10.350367 -1.494438
In -4.405825 13.302344 -1.494438
In -4.405825 10.350367 1.457538
In -7.357801 16.254320 -7.398391
In -4.405825 16.254320 -4.446414
In 1.498128 -16.217420 -1.494438
In -1.453848 -16.217420 1.457538
In 1.498128 -10.313467 -7.398391
In 1.498128 -13.265444 -4.446414
In -1.453848 -10.313467 -4.446414
In -1.453848 -13.265444 -1.494438
In 1.498128 -10.313467 -1.494438
In 1.498128 -13.265444 1.457538
In -1.453848 -10.313467 1.457538
In -1.453848 -13.265444 4.409515
In 1.498128 -10.313467 4.409515
In -1.453848 -10.313467 7.361491
In 1.498128 -4.409515 -13.302344
In 1.498128 -7.361491 -10.350367
In -1.453848 -4.409515 -10.350367
In -1.453848 -7.361491 -7.398391
In 1.498128 -4.409515 -7.398391
In 1.498128 -7.361491 -4.446414
In -1.453848 -4.409515 -4.446414
In -1.453848 -7.361491 -1.494438
In 1.498128 -4.409515 -1.494438
In 1.498128 -7.361491 1.457538
In -1.453848 -4.409515 1.457538
In -1.453848 -7.361491 4.409515
In 1.498128 -4.409515 4.409515
In 1.498128 -7.361491 7.361491
In -1.453848 -4.409515 7.361491
In -1.453848 -7.361491 10.313467
In 1.498128 -4.409515 10.313467
In -1.453848 -4.409515 13.265444
In 1.498128 -1.457538 -16.254320
In -1.453848 1.494438 -16.254320
In -1.453848 -1.457538 -13.302344
In 1.498128 1.494438 -13.302344
In 1.498128 -1.457538 -10.350367
In -1.453848 1.494438 -10.350367
In -1.453848 -1.457538 -7.398391
In 1.498128 1.494438 -7.398391
In 1.498128 -1.457538 -4.446414
In -1.453848 1.494438 -4.446414
In -1.453848 -1.457538 -1.494438
In 1.498128 1.494438 -1.494438
In 1.498128 -1.457538 1.457538
In -1.453848 1.494438 1.457538
In -1.453848 -1.457538 4.409515
In 1.498128 1.494438 4.409515
In 1.498128 -1.457538 7.361491
In -1.453848 1.494438 7.361491
In -1.453848 -1.457538 10.313467
In 1.498128 1.494438 10.313467
In 1.498128 -1.457538 13.265444
In -1.453848 1.494438 13.265444
In -1.453848 -1.457538 16.217420
In 1.498128 1.494438 16.217420
In -1.453848 4.446414 -13.302344
In 1.498128 4.446414 -10.350367
In -1.453848 7.398391 -10.350367
In -1.453848 4.446414 -7.398391
In 1.498128 7.398391 -7.398391
In 1.498128 4.446414 -4.446414
In -1.453848 7.398391 -4.446414
In -1.453848 4.446414 -1.494438
In 1.498128 7.398391 -1.494438
In 1.498128 4.446414 1.457538
In -1.453848 7.398391 1.457538
In -1.453848 4.446414 4.409515
In 1.498128 7.398391 4.409515
In 1.498128 4.446414 7.361491
In -1.453848 7.398391 7.361491
In -1.453848 4.446414 10.313467
In 1.498128 7.398391 10.313467
In 1.498128 4.446414 13.265444
In -1.453848 10.350367 -7.398391
In 1.498128 10.350367 -4.446414
In -1.453848 13.302344 -4.446414
In -1.453848 10.350367 -1.494438
In 1.498128 13.302344 -1.494438
In 1.498128 10.350367 1.457538
In -1.453848 13.302344 1.457538
In -1.453848 10.350367 4.409515
In 1.498128 13.302344 4.409515
In 1.498128 10.350367 7.361491
In -1.453848 16.254320 -1.494438
In 1.498128 16.254320 1.457538
In 7.402081 -16.217420 -7.398391
In 4.450104 -16.217420 -4.446414
In 7.402081 -10.313467 -13.302344
In 7.402081 -13.265444 -10.350367
In 4.450104 -10.313467 -10.350367
In 4.450104 -13.265444 -7.398391
In 7.402081 -10.313467 -7.398391
In 7.402081 -13.265444 -4.446414
In 4.450104 -10.313467 -4.446414
In 4.450104 -13.265444 -1.494438
In 7.402081 -10.313467 -1.494438
In 4.450104 -10.313467 1.457538
In 7.402081 -7.361491 -16.254320
In 4.450104 -4.409515 -16.254320
In 4.450104 -7.361491 -13.302344
In 7.402081 -4.409515 -13.302344
In 7.402081 -7.361491 -10.350367
In 4.450104 -4.409515 -10.350367
In 4.450104 -7.361491 -7.398391
In 7.402081 -4.409515 -7.398391
In 7.402081 -7.361491 -4.446414
In 4.450104 -4.409515 -4.446414
In 4.450104 -7.361491 -1.494438
In 7.402081 -4.409515 -1.494438
In 7.402081 -7.361491 1.457538
In 4.450104 -4.409515 1.457538
In 4.450104 -7.361491 4.409515
In 7.402081 -4.409515 4.409515
In 4.450104 -4.409515 7.361491
In 4.450104 -1.457538 -13.302344
In 7.402081 -1.457538 -10.350367
In 4.450104 1.494438 -10.350367
In 4.450104 -1.457538 -7.398391
In 7.402081 1.494438 -7.398391
In 7.402081 -1.457538 -4.446414
In 4.450104 1.494438 -4.446414
In 4.450104 -1.457538 -1.494438
In 7.402081 1.494438 -1.494438
In 7.402081 -1.457538 1.457538
In 4.450104 1.494438 1.457538
In 4.450104 -1.457538 4.409515
In 7.402081 1.494438 4.409515
In 7.402081 -1.457538 7.361491
In 4.450104 1.494438 7.361491
In 4.450104 -1.457538 10.313467
In 7.402081 1.494438 10.313467
In 4.450104 1.494438 13.265444
In 4.450104 4.446414 -7.398391
In 7.402081 4.446414 -4.446414
In 4.450104 7.398391 -4.446414
In 4.450104 4.446414 -1.494438
In 7.402081 7.398391 -1.494438
In 7.402081 4.446414 1.457538
In 4.450104 7.398391 1.457538
In 4.450104 4.446414 4.409515
In 7.402081 7.398391 4.409515
In 7.402081 4.446414 7.361491
In 4.450104 7.398391 7.361491
In 4.450104 4.446414 10.313467
In 7.402081 7.398391 10.313467
In 7.402081 4.446414 13.265444
In 4.450104 7.398391 13.265444
In 4.450104 4.446414 16.217420
In 7.402081 7.398391 16.217420
In 4.450104 10.350367 -1.494438
In 7.402081 10.350367 1.457538
In 4.450104 13.302344 1.457538
In 4.450104 10.350367 4.409515
In 7.402081 13.302344 4.409515
In 7.402081 10.350367 7.361491
In 4.450104 13.302344 7.361491
In 4.450104 10.350367 10.313467
In 7.402081 13.302344 10.313467
In 7.402081 10.350367 13.265444
In 4.450104 16.254320 4.409515
In 7.402081 16.254320 7.361491
In 13.306034 -16.217420 -13.302344
In 10.354057 -16.217420 -10.350367
In 13.306034 -13.265444 -16.254320
In 10.354057 -10.313467 -16.254320
In 10.354057 -13.265444 -13.302344
In 13.306034 -10.313467 -13.302344
In 13.306034 -13.265444 -10.350367
In 10.354057 -10.313467 -10.350367
In 10.354057 -13.265444 -7.398391
In 13.306034 -10.313467 -7.398391
In 10.354057 -10.313467 -4.446414
In 10.354057 -7.361491 -13.302344
In 13.306034 -7.361491 -10.350367
In 10.354057 -4.409515 -10.350367
In 10.354057 -7.361491 -7.398391
In 13.306034 -4.409515 -7.398391
In 13.306034 -7.361491 -4.446414
In 10.354057 -4.409515 -4.446414
In 10.354057 -7.361491 -1.494438
In 13.306034 -4.409515 -1.494438
In 10.354057 -4.409515 1.457538
In 10.354057 -1.457538 -7.398391
In 13.306034 -1.457538 -4.446414
In 10.354057 1.494438 -4.446414
In 10.354057 -1.457538 -1.494438
In 13.306034 1.494438 -1.494438
In 13.306034 -1.457538 1.457538
In 10.354057 1.494438 1.457538
In 10.354057 -1.457538 4.409515
In 13.306034 1.494438 4.409515
In 10.354057 1.494438 7.361491
In 10.354057 4.446414 -1.494438
In 13.306034 4.446414 1.457538
In 10.354057 7.398391 1.457538
In 10.354057 4.446414 4.409515
In 13.306034 7.398391 4.409515
In 13.306034 4.446414 7.361491
In 10.354057 7.398391 7.361491
In 10.354057 4.446414 10.313467
In 13.306034 7.398391 10.313467
In 10.354057 7.398391 13.265444
In 10.354057 10.350367 4.409515
In 13.306034 10.350367 7.361491
In 10.354057 13.302344 7.361491
In 10.354057 10.350367 10.313467
In 13.306034 13.302344 10.313467
In 13.306034 10.350367 13.265444
In 10.354057 13.302344 13.265444
In 10.354057 10.350367 16.217420
In 13.306034 13.302344 16.217420
In 10.354057 16.254320 10.313467
In 13.306034 16.254320 13.265444
In 16.258010 -13.265444 -13.302344
In 16.258010 -10.313467 -10.350367
In 16.258010 -7.361491 -7.398391
In 16.258010 -4.409515 -4.446414
In 16.258010 -1.457538 -1.494438
In 16.258010 1.494438 1.457538
In 16.258010 4.446414 4.409515
In 16.258010 7.398391 7.361491
In 16.258010 10.350367 10.313467
In 16.258010 13.302344 13.265444
P -14.737742 -8.837479 5.885503
P -14.737742 -5.885503 2.933527
P -14.737742 -5.885503 8.837479
P -14.737742 2.970426 -5.922403
P -14.737742 0.018450 -2.970426
P -14.737742 2.970426 -0.018450
P -14.737742 0.018450 2.933527
P -14.737742 5.922403 -8.874379
P -14.737742 8.874379 -5.922403
P -14.737742 5.922403 -2.970426
P -14.737742 11.826355 -8.874379
P -8.833789 -14.741432 11.789456
P -8.833789 -8.837479 -0.018450
P -8.833789 -11.789456 2.933527
P -11.785766 -11.789456 5.885503
P -11.785766 -8.837479 8.837479
P -8.833789 -8.837479 5.885503
P -8.833789 -11.789456 8.837479
P -11.785766 -11.789456 11.789456
P -11.785766 -8.837479 14.741432
P -8.833789 -8.837479 11.789456
P -8.833789 -11.789456 14.741432
P -11.785766 -2.933527 -2.970426
P -8.833789 -2.933527 -5.922403
P -8.833789 -5.885503 -2.970426
P -11.785766 -5.885503 -0.018450
P -11.785766 -2.933527 2.933527
P -8.833789 -2.933527 -0.018450
P -8.833789 -5.885503 2.933527
P -11.785766 -5.885503 5.885503
P -11.785766 -2.933527 8.837479
P -8.833789 -2.933527 5.885503
P -8.833789 -5.885503 8.837479
P -11.785766 -5.885503 11.789456
P -8.833789 -2.933527 11.789456
P -8.833789 -5.885503 14.741432
P -11.785766 2.970426 -8.874379
P -8.833789 2.970426 -11.826355
P -11.785766 0.018450 -5.922403
P -11.785766 2.970426 -2.970426
P -8.833789 2.970426 -5.922403
P -8.833789 0.018450 -2.970426
P -11.785766 0.018450 -0.018450
P -11.785766 2.970426 2.933527
P -8.833789 2.970426 -0.018450
P -8.833789 0.018450 2.933527
P -11.785766 0.018450 5.885503
P -8.833789 2.970426 5.885503
P -11.785766 5.922403 -11.826355
P -11.785766 8.874379 -8.874379
P -8.833789 8.874379 -11.826355
P -8.833789 5.922403 -8.874379
P -11.785766 5.922403 -5.922403
P -11.785766 8.874379 -2.970426
P -8.833789 8.874379 -5.922403
P -8.833789 5.922403 -2.970426
P -11.785766 5.922403 -0.018450
P -8.833789 8.874379 -0.018450
P -8.833789 5.922403 2.933527
P -11.785766 11.826355 -11.826355
P -8.833789 11.826355 -8.874379
P -11.785766 11.826355 -5.922403
P -8.833789 11.826355 -2.970426
P -5.881813 -14.741432 2.933527
P -2.929837 -14.741432 -0.018450
P -5.881813 -8.837479 -2.970426
P -2.929837 -8.837479 -5.922403
P -2.929837 -11.789456 -2.970426
P -5.881813 -11.789456 -0.018450
P -5.881813 -8.837479 2.933527
P -2.929837 -8.837479 -0.018450
P -2.929837 -11.789456 2.933527
P -5.881813 -11.789456 5.885503
P -5.881813 -8.837479 8.837479
P -2.929837 -8.837479 5.885503
P -2.929837 -11.789456 8.837479
P -5.881813 -11.789456 11.789456
P -5.881813 -2.933527 -8.874379
P -2.929837 -2.933527 -11.826355
P -2.929837 -5.885503 -8.874379
P -5.881813 -5.885503 -5.922403
P -5.881813 -2.933527 -2.970426
P -2.929837 -2.933527 -5.922403
P -2.929837 -5.885503 -2.970426
P -5.881813 -5.885503 -0.018450
P -5.881813 -2.933527 2.933527
P -2.929837 -2.933527 -0.018450
P -2.929837 -5.885503 2.933527
P -5.881813 -5.885503 5.885503
P -5.881813 -2.933527 8.837479
P -2.929837 -2.933527 5.885503
P -2.929837 -5.885503 8.837479
P -5.881813 -5.885503 11.789456
P -5.881813 -2.933527 14.741432
P -2.929837 -2.933527 11.789456
P -2.929837 -5.885503 14.741432
P -5.881813 2.970426 -14.778332
P -2.929837 0.018450 -14.778332
P -5.881813 0.018450 -11.826355
P -5.881813 2.970426 -8.874379
P -2.929837 2.970426 -11.826355
P -2.929837 0.018450 -8.874379
P -5.881813 0.018450 -5.922403
P -5.881813 2.970426 -2.970426
P -2.929837 2.970426 -5.922403
P -2.929837 0.018450 -2.970426
P -5.881813 0.018450 -0.018450
P -5.881813 2.970426 2.933527
P -2.929837 2.970426 -0.018450
P -2.929837 0.018450 2.933527
P -5.881813 0.018450 5.885503
P -5.881813 2.970426 8.837479
P -2.929837 2.970426 5.885503
P -2.929837 0.018450 8.837479
P -5.881813 0.018450 11.789456
P -2.929837 2.970426 11.789456
P -2.929837 0.018450 14.741432
P -5.881813 8.874379 -14.778332
P -2.929837 5.922403 -14.778332
P -5.881813 5.922403 -11.826355
P -5.881813 8.874379 -8.874379
P -2.929837 5.922403 -8.874379
P -5.881813 5.922403 -5.922403
P -5.881813 8.874379 -2.970426
P -2.929837 8.874379 -5.922403
P -2.929837 5.922403 -2.970426
P -5.881813 5.922403 -0.018450
P -5.881813 8.874379 2.933527
P -2.929837 8.874379 -0.018450
P -2.929837 5.922403 2.933527
P -5.881813 5.922403 5.885503
P -2.929837 8.874379 5.885503
P -2.929837 5.922403 8.837479
P -2.929837 11.826355 -8.874379
P -5.881813 11.826355 -5.922403
P -2.929837 11.826355 -2.970426
P -5.881813 11.826355 -0.018450
P -2.929837 14.778332 -0.018450
P 0.022140 -14.741432 -2.970426
P 2.974116 -14.741432 -0.018450
P 0.022140 -8.837479 -8.874379
P 2.974116 -8.837479 -11.826355
P 2.974116 -11.789456 -8.874379
P 0.022140 -11.789456 -5.922403
P 0.022140 -8.837479 -2.970426
P 2.974116 -8.837479 -5.922403
P 2.974116 -11.789456 -2.970426
P 0.022140 -11.789456 -0.018450
P 0.022140 -8.837479 2.933527
P 2.974116 -8.837479 -0.018450
P 2.974116 -11.789456 2.933527
P 0.022140 -11.789456 5.885503
P 2.974116 -8.837479 5.885503
P 2.974116 -5.885503 -14.778332
P 0.022140 -5.885503 -11.826355
P 0.022140 -2.933527 -8.874379
P 2.974116 -2.933527 -11.826355
P 2.974116 -5.885503 -8.874379
P 0.022140 -5.885503 -5.922403
P 0.022140 -2.933527 -2.970426
P 2.974116 -2.933527 -5.922403
P 2.974116 -5.885503 -2.970426
P 0.022140 -5.885503 -0.018450
P 0.022140 -2.933527 2.933527
P 2.974116 -2.933527 -0.018450
P 2.974116 -5.885503 2.933527
P 0.022140 -5.885503 5.885503
P 0.022140 -2.933527 8.837479
P 2.974116 -2.933527 5.885503
P 2.974116 -5.885503 8.837479
P 0.022140 -5.885503 11.789456
P 2.974116 -2.933527 11.789456
P 2.974116 0.018450 -14.778332
P 0.022140 0.018450 -11.826355
P 0.022140 2.970426 -8.874379
P 2.974116 2.970426 -11.826355
P 2.974116 0.018450 -8.874379
P 0.022140 0.018450 -5.922403
P 0.022140 2.970426 -2.970426
P 2.974116 2.970426 -5.922403
P 2.974116 0.018450 -2.970426
P 0.022140 0.018450 -0.018450
P 0.022140 2.970426 2.933527
P 2.974116 2.970426 -0.018450
P 2.974116 0.018450 2.933527
P 0.022140 0.018450 5.885503
P 0.022140 2.970426 8.837479
P 2.974116 2.970426 5.885503
P 2.974116 0.018450 8.837479
P 0.022140 0.018450 11.789456
P 2.974116 2.970426 11.789456
P 2.974116 0.018450 14.741432
P 0.022140 5.922403 -11.826355
P 0.022140 8.874379 -8.874379
P 2.974116 5.922403 -8.874379
P 0.022140 5.922403 -5.922403
P 0.022140 8.874379 -2.970426
P 2.974116 8.874379 -5.922403
P 2.974116 5.922403 -2.970426
P 0.022140 5.922403 -0.018450
P 0.022140 8.874379 2.933527
P 2.974116 8.874379 -0.018450
P 2.974116 5.922403 2.933527
P 0.022140 5.922403 5.885503
P 0.022140 8.874379 8.837479
P 2.974116 8.874379 5.885503
P 2.974116 5.922403 8.837479
P 0.022140 5.922403 11.789456
P 2.974116 8.874379 11.789456
P 2.974116 5.922403 14.741432
P 0.022140 11.826355 -5.922403
P 0.022140 14.778332 -2.970426
P 2.974116 11.826355 -2.970426
P 0.022140 11.826355 -0.018450
P 0.022140 14.778332 2.933527
P 2.974116 14.778332 -0.018450
P 2.974116 11.826355 2.933527
P 0.022140 11.826355 5.885503
P 2.974116 11.826355 8.837479
P 8.878069 -14.741432 -5.922403
P 5.926093 -11.789456 -11.826355
P 5.926093 -8.837479 -8.874379
P 8.878069 -8.837479 -11.826355
P 8.878069 -11.789456 -8.874379
P 5.926093 -11.789456 -5.922403
P 5.926093 -8.837479 -2.970426
P 8.878069 -8.837479 -5.922403
P 5.926093 -11.789456 -0.018450
P 5.926093 -8.837479 2.933527
P 8.878069 -8.837479 -0.018450
P 5.926093 -2.933527 -14.778332
P 5.926093 -5.885503 -11.826355
P 5.926093 -2.933527 -8.874379
P 8.878069 -2.933527 -11.826355
P 8.878069 -5.885503 -8.874379
P 5.926093 -5.885503 -5.922403
P 5.926093 -2.933527 -2.970426
P 8.878069 -2.933527 -5.922403
P 8.878069 -5.885503 -2.970426
P 5.926093 -5.885503 -0.018450
P 5.926093 -2.933527 2.933527
P 8.878069 -2.933527 -0.018450
P 8.878069 -5.885503 2.933527
P 5.926093 -5.885503 5.885503
P 5.926093 -2.933527 8.837479
P 8.878069 -2.933527 5.885503
P 5.926093 0.018450 -11.826355
P 5.926093 2.970426 -8.874379
P 5.926093 0.018450 -5.922403
P 5.926093 2.970426 -2.970426
P 8.878069 2.970426 -5.922403
P 8.878069 0.018450 -2.970426
P 5.926093 0.018450 -0.018450
P 5.926093 2.970426 2.933527
P 8.878069 2.970426 -0.018450
P 8.878069 0.018450 2.933527
P 5.926093 0.018450 5.885503
P 5.926093 2.970426 8.837479
P 8.878069 2.970426 5.885503
P 8.878069 0.018450 8.837479
P 5.926093 0.018450 11.789456
P 5.926093 2.970426 14.741432
P 8.878069 2.970426 11.789456
P 5.926093 5.922403 -5.922403
P 5.926093 8.874379 -2.970426
P 8.878069 5.922403 -2.970426
P 5.926093 5.922403 -0.018450
P 5.926093 8.874379 2.933527
P 8.878069 8.874379 -0.018450
P 8.878069 5.922403 2.933527
P 5.926093 5.922403 5.885503
P 5.926093 8.874379 8.837479
P 8.878069 8.874379 5.885503
P 8.878069 5.922403 8.837479
P 5.926093 5.922403 11.789456
P 8.878069 8.874379 11.789456
P 5.926093 11.826355 -0.018450
P 5.926093 14.778332 2.933527
P 8.878069 11.826355 2.933527
P 5.926093 11.826355 5.885503
P 8.878069 14.778332 5.885503
P 8.878069 11.826355 8.837479
P 5.926093 11.826355 11.789456
P 8.878069 11.826355 14.741432
P 11.830045 -11.789456 -11.826355
P 11.830045 -8.837479 -8.874379
P 14.782022 -11.789456 -8.874379
P 11.830045 -11.789456 -5.922403
P 11.830045 -8.837479 -2.970426
P 14.782022 -8.837479 -5.922403
P 11.830045 -2.933527 -8.874379
P 14.782022 -5.885503 -8.874379
P 11.830045 -5.885503 -5.922403
P 11.830045 -2.933527 -2.970426
P 14.782022 -2.933527 -5.922403
P 14.782022 -5.885503 -2.970426
P 11.830045 -5.885503 -0.018450
P 11.830045 -2.933527 2.933527
P 14.782022 -2.933527 -0.018450
P 11.830045 0.018450 -5.922403
P 11.830045 2.970426 -2.970426
P 14.782022 0.018450 -2.970426
P 11.830045 0.018450 -0.018450
P 11.830045 2.970426 2.933527
P 14.782022 2.970426 -0.018450
P 14.782022 0.018450 2.933527
P 11.830045 0.018450 5.885503
P 11.830045 2.970426 8.837479
P 14.782022 2.970426 5.885503
P 11.830045 5.922403 -0.018450
P 11.830045 8.874379 2.933527
P 14.782022 5.922403 2.933527
P 11.830045 5.922403 5.885503
P 11.830045 8.874379 8.837479
P 14.782022 8.874379 5.885503
P 14.782022 5.922403 8.837479
P 11.830045 5.922403 11.789456
P 11.830045 11.826355 5.885503
P 14.782022 11.826355 8.837479
P 11.830045 11.826355 11.789456
Cl -14.737742 -14.741432 11.789456
Cl -17.689718 -8.837479 8.837479
Cl -14.737742 -11.789456 8.837479
Cl -17.689718 -11.789456 11.789456
Cl -14.737742 -8.837479 11.789456
Cl -14.737742 -11.789456 14.741432
Cl -17.689718 -2.933527 2.933527
Cl -14.737742 -2.933527 -0.018450
Cl -17.689718 -5.885503 5.885503
Cl -14.737742 -2.933527 5.885503
Cl -17.689718 2.970426 -2.970426
Cl -17.689718 0.018450 -0.018450
Cl -17.689718 8.874379 -8.874379
Cl -14.737742 8.874379 -11.826355
Cl -17.689718 5.922403 -5.922403
Cl -14.737742 11.826355 -14.778332
Cl -17.689718 11.826355 -11.826355
Cl -14.737742 14.778332 -11.826355
Cl -11.785766 -14.741432 8.837479
Cl -8.833789 -14.741432 5.885503
Cl -8.833789 -17.693408 8.837479
Cl -11.785766 -17.693408 11.789456
Cl -11.785766 -14.741432 14.741432
Cl -11.785766 -8.837479 2.933527
Cl -11.785766 -11.789456 17.693408
Cl -8.833789 -8.837479 17.693408
Cl -8.833789 0.018450 -8.874379
Cl -8.833789 0.018450 8.837479
Cl -11.785766 8.874379 -14.778332
Cl -8.833789 8.874379 -17.730308
Cl -8.833789 5.922403 -14.778332
Cl -11.785766 11.826355 -17.730308
Cl -11.785766 14.778332 -14.778332
Cl -8.833789 11.826355 -14.778332
Cl -11.785766 14.778332 -8.874379
Cl -8.833789 14.778332 -11.826355
Cl -8.833789 14.778332 -5.922403
Cl -11.785766 17.730308 -11.826355
Cl -8.833789 17.730308 -8.874379
Cl -2.929837 -17.693408 2.933527
Cl -5.881813 -17.693408 5.885503
Cl -5.881813 -14.741432 8.837479
Cl -2.929837 -14.741432 5.885503
Cl -5.881813 -8.837479 14.741432
Cl -2.929837 -8.837479 11.789456
Cl -5.881813 -5.885503 17.693408
Cl -2.929837 -2.933527 17.693408
Cl -2.929837 2.970426 -17.730308
Cl -5.881813 5.922403 -17.730308
Cl -2.929837 8.874379 -11.826355
Cl -5.881813 11.826355 -11.826355
Cl -5.881813 14.778332 -8.874379
Cl -5.881813 14.778332 -2.970426
Cl -2.929837 14.778332 -5.922403
Cl -2.929837 11.826355 2.933527
Cl -5.881813 17.730308 -5.922403
Cl -2.929837 17.730308 -2.970426
Cl 2.974116 -14.741432 -5.922403
Cl 2.974116 -17.693408 -2.970426
Cl 0.022140 -17.693408 -0.018450
Cl 0.022140 -14.741432 2.933527
Cl 0.022140 -8.837479 8.837479
Cl 0.022140 -2.933527 -14.778332
Cl 2.974116 -2.933527 -17.730308
Cl 0.022140 -2.933527 14.741432
Cl 0.022140 0.018450 -17.730308
Cl 0.022140 2.970426 -14.778332
Cl 0.022140 2.970426 14.741432
Cl 0.022140 0.018450 17.693408
Cl 2.974116 2.970426 17.693408
Cl 2.974116 14.778332 5.885503
Cl 0.022140 17.730308 -0.018450
Cl 2.974116 17.730308 2.933527
Cl 5.926093 -14.741432 -8.874379
Cl 8.878069 -14.741432 -11.826355
Cl 8.878069 -17.693408 -8.874379
Cl 5.926093 -17.693408 -5.922403
Cl 5.926093 -14.741432 -2.970426
Cl 5.926093 -8.837479 -14.778332
Cl 8.878069 -8.837479 -17.730308
Cl 8.878069 -11.789456 -14.778332
Cl 8.878069 -11.789456 -2.970426
Cl 5.926093 -5.885503 -17.730308
Cl 8.878069 -5.885503 -14.778332
Cl 8.878069 0.018450 -8.874379
Cl 5.926093 8.874379 14.741432
Cl 8.878069 5.922403 14.741432
Cl 5.926093 5.922403 17.693408
Cl 8.878069 8.874379 17.693408
Cl 5.926093 14.778332 8.837479
Cl 8.878069 14.778332 11.789456
Cl 5.926093 17.730308 5.885503
Cl 8.878069 17.730308 8.837479
Cl 11.830045 -14.741432 -14.778332
Cl 11.830045 -17.693408 -11.826355
Cl 11.830045 -14.741432 -8.874379
Cl 14.782022 -14.741432 -11.826355
Cl 11.830045 -11.789456 -17.730308
Cl 11.830045 -8.837479 -14.778332
Cl 14.782022 -11.789456 -14.778332
Cl 14.782022 -8.837479 -11.826355
Cl 11.830045 -5.885503 -11.826355
Cl 11.830045 8.874379 14.741432
Cl 14.782022 8.874379 11.789456
Cl 11.830045 14.778332 8.837479
Cl 11.830045 14.778332 14.741432
Cl 14.782022 14.778332 11.789456
Cl 14.782022 11.826355 14.741432
Cl 11.830045 11.826355 17.693408
Cl 11.830045 17.730308 11.789456
Cl 17.733998 -11.789456 -11.826355
Cl 17.733998 -8.837479 -8.874379
Cl 17.733998 -5.885503 -5.922403
Cl 17.733998 -2.933527 -2.970426
Cl 17.733998 0.018450 -0.018450
Cl 17.733998 2.970426 2.933527
Cl 17.733998 5.922403 5.885503
Cl 17.733998 8.874379 8.837479
Cl 17.733998 11.826355 11.789456
Cl -17.689718 -14.741432 14.741432
