3220
AlSb-Al-Al1421Sb1232Cl567-clean
Al -21.659714 -21.662597 -18.564714
Al -21.659714 -24.757597 -15.469714
Al -24.754714 -21.662597 -15.469714
Al -21.659714 -21.662597 -12.374714
Al -21.659714 -15.472597 -24.754714
Al -21.659714 -18.567597 -21.659714
Al -24.754714 -15.472597 -21.659714
Al -24.754714 -18.567597 -18.564714
Al -21.659714 -15.472597 -18.564714
Al -21.659714 -18.567597 -15.469714
Al -24.754714 -15.472597 -15.469714
Al -24.754714 -18.567597 -12.374714
Al -21.659714 -15.472597 -12.374714
Al -21.659714 -18.567597 -9.279714
Al -24.754714 -15.472597 -9.279714
Al -21.659714 -15.472597 -6.184714
Al -21.659714 -12.377597 -21.659714
Al -24.754714 -12.377597 -18.564714
Al -21.659714 -9.282597 -18.564714
Al -21.659714 -12.377597 -15.469714
Al -24.754714 -9.282597 -15.469714
Al -24.754714 -12.377597 -12.374714
Al -21.659714 -9.282597 -12.374714
Al -21.659714 -12.377597 -9.279714
Al -24.754714 -9.282597 -9.279714
Al -24.754714 -12.377597 -6.184714
Al -21.659714 -9.282597 -6.184714
Al -21.659714 -12.377597 -3.089714
Al -24.754714 -9.282597 -3.089714
Al -21.659714 -9.282597 0.005286
Al -21.659714 -6.187597 -15.469714
Al -24.754714 -6.187597 -12.374714
Al -21.659714 -3.092597 -12.374714
Al -21.659714 -6.187597 -9.279714
Al -24.754714 -3.092597 -9.279714
Al -24.754714 -6.187597 -6.184714
Al -21.659714 -3.092597 -6.184714
Al -21.659714 -6.187597 -3.089714
Al -24.754714 -3.092597 -3.089714
Al -24.754714 -6.187597 0.005286
Al -21.659714 -3.092597 0.005286
Al -21.659714 -6.187597 3.100286
Al -24.754714 -3.092597 3.100286
Al -21.659714 -3.092597 6.195286
Al -21.659714 0.002403 -9.279714
Al -24.754714 0.002403 -6.184714
Al -21.659714 3.097403 -6.184714
Al -21.659714 0.002403 -3.089714
Al -24.754714 3.097403 -3.089714
Al -24.754714 0.002403 0.005286
Al -21.659714 3.097403 0.005286
Al -21.659714 0.002403 3.100286
Al -24.754714 3.097403 3.100286
Al -24.754714 0.002403 6.195286
Al -21.659714 3.097403 6.195286
Al -21.659714 0.002403 9.290286
Al -24.754714 3.097403 9.290286
Al -21.659714 3.097403 12.385286
Al -21.659714 6.192403 -3.089714
Al -24.754714 6.192403 0.005286
Al -21.659714 9.287403 0.005286
Al -21.659714 6.192403 3.100286
Al -24.754714 9.287403 3.100286
Al -24.754714 6.192403 6.195286
Al -21.659714 9.287403 6.195286
Al -21.659714 6.192403 9.290286
Al -24.754714 9.287403 9.290286
Al -24.754714 6.192403 12.385286
Al -21.659714 9.287403 12.385286
Al -21.659714 6.192403 15.480286
Al -24.754714 9.287403 15.480286
Al -21.659714 9.287403 18.575286
Al -21.659714 12.382403 3.100286
Al -24.754714 12.382403 6.195286
Al -21.659714 15.477403 6.195286
Al -21.659714 12.382403 9.290286
Al -24.754714 15.477403 9.290286
Al -24.754714 12.382403 12.385286
Al -21.659714 15.477403 12.385286
Al -21.659714 12.382403 15.480286
Al -24.754714 15.477403 15.480286
Al -24.754714 12.382403 18.575286
Al -21.659714 15.477403 18.575286
Al -21.659714 12.382403 21.670286
Al -24.754714 15.477403 21.670286
Al -21.659714 15.477403 24.765286
Al -21.659714 18.572403 9.290286
Al -24.754714 18.572403 12.385286
Al -21.659714 21.667403 12.385286
Al -21.659714 18.572403 15.480286
Al -24.754714 21.667403 15.480286
Al -24.754714 18.572403 18.575286
Al -21.659714 21.667403 18.575286
Al -21.659714 18.572403 21.670286
Al -21.659714 24.762403 15.480286
Al -15.469714 -21.662597 -24.754714
Al -15.469714 -24.757597 -21.659714
Al -18.564714 -21.662597 -21.659714
Al -18.564714 -24.757597 -18.564714
Al -15.469714 -21.662597 -18.564714
Al -15.469714 -24.757597 -15.469714
Al -18.564714 -21.662597 -15.469714
Al -18.564714 -24.757597 -12.374714
Al -15.469714 -21.662597 -12.374714
Al -15.469714 -24.757597 -9.279714
Al -18.564714 -21.662597 -9.279714
Al -15.469714 -21.662597 -6.184714
Al -18.564714 -18.567597 -24.754714
Al -15.469714 -15.472597 -24.754714
Al -15.469714 -18.567597 -21.659714
Al -18.564714 -15.472597 -21.659714
Al -18.564714 -18.567597 -18.564714
Al -15.469714 -15.472597 -18.564714
Al -15.469714 -18.567597 -15.469714
Al -18.564714 -15.472597 -15.469714
Al -18.564714 -18.567597 -12.374714
Al -15.469714 -15.472597 -12.374714
Al -15.469714 -18.567597 -9.279714
Al -18.564714 -15.472597 -9.279714
Al -18.564714 -18.567597 -6.184714
Al -15.469714 -15.472597 -6.184714
Al -15.469714 -18.567597 -3.089714
Al -18.564714 -15.472597 -3.089714
Al -15.469714 -15.472597 0.005286
Al -18.564714 -12.377597 -24.754714
Al -15.469714 -9.282597 -24.754714
Al -15.469714 -12.377597 -21.659714
Al -18.564714 -9.282597 -21.659714
Al -18.564714 -12.377597 -18.564714
Al -15.469714 -9.282597 -18.564714
Al -15.469714 -12.377597 -15.469714
Al -18.564714 -9.282597 -15.469714
Al -18.564714 -12.377597 -12.374714
Al -15.469714 -9.282597 -12.374714
Al -15.469714 -12.377597 -9.279714
Al -18.564714 -9.282597 -9.279714
Al -18.564714 -12.377597 -6.184714
Al -15.469714 -9.282597 -6.184714
Al -15.469714 -12.377597 -3.089714
Al -18.564714 -9.282597 -3.089714
Al -18.564714 -12.377597 0.005286
Al -15.469714 -9.282597 0.005286
Al -15.469714 -12.377597 3.100286
Al -18.564714 -9.282597 3.100286
Al -15.469714 -9.282597 6.195286
Al -15.469714 -6.187597 -21.659714
Al -18.564714 -6.187597 -18.564714
Al -15.469714 -3.092597 -18.564714
Al -15.469714 -6.187597 -15.469714
Al -18.564714 -3.092597 -15.469714
Al -18.564714 -6.187597 -12.374714
Al -15.469714 -3.092597 -12.374714
Al -15.469714 -6.187597 -9.279714
Al -18.564714 -3.092597 -9.279714
Al -18.564714 -6.187597 -6.184714
Al -15.469714 -3.092597 -6.184714
Al -15.469714 -6.187597 -3.089714
Al -18.564714 -3.092597 -3.089714
Al -18.564714 -6.187597 0.005286
Al -15.469714 -3.092597 0.005286
Al -15.469714 -6.187597 3.100286
Al -18.564714 -3.092597 3.100286
Al -18.564714 -6.187597 6.195286
Al -15.469714 -3.092597 6.195286
Al -15.469714 -6.187597 9.290286
Al -18.564714 -3.092597 9.290286
Al -15.469714 -3.092597 12.385286
Al -15.469714 0.002403 -15.469714
Al -18.564714 0.002403 -12.374714
Al -15.469714 3.097403 -12.374714
Al -15.469714 0.002403 -9.279714
Al -18.564714 3.097403 -9.279714
Al -18.564714 0.002403 -6.184714
Al -15.469714 3.097403 -6.184714
Al -15.469714 0.002403 -3.089714
Al -18.564714 3.097403 -3.089714
Al -18.564714 0.002403 0.005286
Al -15.469714 3.097403 0.005286
Al -15.469714 0.002403 3.100286
Al -18.564714 3.097403 3.100286
Al -18.564714 0.002403 6.195286
Al -15.469714 3.097403 6.195286
Al -15.469714 0.002403 9.290286
Al -18.564714 3.097403 9.290286
Al -18.564714 0.002403 12.385286
Al -15.469714 3.097403 12.385286
Al -15.469714 0.002403 15.480286
Al -18.564714 3.097403 15.480286
Al -15.469714 3.097403 18.575286
Al -15.469714 6.192403 -9.279714
Al -18.564714 6.192403 -6.184714
Al -15.469714 9.287403 -6.184714
Al -15.469714 6.192403 -3.089714
Al -18.564714 9.287403 -3.089714
Al -18.564714 6.192403 0.005286
Al -15.469714 9.287403 0.005286
Al -15.469714 6.192403 3.100286
Al -18.564714 9.287403 3.100286
Al -18.564714 6.192403 6.195286
Al -15.469714 9.287403 6.195286
Al -15.469714 6.192403 9.290286
Al -18.564714 9.287403 9.290286
Al -18.564714 6.192403 12.385286
Al -15.469714 9.287403 12.385286
Al -15.469714 6.192403 15.480286
Al -18.564714 9.287403 15.480286
Al -18.564714 6.192403 18.575286
Al -15.469714 9.287403 18.575286
Al -15.469714 6.192403 21.670286
Al -18.564714 9.287403 21.670286
Al -15.469714 9.287403 24.765286
Al -15.469714 12.382403 -3.089714
Al -18.564714 12.382403 0.005286
Al -15.469714 15.477403 0.005286
Al -15.469714 12.382403 3.100286
Al -18.564714 15.477403 3.100286
Al -18.564714 12.382403 6.195286
Al -15.469714 15.477403 6.195286
Al -15.469714 12.382403 9.290286
Al -18.564714 15.477403 9.290286
Al -18.564714 12.382403 12.385286
Al -15.469714 15.477403 12.385286
Al -15.469714 12.382403 15.480286
Al -18.564714 15.477403 15.480286
Al -18.564714 12.382403 18.575286
Al -15.469714 15.477403 18.575286
Al -15.469714 12.382403 21.670286
Al -18.564714 15.477403 21.670286
Al -18.564714 12.382403 24.765286
Al -15.469714 15.477403 24.765286
Al -15.469714 18.572403 3.100286
Al -18.564714 18.572403 6.195286
Al -15.469714 21.667403 6.195286
Al -15.469714 18.572403 9.290286
Al -18.564714 21.667403 9.290286
Al -18.564714 18.572403 12.385286
Al -15.469714 21.667403 12.385286
Al -15.469714 18.572403 15.480286
Al -18.564714 21.667403 15.480286
Al -18.564714 18.572403 18.575286
Al -15.469714 21.667403 18.575286
Al -15.469714 18.572403 21.670286
Al -18.564714 21.667403 21.670286
Al -18.564714 18.572403 24.765286
Al -15.469714 21.667403 24.765286
Al -15.469714 24.762403 9.290286
Al -18.564714 24.762403 12.385286
Al -15.469714 24.762403 15.480286
Al -18.564714 24.762403 18.575286
Al -15.469714 24.762403 21.670286
Al -12.374714 -21.662597 -21.659714
Al -12.374714 -24.757597 -18.564714
Al -9.279714 -21.662597 -18.564714
Al -9.279714 -24.757597 -15.469714
Al -12.374714 -21.662597 -15.469714
Al -12.374714 -24.757597 -12.374714
Al -9.279714 -21.662597 -12.374714
Al -9.279714 -24.757597 -9.279714
Al -12.374714 -21.662597 -9.279714
Al -12.374714 -24.757597 -6.184714
Al -9.279714 -21.662597 -6.184714
Al -9.279714 -24.757597 -3.089714
Al -12.374714 -21.662597 -3.089714
Al -9.279714 -21.662597 0.005286
Al -12.374714 -18.567597 -24.754714
Al -9.279714 -15.472597 -24.754714
Al -9.279714 -18.567597 -21.659714
Al -12.374714 -15.472597 -21.659714
Al -12.374714 -18.567597 -18.564714
Al -9.279714 -15.472597 -18.564714
Al -9.279714 -18.567597 -15.469714
Al -12.374714 -15.472597 -15.469714
Al -12.374714 -18.567597 -12.374714
Al -9.279714 -15.472597 -12.374714
Al -9.279714 -18.567597 -9.279714
Al -12.374714 -15.472597 -9.279714
Al -12.374714 -18.567597 -6.184714
Al -9.279714 -15.472597 -6.184714
Al -9.279714 -18.567597 -3.089714
Al -12.374714 -15.472597 -3.089714
Al -12.374714 -18.567597 0.005286
Al -9.279714 -15.472597 0.005286
Al -9.279714 -18.567597 3.100286
Al -12.374714 -15.472597 3.100286
Al -9.279714 -15.472597 6.195286
Al -12.374714 -12.377597 -24.754714
Al -9.279714 -9.282597 -24.754714
Al -9.279714 -12.377597 -21.659714
Al -12.374714 -9.282597 -21.659714
Al -12.374714 -12.377597 -18.564714
Al -9.279714 -9.282597 -18.564714
Al -9.279714 -12.377597 -15.469714
Al -12.374714 -9.282597 -15.469714
Al -12.374714 -12.377597 -12.374714
Al -9.279714 -9.282597 -12.374714
Al -9.279714 -12.377597 -9.279714
Al -12.374714 -9.282597 -9.279714
Al -12.374714 -12.377597 -6.184714
Al -9.279714 -9.282597 -6.184714
Al -9.279714 -12.377597 -3.089714
Al -12.374714 -9.282597 -3.089714
Al -12.374714 -12.377597 0.005286
Al -9.279714 -9.282597 0.005286
Al -9.279714 -12.377597 3.100286
Al -12.374714 -9.282597 3.100286
Al -12.374714 -12.377597 6.195286
Al -9.279714 -9.282597 6.195286
Al -9.279714 -12.377597 9.290286
Al -12.374714 -9.282597 9.290286
Al -9.279714 -9.282597 12.385286
Al -12.374714 -6.187597 -24.754714
Al -9.279714 -3.092597 -24.754714
Al -9.279714 -6.187597 -21.659714
Al -12.374714 -3.092597 -21.659714
Al -12.374714 -6.187597 -18.564714
Al -9.279714 -3.092597 -18.564714
Al -9.279714 -6.187597 -15.469714
Al -12.374714 -3.092597 -15.469714
Al -12.374714 -6.187597 -12.374714
Al -9.279714 -3.092597 -12.374714
Al -9.279714 -6.187597 -9.279714
Al -12.374714 -3.092597 -9.279714
Al -12.374714 -6.187597 -6.184714
Al -9.279714 -3.092597 -6.184714
Al -9.279714 -6.187597 -3.089714
Al -12.374714 -3.092597 -3.089714
Al -12.374714 -6.187597 0.005286
Al -9.279714 -3.092597 0.005286
Al -9.279714 -6.187597 3.100286
Al -12.374714 -3.092597 3.100286
Al -12.374714 -6.187597 6.195286
Al -9.279714 -3.092597 6.195286
Al -9.279714 -6.187597 9.290286
Al -12.374714 -3.092597 9.290286
Al -12.374714 -6.187597 12.385286
Al -9.279714 -3.092597 12.385286
Al -9.279714 -6.187597 15.480286
Al -12.374714 -3.092597 15.480286
Al -9.279714 -3.092597 18.575286
Al -9.279714 0.002403 -21.659714
Al -12.374714 0.002403 -18.564714
Al -9.279714 3.097403 -18.564714
Al -9.279714 0.002403 -15.469714
Al -12.374714 3.097403 -15.469714
Al -12.374714 0.002403 -12.374714
Al -9.279714 3.097403 -12.374714
Al -9.279714 0.002403 -9.279714
Al -12.374714 3.097403 -9.279714
Al -12.374714 0.002403 -6.184714
Al -9.279714 3.097403 -6.184714
Al -9.279714 0.002403 -3.089714
Al -12.374714 3.097403 -3.089714
Al -12.374714 0.002403 0.005286
Al -9.279714 3.097403 0.005286
Al -9.279714 0.002403 3.100286
Al -12.374714 3.097403 3.100286
Al -12.374714 0.002403 6.195286
Al -9.279714 3.097403 6.195286
Al -9.279714 0.002403 9.290286
Al -12.374714 3.097403 9.290286
Al -12.374714 0.002403 12.385286
Al -9.279714 3.097403 12.385286
Al -9.279714 0.002403 15.480286
Al -12.374714 3.097403 15.480286
Al -12.374714 0.002403 18.575286
Al -9.279714 3.097403 18.575286
Al -9.279714 0.002403 21.670286
Al -12.374714 3.097403 21.670286
Al -9.279714 3.097403 24.765286
Al -9.279714 6.192403 -15.469714
Al -12.374714 6.192403 -12.374714
Al -9.279714 9.287403 -12.374714
Al -9.279714 6.192403 -9.279714
Al -12.374714 9.287403 -9.279714
Al -12.374714 6.192403 -6.184714
Al -9.279714 9.287403 -6.184714
Al -9.279714 6.192403 -3.089714
Al -12.374714 9.287403 -3.089714
Al -12.374714 6.192403 0.005286
Al -9.279714 9.287403 0.005286
Al -9.279714 6.192403 3.100286
Al -12.374714 9.287403 3.100286
Al -12.374714 6.192403 6.195286
Al -9.279714 9.287403 6.195286
Al -9.279714 6.192403 9.290286
Al -12.374714 9.287403 9.290286
Al -12.374714 6.192403 12.385286
Al -9.279714 9.287403 12.385286
Al -9.279714 6.192403 15.480286
Al -12.374714 9.287403 15.480286
Al -12.374714 6.192403 18.575286
Al -9.279714 9.287403 18.575286
Al -9.279714 6.192403 21.670286
Al -12.374714 9.287403 21.670286
Al -12.374714 6.192403 24.765286
Al -9.279714 9.287403 24.765286
Al -9.279714 12.382403 -9.279714
Al -12.374714 12.382403 -6.184714
Al -9.279714 15.477403 -6.184714
Al -9.279714 12.382403 -3.089714
Al -12.374714 15.477403 -3.089714
Al -12.374714 12.382403 0.005286
Al -9.279714 15.477403 0.005286
Al -9.279714 12.382403 3.100286
Al -12.374714 15.477403 3.100286
Al -12.374714 12.382403 6.195286
Al -9.279714 15.477403 6.195286
Al -9.279714 12.382403 9.290286
Al -12.374714 15.477403 9.290286
Al -12.374714 12.382403 12.385286
Al -9.279714 15.477403 12.385286
Al -9.279714 12.382403 15.480286
Al -12.374714 15.477403 15.480286
Al -12.374714 12.382403 18.575286
Al -9.279714 15.477403 18.575286
Al -9.279714 12.382403 21.670286
Al -12.374714 15.477403 21.670286
Al -12.374714 12.382403 24.765286
Al -9.279714 15.477403 24.765286
Al -9.279714 18.572403 -3.089714
Al -12.374714 18.572403 0.005286
Al -9.279714 21.667403 0.005286
Al -9.279714 18.572403 3.100286
Al -12.374714 21.667403 3.100286
Al -12.374714 18.572403 6.195286
Al -9.279714 21.667403 6.195286
Al -9.279714 18.572403 9.290286
Al -12.374714 21.667403 9.290286
Al -12.374714 18.572403 12.385286
Al -9.279714 21.667403 12.385286
Al -9.279714 18.572403 15.480286
Al -12.374714 21.667403 15.480286
Al -12.374714 18.572403 18.575286
Al -9.279714 21.667403 18.575286
Al -9.279714 18.572403 21.670286
Al -12.374714 21.667403 21.670286
Al -12.374714 18.572403 24.765286
Al -9.279714 24.762403 3.100286
Al -12.374714 24.762403 6.195286
Al -9.279714 24.762403 9.290286
Al -12.374714 24.762403 12.385286
Al -9.279714 24.762403 15.480286
Al -12.374714 24.762403 18.575286
Al -6.184714 -21.662597 -15.469714
Al -6.184714 -24.757597 -12.374714
Al -3.089714 -21.662597 -12.374714
Al -3.089714 -24.757597 -9.279714
Al -6.184714 -21.662597 -9.279714
Al -6.184714 -24.757597 -6.184714
Al -3.089714 -21.662597 -6.184714
Al -3.089714 -24.757597 -3.089714
Al -6.184714 -21.662597 -3.089714
Al -6.184714 -24.757597 0.005286
Al -3.089714 -21.662597 0.005286
Al -3.089714 -24.757597 3.100286
Al -6.184714 -21.662597 3.100286
Al -3.089714 -21.662597 6.195286
Al -6.184714 -15.472597 -21.659714
Al -6.184714 -18.567597 -18.564714
Al -3.089714 -15.472597 -18.564714
Al -3.089714 -18.567597 -15.469714
Al -6.184714 -15.472597 -15.469714
Al -6.184714 -18.567597 -12.374714
Al -3.089714 -15.472597 -12.374714
Al -3.089714 -18.567597 -9.279714
Al -6.184714 -15.472597 -9.279714
Al -6.184714 -18.567597 -6.184714
Al -3.089714 -15.472597 -6.184714
Al -3.089714 -18.567597 -3.089714
Al -6.184714 -15.472597 -3.089714
Al -6.184714 -18.567597 0.005286
Al -3.089714 -15.472597 0.005286
Al -3.089714 -18.567597 3.100286
Al -6.184714 -15.472597 3.100286
Al -6.184714 -18.567597 6.195286
Al -3.089714 -15.472597 6.195286
Al -3.089714 -18.567597 9.290286
Al -6.184714 -15.472597 9.290286
Al -3.089714 -15.472597 12.385286
Al -6.184714 -12.377597 -24.754714
Al -3.089714 -9.282597 -24.754714
Al -3.089714 -12.377597 -21.659714
Al -6.184714 -9.282597 -21.659714
Al -6.184714 -12.377597 -18.564714
Al -3.089714 -9.282597 -18.564714
Al -3.089714 -12.377597 -15.469714
Al -6.184714 -9.282597 -15.469714
Al -6.184714 -12.377597 -12.374714
Al -3.089714 -9.282597 -12.374714
Al -3.089714 -12.377597 -9.279714
Al -6.184714 -9.282597 -9.279714
Al -6.184714 -12.377597 -6.184714
Al -3.089714 -9.282597 -6.184714
Al -3.089714 -12.377597 -3.089714
Al -6.184714 -9.282597 -3.089714
Al -6.184714 -12.377597 0.005286
Al -3.089714 -9.282597 0.005286
Al -3.089714 -12.377597 3.100286
Al -6.184714 -9.282597 3.100286
Al -6.184714 -12.377597 6.195286
Al -3.089714 -9.282597 6.195286
Al -3.089714 -12.377597 9.290286
Al -6.184714 -9.282597 9.290286
Al -6.184714 -12.377597 12.385286
Al -3.089714 -9.282597 12.385286
Al -3.089714 -12.377597 15.480286
Al -6.184714 -9.282597 15.480286
Al -3.089714 -9.282597 18.575286
Al -6.184714 -6.187597 -24.754714
Al -3.089714 -3.092597 -24.754714
Al -3.089714 -6.187597 -21.659714
Al -6.184714 -3.092597 -21.659714
Al -6.184714 -6.187597 -18.564714
Al -3.089714 -3.092597 -18.564714
Al -3.089714 -6.187597 -15.469714
Al -6.184714 -3.092597 -15.469714
Al -6.184714 -6.187597 -12.374714
Al -3.089714 -3.092597 -12.374714
Al -3.089714 -6.187597 -9.279714
Al -6.184714 -3.092597 -9.279714
Al -6.184714 -6.187597 -6.184714
Al -3.089714 -3.092597 -6.184714
Al -3.089714 -6.187597 -3.089714
Al -6.184714 -3.092597 -3.089714
Al -6.184714 -6.187597 0.005286
Al -3.089714 -3.092597 0.005286
Al -3.089714 -6.187597 3.100286
Al -6.184714 -3.092597 3.100286
Al -6.184714 -6.187597 6.195286
Al -3.089714 -3.092597 6.195286
Al -3.089714 -6.187597 9.290286
Al -6.184714 -3.092597 9.290286
Al -6.184714 -6.187597 12.385286
Al -3.089714 -3.092597 12.385286
Al -3.089714 -6.187597 15.480286
Al -6.184714 -3.092597 15.480286
Al -6.184714 -6.187597 18.575286
Al -3.089714 -3.092597 18.575286
Al -3.089714 -6.187597 21.670286
Al -6.184714 -3.092597 21.670286
Al -3.089714 -3.092597 24.765286
Al -6.184714 0.002403 -24.754714
Al -3.089714 3.097403 -24.754714
Al -3.089714 0.002403 -21.659714
Al -6.184714 3.097403 -21.659714
Al -6.184714 0.002403 -18.564714
Al -3.089714 3.097403 -18.564714
Al -3.089714 0.002403 -15.469714
Al -6.184714 3.097403 -15.469714
Al -6.184714 0.002403 -12.374714
Al -3.089714 3.097403 -12.374714
Al -3.089714 0.002403 -9.279714
Al -6.184714 3.097403 -9.279714
Al -6.184714 0.002403 -6.184714
Al -3.089714 3.097403 -6.184714
Al -3.089714 0.002403 -3.089714
Al -6.184714 3.097403 -3.089714
Al -6.184714 0.002403 0.005286
Al -3.089714 3.097403 0.005286
Al -3.089714 0.002403 3.100286
Al -6.184714 3.097403 3.100286
Al -6.184714 0.002403 6.195286
Al -3.089714 3.097403 6.195286
Al -3.089714 0.002403 9.290286
Al -6.184714 3.097403 9.290286
Al -6.184714 0.002403 12.385286
Al -3.089714 3.097403 12.385286
Al -3.089714 0.002403 15.480286
Al -6.184714 3.097403 15.480286
Al -6.184714 0.002403 18.575286
Al -3.089714 3.097403 18.575286
Al -3.089714 0.002403 21.670286
Al -6.184714 3.097403 21.670286
Al -6.184714 0.002403 24.765286
Al -3.089714 3.097403 24.765286
Al -3.089714 6.192403 -21.659714
Al -6.184714 6.192403 -18.564714
Al -3.089714 9.287403 -18.564714
Al -3.089714 6.192403 -15.469714
Al -6.184714 9.287403 -15.469714
Al -6.184714 6.192403 -12.374714
Al -3.089714 9.287403 -12.374714
Al -3.089714 6.192403 -9.279714
Al -6.184714 9.287403 -9.279714
Al -6.184714 6.192403 -6.184714
Al -3.089714 9.287403 -6.184714
Al -3.089714 6.192403 -3.089714
Al -6.184714 9.287403 -3.089714
Al -6.184714 6.192403 0.005286
Al -3.089714 9.287403 0.005286
Al -3.089714 6.192403 3.100286
Al -6.184714 9.287403 3.100286
Al -6.184714 6.192403 6.195286
Al -3.089714 9.287403 6.195286
Al -3.089714 6.192403 9.290286
Al -6.184714 9.287403 9.290286
Al -6.184714 6.192403 12.385286
Al -3.089714 9.287403 12.385286
Al -3.089714 6.192403 15.480286
Al -6.184714 9.287403 15.480286
Al -6.184714 6.192403 18.575286
Al -3.089714 9.287403 18.575286
Al -3.089714 6.192403 21.670286
Al -6.184714 9.287403 21.670286
Al -6.184714 6.192403 24.765286
Al -3.089714 9.287403 24.765286
Al -3.089714 12.382403 -15.469714
Al -6.184714 12.382403 -12.374714
Al -3.089714 15.477403 -12.374714
Al -3.089714 12.382403 -9.279714
Al -6.184714 15.477403 -9.279714
Al -6.184714 12.382403 -6.184714
Al -3.089714 15.477403 -6.184714
Al -3.089714 12.382403 -3.089714
Al -6.184714 15.477403 -3.089714
Al -6.184714 12.382403 0.005286
Al -3.089714 15.477403 0.005286
Al -3.089714 12.382403 3.100286
Al -6.184714 15.477403 3.100286
Al -6.184714 12.382403 6.195286
Al -3.089714 15.477403 6.195286
Al -3.089714 12.382403 9.290286
Al -6.184714 15.477403 9.290286
Al -6.184714 12.382403 12.385286
Al -3.089714 15.477403 12.385286
Al -3.089714 12.382403 15.480286
Al -6.184714 15.477403 15.480286
Al -6.184714 12.382403 18.575286
Al -3.089714 15.477403 18.575286
Al -3.089714 12.382403 21.670286
Al -6.184714 15.477403 21.670286
Al -6.184714 12.382403 24.765286
Al -3.089714 18.572403 -9.279714
Al -6.184714 18.572403 -6.184714
Al -3.089714 21.667403 -6.184714
Al -3.089714 18.572403 -3.089714
Al -6.184714 21.667403 -3.089714
Al -6.184714 18.572403 0.005286
Al -3.089714 21.667403 0.005286
Al -3.089714 18.572403 3.100286
Al -6.184714 21.667403 3.100286
Al -6.184714 18.572403 6.195286
Al -3.089714 21.667403 6.195286
Al -3.089714 18.572403 9.290286
Al -6.184714 21.667403 9.290286
Al -6.184714 18.572403 12.385286
Al -3.089714 21.667403 12.385286
Al -3.089714 18.572403 15.480286
Al -6.184714 21.667403 15.480286
Al -6.184714 18.572403 18.575286
Al -3.089714 24.762403 -3.089714
Al -6.184714 24.762403 0.005286
Al -3.089714 24.762403 3.100286
Al -6.184714 24.762403 6.195286
Al -3.089714 24.762403 9.290286
Al -6.184714 24.762403 12.385286
Al 0.005286 -21.662597 -9.279714
Al 0.005286 -24.757597 -6.184714
Al 3.100286 -21.662597 -6.184714
Al 3.100286 -24.757597 -3.089714
Al 0.005286 -21.662597 -3.089714
Al 0.005286 -24.757597 0.005286
Al 3.100286 -21.662597 0.005286
Al 3.100286 -24.757597 3.100286
Al 0.005286 -21.662597 3.100286
Al 0.005286 -24.757597 6.195286
Al 3.100286 -21.662597 6.195286
Al 3.100286 -24.757597 9.290286
Al 0.005286 -21.662597 9.290286
Al 3.100286 -21.662597 12.385286
Al 0.005286 -15.472597 -15.469714
Al 0.005286 -18.567597 -12.374714
Al 3.100286 -15.472597 -12.374714
Al 3.100286 -18.567597 -9.279714
Al 0.005286 -15.472597 -9.279714
Al 0.005286 -18.567597 -6.184714
Al 3.100286 -15.472597 -6.184714
Al 3.100286 -18.567597 -3.089714
Al 0.005286 -15.472597 -3.089714
Al 0.005286 -18.567597 0.005286
Al 3.100286 -15.472597 0.005286
Al 3.100286 -18.567597 3.100286
Al 0.005286 -15.472597 3.100286
Al 0.005286 -18.567597 6.195286
Al 3.100286 -15.472597 6.195286
Al 3.100286 -18.567597 9.290286
Al 0.005286 -15.472597 9.290286
Al 0.005286 -18.567597 12.385286
Al 3.100286 -15.472597 12.385286
Al 3.100286 -18.567597 15.480286
Al 0.005286 -15.472597 15.480286
Al 3.100286 -15.472597 18.575286
Al 0.005286 -9.282597 -21.659714
Al 0.005286 -12.377597 -18.564714
Al 3.100286 -9.282597 -18.564714
Al 3.100286 -12.377597 -15.469714
Al 0.005286 -9.282597 -15.469714
Al 0.005286 -12.377597 -12.374714
Al 3.100286 -9.282597 -12.374714
Al 3.100286 -12.377597 -9.279714
Al 0.005286 -9.282597 -9.279714
Al 0.005286 -12.377597 -6.184714
Al 3.100286 -9.282597 -6.184714
Al 3.100286 -12.377597 -3.089714
Al 0.005286 -9.282597 -3.089714
Al 0.005286 -12.377597 0.005286
Al 3.100286 -9.282597 0.005286
Al 3.100286 -12.377597 3.100286
Al 0.005286 -9.282597 3.100286
Al 0.005286 -12.377597 6.195286
Al 3.100286 -9.282597 6.195286
Al 3.100286 -12.377597 9.290286
Al 0.005286 -9.282597 9.290286
Al 0.005286 -12.377597 12.385286
Al 3.100286 -9.282597 12.385286
Al 3.100286 -12.377597 15.480286
Al 0.005286 -9.282597 15.480286
Al 0.005286 -12.377597 18.575286
Al 3.100286 -9.282597 18.575286
Al 3.100286 -12.377597 21.670286
Al 0.005286 -9.282597 21.670286
Al 3.100286 -9.282597 24.765286
Al 0.005286 -6.187597 -24.754714
Al 3.100286 -3.092597 -24.754714
Al 3.100286 -6.187597 -21.659714
Al 0.005286 -3.092597 -21.659714
Al 0.005286 -6.187597 -18.564714
Al 3.100286 -3.092597 -18.564714
Al 3.100286 -6.187597 -15.469714
Al 0.005286 -3.092597 -15.469714
Al 0.005286 -6.187597 -12.374714
Al 3.100286 -3.092597 -12.374714
Al 3.100286 -6.187597 -9.279714
Al 0.005286 -3.092597 -9.279714
Al 0.005286 -6.187597 -6.184714
Al 3.100286 -3.092597 -6.184714
Al 3.100286 -6.187597 -3.089714
Al 0.005286 -3.092597 -3.089714
Al 0.005286 -6.187597 0.005286
Al 3.100286 -3.092597 0.005286
Al 3.100286 -6.187597 3.100286
Al 0.005286 -3.092597 3.100286
Al 0.005286 -6.187597 6.195286
Al 3.100286 -3.092597 6.195286
Al 3.100286 -6.187597 9.290286
Al 0.005286 -3.092597 9.290286
Al 0.005286 -6.187597 12.385286
Al 3.100286 -3.092597 12.385286
Al 3.100286 -6.187597 15.480286
Al 0.005286 -3.092597 15.480286
Al 0.005286 -6.187597 18.575286
Al 3.100286 -3.092597 18.575286
Al 3.100286 -6.187597 21.670286
Al 0.005286 -3.092597 21.670286
Al 0.005286 -6.187597 24.765286
Al 3.100286 -3.092597 24.765286
Al 0.005286 0.002403 -24.754714
Al 3.100286 3.097403 -24.754714
Al 3.100286 0.002403 -21.659714
Al 0.005286 3.097403 -21.659714
Al 0.005286 0.002403 -18.564714
Al 3.100286 3.097403 -18.564714
Al 3.100286 0.002403 -15.469714
Al 0.005286 3.097403 -15.469714
Al 0.005286 0.002403 -12.374714
Al 3.100286 3.097403 -12.374714
Al 3.100286 0.002403 -9.279714
Al 0.005286 3.097403 -9.279714
Al 0.005286 0.002403 -6.184714
Al 3.100286 3.097403 -6.184714
Al 3.100286 0.002403 -3.089714
Al 0.005286 3.097403 -3.089714
Al 0.005286 0.002403 0.005286
Al 3.100286 3.097403 0.005286
Al 3.100286 0.002403 3.100286
Al 0.005286 3.097403 3.100286
Al 0.005286 0.002403 6.195286
Al 3.100286 3.097403 6.195286
Al 3.100286 0.002403 9.290286
Al 0.005286 3.097403 9.290286
Al 0.005286 0.002403 12.385286
Al 3.100286 3.097403 12.385286
Al 3.100286 0.002403 15.480286
Al 0.005286 3.097403 15.480286
Al 0.005286 0.002403 18.575286
Al 3.100286 3.097403 18.575286
Al 3.100286 0.002403 21.670286
Al 0.005286 3.097403 21.670286
Al 0.005286 0.002403 24.765286
Al 3.100286 3.097403 24.765286
Al 0.005286 6.192403 -24.754714
Al 3.100286 9.287403 -24.754714
Al 3.100286 6.192403 -21.659714
Al 0.005286 9.287403 -21.659714
Al 0.005286 6.192403 -18.564714
Al 3.100286 9.287403 -18.564714
Al 3.100286 6.192403 -15.469714
Al 0.005286 9.287403 -15.469714
Al 0.005286 6.192403 -12.374714
Al 3.100286 9.287403 -12.374714
Al 3.100286 6.192403 -9.279714
Al 0.005286 9.287403 -9.279714
Al 0.005286 6.192403 -6.184714
Al 3.100286 9.287403 -6.184714
Al 3.100286 6.192403 -3.089714
Al 0.005286 9.287403 -3.089714
Al 0.005286 6.192403 0.005286
Al 3.100286 9.287403 0.005286
Al 3.100286 6.192403 3.100286
Al 0.005286 9.287403 3.100286
Al 0.005286 6.192403 6.195286
Al 3.100286 9.287403 6.195286
Al 3.100286 6.192403 9.290286
Al 0.005286 9.287403 9.290286
Al 0.005286 6.192403 12.385286
Al 3.100286 9.287403 12.385286
Al 3.100286 6.192403 15.480286
Al 0.005286 9.287403 15.480286
Al 0.005286 6.192403 18.575286
Al 3.100286 9.287403 18.575286
Al 3.100286 6.192403 21.670286
Al 0.005286 9.287403 21.670286
Al 0.005286 6.192403 24.765286
Al 3.100286 12.382403 -21.659714
Al 0.005286 12.382403 -18.564714
Al 3.100286 15.477403 -18.564714
Al 3.100286 12.382403 -15.469714
Al 0.005286 15.477403 -15.469714
Al 0.005286 12.382403 -12.374714
Al 3.100286 15.477403 -12.374714
Al 3.100286 12.382403 -9.279714
Al 0.005286 15.477403 -9.279714
Al 0.005286 12.382403 -6.184714
Al 3.100286 15.477403 -6.184714
Al 3.100286 12.382403 -3.089714
Al 0.005286 15.477403 -3.089714
Al 0.005286 12.382403 0.005286
Al 3.100286 15.477403 0.005286
Al 3.100286 12.382403 3.100286
Al 0.005286 15.477403 3.100286
Al 0.005286 12.382403 6.195286
Al 3.100286 15.477403 6.195286
Al 3.100286 12.382403 9.290286
Al 0.005286 15.477403 9.290286
Al 0.005286 12.382403 12.385286
Al 3.100286 15.477403 12.385286
Al 3.100286 12.382403 15.480286
Al 0.005286 15.477403 15.480286
Al 0.005286 12.382403 18.575286
Al 3.100286 18.572403 -15.469714
Al 0.005286 18.572403 -12.374714
Al 3.100286 21.667403 -12.374714
Al 3.100286 18.572403 -9.279714
Al 0.005286 21.667403 -9.279714
Al 0.005286 18.572403 -6.184714
Al 3.100286 21.667403 -6.184714
Al 3.100286 18.572403 -3.089714
Al 0.005286 21.667403 -3.089714
Al 0.005286 18.572403 0.005286
Al 3.100286 21.667403 0.005286
Al 3.100286 18.572403 3.100286
Al 0.005286 21.667403 3.100286
Al 0.005286 18.572403 6.195286
Al 3.100286 21.667403 6.195286
Al 3.100286 18.572403 9.290286
Al 0.005286 21.667403 9.290286
Al 0.005286 18.572403 12.385286
Al 3.100286 24.762403 -9.279714
Al 0.005286 24.762403 -6.184714
Al 3.100286 24.762403 -3.089714
Al 0.005286 24.762403 0.005286
Al 3.100286 24.762403 3.100286
Al 0.005286 24.762403 6.195286
Al 6.195286 -21.662597 -3.089714
Al 6.195286 -24.757597 0.005286
Al 9.290286 -21.662597 0.005286
Al 9.290286 -24.757597 3.100286
Al 6.195286 -21.662597 3.100286
Al 6.195286 -24.757597 6.195286
Al 9.290286 -21.662597 6.195286
Al 9.290286 -24.757597 9.290286
Al 6.195286 -21.662597 9.290286
Al 6.195286 -24.757597 12.385286
Al 9.290286 -21.662597 12.385286
Al 9.290286 -24.757597 15.480286
Al 6.195286 -21.662597 15.480286
Al 9.290286 -21.662597 18.575286
Al 6.195286 -15.472597 -9.279714
Al 6.195286 -18.567597 -6.184714
Al 9.290286 -15.472597 -6.184714
Al 9.290286 -18.567597 -3.089714
Al 6.195286 -15.472597 -3.089714
Al 6.195286 -18.567597 0.005286
Al 9.290286 -15.472597 0.005286
Al 9.290286 -18.567597 3.100286
Al 6.195286 -15.472597 3.100286
Al 6.195286 -18.567597 6.195286
Al 9.290286 -15.472597 6.195286
Al 9.290286 -18.567597 9.290286
Al 6.195286 -15.472597 9.290286
Al 6.195286 -18.567597 12.385286
Al 9.290286 -15.472597 12.385286
Al 9.290286 -18.567597 15.480286
Al 6.195286 -15.472597 15.480286
Al 6.195286 -18.567597 18.575286
Al 9.290286 -15.472597 18.575286
Al 9.290286 -18.567597 21.670286
Al 6.195286 -15.472597 21.670286
Al 9.290286 -15.472597 24.765286
Al 6.195286 -9.282597 -15.469714
Al 6.195286 -12.377597 -12.374714
Al 9.290286 -9.282597 -12.374714
Al 9.290286 -12.377597 -9.279714
Al 6.195286 -9.282597 -9.279714
Al 6.195286 -12.377597 -6.184714
Al 9.290286 -9.282597 -6.184714
Al 9.290286 -12.377597 -3.089714
Al 6.195286 -9.282597 -3.089714
Al 6.195286 -12.377597 0.005286
Al 9.290286 -9.282597 0.005286
Al 9.290286 -12.377597 3.100286
Al 6.195286 -9.282597 3.100286
Al 6.195286 -12.377597 6.195286
Al 9.290286 -9.282597 6.195286
Al 9.290286 -12.377597 9.290286
Al 6.195286 -9.282597 9.290286
Al 6.195286 -12.377597 12.385286
Al 9.290286 -9.282597 12.385286
Al 9.290286 -12.377597 15.480286
Al 6.195286 -9.282597 15.480286
Al 6.195286 -12.377597 18.575286
Al 9.290286 -9.282597 18.575286
Al 9.290286 -12.377597 21.670286
Al 6.195286 -9.282597 21.670286
Al 6.195286 -12.377597 24.765286
Al 9.290286 -9.282597 24.765286
Al 6.195286 -3.092597 -21.659714
Al 6.195286 -6.187597 -18.564714
Al 9.290286 -3.092597 -18.564714
Al 9.290286 -6.187597 -15.469714
Al 6.195286 -3.092597 -15.469714
Al 6.195286 -6.187597 -12.374714
Al 9.290286 -3.092597 -12.374714
Al 9.290286 -6.187597 -9.279714
Al 6.195286 -3.092597 -9.279714
Al 6.195286 -6.187597 -6.184714
Al 9.290286 -3.092597 -6.184714
Al 9.290286 -6.187597 -3.089714
Al 6.195286 -3.092597 -3.089714
Al 6.195286 -6.187597 0.005286
Al 9.290286 -3.092597 0.005286
Al 9.290286 -6.187597 3.100286
Al 6.195286 -3.092597 3.100286
Al 6.195286 -6.187597 6.195286
Al 9.290286 -3.092597 6.195286
Al 9.290286 -6.187597 9.290286
Al 6.195286 -3.092597 9.290286
Al 6.195286 -6.187597 12.385286
Al 9.290286 -3.092597 12.385286
Al 9.290286 -6.187597 15.480286
Al 6.195286 -3.092597 15.480286
Al 6.195286 -6.187597 18.575286
Al 9.290286 -3.092597 18.575286
Al 9.290286 -6.187597 21.670286
Al 6.195286 -3.092597 21.670286
Al 6.195286 -6.187597 24.765286
Al 9.290286 -3.092597 24.765286
Al 6.195286 0.002403 -24.754714
Al 9.290286 3.097403 -24.754714
Al 9.290286 0.002403 -21.659714
Al 6.195286 3.097403 -21.659714
Al 6.195286 0.002403 -18.564714
Al 9.290286 3.097403 -18.564714
Al 9.290286 0.002403 -15.469714
Al 6.195286 3.097403 -15.469714
Al 6.195286 0.002403 -12.374714
Al 9.290286 3.097403 -12.374714
Al 9.290286 0.002403 -9.279714
Al 6.195286 3.097403 -9.279714
Al 6.195286 0.002403 -6.184714
Al 9.290286 3.097403 -6.184714
Al 9.290286 0.002403 -3.089714
Al 6.195286 3.097403 -3.089714
Al 6.195286 0.002403 0.005286
Al 9.290286 3.097403 0.005286
Al 9.290286 0.002403 3.100286
Al 6.195286 3.097403 3.100286
Al 6.195286 0.002403 6.195286
Al 9.290286 3.097403 6.195286
Al 9.290286 0.002403 9.290286
Al 6.195286 3.097403 9.290286
Al 6.195286 0.002403 12.385286
Al 9.290286 3.097403 12.385286
Al 9.290286 0.002403 15.480286
Al 6.195286 3.097403 15.480286
Al 6.195286 0.002403 18.575286
Al 9.290286 3.097403 18.575286
Al 9.290286 0.002403 21.670286
Al 6.195286 3.097403 21.670286
Al 6.195286 0.002403 24.765286
Al 6.195286 6.192403 -24.754714
Al 9.290286 9.287403 -24.754714
Al 9.290286 6.192403 -21.659714
Al 6.195286 9.287403 -21.659714
Al 6.195286 6.192403 -18.564714
Al 9.290286 9.287403 -18.564714
Al 9.290286 6.192403 -15.469714
Al 6.195286 9.287403 -15.469714
Al 6.195286 6.192403 -12.374714
Al 9.290286 9.287403 -12.374714
Al 9.290286 6.192403 -9.279714
Al 6.195286 9.287403 -9.279714
Al 6.195286 6.192403 -6.184714
Al 9.290286 9.287403 -6.184714
Al 9.290286 6.192403 -3.089714
Al 6.195286 9.287403 -3.089714
Al 6.195286 6.192403 0.005286
Al 9.290286 9.287403 0.005286
Al 9.290286 6.192403 3.100286
Al 6.195286 9.287403 3.100286
Al 6.195286 6.192403 6.195286
Al 9.290286 9.287403 6.195286
Al 9.290286 6.192403 9.290286
Al 6.195286 9.287403 9.290286
Al 6.195286 6.192403 12.385286
Al 9.290286 9.287403 12.385286
Al 9.290286 6.192403 15.480286
Al 6.195286 9.287403 15.480286
Al 6.195286 6.192403 18.575286
Al 6.195286 12.382403 -24.754714
Al 9.290286 15.477403 -24.754714
Al 9.290286 12.382403 -21.659714
Al 6.195286 15.477403 -21.659714
Al 6.195286 12.382403 -18.564714
Al 9.290286 15.477403 -18.564714
Al 9.290286 12.382403 -15.469714
Al 6.195286 15.477403 -15.469714
Al 6.195286 12.382403 -12.374714
Al 9.290286 15.477403 -12.374714
Al 9.290286 12.382403 -9.279714
Al 6.195286 15.477403 -9.279714
Al 6.195286 12.382403 -6.184714
Al 9.290286 15.477403 -6.184714
Al 9.290286 12.382403 -3.089714
Al 6.195286 15.477403 -3.089714
Al 6.195286 12.382403 0.005286
Al 9.290286 15.477403 0.005286
Al 9.290286 12.382403 3.100286
Al 6.195286 15.477403 3.100286
Al 6.195286 12.382403 6.195286
Al 9.290286 15.477403 6.195286
Al 9.290286 12.382403 9.290286
Al 6.195286 15.477403 9.290286
Al 6.195286 12.382403 12.385286
Al 9.290286 18.572403 -21.659714
Al 6.195286 18.572403 -18.564714
Al 9.290286 21.667403 -18.564714
Al 9.290286 18.572403 -15.469714
Al 6.195286 21.667403 -15.469714
Al 6.195286 18.572403 -12.374714
Al 9.290286 21.667403 -12.374714
Al 9.290286 18.572403 -9.279714
Al 6.195286 21.667403 -9.279714
Al 6.195286 18.572403 -6.184714
Al 9.290286 21.667403 -6.184714
Al 9.290286 18.572403 -3.089714
Al 6.195286 21.667403 -3.089714
Al 6.195286 18.572403 0.005286
Al 9.290286 21.667403 0.005286
Al 9.290286 18.572403 3.100286
Al 6.195286 21.667403 3.100286
Al 6.195286 18.572403 6.195286
Al 9.290286 24.762403 -15.469714
Al 6.195286 24.762403 -12.374714
Al 9.290286 24.762403 -9.279714
Al 6.195286 24.762403 -6.184714
Al 9.290286 24.762403 -3.089714
Al 6.195286 24.762403 0.005286
Al 12.385286 -21.662597 3.100286
Al 12.385286 -24.757597 6.195286
Al 15.480286 -21.662597 6.195286
Al 15.480286 -24.757597 9.290286
Al 12.385286 -21.662597 9.290286
Al 12.385286 -24.757597 12.385286
Al 15.480286 -21.662597 12.385286
Al 15.480286 -24.757597 15.480286
Al 12.385286 -21.662597 15.480286
Al 12.385286 -24.757597 18.575286
Al 15.480286 -21.662597 18.575286
Al 15.480286 -24.757597 21.670286
Al 12.385286 -21.662597 21.670286
Al 15.480286 -21.662597 24.765286
Al 12.385286 -15.472597 -3.089714
Al 12.385286 -18.567597 0.005286
Al 15.480286 -15.472597 0.005286
Al 15.480286 -18.567597 3.100286
Al 12.385286 -15.472597 3.100286
Al 12.385286 -18.567597 6.195286
Al 15.480286 -15.472597 6.195286
Al 15.480286 -18.567597 9.290286
Al 12.385286 -15.472597 9.290286
Al 12.385286 -18.567597 12.385286
Al 15.480286 -15.472597 12.385286
Al 15.480286 -18.567597 15.480286
Al 12.385286 -15.472597 15.480286
Al 12.385286 -18.567597 18.575286
Al 15.480286 -15.472597 18.575286
Al 15.480286 -18.567597 21.670286
Al 12.385286 -15.472597 21.670286
Al 12.385286 -18.567597 24.765286
Al 15.480286 -15.472597 24.765286
Al 12.385286 -9.282597 -9.279714
Al 12.385286 -12.377597 -6.184714
Al 15.480286 -9.282597 -6.184714
Al 15.480286 -12.377597 -3.089714
Al 12.385286 -9.282597 -3.089714
Al 12.385286 -12.377597 0.005286
Al 15.480286 -9.282597 0.005286
Al 15.480286 -12.377597 3.100286
Al 12.385286 -9.282597 3.100286
Al 12.385286 -12.377597 6.195286
Al 15.480286 -9.282597 6.195286
Al 15.480286 -12.377597 9.290286
Al 12.385286 -9.282597 9.290286
Al 12.385286 -12.377597 12.385286
Al 15.480286 -9.282597 12.385286
Al 15.480286 -12.377597 15.480286
Al 12.385286 -9.282597 15.480286
Al 12.385286 -12.377597 18.575286
Al 15.480286 -9.282597 18.575286
Al 15.480286 -12.377597 21.670286
Al 12.385286 -9.282597 21.670286
Al 12.385286 -12.377597 24.765286
Al 15.480286 -9.282597 24.765286
Al 12.385286 -3.092597 -15.469714
Al 12.385286 -6.187597 -12.374714
Al 15.480286 -3.092597 -12.374714
Al 15.480286 -6.187597 -9.279714
Al 12.385286 -3.092597 -9.279714
Al 12.385286 -6.187597 -6.184714
Al 15.480286 -3.092597 -6.184714
Al 15.480286 -6.187597 -3.089714
Al 12.385286 -3.092597 -3.089714
Al 12.385286 -6.187597 0.005286
Al 15.480286 -3.092597 0.005286
Al 15.480286 -6.187597 3.100286
Al 12.385286 -3.092597 3.100286
Al 12.385286 -6.187597 6.195286
Al 15.480286 -3.092597 6.195286
Al 15.480286 -6.187597 9.290286
Al 12.385286 -3.092597 9.290286
Al 12.385286 -6.187597 12.385286
Al 15.480286 -3.092597 12.385286
Al 15.480286 -6.187597 15.480286
Al 12.385286 -3.092597 15.480286
Al 12.385286 -6.187597 18.575286
Al 15.480286 -3.092597 18.575286
Al 15.480286 -6.187597 21.670286
Al 12.385286 -3.092597 21.670286
Al 12.385286 -6.187597 24.765286
Al 12.385286 3.097403 -21.659714
Al 12.385286 0.002403 -18.564714
Al 15.480286 3.097403 -18.564714
Al 15.480286 0.002403 -15.469714
Al 12.385286 3.097403 -15.469714
Al 12.385286 0.002403 -12.374714
Al 15.480286 3.097403 -12.374714
Al 15.480286 0.002403 -9.279714
Al 12.385286 3.097403 -9.279714
Al 12.385286 0.002403 -6.184714
Al 15.480286 3.097403 -6.184714
Al 15.480286 0.002403 -3.089714
Al 12.385286 3.097403 -3.089714
Al 12.385286 0.002403 0.005286
Al 15.480286 3.097403 0.005286
Al 15.480286 0.002403 3.100286
Al 12.385286 3.097403 3.100286
Al 12.385286 0.002403 6.195286
Al 15.480286 3.097403 6.195286
Al 15.480286 0.002403 9.290286
Al 12.385286 3.097403 9.290286
Al 12.385286 0.002403 12.385286
Al 15.480286 3.097403 12.385286
Al 15.480286 0.002403 15.480286
Al 12.385286 3.097403 15.480286
Al 12.385286 0.002403 18.575286
Al 12.385286 6.192403 -24.754714
Al 15.480286 9.287403 -24.754714
Al 15.480286 6.192403 -21.659714
Al 12.385286 9.287403 -21.659714
Al 12.385286 6.192403 -18.564714
Al 15.480286 9.287403 -18.564714
Al 15.480286 6.192403 -15.469714
Al 12.385286 9.287403 -15.469714
Al 12.385286 6.192403 -12.374714
Al 15.480286 9.287403 -12.374714
Al 15.480286 6.192403 -9.279714
Al 12.385286 9.287403 -9.279714
Al 12.385286 6.192403 -6.184714
Al 15.480286 9.287403 -6.184714
Al 15.480286 6.192403 -3.089714
Al 12.385286 9.287403 -3.089714
Al 12.385286 6.192403 0.005286
Al 15.480286 9.287403 0.005286
Al 15.480286 6.192403 3.100286
Al 12.385286 9.287403 3.100286
Al 12.385286 6.192403 6.195286
Al 15.480286 9.287403 6.195286
Al 15.480286 6.192403 9.290286
Al 12.385286 9.287403 9.290286
Al 12.385286 6.192403 12.385286
Al 12.385286 12.382403 -24.754714
Al 15.480286 15.477403 -24.754714
Al 15.480286 12.382403 -21.659714
Al 12.385286 15.477403 -21.659714
Al 12.385286 12.382403 -18.564714
Al 15.480286 15.477403 -18.564714
Al 15.480286 12.382403 -15.469714
Al 12.385286 15.477403 -15.469714
Al 12.385286 12.382403 -12.374714
Al 15.480286 15.477403 -12.374714
Al 15.480286 12.382403 -9.279714
Al 12.385286 15.477403 -9.279714
Al 12.385286 12.382403 -6.184714
Al 15.480286 15.477403 -6.184714
Al 15.480286 12.382403 -3.089714
Al 12.385286 15.477403 -3.089714
Al 12.385286 12.382403 0.005286
Al 15.480286 15.477403 0.005286
Al 15.480286 12.382403 3.100286
Al 12.385286 15.477403 3.100286
Al 12.385286 12.382403 6.195286
Al 12.385286 18.572403 -24.754714
Al 15.480286 21.667403 -24.754714
Al 15.480286 18.572403 -21.659714
Al 12.385286 21.667403 -21.659714
Al 12.385286 18.572403 -18.564714
Al 15.480286 21.667403 -18.564714
Al 15.480286 18.572403 -15.469714
Al 12.385286 21.667403 -15.469714
Al 12.385286 18.572403 -12.374714
Al 15.480286 21.667403 -12.374714
Al 15.480286 18.572403 -9.279714
Al 12.385286 21.667403 -9.279714
Al 12.385286 18.572403 -6.184714
Al 15.480286 21.667403 -6.184714
Al 15.480286 18.572403 -3.089714
Al 12.385286 21.667403 -3.089714
Al 12.385286 18.572403 0.005286
Al 15.480286 24.762403 -21.659714
Al 12.385286 24.762403 -18.564714
Al 15.480286 24.762403 -15.469714
Al 12.385286 24.762403 -12.374714
Al 15.480286 24.762403 -9.279714
Al 12.385286 24.762403 -6.184714
Al 18.575286 -21.662597 9.290286
Al 18.575286 -24.757597 12.385286
Al 21.670286 -21.662597 12.385286
Al 21.670286 -24.757597 15.480286
Al 18.575286 -21.662597 15.480286
Al 18.575286 -24.757597 18.575286
Al 21.670286 -21.662597 18.575286
Al 18.575286 -21.662597 21.670286
Al 18.575286 -15.472597 3.100286
Al 18.575286 -18.567597 6.195286
Al 21.670286 -15.472597 6.195286
Al 21.670286 -18.567597 9.290286
Al 18.575286 -15.472597 9.290286
Al 18.575286 -18.567597 12.385286
Al 21.670286 -15.472597 12.385286
Al 21.670286 -18.567597 15.480286
Al 18.575286 -15.472597 15.480286
Al 18.575286 -18.567597 18.575286
Al 21.670286 -15.472597 18.575286
Al 21.670286 -18.567597 21.670286
Al 18.575286 -15.472597 21.670286
Al 18.575286 -18.567597 24.765286
Al 21.670286 -15.472597 24.765286
Al 18.575286 -9.282597 -3.089714
Al 18.575286 -12.377597 0.005286
Al 21.670286 -9.282597 0.005286
Al 21.670286 -12.377597 3.100286
Al 18.575286 -9.282597 3.100286
Al 18.575286 -12.377597 6.195286
Al 21.670286 -9.282597 6.195286
Al 21.670286 -12.377597 9.290286
Al 18.575286 -9.282597 9.290286
Al 18.575286 -12.377597 12.385286
Al 21.670286 -9.282597 12.385286
Al 21.670286 -12.377597 15.480286
Al 18.575286 -9.282597 15.480286
Al 18.575286 -12.377597 18.575286
Al 21.670286 -9.282597 18.575286
Al 21.670286 -12.377597 21.670286
Al 18.575286 -9.282597 21.670286
Al 18.575286 -12.377597 24.765286
Al 18.575286 -3.092597 -9.279714
Al 18.575286 -6.187597 -6.184714
Al 21.670286 -3.092597 -6.184714
Al 21.670286 -6.187597 -3.089714
Al 18.575286 -3.092597 -3.089714
Al 18.575286 -6.187597 0.005286
Al 21.670286 -3.092597 0.005286
Al 21.670286 -6.187597 3.100286
Al 18.575286 -3.092597 3.100286
Al 18.575286 -6.187597 6.195286
Al 21.670286 -3.092597 6.195286
Al 21.670286 -6.187597 9.290286
Al 18.575286 -3.092597 9.290286
Al 18.575286 -6.187597 12.385286
Al 21.670286 -3.092597 12.385286
Al 21.670286 -6.187597 15.480286
Al 18.575286 -3.092597 15.480286
Al 18.575286 -6.187597 18.575286
Al 18.575286 3.097403 -15.469714
Al 18.575286 0.002403 -12.374714
Al 21.670286 3.097403 -12.374714
Al 21.670286 0.002403 -9.279714
Al 18.575286 3.097403 -9.279714
Al 18.575286 0.002403 -6.184714
Al 21.670286 3.097403 -6.184714
Al 21.670286 0.002403 -3.089714
Al 18.575286 3.097403 -3.089714
Al 18.575286 0.002403 0.005286
Al 21.670286 3.097403 0.005286
Al 21.670286 0.002403 3.100286
Al 18.575286 3.097403 3.100286
Al 18.575286 0.002403 6.195286
Al 21.670286 3.097403 6.195286
Al 21.670286 0.002403 9.290286
Al 18.575286 3.097403 9.290286
Al 18.575286 0.002403 12.385286
Al 18.575286 9.287403 -21.659714
Al 18.575286 6.192403 -18.564714
Al 21.670286 9.287403 -18.564714
Al 21.670286 6.192403 -15.469714
Al 18.575286 9.287403 -15.469714
Al 18.575286 6.192403 -12.374714
Al 21.670286 9.287403 -12.374714
Al 21.670286 6.192403 -9.279714
Al 18.575286 9.287403 -9.279714
Al 18.575286 6.192403 -6.184714
Al 21.670286 9.287403 -6.184714
Al 21.670286 6.192403 -3.089714
Al 18.575286 9.287403 -3.089714
Al 18.575286 6.192403 0.005286
Al 21.670286 9.287403 0.005286
Al 21.670286 6.192403 3.100286
Al 18.575286 9.287403 3.100286
Al 18.575286 6.192403 6.195286
Al 18.575286 12.382403 -24.754714
Al 21.670286 15.477403 -24.754714
Al 21.670286 12.382403 -21.659714
Al 18.575286 15.477403 -21.659714
Al 18.575286 12.382403 -18.564714
Al 21.670286 15.477403 -18.564714
Al 21.670286 12.382403 -15.469714
Al 18.575286 15.477403 -15.469714
Al 18.575286 12.382403 -12.374714
Al 21.670286 15.477403 -12.374714
Al 21.670286 12.382403 -9.279714
Al 18.575286 15.477403 -9.279714
Al 18.575286 12.382403 -6.184714
Al 21.670286 15.477403 -6.184714
Al 21.670286 12.382403 -3.089714
Al 18.575286 15.477403 -3.089714
Al 18.575286 12.382403 0.005286
Al 18.575286 18.572403 -24.754714
Al 21.670286 18.572403 -21.659714
Al 18.575286 21.667403 -21.659714
Al 18.575286 18.572403 -18.564714
Al 21.670286 21.667403 -18.564714
Al 21.670286 18.572403 -15.469714
Al 18.575286 21.667403 -15.469714
Al 18.575286 18.572403 -12.374714
Al 21.670286 21.667403 -12.374714
Al 21.670286 18.572403 -9.279714
Al 18.575286 21.667403 -9.279714
Al 18.575286 18.572403 -6.184714
Al 18.575286 24.762403 -18.564714
Al 21.670286 24.762403 -15.469714
Al 18.575286 24.762403 -12.374714
Al 24.765286 -21.662597 15.480286
Al 24.765286 -15.472597 9.290286
Al 24.765286 -18.567597 12.385286
Al 24.765286 -15.472597 15.480286
Al 24.765286 -18.567597 18.575286
Al 24.765286 -15.472597 21.670286
Al 24.765286 -9.282597 3.100286
Al 24.765286 -12.377597 6.195286
Al 24.765286 -9.282597 9.290286
Al 24.765286 -12.377597 12.385286
Al 24.765286 -9.282597 15.480286
Al 24.765286 -12.377597 18.575286
Al 24.765286 -3.092597 -3.089714
Al 24.765286 -6.187597 0.005286
Al 24.765286 -3.092597 3.100286
Al 24.765286 -6.187597 6.195286
Al 24.765286 -3.092597 9.290286
Al 24.765286 -6.187597 12.385286
Al 24.765286 3.097403 -9.279714
Al 24.765286 0.002403 -6.184714
Al 24.765286 3.097403 -3.089714
Al 24.765286 0.002403 0.005286
Al 24.765286 3.097403 3.100286
Al 24.765286 0.002403 6.195286
Al 24.765286 9.287403 -15.469714
Al 24.765286 6.192403 -12.374714
Al 24.765286 9.287403 -9.279714
Al 24.765286 6.192403 -6.184714
Al 24.765286 9.287403 -3.089714
Al 24.765286 6.192403 0.005286
Al 24.765286 15.477403 -21.659714
Al 24.765286 12.382403 -18.564714
Al 24.765286 15.477403 -15.469714
Al 24.765286 12.382403 -12.374714
Al 24.765286 15.477403 -9.279714
Al 24.765286 12.382403 -6.184714
Al 24.765286 18.572403 -18.564714
Al 24.765286 21.667403 -15.469714
Al 24.765286 18.572403 -12.374714
Sb -23.207214 -20.115097 -20.112214
Sb -20.112214 -20.115097 -23.207214
Sb -20.112214 -23.210097 -20.112214
Sb -23.207214 -23.210097 -17.017214
Sb -23.207214 -20.115097 -13.922214
Sb -20.112214 -20.115097 -17.017214
Sb -20.112214 -23.210097 -13.922214
Sb -20.112214 -20.115097 -10.827214
Sb -23.207214 -17.020097 -23.207214
Sb -23.207214 -13.925097 -20.112214
Sb -20.112214 -13.925097 -23.207214
Sb -20.112214 -17.020097 -20.112214
Sb -23.207214 -17.020097 -17.017214
Sb -23.207214 -13.925097 -13.922214
Sb -20.112214 -13.925097 -17.017214
Sb -20.112214 -17.020097 -13.922214
Sb -23.207214 -17.020097 -10.827214
Sb -23.207214 -13.925097 -7.732214
Sb -20.112214 -13.925097 -10.827214
Sb -20.112214 -17.020097 -7.732214
Sb -20.112214 -13.925097 -4.637214
Sb -20.112214 -10.830097 -20.112214
Sb -23.207214 -10.830097 -17.017214
Sb -23.207214 -7.735097 -13.922214
Sb -20.112214 -7.735097 -17.017214
Sb -20.112214 -10.830097 -13.922214
Sb -23.207214 -10.830097 -10.827214
Sb -23.207214 -7.735097 -7.732214
Sb -20.112214 -7.735097 -10.827214
Sb -20.112214 -10.830097 -7.732214
Sb -23.207214 -10.830097 -4.637214
Sb -23.207214 -7.735097 -1.542214
Sb -20.112214 -7.735097 -4.637214
Sb -20.112214 -10.830097 -1.542214
Sb -20.112214 -7.735097 1.552786
Sb -20.112214 -4.640097 -13.922214
Sb -23.207214 -4.640097 -10.827214
Sb -23.207214 -1.545097 -7.732214
Sb -20.112214 -1.545097 -10.827214
Sb -20.112214 -4.640097 -7.732214
Sb -23.207214 -4.640097 -4.637214
Sb -23.207214 -1.545097 -1.542214
Sb -20.112214 -1.545097 -4.637214
Sb -20.112214 -4.640097 -1.542214
Sb -23.207214 -4.640097 1.552786
Sb -23.207214 -1.545097 4.647786
Sb -20.112214 -1.545097 1.552786
Sb -20.112214 -4.640097 4.647786
Sb -20.112214 -1.545097 7.742786
Sb -20.112214 1.549903 -7.732214
Sb -23.207214 1.549903 -4.637214
Sb -23.207214 4.644903 -1.542214
Sb -20.112214 4.644903 -4.637214
Sb -20.112214 1.549903 -1.542214
Sb -23.207214 1.549903 1.552786
Sb -23.207214 4.644903 4.647786
Sb -20.112214 4.644903 1.552786
Sb -20.112214 1.549903 4.647786
Sb -23.207214 1.549903 7.742786
Sb -23.207214 4.644903 10.837786
Sb -20.112214 4.644903 7.742786
Sb -20.112214 1.549903 10.837786
Sb -20.112214 4.644903 13.932786
Sb -20.112214 7.739903 -1.542214
Sb -23.207214 7.739903 1.552786
Sb -23.207214 10.834903 4.647786
Sb -20.112214 10.834903 1.552786
Sb -20.112214 7.739903 4.647786
Sb -23.207214 7.739903 7.742786
Sb -23.207214 10.834903 10.837786
Sb -20.112214 10.834903 7.742786
Sb -20.112214 7.739903 10.837786
Sb -23.207214 7.739903 13.932786
Sb -23.207214 10.834903 17.027786
Sb -20.112214 10.834903 13.932786
Sb -20.112214 7.739903 17.027786
Sb -20.112214 10.834903 20.122786
Sb -20.112214 13.929903 4.647786
Sb -23.207214 13.929903 7.742786
Sb -23.207214 17.024903 10.837786
Sb -20.112214 17.024903 7.742786
Sb -20.112214 13.929903 10.837786
Sb -23.207214 13.929903 13.932786
Sb -23.207214 17.024903 17.027786
Sb -20.112214 17.024903 13.932786
Sb -20.112214 13.929903 17.027786
Sb -23.207214 13.929903 20.122786
Sb -23.207214 17.024903 23.217786
Sb -20.112214 17.024903 20.122786
Sb -20.112214 13.929903 23.217786
Sb -20.112214 20.119903 10.837786
Sb -23.207214 20.119903 13.932786
Sb -23.207214 23.214903 17.027786
Sb -20.112214 23.214903 13.932786
Sb -20.112214 20.119903 17.027786
Sb -23.207214 20.119903 20.122786
Sb -20.112214 23.214903 20.122786
Sb -20.112214 20.119903 23.217786
Sb -17.017214 -23.210097 -23.207214
Sb -17.017214 -20.115097 -20.112214
Sb -13.922214 -20.115097 -23.207214
Sb -13.922214 -23.210097 -20.112214
Sb -17.017214 -23.210097 -17.017214
Sb -17.017214 -20.115097 -13.922214
Sb -13.922214 -20.115097 -17.017214
Sb -13.922214 -23.210097 -13.922214
Sb -17.017214 -23.210097 -10.827214
Sb -17.017214 -20.115097 -7.732214
Sb -13.922214 -20.115097 -10.827214
Sb -13.922214 -23.210097 -7.732214
Sb -13.922214 -20.115097 -4.637214
Sb -17.017214 -17.020097 -23.207214
Sb -17.017214 -13.925097 -20.112214
Sb -13.922214 -13.925097 -23.207214
Sb -13.922214 -17.020097 -20.112214
Sb -17.017214 -17.020097 -17.017214
Sb -17.017214 -13.925097 -13.922214
Sb -13.922214 -13.925097 -17.017214
Sb -13.922214 -17.020097 -13.922214
Sb -17.017214 -17.020097 -10.827214
Sb -17.017214 -13.925097 -7.732214
Sb -13.922214 -13.925097 -10.827214
Sb -13.922214 -17.020097 -7.732214
Sb -17.017214 -17.020097 -4.637214
Sb -17.017214 -13.925097 -1.542214
Sb -13.922214 -13.925097 -4.637214
Sb -13.922214 -17.020097 -1.542214
Sb -13.922214 -13.925097 1.552786
Sb -17.017214 -10.830097 -23.207214
Sb -17.017214 -7.735097 -20.112214
Sb -13.922214 -7.735097 -23.207214
Sb -13.922214 -10.830097 -20.112214
Sb -17.017214 -10.830097 -17.017214
Sb -17.017214 -7.735097 -13.922214
Sb -13.922214 -7.735097 -17.017214
Sb -13.922214 -10.830097 -13.922214
Sb -17.017214 -10.830097 -10.827214
Sb -17.017214 -7.735097 -7.732214
Sb -13.922214 -7.735097 -10.827214
Sb -13.922214 -10.830097 -7.732214
Sb -17.017214 -10.830097 -4.637214
Sb -17.017214 -7.735097 -1.542214
Sb -13.922214 -7.735097 -4.637214
Sb -13.922214 -10.830097 -1.542214
Sb -17.017214 -10.830097 1.552786
Sb -17.017214 -7.735097 4.647786
Sb -13.922214 -7.735097 1.552786
Sb -13.922214 -10.830097 4.647786
Sb -13.922214 -7.735097 7.742786
Sb -13.922214 -4.640097 -20.112214
Sb -17.017214 -4.640097 -17.017214
Sb -17.017214 -1.545097 -13.922214
Sb -13.922214 -1.545097 -17.017214
Sb -13.922214 -4.640097 -13.922214
Sb -17.017214 -4.640097 -10.827214
Sb -17.017214 -1.545097 -7.732214
Sb -13.922214 -1.545097 -10.827214
Sb -13.922214 -4.640097 -7.732214
Sb -17.017214 -4.640097 -4.637214
Sb -17.017214 -1.545097 -1.542214
Sb -13.922214 -1.545097 -4.637214
Sb -13.922214 -4.640097 -1.542214
Sb -17.017214 -4.640097 1.552786
Sb -17.017214 -1.545097 4.647786
Sb -13.922214 -1.545097 1.552786
Sb -13.922214 -4.640097 4.647786
Sb -17.017214 -4.640097 7.742786
Sb -17.017214 -1.545097 10.837786
Sb -13.922214 -1.545097 7.742786
Sb -13.922214 -4.640097 10.837786
Sb -13.922214 -1.545097 13.932786
Sb -13.922214 1.549903 -13.922214
Sb -17.017214 1.549903 -10.827214
Sb -17.017214 4.644903 -7.732214
Sb -13.922214 4.644903 -10.827214
Sb -13.922214 1.549903 -7.732214
Sb -17.017214 1.549903 -4.637214
Sb -17.017214 4.644903 -1.542214
Sb -13.922214 4.644903 -4.637214
Sb -13.922214 1.549903 -1.542214
Sb -17.017214 1.549903 1.552786
Sb -17.017214 4.644903 4.647786
Sb -13.922214 4.644903 1.552786
Sb -13.922214 1.549903 4.647786
Sb -17.017214 1.549903 7.742786
Sb -17.017214 4.644903 10.837786
Sb -13.922214 4.644903 7.742786
Sb -13.922214 1.549903 10.837786
Sb -17.017214 1.549903 13.932786
Sb -17.017214 4.644903 17.027786
Sb -13.922214 4.644903 13.932786
Sb -13.922214 1.549903 17.027786
Sb -13.922214 4.644903 20.122786
Sb -13.922214 7.739903 -7.732214
Sb -17.017214 7.739903 -4.637214
Sb -17.017214 10.834903 -1.542214
Sb -13.922214 10.834903 -4.637214
Sb -13.922214 7.739903 -1.542214
Sb -17.017214 7.739903 1.552786
Sb -17.017214 10.834903 4.647786
Sb -13.922214 10.834903 1.552786
Sb -13.922214 7.739903 4.647786
Sb -17.017214 7.739903 7.742786
Sb -17.017214 10.834903 10.837786
Sb -13.922214 10.834903 7.742786
Sb -13.922214 7.739903 10.837786
Sb -17.017214 7.739903 13.932786
Sb -17.017214 10.834903 17.027786
Sb -13.922214 10.834903 13.932786
Sb -13.922214 7.739903 17.027786
Sb -17.017214 7.739903 20.122786
Sb -17.017214 10.834903 23.217786
Sb -13.922214 10.834903 20.122786
Sb -13.922214 7.739903 23.217786
Sb -13.922214 13.929903 -1.542214
Sb -17.017214 13.929903 1.552786
Sb -17.017214 17.024903 4.647786
Sb -13.922214 17.024903 1.552786
Sb -13.922214 13.929903 4.647786
Sb -17.017214 13.929903 7.742786
Sb -17.017214 17.024903 10.837786
Sb -13.922214 17.024903 7.742786
Sb -13.922214 13.929903 10.837786
Sb -17.017214 13.929903 13.932786
Sb -17.017214 17.024903 17.027786
Sb -13.922214 17.024903 13.932786
Sb -13.922214 13.929903 17.027786
Sb -17.017214 13.929903 20.122786
Sb -17.017214 17.024903 23.217786
Sb -13.922214 17.024903 20.122786
Sb -13.922214 13.929903 23.217786
Sb -13.922214 20.119903 4.647786
Sb -17.017214 20.119903 7.742786
Sb -17.017214 23.214903 10.837786
Sb -13.922214 23.214903 7.742786
Sb -13.922214 20.119903 10.837786
Sb -17.017214 20.119903 13.932786
Sb -17.017214 23.214903 17.027786
Sb -13.922214 23.214903 13.932786
Sb -13.922214 20.119903 17.027786
Sb -17.017214 20.119903 20.122786
Sb -17.017214 23.214903 23.217786
Sb -13.922214 23.214903 20.122786
Sb -13.922214 20.119903 23.217786
Sb -10.827214 -20.115097 -20.112214
Sb -10.827214 -23.210097 -17.017214
Sb -10.827214 -20.115097 -13.922214
Sb -7.732214 -20.115097 -17.017214
Sb -7.732214 -23.210097 -13.922214
Sb -10.827214 -23.210097 -10.827214
Sb -10.827214 -20.115097 -7.732214
Sb -7.732214 -20.115097 -10.827214
Sb -7.732214 -23.210097 -7.732214
Sb -10.827214 -23.210097 -4.637214
Sb -10.827214 -20.115097 -1.542214
Sb -7.732214 -20.115097 -4.637214
Sb -7.732214 -23.210097 -1.542214
Sb -7.732214 -20.115097 1.552786
Sb -10.827214 -17.020097 -23.207214
Sb -10.827214 -13.925097 -20.112214
Sb -7.732214 -13.925097 -23.207214
Sb -7.732214 -17.020097 -20.112214
Sb -10.827214 -17.020097 -17.017214
Sb -10.827214 -13.925097 -13.922214
Sb -7.732214 -13.925097 -17.017214
Sb -7.732214 -17.020097 -13.922214
Sb -10.827214 -17.020097 -10.827214
Sb -10.827214 -13.925097 -7.732214
Sb -7.732214 -13.925097 -10.827214
Sb -7.732214 -17.020097 -7.732214
Sb -10.827214 -17.020097 -4.637214
Sb -10.827214 -13.925097 -1.542214
Sb -7.732214 -13.925097 -4.637214
Sb -7.732214 -17.020097 -1.542214
Sb -10.827214 -17.020097 1.552786
Sb -10.827214 -13.925097 4.647786
Sb -7.732214 -13.925097 1.552786
Sb -7.732214 -17.020097 4.647786
Sb -7.732214 -13.925097 7.742786
Sb -10.827214 -10.830097 -23.207214
Sb -10.827214 -7.735097 -20.112214
Sb -7.732214 -7.735097 -23.207214
Sb -7.732214 -10.830097 -20.112214
Sb -10.827214 -10.830097 -17.017214
Sb -10.827214 -7.735097 -13.922214
Sb -7.732214 -7.735097 -17.017214
Sb -7.732214 -10.830097 -13.922214
Sb -10.827214 -10.830097 -10.827214
Sb -10.827214 -7.735097 -7.732214
Sb -7.732214 -7.735097 -10.827214
Sb -7.732214 -10.830097 -7.732214
Sb -10.827214 -10.830097 -4.637214
Sb -10.827214 -7.735097 -1.542214
Sb -7.732214 -7.735097 -4.637214
Sb -7.732214 -10.830097 -1.542214
Sb -10.827214 -10.830097 1.552786
Sb -10.827214 -7.735097 4.647786
Sb -7.732214 -7.735097 1.552786
Sb -7.732214 -10.830097 4.647786
Sb -10.827214 -10.830097 7.742786
Sb -10.827214 -7.735097 10.837786
Sb -7.732214 -7.735097 7.742786
Sb -7.732214 -10.830097 10.837786
Sb -7.732214 -7.735097 13.932786
Sb -10.827214 -4.640097 -23.207214
Sb -10.827214 -1.545097 -20.112214
Sb -7.732214 -1.545097 -23.207214
Sb -7.732214 -4.640097 -20.112214
Sb -10.827214 -4.640097 -17.017214
Sb -10.827214 -1.545097 -13.922214
Sb -7.732214 -1.545097 -17.017214
Sb -7.732214 -4.640097 -13.922214
Sb -10.827214 -4.640097 -10.827214
Sb -10.827214 -1.545097 -7.732214
Sb -7.732214 -1.545097 -10.827214
Sb -7.732214 -4.640097 -7.732214
Sb -10.827214 -4.640097 -4.637214
Sb -10.827214 -1.545097 -1.542214
Sb -7.732214 -1.545097 -4.637214
Sb -7.732214 -4.640097 -1.542214
Sb -10.827214 -4.640097 1.552786
Sb -10.827214 -1.545097 4.647786
Sb -7.732214 -1.545097 1.552786
Sb -7.732214 -4.640097 4.647786
Sb -10.827214 -4.640097 7.742786
Sb -10.827214 -1.545097 10.837786
Sb -7.732214 -1.545097 7.742786
Sb -7.732214 -4.640097 10.837786
Sb -10.827214 -4.640097 13.932786
Sb -10.827214 -1.545097 17.027786
Sb -7.732214 -1.545097 13.932786
Sb -7.732214 -4.640097 17.027786
Sb -7.732214 -1.545097 20.122786
Sb -7.732214 1.549903 -20.112214
Sb -10.827214 1.549903 -17.017214
Sb -10.827214 4.644903 -13.922214
Sb -7.732214 4.644903 -17.017214
Sb -7.732214 1.549903 -13.922214
Sb -10.827214 1.549903 -10.827214
Sb -10.827214 4.644903 -7.732214
Sb -7.732214 4.644903 -10.827214
Sb -7.732214 1.549903 -7.732214
Sb -10.827214 1.549903 -4.637214
Sb -10.827214 4.644903 -1.542214
Sb -7.732214 4.644903 -4.637214
Sb -7.732214 1.549903 -1.542214
Sb -10.827214 1.549903 1.552786
Sb -10.827214 4.644903 4.647786
Sb -7.732214 4.644903 1.552786
Sb -7.732214 1.549903 4.647786
Sb -10.827214 1.549903 7.742786
Sb -10.827214 4.644903 10.837786
Sb -7.732214 4.644903 7.742786
Sb -7.732214 1.549903 10.837786
Sb -10.827214 1.549903 13.932786
Sb -10.827214 4.644903 17.027786
Sb -7.732214 4.644903 13.932786
Sb -7.732214 1.549903 17.027786
Sb -10.827214 1.549903 20.122786
Sb -10.827214 4.644903 23.217786
Sb -7.732214 4.644903 20.122786
Sb -7.732214 1.549903 23.217786
Sb -7.732214 7.739903 -13.922214
Sb -10.827214 7.739903 -10.827214
Sb -10.827214 10.834903 -7.732214
Sb -7.732214 10.834903 -10.827214
Sb -7.732214 7.739903 -7.732214
Sb -10.827214 7.739903 -4.637214
Sb -10.827214 10.834903 -1.542214
Sb -7.732214 10.834903 -4.637214
Sb -7.732214 7.739903 -1.542214
Sb -10.827214 7.739903 1.552786
Sb -10.827214 10.834903 4.647786
Sb -7.732214 10.834903 1.552786
Sb -7.732214 7.739903 4.647786
Sb -10.827214 7.739903 7.742786
Sb -10.827214 10.834903 10.837786
Sb -7.732214 10.834903 7.742786
Sb -7.732214 7.739903 10.837786
Sb -10.827214 7.739903 13.932786
Sb -10.827214 10.834903 17.027786
Sb -7.732214 10.834903 13.932786
Sb -7.732214 7.739903 17.027786
Sb -10.827214 7.739903 20.122786
Sb -10.827214 10.834903 23.217786
Sb -7.732214 10.834903 20.122786
Sb -7.732214 7.739903 23.217786
Sb -7.732214 13.929903 -7.732214
Sb -10.827214 13.929903 -4.637214
Sb -10.827214 17.024903 -1.542214
Sb -7.732214 17.024903 -4.637214
Sb -7.732214 13.929903 -1.542214
Sb -10.827214 13.929903 1.552786
Sb -10.827214 17.024903 4.647786
Sb -7.732214 17.024903 1.552786
Sb -7.732214 13.929903 4.647786
Sb -10.827214 13.929903 7.742786
Sb -10.827214 17.024903 10.837786
Sb -7.732214 17.024903 7.742786
Sb -7.732214 13.929903 10.837786
Sb -10.827214 13.929903 13.932786
Sb -10.827214 17.024903 17.027786
Sb -7.732214 17.024903 13.932786
Sb -7.732214 13.929903 17.027786
Sb -10.827214 13.929903 20.122786
Sb -10.827214 17.024903 23.217786
Sb -7.732214 17.024903 20.122786
Sb -7.732214 13.929903 23.217786
Sb -7.732214 20.119903 -1.542214
Sb -10.827214 20.119903 1.552786
Sb -10.827214 23.214903 4.647786
Sb -7.732214 23.214903 1.552786
Sb -7.732214 20.119903 4.647786
Sb -10.827214 20.119903 7.742786
Sb -10.827214 23.214903 10.837786
Sb -7.732214 23.214903 7.742786
Sb -7.732214 20.119903 10.837786
Sb -10.827214 20.119903 13.932786
Sb -10.827214 23.214903 17.027786
Sb -7.732214 23.214903 13.932786
Sb -7.732214 20.119903 17.027786
Sb -10.827214 20.119903 20.122786
Sb -4.637214 -20.115097 -13.922214
Sb -4.637214 -23.210097 -10.827214
Sb -4.637214 -20.115097 -7.732214
Sb -1.542214 -20.115097 -10.827214
Sb -1.542214 -23.210097 -7.732214
Sb -4.637214 -23.210097 -4.637214
Sb -4.637214 -20.115097 -1.542214
Sb -1.542214 -20.115097 -4.637214
Sb -1.542214 -23.210097 -1.542214
Sb -4.637214 -23.210097 1.552786
Sb -4.637214 -20.115097 4.647786
Sb -1.542214 -20.115097 1.552786
Sb -1.542214 -23.210097 4.647786
Sb -1.542214 -20.115097 7.742786
Sb -4.637214 -13.925097 -20.112214
Sb -4.637214 -17.020097 -17.017214
Sb -4.637214 -13.925097 -13.922214
Sb -1.542214 -13.925097 -17.017214
Sb -1.542214 -17.020097 -13.922214
Sb -4.637214 -17.020097 -10.827214
Sb -4.637214 -13.925097 -7.732214
Sb -1.542214 -13.925097 -10.827214
Sb -1.542214 -17.020097 -7.732214
Sb -4.637214 -17.020097 -4.637214
Sb -4.637214 -13.925097 -1.542214
Sb -1.542214 -13.925097 -4.637214
Sb -1.542214 -17.020097 -1.542214
Sb -4.637214 -17.020097 1.552786
Sb -4.637214 -13.925097 4.647786
Sb -1.542214 -13.925097 1.552786
Sb -1.542214 -17.020097 4.647786
Sb -4.637214 -17.020097 7.742786
Sb -4.637214 -13.925097 10.837786
Sb -1.542214 -13.925097 7.742786
Sb -1.542214 -17.020097 10.837786
Sb -1.542214 -13.925097 13.932786
Sb -4.637214 -10.830097 -23.207214
Sb -4.637214 -7.735097 -20.112214
Sb -1.542214 -7.735097 -23.207214
Sb -1.542214 -10.830097 -20.112214
Sb -4.637214 -10.830097 -17.017214
Sb -4.637214 -7.735097 -13.922214
Sb -1.542214 -7.735097 -17.017214
Sb -1.542214 -10.830097 -13.922214
Sb -4.637214 -10.830097 -10.827214
Sb -4.637214 -7.735097 -7.732214
Sb -1.542214 -7.735097 -10.827214
Sb -1.542214 -10.830097 -7.732214
Sb -4.637214 -10.830097 -4.637214
Sb -4.637214 -7.735097 -1.542214
Sb -1.542214 -7.735097 -4.637214
Sb -1.542214 -10.830097 -1.542214
Sb -4.637214 -10.830097 1.552786
Sb -4.637214 -7.735097 4.647786
Sb -1.542214 -7.735097 1.552786
Sb -1.542214 -10.830097 4.647786
Sb -4.637214 -10.830097 7.742786
Sb -4.637214 -7.735097 10.837786
Sb -1.542214 -7.735097 7.742786
Sb -1.542214 -10.830097 10.837786
Sb -4.637214 -10.830097 13.932786
Sb -4.637214 -7.735097 17.027786
Sb -1.542214 -7.735097 13.932786
Sb -1.542214 -10.830097 17.027786
Sb -1.542214 -7.735097 20.122786
Sb -4.637214 -4.640097 -23.207214
Sb -4.637214 -1.545097 -20.112214
Sb -1.542214 -1.545097 -23.207214
Sb -1.542214 -4.640097 -20.112214
Sb -4.637214 -4.640097 -17.017214
Sb -4.637214 -1.545097 -13.922214
Sb -1.542214 -1.545097 -17.017214
Sb -1.542214 -4.640097 -13.922214
Sb -4.637214 -4.640097 -10.827214
Sb -4.637214 -1.545097 -7.732214
Sb -1.542214 -1.545097 -10.827214
Sb -1.542214 -4.640097 -7.732214
Sb -4.637214 -4.640097 -4.637214
Sb -4.637214 -1.545097 -1.542214
Sb -1.542214 -1.545097 -4.637214
Sb -1.542214 -4.640097 -1.542214
Sb -4.637214 -4.640097 1.552786
Sb -4.637214 -1.545097 4.647786
Sb -1.542214 -1.545097 1.552786
Sb -1.542214 -4.640097 4.647786
Sb -4.637214 -4.640097 7.742786
Sb -4.637214 -1.545097 10.837786
Sb -1.542214 -1.545097 7.742786
Sb -1.542214 -4.640097 10.837786
Sb -4.637214 -4.640097 13.932786
Sb -4.637214 -1.545097 17.027786
Sb -1.542214 -1.545097 13.932786
Sb -1.542214 -4.640097 17.027786
Sb -4.637214 -4.640097 20.122786
Sb -4.637214 -1.545097 23.217786
Sb -1.542214 -1.545097 20.122786
Sb -1.542214 -4.640097 23.217786
Sb -4.637214 1.549903 -23.207214
Sb -4.637214 4.644903 -20.112214
Sb -1.542214 4.644903 -23.207214
Sb -1.542214 1.549903 -20.112214
Sb -4.637214 1.549903 -17.017214
Sb -4.637214 4.644903 -13.922214
Sb -1.542214 4.644903 -17.017214
Sb -1.542214 1.549903 -13.922214
Sb -4.637214 1.549903 -10.827214
Sb -4.637214 4.644903 -7.732214
Sb -1.542214 4.644903 -10.827214
Sb -1.542214 1.549903 -7.732214
Sb -4.637214 1.549903 -4.637214
Sb -4.637214 4.644903 -1.542214
Sb -1.542214 4.644903 -4.637214
Sb -1.542214 1.549903 -1.542214
Sb -4.637214 1.549903 1.552786
Sb -4.637214 4.644903 4.647786
Sb -1.542214 4.644903 1.552786
Sb -1.542214 1.549903 4.647786
Sb -4.637214 1.549903 7.742786
Sb -4.637214 4.644903 10.837786
Sb -1.542214 4.644903 7.742786
Sb -1.542214 1.549903 10.837786
Sb -4.637214 1.549903 13.932786
Sb -4.637214 4.644903 17.027786
Sb -1.542214 4.644903 13.932786
Sb -1.542214 1.549903 17.027786
Sb -4.637214 1.549903 20.122786
Sb -4.637214 4.644903 23.217786
Sb -1.542214 4.644903 20.122786
Sb -1.542214 1.549903 23.217786
Sb -1.542214 7.739903 -20.112214
Sb -4.637214 7.739903 -17.017214
Sb -4.637214 10.834903 -13.922214
Sb -1.542214 10.834903 -17.017214
Sb -1.542214 7.739903 -13.922214
Sb -4.637214 7.739903 -10.827214
Sb -4.637214 10.834903 -7.732214
Sb -1.542214 10.834903 -10.827214
Sb -1.542214 7.739903 -7.732214
Sb -4.637214 7.739903 -4.637214
Sb -4.637214 10.834903 -1.542214
Sb -1.542214 10.834903 -4.637214
Sb -1.542214 7.739903 -1.542214
Sb -4.637214 7.739903 1.552786
Sb -4.637214 10.834903 4.647786
Sb -1.542214 10.834903 1.552786
Sb -1.542214 7.739903 4.647786
Sb -4.637214 7.739903 7.742786
Sb -4.637214 10.834903 10.837786
Sb -1.542214 10.834903 7.742786
Sb -1.542214 7.739903 10.837786
Sb -4.637214 7.739903 13.932786
Sb -4.637214 10.834903 17.027786
Sb -1.542214 10.834903 13.932786
Sb -1.542214 7.739903 17.027786
Sb -4.637214 7.739903 20.122786
Sb -4.637214 10.834903 23.217786
Sb -1.542214 10.834903 20.122786
Sb -1.542214 7.739903 23.217786
Sb -1.542214 13.929903 -13.922214
Sb -4.637214 13.929903 -10.827214
Sb -4.637214 17.024903 -7.732214
Sb -1.542214 17.024903 -10.827214
Sb -1.542214 13.929903 -7.732214
Sb -4.637214 13.929903 -4.637214
Sb -4.637214 17.024903 -1.542214
Sb -1.542214 17.024903 -4.637214
Sb -1.542214 13.929903 -1.542214
Sb -4.637214 13.929903 1.552786
Sb -4.637214 17.024903 4.647786
Sb -1.542214 17.024903 1.552786
Sb -1.542214 13.929903 4.647786
Sb -4.637214 13.929903 7.742786
Sb -4.637214 17.024903 10.837786
Sb -1.542214 17.024903 7.742786
Sb -1.542214 13.929903 10.837786
Sb -4.637214 13.929903 13.932786
Sb -4.637214 17.024903 17.027786
Sb -1.542214 17.024903 13.932786
Sb -1.542214 13.929903 17.027786
Sb -4.637214 13.929903 20.122786
Sb -1.542214 20.119903 -7.732214
Sb -4.637214 20.119903 -4.637214
Sb -4.637214 23.214903 -1.542214
Sb -1.542214 23.214903 -4.637214
Sb -1.542214 20.119903 -1.542214
Sb -4.637214 20.119903 1.552786
Sb -4.637214 23.214903 4.647786
Sb -1.542214 23.214903 1.552786
Sb -1.542214 20.119903 4.647786
Sb -4.637214 20.119903 7.742786
Sb -4.637214 23.214903 10.837786
Sb -1.542214 23.214903 7.742786
Sb -1.542214 20.119903 10.837786
Sb -4.637214 20.119903 13.932786
Sb 1.552786 -20.115097 -7.732214
Sb 1.552786 -23.210097 -4.637214
Sb 1.552786 -20.115097 -1.542214
Sb 4.647786 -20.115097 -4.637214
Sb 4.647786 -23.210097 -1.542214
Sb 1.552786 -23.210097 1.552786
Sb 1.552786 -20.115097 4.647786
Sb 4.647786 -20.115097 1.552786
Sb 4.647786 -23.210097 4.647786
Sb 1.552786 -23.210097 7.742786
Sb 1.552786 -20.115097 10.837786
Sb 4.647786 -20.115097 7.742786
Sb 4.647786 -23.210097 10.837786
Sb 4.647786 -20.115097 13.932786
Sb 1.552786 -13.925097 -13.922214
Sb 1.552786 -17.020097 -10.827214
Sb 1.552786 -13.925097 -7.732214
Sb 4.647786 -13.925097 -10.827214
Sb 4.647786 -17.020097 -7.732214
Sb 1.552786 -17.020097 -4.637214
Sb 1.552786 -13.925097 -1.542214
Sb 4.647786 -13.925097 -4.637214
Sb 4.647786 -17.020097 -1.542214
Sb 1.552786 -17.020097 1.552786
Sb 1.552786 -13.925097 4.647786
Sb 4.647786 -13.925097 1.552786
Sb 4.647786 -17.020097 4.647786
Sb 1.552786 -17.020097 7.742786
Sb 1.552786 -13.925097 10.837786
Sb 4.647786 -13.925097 7.742786
Sb 4.647786 -17.020097 10.837786
Sb 1.552786 -17.020097 13.932786
Sb 1.552786 -13.925097 17.027786
Sb 4.647786 -13.925097 13.932786
Sb 4.647786 -17.020097 17.027786
Sb 4.647786 -13.925097 20.122786
Sb 1.552786 -7.735097 -20.112214
Sb 1.552786 -10.830097 -17.017214
Sb 1.552786 -7.735097 -13.922214
Sb 4.647786 -7.735097 -17.017214
Sb 4.647786 -10.830097 -13.922214
Sb 1.552786 -10.830097 -10.827214
Sb 1.552786 -7.735097 -7.732214
Sb 4.647786 -7.735097 -10.827214
Sb 4.647786 -10.830097 -7.732214
Sb 1.552786 -10.830097 -4.637214
Sb 1.552786 -7.735097 -1.542214
Sb 4.647786 -7.735097 -4.637214
Sb 4.647786 -10.830097 -1.542214
Sb 1.552786 -10.830097 1.552786
Sb 1.552786 -7.735097 4.647786
Sb 4.647786 -7.735097 1.552786
Sb 4.647786 -10.830097 4.647786
Sb 1.552786 -10.830097 7.742786
Sb 1.552786 -7.735097 10.837786
Sb 4.647786 -7.735097 7.742786
Sb 4.647786 -10.830097 10.837786
Sb 1.552786 -10.830097 13.932786
Sb 1.552786 -7.735097 17.027786
Sb 4.647786 -7.735097 13.932786
Sb 4.647786 -10.830097 17.027786
Sb 1.552786 -10.830097 20.122786
Sb 1.552786 -7.735097 23.217786
Sb 4.647786 -7.735097 20.122786
Sb 4.647786 -10.830097 23.217786
Sb 1.552786 -4.640097 -23.207214
Sb 1.552786 -1.545097 -20.112214
Sb 4.647786 -1.545097 -23.207214
Sb 4.647786 -4.640097 -20.112214
Sb 1.552786 -4.640097 -17.017214
Sb 1.552786 -1.545097 -13.922214
Sb 4.647786 -1.545097 -17.017214
Sb 4.647786 -4.640097 -13.922214
Sb 1.552786 -4.640097 -10.827214
Sb 1.552786 -1.545097 -7.732214
Sb 4.647786 -1.545097 -10.827214
Sb 4.647786 -4.640097 -7.732214
Sb 1.552786 -4.640097 -4.637214
Sb 1.552786 -1.545097 -1.542214
Sb 4.647786 -1.545097 -4.637214
Sb 4.647786 -4.640097 -1.542214
Sb 1.552786 -4.640097 1.552786
Sb 1.552786 -1.545097 4.647786
Sb 4.647786 -1.545097 1.552786
Sb 4.647786 -4.640097 4.647786
Sb 1.552786 -4.640097 7.742786
Sb 1.552786 -1.545097 10.837786
Sb 4.647786 -1.545097 7.742786
Sb 4.647786 -4.640097 10.837786
Sb 1.552786 -4.640097 13.932786
Sb 1.552786 -1.545097 17.027786
Sb 4.647786 -1.545097 13.932786
Sb 4.647786 -4.640097 17.027786
Sb 1.552786 -4.640097 20.122786
Sb 1.552786 -1.545097 23.217786
Sb 4.647786 -1.545097 20.122786
Sb 4.647786 -4.640097 23.217786
Sb 1.552786 1.549903 -23.207214
Sb 1.552786 4.644903 -20.112214
Sb 4.647786 4.644903 -23.207214
Sb 4.647786 1.549903 -20.112214
Sb 1.552786 1.549903 -17.017214
Sb 1.552786 4.644903 -13.922214
Sb 4.647786 4.644903 -17.017214
Sb 4.647786 1.549903 -13.922214
Sb 1.552786 1.549903 -10.827214
Sb 1.552786 4.644903 -7.732214
Sb 4.647786 4.644903 -10.827214
Sb 4.647786 1.549903 -7.732214
Sb 1.552786 1.549903 -4.637214
Sb 1.552786 4.644903 -1.542214
Sb 4.647786 4.644903 -4.637214
Sb 4.647786 1.549903 -1.542214
Sb 1.552786 1.549903 1.552786
Sb 1.552786 4.644903 4.647786
Sb 4.647786 4.644903 1.552786
Sb 4.647786 1.549903 4.647786
Sb 1.552786 1.549903 7.742786
Sb 1.552786 4.644903 10.837786
Sb 4.647786 4.644903 7.742786
Sb 4.647786 1.549903 10.837786
Sb 1.552786 1.549903 13.932786
Sb 1.552786 4.644903 17.027786
Sb 4.647786 4.644903 13.932786
Sb 4.647786 1.549903 17.027786
Sb 1.552786 1.549903 20.122786
Sb 1.552786 4.644903 23.217786
Sb 4.647786 4.644903 20.122786
Sb 4.647786 1.549903 23.217786
Sb 1.552786 7.739903 -23.207214
Sb 1.552786 10.834903 -20.112214
Sb 4.647786 10.834903 -23.207214
Sb 4.647786 7.739903 -20.112214
Sb 1.552786 7.739903 -17.017214
Sb 1.552786 10.834903 -13.922214
Sb 4.647786 10.834903 -17.017214
Sb 4.647786 7.739903 -13.922214
Sb 1.552786 7.739903 -10.827214
Sb 1.552786 10.834903 -7.732214
Sb 4.647786 10.834903 -10.827214
Sb 4.647786 7.739903 -7.732214
Sb 1.552786 7.739903 -4.637214
Sb 1.552786 10.834903 -1.542214
Sb 4.647786 10.834903 -4.637214
Sb 4.647786 7.739903 -1.542214
Sb 1.552786 7.739903 1.552786
Sb 1.552786 10.834903 4.647786
Sb 4.647786 10.834903 1.552786
Sb 4.647786 7.739903 4.647786
Sb 1.552786 7.739903 7.742786
Sb 1.552786 10.834903 10.837786
Sb 4.647786 10.834903 7.742786
Sb 4.647786 7.739903 10.837786
Sb 1.552786 7.739903 13.932786
Sb 1.552786 10.834903 17.027786
Sb 4.647786 10.834903 13.932786
Sb 4.647786 7.739903 17.027786
Sb 1.552786 7.739903 20.122786
Sb 4.647786 13.929903 -20.112214
Sb 1.552786 13.929903 -17.017214
Sb 1.552786 17.024903 -13.922214
Sb 4.647786 17.024903 -17.017214
Sb 4.647786 13.929903 -13.922214
Sb 1.552786 13.929903 -10.827214
Sb 1.552786 17.024903 -7.732214
Sb 4.647786 17.024903 -10.827214
Sb 4.647786 13.929903 -7.732214
Sb 1.552786 13.929903 -4.637214
Sb 1.552786 17.024903 -1.542214
Sb 4.647786 17.024903 -4.637214
Sb 4.647786 13.929903 -1.542214
Sb 1.552786 13.929903 1.552786
Sb 1.552786 17.024903 4.647786
Sb 4.647786 17.024903 1.552786
Sb 4.647786 13.929903 4.647786
Sb 1.552786 13.929903 7.742786
Sb 1.552786 17.024903 10.837786
Sb 4.647786 17.024903 7.742786
Sb 4.647786 13.929903 10.837786
Sb 1.552786 13.929903 13.932786
Sb 4.647786 20.119903 -13.922214
Sb 1.552786 20.119903 -10.827214
Sb 1.552786 23.214903 -7.732214
Sb 4.647786 23.214903 -10.827214
Sb 4.647786 20.119903 -7.732214
Sb 1.552786 20.119903 -4.637214
Sb 1.552786 23.214903 -1.542214
Sb 4.647786 23.214903 -4.637214
Sb 4.647786 20.119903 -1.542214
Sb 1.552786 20.119903 1.552786
Sb 1.552786 23.214903 4.647786
Sb 4.647786 23.214903 1.552786
Sb 4.647786 20.119903 4.647786
Sb 1.552786 20.119903 7.742786
Sb 7.742786 -20.115097 -1.542214
Sb 7.742786 -23.210097 1.552786
Sb 7.742786 -20.115097 4.647786
Sb 10.837786 -20.115097 1.552786
Sb 10.837786 -23.210097 4.647786
Sb 7.742786 -23.210097 7.742786
Sb 7.742786 -20.115097 10.837786
Sb 10.837786 -20.115097 7.742786
Sb 10.837786 -23.210097 10.837786
Sb 7.742786 -23.210097 13.932786
Sb 7.742786 -20.115097 17.027786
Sb 10.837786 -20.115097 13.932786
Sb 10.837786 -23.210097 17.027786
Sb 10.837786 -20.115097 20.122786
Sb 7.742786 -13.925097 -7.732214
Sb 7.742786 -17.020097 -4.637214
Sb 7.742786 -13.925097 -1.542214
Sb 10.837786 -13.925097 -4.637214
Sb 10.837786 -17.020097 -1.542214
Sb 7.742786 -17.020097 1.552786
Sb 7.742786 -13.925097 4.647786
Sb 10.837786 -13.925097 1.552786
Sb 10.837786 -17.020097 4.647786
Sb 7.742786 -17.020097 7.742786
Sb 7.742786 -13.925097 10.837786
Sb 10.837786 -13.925097 7.742786
Sb 10.837786 -17.020097 10.837786
Sb 7.742786 -17.020097 13.932786
Sb 7.742786 -13.925097 17.027786
Sb 10.837786 -13.925097 13.932786
Sb 10.837786 -17.020097 17.027786
Sb 7.742786 -17.020097 20.122786
Sb 7.742786 -13.925097 23.217786
Sb 10.837786 -13.925097 20.122786
Sb 10.837786 -17.020097 23.217786
Sb 7.742786 -7.735097 -13.922214
Sb 7.742786 -10.830097 -10.827214
Sb 7.742786 -7.735097 -7.732214
Sb 10.837786 -7.735097 -10.827214
Sb 10.837786 -10.830097 -7.732214
Sb 7.742786 -10.830097 -4.637214
Sb 7.742786 -7.735097 -1.542214
Sb 10.837786 -7.735097 -4.637214
Sb 10.837786 -10.830097 -1.542214
Sb 7.742786 -10.830097 1.552786
Sb 7.742786 -7.735097 4.647786
Sb 10.837786 -7.735097 1.552786
Sb 10.837786 -10.830097 4.647786
Sb 7.742786 -10.830097 7.742786
Sb 7.742786 -7.735097 10.837786
Sb 10.837786 -7.735097 7.742786
Sb 10.837786 -10.830097 10.837786
Sb 7.742786 -10.830097 13.932786
Sb 7.742786 -7.735097 17.027786
Sb 10.837786 -7.735097 13.932786
Sb 10.837786 -10.830097 17.027786
Sb 7.742786 -10.830097 20.122786
Sb 7.742786 -7.735097 23.217786
Sb 10.837786 -7.735097 20.122786
Sb 10.837786 -10.830097 23.217786
Sb 7.742786 -1.545097 -20.112214
Sb 7.742786 -4.640097 -17.017214
Sb 7.742786 -1.545097 -13.922214
Sb 10.837786 -1.545097 -17.017214
Sb 10.837786 -4.640097 -13.922214
Sb 7.742786 -4.640097 -10.827214
Sb 7.742786 -1.545097 -7.732214
Sb 10.837786 -1.545097 -10.827214
Sb 10.837786 -4.640097 -7.732214
Sb 7.742786 -4.640097 -4.637214
Sb 7.742786 -1.545097 -1.542214
Sb 10.837786 -1.545097 -4.637214
Sb 10.837786 -4.640097 -1.542214
Sb 7.742786 -4.640097 1.552786
Sb 7.742786 -1.545097 4.647786
Sb 10.837786 -1.545097 1.552786
Sb 10.837786 -4.640097 4.647786
Sb 7.742786 -4.640097 7.742786
Sb 7.742786 -1.545097 10.837786
Sb 10.837786 -1.545097 7.742786
Sb 10.837786 -4.640097 10.837786
Sb 7.742786 -4.640097 13.932786
Sb 7.742786 -1.545097 17.027786
Sb 10.837786 -1.545097 13.932786
Sb 10.837786 -4.640097 17.027786
Sb 7.742786 -4.640097 20.122786
Sb 7.742786 -1.545097 23.217786
Sb 10.837786 -1.545097 20.122786
Sb 10.837786 -4.640097 23.217786
Sb 7.742786 1.549903 -23.207214
Sb 7.742786 4.644903 -20.112214
Sb 10.837786 4.644903 -23.207214
Sb 10.837786 1.549903 -20.112214
Sb 7.742786 1.549903 -17.017214
Sb 7.742786 4.644903 -13.922214
Sb 10.837786 4.644903 -17.017214
Sb 10.837786 1.549903 -13.922214
Sb 7.742786 1.549903 -10.827214
Sb 7.742786 4.644903 -7.732214
Sb 10.837786 4.644903 -10.827214
Sb 10.837786 1.549903 -7.732214
Sb 7.742786 1.549903 -4.637214
Sb 7.742786 4.644903 -1.542214
Sb 10.837786 4.644903 -4.637214
Sb 10.837786 1.549903 -1.542214
Sb 7.742786 1.549903 1.552786
Sb 7.742786 4.644903 4.647786
Sb 10.837786 4.644903 1.552786
Sb 10.837786 1.549903 4.647786
Sb 7.742786 1.549903 7.742786
Sb 7.742786 4.644903 10.837786
Sb 10.837786 4.644903 7.742786
Sb 10.837786 1.549903 10.837786
Sb 7.742786 1.549903 13.932786
Sb 7.742786 4.644903 17.027786
Sb 10.837786 4.644903 13.932786
Sb 10.837786 1.549903 17.027786
Sb 7.742786 1.549903 20.122786
Sb 7.742786 7.739903 -23.207214
Sb 7.742786 10.834903 -20.112214
Sb 10.837786 10.834903 -23.207214
Sb 10.837786 7.739903 -20.112214
Sb 7.742786 7.739903 -17.017214
Sb 7.742786 10.834903 -13.922214
Sb 10.837786 10.834903 -17.017214
Sb 10.837786 7.739903 -13.922214
Sb 7.742786 7.739903 -10.827214
Sb 7.742786 10.834903 -7.732214
Sb 10.837786 10.834903 -10.827214
Sb 10.837786 7.739903 -7.732214
Sb 7.742786 7.739903 -4.637214
Sb 7.742786 10.834903 -1.542214
Sb 10.837786 10.834903 -4.637214
Sb 10.837786 7.739903 -1.542214
Sb 7.742786 7.739903 1.552786
Sb 7.742786 10.834903 4.647786
Sb 10.837786 10.834903 1.552786
Sb 10.837786 7.739903 4.647786
Sb 7.742786 7.739903 7.742786
Sb 7.742786 10.834903 10.837786
Sb 10.837786 10.834903 7.742786
Sb 10.837786 7.739903 10.837786
Sb 7.742786 7.739903 13.932786
Sb 7.742786 13.929903 -23.207214
Sb 7.742786 17.024903 -20.112214
Sb 10.837786 17.024903 -23.207214
Sb 10.837786 13.929903 -20.112214
Sb 7.742786 13.929903 -17.017214
Sb 7.742786 17.024903 -13.922214
Sb 10.837786 17.024903 -17.017214
Sb 10.837786 13.929903 -13.922214
Sb 7.742786 13.929903 -10.827214
Sb 7.742786 17.024903 -7.732214
Sb 10.837786 17.024903 -10.827214
Sb 10.837786 13.929903 -7.732214
Sb 7.742786 13.929903 -4.637214
Sb 7.742786 17.024903 -1.542214
Sb 10.837786 17.024903 -4.637214
Sb 10.837786 13.929903 -1.542214
Sb 7.742786 13.929903 1.552786
Sb 7.742786 17.024903 4.647786
Sb 10.837786 17.024903 1.552786
Sb 10.837786 13.929903 4.647786
Sb 7.742786 13.929903 7.742786
Sb 10.837786 20.119903 -20.112214
Sb 7.742786 20.119903 -17.017214
Sb 7.742786 23.214903 -13.922214
Sb 10.837786 23.214903 -17.017214
Sb 10.837786 20.119903 -13.922214
Sb 7.742786 20.119903 -10.827214
Sb 7.742786 23.214903 -7.732214
Sb 10.837786 23.214903 -10.827214
Sb 10.837786 20.119903 -7.732214
Sb 7.742786 20.119903 -4.637214
Sb 7.742786 23.214903 -1.542214
Sb 10.837786 23.214903 -4.637214
Sb 10.837786 20.119903 -1.542214
Sb 7.742786 20.119903 1.552786
Sb 13.932786 -20.115097 4.647786
Sb 13.932786 -23.210097 7.742786
Sb 13.932786 -20.115097 10.837786
Sb 17.027786 -20.115097 7.742786
Sb 17.027786 -23.210097 10.837786
Sb 13.932786 -23.210097 13.932786
Sb 13.932786 -20.115097 17.027786
Sb 17.027786 -20.115097 13.932786
Sb 17.027786 -23.210097 17.027786
Sb 13.932786 -23.210097 20.122786
Sb 13.932786 -20.115097 23.217786
Sb 17.027786 -20.115097 20.122786
Sb 17.027786 -23.210097 23.217786
Sb 13.932786 -13.925097 -1.542214
Sb 13.932786 -17.020097 1.552786
Sb 13.932786 -13.925097 4.647786
Sb 17.027786 -13.925097 1.552786
Sb 17.027786 -17.020097 4.647786
Sb 13.932786 -17.020097 7.742786
Sb 13.932786 -13.925097 10.837786
Sb 17.027786 -13.925097 7.742786
Sb 17.027786 -17.020097 10.837786
Sb 13.932786 -17.020097 13.932786
Sb 13.932786 -13.925097 17.027786
Sb 17.027786 -13.925097 13.932786
Sb 17.027786 -17.020097 17.027786
Sb 13.932786 -17.020097 20.122786
Sb 13.932786 -13.925097 23.217786
Sb 17.027786 -13.925097 20.122786
Sb 17.027786 -17.020097 23.217786
Sb 13.932786 -7.735097 -7.732214
Sb 13.932786 -10.830097 -4.637214
Sb 13.932786 -7.735097 -1.542214
Sb 17.027786 -7.735097 -4.637214
Sb 17.027786 -10.830097 -1.542214
Sb 13.932786 -10.830097 1.552786
Sb 13.932786 -7.735097 4.647786
Sb 17.027786 -7.735097 1.552786
Sb 17.027786 -10.830097 4.647786
Sb 13.932786 -10.830097 7.742786
Sb 13.932786 -7.735097 10.837786
Sb 17.027786 -7.735097 7.742786
Sb 17.027786 -10.830097 10.837786
Sb 13.932786 -10.830097 13.932786
Sb 13.932786 -7.735097 17.027786
Sb 17.027786 -7.735097 13.932786
Sb 17.027786 -10.830097 17.027786
Sb 13.932786 -10.830097 20.122786
Sb 13.932786 -7.735097 23.217786
Sb 17.027786 -7.735097 20.122786
Sb 17.027786 -10.830097 23.217786
Sb 13.932786 -1.545097 -13.922214
Sb 13.932786 -4.640097 -10.827214
Sb 13.932786 -1.545097 -7.732214
Sb 17.027786 -1.545097 -10.827214
Sb 17.027786 -4.640097 -7.732214
Sb 13.932786 -4.640097 -4.637214
Sb 13.932786 -1.545097 -1.542214
Sb 17.027786 -1.545097 -4.637214
Sb 17.027786 -4.640097 -1.542214
Sb 13.932786 -4.640097 1.552786
Sb 13.932786 -1.545097 4.647786
Sb 17.027786 -1.545097 1.552786
Sb 17.027786 -4.640097 4.647786
Sb 13.932786 -4.640097 7.742786
Sb 13.932786 -1.545097 10.837786
Sb 17.027786 -1.545097 7.742786
Sb 17.027786 -4.640097 10.837786
Sb 13.932786 -4.640097 13.932786
Sb 13.932786 -1.545097 17.027786
Sb 17.027786 -1.545097 13.932786
Sb 17.027786 -4.640097 17.027786
Sb 13.932786 -4.640097 20.122786
Sb 13.932786 4.644903 -20.112214
Sb 13.932786 1.549903 -17.017214
Sb 13.932786 4.644903 -13.922214
Sb 17.027786 4.644903 -17.017214
Sb 17.027786 1.549903 -13.922214
Sb 13.932786 1.549903 -10.827214
Sb 13.932786 4.644903 -7.732214
Sb 17.027786 4.644903 -10.827214
Sb 17.027786 1.549903 -7.732214
Sb 13.932786 1.549903 -4.637214
Sb 13.932786 4.644903 -1.542214
Sb 17.027786 4.644903 -4.637214
Sb 17.027786 1.549903 -1.542214
Sb 13.932786 1.549903 1.552786
Sb 13.932786 4.644903 4.647786
Sb 17.027786 4.644903 1.552786
Sb 17.027786 1.549903 4.647786
Sb 13.932786 1.549903 7.742786
Sb 13.932786 4.644903 10.837786
Sb 17.027786 4.644903 7.742786
Sb 17.027786 1.549903 10.837786
Sb 13.932786 1.549903 13.932786
Sb 13.932786 7.739903 -23.207214
Sb 13.932786 10.834903 -20.112214
Sb 17.027786 10.834903 -23.207214
Sb 17.027786 7.739903 -20.112214
Sb 13.932786 7.739903 -17.017214
Sb 13.932786 10.834903 -13.922214
Sb 17.027786 10.834903 -17.017214
Sb 17.027786 7.739903 -13.922214
Sb 13.932786 7.739903 -10.827214
Sb 13.932786 10.834903 -7.732214
Sb 17.027786 10.834903 -10.827214
Sb 17.027786 7.739903 -7.732214
Sb 13.932786 7.739903 -4.637214
Sb 13.932786 10.834903 -1.542214
Sb 17.027786 10.834903 -4.637214
Sb 17.027786 7.739903 -1.542214
Sb 13.932786 7.739903 1.552786
Sb 13.932786 10.834903 4.647786
Sb 17.027786 10.834903 1.552786
Sb 17.027786 7.739903 4.647786
Sb 13.932786 7.739903 7.742786
Sb 13.932786 13.929903 -23.207214
Sb 13.932786 17.024903 -20.112214
Sb 17.027786 17.024903 -23.207214
Sb 17.027786 13.929903 -20.112214
Sb 13.932786 13.929903 -17.017214
Sb 13.932786 17.024903 -13.922214
Sb 17.027786 17.024903 -17.017214
Sb 17.027786 13.929903 -13.922214
Sb 13.932786 13.929903 -10.827214
Sb 13.932786 17.024903 -7.732214
Sb 17.027786 17.024903 -10.827214
Sb 17.027786 13.929903 -7.732214
Sb 13.932786 13.929903 -4.637214
Sb 13.932786 17.024903 -1.542214
Sb 17.027786 17.024903 -4.637214
Sb 17.027786 13.929903 -1.542214
Sb 13.932786 13.929903 1.552786
Sb 13.932786 20.119903 -23.207214
Sb 13.932786 23.214903 -20.112214
Sb 17.027786 23.214903 -23.207214
Sb 17.027786 20.119903 -20.112214
Sb 13.932786 20.119903 -17.017214
Sb 13.932786 23.214903 -13.922214
Sb 17.027786 23.214903 -17.017214
Sb 17.027786 20.119903 -13.922214
Sb 13.932786 20.119903 -10.827214
Sb 13.932786 23.214903 -7.732214
Sb 17.027786 23.214903 -10.827214
Sb 17.027786 20.119903 -7.732214
Sb 13.932786 20.119903 -4.637214
Sb 20.122786 -20.115097 10.837786
Sb 20.122786 -23.210097 13.932786
Sb 20.122786 -20.115097 17.027786
Sb 23.217786 -20.115097 13.932786
Sb 23.217786 -23.210097 17.027786
Sb 20.122786 -23.210097 20.122786
Sb 20.122786 -20.115097 23.217786
Sb 23.217786 -20.115097 20.122786
Sb 20.122786 -13.925097 4.647786
Sb 20.122786 -17.020097 7.742786
Sb 20.122786 -13.925097 10.837786
Sb 23.217786 -13.925097 7.742786
Sb 23.217786 -17.020097 10.837786
Sb 20.122786 -17.020097 13.932786
Sb 20.122786 -13.925097 17.027786
Sb 23.217786 -13.925097 13.932786
Sb 23.217786 -17.020097 17.027786
Sb 20.122786 -17.020097 20.122786
Sb 20.122786 -13.925097 23.217786
Sb 23.217786 -13.925097 20.122786
Sb 23.217786 -17.020097 23.217786
Sb 20.122786 -7.735097 -1.542214
Sb 20.122786 -10.830097 1.552786
Sb 20.122786 -7.735097 4.647786
Sb 23.217786 -7.735097 1.552786
Sb 23.217786 -10.830097 4.647786
Sb 20.122786 -10.830097 7.742786
Sb 20.122786 -7.735097 10.837786
Sb 23.217786 -7.735097 7.742786
Sb 23.217786 -10.830097 10.837786
Sb 20.122786 -10.830097 13.932786
Sb 20.122786 -7.735097 17.027786
Sb 23.217786 -7.735097 13.932786
Sb 23.217786 -10.830097 17.027786
Sb 20.122786 -10.830097 20.122786
Sb 20.122786 -1.545097 -7.732214
Sb 20.122786 -4.640097 -4.637214
Sb 20.122786 -1.545097 -1.542214
Sb 23.217786 -1.545097 -4.637214
Sb 23.217786 -4.640097 -1.542214
Sb 20.122786 -4.640097 1.552786
Sb 20.122786 -1.545097 4.647786
Sb 23.217786 -1.545097 1.552786
Sb 23.217786 -4.640097 4.647786
Sb 20.122786 -4.640097 7.742786
Sb 20.122786 -1.545097 10.837786
Sb 23.217786 -1.545097 7.742786
Sb 23.217786 -4.640097 10.837786
Sb 20.122786 -4.640097 13.932786
Sb 20.122786 4.644903 -13.922214
Sb 20.122786 1.549903 -10.827214
Sb 20.122786 4.644903 -7.732214
Sb 23.217786 4.644903 -10.827214
Sb 23.217786 1.549903 -7.732214
Sb 20.122786 1.549903 -4.637214
Sb 20.122786 4.644903 -1.542214
Sb 23.217786 4.644903 -4.637214
Sb 23.217786 1.549903 -1.542214
Sb 20.122786 1.549903 1.552786
Sb 20.122786 4.644903 4.647786
Sb 23.217786 4.644903 1.552786
Sb 23.217786 1.549903 4.647786
Sb 20.122786 1.549903 7.742786
Sb 20.122786 10.834903 -20.112214
Sb 20.122786 7.739903 -17.017214
Sb 20.122786 10.834903 -13.922214
Sb 23.217786 10.834903 -17.017214
Sb 23.217786 7.739903 -13.922214
Sb 20.122786 7.739903 -10.827214
Sb 20.122786 10.834903 -7.732214
Sb 23.217786 10.834903 -10.827214
Sb 23.217786 7.739903 -7.732214
Sb 20.122786 7.739903 -4.637214
Sb 20.122786 10.834903 -1.542214
Sb 23.217786 10.834903 -4.637214
Sb 23.217786 7.739903 -1.542214
Sb 20.122786 7.739903 1.552786
Sb 20.122786 13.929903 -23.207214
Sb 20.122786 17.024903 -20.112214
Sb 23.217786 17.024903 -23.207214
Sb 23.217786 13.929903 -20.112214
Sb 20.122786 13.929903 -17.017214
Sb 20.122786 17.024903 -13.922214
Sb 23.217786 17.024903 -17.017214
Sb 23.217786 13.929903 -13.922214
Sb 20.122786 13.929903 -10.827214
Sb 20.122786 17.024903 -7.732214
Sb 23.217786 17.024903 -10.827214
Sb 23.217786 13.929903 -7.732214
Sb 20.122786 13.929903 -4.637214
Sb 20.122786 20.119903 -23.207214
Sb 20.122786 23.214903 -20.112214
Sb 23.217786 20.119903 -20.112214
Sb 20.122786 20.119903 -17.017214
Sb 20.122786 23.214903 -13.922214
Sb 23.217786 23.214903 -17.017214
Sb 23.217786 20.119903 -13.922214
Sb 20.122786 20.119903 -10.827214
Cl -26.302214 -20.115097 -17.017214
Cl -26.302214 -17.020097 -20.112214
Cl -26.302214 -13.925097 -17.017214
Cl -26.302214 -17.020097 -13.922214
Cl -26.302214 -13.925097 -10.827214
Cl -26.302214 -10.830097 -13.922214
Cl -26.302214 -7.735097 -10.827214
Cl -26.302214 -10.830097 -7.732214
Cl -26.302214 -7.735097 -4.637214
Cl -26.302214 -4.640097 -7.732214
Cl -26.302214 -1.545097 -4.637214
Cl -26.302214 -4.640097 -1.542214
Cl -26.302214 -1.545097 1.552786
Cl -26.302214 1.549903 -1.542214
Cl -26.302214 4.644903 1.552786
Cl -26.302214 1.549903 4.647786
Cl -26.302214 4.644903 7.742786
Cl -26.302214 7.739903 4.647786
Cl -26.302214 10.834903 7.742786
Cl -26.302214 7.739903 10.837786
Cl -26.302214 10.834903 13.932786
Cl -26.302214 13.929903 10.837786
Cl -26.302214 17.024903 13.932786
Cl -26.302214 13.929903 17.027786
Cl -26.302214 17.024903 20.122786
Cl -26.302214 20.119903 17.027786
Cl -20.112214 -26.305097 -17.017214
Cl -20.112214 -17.020097 -26.302214
Cl -20.112214 17.024903 26.312786
Cl -20.112214 26.309903 17.027786
Cl -17.017214 -26.305097 -20.112214
Cl -17.017214 -26.305097 -13.922214
Cl -13.922214 -26.305097 -17.017214
Cl -13.922214 -26.305097 -10.827214
Cl -17.017214 -20.115097 -26.302214
Cl -17.017214 -13.925097 -26.302214
Cl -13.922214 -17.020097 -26.302214
Cl -13.922214 -10.830097 -26.302214
Cl -13.922214 10.834903 26.312786
Cl -17.017214 13.929903 26.312786
Cl -13.922214 17.024903 26.312786
Cl -17.017214 20.119903 26.312786
Cl -13.922214 26.309903 10.837786
Cl -17.017214 26.309903 13.932786
Cl -13.922214 26.309903 17.027786
Cl -17.017214 26.309903 20.122786
Cl -10.827214 -26.305097 -13.922214
Cl -10.827214 -26.305097 -7.732214
Cl -7.732214 -26.305097 -10.827214
Cl -7.732214 -26.305097 -4.637214
Cl -10.827214 -13.925097 -26.302214
Cl -10.827214 -7.735097 -26.302214
Cl -7.732214 -10.830097 -26.302214
Cl -7.732214 -4.640097 -26.302214
Cl -7.732214 4.644903 26.312786
Cl -10.827214 7.739903 26.312786
Cl -7.732214 10.834903 26.312786
Cl -10.827214 13.929903 26.312786
Cl -7.732214 26.309903 4.647786
Cl -10.827214 26.309903 7.742786
Cl -7.732214 26.309903 10.837786
Cl -10.827214 26.309903 13.932786
Cl -4.637214 -26.305097 -7.732214
Cl -4.637214 -26.305097 -1.542214
Cl -1.542214 -26.305097 -4.637214
Cl -1.542214 -26.305097 1.552786
Cl -4.637214 -7.735097 -26.302214
Cl -4.637214 -1.545097 -26.302214
Cl -1.542214 -4.640097 -26.302214
Cl -1.542214 -1.545097 26.312786
Cl -1.542214 1.549903 -26.302214
Cl -4.637214 1.549903 26.312786
Cl -1.542214 4.644903 26.312786
Cl -4.637214 7.739903 26.312786
Cl -1.542214 26.309903 -1.542214
Cl -4.637214 26.309903 1.552786
Cl -1.542214 26.309903 4.647786
Cl -4.637214 26.309903 7.742786
Cl 1.552786 -26.305097 -1.542214
Cl 1.552786 -26.305097 4.647786
Cl 4.647786 -26.305097 1.552786
Cl 4.647786 -26.305097 7.742786
Cl 4.647786 -7.735097 26.312786
Cl 1.552786 -1.545097 -26.302214
Cl 1.552786 -4.640097 26.312786
Cl 4.647786 -1.545097 26.312786
Cl 1.552786 4.644903 -26.302214
Cl 4.647786 1.549903 -26.302214
Cl 1.552786 1.549903 26.312786
Cl 4.647786 7.739903 -26.302214
Cl 4.647786 26.309903 -7.732214
Cl 1.552786 26.309903 -4.637214
Cl 4.647786 26.309903 -1.542214
Cl 1.552786 26.309903 1.552786
Cl 7.742786 -26.305097 4.647786
Cl 7.742786 -26.305097 10.837786
Cl 10.837786 -26.305097 7.742786
Cl 10.837786 -26.305097 13.932786
Cl 10.837786 -13.925097 26.312786
Cl 7.742786 -10.830097 26.312786
Cl 10.837786 -7.735097 26.312786
Cl 7.742786 -4.640097 26.312786
Cl 7.742786 4.644903 -26.302214
Cl 7.742786 10.834903 -26.302214
Cl 10.837786 7.739903 -26.302214
Cl 10.837786 13.929903 -26.302214
Cl 10.837786 26.309903 -13.922214
Cl 7.742786 26.309903 -10.827214
Cl 10.837786 26.309903 -7.732214
Cl 7.742786 26.309903 -4.637214
Cl 13.932786 -26.305097 10.837786
Cl 13.932786 -26.305097 17.027786
Cl 17.027786 -26.305097 13.932786
Cl 17.027786 -26.305097 20.122786
Cl 17.027786 -20.115097 26.312786
Cl 13.932786 -17.020097 26.312786
Cl 17.027786 -13.925097 26.312786
Cl 13.932786 -10.830097 26.312786
Cl 13.932786 10.834903 -26.302214
Cl 13.932786 17.024903 -26.302214
Cl 17.027786 13.929903 -26.302214
Cl 17.027786 20.119903 -26.302214
Cl 17.027786 26.309903 -20.112214
Cl 13.932786 26.309903 -17.017214
Cl 17.027786 26.309903 -13.922214
Cl 13.932786 26.309903 -10.827214
Cl 20.122786 -26.305097 17.027786
Cl 20.122786 -17.020097 26.312786
Cl 20.122786 17.024903 -26.302214
Cl 20.122786 26.309903 -17.017214
Cl 26.312786 -20.115097 17.027786
Cl 26.312786 -13.925097 10.837786
Cl 26.312786 -17.020097 13.932786
Cl 26.312786 -13.925097 17.027786
Cl 26.312786 -17.020097 20.122786
Cl 26.312786 -7.735097 4.647786
Cl 26.312786 -10.830097 7.742786
Cl 26.312786 -7.735097 10.837786
Cl 26.312786 -10.830097 13.932786
Cl 26.312786 -1.545097 -1.542214
Cl 26.312786 -4.640097 1.552786
Cl 26.312786 -1.545097 4.647786
Cl 26.312786 -4.640097 7.742786
Cl 26.312786 4.644903 -7.732214
Cl 26.312786 1.549903 -4.637214
Cl 26.312786 4.644903 -1.542214
Cl 26.312786 1.549903 1.552786
Cl 26.312786 10.834903 -13.922214
Cl 26.312786 7.739903 -10.827214
Cl 26.312786 10.834903 -7.732214
Cl 26.312786 7.739903 -4.637214
Cl 26.312786 17.024903 -20.112214
Cl 26.312786 13.929903 -17.017214
Cl 26.312786 17.024903 -13.922214
Cl 26.312786 13.929903 -10.827214
Cl 26.312786 20.119903 -17.017214
Cl -13.922214 -13.925097 7.742786
Cl -13.922214 7.739903 -13.922214
Cl 7.742786 -13.925097 -13.922214
Cl 10.837786 10.834903 13.932786
Cl -23.207214 13.929903 26.312786
Cl -23.207214 26.309903 13.932786
Cl 26.312786 -23.210097 13.932786
Cl 23.217786 26.309903 -13.922214
Cl 13.932786 -23.210097 26.312786
Cl 13.932786 26.309903 -23.207214
Cl 26.312786 13.929903 -23.207214
Cl 26.312786 -13.925097 23.217786
Cl -13.922214 26.309903 23.217786
Cl -23.207214 -26.305097 -13.922214
Cl -23.207214 -13.925097 -26.302214
Cl -13.922214 -23.210097 -26.302214
Cl -4.637214 -4.640097 26.312786
Cl -4.637214 26.309903 -4.637214
Cl 26.312786 -4.640097 -4.637214
Cl 26.312786 7.739903 1.552786
Cl 7.742786 26.309903 1.552786
Cl -26.302214 1.549903 10.837786
Cl -26.302214 10.834903 1.552786
Cl 10.837786 -26.305097 1.552786
Cl 1.552786 -26.305097 10.837786
Cl 1.552786 10.834903 -26.302214
Cl 10.837786 1.549903 -26.302214
Cl -1.542214 10.834903 26.312786
Cl 10.837786 -1.545097 26.312786
Cl -26.302214 -13.925097 -4.637214
Cl -26.302214 -4.640097 -13.922214
Cl -4.637214 -26.305097 -13.922214
Cl -10.827214 -26.305097 -1.542214
Cl -10.827214 -1.545097 -26.302214
Cl -1.542214 -10.830097 -26.302214
Cl 23.217786 -1.545097 13.932786
Cl -1.542214 23.214903 13.932786
Cl -13.922214 4.644903 26.312786
Cl -13.922214 26.309903 4.647786
Cl 26.312786 -13.925097 4.647786
Cl 4.647786 -13.925097 26.312786
Cl 4.647786 26.309903 -13.922214
Cl 26.312786 4.644903 -13.922214
Cl 17.027786 17.024903 1.552786
Cl -13.922214 -4.640097 17.027786
Cl -13.922214 17.024903 -4.637214
Cl 17.027786 -13.925097 -4.637214
Cl 26.312786 17.024903 -7.732214
Cl -4.637214 -13.925097 17.027786
Cl -4.637214 17.024903 -13.922214
Cl 17.027786 -4.640097 -13.922214
Cl -7.732214 17.024903 26.312786
Cl -23.207214 -7.735097 4.647786
Cl -23.207214 4.644903 -7.732214
Cl 4.647786 -23.210097 -7.732214
Cl 17.027786 -7.735097 26.312786
Cl 7.742786 -26.305097 17.027786
Cl 7.742786 17.024903 -26.302214
Cl 17.027786 7.739903 -26.302214
Cl 17.027786 26.309903 -7.732214
Cl -26.302214 7.739903 17.027786
Cl -26.302214 17.024903 7.742786
Cl 17.027786 -26.305097 7.742786
Cl 4.647786 4.644903 26.312786
Cl -20.112214 -20.115097 -4.637214
Cl -20.112214 -4.640097 -20.112214
Cl -4.637214 -20.115097 -20.112214
Cl 20.122786 7.739903 7.742786
Cl -4.637214 -26.305097 4.647786
Cl -4.637214 4.644903 -26.302214
Cl 4.647786 -4.640097 -26.302214
Cl 7.742786 20.119903 7.742786
Cl 17.027786 -1.545097 20.122786
Cl -20.112214 1.549903 17.027786
Cl -20.112214 17.024903 1.552786
Cl 17.027786 -20.115097 1.552786
Cl -1.542214 17.024903 20.122786
Cl 1.552786 -20.115097 17.027786
Cl 1.552786 17.024903 -20.112214
Cl 17.027786 1.549903 -20.112214
Cl 4.647786 10.834903 20.122786
Cl -4.637214 -20.115097 10.837786
Cl -4.637214 10.834903 -20.112214
Cl 10.837786 -4.640097 -20.112214
Cl 10.837786 4.644903 20.122786
Cl -26.302214 -20.115097 -10.827214
Cl -26.302214 -10.830097 -20.112214
Cl -10.827214 -26.305097 -20.112214
Cl 26.312786 -7.735097 17.027786
Cl -17.017214 -26.305097 -7.732214
Cl -17.017214 -7.735097 -26.302214
Cl -7.732214 -17.020097 -26.302214
Cl -7.732214 26.309903 17.027786
Cl -17.017214 -17.020097 1.552786
Cl -17.017214 1.549903 -17.017214
Cl 1.552786 -17.020097 -17.017214
Cl 26.312786 1.549903 7.742786
Cl -20.112214 7.739903 23.217786
Cl -20.112214 23.214903 7.742786
Cl 23.217786 -20.115097 7.742786
Cl 1.552786 26.309903 7.742786
Cl 7.742786 -20.115097 23.217786
Cl 7.742786 23.214903 -20.112214
Cl 23.217786 7.739903 -20.112214
Cl 20.122786 20.119903 -4.637214
Cl -20.112214 -4.640097 10.837786
Cl -20.112214 10.834903 -4.637214
Cl 10.837786 -20.115097 -4.637214
Cl -10.827214 -1.545097 23.217786
Cl -10.827214 23.214903 -1.542214
Cl 23.217786 -10.830097 -1.542214
Cl 13.932786 13.929903 7.742786
Cl -1.542214 -10.830097 23.217786
Cl -1.542214 23.214903 -10.827214
Cl 23.217786 -1.545097 -10.827214
Cl 23.217786 13.929903 -1.542214
Cl -10.827214 -10.830097 13.932786
Cl -10.827214 13.929903 -10.827214
Cl 13.932786 -10.830097 -10.827214
Cl 4.647786 17.024903 13.932786
Cl 17.027786 4.644903 13.932786
Cl -10.827214 -20.115097 4.647786
Cl -10.827214 4.644903 -20.112214
Cl 4.647786 -10.830097 -20.112214
Cl 13.932786 23.214903 -1.542214
Cl -7.732214 -7.735097 20.122786
Cl -7.732214 20.119903 -7.732214
Cl 20.122786 -7.735097 -7.732214
Cl 23.217786 -13.925097 26.312786
Cl -26.302214 13.929903 23.217786
Cl -26.302214 23.214903 13.932786
Cl 23.217786 -26.305097 13.932786
Cl -13.922214 23.214903 26.312786
Cl 13.932786 -26.305097 23.217786
Cl 13.932786 23.214903 -26.302214
Cl 23.217786 13.929903 -26.302214
Cl 26.312786 23.214903 -13.922214
Cl -26.302214 -7.735097 1.552786
Cl -26.302214 1.549903 -7.732214
Cl 1.552786 -26.305097 -7.732214
Cl -26.302214 -1.545097 7.742786
Cl -26.302214 7.739903 -1.542214
Cl 7.742786 -26.305097 -1.542214
Cl -7.732214 23.214903 20.122786
Cl 23.217786 -7.735097 20.122786
Cl -23.207214 -13.925097 -1.542214
Cl -23.207214 -1.545097 -13.922214
Cl -1.542214 -23.210097 -13.922214
Cl -13.922214 -23.210097 -1.542214
Cl -13.922214 -1.545097 -23.207214
Cl -1.542214 -13.925097 -23.207214
Cl 10.837786 20.119903 4.647786
Cl 1.552786 -17.020097 20.122786
Cl 1.552786 20.119903 -17.017214
Cl 20.122786 1.549903 -17.017214
Cl 20.122786 10.834903 4.647786
Cl -17.017214 1.549903 20.122786
Cl -17.017214 20.119903 1.552786
Cl 20.122786 -17.020097 1.552786
Cl -1.542214 26.309903 10.837786
Cl -17.017214 -10.830097 7.742786
Cl -17.017214 7.739903 -10.827214
Cl 7.742786 -17.020097 -10.827214
Cl 26.312786 -1.545097 10.837786
Cl -26.302214 -23.210097 -13.922214
Cl -26.302214 -13.925097 -23.207214
Cl -13.922214 -26.305097 -23.207214
Cl -4.637214 13.929903 26.312786
Cl -7.732214 -17.020097 10.837786
Cl -7.732214 10.834903 -17.017214
Cl 10.837786 -7.735097 -17.017214
Cl 13.932786 -4.640097 26.312786
Cl 20.122786 26.309903 -10.827214
Cl 10.837786 -20.115097 26.312786
Cl 10.837786 26.309903 -20.112214
Cl 26.312786 10.834903 -20.112214
Cl -20.112214 10.834903 26.312786
Cl -20.112214 26.309903 10.837786
Cl 26.312786 -20.115097 10.837786
Cl 26.312786 13.929903 -4.637214
Cl 4.647786 -26.305097 13.932786
Cl 4.647786 13.929903 -26.302214
Cl 13.932786 4.644903 -26.302214
Cl 10.837786 26.309903 -1.542214
Cl -7.732214 -1.545097 26.312786
Cl -7.732214 26.309903 -1.542214
Cl 26.312786 -7.735097 -1.542214
Cl 7.742786 1.549903 26.312786
Cl -20.112214 -26.305097 -10.827214
Cl -20.112214 -10.830097 -26.302214
Cl -10.827214 -20.115097 -26.302214
Cl -10.827214 20.119903 26.312786
Cl 1.552786 -10.830097 26.312786
Cl 1.552786 26.309903 -10.827214
Cl 26.312786 1.549903 -10.827214
Cl 20.122786 -10.830097 26.312786
Cl -26.302214 4.644903 13.932786
Cl -26.302214 13.929903 4.647786
Cl 13.932786 -26.305097 4.647786
Cl 26.312786 20.119903 -10.827214
Cl -1.542214 -26.305097 7.742786
Cl -1.542214 7.739903 -26.302214
Cl 7.742786 -1.545097 -26.302214
Cl 1.552786 7.739903 26.312786
Cl 26.312786 4.644903 4.647786
Cl -26.302214 -17.020097 -7.732214
Cl -26.302214 -7.735097 -17.017214
Cl -7.732214 -26.305097 -17.017214
Cl -26.302214 10.834903 20.122786
Cl -26.302214 20.119903 10.837786
Cl 20.122786 -26.305097 10.837786
Cl 4.647786 26.309903 4.647786
Cl 10.837786 -26.305097 20.122786
Cl 10.837786 20.119903 -26.302214
Cl 20.122786 10.834903 -26.302214
Cl 13.932786 7.739903 13.932786
Cl -7.732214 -26.305097 1.552786
Cl -7.732214 1.549903 -26.302214
Cl 1.552786 -7.735097 -26.302214
Cl 1.552786 17.024903 17.027786
Cl 20.122786 -1.545097 17.027786
Cl -17.017214 -4.640097 13.932786
Cl -17.017214 13.929903 -4.637214
Cl 13.932786 -17.020097 -4.637214
Cl 7.742786 7.739903 20.122786
Cl -20.112214 -13.925097 1.552786
Cl -20.112214 1.549903 -13.922214
Cl 1.552786 -20.115097 -13.922214
Cl 7.742786 17.024903 10.837786
Cl -1.542214 -20.115097 13.932786
Cl -1.542214 13.929903 -20.112214
Cl 13.932786 -1.545097 -20.112214
Cl -4.637214 20.119903 20.122786
Cl -17.017214 7.739903 26.312786
Cl -17.017214 26.309903 7.742786
Cl 26.312786 -17.020097 7.742786
Cl 20.122786 4.644903 10.837786
Cl -26.302214 -4.640097 4.647786
Cl -26.302214 4.644903 -4.637214
Cl 4.647786 -26.305097 -4.637214
Cl 26.312786 -10.830097 20.122786
Cl 7.742786 -17.020097 26.312786
Cl 7.742786 26.309903 -17.017214
Cl 26.312786 7.739903 -17.017214
Cl 13.932786 1.549903 20.122786
Cl -13.922214 -26.305097 -4.637214
Cl -13.922214 -4.640097 -26.302214
Cl -4.637214 -13.925097 -26.302214
Cl -10.827214 26.309903 20.122786
Cl -10.827214 1.549903 26.312786
Cl -10.827214 26.309903 1.552786
Cl 26.312786 -10.830097 1.552786
Cl 13.932786 26.309903 -4.637214
Cl -1.542214 -7.735097 26.312786
Cl -1.542214 26.309903 -7.732214
Cl 26.312786 -1.545097 -7.732214
Cl 26.312786 10.834903 -1.542214
Cl -26.302214 -10.830097 -1.542214
Cl -26.302214 -1.545097 -10.827214
Cl -1.542214 -26.305097 -10.827214
Cl -4.637214 26.309903 13.932786
Cl -7.732214 -10.830097 17.027786
Cl -7.732214 17.024903 -10.827214
Cl 17.027786 -7.735097 -10.827214
Cl 26.312786 -4.640097 13.932786
Cl -20.112214 -23.210097 -7.732214
Cl -20.112214 -7.735097 -23.207214
Cl -7.732214 -20.115097 -23.207214
Cl 20.122786 23.214903 -7.732214
Cl -23.207214 4.644903 17.027786
Cl -23.207214 17.024903 4.647786
Cl 17.027786 -23.210097 4.647786
Cl 17.027786 13.929903 4.647786
Cl -10.827214 -17.020097 7.742786
Cl -10.827214 7.739903 -17.017214
Cl 7.742786 -10.830097 -17.017214
Cl 7.742786 -23.210097 20.122786
Cl 7.742786 20.119903 -23.207214
Cl 20.122786 7.739903 -23.207214
Cl 1.552786 10.834903 23.217786
Cl 20.122786 -7.735097 23.217786
Cl -23.207214 -1.545097 10.837786
Cl -23.207214 10.834903 -1.542214
Cl 10.837786 -23.210097 -1.542214
Cl 4.647786 23.214903 7.742786
Cl -7.732214 -23.210097 4.647786
Cl -7.732214 4.644903 -23.207214
Cl 4.647786 -7.735097 -23.207214
Cl 20.122786 17.024903 -1.542214
Cl -10.827214 -4.640097 20.122786
Cl -10.827214 20.119903 -4.637214
Cl 20.122786 -10.830097 -4.637214
Cl 7.742786 13.929903 13.932786
Cl -17.017214 -7.735097 10.837786
Cl -17.017214 10.834903 -7.732214
Cl 10.837786 -17.020097 -7.732214
Cl -17.017214 -20.115097 -1.542214
Cl -17.017214 -1.545097 -20.112214
Cl -1.542214 -17.020097 -20.112214
Cl 13.932786 20.119903 1.552786
Cl -1.542214 -13.925097 20.122786
Cl -1.542214 20.119903 -13.922214
Cl 20.122786 -1.545097 -13.922214
Cl 13.932786 10.834903 10.837786
Cl 1.552786 20.119903 13.932786
Cl -20.112214 -10.830097 4.647786
Cl -20.112214 4.644903 -10.827214
Cl 4.647786 -20.115097 -10.827214
Cl -17.017214 4.644903 23.217786
Cl -17.017214 23.214903 4.647786
Cl 23.217786 -17.020097 4.647786
Cl -7.732214 20.119903 23.217786
Cl 13.932786 -1.545097 23.217786
Cl 1.552786 -23.210097 13.932786
Cl 1.552786 13.929903 -23.207214
Cl 13.932786 1.549903 -23.207214
Cl -23.207214 -20.115097 -7.732214
Cl -23.207214 -7.735097 -20.112214
Cl -7.732214 -23.210097 -20.112214
Cl 23.217786 20.119903 -7.732214
Cl 23.217786 4.644903 7.742786
Cl -23.207214 7.739903 20.122786
Cl -23.207214 20.119903 7.742786
Cl 20.122786 -23.210097 7.742786
Cl 7.742786 4.644903 23.217786
Cl 4.647786 -17.020097 23.217786
Cl 4.647786 23.214903 -17.017214
Cl 23.217786 4.644903 -17.017214
Cl -1.542214 13.929903 23.217786
Cl -4.637214 -23.210097 7.742786
Cl -4.637214 7.739903 -23.207214
Cl 7.742786 -4.640097 -23.207214
Cl -4.637214 -7.735097 23.217786
Cl -4.637214 23.214903 -7.732214
Cl 23.217786 -4.640097 -7.732214
Cl 23.217786 10.834903 1.552786
Cl 20.122786 -4.640097 20.122786
Cl -17.017214 -1.545097 17.027786
Cl -17.017214 17.024903 -1.542214
Cl 17.027786 -17.020097 -1.542214
Cl -10.827214 -13.925097 10.837786
Cl -10.827214 10.834903 -13.922214
Cl 10.837786 -10.830097 -13.922214
Cl 20.122786 1.549903 13.932786
Cl -13.922214 -20.115097 1.552786
Cl -13.922214 1.549903 -20.112214
Cl 1.552786 -13.925097 -20.112214
Cl 7.742786 10.834903 17.027786
Cl 10.837786 17.024903 7.742786
Cl -4.637214 -17.020097 13.932786
Cl -4.637214 13.929903 -17.017214
Cl 13.932786 -4.640097 -17.017214
Cl -13.922214 -7.735097 13.932786
Cl -13.922214 13.929903 -7.732214
Cl 13.932786 -13.925097 -7.732214
Cl 13.932786 4.644903 17.027786
Cl 10.837786 23.214903 1.552786
Cl -23.207214 -17.020097 -4.637214
Cl -23.207214 -4.640097 -17.017214
Cl -4.637214 -23.210097 -17.017214
Cl -4.637214 23.214903 17.027786
Cl 4.647786 -23.210097 17.027786
Cl 4.647786 17.024903 -23.207214
Cl 17.027786 4.644903 -23.207214
Cl -23.207214 -4.640097 7.742786
Cl -23.207214 7.739903 -4.637214
Cl 7.742786 -23.210097 -4.637214
Cl 17.027786 23.214903 -4.637214
Cl -13.922214 1.549903 23.217786
Cl -13.922214 23.214903 1.552786
Cl 23.217786 -13.925097 1.552786
Cl 1.552786 23.214903 10.837786
Cl 23.217786 -10.830097 23.217786
Cl -23.207214 1.549903 13.932786
Cl -23.207214 13.929903 1.552786
Cl 13.932786 -23.210097 1.552786
Cl 10.837786 -23.210097 23.217786
Cl 10.837786 23.214903 -23.207214
Cl 23.217786 10.834903 -23.207214
Cl 23.217786 23.214903 -10.827214
Cl -23.207214 10.834903 23.217786
Cl -23.207214 23.214903 10.837786
Cl 23.217786 -23.210097 10.837786
Cl -10.827214 23.214903 23.217786
Cl -23.207214 -23.210097 -10.827214
Cl -23.207214 -10.830097 -23.207214
Cl -10.827214 -23.210097 -23.207214
Cl 1.552786 13.929903 20.122786
Cl -17.017214 -13.925097 4.647786
Cl -17.017214 4.644903 -13.922214
Cl 4.647786 -17.020097 -13.922214
Cl 17.027786 10.834903 7.742786
Cl 1.552786 -13.925097 23.217786
Cl 1.552786 23.214903 -13.922214
Cl 23.217786 1.549903 -13.922214
Cl 23.217786 17.024903 -4.637214
Cl -7.732214 -4.640097 23.217786
Cl -7.732214 23.214903 -4.637214
Cl 23.217786 -7.735097 -4.637214
Cl 17.027786 -4.640097 23.217786
Cl -10.827214 -23.210097 1.552786
Cl -10.827214 1.549903 -23.207214
Cl 1.552786 -10.830097 -23.207214
Cl 23.217786 1.549903 10.837786
Cl -23.207214 -10.830097 1.552786
Cl -23.207214 1.549903 -10.827214
Cl 1.552786 -23.210097 -10.827214
Cl -4.637214 17.024903 23.217786
Cl -1.542214 -23.210097 10.837786
Cl -1.542214 10.834903 -23.207214
Cl 10.837786 -1.545097 -23.207214
