2793
PbTe-Pb-Pb1289Te1074Cl430-clean
Pb -22.896278 -16.354484 -0.000000
Pb -22.896278 -9.812690 -6.541794
Pb -26.167174 -13.083587 -0.000000
Pb -22.896278 -13.083587 -3.270897
Pb -26.167174 -9.812690 -3.270897
Pb -22.896278 -9.812690 -0.000000
Pb -22.896278 -13.083587 3.270897
Pb -26.167174 -9.812690 3.270897
Pb -22.896278 -9.812690 6.541794
Pb -22.896278 -3.270897 -13.083587
Pb -26.167174 -6.541794 -6.541794
Pb -22.896278 -6.541794 -9.812690
Pb -26.167174 -3.270897 -9.812690
Pb -22.896278 -3.270897 -6.541794
Pb -26.167174 -6.541794 -0.000000
Pb -22.896278 -6.541794 -3.270897
Pb -26.167174 -3.270897 -3.270897
Pb -22.896278 -3.270897 -0.000000
Pb -26.167174 -6.541794 6.541794
Pb -22.896278 -6.541794 3.270897
Pb -26.167174 -3.270897 3.270897
Pb -22.896278 -3.270897 6.541794
Pb -22.896278 -6.541794 9.812690
Pb -26.167174 -3.270897 9.812690
Pb -22.896278 -3.270897 13.083587
Pb -26.167174 0.000000 -13.083587
Pb -22.896278 0.000000 -16.354484
Pb -22.896278 3.270897 -13.083587
Pb -26.167174 0.000000 -6.541794
Pb -22.896278 0.000000 -9.812690
Pb -26.167174 3.270897 -9.812690
Pb -22.896278 3.270897 -6.541794
Pb -26.167174 0.000000 -0.000000
Pb -22.896278 0.000000 -3.270897
Pb -26.167174 3.270897 -3.270897
Pb -22.896278 3.270897 -0.000000
Pb -26.167174 0.000000 6.541794
Pb -22.896278 0.000000 3.270897
Pb -26.167174 3.270897 3.270897
Pb -22.896278 3.270897 6.541794
Pb -26.167174 0.000000 13.083587
Pb -22.896278 0.000000 9.812690
Pb -26.167174 3.270897 9.812690
Pb -22.896278 3.270897 13.083587
Pb -22.896278 0.000000 16.354484
Pb -26.167174 6.541794 -6.541794
Pb -22.896278 6.541794 -9.812690
Pb -22.896278 9.812690 -6.541794
Pb -26.167174 6.541794 -0.000000
Pb -22.896278 6.541794 -3.270897
Pb -26.167174 9.812690 -3.270897
Pb -22.896278 9.812690 -0.000000
Pb -26.167174 6.541794 6.541794
Pb -22.896278 6.541794 3.270897
Pb -26.167174 9.812690 3.270897
Pb -22.896278 9.812690 6.541794
Pb -22.896278 6.541794 9.812690
Pb -26.167174 13.083587 -0.000000
Pb -22.896278 13.083587 -3.270897
Pb -22.896278 16.354484 -0.000000
Pb -22.896278 13.083587 3.270897
Pb -16.354484 -22.896278 -0.000000
Pb -16.354484 -16.354484 -6.541794
Pb -19.625381 -19.625381 -0.000000
Pb -16.354484 -19.625381 -3.270897
Pb -19.625381 -16.354484 -3.270897
Pb -16.354484 -16.354484 -0.000000
Pb -16.354484 -19.625381 3.270897
Pb -19.625381 -16.354484 3.270897
Pb -16.354484 -16.354484 6.541794
Pb -16.354484 -9.812690 -13.083587
Pb -19.625381 -13.083587 -6.541794
Pb -16.354484 -13.083587 -9.812690
Pb -19.625381 -9.812690 -9.812690
Pb -16.354484 -9.812690 -6.541794
Pb -19.625381 -13.083587 -0.000000
Pb -16.354484 -13.083587 -3.270897
Pb -19.625381 -9.812690 -3.270897
Pb -16.354484 -9.812690 -0.000000
Pb -19.625381 -13.083587 6.541794
Pb -16.354484 -13.083587 3.270897
Pb -19.625381 -9.812690 3.270897
Pb -16.354484 -9.812690 6.541794
Pb -16.354484 -13.083587 9.812690
Pb -19.625381 -9.812690 9.812690
Pb -16.354484 -9.812690 13.083587
Pb -16.354484 -3.270897 -19.625381
Pb -19.625381 -6.541794 -13.083587
Pb -16.354484 -6.541794 -16.354484
Pb -19.625381 -3.270897 -16.354484
Pb -16.354484 -3.270897 -13.083587
Pb -19.625381 -6.541794 -6.541794
Pb -16.354484 -6.541794 -9.812690
Pb -19.625381 -3.270897 -9.812690
Pb -16.354484 -3.270897 -6.541794
Pb -19.625381 -6.541794 -0.000000
Pb -16.354484 -6.541794 -3.270897
Pb -19.625381 -3.270897 -3.270897
Pb -16.354484 -3.270897 -0.000000
Pb -19.625381 -6.541794 6.541794
Pb -16.354484 -6.541794 3.270897
Pb -19.625381 -3.270897 3.270897
Pb -16.354484 -3.270897 6.541794
Pb -19.625381 -6.541794 13.083587
Pb -16.354484 -6.541794 9.812690
Pb -19.625381 -3.270897 9.812690
Pb -16.354484 -3.270897 13.083587
Pb -16.354484 -6.541794 16.354484
Pb -19.625381 -3.270897 16.354484
Pb -16.354484 -3.270897 19.625381
Pb -19.625381 0.000000 -19.625381
Pb -16.354484 0.000000 -22.896278
Pb -16.354484 3.270897 -19.625381
Pb -19.625381 0.000000 -13.083587
Pb -16.354484 0.000000 -16.354484
Pb -19.625381 3.270897 -16.354484
Pb -16.354484 3.270897 -13.083587
Pb -19.625381 0.000000 -6.541794
Pb -16.354484 0.000000 -9.812690
Pb -19.625381 3.270897 -9.812690
Pb -16.354484 3.270897 -6.541794
Pb -19.625381 0.000000 -0.000000
Pb -16.354484 0.000000 -3.270897
Pb -19.625381 3.270897 -3.270897
Pb -16.354484 3.270897 -0.000000
Pb -19.625381 0.000000 6.541794
Pb -16.354484 0.000000 3.270897
Pb -19.625381 3.270897 3.270897
Pb -16.354484 3.270897 6.541794
Pb -19.625381 0.000000 13.083587
Pb -16.354484 0.000000 9.812690
Pb -19.625381 3.270897 9.812690
Pb -16.354484 3.270897 13.083587
Pb -19.625381 0.000000 19.625381
Pb -16.354484 0.000000 16.354484
Pb -19.625381 3.270897 16.354484
Pb -16.354484 3.270897 19.625381
Pb -16.354484 0.000000 22.896278
Pb -19.625381 6.541794 -13.083587
Pb -16.354484 6.541794 -16.354484
Pb -16.354484 9.812690 -13.083587
Pb -19.625381 6.541794 -6.541794
Pb -16.354484 6.541794 -9.812690
Pb -19.625381 9.812690 -9.812690
Pb -16.354484 9.812690 -6.541794
Pb -19.625381 6.541794 -0.000000
Pb -16.354484 6.541794 -3.270897
Pb -19.625381 9.812690 -3.270897
Pb -16.354484 9.812690 -0.000000
Pb -19.625381 6.541794 6.541794
Pb -16.354484 6.541794 3.270897
Pb -19.625381 9.812690 3.270897
Pb -16.354484 9.812690 6.541794
Pb -19.625381 6.541794 13.083587
Pb -16.354484 6.541794 9.812690
Pb -19.625381 9.812690 9.812690
Pb -16.354484 9.812690 13.083587
Pb -16.354484 6.541794 16.354484
Pb -19.625381 13.083587 -6.541794
Pb -16.354484 13.083587 -9.812690
Pb -16.354484 16.354484 -6.541794
Pb -19.625381 13.083587 -0.000000
Pb -16.354484 13.083587 -3.270897
Pb -19.625381 16.354484 -3.270897
Pb -16.354484 16.354484 -0.000000
Pb -19.625381 13.083587 6.541794
Pb -16.354484 13.083587 3.270897
Pb -19.625381 16.354484 3.270897
Pb -16.354484 16.354484 6.541794
Pb -16.354484 13.083587 9.812690
Pb -19.625381 19.625381 -0.000000
Pb -16.354484 19.625381 -3.270897
Pb -16.354484 22.896278 0.000000
Pb -16.354484 19.625381 3.270897
Pb -9.812690 -22.896278 -6.541794
Pb -13.083587 -26.167174 -0.000000
Pb -9.812690 -26.167174 -3.270897
Pb -13.083587 -22.896278 -3.270897
Pb -9.812690 -22.896278 -0.000000
Pb -9.812690 -26.167174 3.270897
Pb -13.083587 -22.896278 3.270897
Pb -9.812690 -22.896278 6.541794
Pb -9.812690 -16.354484 -13.083587
Pb -13.083587 -19.625381 -6.541794
Pb -9.812690 -19.625381 -9.812690
Pb -13.083587 -16.354484 -9.812690
Pb -9.812690 -16.354484 -6.541794
Pb -13.083587 -19.625381 -0.000000
Pb -9.812690 -19.625381 -3.270897
Pb -13.083587 -16.354484 -3.270897
Pb -9.812690 -16.354484 -0.000000
Pb -13.083587 -19.625381 6.541794
Pb -9.812690 -19.625381 3.270897
Pb -13.083587 -16.354484 3.270897
Pb -9.812690 -16.354484 6.541794
Pb -9.812690 -19.625381 9.812690
Pb -13.083587 -16.354484 9.812690
Pb -9.812690 -16.354484 13.083587
Pb -9.812690 -9.812690 -19.625381
Pb -13.083587 -13.083587 -13.083587
Pb -9.812690 -13.083587 -16.354484
Pb -13.083587 -9.812690 -16.354484
Pb -9.812690 -9.812690 -13.083587
Pb -13.083587 -13.083587 -6.541794
Pb -9.812690 -13.083587 -9.812690
Pb -13.083587 -9.812690 -9.812690
Pb -9.812690 -9.812690 -6.541794
Pb -13.083587 -13.083587 -0.000000
Pb -9.812690 -13.083587 -3.270897
Pb -13.083587 -9.812690 -3.270897
Pb -9.812690 -9.812690 -0.000000
Pb -13.083587 -13.083587 6.541794
Pb -9.812690 -13.083587 3.270897
Pb -13.083587 -9.812690 3.270897
Pb -9.812690 -9.812690 6.541794
Pb -13.083587 -13.083587 13.083587
Pb -9.812690 -13.083587 9.812690
Pb -13.083587 -9.812690 9.812690
Pb -9.812690 -9.812690 13.083587
Pb -9.812690 -13.083587 16.354484
Pb -13.083587 -9.812690 16.354484
Pb -9.812690 -9.812690 19.625381
Pb -9.812690 -3.270897 -26.167174
Pb -13.083587 -6.541794 -19.625381
Pb -9.812690 -6.541794 -22.896278
Pb -13.083587 -3.270897 -22.896278
Pb -9.812690 -3.270897 -19.625381
Pb -13.083587 -6.541794 -13.083587
Pb -9.812690 -6.541794 -16.354484
Pb -13.083587 -3.270897 -16.354484
Pb -9.812690 -3.270897 -13.083587
Pb -13.083587 -6.541794 -6.541794
Pb -9.812690 -6.541794 -9.812690
Pb -13.083587 -3.270897 -9.812690
Pb -9.812690 -3.270897 -6.541794
Pb -13.083587 -6.541794 -0.000000
Pb -9.812690 -6.541794 -3.270897
Pb -13.083587 -3.270897 -3.270897
Pb -9.812690 -3.270897 -0.000000
Pb -13.083587 -6.541794 6.541794
Pb -9.812690 -6.541794 3.270897
Pb -13.083587 -3.270897 3.270897
Pb -9.812690 -3.270897 6.541794
Pb -13.083587 -6.541794 13.083587
Pb -9.812690 -6.541794 9.812690
Pb -13.083587 -3.270897 9.812690
Pb -9.812690 -3.270897 13.083587
Pb -13.083587 -6.541794 19.625381
Pb -9.812690 -6.541794 16.354484
Pb -13.083587 -3.270897 16.354484
Pb -9.812690 -3.270897 19.625381
Pb -9.812690 -6.541794 22.896278
Pb -13.083587 -3.270897 22.896278
Pb -9.812690 -3.270897 26.167174
Pb -13.083587 0.000000 -26.167174
Pb -9.812690 3.270897 -26.167174
Pb -13.083587 0.000000 -19.625381
Pb -9.812690 0.000000 -22.896278
Pb -13.083587 3.270897 -22.896278
Pb -9.812690 3.270897 -19.625381
Pb -13.083587 0.000000 -13.083587
Pb -9.812690 0.000000 -16.354484
Pb -13.083587 3.270897 -16.354484
Pb -9.812690 3.270897 -13.083587
Pb -13.083587 0.000000 -6.541794
Pb -9.812690 0.000000 -9.812690
Pb -13.083587 3.270897 -9.812690
Pb -9.812690 3.270897 -6.541794
Pb -13.083587 0.000000 -0.000000
Pb -9.812690 0.000000 -3.270897
Pb -13.083587 3.270897 -3.270897
Pb -9.812690 3.270897 -0.000000
Pb -13.083587 0.000000 6.541794
Pb -9.812690 0.000000 3.270897
Pb -13.083587 3.270897 3.270897
Pb -9.812690 3.270897 6.541794
Pb -13.083587 0.000000 13.083587
Pb -9.812690 0.000000 9.812690
Pb -13.083587 3.270897 9.812690
Pb -9.812690 3.270897 13.083587
Pb -13.083587 0.000000 19.625381
Pb -9.812690 0.000000 16.354484
Pb -13.083587 3.270897 16.354484
Pb -9.812690 3.270897 19.625381
Pb -13.083587 0.000000 26.167174
Pb -9.812690 0.000000 22.896278
Pb -13.083587 3.270897 22.896278
Pb -9.812690 3.270897 26.167174
Pb -13.083587 6.541794 -19.625381
Pb -9.812690 6.541794 -22.896278
Pb -9.812690 9.812690 -19.625381
Pb -13.083587 6.541794 -13.083587
Pb -9.812690 6.541794 -16.354484
Pb -13.083587 9.812690 -16.354484
Pb -9.812690 9.812690 -13.083587
Pb -13.083587 6.541794 -6.541794
Pb -9.812690 6.541794 -9.812690
Pb -13.083587 9.812690 -9.812690
Pb -9.812690 9.812690 -6.541794
Pb -13.083587 6.541794 -0.000000
Pb -9.812690 6.541794 -3.270897
Pb -13.083587 9.812690 -3.270897
Pb -9.812690 9.812690 -0.000000
Pb -13.083587 6.541794 6.541794
Pb -9.812690 6.541794 3.270897
Pb -13.083587 9.812690 3.270897
Pb -9.812690 9.812690 6.541794
Pb -13.083587 6.541794 13.083587
Pb -9.812690 6.541794 9.812690
Pb -13.083587 9.812690 9.812690
Pb -9.812690 9.812690 13.083587
Pb -13.083587 6.541794 19.625381
Pb -9.812690 6.541794 16.354484
Pb -13.083587 9.812690 16.354484
Pb -9.812690 9.812690 19.625381
Pb -9.812690 6.541794 22.896278
Pb -13.083587 13.083587 -13.083587
Pb -9.812690 13.083587 -16.354484
Pb -9.812690 16.354484 -13.083587
Pb -13.083587 13.083587 -6.541794
Pb -9.812690 13.083587 -9.812690
Pb -13.083587 16.354484 -9.812690
Pb -9.812690 16.354484 -6.541794
Pb -13.083587 13.083587 -0.000000
Pb -9.812690 13.083587 -3.270897
Pb -13.083587 16.354484 -3.270897
Pb -9.812690 16.354484 0.000000
Pb -13.083587 13.083587 6.541794
Pb -9.812690 13.083587 3.270897
Pb -13.083587 16.354484 3.270897
Pb -9.812690 16.354484 6.541794
Pb -13.083587 13.083587 13.083587
Pb -9.812690 13.083587 9.812690
Pb -13.083587 16.354484 9.812690
Pb -9.812690 16.354484 13.083587
Pb -9.812690 13.083587 16.354484
Pb -13.083587 19.625381 -6.541794
Pb -9.812690 19.625381 -9.812690
Pb -9.812690 22.896278 -6.541794
Pb -13.083587 19.625381 0.000000
Pb -9.812690 19.625381 -3.270897
Pb -13.083587 22.896278 -3.270897
Pb -9.812690 22.896278 0.000000
Pb -13.083587 19.625381 6.541794
Pb -9.812690 19.625381 3.270897
Pb -13.083587 22.896278 3.270897
Pb -9.812690 22.896278 6.541794
Pb -9.812690 19.625381 9.812690
Pb -13.083587 26.167174 0.000000
Pb -9.812690 26.167174 -3.270897
Pb -9.812690 26.167174 3.270897
Pb -3.270897 -22.896278 -13.083587
Pb -6.541794 -26.167174 -6.541794
Pb -3.270897 -26.167174 -9.812690
Pb -6.541794 -22.896278 -9.812690
Pb -3.270897 -22.896278 -6.541794
Pb -6.541794 -26.167174 -0.000000
Pb -3.270897 -26.167174 -3.270897
Pb -6.541794 -22.896278 -3.270897
Pb -3.270897 -22.896278 -0.000000
Pb -6.541794 -26.167174 6.541794
Pb -3.270897 -26.167174 3.270897
Pb -6.541794 -22.896278 3.270897
Pb -3.270897 -22.896278 6.541794
Pb -3.270897 -26.167174 9.812690
Pb -6.541794 -22.896278 9.812690
Pb -3.270897 -22.896278 13.083587
Pb -3.270897 -16.354484 -19.625381
Pb -6.541794 -19.625381 -13.083587
Pb -3.270897 -19.625381 -16.354484
Pb -6.541794 -16.354484 -16.354484
Pb -3.270897 -16.354484 -13.083587
Pb -6.541794 -19.625381 -6.541794
Pb -3.270897 -19.625381 -9.812690
Pb -6.541794 -16.354484 -9.812690
Pb -3.270897 -16.354484 -6.541794
Pb -6.541794 -19.625381 -0.000000
Pb -3.270897 -19.625381 -3.270897
Pb -6.541794 -16.354484 -3.270897
Pb -3.270897 -16.354484 -0.000000
Pb -6.541794 -19.625381 6.541794
Pb -3.270897 -19.625381 3.270897
Pb -6.541794 -16.354484 3.270897
Pb -3.270897 -16.354484 6.541794
Pb -6.541794 -19.625381 13.083587
Pb -3.270897 -19.625381 9.812690
Pb -6.541794 -16.354484 9.812690
Pb -3.270897 -16.354484 13.083587
Pb -3.270897 -19.625381 16.354484
Pb -6.541794 -16.354484 16.354484
Pb -3.270897 -16.354484 19.625381
Pb -3.270897 -9.812690 -26.167174
Pb -6.541794 -13.083587 -19.625381
Pb -3.270897 -13.083587 -22.896278
Pb -6.541794 -9.812690 -22.896278
Pb -3.270897 -9.812690 -19.625381
Pb -6.541794 -13.083587 -13.083587
Pb -3.270897 -13.083587 -16.354484
Pb -6.541794 -9.812690 -16.354484
Pb -3.270897 -9.812690 -13.083587
Pb -6.541794 -13.083587 -6.541794
Pb -3.270897 -13.083587 -9.812690
Pb -6.541794 -9.812690 -9.812690
Pb -3.270897 -9.812690 -6.541794
Pb -6.541794 -13.083587 -0.000000
Pb -3.270897 -13.083587 -3.270897
Pb -6.541794 -9.812690 -3.270897
Pb -3.270897 -9.812690 -0.000000
Pb -6.541794 -13.083587 6.541794
Pb -3.270897 -13.083587 3.270897
Pb -6.541794 -9.812690 3.270897
Pb -3.270897 -9.812690 6.541794
Pb -6.541794 -13.083587 13.083587
Pb -3.270897 -13.083587 9.812690
Pb -6.541794 -9.812690 9.812690
Pb -3.270897 -9.812690 13.083587
Pb -6.541794 -13.083587 19.625381
Pb -3.270897 -13.083587 16.354484
Pb -6.541794 -9.812690 16.354484
Pb -3.270897 -9.812690 19.625381
Pb -3.270897 -13.083587 22.896278
Pb -6.541794 -9.812690 22.896278
Pb -3.270897 -9.812690 26.167174
Pb -6.541794 -6.541794 -26.167174
Pb -3.270897 -3.270897 -26.167174
Pb -6.541794 -6.541794 -19.625381
Pb -3.270897 -6.541794 -22.896278
Pb -6.541794 -3.270897 -22.896278
Pb -3.270897 -3.270897 -19.625381
Pb -6.541794 -6.541794 -13.083587
Pb -3.270897 -6.541794 -16.354484
Pb -6.541794 -3.270897 -16.354484
Pb -3.270897 -3.270897 -13.083587
Pb -6.541794 -6.541794 -6.541794
Pb -3.270897 -6.541794 -9.812690
Pb -6.541794 -3.270897 -9.812690
Pb -3.270897 -3.270897 -6.541794
Pb -6.541794 -6.541794 -0.000000
Pb -3.270897 -6.541794 -3.270897
Pb -6.541794 -3.270897 -3.270897
Pb -3.270897 -3.270897 -0.000000
Pb -6.541794 -6.541794 6.541794
Pb -3.270897 -6.541794 3.270897
Pb -6.541794 -3.270897 3.270897
Pb -3.270897 -3.270897 6.541794
Pb -6.541794 -6.541794 13.083587
Pb -3.270897 -6.541794 9.812690
Pb -6.541794 -3.270897 9.812690
Pb -3.270897 -3.270897 13.083587
Pb -6.541794 -6.541794 19.625381
Pb -3.270897 -6.541794 16.354484
Pb -6.541794 -3.270897 16.354484
Pb -3.270897 -3.270897 19.625381
Pb -6.541794 -6.541794 26.167174
Pb -3.270897 -6.541794 22.896278
Pb -6.541794 -3.270897 22.896278
Pb -3.270897 -3.270897 26.167174
Pb -6.541794 0.000000 -26.167174
Pb -3.270897 3.270897 -26.167174
Pb -6.541794 0.000000 -19.625381
Pb -3.270897 0.000000 -22.896278
Pb -6.541794 3.270897 -22.896278
Pb -3.270897 3.270897 -19.625381
Pb -6.541794 0.000000 -13.083587
Pb -3.270897 0.000000 -16.354484
Pb -6.541794 3.270897 -16.354484
Pb -3.270897 3.270897 -13.083587
Pb -6.541794 0.000000 -6.541794
Pb -3.270897 0.000000 -9.812690
Pb -6.541794 3.270897 -9.812690
Pb -3.270897 3.270897 -6.541794
Pb -6.541794 0.000000 -0.000000
Pb -3.270897 0.000000 -3.270897
Pb -6.541794 3.270897 -3.270897
Pb -3.270897 3.270897 -0.000000
Pb -6.541794 0.000000 6.541794
Pb -3.270897 0.000000 3.270897
Pb -6.541794 3.270897 3.270897
Pb -3.270897 3.270897 6.541794
Pb -6.541794 0.000000 13.083587
Pb -3.270897 0.000000 9.812690
Pb -6.541794 3.270897 9.812690
Pb -3.270897 3.270897 13.083587
Pb -6.541794 0.000000 19.625381
Pb -3.270897 0.000000 16.354484
Pb -6.541794 3.270897 16.354484
Pb -3.270897 3.270897 19.625381
Pb -6.541794 0.000000 26.167174
Pb -3.270897 0.000000 22.896278
Pb -6.541794 3.270897 22.896278
Pb -3.270897 3.270897 26.167174
Pb -6.541794 6.541794 -26.167174
Pb -3.270897 9.812690 -26.167174
Pb -6.541794 6.541794 -19.625381
Pb -3.270897 6.541794 -22.896278
Pb -6.541794 9.812690 -22.896278
Pb -3.270897 9.812690 -19.625381
Pb -6.541794 6.541794 -13.083587
Pb -3.270897 6.541794 -16.354484
Pb -6.541794 9.812690 -16.354484
Pb -3.270897 9.812690 -13.083587
Pb -6.541794 6.541794 -6.541794
Pb -3.270897 6.541794 -9.812690
Pb -6.541794 9.812690 -9.812690
Pb -3.270897 9.812690 -6.541794
Pb -6.541794 6.541794 -0.000000
Pb -3.270897 6.541794 -3.270897
Pb -6.541794 9.812690 -3.270897
Pb -3.270897 9.812690 0.000000
Pb -6.541794 6.541794 6.541794
Pb -3.270897 6.541794 3.270897
Pb -6.541794 9.812690 3.270897
Pb -3.270897 9.812690 6.541794
Pb -6.541794 6.541794 13.083587
Pb -3.270897 6.541794 9.812690
Pb -6.541794 9.812690 9.812690
Pb -3.270897 9.812690 13.083587
Pb -6.541794 6.541794 19.625381
Pb -3.270897 6.541794 16.354484
Pb -6.541794 9.812690 16.354484
Pb -3.270897 9.812690 19.625381
Pb -6.541794 6.541794 26.167174
Pb -3.270897 6.541794 22.896278
Pb -6.541794 9.812690 22.896278
Pb -3.270897 9.812690 26.167174
Pb -6.541794 13.083587 -19.625381
Pb -3.270897 13.083587 -22.896278
Pb -3.270897 16.354484 -19.625381
Pb -6.541794 13.083587 -13.083587
Pb -3.270897 13.083587 -16.354484
Pb -6.541794 16.354484 -16.354484
Pb -3.270897 16.354484 -13.083587
Pb -6.541794 13.083587 -6.541794
Pb -3.270897 13.083587 -9.812690
Pb -6.541794 16.354484 -9.812690
Pb -3.270897 16.354484 -6.541794
Pb -6.541794 13.083587 0.000000
Pb -3.270897 13.083587 -3.270897
Pb -6.541794 16.354484 -3.270897
Pb -3.270897 16.354484 0.000000
Pb -6.541794 13.083587 6.541794
Pb -3.270897 13.083587 3.270897
Pb -6.541794 16.354484 3.270897
Pb -3.270897 16.354484 6.541794
Pb -6.541794 13.083587 13.083587
Pb -3.270897 13.083587 9.812690
Pb -6.541794 16.354484 9.812690
Pb -3.270897 16.354484 13.083587
Pb -6.541794 13.083587 19.625381
Pb -3.270897 13.083587 16.354484
Pb -6.541794 16.354484 16.354484
Pb -3.270897 16.354484 19.625381
Pb -3.270897 13.083587 22.896278
Pb -6.541794 19.625381 -13.083587
Pb -3.270897 19.625381 -16.354484
Pb -3.270897 22.896278 -13.083587
Pb -6.541794 19.625381 -6.541794
Pb -3.270897 19.625381 -9.812690
Pb -6.541794 22.896278 -9.812690
Pb -3.270897 22.896278 -6.541794
Pb -6.541794 19.625381 0.000000
Pb -3.270897 19.625381 -3.270897
Pb -6.541794 22.896278 -3.270897
Pb -3.270897 22.896278 0.000000
Pb -6.541794 19.625381 6.541794
Pb -3.270897 19.625381 3.270897
Pb -6.541794 22.896278 3.270897
Pb -3.270897 22.896278 6.541794
Pb -6.541794 19.625381 13.083587
Pb -3.270897 19.625381 9.812690
Pb -6.541794 22.896278 9.812690
Pb -3.270897 22.896278 13.083587
Pb -3.270897 19.625381 16.354484
Pb -6.541794 26.167174 -6.541794
Pb -3.270897 26.167174 -9.812690
Pb -6.541794 26.167174 0.000000
Pb -3.270897 26.167174 -3.270897
Pb -6.541794 26.167174 6.541794
Pb -3.270897 26.167174 3.270897
Pb -3.270897 26.167174 9.812690
Pb 0.000000 -26.167174 -13.083587
Pb 0.000000 -22.896278 -16.354484
Pb 3.270897 -22.896278 -13.083587
Pb 0.000000 -26.167174 -6.541794
Pb 3.270897 -26.167174 -9.812690
Pb 0.000000 -22.896278 -9.812690
Pb 3.270897 -22.896278 -6.541794
Pb 0.000000 -26.167174 -0.000000
Pb 3.270897 -26.167174 -3.270897
Pb 0.000000 -22.896278 -3.270897
Pb 3.270897 -22.896278 -0.000000
Pb 0.000000 -26.167174 6.541794
Pb 3.270897 -26.167174 3.270897
Pb 0.000000 -22.896278 3.270897
Pb 3.270897 -22.896278 6.541794
Pb 0.000000 -26.167174 13.083587
Pb 3.270897 -26.167174 9.812690
Pb 0.000000 -22.896278 9.812690
Pb 3.270897 -22.896278 13.083587
Pb 0.000000 -22.896278 16.354484
Pb 0.000000 -19.625381 -19.625381
Pb 0.000000 -16.354484 -22.896278
Pb 3.270897 -16.354484 -19.625381
Pb 0.000000 -19.625381 -13.083587
Pb 3.270897 -19.625381 -16.354484
Pb 0.000000 -16.354484 -16.354484
Pb 3.270897 -16.354484 -13.083587
Pb 0.000000 -19.625381 -6.541794
Pb 3.270897 -19.625381 -9.812690
Pb 0.000000 -16.354484 -9.812690
Pb 3.270897 -16.354484 -6.541794
Pb 0.000000 -19.625381 -0.000000
Pb 3.270897 -19.625381 -3.270897
Pb 0.000000 -16.354484 -3.270897
Pb 3.270897 -16.354484 -0.000000
Pb 0.000000 -19.625381 6.541794
Pb 3.270897 -19.625381 3.270897
Pb 0.000000 -16.354484 3.270897
Pb 3.270897 -16.354484 6.541794
Pb 0.000000 -19.625381 13.083587
Pb 3.270897 -19.625381 9.812690
Pb 0.000000 -16.354484 9.812690
Pb 3.270897 -16.354484 13.083587
Pb 0.000000 -19.625381 19.625381
Pb 3.270897 -19.625381 16.354484
Pb 0.000000 -16.354484 16.354484
Pb 3.270897 -16.354484 19.625381
Pb 0.000000 -16.354484 22.896278
Pb 0.000000 -13.083587 -26.167174
Pb 3.270897 -9.812690 -26.167174
Pb 0.000000 -13.083587 -19.625381
Pb 3.270897 -13.083587 -22.896278
Pb 0.000000 -9.812690 -22.896278
Pb 3.270897 -9.812690 -19.625381
Pb 0.000000 -13.083587 -13.083587
Pb 3.270897 -13.083587 -16.354484
Pb 0.000000 -9.812690 -16.354484
Pb 3.270897 -9.812690 -13.083587
Pb 0.000000 -13.083587 -6.541794
Pb 3.270897 -13.083587 -9.812690
Pb 0.000000 -9.812690 -9.812690
Pb 3.270897 -9.812690 -6.541794
Pb 0.000000 -13.083587 -0.000000
Pb 3.270897 -13.083587 -3.270897
Pb 0.000000 -9.812690 -3.270897
Pb 3.270897 -9.812690 -0.000000
Pb 0.000000 -13.083587 6.541794
Pb 3.270897 -13.083587 3.270897
Pb 0.000000 -9.812690 3.270897
Pb 3.270897 -9.812690 6.541794
Pb 0.000000 -13.083587 13.083587
Pb 3.270897 -13.083587 9.812690
Pb 0.000000 -9.812690 9.812690
Pb 3.270897 -9.812690 13.083587
Pb 0.000000 -13.083587 19.625381
Pb 3.270897 -13.083587 16.354484
Pb 0.000000 -9.812690 16.354484
Pb 3.270897 -9.812690 19.625381
Pb 0.000000 -13.083587 26.167174
Pb 3.270897 -13.083587 22.896278
Pb 0.000000 -9.812690 22.896278
Pb 3.270897 -9.812690 26.167174
Pb 0.000000 -6.541794 -26.167174
Pb 3.270897 -3.270897 -26.167174
Pb 0.000000 -6.541794 -19.625381
Pb 3.270897 -6.541794 -22.896278
Pb 0.000000 -3.270897 -22.896278
Pb 3.270897 -3.270897 -19.625381
Pb 0.000000 -6.541794 -13.083587
Pb 3.270897 -6.541794 -16.354484
Pb 0.000000 -3.270897 -16.354484
Pb 3.270897 -3.270897 -13.083587
Pb 0.000000 -6.541794 -6.541794
Pb 3.270897 -6.541794 -9.812690
Pb 0.000000 -3.270897 -9.812690
Pb 3.270897 -3.270897 -6.541794
Pb 0.000000 -6.541794 -0.000000
Pb 3.270897 -6.541794 -3.270897
Pb 0.000000 -3.270897 -3.270897
Pb 3.270897 -3.270897 -0.000000
Pb 0.000000 -6.541794 6.541794
Pb 3.270897 -6.541794 3.270897
Pb 0.000000 -3.270897 3.270897
Pb 3.270897 -3.270897 6.541794
Pb 0.000000 -6.541794 13.083587
Pb 3.270897 -6.541794 9.812690
Pb 0.000000 -3.270897 9.812690
Pb 3.270897 -3.270897 13.083587
Pb 0.000000 -6.541794 19.625381
Pb 3.270897 -6.541794 16.354484
Pb 0.000000 -3.270897 16.354484
Pb 3.270897 -3.270897 19.625381
Pb 0.000000 -6.541794 26.167174
Pb 3.270897 -6.541794 22.896278
Pb 0.000000 -3.270897 22.896278
Pb 3.270897 -3.270897 26.167174
Pb 0.000000 0.000000 -26.167174
Pb 3.270897 3.270897 -26.167174
Pb 0.000000 0.000000 -19.625381
Pb 3.270897 0.000000 -22.896278
Pb 0.000000 3.270897 -22.896278
Pb 3.270897 3.270897 -19.625381
Pb 0.000000 0.000000 -13.083587
Pb 3.270897 0.000000 -16.354484
Pb 0.000000 3.270897 -16.354484
Pb 3.270897 3.270897 -13.083587
Pb 0.000000 0.000000 -6.541794
Pb 3.270897 0.000000 -9.812690
Pb 0.000000 3.270897 -9.812690
Pb 3.270897 3.270897 -6.541794
Pb 0.000000 0.000000 -0.000000
Pb 3.270897 0.000000 -3.270897
Pb 0.000000 3.270897 -3.270897
Pb 3.270897 3.270897 0.000000
Pb 0.000000 0.000000 6.541794
Pb 3.270897 0.000000 3.270897
Pb 0.000000 3.270897 3.270897
Pb 3.270897 3.270897 6.541794
Pb 0.000000 0.000000 13.083587
Pb 3.270897 0.000000 9.812690
Pb 0.000000 3.270897 9.812690
Pb 3.270897 3.270897 13.083587
Pb 0.000000 0.000000 19.625381
Pb 3.270897 0.000000 16.354484
Pb 0.000000 3.270897 16.354484
Pb 3.270897 3.270897 19.625381
Pb 0.000000 0.000000 26.167174
Pb 3.270897 0.000000 22.896278
Pb 0.000000 3.270897 22.896278
Pb 3.270897 3.270897 26.167174
Pb 0.000000 6.541794 -26.167174
Pb 3.270897 9.812690 -26.167174
Pb 0.000000 6.541794 -19.625381
Pb 3.270897 6.541794 -22.896278
Pb 0.000000 9.812690 -22.896278
Pb 3.270897 9.812690 -19.625381
Pb 0.000000 6.541794 -13.083587
Pb 3.270897 6.541794 -16.354484
Pb 0.000000 9.812690 -16.354484
Pb 3.270897 9.812690 -13.083587
Pb 0.000000 6.541794 -6.541794
Pb 3.270897 6.541794 -9.812690
Pb 0.000000 9.812690 -9.812690
Pb 3.270897 9.812690 -6.541794
Pb 0.000000 6.541794 0.000000
Pb 3.270897 6.541794 -3.270897
Pb 0.000000 9.812690 -3.270897
Pb 3.270897 9.812690 0.000000
Pb 0.000000 6.541794 6.541794
Pb 3.270897 6.541794 3.270897
Pb 0.000000 9.812690 3.270897
Pb 3.270897 9.812690 6.541794
Pb 0.000000 6.541794 13.083587
Pb 3.270897 6.541794 9.812690
Pb 0.000000 9.812690 9.812690
Pb 3.270897 9.812690 13.083587
Pb 0.000000 6.541794 19.625381
Pb 3.270897 6.541794 16.354484
Pb 0.000000 9.812690 16.354484
Pb 3.270897 9.812690 19.625381
Pb 0.000000 6.541794 26.167174
Pb 3.270897 6.541794 22.896278
Pb 0.000000 9.812690 22.896278
Pb 3.270897 9.812690 26.167174
Pb 0.000000 13.083587 -26.167174
Pb 0.000000 13.083587 -19.625381
Pb 3.270897 13.083587 -22.896278
Pb 0.000000 16.354484 -22.896278
Pb 3.270897 16.354484 -19.625381
Pb 0.000000 13.083587 -13.083587
Pb 3.270897 13.083587 -16.354484
Pb 0.000000 16.354484 -16.354484
Pb 3.270897 16.354484 -13.083587
Pb 0.000000 13.083587 -6.541794
Pb 3.270897 13.083587 -9.812690
Pb 0.000000 16.354484 -9.812690
Pb 3.270897 16.354484 -6.541794
Pb 0.000000 13.083587 0.000000
Pb 3.270897 13.083587 -3.270897
Pb 0.000000 16.354484 -3.270897
Pb 3.270897 16.354484 0.000000
Pb 0.000000 13.083587 6.541794
Pb 3.270897 13.083587 3.270897
Pb 0.000000 16.354484 3.270897
Pb 3.270897 16.354484 6.541794
Pb 0.000000 13.083587 13.083587
Pb 3.270897 13.083587 9.812690
Pb 0.000000 16.354484 9.812690
Pb 3.270897 16.354484 13.083587
Pb 0.000000 13.083587 19.625381
Pb 3.270897 13.083587 16.354484
Pb 0.000000 16.354484 16.354484
Pb 3.270897 16.354484 19.625381
Pb 0.000000 13.083587 26.167174
Pb 3.270897 13.083587 22.896278
Pb 0.000000 16.354484 22.896278
Pb 0.000000 19.625381 -19.625381
Pb 0.000000 19.625381 -13.083587
Pb 3.270897 19.625381 -16.354484
Pb 0.000000 22.896278 -16.354484
Pb 3.270897 22.896278 -13.083587
Pb 0.000000 19.625381 -6.541794
Pb 3.270897 19.625381 -9.812690
Pb 0.000000 22.896278 -9.812690
Pb 3.270897 22.896278 -6.541794
Pb 0.000000 19.625381 0.000000
Pb 3.270897 19.625381 -3.270897
Pb 0.000000 22.896278 -3.270897
Pb 3.270897 22.896278 0.000000
Pb 0.000000 19.625381 6.541794
Pb 3.270897 19.625381 3.270897
Pb 0.000000 22.896278 3.270897
Pb 3.270897 22.896278 6.541794
Pb 0.000000 19.625381 13.083587
Pb 3.270897 19.625381 9.812690
Pb 0.000000 22.896278 9.812690
Pb 3.270897 22.896278 13.083587
Pb 0.000000 19.625381 19.625381
Pb 3.270897 19.625381 16.354484
Pb 0.000000 22.896278 16.354484
Pb 0.000000 26.167174 -13.083587
Pb 0.000000 26.167174 -6.541794
Pb 3.270897 26.167174 -9.812690
Pb 0.000000 26.167174 0.000000
Pb 3.270897 26.167174 -3.270897
Pb 0.000000 26.167174 6.541794
Pb 3.270897 26.167174 3.270897
Pb 0.000000 26.167174 13.083587
Pb 3.270897 26.167174 9.812690
Pb 6.541794 -26.167174 -6.541794
Pb 6.541794 -22.896278 -9.812690
Pb 9.812690 -22.896278 -6.541794
Pb 6.541794 -26.167174 -0.000000
Pb 9.812690 -26.167174 -3.270897
Pb 6.541794 -22.896278 -3.270897
Pb 9.812690 -22.896278 -0.000000
Pb 6.541794 -26.167174 6.541794
Pb 9.812690 -26.167174 3.270897
Pb 6.541794 -22.896278 3.270897
Pb 9.812690 -22.896278 6.541794
Pb 6.541794 -22.896278 9.812690
Pb 6.541794 -19.625381 -13.083587
Pb 6.541794 -16.354484 -16.354484
Pb 9.812690 -16.354484 -13.083587
Pb 6.541794 -19.625381 -6.541794
Pb 9.812690 -19.625381 -9.812690
Pb 6.541794 -16.354484 -9.812690
Pb 9.812690 -16.354484 -6.541794
Pb 6.541794 -19.625381 -0.000000
Pb 9.812690 -19.625381 -3.270897
Pb 6.541794 -16.354484 -3.270897
Pb 9.812690 -16.354484 -0.000000
Pb 6.541794 -19.625381 6.541794
Pb 9.812690 -19.625381 3.270897
Pb 6.541794 -16.354484 3.270897
Pb 9.812690 -16.354484 6.541794
Pb 6.541794 -19.625381 13.083587
Pb 9.812690 -19.625381 9.812690
Pb 6.541794 -16.354484 9.812690
Pb 9.812690 -16.354484 13.083587
Pb 6.541794 -16.354484 16.354484
Pb 6.541794 -13.083587 -19.625381
Pb 6.541794 -9.812690 -22.896278
Pb 9.812690 -9.812690 -19.625381
Pb 6.541794 -13.083587 -13.083587
Pb 9.812690 -13.083587 -16.354484
Pb 6.541794 -9.812690 -16.354484
Pb 9.812690 -9.812690 -13.083587
Pb 6.541794 -13.083587 -6.541794
Pb 9.812690 -13.083587 -9.812690
Pb 6.541794 -9.812690 -9.812690
Pb 9.812690 -9.812690 -6.541794
Pb 6.541794 -13.083587 -0.000000
Pb 9.812690 -13.083587 -3.270897
Pb 6.541794 -9.812690 -3.270897
Pb 9.812690 -9.812690 -0.000000
Pb 6.541794 -13.083587 6.541794
Pb 9.812690 -13.083587 3.270897
Pb 6.541794 -9.812690 3.270897
Pb 9.812690 -9.812690 6.541794
Pb 6.541794 -13.083587 13.083587
Pb 9.812690 -13.083587 9.812690
Pb 6.541794 -9.812690 9.812690
Pb 9.812690 -9.812690 13.083587
Pb 6.541794 -13.083587 19.625381
Pb 9.812690 -13.083587 16.354484
Pb 6.541794 -9.812690 16.354484
Pb 9.812690 -9.812690 19.625381
Pb 6.541794 -9.812690 22.896278
Pb 6.541794 -6.541794 -26.167174
Pb 9.812690 -3.270897 -26.167174
Pb 6.541794 -6.541794 -19.625381
Pb 9.812690 -6.541794 -22.896278
Pb 6.541794 -3.270897 -22.896278
Pb 9.812690 -3.270897 -19.625381
Pb 6.541794 -6.541794 -13.083587
Pb 9.812690 -6.541794 -16.354484
Pb 6.541794 -3.270897 -16.354484
Pb 9.812690 -3.270897 -13.083587
Pb 6.541794 -6.541794 -6.541794
Pb 9.812690 -6.541794 -9.812690
Pb 6.541794 -3.270897 -9.812690
Pb 9.812690 -3.270897 -6.541794
Pb 6.541794 -6.541794 -0.000000
Pb 9.812690 -6.541794 -3.270897
Pb 6.541794 -3.270897 -3.270897
Pb 9.812690 -3.270897 0.000000
Pb 6.541794 -6.541794 6.541794
Pb 9.812690 -6.541794 3.270897
Pb 6.541794 -3.270897 3.270897
Pb 9.812690 -3.270897 6.541794
Pb 6.541794 -6.541794 13.083587
Pb 9.812690 -6.541794 9.812690
Pb 6.541794 -3.270897 9.812690
Pb 9.812690 -3.270897 13.083587
Pb 6.541794 -6.541794 19.625381
Pb 9.812690 -6.541794 16.354484
Pb 6.541794 -3.270897 16.354484
Pb 9.812690 -3.270897 19.625381
Pb 6.541794 -6.541794 26.167174
Pb 9.812690 -6.541794 22.896278
Pb 6.541794 -3.270897 22.896278
Pb 9.812690 -3.270897 26.167174
Pb 6.541794 0.000000 -26.167174
Pb 9.812690 3.270897 -26.167174
Pb 6.541794 0.000000 -19.625381
Pb 9.812690 0.000000 -22.896278
Pb 6.541794 3.270897 -22.896278
Pb 9.812690 3.270897 -19.625381
Pb 6.541794 0.000000 -13.083587
Pb 9.812690 0.000000 -16.354484
Pb 6.541794 3.270897 -16.354484
Pb 9.812690 3.270897 -13.083587
Pb 6.541794 0.000000 -6.541794
Pb 9.812690 0.000000 -9.812690
Pb 6.541794 3.270897 -9.812690
Pb 9.812690 3.270897 -6.541794
Pb 6.541794 0.000000 0.000000
Pb 9.812690 0.000000 -3.270897
Pb 6.541794 3.270897 -3.270897
Pb 9.812690 3.270897 0.000000
Pb 6.541794 0.000000 6.541794
Pb 9.812690 0.000000 3.270897
Pb 6.541794 3.270897 3.270897
Pb 9.812690 3.270897 6.541794
Pb 6.541794 0.000000 13.083587
Pb 9.812690 0.000000 9.812690
Pb 6.541794 3.270897 9.812690
Pb 9.812690 3.270897 13.083587
Pb 6.541794 0.000000 19.625381
Pb 9.812690 0.000000 16.354484
Pb 6.541794 3.270897 16.354484
Pb 9.812690 3.270897 19.625381
Pb 6.541794 0.000000 26.167174
Pb 9.812690 0.000000 22.896278
Pb 6.541794 3.270897 22.896278
Pb 9.812690 3.270897 26.167174
Pb 6.541794 6.541794 -26.167174
Pb 6.541794 6.541794 -19.625381
Pb 9.812690 6.541794 -22.896278
Pb 6.541794 9.812690 -22.896278
Pb 9.812690 9.812690 -19.625381
Pb 6.541794 6.541794 -13.083587
Pb 9.812690 6.541794 -16.354484
Pb 6.541794 9.812690 -16.354484
Pb 9.812690 9.812690 -13.083587
Pb 6.541794 6.541794 -6.541794
Pb 9.812690 6.541794 -9.812690
Pb 6.541794 9.812690 -9.812690
Pb 9.812690 9.812690 -6.541794
Pb 6.541794 6.541794 0.000000
Pb 9.812690 6.541794 -3.270897
Pb 6.541794 9.812690 -3.270897
Pb 9.812690 9.812690 0.000000
Pb 6.541794 6.541794 6.541794
Pb 9.812690 6.541794 3.270897
Pb 6.541794 9.812690 3.270897
Pb 9.812690 9.812690 6.541794
Pb 6.541794 6.541794 13.083587
Pb 9.812690 6.541794 9.812690
Pb 6.541794 9.812690 9.812690
Pb 9.812690 9.812690 13.083587
Pb 6.541794 6.541794 19.625381
Pb 9.812690 6.541794 16.354484
Pb 6.541794 9.812690 16.354484
Pb 9.812690 9.812690 19.625381
Pb 6.541794 6.541794 26.167174
Pb 9.812690 6.541794 22.896278
Pb 6.541794 9.812690 22.896278
Pb 6.541794 13.083587 -19.625381
Pb 6.541794 13.083587 -13.083587
Pb 9.812690 13.083587 -16.354484
Pb 6.541794 16.354484 -16.354484
Pb 9.812690 16.354484 -13.083587
Pb 6.541794 13.083587 -6.541794
Pb 9.812690 13.083587 -9.812690
Pb 6.541794 16.354484 -9.812690
Pb 9.812690 16.354484 -6.541794
Pb 6.541794 13.083587 0.000000
Pb 9.812690 13.083587 -3.270897
Pb 6.541794 16.354484 -3.270897
Pb 9.812690 16.354484 0.000000
Pb 6.541794 13.083587 6.541794
Pb 9.812690 13.083587 3.270897
Pb 6.541794 16.354484 3.270897
Pb 9.812690 16.354484 6.541794
Pb 6.541794 13.083587 13.083587
Pb 9.812690 13.083587 9.812690
Pb 6.541794 16.354484 9.812690
Pb 9.812690 16.354484 13.083587
Pb 6.541794 13.083587 19.625381
Pb 9.812690 13.083587 16.354484
Pb 6.541794 16.354484 16.354484
Pb 6.541794 19.625381 -13.083587
Pb 6.541794 19.625381 -6.541794
Pb 9.812690 19.625381 -9.812690
Pb 6.541794 22.896278 -9.812690
Pb 9.812690 22.896278 -6.541794
Pb 6.541794 19.625381 0.000000
Pb 9.812690 19.625381 -3.270897
Pb 6.541794 22.896278 -3.270897
Pb 9.812690 22.896278 0.000000
Pb 6.541794 19.625381 6.541794
Pb 9.812690 19.625381 3.270897
Pb 6.541794 22.896278 3.270897
Pb 9.812690 22.896278 6.541794
Pb 6.541794 19.625381 13.083587
Pb 9.812690 19.625381 9.812690
Pb 6.541794 22.896278 9.812690
Pb 6.541794 26.167174 -6.541794
Pb 6.541794 26.167174 0.000000
Pb 9.812690 26.167174 -3.270897
Pb 6.541794 26.167174 6.541794
Pb 9.812690 26.167174 3.270897
Pb 13.083587 -26.167174 -0.000000
Pb 13.083587 -22.896278 -3.270897
Pb 16.354484 -22.896278 -0.000000
Pb 13.083587 -22.896278 3.270897
Pb 13.083587 -19.625381 -6.541794
Pb 13.083587 -16.354484 -9.812690
Pb 16.354484 -16.354484 -6.541794
Pb 13.083587 -19.625381 -0.000000
Pb 16.354484 -19.625381 -3.270897
Pb 13.083587 -16.354484 -3.270897
Pb 16.354484 -16.354484 -0.000000
Pb 13.083587 -19.625381 6.541794
Pb 16.354484 -19.625381 3.270897
Pb 13.083587 -16.354484 3.270897
Pb 16.354484 -16.354484 6.541794
Pb 13.083587 -16.354484 9.812690
Pb 13.083587 -13.083587 -13.083587
Pb 13.083587 -9.812690 -16.354484
Pb 16.354484 -9.812690 -13.083587
Pb 13.083587 -13.083587 -6.541794
Pb 16.354484 -13.083587 -9.812690
Pb 13.083587 -9.812690 -9.812690
Pb 16.354484 -9.812690 -6.541794
Pb 13.083587 -13.083587 -0.000000
Pb 16.354484 -13.083587 -3.270897
Pb 13.083587 -9.812690 -3.270897
Pb 16.354484 -9.812690 0.000000
Pb 13.083587 -13.083587 6.541794
Pb 16.354484 -13.083587 3.270897
Pb 13.083587 -9.812690 3.270897
Pb 16.354484 -9.812690 6.541794
Pb 13.083587 -13.083587 13.083587
Pb 16.354484 -13.083587 9.812690
Pb 13.083587 -9.812690 9.812690
Pb 16.354484 -9.812690 13.083587
Pb 13.083587 -9.812690 16.354484
Pb 13.083587 -6.541794 -19.625381
Pb 13.083587 -3.270897 -22.896278
Pb 16.354484 -3.270897 -19.625381
Pb 13.083587 -6.541794 -13.083587
Pb 16.354484 -6.541794 -16.354484
Pb 13.083587 -3.270897 -16.354484
Pb 16.354484 -3.270897 -13.083587
Pb 13.083587 -6.541794 -6.541794
Pb 16.354484 -6.541794 -9.812690
Pb 13.083587 -3.270897 -9.812690
Pb 16.354484 -3.270897 -6.541794
Pb 13.083587 -6.541794 0.000000
Pb 16.354484 -6.541794 -3.270897
Pb 13.083587 -3.270897 -3.270897
Pb 16.354484 -3.270897 0.000000
Pb 13.083587 -6.541794 6.541794
Pb 16.354484 -6.541794 3.270897
Pb 13.083587 -3.270897 3.270897
Pb 16.354484 -3.270897 6.541794
Pb 13.083587 -6.541794 13.083587
Pb 16.354484 -6.541794 9.812690
Pb 13.083587 -3.270897 9.812690
Pb 16.354484 -3.270897 13.083587
Pb 13.083587 -6.541794 19.625381
Pb 16.354484 -6.541794 16.354484
Pb 13.083587 -3.270897 16.354484
Pb 16.354484 -3.270897 19.625381
Pb 13.083587 -3.270897 22.896278
Pb 13.083587 0.000000 -26.167174
Pb 13.083587 0.000000 -19.625381
Pb 16.354484 0.000000 -22.896278
Pb 13.083587 3.270897 -22.896278
Pb 16.354484 3.270897 -19.625381
Pb 13.083587 0.000000 -13.083587
Pb 16.354484 0.000000 -16.354484
Pb 13.083587 3.270897 -16.354484
Pb 16.354484 3.270897 -13.083587
Pb 13.083587 0.000000 -6.541794
Pb 16.354484 0.000000 -9.812690
Pb 13.083587 3.270897 -9.812690
Pb 16.354484 3.270897 -6.541794
Pb 13.083587 0.000000 0.000000
Pb 16.354484 0.000000 -3.270897
Pb 13.083587 3.270897 -3.270897
Pb 16.354484 3.270897 0.000000
Pb 13.083587 0.000000 6.541794
Pb 16.354484 0.000000 3.270897
Pb 13.083587 3.270897 3.270897
Pb 16.354484 3.270897 6.541794
Pb 13.083587 0.000000 13.083587
Pb 16.354484 0.000000 9.812690
Pb 13.083587 3.270897 9.812690
Pb 16.354484 3.270897 13.083587
Pb 13.083587 0.000000 19.625381
Pb 16.354484 0.000000 16.354484
Pb 13.083587 3.270897 16.354484
Pb 16.354484 3.270897 19.625381
Pb 13.083587 0.000000 26.167174
Pb 16.354484 0.000000 22.896278
Pb 13.083587 3.270897 22.896278
Pb 13.083587 6.541794 -19.625381
Pb 13.083587 6.541794 -13.083587
Pb 16.354484 6.541794 -16.354484
Pb 13.083587 9.812690 -16.354484
Pb 16.354484 9.812690 -13.083587
Pb 13.083587 6.541794 -6.541794
Pb 16.354484 6.541794 -9.812690
Pb 13.083587 9.812690 -9.812690
Pb 16.354484 9.812690 -6.541794
Pb 13.083587 6.541794 0.000000
Pb 16.354484 6.541794 -3.270897
Pb 13.083587 9.812690 -3.270897
Pb 16.354484 9.812690 0.000000
Pb 13.083587 6.541794 6.541794
Pb 16.354484 6.541794 3.270897
Pb 13.083587 9.812690 3.270897
Pb 16.354484 9.812690 6.541794
Pb 13.083587 6.541794 13.083587
Pb 16.354484 6.541794 9.812690
Pb 13.083587 9.812690 9.812690
Pb 16.354484 9.812690 13.083587
Pb 13.083587 6.541794 19.625381
Pb 16.354484 6.541794 16.354484
Pb 13.083587 9.812690 16.354484
Pb 13.083587 13.083587 -13.083587
Pb 13.083587 13.083587 -6.541794
Pb 16.354484 13.083587 -9.812690
Pb 13.083587 16.354484 -9.812690
Pb 16.354484 16.354484 -6.541794
Pb 13.083587 13.083587 0.000000
Pb 16.354484 13.083587 -3.270897
Pb 13.083587 16.354484 -3.270897
Pb 16.354484 16.354484 0.000000
Pb 13.083587 13.083587 6.541794
Pb 16.354484 13.083587 3.270897
Pb 13.083587 16.354484 3.270897
Pb 16.354484 16.354484 6.541794
Pb 13.083587 13.083587 13.083587
Pb 16.354484 13.083587 9.812690
Pb 13.083587 16.354484 9.812690
Pb 13.083587 19.625381 -6.541794
Pb 13.083587 19.625381 0.000000
Pb 16.354484 19.625381 -3.270897
Pb 13.083587 22.896278 -3.270897
Pb 16.354484 22.896278 0.000000
Pb 13.083587 19.625381 6.541794
Pb 16.354484 19.625381 3.270897
Pb 13.083587 22.896278 3.270897
Pb 13.083587 26.167174 0.000000
Pb 19.625381 -19.625381 -0.000000
Pb 19.625381 -16.354484 -3.270897
Pb 22.896278 -16.354484 0.000000
Pb 19.625381 -16.354484 3.270897
Pb 19.625381 -13.083587 -6.541794
Pb 19.625381 -9.812690 -9.812690
Pb 22.896278 -9.812690 -6.541794
Pb 19.625381 -13.083587 0.000000
Pb 22.896278 -13.083587 -3.270897
Pb 19.625381 -9.812690 -3.270897
Pb 22.896278 -9.812690 0.000000
Pb 19.625381 -13.083587 6.541794
Pb 22.896278 -13.083587 3.270897
Pb 19.625381 -9.812690 3.270897
Pb 22.896278 -9.812690 6.541794
Pb 19.625381 -9.812690 9.812690
Pb 19.625381 -6.541794 -13.083587
Pb 19.625381 -3.270897 -16.354484
Pb 22.896278 -3.270897 -13.083587
Pb 19.625381 -6.541794 -6.541794
Pb 22.896278 -6.541794 -9.812690
Pb 19.625381 -3.270897 -9.812690
Pb 22.896278 -3.270897 -6.541794
Pb 19.625381 -6.541794 0.000000
Pb 22.896278 -6.541794 -3.270897
Pb 19.625381 -3.270897 -3.270897
Pb 22.896278 -3.270897 0.000000
Pb 19.625381 -6.541794 6.541794
Pb 22.896278 -6.541794 3.270897
Pb 19.625381 -3.270897 3.270897
Pb 22.896278 -3.270897 6.541794
Pb 19.625381 -6.541794 13.083587
Pb 22.896278 -6.541794 9.812690
Pb 19.625381 -3.270897 9.812690
Pb 22.896278 -3.270897 13.083587
Pb 19.625381 -3.270897 16.354484
Pb 19.625381 0.000000 -19.625381
Pb 19.625381 0.000000 -13.083587
Pb 22.896278 0.000000 -16.354484
Pb 19.625381 3.270897 -16.354484
Pb 22.896278 3.270897 -13.083587
Pb 19.625381 0.000000 -6.541794
Pb 22.896278 0.000000 -9.812690
Pb 19.625381 3.270897 -9.812690
Pb 22.896278 3.270897 -6.541794
Pb 19.625381 0.000000 0.000000
Pb 22.896278 0.000000 -3.270897
Pb 19.625381 3.270897 -3.270897
Pb 22.896278 3.270897 0.000000
Pb 19.625381 0.000000 6.541794
Pb 22.896278 0.000000 3.270897
Pb 19.625381 3.270897 3.270897
Pb 22.896278 3.270897 6.541794
Pb 19.625381 0.000000 13.083587
Pb 22.896278 0.000000 9.812690
Pb 19.625381 3.270897 9.812690
Pb 22.896278 3.270897 13.083587
Pb 19.625381 0.000000 19.625381
Pb 22.896278 0.000000 16.354484
Pb 19.625381 3.270897 16.354484
Pb 19.625381 6.541794 -13.083587
Pb 19.625381 6.541794 -6.541794
Pb 22.896278 6.541794 -9.812690
Pb 19.625381 9.812690 -9.812690
Pb 22.896278 9.812690 -6.541794
Pb 19.625381 6.541794 0.000000
Pb 22.896278 6.541794 -3.270897
Pb 19.625381 9.812690 -3.270897
Pb 22.896278 9.812690 0.000000
Pb 19.625381 6.541794 6.541794
Pb 22.896278 6.541794 3.270897
Pb 19.625381 9.812690 3.270897
Pb 22.896278 9.812690 6.541794
Pb 19.625381 6.541794 13.083587
Pb 22.896278 6.541794 9.812690
Pb 19.625381 9.812690 9.812690
Pb 19.625381 13.083587 -6.541794
Pb 19.625381 13.083587 0.000000
Pb 22.896278 13.083587 -3.270897
Pb 19.625381 16.354484 -3.270897
Pb 22.896278 16.354484 0.000000
Pb 19.625381 13.083587 6.541794
Pb 22.896278 13.083587 3.270897
Pb 19.625381 16.354484 3.270897
Pb 19.625381 19.625381 0.000000
Pb 26.167174 -13.083587 0.000000
Pb 26.167174 -9.812690 -3.270897
Pb 26.167174 -9.812690 3.270897
Pb 26.167174 -6.541794 -6.541794
Pb 26.167174 -3.270897 -9.812690
Pb 26.167174 -6.541794 0.000000
Pb 26.167174 -3.270897 -3.270897
Pb 26.167174 -6.541794 6.541794
Pb 26.167174 -3.270897 3.270897
Pb 26.167174 -3.270897 9.812690
Pb 26.167174 0.000000 -13.083587
Pb 26.167174 0.000000 -6.541794
Pb 26.167174 3.270897 -9.812690
Pb 26.167174 0.000000 0.000000
Pb 26.167174 3.270897 -3.270897
Pb 26.167174 0.000000 6.541794
Pb 26.167174 3.270897 3.270897
Pb 26.167174 0.000000 13.083587
Pb 26.167174 3.270897 9.812690
Pb 26.167174 6.541794 -6.541794
Pb 26.167174 6.541794 0.000000
Pb 26.167174 9.812690 -3.270897
Pb 26.167174 6.541794 6.541794
Pb 26.167174 9.812690 3.270897
Pb 26.167174 13.083587 0.000000
Te -22.896278 -9.812690 -3.270897
Te -22.896278 -13.083587 -0.000000
Te -26.167174 -9.812690 -0.000000
Te -22.896278 -9.812690 3.270897
Te -22.896278 -3.270897 -9.812690
Te -22.896278 -6.541794 -6.541794
Te -26.167174 -3.270897 -6.541794
Te -26.167174 -6.541794 -3.270897
Te -22.896278 -3.270897 -3.270897
Te -22.896278 -6.541794 -0.000000
Te -26.167174 -3.270897 -0.000000
Te -26.167174 -6.541794 3.270897
Te -22.896278 -3.270897 3.270897
Te -22.896278 -6.541794 6.541794
Te -26.167174 -3.270897 6.541794
Te -22.896278 -3.270897 9.812690
Te -22.896278 0.000000 -13.083587
Te -26.167174 0.000000 -9.812690
Te -22.896278 3.270897 -9.812690
Te -22.896278 0.000000 -6.541794
Te -26.167174 3.270897 -6.541794
Te -26.167174 0.000000 -3.270897
Te -22.896278 3.270897 -3.270897
Te -22.896278 0.000000 -0.000000
Te -26.167174 3.270897 -0.000000
Te -26.167174 0.000000 3.270897
Te -22.896278 3.270897 3.270897
Te -22.896278 0.000000 6.541794
Te -26.167174 3.270897 6.541794
Te -26.167174 0.000000 9.812690
Te -22.896278 3.270897 9.812690
Te -22.896278 0.000000 13.083587
Te -22.896278 6.541794 -6.541794
Te -26.167174 6.541794 -3.270897
Te -22.896278 9.812690 -3.270897
Te -22.896278 6.541794 -0.000000
Te -26.167174 9.812690 -0.000000
Te -26.167174 6.541794 3.270897
Te -22.896278 9.812690 3.270897
Te -22.896278 6.541794 6.541794
Te -22.896278 13.083587 -0.000000
Te -16.354484 -16.354484 -3.270897
Te -16.354484 -19.625381 -0.000000
Te -19.625381 -16.354484 -0.000000
Te -16.354484 -16.354484 3.270897
Te -16.354484 -9.812690 -9.812690
Te -16.354484 -13.083587 -6.541794
Te -19.625381 -9.812690 -6.541794
Te -19.625381 -13.083587 -3.270897
Te -16.354484 -9.812690 -3.270897
Te -16.354484 -13.083587 -0.000000
Te -19.625381 -9.812690 -0.000000
Te -19.625381 -13.083587 3.270897
Te -16.354484 -9.812690 3.270897
Te -16.354484 -13.083587 6.541794
Te -19.625381 -9.812690 6.541794
Te -16.354484 -9.812690 9.812690
Te -16.354484 -3.270897 -16.354484
Te -16.354484 -6.541794 -13.083587
Te -19.625381 -3.270897 -13.083587
Te -19.625381 -6.541794 -9.812690
Te -16.354484 -3.270897 -9.812690
Te -16.354484 -6.541794 -6.541794
Te -19.625381 -3.270897 -6.541794
Te -19.625381 -6.541794 -3.270897
Te -16.354484 -3.270897 -3.270897
Te -16.354484 -6.541794 -0.000000
Te -19.625381 -3.270897 -0.000000
Te -19.625381 -6.541794 3.270897
Te -16.354484 -3.270897 3.270897
Te -16.354484 -6.541794 6.541794
Te -19.625381 -3.270897 6.541794
Te -19.625381 -6.541794 9.812690
Te -16.354484 -3.270897 9.812690
Te -16.354484 -6.541794 13.083587
Te -19.625381 -3.270897 13.083587
Te -16.354484 -3.270897 16.354484
Te -16.354484 0.000000 -19.625381
Te -19.625381 0.000000 -16.354484
Te -16.354484 3.270897 -16.354484
Te -16.354484 0.000000 -13.083587
Te -19.625381 3.270897 -13.083587
Te -19.625381 0.000000 -9.812690
Te -16.354484 3.270897 -9.812690
Te -16.354484 0.000000 -6.541794
Te -19.625381 3.270897 -6.541794
Te -19.625381 0.000000 -3.270897
Te -16.354484 3.270897 -3.270897
Te -16.354484 0.000000 -0.000000
Te -19.625381 3.270897 -0.000000
Te -19.625381 0.000000 3.270897
Te -16.354484 3.270897 3.270897
Te -16.354484 0.000000 6.541794
Te -19.625381 3.270897 6.541794
Te -19.625381 0.000000 9.812690
Te -16.354484 3.270897 9.812690
Te -16.354484 0.000000 13.083587
Te -19.625381 3.270897 13.083587
Te -19.625381 0.000000 16.354484
Te -16.354484 3.270897 16.354484
Te -16.354484 0.000000 19.625381
Te -16.354484 6.541794 -13.083587
Te -19.625381 6.541794 -9.812690
Te -16.354484 9.812690 -9.812690
Te -16.354484 6.541794 -6.541794
Te -19.625381 9.812690 -6.541794
Te -19.625381 6.541794 -3.270897
Te -16.354484 9.812690 -3.270897
Te -16.354484 6.541794 -0.000000
Te -19.625381 9.812690 -0.000000
Te -19.625381 6.541794 3.270897
Te -16.354484 9.812690 3.270897
Te -16.354484 6.541794 6.541794
Te -19.625381 9.812690 6.541794
Te -19.625381 6.541794 9.812690
Te -16.354484 9.812690 9.812690
Te -16.354484 6.541794 13.083587
Te -16.354484 13.083587 -6.541794
Te -19.625381 13.083587 -3.270897
Te -16.354484 16.354484 -3.270897
Te -16.354484 13.083587 -0.000000
Te -19.625381 16.354484 -0.000000
Te -19.625381 13.083587 3.270897
Te -16.354484 16.354484 3.270897
Te -16.354484 13.083587 6.541794
Te -16.354484 19.625381 -0.000000
Te -9.812690 -22.896278 -3.270897
Te -9.812690 -26.167174 -0.000000
Te -13.083587 -22.896278 -0.000000
Te -9.812690 -22.896278 3.270897
Te -9.812690 -16.354484 -9.812690
Te -9.812690 -19.625381 -6.541794
Te -13.083587 -16.354484 -6.541794
Te -13.083587 -19.625381 -3.270897
Te -9.812690 -16.354484 -3.270897
Te -9.812690 -19.625381 -0.000000
Te -13.083587 -16.354484 -0.000000
Te -13.083587 -19.625381 3.270897
Te -9.812690 -16.354484 3.270897
Te -9.812690 -19.625381 6.541794
Te -13.083587 -16.354484 6.541794
Te -9.812690 -16.354484 9.812690
Te -9.812690 -9.812690 -16.354484
Te -9.812690 -13.083587 -13.083587
Te -13.083587 -9.812690 -13.083587
Te -13.083587 -13.083587 -9.812690
Te -9.812690 -9.812690 -9.812690
Te -9.812690 -13.083587 -6.541794
Te -13.083587 -9.812690 -6.541794
Te -13.083587 -13.083587 -3.270897
Te -9.812690 -9.812690 -3.270897
Te -9.812690 -13.083587 -0.000000
Te -13.083587 -9.812690 -0.000000
Te -13.083587 -13.083587 3.270897
Te -9.812690 -9.812690 3.270897
Te -9.812690 -13.083587 6.541794
Te -13.083587 -9.812690 6.541794
Te -13.083587 -13.083587 9.812690
Te -9.812690 -9.812690 9.812690
Te -9.812690 -13.083587 13.083587
Te -13.083587 -9.812690 13.083587
Te -9.812690 -9.812690 16.354484
Te -9.812690 -3.270897 -22.896278
Te -9.812690 -6.541794 -19.625381
Te -13.083587 -3.270897 -19.625381
Te -13.083587 -6.541794 -16.354484
Te -9.812690 -3.270897 -16.354484
Te -9.812690 -6.541794 -13.083587
Te -13.083587 -3.270897 -13.083587
Te -13.083587 -6.541794 -9.812690
Te -9.812690 -3.270897 -9.812690
Te -9.812690 -6.541794 -6.541794
Te -13.083587 -3.270897 -6.541794
Te -13.083587 -6.541794 -3.270897
Te -9.812690 -3.270897 -3.270897
Te -9.812690 -6.541794 -0.000000
Te -13.083587 -3.270897 -0.000000
Te -13.083587 -6.541794 3.270897
Te -9.812690 -3.270897 3.270897
Te -9.812690 -6.541794 6.541794
Te -13.083587 -3.270897 6.541794
Te -13.083587 -6.541794 9.812690
Te -9.812690 -3.270897 9.812690
Te -9.812690 -6.541794 13.083587
Te -13.083587 -3.270897 13.083587
Te -13.083587 -6.541794 16.354484
Te -9.812690 -3.270897 16.354484
Te -9.812690 -6.541794 19.625381
Te -13.083587 -3.270897 19.625381
Te -9.812690 -3.270897 22.896278
Te -9.812690 0.000000 -26.167174
Te -13.083587 0.000000 -22.896278
Te -9.812690 3.270897 -22.896278
Te -9.812690 0.000000 -19.625381
Te -13.083587 3.270897 -19.625381
Te -13.083587 0.000000 -16.354484
Te -9.812690 3.270897 -16.354484
Te -9.812690 0.000000 -13.083587
Te -13.083587 3.270897 -13.083587
Te -13.083587 0.000000 -9.812690
Te -9.812690 3.270897 -9.812690
Te -9.812690 0.000000 -6.541794
Te -13.083587 3.270897 -6.541794
Te -13.083587 0.000000 -3.270897
Te -9.812690 3.270897 -3.270897
Te -9.812690 0.000000 -0.000000
Te -13.083587 3.270897 -0.000000
Te -13.083587 0.000000 3.270897
Te -9.812690 3.270897 3.270897
Te -9.812690 0.000000 6.541794
Te -13.083587 3.270897 6.541794
Te -13.083587 0.000000 9.812690
Te -9.812690 3.270897 9.812690
Te -9.812690 0.000000 13.083587
Te -13.083587 3.270897 13.083587
Te -13.083587 0.000000 16.354484
Te -9.812690 3.270897 16.354484
Te -9.812690 0.000000 19.625381
Te -13.083587 3.270897 19.625381
Te -13.083587 0.000000 22.896278
Te -9.812690 3.270897 22.896278
Te -9.812690 0.000000 26.167174
Te -9.812690 6.541794 -19.625381
Te -13.083587 6.541794 -16.354484
Te -9.812690 9.812690 -16.354484
Te -9.812690 6.541794 -13.083587
Te -13.083587 9.812690 -13.083587
Te -13.083587 6.541794 -9.812690
Te -9.812690 9.812690 -9.812690
Te -9.812690 6.541794 -6.541794
Te -13.083587 9.812690 -6.541794
Te -13.083587 6.541794 -3.270897
Te -9.812690 9.812690 -3.270897
Te -9.812690 6.541794 -0.000000
Te -13.083587 9.812690 -0.000000
Te -13.083587 6.541794 3.270897
Te -9.812690 9.812690 3.270897
Te -9.812690 6.541794 6.541794
Te -13.083587 9.812690 6.541794
Te -13.083587 6.541794 9.812690
Te -9.812690 9.812690 9.812690
Te -9.812690 6.541794 13.083587
Te -13.083587 9.812690 13.083587
Te -13.083587 6.541794 16.354484
Te -9.812690 9.812690 16.354484
Te -9.812690 6.541794 19.625381
Te -9.812690 13.083587 -13.083587
Te -13.083587 13.083587 -9.812690
Te -9.812690 16.354484 -9.812690
Te -9.812690 13.083587 -6.541794
Te -13.083587 16.354484 -6.541794
Te -13.083587 13.083587 -3.270897
Te -9.812690 16.354484 -3.270897
Te -9.812690 13.083587 -0.000000
Te -13.083587 16.354484 -0.000000
Te -13.083587 13.083587 3.270897
Te -9.812690 16.354484 3.270897
Te -9.812690 13.083587 6.541794
Te -13.083587 16.354484 6.541794
Te -13.083587 13.083587 9.812690
Te -9.812690 16.354484 9.812690
Te -9.812690 13.083587 13.083587
Te -9.812690 19.625381 -6.541794
Te -13.083587 19.625381 -3.270897
Te -9.812690 22.896278 -3.270897
Te -9.812690 19.625381 0.000000
Te -13.083587 22.896278 0.000000
Te -13.083587 19.625381 3.270897
Te -9.812690 22.896278 3.270897
Te -9.812690 19.625381 6.541794
Te -9.812690 26.167174 0.000000
Te -3.270897 -22.896278 -9.812690
Te -3.270897 -26.167174 -6.541794
Te -6.541794 -22.896278 -6.541794
Te -6.541794 -26.167174 -3.270897
Te -3.270897 -22.896278 -3.270897
Te -3.270897 -26.167174 -0.000000
Te -6.541794 -22.896278 -0.000000
Te -6.541794 -26.167174 3.270897
Te -3.270897 -22.896278 3.270897
Te -3.270897 -26.167174 6.541794
Te -6.541794 -22.896278 6.541794
Te -3.270897 -22.896278 9.812690
Te -3.270897 -16.354484 -16.354484
Te -3.270897 -19.625381 -13.083587
Te -6.541794 -16.354484 -13.083587
Te -6.541794 -19.625381 -9.812690
Te -3.270897 -16.354484 -9.812690
Te -3.270897 -19.625381 -6.541794
Te -6.541794 -16.354484 -6.541794
Te -6.541794 -19.625381 -3.270897
Te -3.270897 -16.354484 -3.270897
Te -3.270897 -19.625381 -0.000000
Te -6.541794 -16.354484 -0.000000
Te -6.541794 -19.625381 3.270897
Te -3.270897 -16.354484 3.270897
Te -3.270897 -19.625381 6.541794
Te -6.541794 -16.354484 6.541794
Te -6.541794 -19.625381 9.812690
Te -3.270897 -16.354484 9.812690
Te -3.270897 -19.625381 13.083587
Te -6.541794 -16.354484 13.083587
Te -3.270897 -16.354484 16.354484
Te -3.270897 -9.812690 -22.896278
Te -3.270897 -13.083587 -19.625381
Te -6.541794 -9.812690 -19.625381
Te -6.541794 -13.083587 -16.354484
Te -3.270897 -9.812690 -16.354484
Te -3.270897 -13.083587 -13.083587
Te -6.541794 -9.812690 -13.083587
Te -6.541794 -13.083587 -9.812690
Te -3.270897 -9.812690 -9.812690
Te -3.270897 -13.083587 -6.541794
Te -6.541794 -9.812690 -6.541794
Te -6.541794 -13.083587 -3.270897
Te -3.270897 -9.812690 -3.270897
Te -3.270897 -13.083587 -0.000000
Te -6.541794 -9.812690 -0.000000
Te -6.541794 -13.083587 3.270897
Te -3.270897 -9.812690 3.270897
Te -3.270897 -13.083587 6.541794
Te -6.541794 -9.812690 6.541794
Te -6.541794 -13.083587 9.812690
Te -3.270897 -9.812690 9.812690
Te -3.270897 -13.083587 13.083587
Te -6.541794 -9.812690 13.083587
Te -6.541794 -13.083587 16.354484
Te -3.270897 -9.812690 16.354484
Te -3.270897 -13.083587 19.625381
Te -6.541794 -9.812690 19.625381
Te -3.270897 -9.812690 22.896278
Te -3.270897 -6.541794 -26.167174
Te -6.541794 -3.270897 -26.167174
Te -6.541794 -6.541794 -22.896278
Te -3.270897 -3.270897 -22.896278
Te -3.270897 -6.541794 -19.625381
Te -6.541794 -3.270897 -19.625381
Te -6.541794 -6.541794 -16.354484
Te -3.270897 -3.270897 -16.354484
Te -3.270897 -6.541794 -13.083587
Te -6.541794 -3.270897 -13.083587
Te -6.541794 -6.541794 -9.812690
Te -3.270897 -3.270897 -9.812690
Te -3.270897 -6.541794 -6.541794
Te -6.541794 -3.270897 -6.541794
Te -6.541794 -6.541794 -3.270897
Te -3.270897 -3.270897 -3.270897
Te -3.270897 -6.541794 -0.000000
Te -6.541794 -3.270897 -0.000000
Te -6.541794 -6.541794 3.270897
Te -3.270897 -3.270897 3.270897
Te -3.270897 -6.541794 6.541794
Te -6.541794 -3.270897 6.541794
Te -6.541794 -6.541794 9.812690
Te -3.270897 -3.270897 9.812690
Te -3.270897 -6.541794 13.083587
Te -6.541794 -3.270897 13.083587
Te -6.541794 -6.541794 16.354484
Te -3.270897 -3.270897 16.354484
Te -3.270897 -6.541794 19.625381
Te -6.541794 -3.270897 19.625381
Te -6.541794 -6.541794 22.896278
Te -3.270897 -3.270897 22.896278
Te -3.270897 -6.541794 26.167174
Te -6.541794 -3.270897 26.167174
Te -3.270897 0.000000 -26.167174
Te -6.541794 3.270897 -26.167174
Te -6.541794 0.000000 -22.896278
Te -3.270897 3.270897 -22.896278
Te -3.270897 0.000000 -19.625381
Te -6.541794 3.270897 -19.625381
Te -6.541794 0.000000 -16.354484
Te -3.270897 3.270897 -16.354484
Te -3.270897 0.000000 -13.083587
Te -6.541794 3.270897 -13.083587
Te -6.541794 0.000000 -9.812690
Te -3.270897 3.270897 -9.812690
Te -3.270897 0.000000 -6.541794
Te -6.541794 3.270897 -6.541794
Te -6.541794 0.000000 -3.270897
Te -3.270897 3.270897 -3.270897
Te -3.270897 0.000000 -0.000000
Te -6.541794 3.270897 -0.000000
Te -6.541794 0.000000 3.270897
Te -3.270897 3.270897 3.270897
Te -3.270897 0.000000 6.541794
Te -6.541794 3.270897 6.541794
Te -6.541794 0.000000 9.812690
Te -3.270897 3.270897 9.812690
Te -3.270897 0.000000 13.083587
Te -6.541794 3.270897 13.083587
Te -6.541794 0.000000 16.354484
Te -3.270897 3.270897 16.354484
Te -3.270897 0.000000 19.625381
Te -6.541794 3.270897 19.625381
Te -6.541794 0.000000 22.896278
Te -3.270897 3.270897 22.896278
Te -3.270897 0.000000 26.167174
Te -6.541794 3.270897 26.167174
Te -3.270897 6.541794 -26.167174
Te -6.541794 6.541794 -22.896278
Te -3.270897 9.812690 -22.896278
Te -3.270897 6.541794 -19.625381
Te -6.541794 9.812690 -19.625381
Te -6.541794 6.541794 -16.354484
Te -3.270897 9.812690 -16.354484
Te -3.270897 6.541794 -13.083587
Te -6.541794 9.812690 -13.083587
Te -6.541794 6.541794 -9.812690
Te -3.270897 9.812690 -9.812690
Te -3.270897 6.541794 -6.541794
Te -6.541794 9.812690 -6.541794
Te -6.541794 6.541794 -3.270897
Te -3.270897 9.812690 -3.270897
Te -3.270897 6.541794 -0.000000
Te -6.541794 9.812690 -0.000000
Te -6.541794 6.541794 3.270897
Te -3.270897 9.812690 3.270897
Te -3.270897 6.541794 6.541794
Te -6.541794 9.812690 6.541794
Te -6.541794 6.541794 9.812690
Te -3.270897 9.812690 9.812690
Te -3.270897 6.541794 13.083587
Te -6.541794 9.812690 13.083587
Te -6.541794 6.541794 16.354484
Te -3.270897 9.812690 16.354484
Te -3.270897 6.541794 19.625381
Te -6.541794 9.812690 19.625381
Te -6.541794 6.541794 22.896278
Te -3.270897 9.812690 22.896278
Te -3.270897 6.541794 26.167174
Te -3.270897 13.083587 -19.625381
Te -6.541794 13.083587 -16.354484
Te -3.270897 16.354484 -16.354484
Te -3.270897 13.083587 -13.083587
Te -6.541794 16.354484 -13.083587
Te -6.541794 13.083587 -9.812690
Te -3.270897 16.354484 -9.812690
Te -3.270897 13.083587 -6.541794
Te -6.541794 16.354484 -6.541794
Te -6.541794 13.083587 -3.270897
Te -3.270897 16.354484 -3.270897
Te -3.270897 13.083587 0.000000
Te -6.541794 16.354484 0.000000
Te -6.541794 13.083587 3.270897
Te -3.270897 16.354484 3.270897
Te -3.270897 13.083587 6.541794
Te -6.541794 16.354484 6.541794
Te -6.541794 13.083587 9.812690
Te -3.270897 16.354484 9.812690
Te -3.270897 13.083587 13.083587
Te -6.541794 16.354484 13.083587
Te -6.541794 13.083587 16.354484
Te -3.270897 16.354484 16.354484
Te -3.270897 13.083587 19.625381
Te -3.270897 19.625381 -13.083587
Te -6.541794 19.625381 -9.812690
Te -3.270897 22.896278 -9.812690
Te -3.270897 19.625381 -6.541794
Te -6.541794 22.896278 -6.541794
Te -6.541794 19.625381 -3.270897
Te -3.270897 22.896278 -3.270897
Te -3.270897 19.625381 0.000000
Te -6.541794 22.896278 0.000000
Te -6.541794 19.625381 3.270897
Te -3.270897 22.896278 3.270897
Te -3.270897 19.625381 6.541794
Te -6.541794 22.896278 6.541794
Te -6.541794 19.625381 9.812690
Te -3.270897 22.896278 9.812690
Te -3.270897 19.625381 13.083587
Te -3.270897 26.167174 -6.541794
Te -6.541794 26.167174 -3.270897
Te -3.270897 26.167174 0.000000
Te -6.541794 26.167174 3.270897
Te -3.270897 26.167174 6.541794
Te 0.000000 -22.896278 -13.083587
Te 0.000000 -26.167174 -9.812690
Te 3.270897 -22.896278 -9.812690
Te 3.270897 -26.167174 -6.541794
Te 0.000000 -22.896278 -6.541794
Te 0.000000 -26.167174 -3.270897
Te 3.270897 -22.896278 -3.270897
Te 3.270897 -26.167174 -0.000000
Te 0.000000 -22.896278 -0.000000
Te 0.000000 -26.167174 3.270897
Te 3.270897 -22.896278 3.270897
Te 3.270897 -26.167174 6.541794
Te 0.000000 -22.896278 6.541794
Te 0.000000 -26.167174 9.812690
Te 3.270897 -22.896278 9.812690
Te 0.000000 -22.896278 13.083587
Te 0.000000 -16.354484 -19.625381
Te 0.000000 -19.625381 -16.354484
Te 3.270897 -16.354484 -16.354484
Te 3.270897 -19.625381 -13.083587
Te 0.000000 -16.354484 -13.083587
Te 0.000000 -19.625381 -9.812690
Te 3.270897 -16.354484 -9.812690
Te 3.270897 -19.625381 -6.541794
Te 0.000000 -16.354484 -6.541794
Te 0.000000 -19.625381 -3.270897
Te 3.270897 -16.354484 -3.270897
Te 3.270897 -19.625381 -0.000000
Te 0.000000 -16.354484 -0.000000
Te 0.000000 -19.625381 3.270897
Te 3.270897 -16.354484 3.270897
Te 3.270897 -19.625381 6.541794
Te 0.000000 -16.354484 6.541794
Te 0.000000 -19.625381 9.812690
Te 3.270897 -16.354484 9.812690
Te 3.270897 -19.625381 13.083587
Te 0.000000 -16.354484 13.083587
Te 0.000000 -19.625381 16.354484
Te 3.270897 -16.354484 16.354484
Te 0.000000 -16.354484 19.625381
Te 0.000000 -9.812690 -26.167174
Te 0.000000 -13.083587 -22.896278
Te 3.270897 -9.812690 -22.896278
Te 3.270897 -13.083587 -19.625381
Te 0.000000 -9.812690 -19.625381
Te 0.000000 -13.083587 -16.354484
Te 3.270897 -9.812690 -16.354484
Te 3.270897 -13.083587 -13.083587
Te 0.000000 -9.812690 -13.083587
Te 0.000000 -13.083587 -9.812690
Te 3.270897 -9.812690 -9.812690
Te 3.270897 -13.083587 -6.541794
Te 0.000000 -9.812690 -6.541794
Te 0.000000 -13.083587 -3.270897
Te 3.270897 -9.812690 -3.270897
Te 3.270897 -13.083587 -0.000000
Te 0.000000 -9.812690 -0.000000
Te 0.000000 -13.083587 3.270897
Te 3.270897 -9.812690 3.270897
Te 3.270897 -13.083587 6.541794
Te 0.000000 -9.812690 6.541794
Te 0.000000 -13.083587 9.812690
Te 3.270897 -9.812690 9.812690
Te 3.270897 -13.083587 13.083587
Te 0.000000 -9.812690 13.083587
Te 0.000000 -13.083587 16.354484
Te 3.270897 -9.812690 16.354484
Te 3.270897 -13.083587 19.625381
Te 0.000000 -9.812690 19.625381
Te 0.000000 -13.083587 22.896278
Te 3.270897 -9.812690 22.896278
Te 0.000000 -9.812690 26.167174
Te 3.270897 -6.541794 -26.167174
Te 0.000000 -3.270897 -26.167174
Te 0.000000 -6.541794 -22.896278
Te 3.270897 -3.270897 -22.896278
Te 3.270897 -6.541794 -19.625381
Te 0.000000 -3.270897 -19.625381
Te 0.000000 -6.541794 -16.354484
Te 3.270897 -3.270897 -16.354484
Te 3.270897 -6.541794 -13.083587
Te 0.000000 -3.270897 -13.083587
Te 0.000000 -6.541794 -9.812690
Te 3.270897 -3.270897 -9.812690
Te 3.270897 -6.541794 -6.541794
Te 0.000000 -3.270897 -6.541794
Te 0.000000 -6.541794 -3.270897
Te 3.270897 -3.270897 -3.270897
Te 3.270897 -6.541794 -0.000000
Te 0.000000 -3.270897 -0.000000
Te 0.000000 -6.541794 3.270897
Te 3.270897 -3.270897 3.270897
Te 3.270897 -6.541794 6.541794
Te 0.000000 -3.270897 6.541794
Te 0.000000 -6.541794 9.812690
Te 3.270897 -3.270897 9.812690
Te 3.270897 -6.541794 13.083587
Te 0.000000 -3.270897 13.083587
Te 0.000000 -6.541794 16.354484
Te 3.270897 -3.270897 16.354484
Te 3.270897 -6.541794 19.625381
Te 0.000000 -3.270897 19.625381
Te 0.000000 -6.541794 22.896278
Te 3.270897 -3.270897 22.896278
Te 3.270897 -6.541794 26.167174
Te 0.000000 -3.270897 26.167174
Te 3.270897 0.000000 -26.167174
Te 0.000000 3.270897 -26.167174
Te 0.000000 0.000000 -22.896278
Te 3.270897 3.270897 -22.896278
Te 3.270897 0.000000 -19.625381
Te 0.000000 3.270897 -19.625381
Te 0.000000 0.000000 -16.354484
Te 3.270897 3.270897 -16.354484
Te 3.270897 0.000000 -13.083587
Te 0.000000 3.270897 -13.083587
Te 0.000000 0.000000 -9.812690
Te 3.270897 3.270897 -9.812690
Te 3.270897 0.000000 -6.541794
Te 0.000000 3.270897 -6.541794
Te 0.000000 0.000000 -3.270897
Te 3.270897 3.270897 -3.270897
Te 3.270897 0.000000 -0.000000
Te 0.000000 3.270897 -0.000000
Te 0.000000 0.000000 3.270897
Te 3.270897 3.270897 3.270897
Te 3.270897 0.000000 6.541794
Te 0.000000 3.270897 6.541794
Te 0.000000 0.000000 9.812690
Te 3.270897 3.270897 9.812690
Te 3.270897 0.000000 13.083587
Te 0.000000 3.270897 13.083587
Te 0.000000 0.000000 16.354484
Te 3.270897 3.270897 16.354484
Te 3.270897 0.000000 19.625381
Te 0.000000 3.270897 19.625381
Te 0.000000 0.000000 22.896278
Te 3.270897 3.270897 22.896278
Te 3.270897 0.000000 26.167174
Te 0.000000 3.270897 26.167174
Te 3.270897 6.541794 -26.167174
Te 0.000000 9.812690 -26.167174
Te 0.000000 6.541794 -22.896278
Te 3.270897 9.812690 -22.896278
Te 3.270897 6.541794 -19.625381
Te 0.000000 9.812690 -19.625381
Te 0.000000 6.541794 -16.354484
Te 3.270897 9.812690 -16.354484
Te 3.270897 6.541794 -13.083587
Te 0.000000 9.812690 -13.083587
Te 0.000000 6.541794 -9.812690
Te 3.270897 9.812690 -9.812690
Te 3.270897 6.541794 -6.541794
Te 0.000000 9.812690 -6.541794
Te 0.000000 6.541794 -3.270897
Te 3.270897 9.812690 -3.270897
Te 3.270897 6.541794 0.000000
Te 0.000000 9.812690 0.000000
Te 0.000000 6.541794 3.270897
Te 3.270897 9.812690 3.270897
Te 3.270897 6.541794 6.541794
Te 0.000000 9.812690 6.541794
Te 0.000000 6.541794 9.812690
Te 3.270897 9.812690 9.812690
Te 3.270897 6.541794 13.083587
Te 0.000000 9.812690 13.083587
Te 0.000000 6.541794 16.354484
Te 3.270897 9.812690 16.354484
Te 3.270897 6.541794 19.625381
Te 0.000000 9.812690 19.625381
Te 0.000000 6.541794 22.896278
Te 3.270897 9.812690 22.896278
Te 3.270897 6.541794 26.167174
Te 0.000000 9.812690 26.167174
Te 0.000000 13.083587 -22.896278
Te 3.270897 13.083587 -19.625381
Te 0.000000 16.354484 -19.625381
Te 0.000000 13.083587 -16.354484
Te 3.270897 16.354484 -16.354484
Te 3.270897 13.083587 -13.083587
Te 0.000000 16.354484 -13.083587
Te 0.000000 13.083587 -9.812690
Te 3.270897 16.354484 -9.812690
Te 3.270897 13.083587 -6.541794
Te 0.000000 16.354484 -6.541794
Te 0.000000 13.083587 -3.270897
Te 3.270897 16.354484 -3.270897
Te 3.270897 13.083587 0.000000
Te 0.000000 16.354484 0.000000
Te 0.000000 13.083587 3.270897
Te 3.270897 16.354484 3.270897
Te 3.270897 13.083587 6.541794
Te 0.000000 16.354484 6.541794
Te 0.000000 13.083587 9.812690
Te 3.270897 16.354484 9.812690
Te 3.270897 13.083587 13.083587
Te 0.000000 16.354484 13.083587
Te 0.000000 13.083587 16.354484
Te 3.270897 16.354484 16.354484
Te 3.270897 13.083587 19.625381
Te 0.000000 16.354484 19.625381
Te 0.000000 13.083587 22.896278
Te 0.000000 19.625381 -16.354484
Te 3.270897 19.625381 -13.083587
Te 0.000000 22.896278 -13.083587
Te 0.000000 19.625381 -9.812690
Te 3.270897 22.896278 -9.812690
Te 3.270897 19.625381 -6.541794
Te 0.000000 22.896278 -6.541794
Te 0.000000 19.625381 -3.270897
Te 3.270897 22.896278 -3.270897
Te 3.270897 19.625381 0.000000
Te 0.000000 22.896278 0.000000
Te 0.000000 19.625381 3.270897
Te 3.270897 22.896278 3.270897
Te 3.270897 19.625381 6.541794
Te 0.000000 22.896278 6.541794
Te 0.000000 19.625381 9.812690
Te 3.270897 22.896278 9.812690
Te 3.270897 19.625381 13.083587
Te 0.000000 22.896278 13.083587
Te 0.000000 19.625381 16.354484
Te 0.000000 26.167174 -9.812690
Te 3.270897 26.167174 -6.541794
Te 0.000000 26.167174 -3.270897
Te 3.270897 26.167174 0.000000
Te 0.000000 26.167174 3.270897
Te 3.270897 26.167174 6.541794
Te 0.000000 26.167174 9.812690
Te 6.541794 -22.896278 -6.541794
Te 6.541794 -26.167174 -3.270897
Te 9.812690 -22.896278 -3.270897
Te 9.812690 -26.167174 -0.000000
Te 6.541794 -22.896278 -0.000000
Te 6.541794 -26.167174 3.270897
Te 9.812690 -22.896278 3.270897
Te 6.541794 -22.896278 6.541794
Te 6.541794 -16.354484 -13.083587
Te 6.541794 -19.625381 -9.812690
Te 9.812690 -16.354484 -9.812690
Te 9.812690 -19.625381 -6.541794
Te 6.541794 -16.354484 -6.541794
Te 6.541794 -19.625381 -3.270897
Te 9.812690 -16.354484 -3.270897
Te 9.812690 -19.625381 -0.000000
Te 6.541794 -16.354484 -0.000000
Te 6.541794 -19.625381 3.270897
Te 9.812690 -16.354484 3.270897
Te 9.812690 -19.625381 6.541794
Te 6.541794 -16.354484 6.541794
Te 6.541794 -19.625381 9.812690
Te 9.812690 -16.354484 9.812690
Te 6.541794 -16.354484 13.083587
Te 6.541794 -9.812690 -19.625381
Te 6.541794 -13.083587 -16.354484
Te 9.812690 -9.812690 -16.354484
Te 9.812690 -13.083587 -13.083587
Te 6.541794 -9.812690 -13.083587
Te 6.541794 -13.083587 -9.812690
Te 9.812690 -9.812690 -9.812690
Te 9.812690 -13.083587 -6.541794
Te 6.541794 -9.812690 -6.541794
Te 6.541794 -13.083587 -3.270897
Te 9.812690 -9.812690 -3.270897
Te 9.812690 -13.083587 -0.000000
Te 6.541794 -9.812690 -0.000000
Te 6.541794 -13.083587 3.270897
Te 9.812690 -9.812690 3.270897
Te 9.812690 -13.083587 6.541794
Te 6.541794 -9.812690 6.541794
Te 6.541794 -13.083587 9.812690
Te 9.812690 -9.812690 9.812690
Te 9.812690 -13.083587 13.083587
Te 6.541794 -9.812690 13.083587
Te 6.541794 -13.083587 16.354484
Te 9.812690 -9.812690 16.354484
Te 6.541794 -9.812690 19.625381
Te 6.541794 -3.270897 -26.167174
Te 6.541794 -6.541794 -22.896278
Te 9.812690 -3.270897 -22.896278
Te 9.812690 -6.541794 -19.625381
Te 6.541794 -3.270897 -19.625381
Te 6.541794 -6.541794 -16.354484
Te 9.812690 -3.270897 -16.354484
Te 9.812690 -6.541794 -13.083587
Te 6.541794 -3.270897 -13.083587
Te 6.541794 -6.541794 -9.812690
Te 9.812690 -3.270897 -9.812690
Te 9.812690 -6.541794 -6.541794
Te 6.541794 -3.270897 -6.541794
Te 6.541794 -6.541794 -3.270897
Te 9.812690 -3.270897 -3.270897
Te 9.812690 -6.541794 -0.000000
Te 6.541794 -3.270897 -0.000000
Te 6.541794 -6.541794 3.270897
Te 9.812690 -3.270897 3.270897
Te 9.812690 -6.541794 6.541794
Te 6.541794 -3.270897 6.541794
Te 6.541794 -6.541794 9.812690
Te 9.812690 -3.270897 9.812690
Te 9.812690 -6.541794 13.083587
Te 6.541794 -3.270897 13.083587
Te 6.541794 -6.541794 16.354484
Te 9.812690 -3.270897 16.354484
Te 9.812690 -6.541794 19.625381
Te 6.541794 -3.270897 19.625381
Te 6.541794 -6.541794 22.896278
Te 9.812690 -3.270897 22.896278
Te 6.541794 -3.270897 26.167174
Te 9.812690 0.000000 -26.167174
Te 6.541794 3.270897 -26.167174
Te 6.541794 0.000000 -22.896278
Te 9.812690 3.270897 -22.896278
Te 9.812690 0.000000 -19.625381
Te 6.541794 3.270897 -19.625381
Te 6.541794 0.000000 -16.354484
Te 9.812690 3.270897 -16.354484
Te 9.812690 0.000000 -13.083587
Te 6.541794 3.270897 -13.083587
Te 6.541794 0.000000 -9.812690
Te 9.812690 3.270897 -9.812690
Te 9.812690 0.000000 -6.541794
Te 6.541794 3.270897 -6.541794
Te 6.541794 0.000000 -3.270897
Te 9.812690 3.270897 -3.270897
Te 9.812690 0.000000 0.000000
Te 6.541794 3.270897 0.000000
Te 6.541794 0.000000 3.270897
Te 9.812690 3.270897 3.270897
Te 9.812690 0.000000 6.541794
Te 6.541794 3.270897 6.541794
Te 6.541794 0.000000 9.812690
Te 9.812690 3.270897 9.812690
Te 9.812690 0.000000 13.083587
Te 6.541794 3.270897 13.083587
Te 6.541794 0.000000 16.354484
Te 9.812690 3.270897 16.354484
Te 9.812690 0.000000 19.625381
Te 6.541794 3.270897 19.625381
Te 6.541794 0.000000 22.896278
Te 9.812690 3.270897 22.896278
Te 9.812690 0.000000 26.167174
Te 6.541794 3.270897 26.167174
Te 6.541794 6.541794 -22.896278
Te 9.812690 6.541794 -19.625381
Te 6.541794 9.812690 -19.625381
Te 6.541794 6.541794 -16.354484
Te 9.812690 9.812690 -16.354484
Te 9.812690 6.541794 -13.083587
Te 6.541794 9.812690 -13.083587
Te 6.541794 6.541794 -9.812690
Te 9.812690 9.812690 -9.812690
Te 9.812690 6.541794 -6.541794
Te 6.541794 9.812690 -6.541794
Te 6.541794 6.541794 -3.270897
Te 9.812690 9.812690 -3.270897
Te 9.812690 6.541794 0.000000
Te 6.541794 9.812690 0.000000
Te 6.541794 6.541794 3.270897
Te 9.812690 9.812690 3.270897
Te 9.812690 6.541794 6.541794
Te 6.541794 9.812690 6.541794
Te 6.541794 6.541794 9.812690
Te 9.812690 9.812690 9.812690
Te 9.812690 6.541794 13.083587
Te 6.541794 9.812690 13.083587
Te 6.541794 6.541794 16.354484
Te 9.812690 9.812690 16.354484
Te 9.812690 6.541794 19.625381
Te 6.541794 9.812690 19.625381
Te 6.541794 6.541794 22.896278
Te 6.541794 13.083587 -16.354484
Te 9.812690 13.083587 -13.083587
Te 6.541794 16.354484 -13.083587
Te 6.541794 13.083587 -9.812690
Te 9.812690 16.354484 -9.812690
Te 9.812690 13.083587 -6.541794
Te 6.541794 16.354484 -6.541794
Te 6.541794 13.083587 -3.270897
Te 9.812690 16.354484 -3.270897
Te 9.812690 13.083587 0.000000
Te 6.541794 16.354484 0.000000
Te 6.541794 13.083587 3.270897
Te 9.812690 16.354484 3.270897
Te 9.812690 13.083587 6.541794
Te 6.541794 16.354484 6.541794
Te 6.541794 13.083587 9.812690
Te 9.812690 16.354484 9.812690
Te 9.812690 13.083587 13.083587
Te 6.541794 16.354484 13.083587
Te 6.541794 13.083587 16.354484
Te 6.541794 19.625381 -9.812690
Te 9.812690 19.625381 -6.541794
Te 6.541794 22.896278 -6.541794
Te 6.541794 19.625381 -3.270897
Te 9.812690 22.896278 -3.270897
Te 9.812690 19.625381 0.000000
Te 6.541794 22.896278 0.000000
Te 6.541794 19.625381 3.270897
Te 9.812690 22.896278 3.270897
Te 9.812690 19.625381 6.541794
Te 6.541794 22.896278 6.541794
Te 6.541794 19.625381 9.812690
Te 6.541794 26.167174 -3.270897
Te 9.812690 26.167174 0.000000
Te 6.541794 26.167174 3.270897
Te 13.083587 -22.896278 -0.000000
Te 13.083587 -16.354484 -6.541794
Te 13.083587 -19.625381 -3.270897
Te 16.354484 -16.354484 -3.270897
Te 16.354484 -19.625381 -0.000000
Te 13.083587 -16.354484 -0.000000
Te 13.083587 -19.625381 3.270897
Te 16.354484 -16.354484 3.270897
Te 13.083587 -16.354484 6.541794
Te 13.083587 -9.812690 -13.083587
Te 13.083587 -13.083587 -9.812690
Te 16.354484 -9.812690 -9.812690
Te 16.354484 -13.083587 -6.541794
Te 13.083587 -9.812690 -6.541794
Te 13.083587 -13.083587 -3.270897
Te 16.354484 -9.812690 -3.270897
Te 16.354484 -13.083587 -0.000000
Te 13.083587 -9.812690 -0.000000
Te 13.083587 -13.083587 3.270897
Te 16.354484 -9.812690 3.270897
Te 16.354484 -13.083587 6.541794
Te 13.083587 -9.812690 6.541794
Te 13.083587 -13.083587 9.812690
Te 16.354484 -9.812690 9.812690
Te 13.083587 -9.812690 13.083587
Te 13.083587 -3.270897 -19.625381
Te 13.083587 -6.541794 -16.354484
Te 16.354484 -3.270897 -16.354484
Te 16.354484 -6.541794 -13.083587
Te 13.083587 -3.270897 -13.083587
Te 13.083587 -6.541794 -9.812690
Te 16.354484 -3.270897 -9.812690
Te 16.354484 -6.541794 -6.541794
Te 13.083587 -3.270897 -6.541794
Te 13.083587 -6.541794 -3.270897
Te 16.354484 -3.270897 -3.270897
Te 16.354484 -6.541794 0.000000
Te 13.083587 -3.270897 0.000000
Te 13.083587 -6.541794 3.270897
Te 16.354484 -3.270897 3.270897
Te 16.354484 -6.541794 6.541794
Te 13.083587 -3.270897 6.541794
Te 13.083587 -6.541794 9.812690
Te 16.354484 -3.270897 9.812690
Te 16.354484 -6.541794 13.083587
Te 13.083587 -3.270897 13.083587
Te 13.083587 -6.541794 16.354484
Te 16.354484 -3.270897 16.354484
Te 13.083587 -3.270897 19.625381
Te 13.083587 -6.541794 22.896278
Te 13.083587 0.000000 -22.896278
Te 16.354484 0.000000 -19.625381
Te 13.083587 3.270897 -19.625381
Te 13.083587 0.000000 -16.354484
Te 16.354484 3.270897 -16.354484
Te 16.354484 0.000000 -13.083587
Te 13.083587 3.270897 -13.083587
Te 13.083587 0.000000 -9.812690
Te 16.354484 3.270897 -9.812690
Te 16.354484 0.000000 -6.541794
Te 13.083587 3.270897 -6.541794
Te 13.083587 0.000000 -3.270897
Te 16.354484 3.270897 -3.270897
Te 16.354484 0.000000 0.000000
Te 13.083587 3.270897 0.000000
Te 13.083587 0.000000 3.270897
Te 16.354484 3.270897 3.270897
Te 16.354484 0.000000 6.541794
Te 13.083587 3.270897 6.541794
Te 13.083587 0.000000 9.812690
Te 16.354484 3.270897 9.812690
Te 16.354484 0.000000 13.083587
Te 13.083587 3.270897 13.083587
Te 13.083587 0.000000 16.354484
Te 16.354484 3.270897 16.354484
Te 16.354484 0.000000 19.625381
Te 13.083587 3.270897 19.625381
Te 13.083587 0.000000 22.896278
Te 13.083587 6.541794 -16.354484
Te 16.354484 6.541794 -13.083587
Te 13.083587 9.812690 -13.083587
Te 13.083587 6.541794 -9.812690
Te 16.354484 9.812690 -9.812690
Te 16.354484 6.541794 -6.541794
Te 13.083587 9.812690 -6.541794
Te 13.083587 6.541794 -3.270897
Te 16.354484 9.812690 -3.270897
Te 16.354484 6.541794 0.000000
Te 13.083587 9.812690 0.000000
Te 13.083587 6.541794 3.270897
Te 16.354484 9.812690 3.270897
Te 16.354484 6.541794 6.541794
Te 13.083587 9.812690 6.541794
Te 13.083587 6.541794 9.812690
Te 16.354484 9.812690 9.812690
Te 16.354484 6.541794 13.083587
Te 13.083587 9.812690 13.083587
Te 13.083587 6.541794 16.354484
Te 13.083587 13.083587 -9.812690
Te 16.354484 13.083587 -6.541794
Te 13.083587 16.354484 -6.541794
Te 13.083587 13.083587 -3.270897
Te 16.354484 16.354484 -3.270897
Te 16.354484 13.083587 0.000000
Te 13.083587 16.354484 0.000000
Te 13.083587 13.083587 3.270897
Te 16.354484 16.354484 3.270897
Te 16.354484 13.083587 6.541794
Te 13.083587 16.354484 6.541794
Te 13.083587 13.083587 9.812690
Te 13.083587 19.625381 -3.270897
Te 16.354484 19.625381 0.000000
Te 13.083587 22.896278 0.000000
Te 13.083587 19.625381 3.270897
Te 16.354484 22.896278 3.270897
Te 19.625381 -16.354484 -0.000000
Te 19.625381 -9.812690 -6.541794
Te 19.625381 -13.083587 -3.270897
Te 22.896278 -9.812690 -3.270897
Te 22.896278 -13.083587 0.000000
Te 19.625381 -9.812690 0.000000
Te 19.625381 -13.083587 3.270897
Te 22.896278 -9.812690 3.270897
Te 19.625381 -9.812690 6.541794
Te 19.625381 -3.270897 -13.083587
Te 19.625381 -6.541794 -9.812690
Te 22.896278 -3.270897 -9.812690
Te 22.896278 -6.541794 -6.541794
Te 19.625381 -3.270897 -6.541794
Te 19.625381 -6.541794 -3.270897
Te 22.896278 -3.270897 -3.270897
Te 22.896278 -6.541794 0.000000
Te 19.625381 -3.270897 0.000000
Te 19.625381 -6.541794 3.270897
Te 22.896278 -3.270897 3.270897
Te 22.896278 -6.541794 6.541794
Te 19.625381 -3.270897 6.541794
Te 19.625381 -6.541794 9.812690
Te 22.896278 -3.270897 9.812690
Te 19.625381 -3.270897 13.083587
Te 19.625381 0.000000 -16.354484
Te 22.896278 0.000000 -13.083587
Te 19.625381 3.270897 -13.083587
Te 19.625381 0.000000 -9.812690
Te 22.896278 3.270897 -9.812690
Te 22.896278 0.000000 -6.541794
Te 19.625381 3.270897 -6.541794
Te 19.625381 0.000000 -3.270897
Te 22.896278 3.270897 -3.270897
Te 22.896278 0.000000 0.000000
Te 19.625381 3.270897 0.000000
Te 19.625381 0.000000 3.270897
Te 22.896278 3.270897 3.270897
Te 22.896278 0.000000 6.541794
Te 19.625381 3.270897 6.541794
Te 19.625381 0.000000 9.812690
Te 22.896278 3.270897 9.812690
Te 22.896278 0.000000 13.083587
Te 19.625381 3.270897 13.083587
Te 19.625381 0.000000 16.354484
Te 19.625381 6.541794 -9.812690
Te 22.896278 6.541794 -6.541794
Te 19.625381 9.812690 -6.541794
Te 19.625381 6.541794 -3.270897
Te 22.896278 9.812690 -3.270897
Te 22.896278 6.541794 0.000000
Te 19.625381 9.812690 0.000000
Te 19.625381 6.541794 3.270897
Te 22.896278 9.812690 3.270897
Te 22.896278 6.541794 6.541794
Te 19.625381 9.812690 6.541794
Te 19.625381 6.541794 9.812690
Te 19.625381 13.083587 -3.270897
Te 22.896278 13.083587 0.000000
Te 19.625381 16.354484 0.000000
Te 19.625381 13.083587 3.270897
Te 26.167174 -9.812690 0.000000
Te 26.167174 -3.270897 -6.541794
Te 26.167174 -6.541794 -3.270897
Te 26.167174 -3.270897 0.000000
Te 26.167174 -6.541794 3.270897
Te 26.167174 -3.270897 6.541794
Te 26.167174 0.000000 -9.812690
Te 26.167174 3.270897 -6.541794
Te 26.167174 0.000000 -3.270897
Te 26.167174 3.270897 0.000000
Te 26.167174 0.000000 3.270897
Te 26.167174 3.270897 6.541794
Te 26.167174 0.000000 9.812690
Te 26.167174 6.541794 -3.270897
Te 26.167174 9.812690 0.000000
Te 26.167174 6.541794 3.270897
Cl -22.896278 -16.354484 -3.270897
Cl -22.896278 -19.625381 -0.000000
Cl -26.167174 -16.354484 -0.000000
Cl -22.896278 -16.354484 3.270897
Cl -22.896278 -9.812690 -9.812690
Cl -22.896278 -13.083587 -6.541794
Cl -26.167174 -9.812690 -6.541794
Cl -26.167174 -13.083587 -3.270897
Cl -26.167174 -13.083587 3.270897
Cl -22.896278 -13.083587 6.541794
Cl -26.167174 -9.812690 6.541794
Cl -22.896278 -9.812690 9.812690
Cl -22.896278 -3.270897 -16.354484
Cl -22.896278 -6.541794 -13.083587
Cl -26.167174 -3.270897 -13.083587
Cl -26.167174 -6.541794 -9.812690
Cl -26.167174 -6.541794 9.812690
Cl -22.896278 -6.541794 13.083587
Cl -26.167174 -3.270897 13.083587
Cl -22.896278 -3.270897 16.354484
Cl -22.896278 0.000000 -19.625381
Cl -26.167174 0.000000 -16.354484
Cl -22.896278 3.270897 -16.354484
Cl -26.167174 3.270897 -13.083587
Cl -26.167174 3.270897 13.083587
Cl -26.167174 0.000000 16.354484
Cl -22.896278 3.270897 16.354484
Cl -22.896278 0.000000 19.625381
Cl -22.896278 6.541794 -13.083587
Cl -26.167174 6.541794 -9.812690
Cl -22.896278 9.812690 -9.812690
Cl -26.167174 9.812690 -6.541794
Cl -26.167174 9.812690 6.541794
Cl -26.167174 6.541794 9.812690
Cl -22.896278 9.812690 9.812690
Cl -22.896278 6.541794 13.083587
Cl -22.896278 13.083587 -6.541794
Cl -26.167174 13.083587 -3.270897
Cl -22.896278 16.354484 -3.270897
Cl -26.167174 16.354484 -0.000000
Cl -26.167174 13.083587 3.270897
Cl -22.896278 16.354484 3.270897
Cl -22.896278 13.083587 6.541794
Cl -22.896278 19.625381 -0.000000
Cl -16.354484 -22.896278 -3.270897
Cl -16.354484 -26.167174 -0.000000
Cl -19.625381 -22.896278 -0.000000
Cl -16.354484 -22.896278 3.270897
Cl -16.354484 -16.354484 -9.812690
Cl -16.354484 -19.625381 -6.541794
Cl -19.625381 -16.354484 -6.541794
Cl -19.625381 -19.625381 -3.270897
Cl -19.625381 -19.625381 3.270897
Cl -16.354484 -19.625381 6.541794
Cl -19.625381 -16.354484 6.541794
Cl -16.354484 -16.354484 9.812690
Cl -16.354484 -9.812690 -16.354484
Cl -16.354484 -13.083587 -13.083587
Cl -19.625381 -9.812690 -13.083587
Cl -19.625381 -13.083587 -9.812690
Cl -19.625381 -13.083587 9.812690
Cl -16.354484 -13.083587 13.083587
Cl -19.625381 -9.812690 13.083587
Cl -16.354484 -9.812690 16.354484
Cl -16.354484 -3.270897 -22.896278
Cl -16.354484 -6.541794 -19.625381
Cl -19.625381 -3.270897 -19.625381
Cl -19.625381 -6.541794 -16.354484
Cl -19.625381 -6.541794 16.354484
Cl -16.354484 -6.541794 19.625381
Cl -19.625381 -3.270897 19.625381
Cl -16.354484 -3.270897 22.896278
Cl -16.354484 0.000000 -26.167174
Cl -19.625381 0.000000 -22.896278
Cl -16.354484 3.270897 -22.896278
Cl -19.625381 3.270897 -19.625381
Cl -19.625381 3.270897 19.625381
Cl -19.625381 0.000000 22.896278
Cl -16.354484 3.270897 22.896278
Cl -16.354484 0.000000 26.167174
Cl -16.354484 6.541794 -19.625381
Cl -19.625381 6.541794 -16.354484
Cl -16.354484 9.812690 -16.354484
Cl -19.625381 9.812690 -13.083587
Cl -19.625381 9.812690 13.083587
Cl -19.625381 6.541794 16.354484
Cl -16.354484 9.812690 16.354484
Cl -16.354484 6.541794 19.625381
Cl -16.354484 13.083587 -13.083587
Cl -19.625381 13.083587 -9.812690
Cl -16.354484 16.354484 -9.812690
Cl -19.625381 16.354484 -6.541794
Cl -19.625381 16.354484 6.541794
Cl -19.625381 13.083587 9.812690
Cl -16.354484 16.354484 9.812690
Cl -16.354484 13.083587 13.083587
Cl -16.354484 19.625381 -6.541794
Cl -19.625381 19.625381 -3.270897
Cl -16.354484 22.896278 -3.270897
Cl -19.625381 22.896278 -0.000000
Cl -19.625381 19.625381 3.270897
Cl -16.354484 22.896278 3.270897
Cl -16.354484 19.625381 6.541794
Cl -16.354484 26.167174 0.000000
Cl -9.812690 -22.896278 -9.812690
Cl -9.812690 -26.167174 -6.541794
Cl -13.083587 -22.896278 -6.541794
Cl -13.083587 -26.167174 -3.270897
Cl -13.083587 -26.167174 3.270897
Cl -9.812690 -26.167174 6.541794
Cl -13.083587 -22.896278 6.541794
Cl -9.812690 -22.896278 9.812690
Cl -9.812690 -16.354484 -16.354484
Cl -9.812690 -19.625381 -13.083587
Cl -13.083587 -16.354484 -13.083587
Cl -13.083587 -19.625381 -9.812690
Cl -13.083587 -19.625381 9.812690
Cl -9.812690 -19.625381 13.083587
Cl -13.083587 -16.354484 13.083587
Cl -9.812690 -16.354484 16.354484
Cl -9.812690 -9.812690 -22.896278
Cl -9.812690 -13.083587 -19.625381
Cl -13.083587 -9.812690 -19.625381
Cl -13.083587 -13.083587 -16.354484
Cl -13.083587 -13.083587 16.354484
Cl -9.812690 -13.083587 19.625381
Cl -13.083587 -9.812690 19.625381
Cl -9.812690 -9.812690 22.896278
Cl -9.812690 -6.541794 -26.167174
Cl -13.083587 -3.270897 -26.167174
Cl -13.083587 -6.541794 -22.896278
Cl -13.083587 -6.541794 22.896278
Cl -9.812690 -6.541794 26.167174
Cl -13.083587 -3.270897 26.167174
Cl -13.083587 3.270897 -26.167174
Cl -13.083587 3.270897 26.167174
Cl -9.812690 6.541794 -26.167174
Cl -13.083587 6.541794 -22.896278
Cl -9.812690 9.812690 -22.896278
Cl -13.083587 9.812690 -19.625381
Cl -13.083587 9.812690 19.625381
Cl -13.083587 6.541794 22.896278
Cl -9.812690 9.812690 22.896278
Cl -9.812690 6.541794 26.167174
Cl -9.812690 13.083587 -19.625381
Cl -13.083587 13.083587 -16.354484
Cl -9.812690 16.354484 -16.354484
Cl -13.083587 16.354484 -13.083587
Cl -13.083587 16.354484 13.083587
Cl -13.083587 13.083587 16.354484
Cl -9.812690 16.354484 16.354484
Cl -9.812690 13.083587 19.625381
Cl -9.812690 19.625381 -13.083587
Cl -13.083587 19.625381 -9.812690
Cl -9.812690 22.896278 -9.812690
Cl -13.083587 22.896278 -6.541794
Cl -13.083587 22.896278 6.541794
Cl -13.083587 19.625381 9.812690
Cl -9.812690 22.896278 9.812690
Cl -9.812690 19.625381 13.083587
Cl -9.812690 26.167174 -6.541794
Cl -13.083587 26.167174 -3.270897
Cl -13.083587 26.167174 3.270897
Cl -9.812690 26.167174 6.541794
Cl -3.270897 -22.896278 -16.354484
Cl -3.270897 -26.167174 -13.083587
Cl -6.541794 -22.896278 -13.083587
Cl -6.541794 -26.167174 -9.812690
Cl -6.541794 -26.167174 9.812690
Cl -3.270897 -26.167174 13.083587
Cl -6.541794 -22.896278 13.083587
Cl -3.270897 -22.896278 16.354484
Cl -3.270897 -16.354484 -22.896278
Cl -3.270897 -19.625381 -19.625381
Cl -6.541794 -16.354484 -19.625381
Cl -6.541794 -19.625381 -16.354484
Cl -6.541794 -19.625381 16.354484
Cl -3.270897 -19.625381 19.625381
Cl -6.541794 -16.354484 19.625381
Cl -3.270897 -16.354484 22.896278
Cl -3.270897 -13.083587 -26.167174
Cl -6.541794 -9.812690 -26.167174
Cl -6.541794 -13.083587 -22.896278
Cl -6.541794 -13.083587 22.896278
Cl -3.270897 -13.083587 26.167174
Cl -6.541794 -9.812690 26.167174
Cl -6.541794 9.812690 -26.167174
Cl -6.541794 9.812690 26.167174
Cl -3.270897 13.083587 -26.167174
Cl -6.541794 13.083587 -22.896278
Cl -3.270897 16.354484 -22.896278
Cl -6.541794 16.354484 -19.625381
Cl -6.541794 16.354484 19.625381
Cl -6.541794 13.083587 22.896278
Cl -3.270897 16.354484 22.896278
Cl -3.270897 13.083587 26.167174
Cl -3.270897 19.625381 -19.625381
Cl -6.541794 19.625381 -16.354484
Cl -3.270897 22.896278 -16.354484
Cl -6.541794 22.896278 -13.083587
Cl -6.541794 22.896278 13.083587
Cl -6.541794 19.625381 16.354484
Cl -3.270897 22.896278 16.354484
Cl -3.270897 19.625381 19.625381
Cl -3.270897 26.167174 -13.083587
Cl -6.541794 26.167174 -9.812690
Cl -6.541794 26.167174 9.812690
Cl -3.270897 26.167174 13.083587
Cl 0.000000 -22.896278 -19.625381
Cl 0.000000 -26.167174 -16.354484
Cl 3.270897 -22.896278 -16.354484
Cl 3.270897 -26.167174 -13.083587
Cl 3.270897 -26.167174 13.083587
Cl 0.000000 -26.167174 16.354484
Cl 3.270897 -22.896278 16.354484
Cl 0.000000 -22.896278 19.625381
Cl 0.000000 -16.354484 -26.167174
Cl 0.000000 -19.625381 -22.896278
Cl 3.270897 -16.354484 -22.896278
Cl 3.270897 -19.625381 -19.625381
Cl 3.270897 -19.625381 19.625381
Cl 0.000000 -19.625381 22.896278
Cl 3.270897 -16.354484 22.896278
Cl 0.000000 -16.354484 26.167174
Cl 3.270897 -13.083587 -26.167174
Cl 3.270897 -13.083587 26.167174
Cl 3.270897 13.083587 -26.167174
Cl 0.000000 16.354484 -26.167174
Cl 3.270897 16.354484 -22.896278
Cl 3.270897 16.354484 22.896278
Cl 3.270897 13.083587 26.167174
Cl 0.000000 16.354484 26.167174
Cl 0.000000 19.625381 -22.896278
Cl 3.270897 19.625381 -19.625381
Cl 0.000000 22.896278 -19.625381
Cl 3.270897 22.896278 -16.354484
Cl 3.270897 22.896278 16.354484
Cl 3.270897 19.625381 19.625381
Cl 0.000000 22.896278 19.625381
Cl 0.000000 19.625381 22.896278
Cl 0.000000 26.167174 -16.354484
Cl 3.270897 26.167174 -13.083587
Cl 3.270897 26.167174 13.083587
Cl 0.000000 26.167174 16.354484
Cl 6.541794 -22.896278 -13.083587
Cl 6.541794 -26.167174 -9.812690
Cl 9.812690 -22.896278 -9.812690
Cl 9.812690 -26.167174 -6.541794
Cl 9.812690 -26.167174 6.541794
Cl 6.541794 -26.167174 9.812690
Cl 9.812690 -22.896278 9.812690
Cl 6.541794 -22.896278 13.083587
Cl 6.541794 -16.354484 -19.625381
Cl 6.541794 -19.625381 -16.354484
Cl 9.812690 -16.354484 -16.354484
Cl 9.812690 -19.625381 -13.083587
Cl 9.812690 -19.625381 13.083587
Cl 6.541794 -19.625381 16.354484
Cl 9.812690 -16.354484 16.354484
Cl 6.541794 -16.354484 19.625381
Cl 6.541794 -9.812690 -26.167174
Cl 6.541794 -13.083587 -22.896278
Cl 9.812690 -9.812690 -22.896278
Cl 9.812690 -13.083587 -19.625381
Cl 9.812690 -13.083587 19.625381
Cl 6.541794 -13.083587 22.896278
Cl 9.812690 -9.812690 22.896278
Cl 6.541794 -9.812690 26.167174
Cl 9.812690 -6.541794 -26.167174
Cl 9.812690 -6.541794 26.167174
Cl 9.812690 6.541794 -26.167174
Cl 6.541794 9.812690 -26.167174
Cl 9.812690 9.812690 -22.896278
Cl 9.812690 9.812690 22.896278
Cl 9.812690 6.541794 26.167174
Cl 6.541794 9.812690 26.167174
Cl 6.541794 13.083587 -22.896278
Cl 9.812690 13.083587 -19.625381
Cl 6.541794 16.354484 -19.625381
Cl 9.812690 16.354484 -16.354484
Cl 9.812690 16.354484 16.354484
Cl 9.812690 13.083587 19.625381
Cl 6.541794 16.354484 19.625381
Cl 6.541794 13.083587 22.896278
Cl 6.541794 19.625381 -16.354484
Cl 9.812690 19.625381 -13.083587
Cl 6.541794 22.896278 -13.083587
Cl 9.812690 22.896278 -9.812690
Cl 9.812690 22.896278 9.812690
Cl 9.812690 19.625381 13.083587
Cl 6.541794 22.896278 13.083587
Cl 6.541794 19.625381 16.354484
Cl 6.541794 26.167174 -9.812690
Cl 9.812690 26.167174 -6.541794
Cl 9.812690 26.167174 6.541794
Cl 6.541794 26.167174 9.812690
Cl 13.083587 -22.896278 -6.541794
Cl 13.083587 -26.167174 -3.270897
Cl 16.354484 -22.896278 -3.270897
Cl 16.354484 -26.167174 -0.000000
Cl 13.083587 -26.167174 3.270897
Cl 16.354484 -22.896278 3.270897
Cl 13.083587 -22.896278 6.541794
Cl 13.083587 -16.354484 -13.083587
Cl 13.083587 -19.625381 -9.812690
Cl 16.354484 -16.354484 -9.812690
Cl 16.354484 -19.625381 -6.541794
Cl 16.354484 -19.625381 6.541794
Cl 13.083587 -19.625381 9.812690
Cl 16.354484 -16.354484 9.812690
Cl 13.083587 -16.354484 13.083587
Cl 13.083587 -9.812690 -19.625381
Cl 13.083587 -13.083587 -16.354484
Cl 16.354484 -9.812690 -16.354484
Cl 16.354484 -13.083587 -13.083587
Cl 16.354484 -13.083587 13.083587
Cl 13.083587 -13.083587 16.354484
Cl 16.354484 -9.812690 16.354484
Cl 13.083587 -9.812690 19.625381
Cl 13.083587 -3.270897 -26.167174
Cl 13.083587 -6.541794 -22.896278
Cl 16.354484 -3.270897 -22.896278
Cl 16.354484 -6.541794 -19.625381
Cl 16.354484 -6.541794 19.625381
Cl 16.354484 -3.270897 22.896278
Cl 13.083587 -3.270897 26.167174
Cl 16.354484 0.000000 -26.167174
Cl 13.083587 3.270897 -26.167174
Cl 16.354484 3.270897 -22.896278
Cl 16.354484 3.270897 22.896278
Cl 16.354484 0.000000 26.167174
Cl 13.083587 3.270897 26.167174
Cl 13.083587 6.541794 -22.896278
Cl 16.354484 6.541794 -19.625381
Cl 13.083587 9.812690 -19.625381
Cl 16.354484 9.812690 -16.354484
Cl 16.354484 9.812690 16.354484
Cl 16.354484 6.541794 19.625381
Cl 13.083587 9.812690 19.625381
Cl 13.083587 6.541794 22.896278
Cl 13.083587 13.083587 -16.354484
Cl 16.354484 13.083587 -13.083587
Cl 13.083587 16.354484 -13.083587
Cl 16.354484 16.354484 -9.812690
Cl 16.354484 16.354484 9.812690
Cl 16.354484 13.083587 13.083587
Cl 13.083587 16.354484 13.083587
Cl 13.083587 13.083587 16.354484
Cl 13.083587 19.625381 -9.812690
Cl 16.354484 19.625381 -6.541794
Cl 13.083587 22.896278 -6.541794
Cl 16.354484 22.896278 -3.270897
Cl 16.354484 19.625381 6.541794
Cl 13.083587 22.896278 6.541794
Cl 13.083587 19.625381 9.812690
Cl 13.083587 26.167174 -3.270897
Cl 16.354484 26.167174 0.000000
Cl 13.083587 26.167174 3.270897
Cl 19.625381 -22.896278 -0.000000
Cl 19.625381 -16.354484 -6.541794
Cl 19.625381 -19.625381 -3.270897
Cl 22.896278 -16.354484 -3.270897
Cl 22.896278 -19.625381 -0.000000
Cl 19.625381 -19.625381 3.270897
Cl 22.896278 -16.354484 3.270897
Cl 19.625381 -16.354484 6.541794
Cl 19.625381 -9.812690 -13.083587
Cl 19.625381 -13.083587 -9.812690
Cl 22.896278 -9.812690 -9.812690
Cl 22.896278 -13.083587 -6.541794
Cl 22.896278 -13.083587 6.541794
Cl 19.625381 -13.083587 9.812690
Cl 22.896278 -9.812690 9.812690
Cl 19.625381 -9.812690 13.083587
Cl 19.625381 -3.270897 -19.625381
Cl 19.625381 -6.541794 -16.354484
Cl 22.896278 -3.270897 -16.354484
Cl 22.896278 -6.541794 -13.083587
Cl 22.896278 -6.541794 13.083587
Cl 19.625381 -6.541794 16.354484
Cl 22.896278 -3.270897 16.354484
Cl 19.625381 -3.270897 19.625381
Cl 19.625381 0.000000 -22.896278
Cl 22.896278 0.000000 -19.625381
Cl 19.625381 3.270897 -19.625381
Cl 22.896278 3.270897 -16.354484
Cl 22.896278 3.270897 16.354484
Cl 22.896278 0.000000 19.625381
Cl 19.625381 3.270897 19.625381
Cl 19.625381 0.000000 22.896278
Cl 19.625381 6.541794 -16.354484
Cl 22.896278 6.541794 -13.083587
Cl 19.625381 9.812690 -13.083587
Cl 22.896278 9.812690 -9.812690
Cl 22.896278 9.812690 9.812690
Cl 22.896278 6.541794 13.083587
Cl 19.625381 9.812690 13.083587
Cl 19.625381 6.541794 16.354484
Cl 19.625381 13.083587 -9.812690
Cl 22.896278 13.083587 -6.541794
Cl 19.625381 16.354484 -6.541794
Cl 22.896278 16.354484 -3.270897
Cl 22.896278 16.354484 3.270897
Cl 22.896278 13.083587 6.541794
Cl 19.625381 16.354484 6.541794
Cl 19.625381 13.083587 9.812690
Cl 19.625381 19.625381 -3.270897
Cl 22.896278 19.625381 0.000000
Cl 19.625381 22.896278 0.000000
Cl 19.625381 19.625381 3.270897
Cl 26.167174 -16.354484 0.000000
Cl 26.167174 -9.812690 -6.541794
Cl 26.167174 -13.083587 -3.270897
Cl 26.167174 -13.083587 3.270897
Cl 26.167174 -9.812690 6.541794
Cl 26.167174 -3.270897 -13.083587
Cl 26.167174 -6.541794 -9.812690
Cl 26.167174 -6.541794 9.812690
Cl 26.167174 -3.270897 13.083587
Cl 26.167174 0.000000 -16.354484
Cl 26.167174 3.270897 -13.083587
Cl 26.167174 3.270897 13.083587
Cl 26.167174 0.000000 16.354484
Cl 26.167174 6.541794 -9.812690
Cl 26.167174 9.812690 -6.541794
Cl 26.167174 9.812690 6.541794
Cl 26.167174 6.541794 9.812690
Cl 26.167174 13.083587 -3.270897
Cl 26.167174 16.354484 0.000000
Cl 26.167174 13.083587 3.270897
