2185
ZnSe-Se-Zn1036Se923Cl226-clean
Zn -15.586212 -15.577138 -4.252553
Zn -15.586212 -18.409580 -1.420110
Zn -18.418654 -15.577138 -1.420110
Zn -15.586212 -15.577138 1.412332
Zn -15.586212 -9.912253 -9.917438
Zn -15.586212 -12.744695 -7.084995
Zn -18.418654 -9.912253 -7.084995
Zn -18.418654 -12.744695 -4.252553
Zn -15.586212 -9.912253 -4.252553
Zn -15.586212 -12.744695 -1.420110
Zn -18.418654 -9.912253 -1.420110
Zn -18.418654 -12.744695 1.412332
Zn -15.586212 -9.912253 1.412332
Zn -15.586212 -12.744695 4.244775
Zn -18.418654 -9.912253 4.244775
Zn -15.586212 -9.912253 7.077217
Zn -15.586212 -4.247367 -15.582323
Zn -15.586212 -7.079810 -12.749880
Zn -18.418654 -4.247367 -12.749880
Zn -18.418654 -7.079810 -9.917438
Zn -15.586212 -4.247367 -9.917438
Zn -15.586212 -7.079810 -7.084995
Zn -18.418654 -4.247367 -7.084995
Zn -18.418654 -7.079810 -4.252553
Zn -15.586212 -4.247367 -4.252553
Zn -15.586212 -7.079810 -1.420110
Zn -18.418654 -4.247367 -1.420110
Zn -18.418654 -7.079810 1.412332
Zn -15.586212 -4.247367 1.412332
Zn -15.586212 -7.079810 4.244775
Zn -18.418654 -4.247367 4.244775
Zn -18.418654 -7.079810 7.077217
Zn -15.586212 -4.247367 7.077217
Zn -15.586212 -7.079810 9.909660
Zn -18.418654 -4.247367 9.909660
Zn -15.586212 -4.247367 12.742102
Zn -15.586212 -1.414925 -18.414765
Zn -18.418654 -1.414925 -15.582323
Zn -15.586212 1.417518 -15.582323
Zn -15.586212 -1.414925 -12.749880
Zn -18.418654 1.417518 -12.749880
Zn -18.418654 -1.414925 -9.917438
Zn -15.586212 1.417518 -9.917438
Zn -15.586212 -1.414925 -7.084995
Zn -18.418654 1.417518 -7.084995
Zn -18.418654 -1.414925 -4.252553
Zn -15.586212 1.417518 -4.252553
Zn -15.586212 -1.414925 -1.420110
Zn -18.418654 1.417518 -1.420110
Zn -18.418654 -1.414925 1.412332
Zn -15.586212 1.417518 1.412332
Zn -15.586212 -1.414925 4.244775
Zn -18.418654 1.417518 4.244775
Zn -18.418654 -1.414925 7.077217
Zn -15.586212 1.417518 7.077217
Zn -15.586212 -1.414925 9.909660
Zn -18.418654 1.417518 9.909660
Zn -18.418654 -1.414925 12.742102
Zn -15.586212 1.417518 12.742102
Zn -15.586212 -1.414925 15.574545
Zn -18.418654 1.417518 15.574545
Zn -15.586212 1.417518 18.406988
Zn -15.586212 4.249960 -12.749880
Zn -18.418654 4.249960 -9.917438
Zn -15.586212 7.082403 -9.917438
Zn -15.586212 4.249960 -7.084995
Zn -18.418654 7.082403 -7.084995
Zn -18.418654 4.249960 -4.252553
Zn -15.586212 7.082403 -4.252553
Zn -15.586212 4.249960 -1.420110
Zn -18.418654 7.082403 -1.420110
Zn -18.418654 4.249960 1.412332
Zn -15.586212 7.082403 1.412332
Zn -15.586212 4.249960 4.244775
Zn -18.418654 7.082403 4.244775
Zn -18.418654 4.249960 7.077217
Zn -15.586212 7.082403 7.077217
Zn -15.586212 4.249960 9.909660
Zn -18.418654 7.082403 9.909660
Zn -18.418654 4.249960 12.742102
Zn -15.586212 7.082403 12.742102
Zn -15.586212 4.249960 15.574545
Zn -15.586212 9.914845 -7.084995
Zn -18.418654 9.914845 -4.252553
Zn -15.586212 12.747288 -4.252553
Zn -15.586212 9.914845 -1.420110
Zn -18.418654 12.747288 -1.420110
Zn -18.418654 9.914845 1.412332
Zn -15.586212 12.747288 1.412332
Zn -15.586212 9.914845 4.244775
Zn -18.418654 12.747288 4.244775
Zn -18.418654 9.914845 7.077217
Zn -15.586212 12.747288 7.077217
Zn -15.586212 9.914845 9.909660
Zn -15.586212 15.579730 -1.420110
Zn -18.418654 15.579730 1.412332
Zn -15.586212 18.412173 1.412332
Zn -15.586212 15.579730 4.244775
Zn -9.921327 -15.577138 -9.917438
Zn -9.921327 -18.409580 -7.084995
Zn -12.753769 -15.577138 -7.084995
Zn -12.753769 -18.409580 -4.252553
Zn -9.921327 -15.577138 -4.252553
Zn -9.921327 -18.409580 -1.420110
Zn -12.753769 -15.577138 -1.420110
Zn -12.753769 -18.409580 1.412332
Zn -9.921327 -15.577138 1.412332
Zn -9.921327 -18.409580 4.244775
Zn -12.753769 -15.577138 4.244775
Zn -9.921327 -15.577138 7.077217
Zn -9.921327 -9.912253 -15.582323
Zn -9.921327 -12.744695 -12.749880
Zn -12.753769 -9.912253 -12.749880
Zn -12.753769 -12.744695 -9.917438
Zn -9.921327 -9.912253 -9.917438
Zn -9.921327 -12.744695 -7.084995
Zn -12.753769 -9.912253 -7.084995
Zn -12.753769 -12.744695 -4.252553
Zn -9.921327 -9.912253 -4.252553
Zn -9.921327 -12.744695 -1.420110
Zn -12.753769 -9.912253 -1.420110
Zn -12.753769 -12.744695 1.412332
Zn -9.921327 -9.912253 1.412332
Zn -9.921327 -12.744695 4.244775
Zn -12.753769 -9.912253 4.244775
Zn -12.753769 -12.744695 7.077217
Zn -9.921327 -9.912253 7.077217
Zn -9.921327 -12.744695 9.909660
Zn -12.753769 -9.912253 9.909660
Zn -9.921327 -9.912253 12.742102
Zn -9.921327 -7.079810 -18.414765
Zn -12.753769 -4.247367 -18.414765
Zn -12.753769 -7.079810 -15.582323
Zn -9.921327 -4.247367 -15.582323
Zn -9.921327 -7.079810 -12.749880
Zn -12.753769 -4.247367 -12.749880
Zn -12.753769 -7.079810 -9.917438
Zn -9.921327 -4.247367 -9.917438
Zn -9.921327 -7.079810 -7.084995
Zn -12.753769 -4.247367 -7.084995
Zn -12.753769 -7.079810 -4.252553
Zn -9.921327 -4.247367 -4.252553
Zn -9.921327 -7.079810 -1.420110
Zn -12.753769 -4.247367 -1.420110
Zn -12.753769 -7.079810 1.412332
Zn -9.921327 -4.247367 1.412332
Zn -9.921327 -7.079810 4.244775
Zn -12.753769 -4.247367 4.244775
Zn -12.753769 -7.079810 7.077217
Zn -9.921327 -4.247367 7.077217
Zn -9.921327 -7.079810 9.909660
Zn -12.753769 -4.247367 9.909660
Zn -12.753769 -7.079810 12.742102
Zn -9.921327 -4.247367 12.742102
Zn -9.921327 -7.079810 15.574545
Zn -12.753769 -4.247367 15.574545
Zn -9.921327 -4.247367 18.406988
Zn -9.921327 -1.414925 -18.414765
Zn -12.753769 1.417518 -18.414765
Zn -12.753769 -1.414925 -15.582323
Zn -9.921327 1.417518 -15.582323
Zn -9.921327 -1.414925 -12.749880
Zn -12.753769 1.417518 -12.749880
Zn -12.753769 -1.414925 -9.917438
Zn -9.921327 1.417518 -9.917438
Zn -9.921327 -1.414925 -7.084995
Zn -12.753769 1.417518 -7.084995
Zn -12.753769 -1.414925 -4.252553
Zn -9.921327 1.417518 -4.252553
Zn -9.921327 -1.414925 -1.420110
Zn -12.753769 1.417518 -1.420110
Zn -12.753769 -1.414925 1.412332
Zn -9.921327 1.417518 1.412332
Zn -9.921327 -1.414925 4.244775
Zn -12.753769 1.417518 4.244775
Zn -12.753769 -1.414925 7.077217
Zn -9.921327 1.417518 7.077217
Zn -9.921327 -1.414925 9.909660
Zn -12.753769 1.417518 9.909660
Zn -12.753769 -1.414925 12.742102
Zn -9.921327 1.417518 12.742102
Zn -9.921327 -1.414925 15.574545
Zn -12.753769 1.417518 15.574545
Zn -12.753769 -1.414925 18.406988
Zn -9.921327 1.417518 18.406988
Zn -9.921327 4.249960 -18.414765
Zn -12.753769 4.249960 -15.582323
Zn -9.921327 7.082403 -15.582323
Zn -9.921327 4.249960 -12.749880
Zn -12.753769 7.082403 -12.749880
Zn -12.753769 4.249960 -9.917438
Zn -9.921327 7.082403 -9.917438
Zn -9.921327 4.249960 -7.084995
Zn -12.753769 7.082403 -7.084995
Zn -12.753769 4.249960 -4.252553
Zn -9.921327 7.082403 -4.252553
Zn -9.921327 4.249960 -1.420110
Zn -12.753769 7.082403 -1.420110
Zn -12.753769 4.249960 1.412332
Zn -9.921327 7.082403 1.412332
Zn -9.921327 4.249960 4.244775
Zn -12.753769 7.082403 4.244775
Zn -12.753769 4.249960 7.077217
Zn -9.921327 7.082403 7.077217
Zn -9.921327 4.249960 9.909660
Zn -12.753769 7.082403 9.909660
Zn -12.753769 4.249960 12.742102
Zn -9.921327 7.082403 12.742102
Zn -9.921327 4.249960 15.574545
Zn -12.753769 7.082403 15.574545
Zn -12.753769 4.249960 18.406988
Zn -9.921327 7.082403 18.406988
Zn -9.921327 9.914845 -12.749880
Zn -12.753769 9.914845 -9.917438
Zn -9.921327 12.747288 -9.917438
Zn -9.921327 9.914845 -7.084995
Zn -12.753769 12.747288 -7.084995
Zn -12.753769 9.914845 -4.252553
Zn -9.921327 12.747288 -4.252553
Zn -9.921327 9.914845 -1.420110
Zn -12.753769 12.747288 -1.420110
Zn -12.753769 9.914845 1.412332
Zn -9.921327 12.747288 1.412332
Zn -9.921327 9.914845 4.244775
Zn -12.753769 12.747288 4.244775
Zn -12.753769 9.914845 7.077217
Zn -9.921327 12.747288 7.077217
Zn -9.921327 9.914845 9.909660
Zn -12.753769 12.747288 9.909660
Zn -12.753769 9.914845 12.742102
Zn -9.921327 12.747288 12.742102
Zn -9.921327 9.914845 15.574545
Zn -9.921327 15.579730 -7.084995
Zn -12.753769 15.579730 -4.252553
Zn -9.921327 18.412173 -4.252553
Zn -9.921327 15.579730 -1.420110
Zn -12.753769 18.412173 -1.420110
Zn -12.753769 15.579730 1.412332
Zn -9.921327 18.412173 1.412332
Zn -9.921327 15.579730 4.244775
Zn -12.753769 18.412173 4.244775
Zn -12.753769 15.579730 7.077217
Zn -9.921327 18.412173 7.077217
Zn -9.921327 15.579730 9.909660
Zn -4.256442 -15.577138 -15.582323
Zn -4.256442 -18.409580 -12.749880
Zn -7.088884 -15.577138 -12.749880
Zn -7.088884 -18.409580 -9.917438
Zn -4.256442 -15.577138 -9.917438
Zn -4.256442 -18.409580 -7.084995
Zn -7.088884 -15.577138 -7.084995
Zn -7.088884 -18.409580 -4.252553
Zn -4.256442 -15.577138 -4.252553
Zn -4.256442 -18.409580 -1.420110
Zn -7.088884 -15.577138 -1.420110
Zn -7.088884 -18.409580 1.412332
Zn -4.256442 -15.577138 1.412332
Zn -4.256442 -18.409580 4.244775
Zn -7.088884 -15.577138 4.244775
Zn -7.088884 -18.409580 7.077217
Zn -4.256442 -15.577138 7.077217
Zn -4.256442 -18.409580 9.909660
Zn -7.088884 -15.577138 9.909660
Zn -4.256442 -15.577138 12.742102
Zn -4.256442 -12.744695 -18.414765
Zn -7.088884 -9.912253 -18.414765
Zn -7.088884 -12.744695 -15.582323
Zn -4.256442 -9.912253 -15.582323
Zn -4.256442 -12.744695 -12.749880
Zn -7.088884 -9.912253 -12.749880
Zn -7.088884 -12.744695 -9.917438
Zn -4.256442 -9.912253 -9.917438
Zn -4.256442 -12.744695 -7.084995
Zn -7.088884 -9.912253 -7.084995
Zn -7.088884 -12.744695 -4.252553
Zn -4.256442 -9.912253 -4.252553
Zn -4.256442 -12.744695 -1.420110
Zn -7.088884 -9.912253 -1.420110
Zn -7.088884 -12.744695 1.412332
Zn -4.256442 -9.912253 1.412332
Zn -4.256442 -12.744695 4.244775
Zn -7.088884 -9.912253 4.244775
Zn -7.088884 -12.744695 7.077217
Zn -4.256442 -9.912253 7.077217
Zn -4.256442 -12.744695 9.909660
Zn -7.088884 -9.912253 9.909660
Zn -7.088884 -12.744695 12.742102
Zn -4.256442 -9.912253 12.742102
Zn -4.256442 -12.744695 15.574545
Zn -7.088884 -9.912253 15.574545
Zn -4.256442 -9.912253 18.406988
Zn -4.256442 -7.079810 -18.414765
Zn -7.088884 -4.247367 -18.414765
Zn -7.088884 -7.079810 -15.582323
Zn -4.256442 -4.247367 -15.582323
Zn -4.256442 -7.079810 -12.749880
Zn -7.088884 -4.247367 -12.749880
Zn -7.088884 -7.079810 -9.917438
Zn -4.256442 -4.247367 -9.917438
Zn -4.256442 -7.079810 -7.084995
Zn -7.088884 -4.247367 -7.084995
Zn -7.088884 -7.079810 -4.252553
Zn -4.256442 -4.247367 -4.252553
Zn -4.256442 -7.079810 -1.420110
Zn -7.088884 -4.247367 -1.420110
Zn -7.088884 -7.079810 1.412332
Zn -4.256442 -4.247367 1.412332
Zn -4.256442 -7.079810 4.244775
Zn -7.088884 -4.247367 4.244775
Zn -7.088884 -7.079810 7.077217
Zn -4.256442 -4.247367 7.077217
Zn -4.256442 -7.079810 9.909660
Zn -7.088884 -4.247367 9.909660
Zn -7.088884 -7.079810 12.742102
Zn -4.256442 -4.247367 12.742102
Zn -4.256442 -7.079810 15.574545
Zn -7.088884 -4.247367 15.574545
Zn -7.088884 -7.079810 18.406988
Zn -4.256442 -4.247367 18.406988
Zn -4.256442 -1.414925 -18.414765
Zn -7.088884 1.417518 -18.414765
Zn -7.088884 -1.414925 -15.582323
Zn -4.256442 1.417518 -15.582323
Zn -4.256442 -1.414925 -12.749880
Zn -7.088884 1.417518 -12.749880
Zn -7.088884 -1.414925 -9.917438
Zn -4.256442 1.417518 -9.917438
Zn -4.256442 -1.414925 -7.084995
Zn -7.088884 1.417518 -7.084995
Zn -7.088884 -1.414925 -4.252553
Zn -4.256442 1.417518 -4.252553
Zn -4.256442 -1.414925 -1.420110
Zn -7.088884 1.417518 -1.420110
Zn -7.088884 -1.414925 1.412332
Zn -4.256442 1.417518 1.412332
Zn -4.256442 -1.414925 4.244775
Zn -7.088884 1.417518 4.244775
Zn -7.088884 -1.414925 7.077217
Zn -4.256442 1.417518 7.077217
Zn -4.256442 -1.414925 9.909660
Zn -7.088884 1.417518 9.909660
Zn -7.088884 -1.414925 12.742102
Zn -4.256442 1.417518 12.742102
Zn -4.256442 -1.414925 15.574545
Zn -7.088884 1.417518 15.574545
Zn -7.088884 -1.414925 18.406988
Zn -4.256442 1.417518 18.406988
Zn -4.256442 4.249960 -18.414765
Zn -7.088884 7.082403 -18.414765
Zn -7.088884 4.249960 -15.582323
Zn -4.256442 7.082403 -15.582323
Zn -4.256442 4.249960 -12.749880
Zn -7.088884 7.082403 -12.749880
Zn -7.088884 4.249960 -9.917438
Zn -4.256442 7.082403 -9.917438
Zn -4.256442 4.249960 -7.084995
Zn -7.088884 7.082403 -7.084995
Zn -7.088884 4.249960 -4.252553
Zn -4.256442 7.082403 -4.252553
Zn -4.256442 4.249960 -1.420110
Zn -7.088884 7.082403 -1.420110
Zn -7.088884 4.249960 1.412332
Zn -4.256442 7.082403 1.412332
Zn -4.256442 4.249960 4.244775
Zn -7.088884 7.082403 4.244775
Zn -7.088884 4.249960 7.077217
Zn -4.256442 7.082403 7.077217
Zn -4.256442 4.249960 9.909660
Zn -7.088884 7.082403 9.909660
Zn -7.088884 4.249960 12.742102
Zn -4.256442 7.082403 12.742102
Zn -4.256442 4.249960 15.574545
Zn -7.088884 7.082403 15.574545
Zn -7.088884 4.249960 18.406988
Zn -4.256442 7.082403 18.406988
Zn -4.256442 9.914845 -18.414765
Zn -7.088884 9.914845 -15.582323
Zn -4.256442 12.747288 -15.582323
Zn -4.256442 9.914845 -12.749880
Zn -7.088884 12.747288 -12.749880
Zn -7.088884 9.914845 -9.917438
Zn -4.256442 12.747288 -9.917438
Zn -4.256442 9.914845 -7.084995
Zn -7.088884 12.747288 -7.084995
Zn -7.088884 9.914845 -4.252553
Zn -4.256442 12.747288 -4.252553
Zn -4.256442 9.914845 -1.420110
Zn -7.088884 12.747288 -1.420110
Zn -7.088884 9.914845 1.412332
Zn -4.256442 12.747288 1.412332
Zn -4.256442 9.914845 4.244775
Zn -7.088884 12.747288 4.244775
Zn -7.088884 9.914845 7.077217
Zn -4.256442 12.747288 7.077217
Zn -4.256442 9.914845 9.909660
Zn -7.088884 12.747288 9.909660
Zn -7.088884 9.914845 12.742102
Zn -4.256442 12.747288 12.742102
Zn -4.256442 9.914845 15.574545
Zn -7.088884 12.747288 15.574545
Zn -7.088884 9.914845 18.406988
Zn -4.256442 12.747288 18.406988
Zn -4.256442 15.579730 -12.749880
Zn -7.088884 15.579730 -9.917438
Zn -4.256442 18.412173 -9.917438
Zn -4.256442 15.579730 -7.084995
Zn -7.088884 18.412173 -7.084995
Zn -7.088884 15.579730 -4.252553
Zn -4.256442 18.412173 -4.252553
Zn -4.256442 15.579730 -1.420110
Zn -7.088884 18.412173 -1.420110
Zn -7.088884 15.579730 1.412332
Zn -4.256442 18.412173 1.412332
Zn -4.256442 15.579730 4.244775
Zn -7.088884 18.412173 4.244775
Zn -7.088884 15.579730 7.077217
Zn -4.256442 18.412173 7.077217
Zn -4.256442 15.579730 9.909660
Zn -7.088884 18.412173 9.909660
Zn -7.088884 15.579730 12.742102
Zn -4.256442 18.412173 12.742102
Zn -4.256442 15.579730 15.574545
Zn -1.423999 -15.577138 -18.414765
Zn -1.423999 -18.409580 -15.582323
Zn 1.408443 -15.577138 -15.582323
Zn 1.408443 -18.409580 -12.749880
Zn -1.423999 -15.577138 -12.749880
Zn -1.423999 -18.409580 -9.917438
Zn 1.408443 -15.577138 -9.917438
Zn 1.408443 -18.409580 -7.084995
Zn -1.423999 -15.577138 -7.084995
Zn -1.423999 -18.409580 -4.252553
Zn 1.408443 -15.577138 -4.252553
Zn 1.408443 -18.409580 -1.420110
Zn -1.423999 -15.577138 -1.420110
Zn -1.423999 -18.409580 1.412332
Zn 1.408443 -15.577138 1.412332
Zn 1.408443 -18.409580 4.244775
Zn -1.423999 -15.577138 4.244775
Zn -1.423999 -18.409580 7.077217
Zn 1.408443 -15.577138 7.077217
Zn 1.408443 -18.409580 9.909660
Zn -1.423999 -15.577138 9.909660
Zn -1.423999 -18.409580 12.742102
Zn 1.408443 -15.577138 12.742102
Zn 1.408443 -18.409580 15.574545
Zn -1.423999 -15.577138 15.574545
Zn 1.408443 -15.577138 18.406988
Zn 1.408443 -12.744695 -18.414765
Zn -1.423999 -9.912253 -18.414765
Zn -1.423999 -12.744695 -15.582323
Zn 1.408443 -9.912253 -15.582323
Zn 1.408443 -12.744695 -12.749880
Zn -1.423999 -9.912253 -12.749880
Zn -1.423999 -12.744695 -9.917438
Zn 1.408443 -9.912253 -9.917438
Zn 1.408443 -12.744695 -7.084995
Zn -1.423999 -9.912253 -7.084995
Zn -1.423999 -12.744695 -4.252553
Zn 1.408443 -9.912253 -4.252553
Zn 1.408443 -12.744695 -1.420110
Zn -1.423999 -9.912253 -1.420110
Zn -1.423999 -12.744695 1.412332
Zn 1.408443 -9.912253 1.412332
Zn 1.408443 -12.744695 4.244775
Zn -1.423999 -9.912253 4.244775
Zn -1.423999 -12.744695 7.077217
Zn 1.408443 -9.912253 7.077217
Zn 1.408443 -12.744695 9.909660
Zn -1.423999 -9.912253 9.909660
Zn -1.423999 -12.744695 12.742102
Zn 1.408443 -9.912253 12.742102
Zn 1.408443 -12.744695 15.574545
Zn -1.423999 -9.912253 15.574545
Zn -1.423999 -12.744695 18.406988
Zn 1.408443 -9.912253 18.406988
Zn 1.408443 -7.079810 -18.414765
Zn -1.423999 -4.247367 -18.414765
Zn -1.423999 -7.079810 -15.582323
Zn 1.408443 -4.247367 -15.582323
Zn 1.408443 -7.079810 -12.749880
Zn -1.423999 -4.247367 -12.749880
Zn -1.423999 -7.079810 -9.917438
Zn 1.408443 -4.247367 -9.917438
Zn 1.408443 -7.079810 -7.084995
Zn -1.423999 -4.247367 -7.084995
Zn -1.423999 -7.079810 -4.252553
Zn 1.408443 -4.247367 -4.252553
Zn 1.408443 -7.079810 -1.420110
Zn -1.423999 -4.247367 -1.420110
Zn -1.423999 -7.079810 1.412332
Zn 1.408443 -4.247367 1.412332
Zn 1.408443 -7.079810 4.244775
Zn -1.423999 -4.247367 4.244775
Zn -1.423999 -7.079810 7.077217
Zn 1.408443 -4.247367 7.077217
Zn 1.408443 -7.079810 9.909660
Zn -1.423999 -4.247367 9.909660
Zn -1.423999 -7.079810 12.742102
Zn 1.408443 -4.247367 12.742102
Zn 1.408443 -7.079810 15.574545
Zn -1.423999 -4.247367 15.574545
Zn -1.423999 -7.079810 18.406988
Zn 1.408443 -4.247367 18.406988
Zn 1.408443 -1.414925 -18.414765
Zn -1.423999 1.417518 -18.414765
Zn -1.423999 -1.414925 -15.582323
Zn 1.408443 1.417518 -15.582323
Zn 1.408443 -1.414925 -12.749880
Zn -1.423999 1.417518 -12.749880
Zn -1.423999 -1.414925 -9.917438
Zn 1.408443 1.417518 -9.917438
Zn 1.408443 -1.414925 -7.084995
Zn -1.423999 1.417518 -7.084995
Zn -1.423999 -1.414925 -4.252553
Zn 1.408443 1.417518 -4.252553
Zn 1.408443 -1.414925 -1.420110
Zn -1.423999 1.417518 -1.420110
Zn -1.423999 -1.414925 1.412332
Zn 1.408443 1.417518 1.412332
Zn 1.408443 -1.414925 4.244775
Zn -1.423999 1.417518 4.244775
Zn -1.423999 -1.414925 7.077217
Zn 1.408443 1.417518 7.077217
Zn 1.408443 -1.414925 9.909660
Zn -1.423999 1.417518 9.909660
Zn -1.423999 -1.414925 12.742102
Zn 1.408443 1.417518 12.742102
Zn 1.408443 -1.414925 15.574545
Zn -1.423999 1.417518 15.574545
Zn -1.423999 -1.414925 18.406988
Zn 1.408443 1.417518 18.406988
Zn 1.408443 4.249960 -18.414765
Zn -1.423999 7.082403 -18.414765
Zn -1.423999 4.249960 -15.582323
Zn 1.408443 7.082403 -15.582323
Zn 1.408443 4.249960 -12.749880
Zn -1.423999 7.082403 -12.749880
Zn -1.423999 4.249960 -9.917438
Zn 1.408443 7.082403 -9.917438
Zn 1.408443 4.249960 -7.084995
Zn -1.423999 7.082403 -7.084995
Zn -1.423999 4.249960 -4.252553
Zn 1.408443 7.082403 -4.252553
Zn 1.408443 4.249960 -1.420110
Zn -1.423999 7.082403 -1.420110
Zn -1.423999 4.249960 1.412332
Zn 1.408443 7.082403 1.412332
Zn 1.408443 4.249960 4.244775
Zn -1.423999 7.082403 4.244775
Zn -1.423999 4.249960 7.077217
Zn 1.408443 7.082403 7.077217
Zn 1.408443 4.249960 9.909660
Zn -1.423999 7.082403 9.909660
Zn -1.423999 4.249960 12.742102
Zn 1.408443 7.082403 12.742102
Zn 1.408443 4.249960 15.574545
Zn -1.423999 7.082403 15.574545
Zn -1.423999 4.249960 18.406988
Zn 1.408443 7.082403 18.406988
Zn 1.408443 9.914845 -18.414765
Zn -1.423999 12.747288 -18.414765
Zn -1.423999 9.914845 -15.582323
Zn 1.408443 12.747288 -15.582323
Zn 1.408443 9.914845 -12.749880
Zn -1.423999 12.747288 -12.749880
Zn -1.423999 9.914845 -9.917438
Zn 1.408443 12.747288 -9.917438
Zn 1.408443 9.914845 -7.084995
Zn -1.423999 12.747288 -7.084995
Zn -1.423999 9.914845 -4.252553
Zn 1.408443 12.747288 -4.252553
Zn 1.408443 9.914845 -1.420110
Zn -1.423999 12.747288 -1.420110
Zn -1.423999 9.914845 1.412332
Zn 1.408443 12.747288 1.412332
Zn 1.408443 9.914845 4.244775
Zn -1.423999 12.747288 4.244775
Zn -1.423999 9.914845 7.077217
Zn 1.408443 12.747288 7.077217
Zn 1.408443 9.914845 9.909660
Zn -1.423999 12.747288 9.909660
Zn -1.423999 9.914845 12.742102
Zn 1.408443 12.747288 12.742102
Zn 1.408443 9.914845 15.574545
Zn -1.423999 12.747288 15.574545
Zn -1.423999 9.914845 18.406988
Zn 1.408443 12.747288 18.406988
Zn 1.408443 15.579730 -18.414765
Zn -1.423999 15.579730 -15.582323
Zn 1.408443 18.412173 -15.582323
Zn 1.408443 15.579730 -12.749880
Zn -1.423999 18.412173 -12.749880
Zn -1.423999 15.579730 -9.917438
Zn 1.408443 18.412173 -9.917438
Zn 1.408443 15.579730 -7.084995
Zn -1.423999 18.412173 -7.084995
Zn -1.423999 15.579730 -4.252553
Zn 1.408443 18.412173 -4.252553
Zn 1.408443 15.579730 -1.420110
Zn -1.423999 18.412173 -1.420110
Zn -1.423999 15.579730 1.412332
Zn 1.408443 18.412173 1.412332
Zn 1.408443 15.579730 4.244775
Zn -1.423999 18.412173 4.244775
Zn -1.423999 15.579730 7.077217
Zn 1.408443 18.412173 7.077217
Zn 1.408443 15.579730 9.909660
Zn -1.423999 18.412173 9.909660
Zn -1.423999 15.579730 12.742102
Zn 1.408443 18.412173 12.742102
Zn 1.408443 15.579730 15.574545
Zn -1.423999 18.412173 15.574545
Zn -1.423999 15.579730 18.406988
Zn 4.240886 -15.577138 -12.749880
Zn 4.240886 -18.409580 -9.917438
Zn 7.073328 -15.577138 -9.917438
Zn 7.073328 -18.409580 -7.084995
Zn 4.240886 -15.577138 -7.084995
Zn 4.240886 -18.409580 -4.252553
Zn 7.073328 -15.577138 -4.252553
Zn 7.073328 -18.409580 -1.420110
Zn 4.240886 -15.577138 -1.420110
Zn 4.240886 -18.409580 1.412332
Zn 7.073328 -15.577138 1.412332
Zn 7.073328 -18.409580 4.244775
Zn 4.240886 -15.577138 4.244775
Zn 4.240886 -18.409580 7.077217
Zn 7.073328 -15.577138 7.077217
Zn 7.073328 -18.409580 9.909660
Zn 4.240886 -15.577138 9.909660
Zn 4.240886 -18.409580 12.742102
Zn 7.073328 -15.577138 12.742102
Zn 4.240886 -15.577138 15.574545
Zn 4.240886 -9.912253 -18.414765
Zn 4.240886 -12.744695 -15.582323
Zn 7.073328 -9.912253 -15.582323
Zn 7.073328 -12.744695 -12.749880
Zn 4.240886 -9.912253 -12.749880
Zn 4.240886 -12.744695 -9.917438
Zn 7.073328 -9.912253 -9.917438
Zn 7.073328 -12.744695 -7.084995
Zn 4.240886 -9.912253 -7.084995
Zn 4.240886 -12.744695 -4.252553
Zn 7.073328 -9.912253 -4.252553
Zn 7.073328 -12.744695 -1.420110
Zn 4.240886 -9.912253 -1.420110
Zn 4.240886 -12.744695 1.412332
Zn 7.073328 -9.912253 1.412332
Zn 7.073328 -12.744695 4.244775
Zn 4.240886 -9.912253 4.244775
Zn 4.240886 -12.744695 7.077217
Zn 7.073328 -9.912253 7.077217
Zn 7.073328 -12.744695 9.909660
Zn 4.240886 -9.912253 9.909660
Zn 4.240886 -12.744695 12.742102
Zn 7.073328 -9.912253 12.742102
Zn 7.073328 -12.744695 15.574545
Zn 4.240886 -9.912253 15.574545
Zn 4.240886 -12.744695 18.406988
Zn 7.073328 -9.912253 18.406988
Zn 7.073328 -7.079810 -18.414765
Zn 4.240886 -4.247367 -18.414765
Zn 4.240886 -7.079810 -15.582323
Zn 7.073328 -4.247367 -15.582323
Zn 7.073328 -7.079810 -12.749880
Zn 4.240886 -4.247367 -12.749880
Zn 4.240886 -7.079810 -9.917438
Zn 7.073328 -4.247367 -9.917438
Zn 7.073328 -7.079810 -7.084995
Zn 4.240886 -4.247367 -7.084995
Zn 4.240886 -7.079810 -4.252553
Zn 7.073328 -4.247367 -4.252553
Zn 7.073328 -7.079810 -1.420110
Zn 4.240886 -4.247367 -1.420110
Zn 4.240886 -7.079810 1.412332
Zn 7.073328 -4.247367 1.412332
Zn 7.073328 -7.079810 4.244775
Zn 4.240886 -4.247367 4.244775
Zn 4.240886 -7.079810 7.077217
Zn 7.073328 -4.247367 7.077217
Zn 7.073328 -7.079810 9.909660
Zn 4.240886 -4.247367 9.909660
Zn 4.240886 -7.079810 12.742102
Zn 7.073328 -4.247367 12.742102
Zn 7.073328 -7.079810 15.574545
Zn 4.240886 -4.247367 15.574545
Zn 4.240886 -7.079810 18.406988
Zn 7.073328 -4.247367 18.406988
Zn 7.073328 -1.414925 -18.414765
Zn 4.240886 1.417518 -18.414765
Zn 4.240886 -1.414925 -15.582323
Zn 7.073328 1.417518 -15.582323
Zn 7.073328 -1.414925 -12.749880
Zn 4.240886 1.417518 -12.749880
Zn 4.240886 -1.414925 -9.917438
Zn 7.073328 1.417518 -9.917438
Zn 7.073328 -1.414925 -7.084995
Zn 4.240886 1.417518 -7.084995
Zn 4.240886 -1.414925 -4.252553
Zn 7.073328 1.417518 -4.252553
Zn 7.073328 -1.414925 -1.420110
Zn 4.240886 1.417518 -1.420110
Zn 4.240886 -1.414925 1.412332
Zn 7.073328 1.417518 1.412332
Zn 7.073328 -1.414925 4.244775
Zn 4.240886 1.417518 4.244775
Zn 4.240886 -1.414925 7.077217
Zn 7.073328 1.417518 7.077217
Zn 7.073328 -1.414925 9.909660
Zn 4.240886 1.417518 9.909660
Zn 4.240886 -1.414925 12.742102
Zn 7.073328 1.417518 12.742102
Zn 7.073328 -1.414925 15.574545
Zn 4.240886 1.417518 15.574545
Zn 4.240886 -1.414925 18.406988
Zn 7.073328 1.417518 18.406988
Zn 7.073328 4.249960 -18.414765
Zn 4.240886 7.082403 -18.414765
Zn 4.240886 4.249960 -15.582323
Zn 7.073328 7.082403 -15.582323
Zn 7.073328 4.249960 -12.749880
Zn 4.240886 7.082403 -12.749880
Zn 4.240886 4.249960 -9.917438
Zn 7.073328 7.082403 -9.917438
Zn 7.073328 4.249960 -7.084995
Zn 4.240886 7.082403 -7.084995
Zn 4.240886 4.249960 -4.252553
Zn 7.073328 7.082403 -4.252553
Zn 7.073328 4.249960 -1.420110
Zn 4.240886 7.082403 -1.420110
Zn 4.240886 4.249960 1.412332
Zn 7.073328 7.082403 1.412332
Zn 7.073328 4.249960 4.244775
Zn 4.240886 7.082403 4.244775
Zn 4.240886 4.249960 7.077217
Zn 7.073328 7.082403 7.077217
Zn 7.073328 4.249960 9.909660
Zn 4.240886 7.082403 9.909660
Zn 4.240886 4.249960 12.742102
Zn 7.073328 7.082403 12.742102
Zn 7.073328 4.249960 15.574545
Zn 4.240886 7.082403 15.574545
Zn 4.240886 4.249960 18.406988
Zn 7.073328 7.082403 18.406988
Zn 7.073328 9.914845 -18.414765
Zn 4.240886 12.747288 -18.414765
Zn 4.240886 9.914845 -15.582323
Zn 7.073328 12.747288 -15.582323
Zn 7.073328 9.914845 -12.749880
Zn 4.240886 12.747288 -12.749880
Zn 4.240886 9.914845 -9.917438
Zn 7.073328 12.747288 -9.917438
Zn 7.073328 9.914845 -7.084995
Zn 4.240886 12.747288 -7.084995
Zn 4.240886 9.914845 -4.252553
Zn 7.073328 12.747288 -4.252553
Zn 7.073328 9.914845 -1.420110
Zn 4.240886 12.747288 -1.420110
Zn 4.240886 9.914845 1.412332
Zn 7.073328 12.747288 1.412332
Zn 7.073328 9.914845 4.244775
Zn 4.240886 12.747288 4.244775
Zn 4.240886 9.914845 7.077217
Zn 7.073328 12.747288 7.077217
Zn 7.073328 9.914845 9.909660
Zn 4.240886 12.747288 9.909660
Zn 4.240886 9.914845 12.742102
Zn 7.073328 12.747288 12.742102
Zn 7.073328 9.914845 15.574545
Zn 4.240886 12.747288 15.574545
Zn 4.240886 9.914845 18.406988
Zn 4.240886 15.579730 -15.582323
Zn 7.073328 15.579730 -12.749880
Zn 4.240886 18.412173 -12.749880
Zn 4.240886 15.579730 -9.917438
Zn 7.073328 18.412173 -9.917438
Zn 7.073328 15.579730 -7.084995
Zn 4.240886 18.412173 -7.084995
Zn 4.240886 15.579730 -4.252553
Zn 7.073328 18.412173 -4.252553
Zn 7.073328 15.579730 -1.420110
Zn 4.240886 18.412173 -1.420110
Zn 4.240886 15.579730 1.412332
Zn 7.073328 18.412173 1.412332
Zn 7.073328 15.579730 4.244775
Zn 4.240886 18.412173 4.244775
Zn 4.240886 15.579730 7.077217
Zn 7.073328 18.412173 7.077217
Zn 7.073328 15.579730 9.909660
Zn 4.240886 18.412173 9.909660
Zn 4.240886 15.579730 12.742102
Zn 9.905771 -15.577138 -7.084995
Zn 9.905771 -18.409580 -4.252553
Zn 12.738214 -15.577138 -4.252553
Zn 12.738214 -18.409580 -1.420110
Zn 9.905771 -15.577138 -1.420110
Zn 9.905771 -18.409580 1.412332
Zn 12.738214 -15.577138 1.412332
Zn 12.738214 -18.409580 4.244775
Zn 9.905771 -15.577138 4.244775
Zn 9.905771 -18.409580 7.077217
Zn 12.738214 -15.577138 7.077217
Zn 9.905771 -15.577138 9.909660
Zn 9.905771 -9.912253 -12.749880
Zn 9.905771 -12.744695 -9.917438
Zn 12.738214 -9.912253 -9.917438
Zn 12.738214 -12.744695 -7.084995
Zn 9.905771 -9.912253 -7.084995
Zn 9.905771 -12.744695 -4.252553
Zn 12.738214 -9.912253 -4.252553
Zn 12.738214 -12.744695 -1.420110
Zn 9.905771 -9.912253 -1.420110
Zn 9.905771 -12.744695 1.412332
Zn 12.738214 -9.912253 1.412332
Zn 12.738214 -12.744695 4.244775
Zn 9.905771 -9.912253 4.244775
Zn 9.905771 -12.744695 7.077217
Zn 12.738214 -9.912253 7.077217
Zn 12.738214 -12.744695 9.909660
Zn 9.905771 -9.912253 9.909660
Zn 9.905771 -12.744695 12.742102
Zn 12.738214 -9.912253 12.742102
Zn 9.905771 -9.912253 15.574545
Zn 9.905771 -4.247367 -18.414765
Zn 9.905771 -7.079810 -15.582323
Zn 12.738214 -4.247367 -15.582323
Zn 12.738214 -7.079810 -12.749880
Zn 9.905771 -4.247367 -12.749880
Zn 9.905771 -7.079810 -9.917438
Zn 12.738214 -4.247367 -9.917438
Zn 12.738214 -7.079810 -7.084995
Zn 9.905771 -4.247367 -7.084995
Zn 9.905771 -7.079810 -4.252553
Zn 12.738214 -4.247367 -4.252553
Zn 12.738214 -7.079810 -1.420110
Zn 9.905771 -4.247367 -1.420110
Zn 9.905771 -7.079810 1.412332
Zn 12.738214 -4.247367 1.412332
Zn 12.738214 -7.079810 4.244775
Zn 9.905771 -4.247367 4.244775
Zn 9.905771 -7.079810 7.077217
Zn 12.738214 -4.247367 7.077217
Zn 12.738214 -7.079810 9.909660
Zn 9.905771 -4.247367 9.909660
Zn 9.905771 -7.079810 12.742102
Zn 12.738214 -4.247367 12.742102
Zn 12.738214 -7.079810 15.574545
Zn 9.905771 -4.247367 15.574545
Zn 9.905771 -7.079810 18.406988
Zn 12.738214 -4.247367 18.406988
Zn 12.738214 -1.414925 -18.414765
Zn 9.905771 1.417518 -18.414765
Zn 9.905771 -1.414925 -15.582323
Zn 12.738214 1.417518 -15.582323
Zn 12.738214 -1.414925 -12.749880
Zn 9.905771 1.417518 -12.749880
Zn 9.905771 -1.414925 -9.917438
Zn 12.738214 1.417518 -9.917438
Zn 12.738214 -1.414925 -7.084995
Zn 9.905771 1.417518 -7.084995
Zn 9.905771 -1.414925 -4.252553
Zn 12.738214 1.417518 -4.252553
Zn 12.738214 -1.414925 -1.420110
Zn 9.905771 1.417518 -1.420110
Zn 9.905771 -1.414925 1.412332
Zn 12.738214 1.417518 1.412332
Zn 12.738214 -1.414925 4.244775
Zn 9.905771 1.417518 4.244775
Zn 9.905771 -1.414925 7.077217
Zn 12.738214 1.417518 7.077217
Zn 12.738214 -1.414925 9.909660
Zn 9.905771 1.417518 9.909660
Zn 9.905771 -1.414925 12.742102
Zn 12.738214 1.417518 12.742102
Zn 12.738214 -1.414925 15.574545
Zn 9.905771 1.417518 15.574545
Zn 9.905771 -1.414925 18.406988
Zn 12.738214 1.417518 18.406988
Zn 12.738214 4.249960 -18.414765
Zn 9.905771 7.082403 -18.414765
Zn 9.905771 4.249960 -15.582323
Zn 12.738214 7.082403 -15.582323
Zn 12.738214 4.249960 -12.749880
Zn 9.905771 7.082403 -12.749880
Zn 9.905771 4.249960 -9.917438
Zn 12.738214 7.082403 -9.917438
Zn 12.738214 4.249960 -7.084995
Zn 9.905771 7.082403 -7.084995
Zn 9.905771 4.249960 -4.252553
Zn 12.738214 7.082403 -4.252553
Zn 12.738214 4.249960 -1.420110
Zn 9.905771 7.082403 -1.420110
Zn 9.905771 4.249960 1.412332
Zn 12.738214 7.082403 1.412332
Zn 12.738214 4.249960 4.244775
Zn 9.905771 7.082403 4.244775
Zn 9.905771 4.249960 7.077217
Zn 12.738214 7.082403 7.077217
Zn 12.738214 4.249960 9.909660
Zn 9.905771 7.082403 9.909660
Zn 9.905771 4.249960 12.742102
Zn 12.738214 7.082403 12.742102
Zn 12.738214 4.249960 15.574545
Zn 9.905771 7.082403 15.574545
Zn 9.905771 4.249960 18.406988
Zn 9.905771 9.914845 -15.582323
Zn 12.738214 9.914845 -12.749880
Zn 9.905771 12.747288 -12.749880
Zn 9.905771 9.914845 -9.917438
Zn 12.738214 12.747288 -9.917438
Zn 12.738214 9.914845 -7.084995
Zn 9.905771 12.747288 -7.084995
Zn 9.905771 9.914845 -4.252553
Zn 12.738214 12.747288 -4.252553
Zn 12.738214 9.914845 -1.420110
Zn 9.905771 12.747288 -1.420110
Zn 9.905771 9.914845 1.412332
Zn 12.738214 12.747288 1.412332
Zn 12.738214 9.914845 4.244775
Zn 9.905771 12.747288 4.244775
Zn 9.905771 9.914845 7.077217
Zn 12.738214 12.747288 7.077217
Zn 12.738214 9.914845 9.909660
Zn 9.905771 12.747288 9.909660
Zn 9.905771 9.914845 12.742102
Zn 9.905771 15.579730 -9.917438
Zn 12.738214 15.579730 -7.084995
Zn 9.905771 18.412173 -7.084995
Zn 9.905771 15.579730 -4.252553
Zn 12.738214 18.412173 -4.252553
Zn 12.738214 15.579730 -1.420110
Zn 9.905771 18.412173 -1.420110
Zn 9.905771 15.579730 1.412332
Zn 12.738214 18.412173 1.412332
Zn 12.738214 15.579730 4.244775
Zn 9.905771 18.412173 4.244775
Zn 9.905771 15.579730 7.077217
Zn 15.570656 -15.577138 -1.420110
Zn 15.570656 -18.409580 1.412332
Zn 18.403099 -15.577138 1.412332
Zn 15.570656 -15.577138 4.244775
Zn 15.570656 -9.912253 -7.084995
Zn 15.570656 -12.744695 -4.252553
Zn 18.403099 -9.912253 -4.252553
Zn 18.403099 -12.744695 -1.420110
Zn 15.570656 -9.912253 -1.420110
Zn 15.570656 -12.744695 1.412332
Zn 18.403099 -9.912253 1.412332
Zn 18.403099 -12.744695 4.244775
Zn 15.570656 -9.912253 4.244775
Zn 15.570656 -12.744695 7.077217
Zn 18.403099 -9.912253 7.077217
Zn 15.570656 -9.912253 9.909660
Zn 15.570656 -4.247367 -12.749880
Zn 15.570656 -7.079810 -9.917438
Zn 18.403099 -4.247367 -9.917438
Zn 18.403099 -7.079810 -7.084995
Zn 15.570656 -4.247367 -7.084995
Zn 15.570656 -7.079810 -4.252553
Zn 18.403099 -4.247367 -4.252553
Zn 18.403099 -7.079810 -1.420110
Zn 15.570656 -4.247367 -1.420110
Zn 15.570656 -7.079810 1.412332
Zn 18.403099 -4.247367 1.412332
Zn 18.403099 -7.079810 4.244775
Zn 15.570656 -4.247367 4.244775
Zn 15.570656 -7.079810 7.077217
Zn 18.403099 -4.247367 7.077217
Zn 18.403099 -7.079810 9.909660
Zn 15.570656 -4.247367 9.909660
Zn 15.570656 -7.079810 12.742102
Zn 18.403099 -4.247367 12.742102
Zn 15.570656 -4.247367 15.574545
Zn 15.570656 1.417518 -18.414765
Zn 15.570656 -1.414925 -15.582323
Zn 18.403099 1.417518 -15.582323
Zn 18.403099 -1.414925 -12.749880
Zn 15.570656 1.417518 -12.749880
Zn 15.570656 -1.414925 -9.917438
Zn 18.403099 1.417518 -9.917438
Zn 18.403099 -1.414925 -7.084995
Zn 15.570656 1.417518 -7.084995
Zn 15.570656 -1.414925 -4.252553
Zn 18.403099 1.417518 -4.252553
Zn 18.403099 -1.414925 -1.420110
Zn 15.570656 1.417518 -1.420110
Zn 15.570656 -1.414925 1.412332
Zn 18.403099 1.417518 1.412332
Zn 18.403099 -1.414925 4.244775
Zn 15.570656 1.417518 4.244775
Zn 15.570656 -1.414925 7.077217
Zn 18.403099 1.417518 7.077217
Zn 18.403099 -1.414925 9.909660
Zn 15.570656 1.417518 9.909660
Zn 15.570656 -1.414925 12.742102
Zn 18.403099 1.417518 12.742102
Zn 18.403099 -1.414925 15.574545
Zn 15.570656 1.417518 15.574545
Zn 15.570656 -1.414925 18.406988
Zn 15.570656 4.249960 -15.582323
Zn 18.403099 4.249960 -12.749880
Zn 15.570656 7.082403 -12.749880
Zn 15.570656 4.249960 -9.917438
Zn 18.403099 7.082403 -9.917438
Zn 18.403099 4.249960 -7.084995
Zn 15.570656 7.082403 -7.084995
Zn 15.570656 4.249960 -4.252553
Zn 18.403099 7.082403 -4.252553
Zn 18.403099 4.249960 -1.420110
Zn 15.570656 7.082403 -1.420110
Zn 15.570656 4.249960 1.412332
Zn 18.403099 7.082403 1.412332
Zn 18.403099 4.249960 4.244775
Zn 15.570656 7.082403 4.244775
Zn 15.570656 4.249960 7.077217
Zn 18.403099 7.082403 7.077217
Zn 18.403099 4.249960 9.909660
Zn 15.570656 7.082403 9.909660
Zn 15.570656 4.249960 12.742102
Zn 15.570656 9.914845 -9.917438
Zn 18.403099 9.914845 -7.084995
Zn 15.570656 12.747288 -7.084995
Zn 15.570656 9.914845 -4.252553
Zn 18.403099 12.747288 -4.252553
Zn 18.403099 9.914845 -1.420110
Zn 15.570656 12.747288 -1.420110
Zn 15.570656 9.914845 1.412332
Zn 18.403099 12.747288 1.412332
Zn 18.403099 9.914845 4.244775
Zn 15.570656 12.747288 4.244775
Zn 15.570656 9.914845 7.077217
Zn 15.570656 15.579730 -4.252553
Zn 18.403099 15.579730 -1.420110
Zn 15.570656 18.412173 -1.420110
Zn 15.570656 15.579730 1.412332
Se -14.169991 -14.160916 -5.668774
Se -17.002433 -16.993359 -0.003889
Se -17.002433 -14.160916 -2.836331
Se -14.169991 -14.160916 -0.003889
Se -14.169991 -16.993359 -2.836331
Se -17.002433 -14.160916 2.828554
Se -14.169991 -14.160916 5.660996
Se -14.169991 -16.993359 2.828554
Se -14.169991 -8.496031 -11.333659
Se -17.002433 -11.328474 -5.668774
Se -17.002433 -8.496031 -8.501217
Se -14.169991 -8.496031 -5.668774
Se -14.169991 -11.328474 -8.501217
Se -17.002433 -11.328474 -0.003889
Se -17.002433 -8.496031 -2.836331
Se -14.169991 -8.496031 -0.003889
Se -14.169991 -11.328474 -2.836331
Se -17.002433 -11.328474 5.660996
Se -17.002433 -8.496031 2.828554
Se -14.169991 -8.496031 5.660996
Se -14.169991 -11.328474 2.828554
Se -17.002433 -8.496031 8.493439
Se -14.169991 -8.496031 11.325881
Se -14.169991 -11.328474 8.493439
Se -14.169991 -2.831146 -16.998544
Se -17.002433 -5.663589 -11.333659
Se -17.002433 -2.831146 -14.166102
Se -14.169991 -2.831146 -11.333659
Se -14.169991 -5.663589 -14.166102
Se -17.002433 -5.663589 -5.668774
Se -17.002433 -2.831146 -8.501217
Se -14.169991 -2.831146 -5.668774
Se -14.169991 -5.663589 -8.501217
Se -17.002433 -5.663589 -0.003889
Se -17.002433 -2.831146 -2.836331
Se -14.169991 -2.831146 -0.003889
Se -14.169991 -5.663589 -2.836331
Se -17.002433 -5.663589 5.660996
Se -17.002433 -2.831146 2.828554
Se -14.169991 -2.831146 5.660996
Se -14.169991 -5.663589 2.828554
Se -17.002433 -5.663589 11.325881
Se -17.002433 -2.831146 8.493439
Se -14.169991 -2.831146 11.325881
Se -14.169991 -5.663589 8.493439
Se -17.002433 -2.831146 14.158324
Se -14.169991 -2.831146 16.990766
Se -14.169991 -5.663589 14.158324
Se -17.002433 0.001296 -16.998544
Se -14.169991 2.833739 -16.998544
Se -17.002433 0.001296 -11.333659
Se -17.002433 2.833739 -14.166102
Se -14.169991 2.833739 -11.333659
Se -14.169991 0.001296 -14.166102
Se -17.002433 0.001296 -5.668774
Se -17.002433 2.833739 -8.501217
Se -14.169991 2.833739 -5.668774
Se -14.169991 0.001296 -8.501217
Se -17.002433 0.001296 -0.003889
Se -17.002433 2.833739 -2.836331
Se -14.169991 2.833739 -0.003889
Se -14.169991 0.001296 -2.836331
Se -17.002433 0.001296 5.660996
Se -17.002433 2.833739 2.828554
Se -14.169991 2.833739 5.660996
Se -14.169991 0.001296 2.828554
Se -17.002433 0.001296 11.325881
Se -17.002433 2.833739 8.493439
Se -14.169991 2.833739 11.325881
Se -14.169991 0.001296 8.493439
Se -17.002433 0.001296 16.990766
Se -17.002433 2.833739 14.158324
Se -14.169991 2.833739 16.990766
Se -14.169991 0.001296 14.158324
Se -17.002433 5.666181 -11.333659
Se -14.169991 8.498624 -11.333659
Se -14.169991 5.666181 -14.166102
Se -17.002433 5.666181 -5.668774
Se -17.002433 8.498624 -8.501217
Se -14.169991 8.498624 -5.668774
Se -14.169991 5.666181 -8.501217
Se -17.002433 5.666181 -0.003889
Se -17.002433 8.498624 -2.836331
Se -14.169991 8.498624 -0.003889
Se -14.169991 5.666181 -2.836331
Se -17.002433 5.666181 5.660996
Se -17.002433 8.498624 2.828554
Se -14.169991 8.498624 5.660996
Se -14.169991 5.666181 2.828554
Se -17.002433 5.666181 11.325881
Se -17.002433 8.498624 8.493439
Se -14.169991 8.498624 11.325881
Se -14.169991 5.666181 8.493439
Se -14.169991 5.666181 14.158324
Se -17.002433 11.331066 -5.668774
Se -14.169991 14.163509 -5.668774
Se -14.169991 11.331066 -8.501217
Se -17.002433 11.331066 -0.003889
Se -17.002433 14.163509 -2.836331
Se -14.169991 14.163509 -0.003889
Se -14.169991 11.331066 -2.836331
Se -17.002433 11.331066 5.660996
Se -17.002433 14.163509 2.828554
Se -14.169991 14.163509 5.660996
Se -14.169991 11.331066 2.828554
Se -14.169991 11.331066 8.493439
Se -17.002433 16.995952 -0.003889
Se -14.169991 16.995952 -2.836331
Se -14.169991 16.995952 2.828554
Se -8.505105 -14.160916 -11.333659
Se -11.337548 -16.993359 -5.668774
Se -11.337548 -14.160916 -8.501217
Se -8.505105 -14.160916 -5.668774
Se -8.505105 -16.993359 -8.501217
Se -11.337548 -16.993359 -0.003889
Se -11.337548 -14.160916 -2.836331
Se -8.505105 -14.160916 -0.003889
Se -8.505105 -16.993359 -2.836331
Se -11.337548 -16.993359 5.660996
Se -11.337548 -14.160916 2.828554
Se -8.505105 -14.160916 5.660996
Se -8.505105 -16.993359 2.828554
Se -11.337548 -14.160916 8.493439
Se -8.505105 -14.160916 11.325881
Se -8.505105 -16.993359 8.493439
Se -8.505105 -8.496031 -16.998544
Se -11.337548 -11.328474 -11.333659
Se -11.337548 -8.496031 -14.166102
Se -8.505105 -8.496031 -11.333659
Se -8.505105 -11.328474 -14.166102
Se -11.337548 -11.328474 -5.668774
Se -11.337548 -8.496031 -8.501217
Se -8.505105 -8.496031 -5.668774
Se -8.505105 -11.328474 -8.501217
Se -11.337548 -11.328474 -0.003889
Se -11.337548 -8.496031 -2.836331
Se -8.505105 -8.496031 -0.003889
Se -8.505105 -11.328474 -2.836331
Se -11.337548 -11.328474 5.660996
Se -11.337548 -8.496031 2.828554
Se -8.505105 -8.496031 5.660996
Se -8.505105 -11.328474 2.828554
Se -11.337548 -11.328474 11.325881
Se -11.337548 -8.496031 8.493439
Se -8.505105 -8.496031 11.325881
Se -8.505105 -11.328474 8.493439
Se -11.337548 -8.496031 14.158324
Se -8.505105 -8.496031 16.990766
Se -8.505105 -11.328474 14.158324
Se -11.337548 -5.663589 -16.998544
Se -8.505105 -2.831146 -16.998544
Se -11.337548 -5.663589 -11.333659
Se -11.337548 -2.831146 -14.166102
Se -8.505105 -2.831146 -11.333659
Se -8.505105 -5.663589 -14.166102
Se -11.337548 -5.663589 -5.668774
Se -11.337548 -2.831146 -8.501217
Se -8.505105 -2.831146 -5.668774
Se -8.505105 -5.663589 -8.501217
Se -11.337548 -5.663589 -0.003889
Se -11.337548 -2.831146 -2.836331
Se -8.505105 -2.831146 -0.003889
Se -8.505105 -5.663589 -2.836331
Se -11.337548 -5.663589 5.660996
Se -11.337548 -2.831146 2.828554
Se -8.505105 -2.831146 5.660996
Se -8.505105 -5.663589 2.828554
Se -11.337548 -5.663589 11.325881
Se -11.337548 -2.831146 8.493439
Se -8.505105 -2.831146 11.325881
Se -8.505105 -5.663589 8.493439
Se -11.337548 -5.663589 16.990766
Se -11.337548 -2.831146 14.158324
Se -8.505105 -2.831146 16.990766
Se -8.505105 -5.663589 14.158324
Se -11.337548 0.001296 -16.998544
Se -8.505105 2.833739 -16.998544
Se -11.337548 0.001296 -11.333659
Se -11.337548 2.833739 -14.166102
Se -8.505105 2.833739 -11.333659
Se -8.505105 0.001296 -14.166102
Se -11.337548 0.001296 -5.668774
Se -11.337548 2.833739 -8.501217
Se -8.505105 2.833739 -5.668774
Se -8.505105 0.001296 -8.501217
Se -11.337548 0.001296 -0.003889
Se -11.337548 2.833739 -2.836331
Se -8.505105 2.833739 -0.003889
Se -8.505105 0.001296 -2.836331
Se -11.337548 0.001296 5.660996
Se -11.337548 2.833739 2.828554
Se -8.505105 2.833739 5.660996
Se -8.505105 0.001296 2.828554
Se -11.337548 0.001296 11.325881
Se -11.337548 2.833739 8.493439
Se -8.505105 2.833739 11.325881
Se -8.505105 0.001296 8.493439
Se -11.337548 0.001296 16.990766
Se -11.337548 2.833739 14.158324
Se -8.505105 2.833739 16.990766
Se -8.505105 0.001296 14.158324
Se -11.337548 5.666181 -16.998544
Se -8.505105 8.498624 -16.998544
Se -11.337548 5.666181 -11.333659
Se -11.337548 8.498624 -14.166102
Se -8.505105 8.498624 -11.333659
Se -8.505105 5.666181 -14.166102
Se -11.337548 5.666181 -5.668774
Se -11.337548 8.498624 -8.501217
Se -8.505105 8.498624 -5.668774
Se -8.505105 5.666181 -8.501217
Se -11.337548 5.666181 -0.003889
Se -11.337548 8.498624 -2.836331
Se -8.505105 8.498624 -0.003889
Se -8.505105 5.666181 -2.836331
Se -11.337548 5.666181 5.660996
Se -11.337548 8.498624 2.828554
Se -8.505105 8.498624 5.660996
Se -8.505105 5.666181 2.828554
Se -11.337548 5.666181 11.325881
Se -11.337548 8.498624 8.493439
Se -8.505105 8.498624 11.325881
Se -8.505105 5.666181 8.493439
Se -11.337548 5.666181 16.990766
Se -11.337548 8.498624 14.158324
Se -8.505105 8.498624 16.990766
Se -8.505105 5.666181 14.158324
Se -11.337548 11.331066 -11.333659
Se -8.505105 14.163509 -11.333659
Se -8.505105 11.331066 -14.166102
Se -11.337548 11.331066 -5.668774
Se -11.337548 14.163509 -8.501217
Se -8.505105 14.163509 -5.668774
Se -8.505105 11.331066 -8.501217
Se -11.337548 11.331066 -0.003889
Se -11.337548 14.163509 -2.836331
Se -8.505105 14.163509 -0.003889
Se -8.505105 11.331066 -2.836331
Se -11.337548 11.331066 5.660996
Se -11.337548 14.163509 2.828554
Se -8.505105 14.163509 5.660996
Se -8.505105 11.331066 2.828554
Se -11.337548 11.331066 11.325881
Se -11.337548 14.163509 8.493439
Se -8.505105 14.163509 11.325881
Se -8.505105 11.331066 8.493439
Se -8.505105 11.331066 14.158324
Se -11.337548 16.995952 -5.668774
Se -8.505105 16.995952 -8.501217
Se -11.337548 16.995952 -0.003889
Se -8.505105 16.995952 -2.836331
Se -11.337548 16.995952 5.660996
Se -8.505105 16.995952 2.828554
Se -8.505105 16.995952 8.493439
Se -2.840220 -14.160916 -16.998544
Se -5.672663 -16.993359 -11.333659
Se -5.672663 -14.160916 -14.166102
Se -2.840220 -14.160916 -11.333659
Se -2.840220 -16.993359 -14.166102
Se -5.672663 -16.993359 -5.668774
Se -5.672663 -14.160916 -8.501217
Se -2.840220 -14.160916 -5.668774
Se -2.840220 -16.993359 -8.501217
Se -5.672663 -16.993359 -0.003889
Se -5.672663 -14.160916 -2.836331
Se -2.840220 -14.160916 -0.003889
Se -2.840220 -16.993359 -2.836331
Se -5.672663 -16.993359 5.660996
Se -5.672663 -14.160916 2.828554
Se -2.840220 -14.160916 5.660996
Se -2.840220 -16.993359 2.828554
Se -5.672663 -16.993359 11.325881
Se -5.672663 -14.160916 8.493439
Se -2.840220 -14.160916 11.325881
Se -2.840220 -16.993359 8.493439
Se -5.672663 -14.160916 14.158324
Se -2.840220 -14.160916 16.990766
Se -2.840220 -16.993359 14.158324
Se -5.672663 -11.328474 -16.998544
Se -2.840220 -8.496031 -16.998544
Se -5.672663 -11.328474 -11.333659
Se -5.672663 -8.496031 -14.166102
Se -2.840220 -8.496031 -11.333659
Se -2.840220 -11.328474 -14.166102
Se -5.672663 -11.328474 -5.668774
Se -5.672663 -8.496031 -8.501217
Se -2.840220 -8.496031 -5.668774
Se -2.840220 -11.328474 -8.501217
Se -5.672663 -11.328474 -0.003889
Se -5.672663 -8.496031 -2.836331
Se -2.840220 -8.496031 -0.003889
Se -2.840220 -11.328474 -2.836331
Se -5.672663 -11.328474 5.660996
Se -5.672663 -8.496031 2.828554
Se -2.840220 -8.496031 5.660996
Se -2.840220 -11.328474 2.828554
Se -5.672663 -11.328474 11.325881
Se -5.672663 -8.496031 8.493439
Se -2.840220 -8.496031 11.325881
Se -2.840220 -11.328474 8.493439
Se -5.672663 -11.328474 16.990766
Se -5.672663 -8.496031 14.158324
Se -2.840220 -8.496031 16.990766
Se -2.840220 -11.328474 14.158324
Se -5.672663 -5.663589 -16.998544
Se -2.840220 -2.831146 -16.998544
Se -5.672663 -5.663589 -11.333659
Se -5.672663 -2.831146 -14.166102
Se -2.840220 -2.831146 -11.333659
Se -2.840220 -5.663589 -14.166102
Se -5.672663 -5.663589 -5.668774
Se -5.672663 -2.831146 -8.501217
Se -2.840220 -2.831146 -5.668774
Se -2.840220 -5.663589 -8.501217
Se -5.672663 -5.663589 -0.003889
Se -5.672663 -2.831146 -2.836331
Se -2.840220 -2.831146 -0.003889
Se -2.840220 -5.663589 -2.836331
Se -5.672663 -5.663589 5.660996
Se -5.672663 -2.831146 2.828554
Se -2.840220 -2.831146 5.660996
Se -2.840220 -5.663589 2.828554
Se -5.672663 -5.663589 11.325881
Se -5.672663 -2.831146 8.493439
Se -2.840220 -2.831146 11.325881
Se -2.840220 -5.663589 8.493439
Se -5.672663 -5.663589 16.990766
Se -5.672663 -2.831146 14.158324
Se -2.840220 -2.831146 16.990766
Se -2.840220 -5.663589 14.158324
Se -5.672663 0.001296 -16.998544
Se -2.840220 2.833739 -16.998544
Se -5.672663 0.001296 -11.333659
Se -5.672663 2.833739 -14.166102
Se -2.840220 2.833739 -11.333659
Se -2.840220 0.001296 -14.166102
Se -5.672663 0.001296 -5.668774
Se -5.672663 2.833739 -8.501217
Se -2.840220 2.833739 -5.668774
Se -2.840220 0.001296 -8.501217
Se -5.672663 0.001296 -0.003889
Se -5.672663 2.833739 -2.836331
Se -2.840220 2.833739 -0.003889
Se -2.840220 0.001296 -2.836331
Se -5.672663 0.001296 5.660996
Se -5.672663 2.833739 2.828554
Se -2.840220 2.833739 5.660996
Se -2.840220 0.001296 2.828554
Se -5.672663 0.001296 11.325881
Se -5.672663 2.833739 8.493439
Se -2.840220 2.833739 11.325881
Se -2.840220 0.001296 8.493439
Se -5.672663 0.001296 16.990766
Se -5.672663 2.833739 14.158324
Se -2.840220 2.833739 16.990766
Se -2.840220 0.001296 14.158324
Se -5.672663 5.666181 -16.998544
Se -2.840220 8.498624 -16.998544
Se -5.672663 5.666181 -11.333659
Se -5.672663 8.498624 -14.166102
Se -2.840220 8.498624 -11.333659
Se -2.840220 5.666181 -14.166102
Se -5.672663 5.666181 -5.668774
Se -5.672663 8.498624 -8.501217
Se -2.840220 8.498624 -5.668774
Se -2.840220 5.666181 -8.501217
Se -5.672663 5.666181 -0.003889
Se -5.672663 8.498624 -2.836331
Se -2.840220 8.498624 -0.003889
Se -2.840220 5.666181 -2.836331
Se -5.672663 5.666181 5.660996
Se -5.672663 8.498624 2.828554
Se -2.840220 8.498624 5.660996
Se -2.840220 5.666181 2.828554
Se -5.672663 5.666181 11.325881
Se -5.672663 8.498624 8.493439
Se -2.840220 8.498624 11.325881
Se -2.840220 5.666181 8.493439
Se -5.672663 5.666181 16.990766
Se -5.672663 8.498624 14.158324
Se -2.840220 8.498624 16.990766
Se -2.840220 5.666181 14.158324
Se -5.672663 11.331066 -16.998544
Se -2.840220 14.163509 -16.998544
Se -5.672663 11.331066 -11.333659
Se -5.672663 14.163509 -14.166102
Se -2.840220 14.163509 -11.333659
Se -2.840220 11.331066 -14.166102
Se -5.672663 11.331066 -5.668774
Se -5.672663 14.163509 -8.501217
Se -2.840220 14.163509 -5.668774
Se -2.840220 11.331066 -8.501217
Se -5.672663 11.331066 -0.003889
Se -5.672663 14.163509 -2.836331
Se -2.840220 14.163509 -0.003889
Se -2.840220 11.331066 -2.836331
Se -5.672663 11.331066 5.660996
Se -5.672663 14.163509 2.828554
Se -2.840220 14.163509 5.660996
Se -2.840220 11.331066 2.828554
Se -5.672663 11.331066 11.325881
Se -5.672663 14.163509 8.493439
Se -2.840220 14.163509 11.325881
Se -2.840220 11.331066 8.493439
Se -5.672663 11.331066 16.990766
Se -5.672663 14.163509 14.158324
Se -2.840220 14.163509 16.990766
Se -2.840220 11.331066 14.158324
Se -5.672663 16.995952 -11.333659
Se -2.840220 16.995952 -14.166102
Se -5.672663 16.995952 -5.668774
Se -2.840220 16.995952 -8.501217
Se -5.672663 16.995952 -0.003889
Se -2.840220 16.995952 -2.836331
Se -5.672663 16.995952 5.660996
Se -2.840220 16.995952 2.828554
Se -5.672663 16.995952 11.325881
Se -2.840220 16.995952 8.493439
Se -2.840220 16.995952 14.158324
Se -0.007778 -16.993359 -16.998544
Se 2.824665 -14.160916 -16.998544
Se -0.007778 -16.993359 -11.333659
Se -0.007778 -14.160916 -14.166102
Se 2.824665 -14.160916 -11.333659
Se 2.824665 -16.993359 -14.166102
Se -0.007778 -16.993359 -5.668774
Se -0.007778 -14.160916 -8.501217
Se 2.824665 -14.160916 -5.668774
Se 2.824665 -16.993359 -8.501217
Se -0.007778 -16.993359 -0.003889
Se -0.007778 -14.160916 -2.836331
Se 2.824665 -14.160916 -0.003889
Se 2.824665 -16.993359 -2.836331
Se -0.007778 -16.993359 5.660996
Se -0.007778 -14.160916 2.828554
Se 2.824665 -14.160916 5.660996
Se 2.824665 -16.993359 2.828554
Se -0.007778 -16.993359 11.325881
Se -0.007778 -14.160916 8.493439
Se 2.824665 -14.160916 11.325881
Se 2.824665 -16.993359 8.493439
Se -0.007778 -16.993359 16.990766
Se -0.007778 -14.160916 14.158324
Se 2.824665 -14.160916 16.990766
Se 2.824665 -16.993359 14.158324
Se -0.007778 -11.328474 -16.998544
Se 2.824665 -8.496031 -16.998544
Se -0.007778 -11.328474 -11.333659
Se -0.007778 -8.496031 -14.166102
Se 2.824665 -8.496031 -11.333659
Se 2.824665 -11.328474 -14.166102
Se -0.007778 -11.328474 -5.668774
Se -0.007778 -8.496031 -8.501217
Se 2.824665 -8.496031 -5.668774
Se 2.824665 -11.328474 -8.501217
Se -0.007778 -11.328474 -0.003889
Se -0.007778 -8.496031 -2.836331
Se 2.824665 -8.496031 -0.003889
Se 2.824665 -11.328474 -2.836331
Se -0.007778 -11.328474 5.660996
Se -0.007778 -8.496031 2.828554
Se 2.824665 -8.496031 5.660996
Se 2.824665 -11.328474 2.828554
Se -0.007778 -11.328474 11.325881
Se -0.007778 -8.496031 8.493439
Se 2.824665 -8.496031 11.325881
Se 2.824665 -11.328474 8.493439
Se -0.007778 -11.328474 16.990766
Se -0.007778 -8.496031 14.158324
Se 2.824665 -8.496031 16.990766
Se 2.824665 -11.328474 14.158324
Se -0.007778 -5.663589 -16.998544
Se 2.824665 -2.831146 -16.998544
Se -0.007778 -5.663589 -11.333659
Se -0.007778 -2.831146 -14.166102
Se 2.824665 -2.831146 -11.333659
Se 2.824665 -5.663589 -14.166102
Se -0.007778 -5.663589 -5.668774
Se -0.007778 -2.831146 -8.501217
Se 2.824665 -2.831146 -5.668774
Se 2.824665 -5.663589 -8.501217
Se -0.007778 -5.663589 -0.003889
Se -0.007778 -2.831146 -2.836331
Se 2.824665 -2.831146 -0.003889
Se 2.824665 -5.663589 -2.836331
Se -0.007778 -5.663589 5.660996
Se -0.007778 -2.831146 2.828554
Se 2.824665 -2.831146 5.660996
Se 2.824665 -5.663589 2.828554
Se -0.007778 -5.663589 11.325881
Se -0.007778 -2.831146 8.493439
Se 2.824665 -2.831146 11.325881
Se 2.824665 -5.663589 8.493439
Se -0.007778 -5.663589 16.990766
Se -0.007778 -2.831146 14.158324
Se 2.824665 -2.831146 16.990766
Se 2.824665 -5.663589 14.158324
Se -0.007778 0.001296 -16.998544
Se 2.824665 2.833739 -16.998544
Se -0.007778 0.001296 -11.333659
Se -0.007778 2.833739 -14.166102
Se 2.824665 2.833739 -11.333659
Se 2.824665 0.001296 -14.166102
Se -0.007778 0.001296 -5.668774
Se -0.007778 2.833739 -8.501217
Se 2.824665 2.833739 -5.668774
Se 2.824665 0.001296 -8.501217
Se -0.007778 0.001296 -0.003889
Se -0.007778 2.833739 -2.836331
Se 2.824665 2.833739 -0.003889
Se 2.824665 0.001296 -2.836331
Se -0.007778 0.001296 5.660996
Se -0.007778 2.833739 2.828554
Se 2.824665 2.833739 5.660996
Se 2.824665 0.001296 2.828554
Se -0.007778 0.001296 11.325881
Se -0.007778 2.833739 8.493439
Se 2.824665 2.833739 11.325881
Se 2.824665 0.001296 8.493439
Se -0.007778 0.001296 16.990766
Se -0.007778 2.833739 14.158324
Se 2.824665 2.833739 16.990766
Se 2.824665 0.001296 14.158324
Se -0.007778 5.666181 -16.998544
Se 2.824665 8.498624 -16.998544
Se -0.007778 5.666181 -11.333659
Se -0.007778 8.498624 -14.166102
Se 2.824665 8.498624 -11.333659
Se 2.824665 5.666181 -14.166102
Se -0.007778 5.666181 -5.668774
Se -0.007778 8.498624 -8.501217
Se 2.824665 8.498624 -5.668774
Se 2.824665 5.666181 -8.501217
Se -0.007778 5.666181 -0.003889
Se -0.007778 8.498624 -2.836331
Se 2.824665 8.498624 -0.003889
Se 2.824665 5.666181 -2.836331
Se -0.007778 5.666181 5.660996
Se -0.007778 8.498624 2.828554
Se 2.824665 8.498624 5.660996
Se 2.824665 5.666181 2.828554
Se -0.007778 5.666181 11.325881
Se -0.007778 8.498624 8.493439
Se 2.824665 8.498624 11.325881
Se 2.824665 5.666181 8.493439
Se -0.007778 5.666181 16.990766
Se -0.007778 8.498624 14.158324
Se 2.824665 8.498624 16.990766
Se 2.824665 5.666181 14.158324
Se -0.007778 11.331066 -16.998544
Se 2.824665 14.163509 -16.998544
Se -0.007778 11.331066 -11.333659
Se -0.007778 14.163509 -14.166102
Se 2.824665 14.163509 -11.333659
Se 2.824665 11.331066 -14.166102
Se -0.007778 11.331066 -5.668774
Se -0.007778 14.163509 -8.501217
Se 2.824665 14.163509 -5.668774
Se 2.824665 11.331066 -8.501217
Se -0.007778 11.331066 -0.003889
Se -0.007778 14.163509 -2.836331
Se 2.824665 14.163509 -0.003889
Se 2.824665 11.331066 -2.836331
Se -0.007778 11.331066 5.660996
Se -0.007778 14.163509 2.828554
Se 2.824665 14.163509 5.660996
Se 2.824665 11.331066 2.828554
Se -0.007778 11.331066 11.325881
Se -0.007778 14.163509 8.493439
Se 2.824665 14.163509 11.325881
Se 2.824665 11.331066 8.493439
Se -0.007778 11.331066 16.990766
Se -0.007778 14.163509 14.158324
Se 2.824665 14.163509 16.990766
Se 2.824665 11.331066 14.158324
Se -0.007778 16.995952 -16.998544
Se -0.007778 16.995952 -11.333659
Se 2.824665 16.995952 -14.166102
Se -0.007778 16.995952 -5.668774
Se 2.824665 16.995952 -8.501217
Se -0.007778 16.995952 -0.003889
Se 2.824665 16.995952 -2.836331
Se -0.007778 16.995952 5.660996
Se 2.824665 16.995952 2.828554
Se -0.007778 16.995952 11.325881
Se 2.824665 16.995952 8.493439
Se -0.007778 16.995952 16.990766
Se 2.824665 16.995952 14.158324
Se 5.657107 -16.993359 -11.333659
Se 5.657107 -14.160916 -14.166102
Se 8.489550 -14.160916 -11.333659
Se 5.657107 -16.993359 -5.668774
Se 5.657107 -14.160916 -8.501217
Se 8.489550 -14.160916 -5.668774
Se 8.489550 -16.993359 -8.501217
Se 5.657107 -16.993359 -0.003889
Se 5.657107 -14.160916 -2.836331
Se 8.489550 -14.160916 -0.003889
Se 8.489550 -16.993359 -2.836331
Se 5.657107 -16.993359 5.660996
Se 5.657107 -14.160916 2.828554
Se 8.489550 -14.160916 5.660996
Se 8.489550 -16.993359 2.828554
Se 5.657107 -16.993359 11.325881
Se 5.657107 -14.160916 8.493439
Se 8.489550 -14.160916 11.325881
Se 8.489550 -16.993359 8.493439
Se 5.657107 -14.160916 14.158324
Se 5.657107 -11.328474 -16.998544
Se 8.489550 -8.496031 -16.998544
Se 5.657107 -11.328474 -11.333659
Se 5.657107 -8.496031 -14.166102
Se 8.489550 -8.496031 -11.333659
Se 8.489550 -11.328474 -14.166102
Se 5.657107 -11.328474 -5.668774
Se 5.657107 -8.496031 -8.501217
Se 8.489550 -8.496031 -5.668774
Se 8.489550 -11.328474 -8.501217
Se 5.657107 -11.328474 -0.003889
Se 5.657107 -8.496031 -2.836331
Se 8.489550 -8.496031 -0.003889
Se 8.489550 -11.328474 -2.836331
Se 5.657107 -11.328474 5.660996
Se 5.657107 -8.496031 2.828554
Se 8.489550 -8.496031 5.660996
Se 8.489550 -11.328474 2.828554
Se 5.657107 -11.328474 11.325881
Se 5.657107 -8.496031 8.493439
Se 8.489550 -8.496031 11.325881
Se 8.489550 -11.328474 8.493439
Se 5.657107 -11.328474 16.990766
Se 5.657107 -8.496031 14.158324
Se 8.489550 -8.496031 16.990766
Se 8.489550 -11.328474 14.158324
Se 5.657107 -5.663589 -16.998544
Se 8.489550 -2.831146 -16.998544
Se 5.657107 -5.663589 -11.333659
Se 5.657107 -2.831146 -14.166102
Se 8.489550 -2.831146 -11.333659
Se 8.489550 -5.663589 -14.166102
Se 5.657107 -5.663589 -5.668774
Se 5.657107 -2.831146 -8.501217
Se 8.489550 -2.831146 -5.668774
Se 8.489550 -5.663589 -8.501217
Se 5.657107 -5.663589 -0.003889
Se 5.657107 -2.831146 -2.836331
Se 8.489550 -2.831146 -0.003889
Se 8.489550 -5.663589 -2.836331
Se 5.657107 -5.663589 5.660996
Se 5.657107 -2.831146 2.828554
Se 8.489550 -2.831146 5.660996
Se 8.489550 -5.663589 2.828554
Se 5.657107 -5.663589 11.325881
Se 5.657107 -2.831146 8.493439
Se 8.489550 -2.831146 11.325881
Se 8.489550 -5.663589 8.493439
Se 5.657107 -5.663589 16.990766
Se 5.657107 -2.831146 14.158324
Se 8.489550 -2.831146 16.990766
Se 8.489550 -5.663589 14.158324
Se 5.657107 0.001296 -16.998544
Se 8.489550 2.833739 -16.998544
Se 5.657107 0.001296 -11.333659
Se 5.657107 2.833739 -14.166102
Se 8.489550 2.833739 -11.333659
Se 8.489550 0.001296 -14.166102
Se 5.657107 0.001296 -5.668774
Se 5.657107 2.833739 -8.501217
Se 8.489550 2.833739 -5.668774
Se 8.489550 0.001296 -8.501217
Se 5.657107 0.001296 -0.003889
Se 5.657107 2.833739 -2.836331
Se 8.489550 2.833739 -0.003889
Se 8.489550 0.001296 -2.836331
Se 5.657107 0.001296 5.660996
Se 5.657107 2.833739 2.828554
Se 8.489550 2.833739 5.660996
Se 8.489550 0.001296 2.828554
Se 5.657107 0.001296 11.325881
Se 5.657107 2.833739 8.493439
Se 8.489550 2.833739 11.325881
Se 8.489550 0.001296 8.493439
Se 5.657107 0.001296 16.990766
Se 5.657107 2.833739 14.158324
Se 8.489550 2.833739 16.990766
Se 8.489550 0.001296 14.158324
Se 5.657107 5.666181 -16.998544
Se 8.489550 8.498624 -16.998544
Se 5.657107 5.666181 -11.333659
Se 5.657107 8.498624 -14.166102
Se 8.489550 8.498624 -11.333659
Se 8.489550 5.666181 -14.166102
Se 5.657107 5.666181 -5.668774
Se 5.657107 8.498624 -8.501217
Se 8.489550 8.498624 -5.668774
Se 8.489550 5.666181 -8.501217
Se 5.657107 5.666181 -0.003889
Se 5.657107 8.498624 -2.836331
Se 8.489550 8.498624 -0.003889
Se 8.489550 5.666181 -2.836331
Se 5.657107 5.666181 5.660996
Se 5.657107 8.498624 2.828554
Se 8.489550 8.498624 5.660996
Se 8.489550 5.666181 2.828554
Se 5.657107 5.666181 11.325881
Se 5.657107 8.498624 8.493439
Se 8.489550 8.498624 11.325881
Se 8.489550 5.666181 8.493439
Se 5.657107 5.666181 16.990766
Se 5.657107 8.498624 14.158324
Se 8.489550 8.498624 16.990766
Se 8.489550 5.666181 14.158324
Se 5.657107 11.331066 -16.998544
Se 5.657107 11.331066 -11.333659
Se 5.657107 14.163509 -14.166102
Se 8.489550 14.163509 -11.333659
Se 8.489550 11.331066 -14.166102
Se 5.657107 11.331066 -5.668774
Se 5.657107 14.163509 -8.501217
Se 8.489550 14.163509 -5.668774
Se 8.489550 11.331066 -8.501217
Se 5.657107 11.331066 -0.003889
Se 5.657107 14.163509 -2.836331
Se 8.489550 14.163509 -0.003889
Se 8.489550 11.331066 -2.836331
Se 5.657107 11.331066 5.660996
Se 5.657107 14.163509 2.828554
Se 8.489550 14.163509 5.660996
Se 8.489550 11.331066 2.828554
Se 5.657107 11.331066 11.325881
Se 5.657107 14.163509 8.493439
Se 8.489550 14.163509 11.325881
Se 8.489550 11.331066 8.493439
Se 5.657107 11.331066 16.990766
Se 5.657107 14.163509 14.158324
Se 8.489550 11.331066 14.158324
Se 5.657107 16.995952 -11.333659
Se 5.657107 16.995952 -5.668774
Se 8.489550 16.995952 -8.501217
Se 5.657107 16.995952 -0.003889
Se 8.489550 16.995952 -2.836331
Se 5.657107 16.995952 5.660996
Se 8.489550 16.995952 2.828554
Se 5.657107 16.995952 11.325881
Se 8.489550 16.995952 8.493439
Se 11.321992 -16.993359 -5.668774
Se 11.321992 -14.160916 -8.501217
Se 14.154435 -14.160916 -5.668774
Se 11.321992 -16.993359 -0.003889
Se 11.321992 -14.160916 -2.836331
Se 14.154435 -14.160916 -0.003889
Se 14.154435 -16.993359 -2.836331
Se 11.321992 -16.993359 5.660996
Se 11.321992 -14.160916 2.828554
Se 14.154435 -14.160916 5.660996
Se 14.154435 -16.993359 2.828554
Se 11.321992 -14.160916 8.493439
Se 11.321992 -11.328474 -11.333659
Se 11.321992 -8.496031 -14.166102
Se 14.154435 -8.496031 -11.333659
Se 11.321992 -11.328474 -5.668774
Se 11.321992 -8.496031 -8.501217
Se 14.154435 -8.496031 -5.668774
Se 14.154435 -11.328474 -8.501217
Se 11.321992 -11.328474 -0.003889
Se 11.321992 -8.496031 -2.836331
Se 14.154435 -8.496031 -0.003889
Se 14.154435 -11.328474 -2.836331
Se 11.321992 -11.328474 5.660996
Se 11.321992 -8.496031 2.828554
Se 14.154435 -8.496031 5.660996
Se 14.154435 -11.328474 2.828554
Se 11.321992 -11.328474 11.325881
Se 11.321992 -8.496031 8.493439
Se 14.154435 -8.496031 11.325881
Se 14.154435 -11.328474 8.493439
Se 11.321992 -8.496031 14.158324
Se 11.321992 -5.663589 -16.998544
Se 14.154435 -2.831146 -16.998544
Se 11.321992 -5.663589 -11.333659
Se 11.321992 -2.831146 -14.166102
Se 14.154435 -2.831146 -11.333659
Se 14.154435 -5.663589 -14.166102
Se 11.321992 -5.663589 -5.668774
Se 11.321992 -2.831146 -8.501217
Se 14.154435 -2.831146 -5.668774
Se 14.154435 -5.663589 -8.501217
Se 11.321992 -5.663589 -0.003889
Se 11.321992 -2.831146 -2.836331
Se 14.154435 -2.831146 -0.003889
Se 14.154435 -5.663589 -2.836331
Se 11.321992 -5.663589 5.660996
Se 11.321992 -2.831146 2.828554
Se 14.154435 -2.831146 5.660996
Se 14.154435 -5.663589 2.828554
Se 11.321992 -5.663589 11.325881
Se 11.321992 -2.831146 8.493439
Se 14.154435 -2.831146 11.325881
Se 14.154435 -5.663589 8.493439
Se 11.321992 -5.663589 16.990766
Se 11.321992 -2.831146 14.158324
Se 14.154435 -2.831146 16.990766
Se 14.154435 -5.663589 14.158324
Se 11.321992 0.001296 -16.998544
Se 14.154435 2.833739 -16.998544
Se 11.321992 0.001296 -11.333659
Se 11.321992 2.833739 -14.166102
Se 14.154435 2.833739 -11.333659
Se 14.154435 0.001296 -14.166102
Se 11.321992 0.001296 -5.668774
Se 11.321992 2.833739 -8.501217
Se 14.154435 2.833739 -5.668774
Se 14.154435 0.001296 -8.501217
Se 11.321992 0.001296 -0.003889
Se 11.321992 2.833739 -2.836331
Se 14.154435 2.833739 -0.003889
Se 14.154435 0.001296 -2.836331
Se 11.321992 0.001296 5.660996
Se 11.321992 2.833739 2.828554
Se 14.154435 2.833739 5.660996
Se 14.154435 0.001296 2.828554
Se 11.321992 0.001296 11.325881
Se 11.321992 2.833739 8.493439
Se 14.154435 2.833739 11.325881
Se 14.154435 0.001296 8.493439
Se 11.321992 0.001296 16.990766
Se 11.321992 2.833739 14.158324
Se 14.154435 2.833739 16.990766
Se 14.154435 0.001296 14.158324
Se 11.321992 5.666181 -16.998544
Se 11.321992 5.666181 -11.333659
Se 11.321992 8.498624 -14.166102
Se 14.154435 8.498624 -11.333659
Se 14.154435 5.666181 -14.166102
Se 11.321992 5.666181 -5.668774
Se 11.321992 8.498624 -8.501217
Se 14.154435 8.498624 -5.668774
Se 14.154435 5.666181 -8.501217
Se 11.321992 5.666181 -0.003889
Se 11.321992 8.498624 -2.836331
Se 14.154435 8.498624 -0.003889
Se 14.154435 5.666181 -2.836331
Se 11.321992 5.666181 5.660996
Se 11.321992 8.498624 2.828554
Se 14.154435 8.498624 5.660996
Se 14.154435 5.666181 2.828554
Se 11.321992 5.666181 11.325881
Se 11.321992 8.498624 8.493439
Se 14.154435 8.498624 11.325881
Se 14.154435 5.666181 8.493439
Se 11.321992 5.666181 16.990766
Se 11.321992 8.498624 14.158324
Se 14.154435 5.666181 14.158324
Se 11.321992 11.331066 -11.333659
Se 11.321992 11.331066 -5.668774
Se 11.321992 14.163509 -8.501217
Se 14.154435 14.163509 -5.668774
Se 14.154435 11.331066 -8.501217
Se 11.321992 11.331066 -0.003889
Se 11.321992 14.163509 -2.836331
Se 14.154435 14.163509 -0.003889
Se 14.154435 11.331066 -2.836331
Se 11.321992 11.331066 5.660996
Se 11.321992 14.163509 2.828554
Se 14.154435 14.163509 5.660996
Se 14.154435 11.331066 2.828554
Se 11.321992 11.331066 11.325881
Se 11.321992 14.163509 8.493439
Se 14.154435 11.331066 8.493439
Se 11.321992 16.995952 -5.668774
Se 11.321992 16.995952 -0.003889
Se 14.154435 16.995952 -2.836331
Se 11.321992 16.995952 5.660996
Se 14.154435 16.995952 2.828554
Se 16.986877 -16.993359 -0.003889
Se 16.986877 -14.160916 -2.836331
Se 16.986877 -14.160916 2.828554
Se 16.986877 -11.328474 -5.668774
Se 16.986877 -8.496031 -8.501217
Se 16.986877 -11.328474 -0.003889
Se 16.986877 -8.496031 -2.836331
Se 16.986877 -11.328474 5.660996
Se 16.986877 -8.496031 2.828554
Se 16.986877 -8.496031 8.493439
Se 16.986877 -5.663589 -11.333659
Se 16.986877 -2.831146 -14.166102
Se 16.986877 -5.663589 -5.668774
Se 16.986877 -2.831146 -8.501217
Se 16.986877 -5.663589 -0.003889
Se 16.986877 -2.831146 -2.836331
Se 16.986877 -5.663589 5.660996
Se 16.986877 -2.831146 2.828554
Se 16.986877 -5.663589 11.325881
Se 16.986877 -2.831146 8.493439
Se 16.986877 -2.831146 14.158324
Se 16.986877 0.001296 -16.998544
Se 16.986877 0.001296 -11.333659
Se 16.986877 2.833739 -14.166102
Se 16.986877 0.001296 -5.668774
Se 16.986877 2.833739 -8.501217
Se 16.986877 0.001296 -0.003889
Se 16.986877 2.833739 -2.836331
Se 16.986877 0.001296 5.660996
Se 16.986877 2.833739 2.828554
Se 16.986877 0.001296 11.325881
Se 16.986877 2.833739 8.493439
Se 16.986877 0.001296 16.990766
Se 16.986877 2.833739 14.158324
Se 16.986877 5.666181 -11.333659
Se 16.986877 5.666181 -5.668774
Se 16.986877 8.498624 -8.501217
Se 16.986877 5.666181 -0.003889
Se 16.986877 8.498624 -2.836331
Se 16.986877 5.666181 5.660996
Se 16.986877 8.498624 2.828554
Se 16.986877 5.666181 11.325881
Se 16.986877 8.498624 8.493439
Se 16.986877 11.331066 -5.668774
Se 16.986877 11.331066 -0.003889
Se 16.986877 14.163509 -2.836331
Se 16.986877 11.331066 5.660996
Se 16.986877 14.163509 2.828554
Se 16.986877 16.995952 -0.003889
Cl -19.834876 -14.160916 -0.003889
Cl -19.834876 -8.496031 -5.668774
Cl -19.834876 -8.496031 -0.003889
Cl -19.834876 -11.328474 -2.836331
Cl -19.834876 -8.496031 5.660996
Cl -19.834876 -11.328474 2.828554
Cl -19.834876 -2.831146 -11.333659
Cl -19.834876 -2.831146 -5.668774
Cl -19.834876 -5.663589 -8.501217
Cl -19.834876 -2.831146 -0.003889
Cl -19.834876 -5.663589 -2.836331
Cl -19.834876 -2.831146 5.660996
Cl -19.834876 -5.663589 2.828554
Cl -19.834876 -2.831146 11.325881
Cl -19.834876 -5.663589 8.493439
Cl -19.834876 2.833739 -11.333659
Cl -19.834876 0.001296 -14.166102
Cl -19.834876 2.833739 -5.668774
Cl -19.834876 0.001296 -8.501217
Cl -19.834876 2.833739 -0.003889
Cl -19.834876 0.001296 -2.836331
Cl -19.834876 2.833739 5.660996
Cl -19.834876 0.001296 2.828554
Cl -19.834876 2.833739 11.325881
Cl -19.834876 0.001296 8.493439
Cl -19.834876 0.001296 14.158324
Cl -19.834876 8.498624 -5.668774
Cl -19.834876 5.666181 -8.501217
Cl -19.834876 8.498624 -0.003889
Cl -19.834876 5.666181 -2.836331
Cl -19.834876 8.498624 5.660996
Cl -19.834876 5.666181 2.828554
Cl -19.834876 5.666181 8.493439
Cl -19.834876 14.163509 -0.003889
Cl -19.834876 11.331066 -2.836331
Cl -19.834876 11.331066 2.828554
Cl -14.169991 -19.825801 -0.003889
Cl -14.169991 0.001296 -19.830987
Cl -14.169991 0.001296 19.823209
Cl -14.169991 19.828394 -0.003889
Cl -8.505105 -19.825801 -5.668774
Cl -11.337548 -19.825801 -2.836331
Cl -8.505105 -19.825801 -0.003889
Cl -11.337548 -19.825801 2.828554
Cl -8.505105 -19.825801 5.660996
Cl -11.337548 -2.831146 -19.830987
Cl -8.505105 -5.663589 -19.830987
Cl -11.337548 -2.831146 19.823209
Cl -8.505105 -5.663589 19.823209
Cl -11.337548 2.833739 -19.830987
Cl -8.505105 0.001296 -19.830987
Cl -11.337548 2.833739 19.823209
Cl -8.505105 0.001296 19.823209
Cl -8.505105 5.666181 -19.830987
Cl -8.505105 5.666181 19.823209
Cl -8.505105 19.828394 -5.668774
Cl -11.337548 19.828394 -2.836331
Cl -8.505105 19.828394 -0.003889
Cl -11.337548 19.828394 2.828554
Cl -8.505105 19.828394 5.660996
Cl -2.840220 -19.825801 -11.333659
Cl -5.672663 -19.825801 -8.501217
Cl -2.840220 -19.825801 -5.668774
Cl -5.672663 -19.825801 -2.836331
Cl -2.840220 -19.825801 -0.003889
Cl -5.672663 -19.825801 2.828554
Cl -2.840220 -19.825801 5.660996
Cl -5.672663 -19.825801 8.493439
Cl -2.840220 -19.825801 11.325881
Cl -5.672663 -8.496031 -19.830987
Cl -2.840220 -11.328474 -19.830987
Cl -5.672663 -8.496031 19.823209
Cl -2.840220 -11.328474 19.823209
Cl -5.672663 -2.831146 -19.830987
Cl -2.840220 -5.663589 -19.830987
Cl -5.672663 -2.831146 19.823209
Cl -2.840220 -5.663589 19.823209
Cl -5.672663 2.833739 -19.830987
Cl -2.840220 0.001296 -19.830987
Cl -5.672663 2.833739 19.823209
Cl -2.840220 0.001296 19.823209
Cl -5.672663 8.498624 -19.830987
Cl -2.840220 5.666181 -19.830987
Cl -5.672663 8.498624 19.823209
Cl -2.840220 5.666181 19.823209
Cl -2.840220 11.331066 -19.830987
Cl -2.840220 11.331066 19.823209
Cl -2.840220 19.828394 -11.333659
Cl -5.672663 19.828394 -8.501217
Cl -2.840220 19.828394 -5.668774
Cl -5.672663 19.828394 -2.836331
Cl -2.840220 19.828394 -0.003889
Cl -5.672663 19.828394 2.828554
Cl -2.840220 19.828394 5.660996
Cl -5.672663 19.828394 8.493439
Cl -2.840220 19.828394 11.325881
Cl -0.007778 -19.825801 -14.166102
Cl 2.824665 -19.825801 -11.333659
Cl -0.007778 -19.825801 -8.501217
Cl 2.824665 -19.825801 -5.668774
Cl -0.007778 -19.825801 -2.836331
Cl 2.824665 -19.825801 -0.003889
Cl -0.007778 -19.825801 2.828554
Cl 2.824665 -19.825801 5.660996
Cl -0.007778 -19.825801 8.493439
Cl 2.824665 -19.825801 11.325881
Cl -0.007778 -19.825801 14.158324
Cl -0.007778 -14.160916 -19.830987
Cl -0.007778 -14.160916 19.823209
Cl -0.007778 -8.496031 -19.830987
Cl 2.824665 -11.328474 -19.830987
Cl -0.007778 -8.496031 19.823209
Cl 2.824665 -11.328474 19.823209
Cl -0.007778 -2.831146 -19.830987
Cl 2.824665 -5.663589 -19.830987
Cl -0.007778 -2.831146 19.823209
Cl 2.824665 -5.663589 19.823209
Cl -0.007778 2.833739 -19.830987
Cl 2.824665 0.001296 -19.830987
Cl -0.007778 2.833739 19.823209
Cl 2.824665 0.001296 19.823209
Cl -0.007778 8.498624 -19.830987
Cl 2.824665 5.666181 -19.830987
Cl -0.007778 8.498624 19.823209
Cl 2.824665 5.666181 19.823209
Cl -0.007778 14.163509 -19.830987
Cl 2.824665 11.331066 -19.830987
Cl -0.007778 14.163509 19.823209
Cl 2.824665 11.331066 19.823209
Cl -0.007778 19.828394 -14.166102
Cl 2.824665 19.828394 -11.333659
Cl -0.007778 19.828394 -8.501217
Cl 2.824665 19.828394 -5.668774
Cl -0.007778 19.828394 -2.836331
Cl 2.824665 19.828394 -0.003889
Cl -0.007778 19.828394 2.828554
Cl 2.824665 19.828394 5.660996
Cl -0.007778 19.828394 8.493439
Cl 2.824665 19.828394 11.325881
Cl -0.007778 19.828394 14.158324
Cl 5.657107 -19.825801 -8.501217
Cl 8.489550 -19.825801 -5.668774
Cl 5.657107 -19.825801 -2.836331
Cl 8.489550 -19.825801 -0.003889
Cl 5.657107 -19.825801 2.828554
Cl 8.489550 -19.825801 5.660996
Cl 5.657107 -19.825801 8.493439
Cl 5.657107 -8.496031 -19.830987
Cl 5.657107 -8.496031 19.823209
Cl 5.657107 -2.831146 -19.830987
Cl 8.489550 -5.663589 -19.830987
Cl 5.657107 -2.831146 19.823209
Cl 8.489550 -5.663589 19.823209
Cl 5.657107 2.833739 -19.830987
Cl 8.489550 0.001296 -19.830987
Cl 5.657107 2.833739 19.823209
Cl 8.489550 0.001296 19.823209
Cl 5.657107 8.498624 -19.830987
Cl 8.489550 5.666181 -19.830987
Cl 5.657107 8.498624 19.823209
Cl 8.489550 5.666181 19.823209
Cl 5.657107 19.828394 -8.501217
Cl 8.489550 19.828394 -5.668774
Cl 5.657107 19.828394 -2.836331
Cl 8.489550 19.828394 -0.003889
Cl 5.657107 19.828394 2.828554
Cl 8.489550 19.828394 5.660996
Cl 5.657107 19.828394 8.493439
Cl 11.321992 -19.825801 -2.836331
Cl 14.154435 -19.825801 -0.003889
Cl 11.321992 -19.825801 2.828554
Cl 11.321992 -2.831146 -19.830987
Cl 11.321992 -2.831146 19.823209
Cl 11.321992 2.833739 -19.830987
Cl 14.154435 0.001296 -19.830987
Cl 11.321992 2.833739 19.823209
Cl 14.154435 0.001296 19.823209
Cl 11.321992 19.828394 -2.836331
Cl 14.154435 19.828394 -0.003889
Cl 11.321992 19.828394 2.828554
Cl 19.819320 -14.160916 -0.003889
Cl 19.819320 -8.496031 -5.668774
Cl 19.819320 -8.496031 -0.003889
Cl 19.819320 -11.328474 -2.836331
Cl 19.819320 -8.496031 5.660996
Cl 19.819320 -11.328474 2.828554
Cl 19.819320 -2.831146 -11.333659
Cl 19.819320 -2.831146 -5.668774
Cl 19.819320 -5.663589 -8.501217
Cl 19.819320 -2.831146 -0.003889
Cl 19.819320 -5.663589 -2.836331
Cl 19.819320 -2.831146 5.660996
Cl 19.819320 -5.663589 2.828554
Cl 19.819320 -2.831146 11.325881
Cl 19.819320 -5.663589 8.493439
Cl 19.819320 2.833739 -11.333659
Cl 19.819320 0.001296 -14.166102
Cl 19.819320 2.833739 -5.668774
Cl 19.819320 0.001296 -8.501217
Cl 19.819320 2.833739 -0.003889
Cl 19.819320 0.001296 -2.836331
Cl 19.819320 2.833739 5.660996
Cl 19.819320 0.001296 2.828554
Cl 19.819320 2.833739 11.325881
Cl 19.819320 0.001296 8.493439
Cl 19.819320 0.001296 14.158324
Cl 19.819320 8.498624 -5.668774
Cl 19.819320 5.666181 -8.501217
Cl 19.819320 8.498624 -0.003889
Cl 19.819320 5.666181 -2.836331
Cl 19.819320 8.498624 5.660996
Cl 19.819320 5.666181 2.828554
Cl 19.819320 5.666181 8.493439
Cl 19.819320 14.163509 -0.003889
Cl 19.819320 11.331066 -2.836331
Cl 19.819320 11.331066 2.828554
Cl -14.169991 -11.328474 -11.333659
Cl -14.169991 8.498624 14.158324
Cl 8.489550 -14.160916 14.158324
Cl 8.489550 14.163509 -14.166102
Cl -17.002433 16.995952 2.828554
Cl 16.986877 -16.993359 2.828554
Cl 16.986877 2.833739 -16.998544
Cl -2.840220 -16.993359 -16.998544
Cl -2.840220 16.995952 16.990766
Cl 16.986877 -2.831146 16.990766
