1908
InAs-In-In835As716Cl357-clean
In -21.346925 -15.263807 -12.197442
In -21.346925 -9.156684 -12.197442
In -21.346925 -12.210246 -15.251004
In -21.346925 -9.156684 -6.090319
In -21.346925 -12.210246 -9.143881
In -21.346925 -3.049561 -6.090319
In -21.346925 -6.103122 -9.143881
In -21.346925 -3.049561 0.016804
In -21.346925 -6.103122 -3.036757
In -21.346925 3.057563 0.016804
In -21.346925 0.004001 -3.036757
In -21.346925 3.057563 6.123928
In -21.346925 0.004001 3.070366
In -21.346925 9.164686 6.123928
In -21.346925 6.111124 3.070366
In -21.346925 9.164686 12.231051
In -21.346925 6.111124 9.177489
In -21.346925 15.271809 12.231051
In -21.346925 12.218248 9.177489
In -21.346925 12.218248 15.284612
In -15.239801 -21.370931 -12.197442
In -15.239801 -15.263807 -18.304566
In -18.293363 -18.317369 -12.197442
In -18.293363 -15.263807 -15.251004
In -15.239801 -15.263807 -12.197442
In -15.239801 -18.317369 -15.251004
In -18.293363 -15.263807 -9.143881
In -15.239801 -15.263807 -6.090319
In -15.239801 -18.317369 -9.143881
In -18.293363 -12.210246 -18.304566
In -15.239801 -9.156684 -18.304566
In -15.239801 -12.210246 -21.358127
In -18.293363 -12.210246 -12.197442
In -18.293363 -9.156684 -15.251004
In -15.239801 -9.156684 -12.197442
In -15.239801 -12.210246 -15.251004
In -18.293363 -12.210246 -6.090319
In -18.293363 -9.156684 -9.143881
In -15.239801 -9.156684 -6.090319
In -15.239801 -12.210246 -9.143881
In -18.293363 -9.156684 -3.036757
In -15.239801 -9.156684 0.016804
In -15.239801 -12.210246 -3.036757
In -18.293363 -6.103122 -12.197442
In -15.239801 -3.049561 -12.197442
In -15.239801 -6.103122 -15.251004
In -18.293363 -6.103122 -6.090319
In -18.293363 -3.049561 -9.143881
In -15.239801 -3.049561 -6.090319
In -15.239801 -6.103122 -9.143881
In -18.293363 -6.103122 0.016804
In -18.293363 -3.049561 -3.036757
In -15.239801 -3.049561 0.016804
In -15.239801 -6.103122 -3.036757
In -18.293363 -3.049561 3.070366
In -15.239801 -3.049561 6.123928
In -15.239801 -6.103122 3.070366
In -18.293363 0.004001 -6.090319
In -15.239801 3.057563 -6.090319
In -15.239801 0.004001 -9.143881
In -18.293363 0.004001 0.016804
In -18.293363 3.057563 -3.036757
In -15.239801 3.057563 0.016804
In -15.239801 0.004001 -3.036757
In -18.293363 0.004001 6.123928
In -18.293363 3.057563 3.070366
In -15.239801 3.057563 6.123928
In -15.239801 0.004001 3.070366
In -18.293363 3.057563 9.177489
In -15.239801 3.057563 12.231051
In -15.239801 0.004001 9.177489
In -18.293363 6.111124 0.016804
In -15.239801 9.164686 0.016804
In -15.239801 6.111124 -3.036757
In -18.293363 6.111124 6.123928
In -18.293363 9.164686 3.070366
In -15.239801 9.164686 6.123928
In -15.239801 6.111124 3.070366
In -18.293363 6.111124 12.231051
In -18.293363 9.164686 9.177489
In -15.239801 9.164686 12.231051
In -15.239801 6.111124 9.177489
In -18.293363 9.164686 15.284612
In -15.239801 9.164686 18.338174
In -15.239801 6.111124 15.284612
In -18.293363 12.218248 6.123928
In -15.239801 15.271809 6.123928
In -15.239801 12.218248 3.070366
In -18.293363 12.218248 12.231051
In -18.293363 15.271809 9.177489
In -15.239801 15.271809 12.231051
In -15.239801 12.218248 9.177489
In -18.293363 12.218248 18.338174
In -18.293363 15.271809 15.284612
In -15.239801 15.271809 18.338174
In -15.239801 12.218248 15.284612
In -15.239801 12.218248 21.391736
In -18.293363 18.325371 12.231051
In -15.239801 21.378933 12.231051
In -15.239801 18.325371 9.177489
In -15.239801 18.325371 15.284612
In -12.186240 -21.370931 -15.251004
In -9.132678 -21.370931 -12.197442
In -12.186240 -21.370931 -9.143881
In -9.132678 -21.370931 -6.090319
In -12.186240 -18.317369 -18.304566
In -12.186240 -15.263807 -21.358127
In -9.132678 -15.263807 -18.304566
In -12.186240 -18.317369 -12.197442
In -12.186240 -15.263807 -15.251004
In -9.132678 -15.263807 -12.197442
In -9.132678 -18.317369 -15.251004
In -12.186240 -18.317369 -6.090319
In -12.186240 -15.263807 -9.143881
In -9.132678 -15.263807 -6.090319
In -9.132678 -18.317369 -9.143881
In -12.186240 -15.263807 -3.036757
In -9.132678 -15.263807 0.016804
In -9.132678 -18.317369 -3.036757
In -12.186240 -12.210246 -18.304566
In -12.186240 -9.156684 -21.358127
In -9.132678 -9.156684 -18.304566
In -9.132678 -12.210246 -21.358127
In -12.186240 -12.210246 -12.197442
In -12.186240 -9.156684 -15.251004
In -9.132678 -9.156684 -12.197442
In -9.132678 -12.210246 -15.251004
In -12.186240 -12.210246 -6.090319
In -12.186240 -9.156684 -9.143881
In -9.132678 -9.156684 -6.090319
In -9.132678 -12.210246 -9.143881
In -12.186240 -12.210246 0.016804
In -12.186240 -9.156684 -3.036757
In -9.132678 -9.156684 0.016804
In -9.132678 -12.210246 -3.036757
In -12.186240 -9.156684 3.070366
In -9.132678 -9.156684 6.123928
In -9.132678 -12.210246 3.070366
In -12.186240 -6.103122 -18.304566
In -9.132678 -3.049561 -18.304566
In -9.132678 -6.103122 -21.358127
In -12.186240 -6.103122 -12.197442
In -12.186240 -3.049561 -15.251004
In -9.132678 -3.049561 -12.197442
In -9.132678 -6.103122 -15.251004
In -12.186240 -6.103122 -6.090319
In -12.186240 -3.049561 -9.143881
In -9.132678 -3.049561 -6.090319
In -9.132678 -6.103122 -9.143881
In -12.186240 -6.103122 0.016804
In -12.186240 -3.049561 -3.036757
In -9.132678 -3.049561 0.016804
In -9.132678 -6.103122 -3.036757
In -12.186240 -6.103122 6.123928
In -12.186240 -3.049561 3.070366
In -9.132678 -3.049561 6.123928
In -9.132678 -6.103122 3.070366
In -12.186240 -3.049561 9.177489
In -9.132678 -3.049561 12.231051
In -9.132678 -6.103122 9.177489
In -12.186240 0.004001 -12.197442
In -9.132678 3.057563 -12.197442
In -9.132678 0.004001 -15.251004
In -12.186240 0.004001 -6.090319
In -12.186240 3.057563 -9.143881
In -9.132678 3.057563 -6.090319
In -9.132678 0.004001 -9.143881
In -12.186240 0.004001 0.016804
In -12.186240 3.057563 -3.036757
In -9.132678 3.057563 0.016804
In -9.132678 0.004001 -3.036757
In -12.186240 0.004001 6.123928
In -12.186240 3.057563 3.070366
In -9.132678 3.057563 6.123928
In -9.132678 0.004001 3.070366
In -12.186240 0.004001 12.231051
In -12.186240 3.057563 9.177489
In -9.132678 3.057563 12.231051
In -9.132678 0.004001 9.177489
In -12.186240 3.057563 15.284612
In -9.132678 3.057563 18.338174
In -9.132678 0.004001 15.284612
In -12.186240 6.111124 -6.090319
In -9.132678 9.164686 -6.090319
In -9.132678 6.111124 -9.143881
In -12.186240 6.111124 0.016804
In -12.186240 9.164686 -3.036757
In -9.132678 9.164686 0.016804
In -9.132678 6.111124 -3.036757
In -12.186240 6.111124 6.123928
In -12.186240 9.164686 3.070366
In -9.132678 9.164686 6.123928
In -9.132678 6.111124 3.070366
In -12.186240 6.111124 12.231051
In -12.186240 9.164686 9.177489
In -9.132678 9.164686 12.231051
In -9.132678 6.111124 9.177489
In -12.186240 6.111124 18.338174
In -12.186240 9.164686 15.284612
In -9.132678 9.164686 18.338174
In -9.132678 6.111124 15.284612
In -12.186240 9.164686 21.391736
In -9.132678 6.111124 21.391736
In -12.186240 12.218248 0.016804
In -9.132678 15.271809 0.016804
In -9.132678 12.218248 -3.036757
In -12.186240 12.218248 6.123928
In -12.186240 15.271809 3.070366
In -9.132678 15.271809 6.123928
In -9.132678 12.218248 3.070366
In -12.186240 12.218248 12.231051
In -12.186240 15.271809 9.177489
In -9.132678 15.271809 12.231051
In -9.132678 12.218248 9.177489
In -12.186240 12.218248 18.338174
In -12.186240 15.271809 15.284612
In -9.132678 15.271809 18.338174
In -9.132678 12.218248 15.284612
In -12.186240 15.271809 21.391736
In -9.132678 12.218248 21.391736
In -12.186240 18.325371 6.123928
In -9.132678 21.378933 6.123928
In -9.132678 18.325371 3.070366
In -12.186240 18.325371 12.231051
In -12.186240 21.378933 9.177489
In -9.132678 21.378933 12.231051
In -9.132678 18.325371 9.177489
In -12.186240 18.325371 18.338174
In -12.186240 21.378933 15.284612
In -9.132678 18.325371 15.284612
In -6.079116 -21.370931 -9.143881
In -3.025555 -21.370931 -6.090319
In -6.079116 -21.370931 -3.036757
In -3.025555 -21.370931 0.016804
In -6.079116 -18.317369 -12.197442
In -6.079116 -15.263807 -15.251004
In -3.025555 -15.263807 -12.197442
In -6.079116 -18.317369 -6.090319
In -6.079116 -15.263807 -9.143881
In -3.025555 -15.263807 -6.090319
In -3.025555 -18.317369 -9.143881
In -6.079116 -18.317369 0.016804
In -6.079116 -15.263807 -3.036757
In -3.025555 -15.263807 0.016804
In -3.025555 -18.317369 -3.036757
In -6.079116 -15.263807 3.070366
In -3.025555 -15.263807 6.123928
In -3.025555 -18.317369 3.070366
In -6.079116 -12.210246 -18.304566
In -6.079116 -9.156684 -21.358127
In -3.025555 -9.156684 -18.304566
In -6.079116 -12.210246 -12.197442
In -6.079116 -9.156684 -15.251004
In -3.025555 -9.156684 -12.197442
In -3.025555 -12.210246 -15.251004
In -6.079116 -12.210246 -6.090319
In -6.079116 -9.156684 -9.143881
In -3.025555 -9.156684 -6.090319
In -3.025555 -12.210246 -9.143881
In -6.079116 -12.210246 0.016804
In -6.079116 -9.156684 -3.036757
In -3.025555 -9.156684 0.016804
In -3.025555 -12.210246 -3.036757
In -6.079116 -12.210246 6.123928
In -6.079116 -9.156684 3.070366
In -3.025555 -9.156684 6.123928
In -3.025555 -12.210246 3.070366
In -6.079116 -9.156684 9.177489
In -3.025555 -9.156684 12.231051
In -3.025555 -12.210246 9.177489
In -6.079116 -6.103122 -18.304566
In -6.079116 -3.049561 -21.358127
In -3.025555 -3.049561 -18.304566
In -3.025555 -6.103122 -21.358127
In -6.079116 -6.103122 -12.197442
In -6.079116 -3.049561 -15.251004
In -3.025555 -3.049561 -12.197442
In -3.025555 -6.103122 -15.251004
In -6.079116 -6.103122 -6.090319
In -6.079116 -3.049561 -9.143881
In -3.025555 -3.049561 -6.090319
In -3.025555 -6.103122 -9.143881
In -6.079116 -6.103122 0.016804
In -6.079116 -3.049561 -3.036757
In -3.025555 -3.049561 0.016804
In -3.025555 -6.103122 -3.036757
In -6.079116 -6.103122 6.123928
In -6.079116 -3.049561 3.070366
In -3.025555 -3.049561 6.123928
In -3.025555 -6.103122 3.070366
In -6.079116 -6.103122 12.231051
In -6.079116 -3.049561 9.177489
In -3.025555 -3.049561 12.231051
In -3.025555 -6.103122 9.177489
In -6.079116 -3.049561 15.284612
In -3.025555 -3.049561 18.338174
In -3.025555 -6.103122 15.284612
In -6.079116 0.004001 -18.304566
In -3.025555 3.057563 -18.304566
In -3.025555 0.004001 -21.358127
In -6.079116 0.004001 -12.197442
In -6.079116 3.057563 -15.251004
In -3.025555 3.057563 -12.197442
In -3.025555 0.004001 -15.251004
In -6.079116 0.004001 -6.090319
In -6.079116 3.057563 -9.143881
In -3.025555 3.057563 -6.090319
In -3.025555 0.004001 -9.143881
In -6.079116 0.004001 0.016804
In -6.079116 3.057563 -3.036757
In -3.025555 3.057563 0.016804
In -3.025555 0.004001 -3.036757
In -6.079116 0.004001 6.123928
In -6.079116 3.057563 3.070366
In -3.025555 3.057563 6.123928
In -3.025555 0.004001 3.070366
In -6.079116 0.004001 12.231051
In -6.079116 3.057563 9.177489
In -3.025555 3.057563 12.231051
In -3.025555 0.004001 9.177489
In -6.079116 0.004001 18.338174
In -6.079116 3.057563 15.284612
In -3.025555 3.057563 18.338174
In -3.025555 0.004001 15.284612
In -6.079116 3.057563 21.391736
In -3.025555 0.004001 21.391736
In -6.079116 6.111124 -12.197442
In -3.025555 9.164686 -12.197442
In -3.025555 6.111124 -15.251004
In -6.079116 6.111124 -6.090319
In -6.079116 9.164686 -9.143881
In -3.025555 9.164686 -6.090319
In -3.025555 6.111124 -9.143881
In -6.079116 6.111124 0.016804
In -6.079116 9.164686 -3.036757
In -3.025555 9.164686 0.016804
In -3.025555 6.111124 -3.036757
In -6.079116 6.111124 6.123928
In -6.079116 9.164686 3.070366
In -3.025555 9.164686 6.123928
In -3.025555 6.111124 3.070366
In -6.079116 6.111124 12.231051
In -6.079116 9.164686 9.177489
In -3.025555 9.164686 12.231051
In -3.025555 6.111124 9.177489
In -6.079116 6.111124 18.338174
In -6.079116 9.164686 15.284612
In -3.025555 9.164686 18.338174
In -3.025555 6.111124 15.284612
In -6.079116 9.164686 21.391736
In -3.025555 6.111124 21.391736
In -6.079116 12.218248 -6.090319
In -3.025555 15.271809 -6.090319
In -3.025555 12.218248 -9.143881
In -6.079116 12.218248 0.016804
In -6.079116 15.271809 -3.036757
In -3.025555 15.271809 0.016804
In -3.025555 12.218248 -3.036757
In -6.079116 12.218248 6.123928
In -6.079116 15.271809 3.070366
In -3.025555 15.271809 6.123928
In -3.025555 12.218248 3.070366
In -6.079116 12.218248 12.231051
In -6.079116 15.271809 9.177489
In -3.025555 15.271809 12.231051
In -3.025555 12.218248 9.177489
In -6.079116 12.218248 18.338174
In -6.079116 15.271809 15.284612
In -3.025555 12.218248 15.284612
In -6.079116 18.325371 0.016804
In -3.025555 21.378933 0.016804
In -3.025555 18.325371 -3.036757
In -6.079116 18.325371 6.123928
In -6.079116 21.378933 3.070366
In -3.025555 21.378933 6.123928
In -3.025555 18.325371 3.070366
In -6.079116 18.325371 12.231051
In -6.079116 21.378933 9.177489
In -3.025555 18.325371 9.177489
In 0.028007 -21.370931 -3.036757
In 3.081569 -21.370931 0.016804
In 0.028007 -21.370931 3.070366
In 3.081569 -21.370931 6.123928
In 0.028007 -18.317369 -6.090319
In 0.028007 -15.263807 -9.143881
In 3.081569 -15.263807 -6.090319
In 0.028007 -18.317369 0.016804
In 0.028007 -15.263807 -3.036757
In 3.081569 -15.263807 0.016804
In 3.081569 -18.317369 -3.036757
In 0.028007 -18.317369 6.123928
In 0.028007 -15.263807 3.070366
In 3.081569 -15.263807 6.123928
In 3.081569 -18.317369 3.070366
In 0.028007 -15.263807 9.177489
In 3.081569 -15.263807 12.231051
In 3.081569 -18.317369 9.177489
In 0.028007 -12.210246 -12.197442
In 0.028007 -9.156684 -15.251004
In 3.081569 -9.156684 -12.197442
In 0.028007 -12.210246 -6.090319
In 0.028007 -9.156684 -9.143881
In 3.081569 -9.156684 -6.090319
In 3.081569 -12.210246 -9.143881
In 0.028007 -12.210246 0.016804
In 0.028007 -9.156684 -3.036757
In 3.081569 -9.156684 0.016804
In 3.081569 -12.210246 -3.036757
In 0.028007 -12.210246 6.123928
In 0.028007 -9.156684 3.070366
In 3.081569 -9.156684 6.123928
In 3.081569 -12.210246 3.070366
In 0.028007 -12.210246 12.231051
In 0.028007 -9.156684 9.177489
In 3.081569 -9.156684 12.231051
In 3.081569 -12.210246 9.177489
In 0.028007 -9.156684 15.284612
In 3.081569 -9.156684 18.338174
In 3.081569 -12.210246 15.284612
In 0.028007 -6.103122 -18.304566
In 0.028007 -3.049561 -21.358127
In 3.081569 -3.049561 -18.304566
In 0.028007 -6.103122 -12.197442
In 0.028007 -3.049561 -15.251004
In 3.081569 -3.049561 -12.197442
In 3.081569 -6.103122 -15.251004
In 0.028007 -6.103122 -6.090319
In 0.028007 -3.049561 -9.143881
In 3.081569 -3.049561 -6.090319
In 3.081569 -6.103122 -9.143881
In 0.028007 -6.103122 0.016804
In 0.028007 -3.049561 -3.036757
In 3.081569 -3.049561 0.016804
In 3.081569 -6.103122 -3.036757
In 0.028007 -6.103122 6.123928
In 0.028007 -3.049561 3.070366
In 3.081569 -3.049561 6.123928
In 3.081569 -6.103122 3.070366
In 0.028007 -6.103122 12.231051
In 0.028007 -3.049561 9.177489
In 3.081569 -3.049561 12.231051
In 3.081569 -6.103122 9.177489
In 0.028007 -6.103122 18.338174
In 0.028007 -3.049561 15.284612
In 3.081569 -3.049561 18.338174
In 3.081569 -6.103122 15.284612
In 0.028007 -3.049561 21.391736
In 3.081569 -6.103122 21.391736
In 0.028007 0.004001 -18.304566
In 0.028007 3.057563 -21.358127
In 3.081569 3.057563 -18.304566
In 3.081569 0.004001 -21.358127
In 0.028007 0.004001 -12.197442
In 0.028007 3.057563 -15.251004
In 3.081569 3.057563 -12.197442
In 3.081569 0.004001 -15.251004
In 0.028007 0.004001 -6.090319
In 0.028007 3.057563 -9.143881
In 3.081569 3.057563 -6.090319
In 3.081569 0.004001 -9.143881
In 0.028007 0.004001 0.016804
In 0.028007 3.057563 -3.036757
In 3.081569 3.057563 0.016804
In 3.081569 0.004001 -3.036757
In 0.028007 0.004001 6.123928
In 0.028007 3.057563 3.070366
In 3.081569 3.057563 6.123928
In 3.081569 0.004001 3.070366
In 0.028007 0.004001 12.231051
In 0.028007 3.057563 9.177489
In 3.081569 3.057563 12.231051
In 3.081569 0.004001 9.177489
In 0.028007 0.004001 18.338174
In 0.028007 3.057563 15.284612
In 3.081569 3.057563 18.338174
In 3.081569 0.004001 15.284612
In 0.028007 3.057563 21.391736
In 3.081569 0.004001 21.391736
In 0.028007 6.111124 -18.304566
In 3.081569 9.164686 -18.304566
In 3.081569 6.111124 -21.358127
In 0.028007 6.111124 -12.197442
In 0.028007 9.164686 -15.251004
In 3.081569 9.164686 -12.197442
In 3.081569 6.111124 -15.251004
In 0.028007 6.111124 -6.090319
In 0.028007 9.164686 -9.143881
In 3.081569 9.164686 -6.090319
In 3.081569 6.111124 -9.143881
In 0.028007 6.111124 0.016804
In 0.028007 9.164686 -3.036757
In 3.081569 9.164686 0.016804
In 3.081569 6.111124 -3.036757
In 0.028007 6.111124 6.123928
In 0.028007 9.164686 3.070366
In 3.081569 9.164686 6.123928
In 3.081569 6.111124 3.070366
In 0.028007 6.111124 12.231051
In 0.028007 9.164686 9.177489
In 3.081569 9.164686 12.231051
In 3.081569 6.111124 9.177489
In 0.028007 6.111124 18.338174
In 0.028007 9.164686 15.284612
In 3.081569 6.111124 15.284612
In 0.028007 12.218248 -12.197442
In 3.081569 15.271809 -12.197442
In 3.081569 12.218248 -15.251004
In 0.028007 12.218248 -6.090319
In 0.028007 15.271809 -9.143881
In 3.081569 15.271809 -6.090319
In 3.081569 12.218248 -9.143881
In 0.028007 12.218248 0.016804
In 0.028007 15.271809 -3.036757
In 3.081569 15.271809 0.016804
In 3.081569 12.218248 -3.036757
In 0.028007 12.218248 6.123928
In 0.028007 15.271809 3.070366
In 3.081569 15.271809 6.123928
In 3.081569 12.218248 3.070366
In 0.028007 12.218248 12.231051
In 0.028007 15.271809 9.177489
In 3.081569 12.218248 9.177489
In 0.028007 18.325371 -6.090319
In 3.081569 21.378933 -6.090319
In 3.081569 18.325371 -9.143881
In 0.028007 18.325371 0.016804
In 0.028007 21.378933 -3.036757
In 3.081569 21.378933 0.016804
In 3.081569 18.325371 -3.036757
In 0.028007 18.325371 6.123928
In 0.028007 21.378933 3.070366
In 3.081569 18.325371 3.070366
In 6.135130 -21.370931 3.070366
In 9.188692 -21.370931 6.123928
In 6.135130 -21.370931 9.177489
In 9.188692 -21.370931 12.231051
In 6.135130 -18.317369 0.016804
In 6.135130 -15.263807 -3.036757
In 9.188692 -15.263807 0.016804
In 6.135130 -18.317369 6.123928
In 6.135130 -15.263807 3.070366
In 9.188692 -15.263807 6.123928
In 9.188692 -18.317369 3.070366
In 6.135130 -18.317369 12.231051
In 6.135130 -15.263807 9.177489
In 9.188692 -15.263807 12.231051
In 9.188692 -18.317369 9.177489
In 6.135130 -15.263807 15.284612
In 9.188692 -15.263807 18.338174
In 9.188692 -18.317369 15.284612
In 6.135130 -12.210246 -6.090319
In 6.135130 -9.156684 -9.143881
In 9.188692 -9.156684 -6.090319
In 6.135130 -12.210246 0.016804
In 6.135130 -9.156684 -3.036757
In 9.188692 -9.156684 0.016804
In 9.188692 -12.210246 -3.036757
In 6.135130 -12.210246 6.123928
In 6.135130 -9.156684 3.070366
In 9.188692 -9.156684 6.123928
In 9.188692 -12.210246 3.070366
In 6.135130 -12.210246 12.231051
In 6.135130 -9.156684 9.177489
In 9.188692 -9.156684 12.231051
In 9.188692 -12.210246 9.177489
In 6.135130 -12.210246 18.338174
In 6.135130 -9.156684 15.284612
In 9.188692 -9.156684 18.338174
In 9.188692 -12.210246 15.284612
In 6.135130 -9.156684 21.391736
In 9.188692 -12.210246 21.391736
In 6.135130 -6.103122 -12.197442
In 6.135130 -3.049561 -15.251004
In 9.188692 -3.049561 -12.197442
In 6.135130 -6.103122 -6.090319
In 6.135130 -3.049561 -9.143881
In 9.188692 -3.049561 -6.090319
In 9.188692 -6.103122 -9.143881
In 6.135130 -6.103122 0.016804
In 6.135130 -3.049561 -3.036757
In 9.188692 -3.049561 0.016804
In 9.188692 -6.103122 -3.036757
In 6.135130 -6.103122 6.123928
In 6.135130 -3.049561 3.070366
In 9.188692 -3.049561 6.123928
In 9.188692 -6.103122 3.070366
In 6.135130 -6.103122 12.231051
In 6.135130 -3.049561 9.177489
In 9.188692 -3.049561 12.231051
In 9.188692 -6.103122 9.177489
In 6.135130 -6.103122 18.338174
In 6.135130 -3.049561 15.284612
In 9.188692 -3.049561 18.338174
In 9.188692 -6.103122 15.284612
In 6.135130 -3.049561 21.391736
In 9.188692 -6.103122 21.391736
In 6.135130 0.004001 -18.304566
In 6.135130 3.057563 -21.358127
In 9.188692 3.057563 -18.304566
In 6.135130 0.004001 -12.197442
In 6.135130 3.057563 -15.251004
In 9.188692 3.057563 -12.197442
In 9.188692 0.004001 -15.251004
In 6.135130 0.004001 -6.090319
In 6.135130 3.057563 -9.143881
In 9.188692 3.057563 -6.090319
In 9.188692 0.004001 -9.143881
In 6.135130 0.004001 0.016804
In 6.135130 3.057563 -3.036757
In 9.188692 3.057563 0.016804
In 9.188692 0.004001 -3.036757
In 6.135130 0.004001 6.123928
In 6.135130 3.057563 3.070366
In 9.188692 3.057563 6.123928
In 9.188692 0.004001 3.070366
In 6.135130 0.004001 12.231051
In 6.135130 3.057563 9.177489
In 9.188692 3.057563 12.231051
In 9.188692 0.004001 9.177489
In 6.135130 0.004001 18.338174
In 6.135130 3.057563 15.284612
In 9.188692 0.004001 15.284612
In 6.135130 6.111124 -18.304566
In 6.135130 9.164686 -21.358127
In 9.188692 9.164686 -18.304566
In 9.188692 6.111124 -21.358127
In 6.135130 6.111124 -12.197442
In 6.135130 9.164686 -15.251004
In 9.188692 9.164686 -12.197442
In 9.188692 6.111124 -15.251004
In 6.135130 6.111124 -6.090319
In 6.135130 9.164686 -9.143881
In 9.188692 9.164686 -6.090319
In 9.188692 6.111124 -9.143881
In 6.135130 6.111124 0.016804
In 6.135130 9.164686 -3.036757
In 9.188692 9.164686 0.016804
In 9.188692 6.111124 -3.036757
In 6.135130 6.111124 6.123928
In 6.135130 9.164686 3.070366
In 9.188692 9.164686 6.123928
In 9.188692 6.111124 3.070366
In 6.135130 6.111124 12.231051
In 6.135130 9.164686 9.177489
In 9.188692 6.111124 9.177489
In 6.135130 12.218248 -18.304566
In 9.188692 15.271809 -18.304566
In 9.188692 12.218248 -21.358127
In 6.135130 12.218248 -12.197442
In 6.135130 15.271809 -15.251004
In 9.188692 15.271809 -12.197442
In 9.188692 12.218248 -15.251004
In 6.135130 12.218248 -6.090319
In 6.135130 15.271809 -9.143881
In 9.188692 15.271809 -6.090319
In 9.188692 12.218248 -9.143881
In 6.135130 12.218248 0.016804
In 6.135130 15.271809 -3.036757
In 9.188692 15.271809 0.016804
In 9.188692 12.218248 -3.036757
In 6.135130 12.218248 6.123928
In 6.135130 15.271809 3.070366
In 9.188692 12.218248 3.070366
In 6.135130 18.325371 -12.197442
In 9.188692 21.378933 -12.197442
In 9.188692 18.325371 -15.251004
In 6.135130 18.325371 -6.090319
In 6.135130 21.378933 -9.143881
In 9.188692 21.378933 -6.090319
In 9.188692 18.325371 -9.143881
In 6.135130 18.325371 0.016804
In 6.135130 21.378933 -3.036757
In 9.188692 18.325371 -3.036757
In 12.242254 -21.370931 9.177489
In 15.295815 -21.370931 12.231051
In 12.242254 -21.370931 15.284612
In 12.242254 -18.317369 6.123928
In 12.242254 -15.263807 3.070366
In 15.295815 -15.263807 6.123928
In 12.242254 -18.317369 12.231051
In 12.242254 -15.263807 9.177489
In 15.295815 -15.263807 12.231051
In 15.295815 -18.317369 9.177489
In 12.242254 -18.317369 18.338174
In 12.242254 -15.263807 15.284612
In 15.295815 -15.263807 18.338174
In 15.295815 -18.317369 15.284612
In 12.242254 -15.263807 21.391736
In 12.242254 -12.210246 0.016804
In 12.242254 -9.156684 -3.036757
In 15.295815 -9.156684 0.016804
In 12.242254 -12.210246 6.123928
In 12.242254 -9.156684 3.070366
In 15.295815 -9.156684 6.123928
In 15.295815 -12.210246 3.070366
In 12.242254 -12.210246 12.231051
In 12.242254 -9.156684 9.177489
In 15.295815 -9.156684 12.231051
In 15.295815 -12.210246 9.177489
In 12.242254 -12.210246 18.338174
In 12.242254 -9.156684 15.284612
In 15.295815 -9.156684 18.338174
In 15.295815 -12.210246 15.284612
In 12.242254 -9.156684 21.391736
In 15.295815 -12.210246 21.391736
In 12.242254 -6.103122 -6.090319
In 12.242254 -3.049561 -9.143881
In 15.295815 -3.049561 -6.090319
In 12.242254 -6.103122 0.016804
In 12.242254 -3.049561 -3.036757
In 15.295815 -3.049561 0.016804
In 15.295815 -6.103122 -3.036757
In 12.242254 -6.103122 6.123928
In 12.242254 -3.049561 3.070366
In 15.295815 -3.049561 6.123928
In 15.295815 -6.103122 3.070366
In 12.242254 -6.103122 12.231051
In 12.242254 -3.049561 9.177489
In 15.295815 -3.049561 12.231051
In 15.295815 -6.103122 9.177489
In 12.242254 -6.103122 18.338174
In 12.242254 -3.049561 15.284612
In 15.295815 -6.103122 15.284612
In 12.242254 0.004001 -12.197442
In 12.242254 3.057563 -15.251004
In 15.295815 3.057563 -12.197442
In 12.242254 0.004001 -6.090319
In 12.242254 3.057563 -9.143881
In 15.295815 3.057563 -6.090319
In 15.295815 0.004001 -9.143881
In 12.242254 0.004001 0.016804
In 12.242254 3.057563 -3.036757
In 15.295815 3.057563 0.016804
In 15.295815 0.004001 -3.036757
In 12.242254 0.004001 6.123928
In 12.242254 3.057563 3.070366
In 15.295815 3.057563 6.123928
In 15.295815 0.004001 3.070366
In 12.242254 0.004001 12.231051
In 12.242254 3.057563 9.177489
In 15.295815 0.004001 9.177489
In 12.242254 6.111124 -18.304566
In 12.242254 9.164686 -21.358127
In 15.295815 9.164686 -18.304566
In 12.242254 6.111124 -12.197442
In 12.242254 9.164686 -15.251004
In 15.295815 9.164686 -12.197442
In 15.295815 6.111124 -15.251004
In 12.242254 6.111124 -6.090319
In 12.242254 9.164686 -9.143881
In 15.295815 9.164686 -6.090319
In 15.295815 6.111124 -9.143881
In 12.242254 6.111124 0.016804
In 12.242254 9.164686 -3.036757
In 15.295815 9.164686 0.016804
In 15.295815 6.111124 -3.036757
In 12.242254 6.111124 6.123928
In 12.242254 9.164686 3.070366
In 15.295815 6.111124 3.070366
In 12.242254 12.218248 -18.304566
In 12.242254 15.271809 -21.358127
In 15.295815 15.271809 -18.304566
In 15.295815 12.218248 -21.358127
In 12.242254 12.218248 -12.197442
In 12.242254 15.271809 -15.251004
In 15.295815 15.271809 -12.197442
In 15.295815 12.218248 -15.251004
In 12.242254 12.218248 -6.090319
In 12.242254 15.271809 -9.143881
In 15.295815 15.271809 -6.090319
In 15.295815 12.218248 -9.143881
In 12.242254 12.218248 0.016804
In 12.242254 15.271809 -3.036757
In 15.295815 12.218248 -3.036757
In 12.242254 18.325371 -18.304566
In 12.242254 18.325371 -12.197442
In 12.242254 21.378933 -15.251004
In 15.295815 21.378933 -12.197442
In 15.295815 18.325371 -15.251004
In 12.242254 18.325371 -6.090319
In 12.242254 21.378933 -9.143881
In 15.295815 18.325371 -9.143881
In 18.349377 -18.317369 12.231051
In 18.349377 -15.263807 9.177489
In 21.402939 -15.263807 12.231051
In 18.349377 -15.263807 15.284612
In 18.349377 -12.210246 6.123928
In 18.349377 -9.156684 3.070366
In 21.402939 -9.156684 6.123928
In 18.349377 -12.210246 12.231051
In 18.349377 -9.156684 9.177489
In 21.402939 -9.156684 12.231051
In 21.402939 -12.210246 9.177489
In 18.349377 -12.210246 18.338174
In 18.349377 -9.156684 15.284612
In 21.402939 -12.210246 15.284612
In 18.349377 -6.103122 0.016804
In 18.349377 -3.049561 -3.036757
In 21.402939 -3.049561 0.016804
In 18.349377 -6.103122 6.123928
In 18.349377 -3.049561 3.070366
In 21.402939 -3.049561 6.123928
In 21.402939 -6.103122 3.070366
In 18.349377 -6.103122 12.231051
In 18.349377 -3.049561 9.177489
In 21.402939 -6.103122 9.177489
In 18.349377 0.004001 -6.090319
In 18.349377 3.057563 -9.143881
In 21.402939 3.057563 -6.090319
In 18.349377 0.004001 0.016804
In 18.349377 3.057563 -3.036757
In 21.402939 3.057563 0.016804
In 21.402939 0.004001 -3.036757
In 18.349377 0.004001 6.123928
In 18.349377 3.057563 3.070366
In 21.402939 0.004001 3.070366
In 18.349377 6.111124 -12.197442
In 18.349377 9.164686 -15.251004
In 21.402939 9.164686 -12.197442
In 18.349377 6.111124 -6.090319
In 18.349377 9.164686 -9.143881
In 21.402939 9.164686 -6.090319
In 21.402939 6.111124 -9.143881
In 18.349377 6.111124 0.016804
In 18.349377 9.164686 -3.036757
In 21.402939 6.111124 -3.036757
In 18.349377 12.218248 -18.304566
In 18.349377 12.218248 -12.197442
In 18.349377 15.271809 -15.251004
In 21.402939 15.271809 -12.197442
In 21.402939 12.218248 -15.251004
In 18.349377 12.218248 -6.090319
In 18.349377 15.271809 -9.143881
In 21.402939 12.218248 -9.143881
In 18.349377 18.325371 -12.197442
As -16.766582 -16.790588 -16.777785
As -16.766582 -19.844150 -13.724223
As -19.820144 -16.790588 -13.724223
As -16.766582 -16.790588 -10.670662
As -16.766582 -13.737026 -19.831347
As -19.820144 -13.737026 -16.777785
As -16.766582 -10.683465 -16.777785
As -16.766582 -13.737026 -13.724223
As -19.820144 -10.683465 -13.724223
As -19.820144 -13.737026 -10.670662
As -16.766582 -10.683465 -10.670662
As -16.766582 -13.737026 -7.617100
As -19.820144 -10.683465 -7.617100
As -16.766582 -10.683465 -4.563538
As -16.766582 -7.629903 -13.724223
As -19.820144 -7.629903 -10.670662
As -16.766582 -4.576341 -10.670662
As -16.766582 -7.629903 -7.617100
As -19.820144 -4.576341 -7.617100
As -19.820144 -7.629903 -4.563538
As -16.766582 -4.576341 -4.563538
As -16.766582 -7.629903 -1.509977
As -19.820144 -4.576341 -1.509977
As -16.766582 -4.576341 1.543585
As -16.766582 -1.522780 -7.617100
As -19.820144 -1.522780 -4.563538
As -16.766582 1.530782 -4.563538
As -16.766582 -1.522780 -1.509977
As -19.820144 1.530782 -1.509977
As -19.820144 -1.522780 1.543585
As -16.766582 1.530782 1.543585
As -16.766582 -1.522780 4.597147
As -19.820144 1.530782 4.597147
As -16.766582 1.530782 7.650708
As -16.766582 4.584343 -1.509977
As -19.820144 4.584343 1.543585
As -16.766582 7.637905 1.543585
As -16.766582 4.584343 4.597147
As -19.820144 7.637905 4.597147
As -19.820144 4.584343 7.650708
As -16.766582 7.637905 7.650708
As -16.766582 4.584343 10.704270
As -19.820144 7.637905 10.704270
As -16.766582 7.637905 13.757832
As -16.766582 10.691467 4.597147
As -19.820144 10.691467 7.650708
As -16.766582 13.745028 7.650708
As -16.766582 10.691467 10.704270
As -19.820144 13.745028 10.704270
As -19.820144 10.691467 13.757832
As -16.766582 13.745028 13.757832
As -16.766582 10.691467 16.811393
As -19.820144 13.745028 16.811393
As -16.766582 13.745028 19.864955
As -16.766582 16.798590 10.704270
As -19.820144 16.798590 13.757832
As -16.766582 19.852152 13.757832
As -16.766582 16.798590 16.811393
As -13.713020 -16.790588 -19.831347
As -13.713020 -19.844150 -16.777785
As -10.659459 -16.790588 -16.777785
As -10.659459 -19.844150 -13.724223
As -13.713020 -16.790588 -13.724223
As -13.713020 -19.844150 -10.670662
As -10.659459 -16.790588 -10.670662
As -10.659459 -19.844150 -7.617100
As -13.713020 -16.790588 -7.617100
As -10.659459 -16.790588 -4.563538
As -10.659459 -13.737026 -19.831347
As -13.713020 -10.683465 -19.831347
As -13.713020 -13.737026 -16.777785
As -10.659459 -10.683465 -16.777785
As -10.659459 -13.737026 -13.724223
As -13.713020 -10.683465 -13.724223
As -13.713020 -13.737026 -10.670662
As -10.659459 -10.683465 -10.670662
As -10.659459 -13.737026 -7.617100
As -13.713020 -10.683465 -7.617100
As -13.713020 -13.737026 -4.563538
As -10.659459 -10.683465 -4.563538
As -10.659459 -13.737026 -1.509977
As -13.713020 -10.683465 -1.509977
As -10.659459 -10.683465 1.543585
As -10.659459 -7.629903 -19.831347
As -13.713020 -7.629903 -16.777785
As -10.659459 -4.576341 -16.777785
As -10.659459 -7.629903 -13.724223
As -13.713020 -4.576341 -13.724223
As -13.713020 -7.629903 -10.670662
As -10.659459 -4.576341 -10.670662
As -10.659459 -7.629903 -7.617100
As -13.713020 -4.576341 -7.617100
As -13.713020 -7.629903 -4.563538
As -10.659459 -4.576341 -4.563538
As -10.659459 -7.629903 -1.509977
As -13.713020 -4.576341 -1.509977
As -13.713020 -7.629903 1.543585
As -10.659459 -4.576341 1.543585
As -10.659459 -7.629903 4.597147
As -13.713020 -4.576341 4.597147
As -10.659459 -4.576341 7.650708
As -10.659459 -1.522780 -13.724223
As -13.713020 -1.522780 -10.670662
As -10.659459 1.530782 -10.670662
As -10.659459 -1.522780 -7.617100
As -13.713020 1.530782 -7.617100
As -13.713020 -1.522780 -4.563538
As -10.659459 1.530782 -4.563538
As -10.659459 -1.522780 -1.509977
As -13.713020 1.530782 -1.509977
As -13.713020 -1.522780 1.543585
As -10.659459 1.530782 1.543585
As -10.659459 -1.522780 4.597147
As -13.713020 1.530782 4.597147
As -13.713020 -1.522780 7.650708
As -10.659459 1.530782 7.650708
As -10.659459 -1.522780 10.704270
As -13.713020 1.530782 10.704270
As -10.659459 1.530782 13.757832
As -10.659459 4.584343 -7.617100
As -13.713020 4.584343 -4.563538
As -10.659459 7.637905 -4.563538
As -10.659459 4.584343 -1.509977
As -13.713020 7.637905 -1.509977
As -13.713020 4.584343 1.543585
As -10.659459 7.637905 1.543585
As -10.659459 4.584343 4.597147
As -13.713020 7.637905 4.597147
As -13.713020 4.584343 7.650708
As -10.659459 7.637905 7.650708
As -10.659459 4.584343 10.704270
As -13.713020 7.637905 10.704270
As -13.713020 4.584343 13.757832
As -10.659459 7.637905 13.757832
As -10.659459 4.584343 16.811393
As -13.713020 7.637905 16.811393
As -10.659459 7.637905 19.864955
As -10.659459 10.691467 -1.509977
As -13.713020 10.691467 1.543585
As -10.659459 13.745028 1.543585
As -10.659459 10.691467 4.597147
As -13.713020 13.745028 4.597147
As -13.713020 10.691467 7.650708
As -10.659459 13.745028 7.650708
As -10.659459 10.691467 10.704270
As -13.713020 13.745028 10.704270
As -13.713020 10.691467 13.757832
As -10.659459 13.745028 13.757832
As -10.659459 10.691467 16.811393
As -13.713020 13.745028 16.811393
As -13.713020 10.691467 19.864955
As -10.659459 13.745028 19.864955
As -10.659459 16.798590 4.597147
As -13.713020 16.798590 7.650708
As -10.659459 19.852152 7.650708
As -10.659459 16.798590 10.704270
As -13.713020 19.852152 10.704270
As -13.713020 16.798590 13.757832
As -10.659459 19.852152 13.757832
As -10.659459 16.798590 16.811393
As -13.713020 19.852152 16.811393
As -13.713020 16.798590 19.864955
As -7.605897 -16.790588 -13.724223
As -7.605897 -19.844150 -10.670662
As -4.552335 -16.790588 -10.670662
As -4.552335 -19.844150 -7.617100
As -7.605897 -16.790588 -7.617100
As -7.605897 -19.844150 -4.563538
As -4.552335 -16.790588 -4.563538
As -4.552335 -19.844150 -1.509977
As -7.605897 -16.790588 -1.509977
As -4.552335 -16.790588 1.543585
As -7.605897 -10.683465 -19.831347
As -7.605897 -13.737026 -16.777785
As -4.552335 -10.683465 -16.777785
As -4.552335 -13.737026 -13.724223
As -7.605897 -10.683465 -13.724223
As -7.605897 -13.737026 -10.670662
As -4.552335 -10.683465 -10.670662
As -4.552335 -13.737026 -7.617100
As -7.605897 -10.683465 -7.617100
As -7.605897 -13.737026 -4.563538
As -4.552335 -10.683465 -4.563538
As -4.552335 -13.737026 -1.509977
As -7.605897 -10.683465 -1.509977
As -7.605897 -13.737026 1.543585
As -4.552335 -10.683465 1.543585
As -4.552335 -13.737026 4.597147
As -7.605897 -10.683465 4.597147
As -4.552335 -10.683465 7.650708
As -4.552335 -7.629903 -19.831347
As -7.605897 -4.576341 -19.831347
As -7.605897 -7.629903 -16.777785
As -4.552335 -4.576341 -16.777785
As -4.552335 -7.629903 -13.724223
As -7.605897 -4.576341 -13.724223
As -7.605897 -7.629903 -10.670662
As -4.552335 -4.576341 -10.670662
As -4.552335 -7.629903 -7.617100
As -7.605897 -4.576341 -7.617100
As -7.605897 -7.629903 -4.563538
As -4.552335 -4.576341 -4.563538
As -4.552335 -7.629903 -1.509977
As -7.605897 -4.576341 -1.509977
As -7.605897 -7.629903 1.543585
As -4.552335 -4.576341 1.543585
As -4.552335 -7.629903 4.597147
As -7.605897 -4.576341 4.597147
As -7.605897 -7.629903 7.650708
As -4.552335 -4.576341 7.650708
As -4.552335 -7.629903 10.704270
As -7.605897 -4.576341 10.704270
As -4.552335 -4.576341 13.757832
As -4.552335 -1.522780 -19.831347
As -7.605897 -1.522780 -16.777785
As -4.552335 1.530782 -16.777785
As -4.552335 -1.522780 -13.724223
As -7.605897 1.530782 -13.724223
As -7.605897 -1.522780 -10.670662
As -4.552335 1.530782 -10.670662
As -4.552335 -1.522780 -7.617100
As -7.605897 1.530782 -7.617100
As -7.605897 -1.522780 -4.563538
As -4.552335 1.530782 -4.563538
As -4.552335 -1.522780 -1.509977
As -7.605897 1.530782 -1.509977
As -7.605897 -1.522780 1.543585
As -4.552335 1.530782 1.543585
As -4.552335 -1.522780 4.597147
As -7.605897 1.530782 4.597147
As -7.605897 -1.522780 7.650708
As -4.552335 1.530782 7.650708
As -4.552335 -1.522780 10.704270
As -7.605897 1.530782 10.704270
As -7.605897 -1.522780 13.757832
As -4.552335 1.530782 13.757832
As -4.552335 -1.522780 16.811393
As -7.605897 1.530782 16.811393
As -4.552335 1.530782 19.864955
As -4.552335 4.584343 -13.724223
As -7.605897 4.584343 -10.670662
As -4.552335 7.637905 -10.670662
As -4.552335 4.584343 -7.617100
As -7.605897 7.637905 -7.617100
As -7.605897 4.584343 -4.563538
As -4.552335 7.637905 -4.563538
As -4.552335 4.584343 -1.509977
As -7.605897 7.637905 -1.509977
As -7.605897 4.584343 1.543585
As -4.552335 7.637905 1.543585
As -4.552335 4.584343 4.597147
As -7.605897 7.637905 4.597147
As -7.605897 4.584343 7.650708
As -4.552335 7.637905 7.650708
As -4.552335 4.584343 10.704270
As -7.605897 7.637905 10.704270
As -7.605897 4.584343 13.757832
As -4.552335 7.637905 13.757832
As -4.552335 4.584343 16.811393
As -7.605897 7.637905 16.811393
As -7.605897 4.584343 19.864955
As -4.552335 7.637905 19.864955
As -4.552335 10.691467 -7.617100
As -7.605897 10.691467 -4.563538
As -4.552335 13.745028 -4.563538
As -4.552335 10.691467 -1.509977
As -7.605897 13.745028 -1.509977
As -7.605897 10.691467 1.543585
As -4.552335 13.745028 1.543585
As -4.552335 10.691467 4.597147
As -7.605897 13.745028 4.597147
As -7.605897 10.691467 7.650708
As -4.552335 13.745028 7.650708
As -4.552335 10.691467 10.704270
As -7.605897 13.745028 10.704270
As -7.605897 10.691467 13.757832
As -4.552335 13.745028 13.757832
As -4.552335 10.691467 16.811393
As -7.605897 13.745028 16.811393
As -7.605897 10.691467 19.864955
As -4.552335 16.798590 -1.509977
As -7.605897 16.798590 1.543585
As -4.552335 19.852152 1.543585
As -4.552335 16.798590 4.597147
As -7.605897 19.852152 4.597147
As -7.605897 16.798590 7.650708
As -4.552335 19.852152 7.650708
As -4.552335 16.798590 10.704270
As -7.605897 19.852152 10.704270
As -7.605897 16.798590 13.757832
As -1.498774 -16.790588 -7.617100
As -1.498774 -19.844150 -4.563538
As 1.554788 -16.790588 -4.563538
As 1.554788 -19.844150 -1.509977
As -1.498774 -16.790588 -1.509977
As -1.498774 -19.844150 1.543585
As 1.554788 -16.790588 1.543585
As 1.554788 -19.844150 4.597147
As -1.498774 -16.790588 4.597147
As 1.554788 -16.790588 7.650708
As -1.498774 -10.683465 -13.724223
As -1.498774 -13.737026 -10.670662
As 1.554788 -10.683465 -10.670662
As 1.554788 -13.737026 -7.617100
As -1.498774 -10.683465 -7.617100
As -1.498774 -13.737026 -4.563538
As 1.554788 -10.683465 -4.563538
As 1.554788 -13.737026 -1.509977
As -1.498774 -10.683465 -1.509977
As -1.498774 -13.737026 1.543585
As 1.554788 -10.683465 1.543585
As 1.554788 -13.737026 4.597147
As -1.498774 -10.683465 4.597147
As -1.498774 -13.737026 7.650708
As 1.554788 -10.683465 7.650708
As 1.554788 -13.737026 10.704270
As -1.498774 -10.683465 10.704270
As 1.554788 -10.683465 13.757832
As -1.498774 -4.576341 -19.831347
As -1.498774 -7.629903 -16.777785
As 1.554788 -4.576341 -16.777785
As 1.554788 -7.629903 -13.724223
As -1.498774 -4.576341 -13.724223
As -1.498774 -7.629903 -10.670662
As 1.554788 -4.576341 -10.670662
As 1.554788 -7.629903 -7.617100
As -1.498774 -4.576341 -7.617100
As -1.498774 -7.629903 -4.563538
As 1.554788 -4.576341 -4.563538
As 1.554788 -7.629903 -1.509977
As -1.498774 -4.576341 -1.509977
As -1.498774 -7.629903 1.543585
As 1.554788 -4.576341 1.543585
As 1.554788 -7.629903 4.597147
As -1.498774 -4.576341 4.597147
As -1.498774 -7.629903 7.650708
As 1.554788 -4.576341 7.650708
As 1.554788 -7.629903 10.704270
As -1.498774 -4.576341 10.704270
As -1.498774 -7.629903 13.757832
As 1.554788 -4.576341 13.757832
As 1.554788 -7.629903 16.811393
As -1.498774 -4.576341 16.811393
As 1.554788 -4.576341 19.864955
As 1.554788 -1.522780 -19.831347
As -1.498774 1.530782 -19.831347
As -1.498774 -1.522780 -16.777785
As 1.554788 1.530782 -16.777785
As 1.554788 -1.522780 -13.724223
As -1.498774 1.530782 -13.724223
As -1.498774 -1.522780 -10.670662
As 1.554788 1.530782 -10.670662
As 1.554788 -1.522780 -7.617100
As -1.498774 1.530782 -7.617100
As -1.498774 -1.522780 -4.563538
As 1.554788 1.530782 -4.563538
As 1.554788 -1.522780 -1.509977
As -1.498774 1.530782 -1.509977
As -1.498774 -1.522780 1.543585
As 1.554788 1.530782 1.543585
As 1.554788 -1.522780 4.597147
As -1.498774 1.530782 4.597147
As -1.498774 -1.522780 7.650708
As 1.554788 1.530782 7.650708
As 1.554788 -1.522780 10.704270
As -1.498774 1.530782 10.704270
As -1.498774 -1.522780 13.757832
As 1.554788 1.530782 13.757832
As 1.554788 -1.522780 16.811393
As -1.498774 1.530782 16.811393
As -1.498774 -1.522780 19.864955
As 1.554788 1.530782 19.864955
As 1.554788 4.584343 -19.831347
As -1.498774 4.584343 -16.777785
As 1.554788 7.637905 -16.777785
As 1.554788 4.584343 -13.724223
As -1.498774 7.637905 -13.724223
As -1.498774 4.584343 -10.670662
As 1.554788 7.637905 -10.670662
As 1.554788 4.584343 -7.617100
As -1.498774 7.637905 -7.617100
As -1.498774 4.584343 -4.563538
As 1.554788 7.637905 -4.563538
As 1.554788 4.584343 -1.509977
As -1.498774 7.637905 -1.509977
As -1.498774 4.584343 1.543585
As 1.554788 7.637905 1.543585
As 1.554788 4.584343 4.597147
As -1.498774 7.637905 4.597147
As -1.498774 4.584343 7.650708
As 1.554788 7.637905 7.650708
As 1.554788 4.584343 10.704270
As -1.498774 7.637905 10.704270
As -1.498774 4.584343 13.757832
As 1.554788 7.637905 13.757832
As 1.554788 4.584343 16.811393
As -1.498774 7.637905 16.811393
As -1.498774 4.584343 19.864955
As 1.554788 10.691467 -13.724223
As -1.498774 10.691467 -10.670662
As 1.554788 13.745028 -10.670662
As 1.554788 10.691467 -7.617100
As -1.498774 13.745028 -7.617100
As -1.498774 10.691467 -4.563538
As 1.554788 13.745028 -4.563538
As 1.554788 10.691467 -1.509977
As -1.498774 13.745028 -1.509977
As -1.498774 10.691467 1.543585
As 1.554788 13.745028 1.543585
As 1.554788 10.691467 4.597147
As -1.498774 13.745028 4.597147
As -1.498774 10.691467 7.650708
As 1.554788 13.745028 7.650708
As 1.554788 10.691467 10.704270
As -1.498774 13.745028 10.704270
As -1.498774 10.691467 13.757832
As 1.554788 16.798590 -7.617100
As -1.498774 16.798590 -4.563538
As 1.554788 19.852152 -4.563538
As 1.554788 16.798590 -1.509977
As -1.498774 19.852152 -1.509977
As -1.498774 16.798590 1.543585
As 1.554788 19.852152 1.543585
As 1.554788 16.798590 4.597147
As -1.498774 19.852152 4.597147
As -1.498774 16.798590 7.650708
As 4.608349 -16.790588 -1.509977
As 4.608349 -19.844150 1.543585
As 7.661911 -16.790588 1.543585
As 7.661911 -19.844150 4.597147
As 4.608349 -16.790588 4.597147
As 4.608349 -19.844150 7.650708
As 7.661911 -16.790588 7.650708
As 7.661911 -19.844150 10.704270
As 4.608349 -16.790588 10.704270
As 7.661911 -16.790588 13.757832
As 4.608349 -10.683465 -7.617100
As 4.608349 -13.737026 -4.563538
As 7.661911 -10.683465 -4.563538
As 7.661911 -13.737026 -1.509977
As 4.608349 -10.683465 -1.509977
As 4.608349 -13.737026 1.543585
As 7.661911 -10.683465 1.543585
As 7.661911 -13.737026 4.597147
As 4.608349 -10.683465 4.597147
As 4.608349 -13.737026 7.650708
As 7.661911 -10.683465 7.650708
As 7.661911 -13.737026 10.704270
As 4.608349 -10.683465 10.704270
As 4.608349 -13.737026 13.757832
As 7.661911 -10.683465 13.757832
As 7.661911 -13.737026 16.811393
As 4.608349 -10.683465 16.811393
As 7.661911 -10.683465 19.864955
As 4.608349 -4.576341 -13.724223
As 4.608349 -7.629903 -10.670662
As 7.661911 -4.576341 -10.670662
As 7.661911 -7.629903 -7.617100
As 4.608349 -4.576341 -7.617100
As 4.608349 -7.629903 -4.563538
As 7.661911 -4.576341 -4.563538
As 7.661911 -7.629903 -1.509977
As 4.608349 -4.576341 -1.509977
As 4.608349 -7.629903 1.543585
As 7.661911 -4.576341 1.543585
As 7.661911 -7.629903 4.597147
As 4.608349 -4.576341 4.597147
As 4.608349 -7.629903 7.650708
As 7.661911 -4.576341 7.650708
As 7.661911 -7.629903 10.704270
As 4.608349 -4.576341 10.704270
As 4.608349 -7.629903 13.757832
As 7.661911 -4.576341 13.757832
As 7.661911 -7.629903 16.811393
As 4.608349 -4.576341 16.811393
As 4.608349 -7.629903 19.864955
As 7.661911 -4.576341 19.864955
As 4.608349 1.530782 -19.831347
As 4.608349 -1.522780 -16.777785
As 7.661911 1.530782 -16.777785
As 7.661911 -1.522780 -13.724223
As 4.608349 1.530782 -13.724223
As 4.608349 -1.522780 -10.670662
As 7.661911 1.530782 -10.670662
As 7.661911 -1.522780 -7.617100
As 4.608349 1.530782 -7.617100
As 4.608349 -1.522780 -4.563538
As 7.661911 1.530782 -4.563538
As 7.661911 -1.522780 -1.509977
As 4.608349 1.530782 -1.509977
As 4.608349 -1.522780 1.543585
As 7.661911 1.530782 1.543585
As 7.661911 -1.522780 4.597147
As 4.608349 1.530782 4.597147
As 4.608349 -1.522780 7.650708
As 7.661911 1.530782 7.650708
As 7.661911 -1.522780 10.704270
As 4.608349 1.530782 10.704270
As 4.608349 -1.522780 13.757832
As 7.661911 1.530782 13.757832
As 7.661911 -1.522780 16.811393
As 4.608349 1.530782 16.811393
As 4.608349 -1.522780 19.864955
As 7.661911 4.584343 -19.831347
As 4.608349 7.637905 -19.831347
As 4.608349 4.584343 -16.777785
As 7.661911 7.637905 -16.777785
As 7.661911 4.584343 -13.724223
As 4.608349 7.637905 -13.724223
As 4.608349 4.584343 -10.670662
As 7.661911 7.637905 -10.670662
As 7.661911 4.584343 -7.617100
As 4.608349 7.637905 -7.617100
As 4.608349 4.584343 -4.563538
As 7.661911 7.637905 -4.563538
As 7.661911 4.584343 -1.509977
As 4.608349 7.637905 -1.509977
As 4.608349 4.584343 1.543585
As 7.661911 7.637905 1.543585
As 7.661911 4.584343 4.597147
As 4.608349 7.637905 4.597147
As 4.608349 4.584343 7.650708
As 7.661911 7.637905 7.650708
As 7.661911 4.584343 10.704270
As 4.608349 7.637905 10.704270
As 4.608349 4.584343 13.757832
As 7.661911 10.691467 -19.831347
As 4.608349 10.691467 -16.777785
As 7.661911 13.745028 -16.777785
As 7.661911 10.691467 -13.724223
As 4.608349 13.745028 -13.724223
As 4.608349 10.691467 -10.670662
As 7.661911 13.745028 -10.670662
As 7.661911 10.691467 -7.617100
As 4.608349 13.745028 -7.617100
As 4.608349 10.691467 -4.563538
As 7.661911 13.745028 -4.563538
As 7.661911 10.691467 -1.509977
As 4.608349 13.745028 -1.509977
As 4.608349 10.691467 1.543585
As 7.661911 13.745028 1.543585
As 7.661911 10.691467 4.597147
As 4.608349 13.745028 4.597147
As 4.608349 10.691467 7.650708
As 7.661911 16.798590 -13.724223
As 4.608349 16.798590 -10.670662
As 7.661911 19.852152 -10.670662
As 7.661911 16.798590 -7.617100
As 4.608349 19.852152 -7.617100
As 4.608349 16.798590 -4.563538
As 7.661911 19.852152 -4.563538
As 7.661911 16.798590 -1.509977
As 4.608349 19.852152 -1.509977
As 4.608349 16.798590 1.543585
As 10.715473 -16.790588 4.597147
As 10.715473 -19.844150 7.650708
As 13.769034 -16.790588 7.650708
As 13.769034 -19.844150 10.704270
As 10.715473 -16.790588 10.704270
As 10.715473 -19.844150 13.757832
As 13.769034 -16.790588 13.757832
As 13.769034 -19.844150 16.811393
As 10.715473 -16.790588 16.811393
As 13.769034 -16.790588 19.864955
As 10.715473 -10.683465 -1.509977
As 10.715473 -13.737026 1.543585
As 13.769034 -10.683465 1.543585
As 13.769034 -13.737026 4.597147
As 10.715473 -10.683465 4.597147
As 10.715473 -13.737026 7.650708
As 13.769034 -10.683465 7.650708
As 13.769034 -13.737026 10.704270
As 10.715473 -10.683465 10.704270
As 10.715473 -13.737026 13.757832
As 13.769034 -10.683465 13.757832
As 13.769034 -13.737026 16.811393
As 10.715473 -10.683465 16.811393
As 10.715473 -13.737026 19.864955
As 13.769034 -10.683465 19.864955
As 10.715473 -4.576341 -7.617100
As 10.715473 -7.629903 -4.563538
As 13.769034 -4.576341 -4.563538
As 13.769034 -7.629903 -1.509977
As 10.715473 -4.576341 -1.509977
As 10.715473 -7.629903 1.543585
As 13.769034 -4.576341 1.543585
As 13.769034 -7.629903 4.597147
As 10.715473 -4.576341 4.597147
As 10.715473 -7.629903 7.650708
As 13.769034 -4.576341 7.650708
As 13.769034 -7.629903 10.704270
As 10.715473 -4.576341 10.704270
As 10.715473 -7.629903 13.757832
As 13.769034 -4.576341 13.757832
As 13.769034 -7.629903 16.811393
As 10.715473 -4.576341 16.811393
As 10.715473 -7.629903 19.864955
As 10.715473 1.530782 -13.724223
As 10.715473 -1.522780 -10.670662
As 13.769034 1.530782 -10.670662
As 13.769034 -1.522780 -7.617100
As 10.715473 1.530782 -7.617100
As 10.715473 -1.522780 -4.563538
As 13.769034 1.530782 -4.563538
As 13.769034 -1.522780 -1.509977
As 10.715473 1.530782 -1.509977
As 10.715473 -1.522780 1.543585
As 13.769034 1.530782 1.543585
As 13.769034 -1.522780 4.597147
As 10.715473 1.530782 4.597147
As 10.715473 -1.522780 7.650708
As 13.769034 1.530782 7.650708
As 13.769034 -1.522780 10.704270
As 10.715473 1.530782 10.704270
As 10.715473 -1.522780 13.757832
As 10.715473 7.637905 -19.831347
As 10.715473 4.584343 -16.777785
As 13.769034 7.637905 -16.777785
As 13.769034 4.584343 -13.724223
As 10.715473 7.637905 -13.724223
As 10.715473 4.584343 -10.670662
As 13.769034 7.637905 -10.670662
As 13.769034 4.584343 -7.617100
As 10.715473 7.637905 -7.617100
As 10.715473 4.584343 -4.563538
As 13.769034 7.637905 -4.563538
As 13.769034 4.584343 -1.509977
As 10.715473 7.637905 -1.509977
As 10.715473 4.584343 1.543585
As 13.769034 7.637905 1.543585
As 13.769034 4.584343 4.597147
As 10.715473 7.637905 4.597147
As 10.715473 4.584343 7.650708
As 13.769034 10.691467 -19.831347
As 10.715473 13.745028 -19.831347
As 10.715473 10.691467 -16.777785
As 13.769034 13.745028 -16.777785
As 13.769034 10.691467 -13.724223
As 10.715473 13.745028 -13.724223
As 10.715473 10.691467 -10.670662
As 13.769034 13.745028 -10.670662
As 13.769034 10.691467 -7.617100
As 10.715473 13.745028 -7.617100
As 10.715473 10.691467 -4.563538
As 13.769034 13.745028 -4.563538
As 13.769034 10.691467 -1.509977
As 10.715473 13.745028 -1.509977
As 10.715473 10.691467 1.543585
As 13.769034 16.798590 -19.831347
As 10.715473 16.798590 -16.777785
As 13.769034 19.852152 -16.777785
As 13.769034 16.798590 -13.724223
As 10.715473 19.852152 -13.724223
As 10.715473 16.798590 -10.670662
As 13.769034 19.852152 -10.670662
As 13.769034 16.798590 -7.617100
As 10.715473 19.852152 -7.617100
As 10.715473 16.798590 -4.563538
As 16.822596 -16.790588 10.704270
As 16.822596 -19.844150 13.757832
As 19.876158 -16.790588 13.757832
As 16.822596 -16.790588 16.811393
As 16.822596 -10.683465 4.597147
As 16.822596 -13.737026 7.650708
As 19.876158 -10.683465 7.650708
As 19.876158 -13.737026 10.704270
As 16.822596 -10.683465 10.704270
As 16.822596 -13.737026 13.757832
As 19.876158 -10.683465 13.757832
As 19.876158 -13.737026 16.811393
As 16.822596 -10.683465 16.811393
As 16.822596 -13.737026 19.864955
As 16.822596 -4.576341 -1.509977
As 16.822596 -7.629903 1.543585
As 19.876158 -4.576341 1.543585
As 19.876158 -7.629903 4.597147
As 16.822596 -4.576341 4.597147
As 16.822596 -7.629903 7.650708
As 19.876158 -4.576341 7.650708
As 19.876158 -7.629903 10.704270
As 16.822596 -4.576341 10.704270
As 16.822596 -7.629903 13.757832
As 16.822596 1.530782 -7.617100
As 16.822596 -1.522780 -4.563538
As 19.876158 1.530782 -4.563538
As 19.876158 -1.522780 -1.509977
As 16.822596 1.530782 -1.509977
As 16.822596 -1.522780 1.543585
As 19.876158 1.530782 1.543585
As 19.876158 -1.522780 4.597147
As 16.822596 1.530782 4.597147
As 16.822596 -1.522780 7.650708
As 16.822596 7.637905 -13.724223
As 16.822596 4.584343 -10.670662
As 19.876158 7.637905 -10.670662
As 19.876158 4.584343 -7.617100
As 16.822596 7.637905 -7.617100
As 16.822596 4.584343 -4.563538
As 19.876158 7.637905 -4.563538
As 19.876158 4.584343 -1.509977
As 16.822596 7.637905 -1.509977
As 16.822596 4.584343 1.543585
As 16.822596 13.745028 -19.831347
As 16.822596 10.691467 -16.777785
As 19.876158 13.745028 -16.777785
As 19.876158 10.691467 -13.724223
As 16.822596 13.745028 -13.724223
As 16.822596 10.691467 -10.670662
As 19.876158 13.745028 -10.670662
As 19.876158 10.691467 -7.617100
As 16.822596 13.745028 -7.617100
As 16.822596 10.691467 -4.563538
As 16.822596 16.798590 -16.777785
As 19.876158 16.798590 -13.724223
As 16.822596 19.852152 -13.724223
As 16.822596 16.798590 -10.670662
Cl -22.873705 -13.737026 -13.724223
Cl -22.873705 -10.683465 -10.670662
Cl -22.873705 -7.629903 -7.617100
Cl -22.873705 -4.576341 -4.563538
Cl -22.873705 -1.522780 -1.509977
Cl -22.873705 1.530782 1.543585
Cl -22.873705 4.584343 4.597147
Cl -22.873705 7.637905 7.650708
Cl -22.873705 10.691467 10.704270
Cl -22.873705 13.745028 13.757832
Cl -13.713020 -22.897711 -13.724223
Cl -10.659459 -22.897711 -10.670662
Cl -13.713020 -13.737026 -22.884908
Cl -10.659459 -10.683465 -22.884908
Cl -10.659459 10.691467 22.918517
Cl -13.713020 13.745028 22.918517
Cl -10.659459 22.905713 10.704270
Cl -13.713020 22.905713 13.757832
Cl -7.605897 -22.897711 -7.617100
Cl -4.552335 -22.897711 -4.563538
Cl -7.605897 -7.629903 -22.884908
Cl -4.552335 -4.576341 -22.884908
Cl -4.552335 4.584343 22.918517
Cl -7.605897 7.637905 22.918517
Cl -4.552335 22.905713 4.597147
Cl -7.605897 22.905713 7.650708
Cl -1.498774 -22.897711 -1.509977
Cl 1.554788 -22.897711 1.543585
Cl -1.498774 -1.522780 -22.884908
Cl 1.554788 1.530782 -22.884908
Cl 1.554788 -1.522780 22.918517
Cl -1.498774 1.530782 22.918517
Cl 1.554788 22.905713 -1.509977
Cl -1.498774 22.905713 1.543585
Cl 4.608349 -22.897711 4.597147
Cl 7.661911 -22.897711 7.650708
Cl 7.661911 -7.629903 22.918517
Cl 4.608349 -4.576341 22.918517
Cl 4.608349 4.584343 -22.884908
Cl 7.661911 7.637905 -22.884908
Cl 7.661911 22.905713 -7.617100
Cl 4.608349 22.905713 -4.563538
Cl 10.715473 -22.897711 10.704270
Cl 13.769034 -22.897711 13.757832
Cl 13.769034 -13.737026 22.918517
Cl 10.715473 -10.683465 22.918517
Cl 10.715473 10.691467 -22.884908
Cl 13.769034 13.745028 -22.884908
Cl 13.769034 22.905713 -13.724223
Cl 10.715473 22.905713 -10.670662
Cl 22.929719 -10.683465 10.704270
Cl 22.929719 -13.737026 13.757832
Cl 22.929719 -4.576341 4.597147
Cl 22.929719 -7.629903 7.650708
Cl 22.929719 1.530782 -1.509977
Cl 22.929719 -1.522780 1.543585
Cl 22.929719 7.637905 -7.617100
Cl 22.929719 4.584343 -4.563538
Cl 22.929719 13.745028 -13.724223
Cl 22.929719 10.691467 -10.670662
Cl -10.659459 -10.683465 7.650708
Cl -10.659459 10.691467 -7.617100
Cl 7.661911 -10.683465 -10.670662
Cl 10.715473 10.691467 7.650708
Cl -16.766582 -10.683465 -22.884908
Cl -16.766582 10.691467 22.918517
Cl -10.659459 16.798590 22.918517
Cl 22.929719 -16.790588 10.704270
Cl 10.715473 -16.790588 22.918517
Cl 16.822596 -10.683465 22.918517
Cl 10.715473 16.798590 -22.884908
Cl 22.929719 10.691467 -16.777785
Cl -22.873705 -16.790588 -10.670662
Cl -22.873705 16.798590 10.704270
Cl -10.659459 -22.897711 -16.777785
Cl 16.822596 22.905713 -10.670662
Cl 1.554788 -22.897711 7.650708
Cl 1.554788 22.905713 -7.617100
Cl 7.661911 1.530782 -22.884908
Cl 22.929719 -1.522780 7.650708
Cl -22.873705 -1.522780 -7.617100
Cl -22.873705 1.530782 7.650708
Cl -1.498774 22.905713 7.650708
Cl 7.661911 -22.897711 1.543585
Cl -1.498774 -4.576341 22.918517
Cl -1.498774 4.584343 -22.884908
Cl 4.608349 1.530782 22.918517
Cl 22.929719 -1.522780 -4.563538
Cl -10.659459 -22.897711 -4.563538
Cl -10.659459 22.905713 4.597147
Cl -4.552335 -10.683465 -22.884908
Cl 22.929719 10.691467 -4.563538
Cl -22.873705 -7.629903 -1.509977
Cl -22.873705 7.637905 1.543585
Cl -1.498774 -22.897711 -7.617100
Cl 7.661911 22.905713 -1.509977
Cl -13.713020 -1.522780 -16.777785
Cl -13.713020 1.530782 16.811393
Cl -1.498774 13.745028 16.811393
Cl 16.822596 -13.737026 1.543585
Cl 1.554788 -13.737026 16.811393
Cl 1.554788 13.745028 -16.777785
Cl 13.769034 -1.522780 16.811393
Cl 16.822596 1.530782 -13.724223
Cl -22.873705 -10.683465 -16.777785
Cl -22.873705 10.691467 16.811393
Cl -10.659459 22.905713 16.811393
Cl 16.822596 -22.897711 10.704270
Cl 10.715473 -22.897711 16.811393
Cl 16.822596 10.691467 -22.884908
Cl 10.715473 22.905713 -16.777785
Cl 22.929719 -10.683465 16.811393
Cl -16.766582 -22.897711 -10.670662
Cl -16.766582 22.905713 10.704270
Cl -10.659459 -16.790588 -22.884908
Cl 22.929719 16.798590 -10.670662
Cl -4.552335 -22.897711 1.543585
Cl -4.552335 22.905713 -1.509977
Cl 1.554788 -4.576341 -22.884908
Cl 22.929719 4.584343 1.543585
Cl -7.605897 -1.522780 -22.884908
Cl -7.605897 1.530782 22.918517
Cl -1.498774 7.637905 22.918517
Cl 22.929719 -7.629903 1.543585
Cl -16.766582 -13.737026 -1.509977
Cl -16.766582 13.745028 1.543585
Cl -1.498774 -16.790588 -13.724223
Cl 13.769034 16.798590 -1.509977
Cl -16.766582 -4.576341 7.650708
Cl -16.766582 4.584343 -7.617100
Cl 4.608349 16.798590 7.650708
Cl 7.661911 -16.790588 -4.563538
Cl -4.552335 -16.790588 7.650708
Cl -4.552335 16.798590 -7.617100
Cl 7.661911 -4.576341 -16.777785
Cl 16.822596 4.584343 7.650708
Cl -7.605897 -4.576341 16.811393
Cl -7.605897 4.584343 -16.777785
Cl 4.608349 7.637905 16.811393
Cl 16.822596 -7.629903 -4.563538
Cl 4.608349 -10.683465 22.918517
Cl 10.715473 -4.576341 22.918517
Cl 4.608349 10.691467 -22.884908
Cl 22.929719 4.584343 -10.670662
Cl -19.820144 -4.576341 -13.724223
Cl -19.820144 4.584343 13.757832
Cl -4.552335 19.852152 13.757832
Cl 13.769034 -19.844150 4.597147
Cl 4.608349 -19.844150 13.757832
Cl 4.608349 19.852152 -13.724223
Cl 13.769034 4.584343 -19.831347
Cl 19.876158 -4.576341 13.757832
Cl -10.659459 -16.790588 1.543585
Cl -10.659459 16.798590 -1.509977
Cl 1.554788 -10.683465 -16.777785
Cl 16.822596 10.691467 1.543585
Cl -4.552335 -10.683465 13.757832
Cl -4.552335 10.691467 -13.724223
Cl 10.715473 4.584343 13.757832
Cl 13.769034 -4.576341 -10.670662
Cl -22.873705 -13.737026 -7.617100
Cl -22.873705 13.745028 7.650708
Cl -7.605897 -22.897711 -13.724223
Cl 13.769034 22.905713 -7.617100
Cl -13.713020 -7.629903 -22.884908
Cl -13.713020 7.637905 22.918517
Cl -7.605897 13.745028 22.918517
Cl 22.929719 -13.737026 7.650708
Cl -22.873705 -4.576341 1.543585
Cl -22.873705 4.584343 -1.509977
Cl 1.554788 -22.897711 -4.563538
Cl 4.608349 22.905713 1.543585
Cl -16.766582 -19.844150 -7.617100
Cl -16.766582 19.852152 7.650708
Cl -7.605897 -16.790588 -19.831347
Cl 19.876158 16.798590 -7.617100
Cl -13.713020 -4.576341 10.704270
Cl -13.713020 4.584343 -10.670662
Cl 4.608349 13.745028 10.704270
Cl 10.715473 -13.737026 -4.563538
Cl 7.661911 -16.790588 19.864955
Cl 7.661911 16.798590 -19.831347
Cl 16.822596 -7.629903 19.864955
Cl 19.876158 7.637905 -16.777785
Cl -16.766582 -10.683465 1.543585
Cl -16.766582 10.691467 -1.509977
Cl 1.554788 -16.790588 -10.670662
Cl 10.715473 16.798590 1.543585
Cl -1.498774 -7.629903 19.864955
Cl -1.498774 7.637905 -19.831347
Cl 7.661911 1.530782 19.864955
Cl 19.876158 -1.522780 -7.617100
Cl -1.498774 -16.790588 10.704270
Cl -1.498774 16.798590 -10.670662
Cl 10.715473 -1.522780 -16.777785
Cl 16.822596 1.530782 10.704270
Cl -22.873705 -7.629903 -13.724223
Cl -22.873705 7.637905 13.757832
Cl -7.605897 22.905713 13.757832
Cl 13.769034 -22.897711 7.650708
Cl 7.661911 -22.897711 13.757832
Cl 7.661911 22.905713 -13.724223
Cl 13.769034 7.637905 -22.884908
Cl 22.929719 -7.629903 13.757832
Cl -7.605897 -22.897711 -1.509977
Cl -1.498774 -7.629903 -22.884908
Cl -7.605897 22.905713 1.543585
Cl 22.929719 7.637905 -1.509977
Cl -10.659459 -4.576341 -22.884908
Cl -10.659459 4.584343 22.918517
Cl -4.552335 10.691467 22.918517
Cl 22.929719 -10.683465 4.597147
Cl -22.873705 1.530782 -4.563538
Cl -22.873705 -1.522780 4.597147
Cl 4.608349 -22.897711 -1.509977
Cl 1.554788 22.905713 4.597147
Cl -19.820144 -10.683465 -19.831347
Cl -19.820144 10.691467 19.864955
Cl -10.659459 19.852152 19.864955
Cl 19.876158 -19.844150 10.704270
Cl -1.498774 -22.897711 4.597147
Cl 4.608349 -1.522780 -22.884908
Cl -1.498774 22.905713 -4.563538
Cl 22.929719 1.530782 4.597147
Cl -22.873705 -10.683465 -4.563538
Cl -22.873705 10.691467 4.597147
Cl -4.552335 -22.897711 -10.670662
Cl 10.715473 22.905713 -4.563538
Cl -4.552335 1.530782 -22.884908
Cl -4.552335 -1.522780 22.918517
Cl 1.554788 4.584343 22.918517
Cl 22.929719 -4.576341 -1.509977
Cl -16.766582 -1.522780 -13.724223
Cl -16.766582 1.530782 13.757832
Cl -1.498774 16.798590 13.757832
Cl 13.769034 -16.790588 1.543585
Cl -13.713020 -19.844150 -4.563538
Cl -13.713020 19.852152 4.597147
Cl -4.552335 -13.737026 -19.831347
Cl 19.876158 13.745028 -4.563538
Cl -7.605897 -10.683465 10.704270
Cl -7.605897 10.691467 -10.670662
Cl 10.715473 -7.629903 -10.670662
Cl 10.715473 7.637905 10.704270
Cl -10.659459 -13.737026 4.597147
Cl -10.659459 13.745028 -4.563538
Cl 4.608349 -10.683465 -13.724223
Cl 13.769034 10.691467 4.597147
Cl -10.659459 1.530782 -16.777785
Cl -10.659459 -1.522780 16.811393
Cl 1.554788 10.691467 16.811393
Cl 16.822596 -10.683465 -1.509977
Cl 7.661911 -13.737026 22.918517
Cl 7.661911 13.745028 -22.884908
Cl 13.769034 -7.629903 22.918517
Cl 22.929719 7.637905 -13.724223
Cl -19.820144 -19.844150 -10.670662
Cl -19.820144 19.852152 10.704270
Cl -10.659459 -19.844150 -19.831347
Cl 19.876158 19.852152 -10.670662
Cl -16.766582 -7.629903 4.597147
Cl -16.766582 7.637905 -4.563538
Cl 4.608349 -16.790588 -7.617100
Cl 7.661911 16.798590 4.597147
Cl 10.715473 -19.844150 19.864955
Cl 10.715473 19.852152 -19.831347
Cl 19.876158 -10.683465 19.864955
Cl 19.876158 10.691467 -19.831347
Cl 4.608349 -22.897711 10.704270
Cl 10.715473 4.584343 -22.884908
Cl 4.608349 22.905713 -10.670662
Cl 22.929719 -4.576341 10.704270
Cl 1.554788 -7.629903 22.918517
Cl 1.554788 7.637905 -22.884908
Cl 7.661911 -1.522780 22.918517
Cl 22.929719 1.530782 -7.617100
Cl -22.873705 -4.576341 -10.670662
Cl -22.873705 4.584343 10.704270
Cl -4.552335 22.905713 10.704270
Cl 10.715473 -22.897711 4.597147
Cl -16.766582 -7.629903 -19.831347
Cl -16.766582 7.637905 19.864955
Cl -7.605897 16.798590 19.864955
Cl 19.876158 -16.790588 7.650708
Cl -7.605897 -19.844150 1.543585
Cl -7.605897 19.852152 -1.509977
Cl 1.554788 -7.629903 -19.831347
Cl 19.876158 7.637905 1.543585
Cl -1.498774 -13.737026 13.757832
Cl -1.498774 13.745028 -13.724223
Cl 13.769034 -1.522780 -13.724223
Cl 13.769034 1.530782 13.757832
Cl -19.820144 -13.737026 -4.563538
Cl -19.820144 13.745028 4.597147
Cl -4.552335 -19.844150 -13.724223
Cl 13.769034 19.852152 -4.563538
Cl -10.659459 -4.576341 13.757832
Cl -10.659459 4.584343 -13.724223
Cl 4.608349 10.691467 13.757832
Cl 13.769034 -10.683465 -4.563538
Cl -19.820144 1.530782 -7.617100
Cl -19.820144 -1.522780 7.650708
Cl 1.554788 19.852152 7.650708
Cl 7.661911 -19.844150 -1.509977
Cl -13.713020 -22.897711 -7.617100
Cl -7.605897 -13.737026 -22.884908
Cl -13.713020 22.905713 7.650708
Cl 22.929719 13.745028 -7.617100
Cl 4.608349 -16.790588 16.811393
Cl 4.608349 16.798590 -16.777785
Cl 16.822596 -4.576341 16.811393
Cl 16.822596 4.584343 -16.777785
Cl -4.552335 -7.629903 16.811393
Cl -4.552335 7.637905 -16.777785
Cl 7.661911 4.584343 16.811393
Cl 16.822596 -4.576341 -7.617100
Cl -13.713020 -16.790588 -1.509977
Cl -13.713020 16.798590 1.543585
Cl -1.498774 -13.737026 -16.777785
Cl 16.822596 13.745028 -1.509977
Cl -1.498774 -19.844150 7.650708
Cl -1.498774 19.852152 -7.617100
Cl 7.661911 -1.522780 -19.831347
Cl 19.876158 1.530782 7.650708
Cl -13.713020 -4.576341 -19.831347
Cl -13.713020 4.584343 19.864955
Cl -4.552335 13.745028 19.864955
Cl 19.876158 -13.737026 4.597147
Cl -19.820144 -7.629903 1.543585
Cl -19.820144 7.637905 -1.509977
Cl 1.554788 -19.844150 -7.617100
Cl 7.661911 19.852152 1.543585
Cl 1.554788 -10.683465 19.864955
Cl 1.554788 10.691467 -19.831347
Cl 10.715473 -1.522780 19.864955
Cl 19.876158 1.530782 -10.670662
Cl -7.605897 1.530782 -19.831347
Cl -7.605897 -1.522780 19.864955
Cl 1.554788 7.637905 19.864955
Cl 19.876158 -7.629903 -1.509977
Cl -7.605897 -13.737026 7.650708
Cl -7.605897 13.745028 -7.617100
Cl 7.661911 -7.629903 -13.724223
Cl 13.769034 7.637905 7.650708
Cl -16.766582 1.530782 -10.670662
Cl -16.766582 -1.522780 10.704270
Cl 1.554788 16.798590 10.704270
Cl 10.715473 -16.790588 -1.509977
Cl -13.713020 -10.683465 4.597147
Cl -13.713020 10.691467 -4.563538
Cl 4.608349 -13.737026 -10.670662
Cl 10.715473 13.745028 4.597147
Cl -19.820144 -16.790588 -7.617100
Cl -19.820144 16.798590 7.650708
Cl -7.605897 -19.844150 -16.777785
Cl 16.822596 19.852152 -7.617100
Cl -19.820144 -7.629903 -16.777785
