149
CdS-S-Cd68S55Cl26-clean
Cd -4.335425 -4.394679 -1.451725
Cd -4.335425 -7.337632 1.491228
Cd -7.278378 -4.394679 1.491228
Cd -4.335425 -4.394679 4.434182
Cd -4.335425 1.491228 -7.337632
Cd -4.335425 -1.451725 -4.394679
Cd -7.278378 1.491228 -4.394679
Cd -7.278378 -1.451725 -1.451725
Cd -4.335425 1.491228 -1.451725
Cd -4.335425 -1.451725 1.491228
Cd -7.278378 1.491228 1.491228
Cd -7.278378 -1.451725 4.434182
Cd -4.335425 1.491228 4.434182
Cd -4.335425 -1.451725 7.377135
Cd -4.335425 4.434182 -4.394679
Cd -7.278378 4.434182 -1.451725
Cd -4.335425 7.377135 -1.451725
Cd -4.335425 4.434182 1.491228
Cd 1.550482 -4.394679 -7.337632
Cd 1.550482 -7.337632 -4.394679
Cd -1.392471 -4.394679 -4.394679
Cd -1.392471 -7.337632 -1.451725
Cd 1.550482 -4.394679 -1.451725
Cd 1.550482 -7.337632 1.491228
Cd -1.392471 -4.394679 1.491228
Cd -1.392471 -7.337632 4.434182
Cd 1.550482 -4.394679 4.434182
Cd -1.392471 -4.394679 7.377135
Cd -1.392471 -1.451725 -7.337632
Cd 1.550482 1.491228 -7.337632
Cd 1.550482 -1.451725 -4.394679
Cd -1.392471 1.491228 -4.394679
Cd -1.392471 -1.451725 -1.451725
Cd 1.550482 1.491228 -1.451725
Cd 1.550482 -1.451725 1.491228
Cd -1.392471 1.491228 1.491228
Cd -1.392471 -1.451725 4.434182
Cd 1.550482 1.491228 4.434182
Cd 1.550482 -1.451725 7.377135
Cd -1.392471 1.491228 7.377135
Cd -1.392471 4.434182 -7.337632
Cd 1.550482 4.434182 -4.394679
Cd -1.392471 7.377135 -4.394679
Cd -1.392471 4.434182 -1.451725
Cd 1.550482 7.377135 -1.451725
Cd 1.550482 4.434182 1.491228
Cd -1.392471 7.377135 1.491228
Cd -1.392471 4.434182 4.434182
Cd 1.550482 7.377135 4.434182
Cd 1.550482 4.434182 7.377135
Cd 4.493436 -4.394679 -4.394679
Cd 4.493436 -7.337632 -1.451725
Cd 7.436389 -4.394679 -1.451725
Cd 4.493436 -4.394679 1.491228
Cd 4.493436 -1.451725 -7.337632
Cd 7.436389 -1.451725 -4.394679
Cd 4.493436 1.491228 -4.394679
Cd 4.493436 -1.451725 -1.451725
Cd 7.436389 1.491228 -1.451725
Cd 7.436389 -1.451725 1.491228
Cd 4.493436 1.491228 1.491228
Cd 4.493436 -1.451725 4.434182
Cd 7.436389 1.491228 4.434182
Cd 4.493436 1.491228 7.377135
Cd 4.493436 4.434182 -1.451725
Cd 7.436389 4.434182 1.491228
Cd 4.493436 7.377135 1.491228
Cd 4.493436 4.434182 4.434182
S -5.806901 -2.923202 -2.923202
S -2.863948 -2.923202 -5.866156
S -2.863948 -5.866156 -2.923202
S -5.806901 -5.866156 0.019751
S -5.806901 -2.923202 2.962705
S -2.863948 -2.923202 0.019751
S -2.863948 -5.866156 2.962705
S -2.863948 -2.923202 5.905658
S -5.806901 0.019751 -5.866156
S -5.806901 2.962705 -2.923202
S -2.863948 2.962705 -5.866156
S -2.863948 0.019751 -2.923202
S -5.806901 0.019751 0.019751
S -5.806901 2.962705 2.962705
S -2.863948 2.962705 0.019751
S -2.863948 0.019751 2.962705
S -5.806901 0.019751 5.905658
S -2.863948 2.962705 5.905658
S -2.863948 5.905658 -2.923202
S -5.806901 5.905658 0.019751
S -2.863948 5.905658 2.962705
S 0.079005 -5.866156 -5.866156
S 0.079005 -2.923202 -2.923202
S 3.021959 -2.923202 -5.866156
S 3.021959 -5.866156 -2.923202
S 0.079005 -5.866156 0.019751
S 0.079005 -2.923202 2.962705
S 3.021959 -2.923202 0.019751
S 3.021959 -5.866156 2.962705
S 0.079005 -5.866156 5.905658
S 3.021959 -2.923202 5.905658
S 0.079005 0.019751 -5.866156
S 0.079005 2.962705 -2.923202
S 3.021959 2.962705 -5.866156
S 3.021959 0.019751 -2.923202
S 0.079005 0.019751 0.019751
S 0.079005 2.962705 2.962705
S 3.021959 2.962705 0.019751
S 3.021959 0.019751 2.962705
S 0.079005 0.019751 5.905658
S 3.021959 2.962705 5.905658
S 0.079005 5.905658 -5.866156
S 3.021959 5.905658 -2.923202
S 0.079005 5.905658 0.019751
S 3.021959 5.905658 2.962705
S 0.079005 5.905658 5.905658
S 5.964912 -2.923202 -2.923202
S 5.964912 -5.866156 0.019751
S 5.964912 -2.923202 2.962705
S 5.964912 0.019751 -5.866156
S 5.964912 2.962705 -2.923202
S 5.964912 0.019751 0.019751
S 5.964912 2.962705 2.962705
S 5.964912 0.019751 5.905658
S 5.964912 5.905658 0.019751
Cl -8.749855 -2.923202 0.019751
Cl -8.749855 0.019751 -2.923202
Cl -8.749855 2.962705 0.019751
Cl -8.749855 0.019751 2.962705
Cl -2.863948 -8.809109 0.019751
Cl -2.863948 0.019751 -8.809109
Cl -2.863948 0.019751 8.848612
Cl -2.863948 8.848612 0.019751
Cl 0.079005 -8.809109 -2.923202
Cl 0.079005 -8.809109 2.962705
Cl 3.021959 -8.809109 0.019751
Cl 0.079005 -2.923202 -8.809109
Cl 0.079005 -2.923202 8.848612
Cl 0.079005 2.962705 -8.809109
Cl 3.021959 0.019751 -8.809109
Cl 0.079005 2.962705 8.848612
Cl 3.021959 0.019751 8.848612
Cl 0.079005 8.848612 -2.923202
Cl 0.079005 8.848612 2.962705
Cl 3.021959 8.848612 0.019751
Cl 8.907866 -2.923202 0.019751
Cl 8.907866 0.019751 -2.923202
Cl 8.907866 2.962705 0.019751
Cl 8.907866 0.019751 2.962705
Cl -5.806901 -5.866156 2.962705
Cl -5.806901 2.962705 -5.866156
