91
PbS-Pb-Pb43S38Cl10-clean
Pb -2.823906 -2.856742 -5.943337
Pb -2.823906 -5.844829 -2.955251
Pb -5.811993 -2.856742 -2.955251
Pb -2.823906 -2.856742 0.032836
Pb -2.823906 -5.844829 3.020923
Pb -5.811993 -2.856742 3.020923
Pb -2.823906 -2.856742 6.009010
Pb -2.823906 3.119431 -5.943337
Pb -5.811993 0.131344 0.032836
Pb -2.823906 0.131344 -2.955251
Pb -5.811993 3.119431 -2.955251
Pb -2.823906 3.119431 0.032836
Pb -2.823906 0.131344 3.020923
Pb -5.811993 3.119431 3.020923
Pb -2.823906 3.119431 6.009010
Pb -2.823906 6.107518 -2.955251
Pb -2.823906 6.107518 3.020923
Pb 3.152267 -2.856742 -5.943337
Pb 0.164181 -5.844829 0.032836
Pb 3.152267 -5.844829 -2.955251
Pb 0.164181 -2.856742 -2.955251
Pb 3.152267 -2.856742 0.032836
Pb 3.152267 -5.844829 3.020923
Pb 0.164181 -2.856742 3.020923
Pb 3.152267 -2.856742 6.009010
Pb 0.164181 0.131344 -5.943337
Pb 3.152267 3.119431 -5.943337
Pb 0.164181 0.131344 0.032836
Pb 3.152267 0.131344 -2.955251
Pb 0.164181 3.119431 -2.955251
Pb 3.152267 3.119431 0.032836
Pb 0.164181 0.131344 6.009010
Pb 3.152267 0.131344 3.020923
Pb 0.164181 3.119431 3.020923
Pb 3.152267 3.119431 6.009010
Pb 0.164181 6.107518 0.032836
Pb 3.152267 6.107518 -2.955251
Pb 3.152267 6.107518 3.020923
Pb 6.140354 -2.856742 -2.955251
Pb 6.140354 -2.856742 3.020923
Pb 6.140354 0.131344 0.032836
Pb 6.140354 3.119431 -2.955251
Pb 6.140354 3.119431 3.020923
S -2.823906 -2.856742 -2.955251
S -2.823906 -5.844829 0.032836
S -5.811993 -2.856742 0.032836
S -2.823906 -2.856742 3.020923
S -2.823906 0.131344 -5.943337
S -5.811993 0.131344 -2.955251
S -2.823906 3.119431 -2.955251
S -2.823906 0.131344 0.032836
S -5.811993 3.119431 0.032836
S -5.811993 0.131344 3.020923
S -2.823906 3.119431 3.020923
S -2.823906 0.131344 6.009010
S -2.823906 6.107518 0.032836
S 0.164181 -2.856742 -5.943337
S 0.164181 -5.844829 -2.955251
S 3.152267 -2.856742 -2.955251
S 3.152267 -5.844829 0.032836
S 0.164181 -2.856742 0.032836
S 0.164181 -5.844829 3.020923
S 3.152267 -2.856742 3.020923
S 0.164181 -2.856742 6.009010
S 3.152267 0.131344 -5.943337
S 0.164181 3.119431 -5.943337
S 0.164181 0.131344 -2.955251
S 3.152267 3.119431 -2.955251
S 3.152267 0.131344 0.032836
S 0.164181 3.119431 0.032836
S 0.164181 0.131344 3.020923
S 3.152267 3.119431 3.020923
S 3.152267 0.131344 6.009010
S 0.164181 3.119431 6.009010
S 0.164181 6.107518 -2.955251
S 3.152267 6.107518 0.032836
S 0.164181 6.107518 3.020923
S 6.140354 -2.856742 0.032836
S 6.140354 0.131344 -2.955251
S 6.140354 3.119431 0.032836
S 6.140354 0.131344 3.020923
Cl -2.823906 -5.844829 -5.943337
Cl 3.152267 6.107518 6.009010
Cl -5.811993 -2.856742 6.009010
Cl -5.811993 6.107518 -2.955251
Cl 6.140354 -5.844829 3.020923
Cl 6.140354 3.119431 -5.943337
Cl -5.811993 3.119431 6.009010
Cl 3.152267 -5.844829 -5.943337
Cl -5.811993 -2.856742 -5.943337
Cl -5.811993 -5.844829 3.020923
