357
ZnSe-Se-Zn156Se111Cl90-reconstructed
Zn -9.921483 -7.073172 -1.400353
Zn -9.921483 -4.240730 1.432089
Zn -9.921483 -1.408287 -7.065238
Zn -9.921483 1.424155 -4.232796
Zn -9.921483 -1.408287 -1.400353
Zn -9.921483 1.424155 1.432089
Zn -9.921483 -1.408287 4.264532
Zn -9.921483 1.424155 7.096974
Zn -9.921483 4.256598 -1.400353
Zn -9.921483 7.089040 1.432089
Zn -9.921483 4.256598 4.264532
Zn -4.256598 -9.905615 -4.232796
Zn -7.089040 -9.905615 -1.400353
Zn -4.256598 -9.905615 1.432089
Zn -4.256598 -4.240730 -9.897681
Zn -7.089040 -4.240730 -7.065238
Zn -7.089040 -7.073172 -4.232796
Zn -4.256598 -4.240730 -4.232796
Zn -4.256598 -7.073172 -1.400353
Zn -7.089040 -4.240730 -1.400353
Zn -4.256598 -4.240730 1.432089
Zn -4.256598 -7.073172 4.264532
Zn -7.089040 -4.240730 4.264532
Zn -4.256598 -4.240730 7.096974
Zn -7.089040 -1.408287 -9.897681
Zn -4.256598 1.424155 -9.897681
Zn -4.256598 -1.408287 -7.065238
Zn -7.089040 -1.408287 -4.232796
Zn -4.256598 1.424155 -4.232796
Zn -4.256598 -1.408287 -1.400353
Zn -7.089040 1.424155 -1.400353
Zn -7.089040 -1.408287 1.432089
Zn -4.256598 1.424155 1.432089
Zn -4.256598 -1.408287 4.264532
Zn -7.089040 1.424155 4.264532
Zn -4.256598 1.424155 7.096974
Zn -4.256598 -1.408287 9.929417
Zn -7.089040 1.424155 9.929417
Zn -4.256598 4.256598 -7.065238
Zn -7.089040 4.256598 -4.232796
Zn -4.256598 7.089040 -4.232796
Zn -4.256598 4.256598 -1.400353
Zn -7.089040 4.256598 1.432089
Zn -4.256598 7.089040 1.432089
Zn -4.256598 4.256598 4.264532
Zn -7.089040 4.256598 7.096974
Zn -4.256598 7.089040 7.096974
Zn -4.256598 9.921483 -1.400353
Zn -7.089040 9.921483 1.432089
Zn -4.256598 9.921483 4.264532
Zn -1.424155 -9.905615 -7.065238
Zn 1.408287 -9.905615 -4.232796
Zn -1.424155 -9.905615 -1.400353
Zn 1.408287 -9.905615 1.432089
Zn -1.424155 -9.905615 4.264532
Zn 1.408287 -9.905615 7.096974
Zn -1.424155 -7.073172 -9.897681
Zn 1.408287 -4.240730 -9.897681
Zn -1.424155 -4.240730 -7.065238
Zn -1.424155 -7.073172 -4.232796
Zn 1.408287 -4.240730 -4.232796
Zn 1.408287 -7.073172 -1.400353
Zn -1.424155 -4.240730 -1.400353
Zn -1.424155 -7.073172 1.432089
Zn 1.408287 -4.240730 1.432089
Zn 1.408287 -7.073172 4.264532
Zn -1.424155 -4.240730 4.264532
Zn 1.408287 -4.240730 7.096974
Zn 1.408287 -7.073172 9.929417
Zn -1.424155 -4.240730 9.929417
Zn -1.424155 -1.408287 -9.897681
Zn 1.408287 1.424155 -9.897681
Zn 1.408287 -1.408287 -7.065238
Zn -1.424155 1.424155 -7.065238
Zn -1.424155 -1.408287 -4.232796
Zn 1.408287 1.424155 -4.232796
Zn 1.408287 -1.408287 -1.400353
Zn -1.424155 1.424155 -1.400353
Zn -1.424155 -1.408287 1.432089
Zn 1.408287 1.424155 1.432089
Zn 1.408287 -1.408287 4.264532
Zn -1.424155 1.424155 4.264532
Zn -1.424155 -1.408287 7.096974
Zn 1.408287 1.424155 7.096974
Zn 1.408287 -1.408287 9.929417
Zn -1.424155 1.424155 9.929417
Zn -1.424155 4.256598 -9.897681
Zn 1.408287 7.089040 -9.897681
Zn 1.408287 4.256598 -7.065238
Zn -1.424155 4.256598 -4.232796
Zn 1.408287 7.089040 -4.232796
Zn 1.408287 4.256598 -1.400353
Zn -1.424155 7.089040 -1.400353
Zn -1.424155 4.256598 1.432089
Zn 1.408287 7.089040 1.432089
Zn 1.408287 4.256598 4.264532
Zn -1.424155 7.089040 4.264532
Zn -1.424155 4.256598 7.096974
Zn 1.408287 4.256598 9.929417
Zn -1.424155 7.089040 9.929417
Zn 1.408287 9.921483 -7.065238
Zn -1.424155 9.921483 -4.232796
Zn 1.408287 9.921483 -1.400353
Zn -1.424155 9.921483 1.432089
Zn 1.408287 9.921483 4.264532
Zn -1.424155 9.921483 7.096974
Zn 4.240730 -9.905615 -1.400353
Zn 7.073172 -9.905615 1.432089
Zn 4.240730 -9.905615 4.264532
Zn 4.240730 -4.240730 -7.065238
Zn 4.240730 -7.073172 -4.232796
Zn 7.073172 -4.240730 -4.232796
Zn 4.240730 -4.240730 -1.400353
Zn 4.240730 -7.073172 1.432089
Zn 7.073172 -4.240730 1.432089
Zn 4.240730 -4.240730 4.264532
Zn 4.240730 -7.073172 7.096974
Zn 7.073172 -4.240730 7.096974
Zn 4.240730 -1.408287 -9.897681
Zn 7.073172 1.424155 -9.897681
Zn 4.240730 1.424155 -7.065238
Zn 4.240730 -1.408287 -4.232796
Zn 7.073172 1.424155 -4.232796
Zn 7.073172 -1.408287 -1.400353
Zn 4.240730 1.424155 -1.400353
Zn 4.240730 -1.408287 1.432089
Zn 7.073172 1.424155 1.432089
Zn 7.073172 -1.408287 4.264532
Zn 4.240730 1.424155 4.264532
Zn 4.240730 -1.408287 7.096974
Zn 7.073172 -1.408287 9.929417
Zn 4.240730 1.424155 9.929417
Zn 4.240730 4.256598 -9.897681
Zn 4.240730 7.089040 -7.065238
Zn 4.240730 4.256598 -4.232796
Zn 7.073172 7.089040 -4.232796
Zn 7.073172 4.256598 -1.400353
Zn 4.240730 7.089040 -1.400353
Zn 4.240730 4.256598 1.432089
Zn 7.073172 4.256598 4.264532
Zn 4.240730 7.089040 4.264532
Zn 4.240730 4.256598 7.096974
Zn 7.073172 9.921483 -1.400353
Zn 4.240730 9.921483 1.432089
Zn 9.905615 -4.240730 -1.400353
Zn 9.905615 -7.073172 1.432089
Zn 9.905615 -4.240730 4.264532
Zn 9.905615 1.424155 -7.065238
Zn 9.905615 -1.408287 -4.232796
Zn 9.905615 1.424155 -1.400353
Zn 9.905615 -1.408287 1.432089
Zn 9.905615 1.424155 4.264532
Zn 9.905615 -1.408287 7.096974
Zn 9.905615 4.256598 -4.232796
Zn 9.905615 7.089040 -1.400353
Zn 9.905615 4.256598 1.432089
Se -8.505262 -2.824509 -5.649017
Se -8.505262 -2.824509 0.015868
Se -8.505262 -5.656951 -2.816575
Se -8.505262 2.840377 0.015868
Se -8.505262 0.007934 -2.816575
Se -8.505262 2.840377 5.680753
Se -8.505262 0.007934 2.848311
Se -8.505262 5.672819 2.848311
Se -2.840377 -8.489394 -5.649017
Se -5.672819 -8.489394 -2.816575
Se -2.840377 -8.489394 0.015868
Se -5.672819 -5.656951 -5.649017
Se -5.672819 -2.824509 -8.481460
Se -2.840377 -2.824509 -5.649017
Se -2.840377 -5.656951 -8.481460
Se -5.672819 -5.656951 0.015868
Se -5.672819 -2.824509 -2.816575
Se -2.840377 -2.824509 0.015868
Se -2.840377 -5.656951 -2.816575
Se -5.672819 -5.656951 5.680753
Se -5.672819 -2.824509 2.848311
Se -2.840377 -2.824509 5.680753
Se -2.840377 -5.656951 2.848311
Se -5.672819 0.007934 -5.649017
Se -2.840377 2.840377 -5.649017
Se -2.840377 0.007934 -8.481460
Se -5.672819 0.007934 0.015868
Se -5.672819 2.840377 -2.816575
Se -2.840377 2.840377 0.015868
Se -2.840377 0.007934 -2.816575
Se -5.672819 0.007934 5.680753
Se -5.672819 2.840377 2.848311
Se -2.840377 2.840377 5.680753
Se -2.840377 0.007934 2.848311
Se -5.672819 2.840377 8.513196
Se -2.840377 0.007934 8.513196
Se -5.672819 5.672819 -5.649017
Se -5.672819 5.672819 0.015868
Se -2.840377 8.505262 0.015868
Se -2.840377 5.672819 -2.816575
Se -5.672819 5.672819 5.680753
Se -5.672819 8.505262 2.848311
Se -2.840377 8.505262 5.680753
Se -2.840377 5.672819 2.848311
Se -2.840377 5.672819 8.513196
Se -0.007934 -8.489394 -2.816575
Se 2.824509 -8.489394 0.015868
Se -0.007934 -8.489394 2.848311
Se 2.824509 -8.489394 5.680753
Se -0.007934 -5.656951 -5.649017
Se -0.007934 -2.824509 -8.481460
Se 2.824509 -2.824509 -5.649017
Se -0.007934 -5.656951 0.015868
Se -0.007934 -2.824509 -2.816575
Se 2.824509 -2.824509 0.015868
Se 2.824509 -5.656951 -2.816575
Se -0.007934 -5.656951 5.680753
Se -0.007934 -2.824509 2.848311
Se 2.824509 -2.824509 5.680753
Se 2.824509 -5.656951 2.848311
Se -0.007934 -2.824509 8.513196
Se 2.824509 -5.656951 8.513196
Se -0.007934 0.007934 -5.649017
Se -0.007934 2.840377 -8.481460
Se 2.824509 2.840377 -5.649017
Se 2.824509 0.007934 -8.481460
Se -0.007934 0.007934 0.015868
Se -0.007934 2.840377 -2.816575
Se 2.824509 2.840377 0.015868
Se 2.824509 0.007934 -2.816575
Se -0.007934 0.007934 5.680753
Se -0.007934 2.840377 2.848311
Se 2.824509 2.840377 5.680753
Se 2.824509 0.007934 2.848311
Se -0.007934 2.840377 8.513196
Se 2.824509 0.007934 8.513196
Se -0.007934 5.672819 -5.649017
Se 2.824509 8.505262 -5.649017
Se 2.824509 5.672819 -8.481460
Se -0.007934 5.672819 0.015868
Se -0.007934 8.505262 -2.816575
Se 2.824509 8.505262 0.015868
Se 2.824509 5.672819 -2.816575
Se -0.007934 5.672819 5.680753
Se -0.007934 8.505262 2.848311
Se 2.824509 5.672819 2.848311
Se 5.656951 -8.489394 2.848311
Se 5.656951 -5.656951 -5.649017
Se 5.656951 -5.656951 0.015868
Se 5.656951 -2.824509 -2.816575
Se 8.489394 -2.824509 0.015868
Se 5.656951 -5.656951 5.680753
Se 5.656951 -2.824509 2.848311
Se 8.489394 -2.824509 5.680753
Se 8.489394 -5.656951 2.848311
Se 5.656951 -2.824509 8.513196
Se 5.656951 0.007934 -5.649017
Se 5.656951 2.840377 -8.481460
Se 8.489394 2.840377 -5.649017
Se 5.656951 0.007934 0.015868
Se 5.656951 2.840377 -2.816575
Se 8.489394 2.840377 0.015868
Se 8.489394 0.007934 -2.816575
Se 5.656951 0.007934 5.680753
Se 5.656951 2.840377 2.848311
Se 8.489394 0.007934 2.848311
Se 5.656951 5.672819 -5.649017
Se 5.656951 5.672819 0.015868
Se 5.656951 8.505262 -2.816575
Se 8.489394 5.672819 -2.816575
Se 5.656951 5.672819 5.680753
Cl -8.505262 -8.489394 0.015868
Cl -11.337704 -5.656951 0.015868
Cl -11.337704 -2.824509 -2.816575
Cl -11.337704 -2.824509 2.848311
Cl -8.505262 -2.824509 5.680753
Cl -8.505262 -5.656951 2.848311
Cl -11.337704 0.007934 -5.649017
Cl -8.505262 2.840377 -5.649017
Cl -8.505262 0.007934 -8.481460
Cl -11.337704 0.007934 0.015868
Cl -11.337704 2.840377 -2.816575
Cl -11.337704 0.007934 5.680753
Cl -11.337704 2.840377 2.848311
Cl -8.505262 0.007934 8.513196
Cl -11.337704 5.672819 0.015868
Cl -8.505262 8.505262 0.015868
Cl -8.505262 5.672819 -2.816575
Cl -5.672819 -11.321836 0.015868
Cl -2.840377 -11.321836 -2.816575
Cl -5.672819 -8.489394 2.848311
Cl -2.840377 -8.489394 5.680753
Cl -2.840377 -11.321836 2.848311
Cl -2.840377 -2.824509 -11.313902
Cl -5.672819 -2.824509 8.513196
Cl -2.840377 -2.824509 11.345638
Cl -2.840377 -5.656951 8.513196
Cl -5.672819 0.007934 -11.313902
Cl -2.840377 2.840377 -11.313902
Cl -5.672819 2.840377 -8.481460
Cl -5.672819 0.007934 11.345638
Cl -2.840377 2.840377 11.345638
Cl -2.840377 8.505262 -5.649017
Cl -2.840377 5.672819 -8.481460
Cl -5.672819 8.505262 -2.816575
Cl -5.672819 11.337704 0.015868
Cl -2.840377 11.337704 -2.816575
Cl -2.840377 11.337704 2.848311
Cl -0.007934 -11.321836 -5.649017
Cl -0.007934 -8.489394 -8.481460
Cl 2.824509 -8.489394 -5.649017
Cl -0.007934 -11.321836 0.015868
Cl 2.824509 -11.321836 -2.816575
Cl -0.007934 -11.321836 5.680753
Cl 2.824509 -11.321836 2.848311
Cl -0.007934 -8.489394 8.513196
Cl -0.007934 -5.656951 -11.313902
Cl 2.824509 -2.824509 -11.313902
Cl 2.824509 -5.656951 -8.481460
Cl -0.007934 -5.656951 11.345638
Cl 2.824509 -2.824509 11.345638
Cl -0.007934 0.007934 -11.313902
Cl 2.824509 2.840377 -11.313902
Cl -0.007934 0.007934 11.345638
Cl 2.824509 2.840377 11.345638
Cl -0.007934 5.672819 -11.313902
Cl -0.007934 8.505262 -8.481460
Cl 2.824509 8.505262 5.680753
Cl -0.007934 5.672819 11.345638
Cl -0.007934 8.505262 8.513196
Cl 2.824509 5.672819 8.513196
Cl -0.007934 11.337704 -5.649017
Cl -0.007934 11.337704 0.015868
Cl 2.824509 11.337704 -2.816575
Cl -0.007934 11.337704 5.680753
Cl 2.824509 11.337704 2.848311
Cl 5.656951 -11.321836 0.015868
Cl 5.656951 -8.489394 -2.816575
Cl 8.489394 -8.489394 0.015868
Cl 5.656951 -2.824509 -8.481460
Cl 8.489394 -2.824509 -5.649017
Cl 8.489394 -5.656951 -2.816575
Cl 5.656951 0.007934 -11.313902
Cl 8.489394 0.007934 -8.481460
Cl 8.489394 2.840377 5.680753
Cl 5.656951 0.007934 11.345638
Cl 5.656951 2.840377 8.513196
Cl 8.489394 0.007934 8.513196
Cl 8.489394 8.505262 0.015868
Cl 5.656951 8.505262 2.848311
Cl 8.489394 5.672819 2.848311
Cl 5.656951 11.337704 0.015868
Cl 11.321836 -5.656951 0.015868
Cl 11.321836 -2.824509 -2.816575
Cl 11.321836 -2.824509 2.848311
Cl 11.321836 0.007934 -5.649017
Cl 11.321836 0.007934 0.015868
Cl 11.321836 2.840377 -2.816575
Cl 11.321836 0.007934 5.680753
Cl 11.321836 2.840377 2.848311
Cl 11.321836 5.672819 0.015868
