1017
CdSe-Cd-Cd477Se414Cl126-clean
Cd -15.351356 -9.210814 -6.140542
Cd -15.351356 -12.281085 -3.070271
Cd -15.351356 -9.210814 -0.000000
Cd -15.351356 -3.070271 -12.281085
Cd -15.351356 -6.140542 -9.210814
Cd -15.351356 -3.070271 -6.140542
Cd -15.351356 -6.140542 -3.070271
Cd -15.351356 -3.070271 -0.000000
Cd -15.351356 -6.140542 3.070271
Cd -15.351356 -3.070271 6.140542
Cd -15.351356 -0.000000 -9.210814
Cd -15.351356 3.070271 -6.140542
Cd -15.351356 -0.000000 -3.070271
Cd -15.351356 3.070271 -0.000000
Cd -15.351356 -0.000000 3.070271
Cd -15.351356 3.070271 6.140542
Cd -15.351356 -0.000000 9.210814
Cd -15.351356 3.070271 12.281085
Cd -15.351356 6.140542 -3.070271
Cd -15.351356 9.210814 -0.000000
Cd -15.351356 6.140542 3.070271
Cd -15.351356 9.210814 6.140542
Cd -15.351356 6.140542 9.210814
Cd -15.351356 12.281085 3.070271
Cd -9.210814 -15.351356 -6.140542
Cd -12.281085 -15.351356 -3.070271
Cd -9.210814 -15.351356 -0.000000
Cd -9.210814 -9.210814 -12.281085
Cd -9.210814 -12.281085 -9.210814
Cd -12.281085 -9.210814 -9.210814
Cd -12.281085 -12.281085 -6.140542
Cd -9.210814 -9.210814 -6.140542
Cd -9.210814 -12.281085 -3.070271
Cd -12.281085 -9.210814 -3.070271
Cd -12.281085 -12.281085 -0.000000
Cd -9.210814 -9.210814 -0.000000
Cd -9.210814 -12.281085 3.070271
Cd -12.281085 -9.210814 3.070271
Cd -9.210814 -9.210814 6.140542
Cd -9.210814 -6.140542 -15.351356
Cd -12.281085 -3.070271 -15.351356
Cd -12.281085 -6.140542 -12.281085
Cd -9.210814 -3.070271 -12.281085
Cd -9.210814 -6.140542 -9.210814
Cd -12.281085 -3.070271 -9.210814
Cd -12.281085 -6.140542 -6.140542
Cd -9.210814 -3.070271 -6.140542
Cd -9.210814 -6.140542 -3.070271
Cd -12.281085 -3.070271 -3.070271
Cd -12.281085 -6.140542 -0.000000
Cd -9.210814 -3.070271 -0.000000
Cd -9.210814 -6.140542 3.070271
Cd -12.281085 -3.070271 3.070271
Cd -12.281085 -6.140542 6.140542
Cd -9.210814 -3.070271 6.140542
Cd -9.210814 -6.140542 9.210814
Cd -12.281085 -3.070271 9.210814
Cd -9.210814 -3.070271 12.281085
Cd -9.210814 -0.000000 -15.351356
Cd -12.281085 -0.000000 -12.281085
Cd -9.210814 3.070271 -12.281085
Cd -9.210814 -0.000000 -9.210814
Cd -12.281085 3.070271 -9.210814
Cd -12.281085 -0.000000 -6.140542
Cd -9.210814 3.070271 -6.140542
Cd -9.210814 -0.000000 -3.070271
Cd -12.281085 3.070271 -3.070271
Cd -12.281085 -0.000000 -0.000000
Cd -9.210814 3.070271 -0.000000
Cd -9.210814 -0.000000 3.070271
Cd -12.281085 3.070271 3.070271
Cd -12.281085 -0.000000 6.140542
Cd -9.210814 3.070271 6.140542
Cd -9.210814 -0.000000 9.210814
Cd -12.281085 3.070271 9.210814
Cd -12.281085 -0.000000 12.281085
Cd -9.210814 3.070271 12.281085
Cd -9.210814 -0.000000 15.351356
Cd -12.281085 3.070271 15.351356
Cd -9.210814 6.140542 -9.210814
Cd -12.281085 6.140542 -6.140542
Cd -9.210814 9.210814 -6.140542
Cd -9.210814 6.140542 -3.070271
Cd -12.281085 9.210814 -3.070271
Cd -12.281085 6.140542 -0.000000
Cd -9.210814 9.210814 -0.000000
Cd -9.210814 6.140542 3.070271
Cd -12.281085 9.210814 3.070271
Cd -12.281085 6.140542 6.140542
Cd -9.210814 9.210814 6.140542
Cd -9.210814 6.140542 9.210814
Cd -12.281085 9.210814 9.210814
Cd -12.281085 6.140542 12.281085
Cd -9.210814 9.210814 12.281085
Cd -9.210814 6.140542 15.351356
Cd -9.210814 12.281085 -3.070271
Cd -12.281085 12.281085 -0.000000
Cd -9.210814 15.351356 0.000000
Cd -9.210814 12.281085 3.070271
Cd -12.281085 15.351356 3.070271
Cd -12.281085 12.281085 6.140542
Cd -9.210814 15.351356 6.140542
Cd -9.210814 12.281085 9.210814
Cd -3.070271 -15.351356 -12.281085
Cd -6.140542 -15.351356 -9.210814
Cd -3.070271 -15.351356 -6.140542
Cd -6.140542 -15.351356 -3.070271
Cd -3.070271 -15.351356 -0.000000
Cd -6.140542 -15.351356 3.070271
Cd -3.070271 -15.351356 6.140542
Cd -3.070271 -12.281085 -15.351356
Cd -6.140542 -9.210814 -15.351356
Cd -6.140542 -12.281085 -12.281085
Cd -3.070271 -9.210814 -12.281085
Cd -3.070271 -12.281085 -9.210814
Cd -6.140542 -9.210814 -9.210814
Cd -6.140542 -12.281085 -6.140542
Cd -3.070271 -9.210814 -6.140542
Cd -3.070271 -12.281085 -3.070271
Cd -6.140542 -9.210814 -3.070271
Cd -6.140542 -12.281085 -0.000000
Cd -3.070271 -9.210814 -0.000000
Cd -3.070271 -12.281085 3.070271
Cd -6.140542 -9.210814 3.070271
Cd -6.140542 -12.281085 6.140542
Cd -3.070271 -9.210814 6.140542
Cd -3.070271 -12.281085 9.210814
Cd -6.140542 -9.210814 9.210814
Cd -3.070271 -9.210814 12.281085
Cd -3.070271 -6.140542 -15.351356
Cd -6.140542 -3.070271 -15.351356
Cd -6.140542 -6.140542 -12.281085
Cd -3.070271 -3.070271 -12.281085
Cd -3.070271 -6.140542 -9.210814
Cd -6.140542 -3.070271 -9.210814
Cd -6.140542 -6.140542 -6.140542
Cd -3.070271 -3.070271 -6.140542
Cd -3.070271 -6.140542 -3.070271
Cd -6.140542 -3.070271 -3.070271
Cd -6.140542 -6.140542 -0.000000
Cd -3.070271 -3.070271 -0.000000
Cd -3.070271 -6.140542 3.070271
Cd -6.140542 -3.070271 3.070271
Cd -6.140542 -6.140542 6.140542
Cd -3.070271 -3.070271 6.140542
Cd -3.070271 -6.140542 9.210814
Cd -6.140542 -3.070271 9.210814
Cd -6.140542 -6.140542 12.281085
Cd -3.070271 -3.070271 12.281085
Cd -3.070271 -6.140542 15.351356
Cd -6.140542 -3.070271 15.351356
Cd -3.070271 -0.000000 -15.351356
Cd -6.140542 3.070271 -15.351356
Cd -6.140542 -0.000000 -12.281085
Cd -3.070271 3.070271 -12.281085
Cd -3.070271 -0.000000 -9.210814
Cd -6.140542 3.070271 -9.210814
Cd -6.140542 -0.000000 -6.140542
Cd -3.070271 3.070271 -6.140542
Cd -3.070271 -0.000000 -3.070271
Cd -6.140542 3.070271 -3.070271
Cd -6.140542 -0.000000 -0.000000
Cd -3.070271 3.070271 -0.000000
Cd -3.070271 -0.000000 3.070271
Cd -6.140542 3.070271 3.070271
Cd -6.140542 -0.000000 6.140542
Cd -3.070271 3.070271 6.140542
Cd -3.070271 -0.000000 9.210814
Cd -6.140542 3.070271 9.210814
Cd -6.140542 -0.000000 12.281085
Cd -3.070271 3.070271 12.281085
Cd -3.070271 -0.000000 15.351356
Cd -6.140542 3.070271 15.351356
Cd -3.070271 6.140542 -15.351356
Cd -6.140542 6.140542 -12.281085
Cd -3.070271 9.210814 -12.281085
Cd -3.070271 6.140542 -9.210814
Cd -6.140542 9.210814 -9.210814
Cd -6.140542 6.140542 -6.140542
Cd -3.070271 9.210814 -6.140542
Cd -3.070271 6.140542 -3.070271
Cd -6.140542 9.210814 -3.070271
Cd -6.140542 6.140542 -0.000000
Cd -3.070271 9.210814 0.000000
Cd -3.070271 6.140542 3.070271
Cd -6.140542 9.210814 3.070271
Cd -6.140542 6.140542 6.140542
Cd -3.070271 9.210814 6.140542
Cd -3.070271 6.140542 9.210814
Cd -6.140542 9.210814 9.210814
Cd -6.140542 6.140542 12.281085
Cd -3.070271 9.210814 12.281085
Cd -3.070271 6.140542 15.351356
Cd -6.140542 9.210814 15.351356
Cd -3.070271 12.281085 -9.210814
Cd -6.140542 12.281085 -6.140542
Cd -3.070271 15.351356 -6.140542
Cd -3.070271 12.281085 -3.070271
Cd -6.140542 15.351356 -3.070271
Cd -6.140542 12.281085 0.000000
Cd -3.070271 15.351356 0.000000
Cd -3.070271 12.281085 3.070271
Cd -6.140542 15.351356 3.070271
Cd -6.140542 12.281085 6.140542
Cd -3.070271 15.351356 6.140542
Cd -3.070271 12.281085 9.210814
Cd -6.140542 15.351356 9.210814
Cd -6.140542 12.281085 12.281085
Cd -3.070271 15.351356 12.281085
Cd -3.070271 12.281085 15.351356
Cd 0.000000 -15.351356 -9.210814
Cd 3.070271 -15.351356 -6.140542
Cd 0.000000 -15.351356 -3.070271
Cd 3.070271 -15.351356 -0.000000
Cd 0.000000 -15.351356 3.070271
Cd 3.070271 -15.351356 6.140542
Cd 0.000000 -15.351356 9.210814
Cd 3.070271 -15.351356 12.281085
Cd -0.000000 -9.210814 -15.351356
Cd 0.000000 -12.281085 -12.281085
Cd 3.070271 -9.210814 -12.281085
Cd 3.070271 -12.281085 -9.210814
Cd -0.000000 -9.210814 -9.210814
Cd 0.000000 -12.281085 -6.140542
Cd 3.070271 -9.210814 -6.140542
Cd 3.070271 -12.281085 -3.070271
Cd -0.000000 -9.210814 -3.070271
Cd 0.000000 -12.281085 -0.000000
Cd 3.070271 -9.210814 -0.000000
Cd 3.070271 -12.281085 3.070271
Cd -0.000000 -9.210814 3.070271
Cd 0.000000 -12.281085 6.140542
Cd 3.070271 -9.210814 6.140542
Cd 3.070271 -12.281085 9.210814
Cd -0.000000 -9.210814 9.210814
Cd 0.000000 -12.281085 12.281085
Cd 3.070271 -9.210814 12.281085
Cd 3.070271 -12.281085 15.351356
Cd -0.000000 -9.210814 15.351356
Cd 3.070271 -6.140542 -15.351356
Cd -0.000000 -3.070271 -15.351356
Cd -0.000000 -6.140542 -12.281085
Cd 3.070271 -3.070271 -12.281085
Cd 3.070271 -6.140542 -9.210814
Cd -0.000000 -3.070271 -9.210814
Cd -0.000000 -6.140542 -6.140542
Cd 3.070271 -3.070271 -6.140542
Cd 3.070271 -6.140542 -3.070271
Cd -0.000000 -3.070271 -3.070271
Cd -0.000000 -6.140542 -0.000000
Cd 3.070271 -3.070271 -0.000000
Cd 3.070271 -6.140542 3.070271
Cd -0.000000 -3.070271 3.070271
Cd -0.000000 -6.140542 6.140542
Cd 3.070271 -3.070271 6.140542
Cd 3.070271 -6.140542 9.210814
Cd -0.000000 -3.070271 9.210814
Cd -0.000000 -6.140542 12.281085
Cd 3.070271 -3.070271 12.281085
Cd 3.070271 -6.140542 15.351356
Cd -0.000000 -3.070271 15.351356
Cd 3.070271 -0.000000 -15.351356
Cd -0.000000 3.070271 -15.351356
Cd -0.000000 -0.000000 -12.281085
Cd 3.070271 3.070271 -12.281085
Cd 3.070271 -0.000000 -9.210814
Cd -0.000000 3.070271 -9.210814
Cd -0.000000 -0.000000 -6.140542
Cd 3.070271 3.070271 -6.140542
Cd 3.070271 -0.000000 -3.070271
Cd -0.000000 3.070271 -3.070271
Cd -0.000000 -0.000000 -0.000000
Cd 3.070271 3.070271 0.000000
Cd 3.070271 -0.000000 3.070271
Cd -0.000000 3.070271 3.070271
Cd -0.000000 -0.000000 6.140542
Cd 3.070271 3.070271 6.140542
Cd 3.070271 -0.000000 9.210814
Cd -0.000000 3.070271 9.210814
Cd -0.000000 -0.000000 12.281085
Cd 3.070271 3.070271 12.281085
Cd 3.070271 -0.000000 15.351356
Cd -0.000000 3.070271 15.351356
Cd 3.070271 6.140542 -15.351356
Cd -0.000000 9.210814 -15.351356
Cd -0.000000 6.140542 -12.281085
Cd 3.070271 9.210814 -12.281085
Cd 3.070271 6.140542 -9.210814
Cd -0.000000 9.210814 -9.210814
Cd -0.000000 6.140542 -6.140542
Cd 3.070271 9.210814 -6.140542
Cd 3.070271 6.140542 -3.070271
Cd -0.000000 9.210814 -3.070271
Cd -0.000000 6.140542 0.000000
Cd 3.070271 9.210814 0.000000
Cd 3.070271 6.140542 3.070271
Cd -0.000000 9.210814 3.070271
Cd -0.000000 6.140542 6.140542
Cd 3.070271 9.210814 6.140542
Cd 3.070271 6.140542 9.210814
Cd -0.000000 9.210814 9.210814
Cd -0.000000 6.140542 12.281085
Cd 3.070271 9.210814 12.281085
Cd 3.070271 6.140542 15.351356
Cd -0.000000 9.210814 15.351356
Cd 3.070271 12.281085 -15.351356
Cd -0.000000 12.281085 -12.281085
Cd 3.070271 15.351356 -12.281085
Cd 3.070271 12.281085 -9.210814
Cd -0.000000 15.351356 -9.210814
Cd -0.000000 12.281085 -6.140542
Cd 3.070271 15.351356 -6.140542
Cd 3.070271 12.281085 -3.070271
Cd -0.000000 15.351356 -3.070271
Cd -0.000000 12.281085 0.000000
Cd 3.070271 15.351356 0.000000
Cd 3.070271 12.281085 3.070271
Cd -0.000000 15.351356 3.070271
Cd -0.000000 12.281085 6.140542
Cd 3.070271 15.351356 6.140542
Cd 3.070271 12.281085 9.210814
Cd -0.000000 15.351356 9.210814
Cd -0.000000 12.281085 12.281085
Cd 6.140542 -15.351356 -3.070271
Cd 9.210814 -15.351356 -0.000000
Cd 6.140542 -15.351356 3.070271
Cd 9.210814 -15.351356 6.140542
Cd 6.140542 -15.351356 9.210814
Cd 6.140542 -9.210814 -9.210814
Cd 6.140542 -12.281085 -6.140542
Cd 9.210814 -9.210814 -6.140542
Cd 9.210814 -12.281085 -3.070271
Cd 6.140542 -9.210814 -3.070271
Cd 6.140542 -12.281085 -0.000000
Cd 9.210814 -9.210814 -0.000000
Cd 9.210814 -12.281085 3.070271
Cd 6.140542 -9.210814 3.070271
Cd 6.140542 -12.281085 6.140542
Cd 9.210814 -9.210814 6.140542
Cd 9.210814 -12.281085 9.210814
Cd 6.140542 -9.210814 9.210814
Cd 6.140542 -12.281085 12.281085
Cd 9.210814 -9.210814 12.281085
Cd 6.140542 -9.210814 15.351356
Cd 6.140542 -3.070271 -15.351356
Cd 6.140542 -6.140542 -12.281085
Cd 9.210814 -3.070271 -12.281085
Cd 9.210814 -6.140542 -9.210814
Cd 6.140542 -3.070271 -9.210814
Cd 6.140542 -6.140542 -6.140542
Cd 9.210814 -3.070271 -6.140542
Cd 9.210814 -6.140542 -3.070271
Cd 6.140542 -3.070271 -3.070271
Cd 6.140542 -6.140542 -0.000000
Cd 9.210814 -3.070271 0.000000
Cd 9.210814 -6.140542 3.070271
Cd 6.140542 -3.070271 3.070271
Cd 6.140542 -6.140542 6.140542
Cd 9.210814 -3.070271 6.140542
Cd 9.210814 -6.140542 9.210814
Cd 6.140542 -3.070271 9.210814
Cd 6.140542 -6.140542 12.281085
Cd 9.210814 -3.070271 12.281085
Cd 9.210814 -6.140542 15.351356
Cd 6.140542 -3.070271 15.351356
Cd 9.210814 -0.000000 -15.351356
Cd 6.140542 3.070271 -15.351356
Cd 6.140542 -0.000000 -12.281085
Cd 9.210814 3.070271 -12.281085
Cd 9.210814 -0.000000 -9.210814
Cd 6.140542 3.070271 -9.210814
Cd 6.140542 -0.000000 -6.140542
Cd 9.210814 3.070271 -6.140542
Cd 9.210814 -0.000000 -3.070271
Cd 6.140542 3.070271 -3.070271
Cd 6.140542 -0.000000 0.000000
Cd 9.210814 3.070271 0.000000
Cd 9.210814 -0.000000 3.070271
Cd 6.140542 3.070271 3.070271
Cd 6.140542 -0.000000 6.140542
Cd 9.210814 3.070271 6.140542
Cd 9.210814 -0.000000 9.210814
Cd 6.140542 3.070271 9.210814
Cd 6.140542 -0.000000 12.281085
Cd 9.210814 3.070271 12.281085
Cd 9.210814 -0.000000 15.351356
Cd 6.140542 3.070271 15.351356
Cd 9.210814 6.140542 -15.351356
Cd 6.140542 9.210814 -15.351356
Cd 6.140542 6.140542 -12.281085
Cd 9.210814 9.210814 -12.281085
Cd 9.210814 6.140542 -9.210814
Cd 6.140542 9.210814 -9.210814
Cd 6.140542 6.140542 -6.140542
Cd 9.210814 9.210814 -6.140542
Cd 9.210814 6.140542 -3.070271
Cd 6.140542 9.210814 -3.070271
Cd 6.140542 6.140542 0.000000
Cd 9.210814 9.210814 0.000000
Cd 9.210814 6.140542 3.070271
Cd 6.140542 9.210814 3.070271
Cd 6.140542 6.140542 6.140542
Cd 9.210814 9.210814 6.140542
Cd 9.210814 6.140542 9.210814
Cd 6.140542 9.210814 9.210814
Cd 6.140542 6.140542 12.281085
Cd 6.140542 12.281085 -12.281085
Cd 9.210814 12.281085 -9.210814
Cd 6.140542 15.351356 -9.210814
Cd 6.140542 12.281085 -6.140542
Cd 9.210814 15.351356 -6.140542
Cd 9.210814 12.281085 -3.070271
Cd 6.140542 15.351356 -3.070271
Cd 6.140542 12.281085 0.000000
Cd 9.210814 15.351356 0.000000
Cd 9.210814 12.281085 3.070271
Cd 6.140542 15.351356 3.070271
Cd 6.140542 12.281085 6.140542
Cd 12.281085 -15.351356 3.070271
Cd 12.281085 -9.210814 -3.070271
Cd 12.281085 -12.281085 -0.000000
Cd 15.351356 -9.210814 0.000000
Cd 15.351356 -12.281085 3.070271
Cd 12.281085 -9.210814 3.070271
Cd 12.281085 -12.281085 6.140542
Cd 15.351356 -9.210814 6.140542
Cd 12.281085 -9.210814 9.210814
Cd 12.281085 -3.070271 -9.210814
Cd 12.281085 -6.140542 -6.140542
Cd 15.351356 -3.070271 -6.140542
Cd 15.351356 -6.140542 -3.070271
Cd 12.281085 -3.070271 -3.070271
Cd 12.281085 -6.140542 0.000000
Cd 15.351356 -3.070271 0.000000
Cd 15.351356 -6.140542 3.070271
Cd 12.281085 -3.070271 3.070271
Cd 12.281085 -6.140542 6.140542
Cd 15.351356 -3.070271 6.140542
Cd 15.351356 -6.140542 9.210814
Cd 12.281085 -3.070271 9.210814
Cd 12.281085 -6.140542 12.281085
Cd 15.351356 -3.070271 12.281085
Cd 12.281085 -3.070271 15.351356
Cd 12.281085 3.070271 -15.351356
Cd 12.281085 -0.000000 -12.281085
Cd 15.351356 3.070271 -12.281085
Cd 15.351356 -0.000000 -9.210814
Cd 12.281085 3.070271 -9.210814
Cd 12.281085 -0.000000 -6.140542
Cd 15.351356 3.070271 -6.140542
Cd 15.351356 -0.000000 -3.070271
Cd 12.281085 3.070271 -3.070271
Cd 12.281085 -0.000000 0.000000
Cd 15.351356 3.070271 0.000000
Cd 15.351356 -0.000000 3.070271
Cd 12.281085 3.070271 3.070271
Cd 12.281085 -0.000000 6.140542
Cd 15.351356 3.070271 6.140542
Cd 15.351356 -0.000000 9.210814
Cd 12.281085 3.070271 9.210814
Cd 12.281085 -0.000000 12.281085
Cd 12.281085 6.140542 -12.281085
Cd 15.351356 6.140542 -9.210814
Cd 12.281085 9.210814 -9.210814
Cd 12.281085 6.140542 -6.140542
Cd 15.351356 9.210814 -6.140542
Cd 15.351356 6.140542 -3.070271
Cd 12.281085 9.210814 -3.070271
Cd 12.281085 6.140542 0.000000
Cd 15.351356 9.210814 0.000000
Cd 15.351356 6.140542 3.070271
Cd 12.281085 9.210814 3.070271
Cd 12.281085 6.140542 6.140542
Cd 12.281085 12.281085 -6.140542
Cd 15.351356 12.281085 -3.070271
Cd 12.281085 15.351356 -3.070271
Cd 12.281085 12.281085 0.000000
Se -13.816220 -13.816220 -1.535136
Se -13.816220 -7.675678 -7.675678
Se -13.816220 -7.675678 -1.535136
Se -13.816220 -10.745949 -4.605407
Se -13.816220 -7.675678 4.605407
Se -13.816220 -10.745949 1.535136
Se -13.816220 -1.535136 -13.816220
Se -13.816220 -1.535136 -7.675678
Se -13.816220 -4.605407 -10.745949
Se -13.816220 -1.535136 -1.535136
Se -13.816220 -4.605407 -4.605407
Se -13.816220 -1.535136 4.605407
Se -13.816220 -4.605407 1.535136
Se -13.816220 -1.535136 10.745949
Se -13.816220 -4.605407 7.675678
Se -13.816220 4.605407 -7.675678
Se -13.816220 1.535136 -10.745949
Se -13.816220 4.605407 -1.535136
Se -13.816220 1.535136 -4.605407
Se -13.816220 4.605407 4.605407
Se -13.816220 1.535136 1.535136
Se -13.816220 4.605407 10.745949
Se -13.816220 1.535136 7.675678
Se -13.816220 10.745949 -1.535136
Se -13.816220 7.675678 -4.605407
Se -13.816220 10.745949 4.605407
Se -13.816220 7.675678 1.535136
Se -13.816220 7.675678 7.675678
Se -13.816220 13.816220 1.535136
Se -7.675678 -13.816220 -7.675678
Se -10.745949 -13.816220 -4.605407
Se -7.675678 -13.816220 -1.535136
Se -10.745949 -13.816220 1.535136
Se -7.675678 -13.816220 4.605407
Se -7.675678 -7.675678 -13.816220
Se -10.745949 -10.745949 -7.675678
Se -10.745949 -7.675678 -10.745949
Se -7.675678 -7.675678 -7.675678
Se -7.675678 -10.745949 -10.745949
Se -10.745949 -10.745949 -1.535136
Se -10.745949 -7.675678 -4.605407
Se -7.675678 -7.675678 -1.535136
Se -7.675678 -10.745949 -4.605407
Se -10.745949 -10.745949 4.605407
Se -10.745949 -7.675678 1.535136
Se -7.675678 -7.675678 4.605407
Se -7.675678 -10.745949 1.535136
Se -10.745949 -7.675678 7.675678
Se -7.675678 -7.675678 10.745949
Se -7.675678 -10.745949 7.675678
Se -10.745949 -4.605407 -13.816220
Se -7.675678 -1.535136 -13.816220
Se -10.745949 -4.605407 -7.675678
Se -10.745949 -1.535136 -10.745949
Se -7.675678 -1.535136 -7.675678
Se -7.675678 -4.605407 -10.745949
Se -10.745949 -4.605407 -1.535136
Se -10.745949 -1.535136 -4.605407
Se -7.675678 -1.535136 -1.535136
Se -7.675678 -4.605407 -4.605407
Se -10.745949 -4.605407 4.605407
Se -10.745949 -1.535136 1.535136
Se -7.675678 -1.535136 4.605407
Se -7.675678 -4.605407 1.535136
Se -10.745949 -4.605407 10.745949
Se -10.745949 -1.535136 7.675678
Se -7.675678 -1.535136 10.745949
Se -7.675678 -4.605407 7.675678
Se -10.745949 -1.535136 13.816220
Se -7.675678 -4.605407 13.816220
Se -10.745949 1.535136 -13.816220
Se -7.675678 4.605407 -13.816220
Se -10.745949 1.535136 -7.675678
Se -10.745949 4.605407 -10.745949
Se -7.675678 4.605407 -7.675678
Se -7.675678 1.535136 -10.745949
Se -10.745949 1.535136 -1.535136
Se -10.745949 4.605407 -4.605407
Se -7.675678 4.605407 -1.535136
Se -7.675678 1.535136 -4.605407
Se -10.745949 1.535136 4.605407
Se -10.745949 4.605407 1.535136
Se -7.675678 4.605407 4.605407
Se -7.675678 1.535136 1.535136
Se -10.745949 1.535136 10.745949
Se -10.745949 4.605407 7.675678
Se -7.675678 4.605407 10.745949
Se -7.675678 1.535136 7.675678
Se -10.745949 4.605407 13.816220
Se -7.675678 1.535136 13.816220
Se -10.745949 7.675678 -7.675678
Se -7.675678 10.745949 -7.675678
Se -7.675678 7.675678 -10.745949
Se -10.745949 7.675678 -1.535136
Se -10.745949 10.745949 -4.605407
Se -7.675678 10.745949 -1.535136
Se -7.675678 7.675678 -4.605407
Se -10.745949 7.675678 4.605407
Se -10.745949 10.745949 1.535136
Se -7.675678 10.745949 4.605407
Se -7.675678 7.675678 1.535136
Se -10.745949 7.675678 10.745949
Se -10.745949 10.745949 7.675678
Se -7.675678 10.745949 10.745949
Se -7.675678 7.675678 7.675678
Se -7.675678 7.675678 13.816220
Se -10.745949 13.816220 -1.535136
Se -7.675678 13.816220 -4.605407
Se -10.745949 13.816220 4.605407
Se -7.675678 13.816220 1.535136
Se -7.675678 13.816220 7.675678
Se -4.605407 -13.816220 -10.745949
Se -1.535136 -13.816220 -7.675678
Se -4.605407 -13.816220 -4.605407
Se -1.535136 -13.816220 -1.535136
Se -4.605407 -13.816220 1.535136
Se -1.535136 -13.816220 4.605407
Se -4.605407 -13.816220 7.675678
Se -1.535136 -13.816220 10.745949
Se -4.605407 -10.745949 -13.816220
Se -1.535136 -7.675678 -13.816220
Se -4.605407 -10.745949 -7.675678
Se -4.605407 -7.675678 -10.745949
Se -1.535136 -7.675678 -7.675678
Se -1.535136 -10.745949 -10.745949
Se -4.605407 -10.745949 -1.535136
Se -4.605407 -7.675678 -4.605407
Se -1.535136 -7.675678 -1.535136
Se -1.535136 -10.745949 -4.605407
Se -4.605407 -10.745949 4.605407
Se -4.605407 -7.675678 1.535136
Se -1.535136 -7.675678 4.605407
Se -1.535136 -10.745949 1.535136
Se -4.605407 -10.745949 10.745949
Se -4.605407 -7.675678 7.675678
Se -1.535136 -7.675678 10.745949
Se -1.535136 -10.745949 7.675678
Se -4.605407 -7.675678 13.816220
Se -1.535136 -10.745949 13.816220
Se -4.605407 -4.605407 -13.816220
Se -1.535136 -1.535136 -13.816220
Se -4.605407 -4.605407 -7.675678
Se -4.605407 -1.535136 -10.745949
Se -1.535136 -1.535136 -7.675678
Se -1.535136 -4.605407 -10.745949
Se -4.605407 -4.605407 -1.535136
Se -4.605407 -1.535136 -4.605407
Se -1.535136 -1.535136 -1.535136
Se -1.535136 -4.605407 -4.605407
Se -4.605407 -4.605407 4.605407
Se -4.605407 -1.535136 1.535136
Se -1.535136 -1.535136 4.605407
Se -1.535136 -4.605407 1.535136
Se -4.605407 -4.605407 10.745949
Se -4.605407 -1.535136 7.675678
Se -1.535136 -1.535136 10.745949
Se -1.535136 -4.605407 7.675678
Se -4.605407 -1.535136 13.816220
Se -1.535136 -4.605407 13.816220
Se -4.605407 1.535136 -13.816220
Se -1.535136 4.605407 -13.816220
Se -4.605407 1.535136 -7.675678
Se -4.605407 4.605407 -10.745949
Se -1.535136 4.605407 -7.675678
Se -1.535136 1.535136 -10.745949
Se -4.605407 1.535136 -1.535136
Se -4.605407 4.605407 -4.605407
Se -1.535136 4.605407 -1.535136
Se -1.535136 1.535136 -4.605407
Se -4.605407 1.535136 4.605407
Se -4.605407 4.605407 1.535136
Se -1.535136 4.605407 4.605407
Se -1.535136 1.535136 1.535136
Se -4.605407 1.535136 10.745949
Se -4.605407 4.605407 7.675678
Se -1.535136 4.605407 10.745949
Se -1.535136 1.535136 7.675678
Se -4.605407 4.605407 13.816220
Se -1.535136 1.535136 13.816220
Se -4.605407 7.675678 -13.816220
Se -1.535136 10.745949 -13.816220
Se -4.605407 7.675678 -7.675678
Se -4.605407 10.745949 -10.745949
Se -1.535136 10.745949 -7.675678
Se -1.535136 7.675678 -10.745949
Se -4.605407 7.675678 -1.535136
Se -4.605407 10.745949 -4.605407
Se -1.535136 10.745949 -1.535136
Se -1.535136 7.675678 -4.605407
Se -4.605407 7.675678 4.605407
Se -4.605407 10.745949 1.535136
Se -1.535136 10.745949 4.605407
Se -1.535136 7.675678 1.535136
Se -4.605407 7.675678 10.745949
Se -4.605407 10.745949 7.675678
Se -1.535136 10.745949 10.745949
Se -1.535136 7.675678 7.675678
Se -4.605407 10.745949 13.816220
Se -1.535136 7.675678 13.816220
Se -4.605407 13.816220 -7.675678
Se -1.535136 13.816220 -10.745949
Se -4.605407 13.816220 -1.535136
Se -1.535136 13.816220 -4.605407
Se -4.605407 13.816220 4.605407
Se -1.535136 13.816220 1.535136
Se -4.605407 13.816220 10.745949
Se -1.535136 13.816220 7.675678
Se 1.535136 -13.816220 -10.745949
Se 4.605407 -13.816220 -7.675678
Se 1.535136 -13.816220 -4.605407
Se 4.605407 -13.816220 -1.535136
Se 1.535136 -13.816220 1.535136
Se 4.605407 -13.816220 4.605407
Se 1.535136 -13.816220 7.675678
Se 4.605407 -13.816220 10.745949
Se 1.535136 -10.745949 -13.816220
Se 4.605407 -7.675678 -13.816220
Se 1.535136 -10.745949 -7.675678
Se 1.535136 -7.675678 -10.745949
Se 4.605407 -7.675678 -7.675678
Se 4.605407 -10.745949 -10.745949
Se 1.535136 -10.745949 -1.535136
Se 1.535136 -7.675678 -4.605407
Se 4.605407 -7.675678 -1.535136
Se 4.605407 -10.745949 -4.605407
Se 1.535136 -10.745949 4.605407
Se 1.535136 -7.675678 1.535136
Se 4.605407 -7.675678 4.605407
Se 4.605407 -10.745949 1.535136
Se 1.535136 -10.745949 10.745949
Se 1.535136 -7.675678 7.675678
Se 4.605407 -7.675678 10.745949
Se 4.605407 -10.745949 7.675678
Se 1.535136 -7.675678 13.816220
Se 4.605407 -10.745949 13.816220
Se 1.535136 -4.605407 -13.816220
Se 4.605407 -1.535136 -13.816220
Se 1.535136 -4.605407 -7.675678
Se 1.535136 -1.535136 -10.745949
Se 4.605407 -1.535136 -7.675678
Se 4.605407 -4.605407 -10.745949
Se 1.535136 -4.605407 -1.535136
Se 1.535136 -1.535136 -4.605407
Se 4.605407 -1.535136 -1.535136
Se 4.605407 -4.605407 -4.605407
Se 1.535136 -4.605407 4.605407
Se 1.535136 -1.535136 1.535136
Se 4.605407 -1.535136 4.605407
Se 4.605407 -4.605407 1.535136
Se 1.535136 -4.605407 10.745949
Se 1.535136 -1.535136 7.675678
Se 4.605407 -1.535136 10.745949
Se 4.605407 -4.605407 7.675678
Se 1.535136 -1.535136 13.816220
Se 4.605407 -4.605407 13.816220
Se 1.535136 1.535136 -13.816220
Se 4.605407 4.605407 -13.816220
Se 1.535136 1.535136 -7.675678
Se 1.535136 4.605407 -10.745949
Se 4.605407 4.605407 -7.675678
Se 4.605407 1.535136 -10.745949
Se 1.535136 1.535136 -1.535136
Se 1.535136 4.605407 -4.605407
Se 4.605407 4.605407 -1.535136
Se 4.605407 1.535136 -4.605407
Se 1.535136 1.535136 4.605407
Se 1.535136 4.605407 1.535136
Se 4.605407 4.605407 4.605407
Se 4.605407 1.535136 1.535136
Se 1.535136 1.535136 10.745949
Se 1.535136 4.605407 7.675678
Se 4.605407 4.605407 10.745949
Se 4.605407 1.535136 7.675678
Se 1.535136 4.605407 13.816220
Se 4.605407 1.535136 13.816220
Se 1.535136 7.675678 -13.816220
Se 4.605407 10.745949 -13.816220
Se 1.535136 7.675678 -7.675678
Se 1.535136 10.745949 -10.745949
Se 4.605407 10.745949 -7.675678
Se 4.605407 7.675678 -10.745949
Se 1.535136 7.675678 -1.535136
Se 1.535136 10.745949 -4.605407
Se 4.605407 10.745949 -1.535136
Se 4.605407 7.675678 -4.605407
Se 1.535136 7.675678 4.605407
Se 1.535136 10.745949 1.535136
Se 4.605407 10.745949 4.605407
Se 4.605407 7.675678 1.535136
Se 1.535136 7.675678 10.745949
Se 1.535136 10.745949 7.675678
Se 4.605407 10.745949 10.745949
Se 4.605407 7.675678 7.675678
Se 1.535136 10.745949 13.816220
Se 4.605407 7.675678 13.816220
Se 1.535136 13.816220 -7.675678
Se 4.605407 13.816220 -10.745949
Se 1.535136 13.816220 -1.535136
Se 4.605407 13.816220 -4.605407
Se 1.535136 13.816220 4.605407
Se 4.605407 13.816220 1.535136
Se 1.535136 13.816220 10.745949
Se 4.605407 13.816220 7.675678
Se 7.675678 -13.816220 -4.605407
Se 10.745949 -13.816220 -1.535136
Se 7.675678 -13.816220 1.535136
Se 10.745949 -13.816220 4.605407
Se 7.675678 -13.816220 7.675678
Se 7.675678 -10.745949 -7.675678
Se 7.675678 -7.675678 -10.745949
Se 10.745949 -7.675678 -7.675678
Se 7.675678 -10.745949 -1.535136
Se 7.675678 -7.675678 -4.605407
Se 10.745949 -7.675678 -1.535136
Se 10.745949 -10.745949 -4.605407
Se 7.675678 -10.745949 4.605407
Se 7.675678 -7.675678 1.535136
Se 10.745949 -7.675678 4.605407
Se 10.745949 -10.745949 1.535136
Se 7.675678 -10.745949 10.745949
Se 7.675678 -7.675678 7.675678
Se 10.745949 -7.675678 10.745949
Se 10.745949 -10.745949 7.675678
Se 7.675678 -7.675678 13.816220
Se 7.675678 -4.605407 -13.816220
Se 10.745949 -1.535136 -13.816220
Se 7.675678 -4.605407 -7.675678
Se 7.675678 -1.535136 -10.745949
Se 10.745949 -1.535136 -7.675678
Se 10.745949 -4.605407 -10.745949
Se 7.675678 -4.605407 -1.535136
Se 7.675678 -1.535136 -4.605407
Se 10.745949 -1.535136 -1.535136
Se 10.745949 -4.605407 -4.605407
Se 7.675678 -4.605407 4.605407
Se 7.675678 -1.535136 1.535136
Se 10.745949 -1.535136 4.605407
Se 10.745949 -4.605407 1.535136
Se 7.675678 -4.605407 10.745949
Se 7.675678 -1.535136 7.675678
Se 10.745949 -1.535136 10.745949
Se 10.745949 -4.605407 7.675678
Se 7.675678 -1.535136 13.816220
Se 10.745949 -4.605407 13.816220
Se 7.675678 1.535136 -13.816220
Se 10.745949 4.605407 -13.816220
Se 7.675678 1.535136 -7.675678
Se 7.675678 4.605407 -10.745949
Se 10.745949 4.605407 -7.675678
Se 10.745949 1.535136 -10.745949
Se 7.675678 1.535136 -1.535136
Se 7.675678 4.605407 -4.605407
Se 10.745949 4.605407 -1.535136
Se 10.745949 1.535136 -4.605407
Se 7.675678 1.535136 4.605407
Se 7.675678 4.605407 1.535136
Se 10.745949 4.605407 4.605407
Se 10.745949 1.535136 1.535136
Se 7.675678 1.535136 10.745949
Se 7.675678 4.605407 7.675678
Se 10.745949 4.605407 10.745949
Se 10.745949 1.535136 7.675678
Se 7.675678 4.605407 13.816220
Se 10.745949 1.535136 13.816220
Se 7.675678 7.675678 -13.816220
Se 7.675678 7.675678 -7.675678
Se 7.675678 10.745949 -10.745949
Se 10.745949 10.745949 -7.675678
Se 10.745949 7.675678 -10.745949
Se 7.675678 7.675678 -1.535136
Se 7.675678 10.745949 -4.605407
Se 10.745949 10.745949 -1.535136
Se 10.745949 7.675678 -4.605407
Se 7.675678 7.675678 4.605407
Se 7.675678 10.745949 1.535136
Se 10.745949 10.745949 4.605407
Se 10.745949 7.675678 1.535136
Se 7.675678 7.675678 10.745949
Se 7.675678 10.745949 7.675678
Se 10.745949 7.675678 7.675678
Se 7.675678 13.816220 -7.675678
Se 7.675678 13.816220 -1.535136
Se 10.745949 13.816220 -4.605407
Se 7.675678 13.816220 4.605407
Se 10.745949 13.816220 1.535136
Se 13.816220 -13.816220 1.535136
Se 13.816220 -10.745949 -1.535136
Se 13.816220 -7.675678 -4.605407
Se 13.816220 -10.745949 4.605407
Se 13.816220 -7.675678 1.535136
Se 13.816220 -7.675678 7.675678
Se 13.816220 -4.605407 -7.675678
Se 13.816220 -1.535136 -10.745949
Se 13.816220 -4.605407 -1.535136
Se 13.816220 -1.535136 -4.605407
Se 13.816220 -4.605407 4.605407
Se 13.816220 -1.535136 1.535136
Se 13.816220 -4.605407 10.745949
Se 13.816220 -1.535136 7.675678
Se 13.816220 1.535136 -13.816220
Se 13.816220 1.535136 -7.675678
Se 13.816220 4.605407 -10.745949
Se 13.816220 1.535136 -1.535136
Se 13.816220 4.605407 -4.605407
Se 13.816220 1.535136 4.605407
Se 13.816220 4.605407 1.535136
Se 13.816220 1.535136 10.745949
Se 13.816220 4.605407 7.675678
Se 13.816220 7.675678 -7.675678
Se 13.816220 7.675678 -1.535136
Se 13.816220 10.745949 -4.605407
Se 13.816220 7.675678 4.605407
Se 13.816220 10.745949 1.535136
Se 13.816220 13.816220 -1.535136
Cl -16.886492 -10.745949 -1.535136
Cl -16.886492 -7.675678 -4.605407
Cl -16.886492 -7.675678 1.535136
Cl -16.886492 -4.605407 -7.675678
Cl -16.886492 -1.535136 -10.745949
Cl -16.886492 -4.605407 -1.535136
Cl -16.886492 -1.535136 -4.605407
Cl -16.886492 -4.605407 4.605407
Cl -16.886492 -1.535136 1.535136
Cl -16.886492 -1.535136 7.675678
Cl -16.886492 1.535136 -7.675678
Cl -16.886492 1.535136 -1.535136
Cl -16.886492 4.605407 -4.605407
Cl -16.886492 1.535136 4.605407
Cl -16.886492 4.605407 1.535136
Cl -16.886492 1.535136 10.745949
Cl -16.886492 4.605407 7.675678
Cl -13.816220 1.535136 13.816220
Cl -16.886492 7.675678 -1.535136
Cl -16.886492 7.675678 4.605407
Cl -16.886492 10.745949 1.535136
Cl -10.745949 -16.886492 -1.535136
Cl -7.675678 -16.886492 -4.605407
Cl -7.675678 -16.886492 1.535136
Cl -10.745949 -1.535136 -16.886492
Cl -7.675678 -4.605407 -16.886492
Cl -7.675678 -1.535136 16.886492
Cl -7.675678 1.535136 -16.886492
Cl -10.745949 1.535136 16.886492
Cl -7.675678 4.605407 16.886492
Cl -7.675678 16.886492 -1.535136
Cl -10.745949 16.886492 1.535136
Cl -7.675678 16.886492 4.605407
Cl -1.535136 -13.816220 -13.816220
Cl -4.605407 -16.886492 -7.675678
Cl -1.535136 -16.886492 -10.745949
Cl -4.605407 -16.886492 -1.535136
Cl -1.535136 -16.886492 -4.605407
Cl -4.605407 -16.886492 4.605407
Cl -1.535136 -16.886492 1.535136
Cl -1.535136 -16.886492 7.675678
Cl -4.605407 -7.675678 -16.886492
Cl -1.535136 -10.745949 -16.886492
Cl -1.535136 -7.675678 16.886492
Cl -4.605407 -1.535136 -16.886492
Cl -1.535136 -4.605407 -16.886492
Cl -4.605407 -4.605407 16.886492
Cl -1.535136 -1.535136 16.886492
Cl -4.605407 4.605407 -16.886492
Cl -1.535136 1.535136 -16.886492
Cl -4.605407 1.535136 16.886492
Cl -1.535136 4.605407 16.886492
Cl -1.535136 7.675678 -16.886492
Cl -4.605407 7.675678 16.886492
Cl -1.535136 10.745949 16.886492
Cl -1.535136 16.886492 -7.675678
Cl -4.605407 16.886492 -4.605407
Cl -1.535136 16.886492 -1.535136
Cl -4.605407 16.886492 1.535136
Cl -1.535136 16.886492 4.605407
Cl -4.605407 16.886492 7.675678
Cl -1.535136 16.886492 10.745949
Cl -1.535136 13.816220 13.816220
Cl 1.535136 -16.886492 -7.675678
Cl 1.535136 -16.886492 -1.535136
Cl 4.605407 -16.886492 -4.605407
Cl 1.535136 -16.886492 4.605407
Cl 4.605407 -16.886492 1.535136
Cl 1.535136 -16.886492 10.745949
Cl 4.605407 -16.886492 7.675678
Cl 1.535136 -13.816220 13.816220
Cl 1.535136 -7.675678 -16.886492
Cl 1.535136 -10.745949 16.886492
Cl 4.605407 -7.675678 16.886492
Cl 1.535136 -1.535136 -16.886492
Cl 4.605407 -4.605407 -16.886492
Cl 1.535136 -4.605407 16.886492
Cl 4.605407 -1.535136 16.886492
Cl 1.535136 4.605407 -16.886492
Cl 4.605407 1.535136 -16.886492
Cl 1.535136 1.535136 16.886492
Cl 4.605407 4.605407 16.886492
Cl 1.535136 10.745949 -16.886492
Cl 4.605407 7.675678 -16.886492
Cl 1.535136 7.675678 16.886492
Cl 1.535136 13.816220 -13.816220
Cl 1.535136 16.886492 -10.745949
Cl 4.605407 16.886492 -7.675678
Cl 1.535136 16.886492 -4.605407
Cl 4.605407 16.886492 -1.535136
Cl 1.535136 16.886492 1.535136
Cl 4.605407 16.886492 4.605407
Cl 1.535136 16.886492 7.675678
Cl 7.675678 -16.886492 -1.535136
Cl 7.675678 -16.886492 4.605407
Cl 10.745949 -16.886492 1.535136
Cl 7.675678 -1.535136 -16.886492
Cl 7.675678 -4.605407 16.886492
Cl 10.745949 -1.535136 16.886492
Cl 7.675678 4.605407 -16.886492
Cl 10.745949 1.535136 -16.886492
Cl 7.675678 1.535136 16.886492
Cl 7.675678 16.886492 -4.605407
Cl 10.745949 16.886492 -1.535136
Cl 7.675678 16.886492 1.535136
Cl 16.886492 -7.675678 -1.535136
Cl 16.886492 -7.675678 4.605407
Cl 16.886492 -10.745949 1.535136
Cl 16.886492 -1.535136 -7.675678
Cl 16.886492 -1.535136 -1.535136
Cl 16.886492 -4.605407 -4.605407
Cl 16.886492 -1.535136 4.605407
Cl 16.886492 -4.605407 1.535136
Cl 16.886492 -1.535136 10.745949
Cl 16.886492 -4.605407 7.675678
Cl 13.816220 -1.535136 13.816220
Cl 16.886492 4.605407 -7.675678
Cl 16.886492 1.535136 -10.745949
Cl 16.886492 4.605407 -1.535136
Cl 16.886492 1.535136 -4.605407
Cl 16.886492 4.605407 4.605407
Cl 16.886492 1.535136 1.535136
Cl 16.886492 1.535136 7.675678
Cl 16.886492 10.745949 -1.535136
Cl 16.886492 7.675678 -4.605407
Cl 16.886492 7.675678 1.535136
