2004
InSb-In-In889Sb776Cl339-clean
In -23.207172 -16.575606 -13.254030
In -23.207172 -13.258995 -16.570641
In -26.523783 -13.258995 -13.254030
In -23.207172 -9.942385 -13.254030
In -23.207172 -13.258995 -9.937420
In -26.523783 -9.942385 -9.937420
In -23.207172 -9.942385 -6.620809
In -23.207172 -6.625774 -9.937420
In -26.523783 -6.625774 -6.620809
In -23.207172 -3.309163 -6.620809
In -23.207172 -6.625774 -3.304198
In -26.523783 -3.309163 -3.304198
In -23.207172 -3.309163 0.012412
In -23.207172 0.007447 -3.304198
In -26.523783 0.007447 0.012412
In -23.207172 3.324058 0.012412
In -23.207172 0.007447 3.329023
In -26.523783 3.324058 3.329023
In -23.207172 3.324058 6.645634
In -23.207172 6.640669 3.329023
In -26.523783 6.640669 6.645634
In -23.207172 9.957280 6.645634
In -23.207172 6.640669 9.962245
In -26.523783 9.957280 9.962245
In -23.207172 9.957280 13.278855
In -23.207172 13.273890 9.962245
In -26.523783 13.273890 13.278855
In -23.207172 16.590501 13.278855
In -23.207172 13.273890 16.595466
In -16.573951 -23.208827 -13.254030
In -16.573951 -16.575606 -19.887252
In -16.573951 -19.892217 -16.570641
In -19.890562 -16.575606 -16.570641
In -19.890562 -19.892217 -13.254030
In -16.573951 -16.575606 -13.254030
In -16.573951 -19.892217 -9.937420
In -19.890562 -16.575606 -9.937420
In -16.573951 -16.575606 -6.620809
In -16.573951 -13.258995 -23.203863
In -19.890562 -13.258995 -19.887252
In -16.573951 -9.942385 -19.887252
In -16.573951 -13.258995 -16.570641
In -19.890562 -9.942385 -16.570641
In -19.890562 -13.258995 -13.254030
In -16.573951 -9.942385 -13.254030
In -16.573951 -13.258995 -9.937420
In -19.890562 -9.942385 -9.937420
In -19.890562 -13.258995 -6.620809
In -16.573951 -9.942385 -6.620809
In -16.573951 -13.258995 -3.304198
In -19.890562 -9.942385 -3.304198
In -16.573951 -9.942385 0.012412
In -16.573951 -6.625774 -16.570641
In -19.890562 -6.625774 -13.254030
In -16.573951 -3.309163 -13.254030
In -16.573951 -6.625774 -9.937420
In -19.890562 -3.309163 -9.937420
In -19.890562 -6.625774 -6.620809
In -16.573951 -3.309163 -6.620809
In -16.573951 -6.625774 -3.304198
In -19.890562 -3.309163 -3.304198
In -19.890562 -6.625774 0.012412
In -16.573951 -3.309163 0.012412
In -16.573951 -6.625774 3.329023
In -19.890562 -3.309163 3.329023
In -16.573951 -3.309163 6.645634
In -16.573951 0.007447 -9.937420
In -19.890562 0.007447 -6.620809
In -16.573951 3.324058 -6.620809
In -16.573951 0.007447 -3.304198
In -19.890562 3.324058 -3.304198
In -19.890562 0.007447 0.012412
In -16.573951 3.324058 0.012412
In -16.573951 0.007447 3.329023
In -19.890562 3.324058 3.329023
In -19.890562 0.007447 6.645634
In -16.573951 3.324058 6.645634
In -16.573951 0.007447 9.962245
In -19.890562 3.324058 9.962245
In -16.573951 3.324058 13.278855
In -16.573951 6.640669 -3.304198
In -19.890562 6.640669 0.012412
In -16.573951 9.957280 0.012412
In -16.573951 6.640669 3.329023
In -19.890562 9.957280 3.329023
In -19.890562 6.640669 6.645634
In -16.573951 9.957280 6.645634
In -16.573951 6.640669 9.962245
In -19.890562 9.957280 9.962245
In -19.890562 6.640669 13.278855
In -16.573951 9.957280 13.278855
In -16.573951 6.640669 16.595466
In -19.890562 9.957280 16.595466
In -16.573951 9.957280 19.912077
In -16.573951 13.273890 3.329023
In -19.890562 13.273890 6.645634
In -16.573951 16.590501 6.645634
In -16.573951 13.273890 9.962245
In -19.890562 16.590501 9.962245
In -19.890562 13.273890 13.278855
In -16.573951 16.590501 13.278855
In -16.573951 13.273890 16.595466
In -19.890562 16.590501 16.595466
In -19.890562 13.273890 19.912077
In -16.573951 16.590501 19.912077
In -16.573951 13.273890 23.228687
In -16.573951 19.907112 9.962245
In -19.890562 19.907112 13.278855
In -16.573951 23.223722 13.278855
In -16.573951 19.907112 16.595466
In -13.257340 -23.208827 -16.570641
In -13.257340 -26.525438 -13.254030
In -9.940730 -23.208827 -13.254030
In -9.940730 -26.525438 -9.937420
In -13.257340 -23.208827 -9.937420
In -9.940730 -23.208827 -6.620809
In -13.257340 -16.575606 -23.203863
In -13.257340 -19.892217 -19.887252
In -9.940730 -16.575606 -19.887252
In -9.940730 -19.892217 -16.570641
In -13.257340 -16.575606 -16.570641
In -13.257340 -19.892217 -13.254030
In -9.940730 -16.575606 -13.254030
In -9.940730 -19.892217 -9.937420
In -13.257340 -16.575606 -9.937420
In -13.257340 -19.892217 -6.620809
In -9.940730 -16.575606 -6.620809
In -9.940730 -19.892217 -3.304198
In -13.257340 -16.575606 -3.304198
In -9.940730 -16.575606 0.012412
In -13.257340 -13.258995 -26.520473
In -9.940730 -9.942385 -26.520473
In -9.940730 -13.258995 -23.203863
In -13.257340 -9.942385 -23.203863
In -13.257340 -13.258995 -19.887252
In -9.940730 -9.942385 -19.887252
In -9.940730 -13.258995 -16.570641
In -13.257340 -9.942385 -16.570641
In -13.257340 -13.258995 -13.254030
In -9.940730 -9.942385 -13.254030
In -9.940730 -13.258995 -9.937420
In -13.257340 -9.942385 -9.937420
In -13.257340 -13.258995 -6.620809
In -9.940730 -9.942385 -6.620809
In -9.940730 -13.258995 -3.304198
In -13.257340 -9.942385 -3.304198
In -13.257340 -13.258995 0.012412
In -9.940730 -9.942385 0.012412
In -9.940730 -13.258995 3.329023
In -13.257340 -9.942385 3.329023
In -9.940730 -9.942385 6.645634
In -9.940730 -6.625774 -23.203863
In -13.257340 -6.625774 -19.887252
In -9.940730 -3.309163 -19.887252
In -9.940730 -6.625774 -16.570641
In -13.257340 -3.309163 -16.570641
In -13.257340 -6.625774 -13.254030
In -9.940730 -3.309163 -13.254030
In -9.940730 -6.625774 -9.937420
In -13.257340 -3.309163 -9.937420
In -13.257340 -6.625774 -6.620809
In -9.940730 -3.309163 -6.620809
In -9.940730 -6.625774 -3.304198
In -13.257340 -3.309163 -3.304198
In -13.257340 -6.625774 0.012412
In -9.940730 -3.309163 0.012412
In -9.940730 -6.625774 3.329023
In -13.257340 -3.309163 3.329023
In -13.257340 -6.625774 6.645634
In -9.940730 -3.309163 6.645634
In -9.940730 -6.625774 9.962245
In -13.257340 -3.309163 9.962245
In -9.940730 -3.309163 13.278855
In -9.940730 0.007447 -16.570641
In -13.257340 0.007447 -13.254030
In -9.940730 3.324058 -13.254030
In -9.940730 0.007447 -9.937420
In -13.257340 3.324058 -9.937420
In -13.257340 0.007447 -6.620809
In -9.940730 3.324058 -6.620809
In -9.940730 0.007447 -3.304198
In -13.257340 3.324058 -3.304198
In -13.257340 0.007447 0.012412
In -9.940730 3.324058 0.012412
In -9.940730 0.007447 3.329023
In -13.257340 3.324058 3.329023
In -13.257340 0.007447 6.645634
In -9.940730 3.324058 6.645634
In -9.940730 0.007447 9.962245
In -13.257340 3.324058 9.962245
In -13.257340 0.007447 13.278855
In -9.940730 3.324058 13.278855
In -9.940730 0.007447 16.595466
In -13.257340 3.324058 16.595466
In -9.940730 3.324058 19.912077
In -9.940730 6.640669 -9.937420
In -13.257340 6.640669 -6.620809
In -9.940730 9.957280 -6.620809
In -9.940730 6.640669 -3.304198
In -13.257340 9.957280 -3.304198
In -13.257340 6.640669 0.012412
In -9.940730 9.957280 0.012412
In -9.940730 6.640669 3.329023
In -13.257340 9.957280 3.329023
In -13.257340 6.640669 6.645634
In -9.940730 9.957280 6.645634
In -9.940730 6.640669 9.962245
In -13.257340 9.957280 9.962245
In -13.257340 6.640669 13.278855
In -9.940730 9.957280 13.278855
In -9.940730 6.640669 16.595466
In -13.257340 9.957280 16.595466
In -13.257340 6.640669 19.912077
In -9.940730 9.957280 19.912077
In -9.940730 6.640669 23.228687
In -13.257340 9.957280 23.228687
In -9.940730 9.957280 26.545298
In -9.940730 13.273890 -3.304198
In -13.257340 13.273890 0.012412
In -9.940730 16.590501 0.012412
In -9.940730 13.273890 3.329023
In -13.257340 16.590501 3.329023
In -13.257340 13.273890 6.645634
In -9.940730 16.590501 6.645634
In -9.940730 13.273890 9.962245
In -13.257340 16.590501 9.962245
In -13.257340 13.273890 13.278855
In -9.940730 16.590501 13.278855
In -9.940730 13.273890 16.595466
In -13.257340 16.590501 16.595466
In -13.257340 13.273890 19.912077
In -9.940730 16.590501 19.912077
In -9.940730 13.273890 23.228687
In -13.257340 16.590501 23.228687
In -13.257340 13.273890 26.545298
In -9.940730 19.907112 3.329023
In -13.257340 19.907112 6.645634
In -9.940730 23.223722 6.645634
In -9.940730 19.907112 9.962245
In -13.257340 23.223722 9.962245
In -13.257340 19.907112 13.278855
In -9.940730 23.223722 13.278855
In -9.940730 19.907112 16.595466
In -13.257340 23.223722 16.595466
In -13.257340 19.907112 19.912077
In -9.940730 26.540333 9.962245
In -13.257340 26.540333 13.278855
In -6.624119 -23.208827 -9.937420
In -6.624119 -26.525438 -6.620809
In -3.307508 -23.208827 -6.620809
In -3.307508 -26.525438 -3.304198
In -6.624119 -23.208827 -3.304198
In -3.307508 -23.208827 0.012412
In -6.624119 -16.575606 -16.570641
In -6.624119 -19.892217 -13.254030
In -3.307508 -16.575606 -13.254030
In -3.307508 -19.892217 -9.937420
In -6.624119 -16.575606 -9.937420
In -6.624119 -19.892217 -6.620809
In -3.307508 -16.575606 -6.620809
In -3.307508 -19.892217 -3.304198
In -6.624119 -16.575606 -3.304198
In -6.624119 -19.892217 0.012412
In -3.307508 -16.575606 0.012412
In -3.307508 -19.892217 3.329023
In -6.624119 -16.575606 3.329023
In -3.307508 -16.575606 6.645634
In -6.624119 -9.942385 -23.203863
In -6.624119 -13.258995 -19.887252
In -3.307508 -9.942385 -19.887252
In -3.307508 -13.258995 -16.570641
In -6.624119 -9.942385 -16.570641
In -6.624119 -13.258995 -13.254030
In -3.307508 -9.942385 -13.254030
In -3.307508 -13.258995 -9.937420
In -6.624119 -9.942385 -9.937420
In -6.624119 -13.258995 -6.620809
In -3.307508 -9.942385 -6.620809
In -3.307508 -13.258995 -3.304198
In -6.624119 -9.942385 -3.304198
In -6.624119 -13.258995 0.012412
In -3.307508 -9.942385 0.012412
In -3.307508 -13.258995 3.329023
In -6.624119 -9.942385 3.329023
In -6.624119 -13.258995 6.645634
In -3.307508 -9.942385 6.645634
In -3.307508 -13.258995 9.962245
In -6.624119 -9.942385 9.962245
In -3.307508 -9.942385 13.278855
In -6.624119 -6.625774 -26.520473
In -3.307508 -3.309163 -26.520473
In -3.307508 -6.625774 -23.203863
In -6.624119 -3.309163 -23.203863
In -6.624119 -6.625774 -19.887252
In -3.307508 -3.309163 -19.887252
In -3.307508 -6.625774 -16.570641
In -6.624119 -3.309163 -16.570641
In -6.624119 -6.625774 -13.254030
In -3.307508 -3.309163 -13.254030
In -3.307508 -6.625774 -9.937420
In -6.624119 -3.309163 -9.937420
In -6.624119 -6.625774 -6.620809
In -3.307508 -3.309163 -6.620809
In -3.307508 -6.625774 -3.304198
In -6.624119 -3.309163 -3.304198
In -6.624119 -6.625774 0.012412
In -3.307508 -3.309163 0.012412
In -3.307508 -6.625774 3.329023
In -6.624119 -3.309163 3.329023
In -6.624119 -6.625774 6.645634
In -3.307508 -3.309163 6.645634
In -3.307508 -6.625774 9.962245
In -6.624119 -3.309163 9.962245
In -6.624119 -6.625774 13.278855
In -3.307508 -3.309163 13.278855
In -3.307508 -6.625774 16.595466
In -6.624119 -3.309163 16.595466
In -3.307508 -3.309163 19.912077
In -3.307508 0.007447 -23.203863
In -6.624119 0.007447 -19.887252
In -3.307508 3.324058 -19.887252
In -3.307508 0.007447 -16.570641
In -6.624119 3.324058 -16.570641
In -6.624119 0.007447 -13.254030
In -3.307508 3.324058 -13.254030
In -3.307508 0.007447 -9.937420
In -6.624119 3.324058 -9.937420
In -6.624119 0.007447 -6.620809
In -3.307508 3.324058 -6.620809
In -3.307508 0.007447 -3.304198
In -6.624119 3.324058 -3.304198
In -6.624119 0.007447 0.012412
In -3.307508 3.324058 0.012412
In -3.307508 0.007447 3.329023
In -6.624119 3.324058 3.329023
In -6.624119 0.007447 6.645634
In -3.307508 3.324058 6.645634
In -3.307508 0.007447 9.962245
In -6.624119 3.324058 9.962245
In -6.624119 0.007447 13.278855
In -3.307508 3.324058 13.278855
In -3.307508 0.007447 16.595466
In -6.624119 3.324058 16.595466
In -6.624119 0.007447 19.912077
In -3.307508 3.324058 19.912077
In -3.307508 0.007447 23.228687
In -6.624119 3.324058 23.228687
In -3.307508 3.324058 26.545298
In -3.307508 6.640669 -16.570641
In -6.624119 6.640669 -13.254030
In -3.307508 9.957280 -13.254030
In -3.307508 6.640669 -9.937420
In -6.624119 9.957280 -9.937420
In -6.624119 6.640669 -6.620809
In -3.307508 9.957280 -6.620809
In -3.307508 6.640669 -3.304198
In -6.624119 9.957280 -3.304198
In -6.624119 6.640669 0.012412
In -3.307508 9.957280 0.012412
In -3.307508 6.640669 3.329023
In -6.624119 9.957280 3.329023
In -6.624119 6.640669 6.645634
In -3.307508 9.957280 6.645634
In -3.307508 6.640669 9.962245
In -6.624119 9.957280 9.962245
In -6.624119 6.640669 13.278855
In -3.307508 9.957280 13.278855
In -3.307508 6.640669 16.595466
In -6.624119 9.957280 16.595466
In -6.624119 6.640669 19.912077
In -3.307508 9.957280 19.912077
In -3.307508 6.640669 23.228687
In -6.624119 9.957280 23.228687
In -6.624119 6.640669 26.545298
In -3.307508 13.273890 -9.937420
In -6.624119 13.273890 -6.620809
In -3.307508 16.590501 -6.620809
In -3.307508 13.273890 -3.304198
In -6.624119 16.590501 -3.304198
In -6.624119 13.273890 0.012412
In -3.307508 16.590501 0.012412
In -3.307508 13.273890 3.329023
In -6.624119 16.590501 3.329023
In -6.624119 13.273890 6.645634
In -3.307508 16.590501 6.645634
In -3.307508 13.273890 9.962245
In -6.624119 16.590501 9.962245
In -6.624119 13.273890 13.278855
In -3.307508 16.590501 13.278855
In -3.307508 13.273890 16.595466
In -6.624119 16.590501 16.595466
In -6.624119 13.273890 19.912077
In -3.307508 19.907112 -3.304198
In -6.624119 19.907112 0.012412
In -3.307508 23.223722 0.012412
In -3.307508 19.907112 3.329023
In -6.624119 23.223722 3.329023
In -6.624119 19.907112 6.645634
In -3.307508 23.223722 6.645634
In -3.307508 19.907112 9.962245
In -6.624119 23.223722 9.962245
In -6.624119 19.907112 13.278855
In -3.307508 26.540333 3.329023
In -6.624119 26.540333 6.645634
In 0.009102 -23.208827 -3.304198
In 0.009102 -26.525438 0.012412
In 3.325713 -23.208827 0.012412
In 3.325713 -26.525438 3.329023
In 0.009102 -23.208827 3.329023
In 3.325713 -23.208827 6.645634
In 0.009102 -16.575606 -9.937420
In 0.009102 -19.892217 -6.620809
In 3.325713 -16.575606 -6.620809
In 3.325713 -19.892217 -3.304198
In 0.009102 -16.575606 -3.304198
In 0.009102 -19.892217 0.012412
In 3.325713 -16.575606 0.012412
In 3.325713 -19.892217 3.329023
In 0.009102 -16.575606 3.329023
In 0.009102 -19.892217 6.645634
In 3.325713 -16.575606 6.645634
In 3.325713 -19.892217 9.962245
In 0.009102 -16.575606 9.962245
In 3.325713 -16.575606 13.278855
In 0.009102 -9.942385 -16.570641
In 0.009102 -13.258995 -13.254030
In 3.325713 -9.942385 -13.254030
In 3.325713 -13.258995 -9.937420
In 0.009102 -9.942385 -9.937420
In 0.009102 -13.258995 -6.620809
In 3.325713 -9.942385 -6.620809
In 3.325713 -13.258995 -3.304198
In 0.009102 -9.942385 -3.304198
In 0.009102 -13.258995 0.012412
In 3.325713 -9.942385 0.012412
In 3.325713 -13.258995 3.329023
In 0.009102 -9.942385 3.329023
In 0.009102 -13.258995 6.645634
In 3.325713 -9.942385 6.645634
In 3.325713 -13.258995 9.962245
In 0.009102 -9.942385 9.962245
In 0.009102 -13.258995 13.278855
In 3.325713 -9.942385 13.278855
In 3.325713 -13.258995 16.595466
In 0.009102 -9.942385 16.595466
In 3.325713 -9.942385 19.912077
In 0.009102 -3.309163 -23.203863
In 0.009102 -6.625774 -19.887252
In 3.325713 -3.309163 -19.887252
In 3.325713 -6.625774 -16.570641
In 0.009102 -3.309163 -16.570641
In 0.009102 -6.625774 -13.254030
In 3.325713 -3.309163 -13.254030
In 3.325713 -6.625774 -9.937420
In 0.009102 -3.309163 -9.937420
In 0.009102 -6.625774 -6.620809
In 3.325713 -3.309163 -6.620809
In 3.325713 -6.625774 -3.304198
In 0.009102 -3.309163 -3.304198
In 0.009102 -6.625774 0.012412
In 3.325713 -3.309163 0.012412
In 3.325713 -6.625774 3.329023
In 0.009102 -3.309163 3.329023
In 0.009102 -6.625774 6.645634
In 3.325713 -3.309163 6.645634
In 3.325713 -6.625774 9.962245
In 0.009102 -3.309163 9.962245
In 0.009102 -6.625774 13.278855
In 3.325713 -3.309163 13.278855
In 3.325713 -6.625774 16.595466
In 0.009102 -3.309163 16.595466
In 0.009102 -6.625774 19.912077
In 3.325713 -3.309163 19.912077
In 3.325713 -6.625774 23.228687
In 0.009102 -3.309163 23.228687
In 3.325713 -3.309163 26.545298
In 0.009102 0.007447 -26.520473
In 3.325713 3.324058 -26.520473
In 3.325713 0.007447 -23.203863
In 0.009102 3.324058 -23.203863
In 0.009102 0.007447 -19.887252
In 3.325713 3.324058 -19.887252
In 3.325713 0.007447 -16.570641
In 0.009102 3.324058 -16.570641
In 0.009102 0.007447 -13.254030
In 3.325713 3.324058 -13.254030
In 3.325713 0.007447 -9.937420
In 0.009102 3.324058 -9.937420
In 0.009102 0.007447 -6.620809
In 3.325713 3.324058 -6.620809
In 3.325713 0.007447 -3.304198
In 0.009102 3.324058 -3.304198
In 0.009102 0.007447 0.012412
In 3.325713 3.324058 0.012412
In 3.325713 0.007447 3.329023
In 0.009102 3.324058 3.329023
In 0.009102 0.007447 6.645634
In 3.325713 3.324058 6.645634
In 3.325713 0.007447 9.962245
In 0.009102 3.324058 9.962245
In 0.009102 0.007447 13.278855
In 3.325713 3.324058 13.278855
In 3.325713 0.007447 16.595466
In 0.009102 3.324058 16.595466
In 0.009102 0.007447 19.912077
In 3.325713 3.324058 19.912077
In 3.325713 0.007447 23.228687
In 0.009102 3.324058 23.228687
In 0.009102 0.007447 26.545298
In 3.325713 6.640669 -23.203863
In 0.009102 6.640669 -19.887252
In 3.325713 9.957280 -19.887252
In 3.325713 6.640669 -16.570641
In 0.009102 9.957280 -16.570641
In 0.009102 6.640669 -13.254030
In 3.325713 9.957280 -13.254030
In 3.325713 6.640669 -9.937420
In 0.009102 9.957280 -9.937420
In 0.009102 6.640669 -6.620809
In 3.325713 9.957280 -6.620809
In 3.325713 6.640669 -3.304198
In 0.009102 9.957280 -3.304198
In 0.009102 6.640669 0.012412
In 3.325713 9.957280 0.012412
In 3.325713 6.640669 3.329023
In 0.009102 9.957280 3.329023
In 0.009102 6.640669 6.645634
In 3.325713 9.957280 6.645634
In 3.325713 6.640669 9.962245
In 0.009102 9.957280 9.962245
In 0.009102 6.640669 13.278855
In 3.325713 9.957280 13.278855
In 3.325713 6.640669 16.595466
In 0.009102 9.957280 16.595466
In 0.009102 6.640669 19.912077
In 3.325713 13.273890 -16.570641
In 0.009102 13.273890 -13.254030
In 3.325713 16.590501 -13.254030
In 3.325713 13.273890 -9.937420
In 0.009102 16.590501 -9.937420
In 0.009102 13.273890 -6.620809
In 3.325713 16.590501 -6.620809
In 3.325713 13.273890 -3.304198
In 0.009102 16.590501 -3.304198
In 0.009102 13.273890 0.012412
In 3.325713 16.590501 0.012412
In 3.325713 13.273890 3.329023
In 0.009102 16.590501 3.329023
In 0.009102 13.273890 6.645634
In 3.325713 16.590501 6.645634
In 3.325713 13.273890 9.962245
In 0.009102 16.590501 9.962245
In 0.009102 13.273890 13.278855
In 3.325713 19.907112 -9.937420
In 0.009102 19.907112 -6.620809
In 3.325713 23.223722 -6.620809
In 3.325713 19.907112 -3.304198
In 0.009102 23.223722 -3.304198
In 0.009102 19.907112 0.012412
In 3.325713 23.223722 0.012412
In 3.325713 19.907112 3.329023
In 0.009102 23.223722 3.329023
In 0.009102 19.907112 6.645634
In 3.325713 26.540333 -3.304198
In 0.009102 26.540333 0.012412
In 6.642324 -23.208827 3.329023
In 6.642324 -26.525438 6.645634
In 9.958935 -23.208827 6.645634
In 9.958935 -26.525438 9.962245
In 6.642324 -23.208827 9.962245
In 9.958935 -23.208827 13.278855
In 6.642324 -16.575606 -3.304198
In 6.642324 -19.892217 0.012412
In 9.958935 -16.575606 0.012412
In 9.958935 -19.892217 3.329023
In 6.642324 -16.575606 3.329023
In 6.642324 -19.892217 6.645634
In 9.958935 -16.575606 6.645634
In 9.958935 -19.892217 9.962245
In 6.642324 -16.575606 9.962245
In 6.642324 -19.892217 13.278855
In 9.958935 -16.575606 13.278855
In 9.958935 -19.892217 16.595466
In 6.642324 -16.575606 16.595466
In 9.958935 -16.575606 19.912077
In 6.642324 -9.942385 -9.937420
In 6.642324 -13.258995 -6.620809
In 9.958935 -9.942385 -6.620809
In 9.958935 -13.258995 -3.304198
In 6.642324 -9.942385 -3.304198
In 6.642324 -13.258995 0.012412
In 9.958935 -9.942385 0.012412
In 9.958935 -13.258995 3.329023
In 6.642324 -9.942385 3.329023
In 6.642324 -13.258995 6.645634
In 9.958935 -9.942385 6.645634
In 9.958935 -13.258995 9.962245
In 6.642324 -9.942385 9.962245
In 6.642324 -13.258995 13.278855
In 9.958935 -9.942385 13.278855
In 9.958935 -13.258995 16.595466
In 6.642324 -9.942385 16.595466
In 6.642324 -13.258995 19.912077
In 9.958935 -9.942385 19.912077
In 9.958935 -13.258995 23.228687
In 6.642324 -9.942385 23.228687
In 9.958935 -9.942385 26.545298
In 6.642324 -3.309163 -16.570641
In 6.642324 -6.625774 -13.254030
In 9.958935 -3.309163 -13.254030
In 9.958935 -6.625774 -9.937420
In 6.642324 -3.309163 -9.937420
In 6.642324 -6.625774 -6.620809
In 9.958935 -3.309163 -6.620809
In 9.958935 -6.625774 -3.304198
In 6.642324 -3.309163 -3.304198
In 6.642324 -6.625774 0.012412
In 9.958935 -3.309163 0.012412
In 9.958935 -6.625774 3.329023
In 6.642324 -3.309163 3.329023
In 6.642324 -6.625774 6.645634
In 9.958935 -3.309163 6.645634
In 9.958935 -6.625774 9.962245
In 6.642324 -3.309163 9.962245
In 6.642324 -6.625774 13.278855
In 9.958935 -3.309163 13.278855
In 9.958935 -6.625774 16.595466
In 6.642324 -3.309163 16.595466
In 6.642324 -6.625774 19.912077
In 9.958935 -3.309163 19.912077
In 9.958935 -6.625774 23.228687
In 6.642324 -3.309163 23.228687
In 6.642324 -6.625774 26.545298
In 6.642324 3.324058 -23.203863
In 6.642324 0.007447 -19.887252
In 9.958935 3.324058 -19.887252
In 9.958935 0.007447 -16.570641
In 6.642324 3.324058 -16.570641
In 6.642324 0.007447 -13.254030
In 9.958935 3.324058 -13.254030
In 9.958935 0.007447 -9.937420
In 6.642324 3.324058 -9.937420
In 6.642324 0.007447 -6.620809
In 9.958935 3.324058 -6.620809
In 9.958935 0.007447 -3.304198
In 6.642324 3.324058 -3.304198
In 6.642324 0.007447 0.012412
In 9.958935 3.324058 0.012412
In 9.958935 0.007447 3.329023
In 6.642324 3.324058 3.329023
In 6.642324 0.007447 6.645634
In 9.958935 3.324058 6.645634
In 9.958935 0.007447 9.962245
In 6.642324 3.324058 9.962245
In 6.642324 0.007447 13.278855
In 9.958935 3.324058 13.278855
In 9.958935 0.007447 16.595466
In 6.642324 3.324058 16.595466
In 6.642324 0.007447 19.912077
In 6.642324 6.640669 -26.520473
In 9.958935 9.957280 -26.520473
In 9.958935 6.640669 -23.203863
In 6.642324 9.957280 -23.203863
In 6.642324 6.640669 -19.887252
In 9.958935 9.957280 -19.887252
In 9.958935 6.640669 -16.570641
In 6.642324 9.957280 -16.570641
In 6.642324 6.640669 -13.254030
In 9.958935 9.957280 -13.254030
In 9.958935 6.640669 -9.937420
In 6.642324 9.957280 -9.937420
In 6.642324 6.640669 -6.620809
In 9.958935 9.957280 -6.620809
In 9.958935 6.640669 -3.304198
In 6.642324 9.957280 -3.304198
In 6.642324 6.640669 0.012412
In 9.958935 9.957280 0.012412
In 9.958935 6.640669 3.329023
In 6.642324 9.957280 3.329023
In 6.642324 6.640669 6.645634
In 9.958935 9.957280 6.645634
In 9.958935 6.640669 9.962245
In 6.642324 9.957280 9.962245
In 6.642324 6.640669 13.278855
In 9.958935 13.273890 -23.203863
In 6.642324 13.273890 -19.887252
In 9.958935 16.590501 -19.887252
In 9.958935 13.273890 -16.570641
In 6.642324 16.590501 -16.570641
In 6.642324 13.273890 -13.254030
In 9.958935 16.590501 -13.254030
In 9.958935 13.273890 -9.937420
In 6.642324 16.590501 -9.937420
In 6.642324 13.273890 -6.620809
In 9.958935 16.590501 -6.620809
In 9.958935 13.273890 -3.304198
In 6.642324 16.590501 -3.304198
In 6.642324 13.273890 0.012412
In 9.958935 16.590501 0.012412
In 9.958935 13.273890 3.329023
In 6.642324 16.590501 3.329023
In 6.642324 13.273890 6.645634
In 9.958935 19.907112 -16.570641
In 6.642324 19.907112 -13.254030
In 9.958935 23.223722 -13.254030
In 9.958935 19.907112 -9.937420
In 6.642324 23.223722 -9.937420
In 6.642324 19.907112 -6.620809
In 9.958935 23.223722 -6.620809
In 9.958935 19.907112 -3.304198
In 6.642324 23.223722 -3.304198
In 6.642324 19.907112 0.012412
In 9.958935 26.540333 -9.937420
In 6.642324 26.540333 -6.620809
In 13.275545 -23.208827 9.962245
In 13.275545 -26.525438 13.278855
In 16.592156 -23.208827 13.278855
In 13.275545 -23.208827 16.595466
In 13.275545 -16.575606 3.329023
In 13.275545 -19.892217 6.645634
In 16.592156 -16.575606 6.645634
In 16.592156 -19.892217 9.962245
In 13.275545 -16.575606 9.962245
In 13.275545 -19.892217 13.278855
In 16.592156 -16.575606 13.278855
In 16.592156 -19.892217 16.595466
In 13.275545 -16.575606 16.595466
In 13.275545 -19.892217 19.912077
In 16.592156 -16.575606 19.912077
In 13.275545 -16.575606 23.228687
In 13.275545 -9.942385 -3.304198
In 13.275545 -13.258995 0.012412
In 16.592156 -9.942385 0.012412
In 16.592156 -13.258995 3.329023
In 13.275545 -9.942385 3.329023
In 13.275545 -13.258995 6.645634
In 16.592156 -9.942385 6.645634
In 16.592156 -13.258995 9.962245
In 13.275545 -9.942385 9.962245
In 13.275545 -13.258995 13.278855
In 16.592156 -9.942385 13.278855
In 16.592156 -13.258995 16.595466
In 13.275545 -9.942385 16.595466
In 13.275545 -13.258995 19.912077
In 16.592156 -9.942385 19.912077
In 16.592156 -13.258995 23.228687
In 13.275545 -9.942385 23.228687
In 13.275545 -13.258995 26.545298
In 13.275545 -3.309163 -9.937420
In 13.275545 -6.625774 -6.620809
In 16.592156 -3.309163 -6.620809
In 16.592156 -6.625774 -3.304198
In 13.275545 -3.309163 -3.304198
In 13.275545 -6.625774 0.012412
In 16.592156 -3.309163 0.012412
In 16.592156 -6.625774 3.329023
In 13.275545 -3.309163 3.329023
In 13.275545 -6.625774 6.645634
In 16.592156 -3.309163 6.645634
In 16.592156 -6.625774 9.962245
In 13.275545 -3.309163 9.962245
In 13.275545 -6.625774 13.278855
In 16.592156 -3.309163 13.278855
In 16.592156 -6.625774 16.595466
In 13.275545 -3.309163 16.595466
In 13.275545 -6.625774 19.912077
In 13.275545 3.324058 -16.570641
In 13.275545 0.007447 -13.254030
In 16.592156 3.324058 -13.254030
In 16.592156 0.007447 -9.937420
In 13.275545 3.324058 -9.937420
In 13.275545 0.007447 -6.620809
In 16.592156 3.324058 -6.620809
In 16.592156 0.007447 -3.304198
In 13.275545 3.324058 -3.304198
In 13.275545 0.007447 0.012412
In 16.592156 3.324058 0.012412
In 16.592156 0.007447 3.329023
In 13.275545 3.324058 3.329023
In 13.275545 0.007447 6.645634
In 16.592156 3.324058 6.645634
In 16.592156 0.007447 9.962245
In 13.275545 3.324058 9.962245
In 13.275545 0.007447 13.278855
In 13.275545 9.957280 -23.203863
In 13.275545 6.640669 -19.887252
In 16.592156 9.957280 -19.887252
In 16.592156 6.640669 -16.570641
In 13.275545 9.957280 -16.570641
In 13.275545 6.640669 -13.254030
In 16.592156 9.957280 -13.254030
In 16.592156 6.640669 -9.937420
In 13.275545 9.957280 -9.937420
In 13.275545 6.640669 -6.620809
In 16.592156 9.957280 -6.620809
In 16.592156 6.640669 -3.304198
In 13.275545 9.957280 -3.304198
In 13.275545 6.640669 0.012412
In 16.592156 9.957280 0.012412
In 16.592156 6.640669 3.329023
In 13.275545 9.957280 3.329023
In 13.275545 6.640669 6.645634
In 13.275545 13.273890 -26.520473
In 16.592156 13.273890 -23.203863
In 13.275545 16.590501 -23.203863
In 13.275545 13.273890 -19.887252
In 16.592156 16.590501 -19.887252
In 16.592156 13.273890 -16.570641
In 13.275545 16.590501 -16.570641
In 13.275545 13.273890 -13.254030
In 16.592156 16.590501 -13.254030
In 16.592156 13.273890 -9.937420
In 13.275545 16.590501 -9.937420
In 13.275545 13.273890 -6.620809
In 16.592156 16.590501 -6.620809
In 16.592156 13.273890 -3.304198
In 13.275545 16.590501 -3.304198
In 13.275545 13.273890 0.012412
In 13.275545 19.907112 -19.887252
In 16.592156 19.907112 -16.570641
In 13.275545 23.223722 -16.570641
In 13.275545 19.907112 -13.254030
In 16.592156 23.223722 -13.254030
In 16.592156 19.907112 -9.937420
In 13.275545 23.223722 -9.937420
In 13.275545 19.907112 -6.620809
In 13.275545 26.540333 -13.254030
In 19.908767 -16.575606 9.962245
In 19.908767 -19.892217 13.278855
In 23.225377 -16.575606 13.278855
In 19.908767 -16.575606 16.595466
In 19.908767 -9.942385 3.329023
In 19.908767 -13.258995 6.645634
In 23.225377 -9.942385 6.645634
In 23.225377 -13.258995 9.962245
In 19.908767 -9.942385 9.962245
In 19.908767 -13.258995 13.278855
In 23.225377 -9.942385 13.278855
In 23.225377 -13.258995 16.595466
In 19.908767 -9.942385 16.595466
In 19.908767 -13.258995 19.912077
In 19.908767 -3.309163 -3.304198
In 19.908767 -6.625774 0.012412
In 23.225377 -3.309163 0.012412
In 23.225377 -6.625774 3.329023
In 19.908767 -3.309163 3.329023
In 19.908767 -6.625774 6.645634
In 23.225377 -3.309163 6.645634
In 23.225377 -6.625774 9.962245
In 19.908767 -3.309163 9.962245
In 19.908767 -6.625774 13.278855
In 19.908767 3.324058 -9.937420
In 19.908767 0.007447 -6.620809
In 23.225377 3.324058 -6.620809
In 23.225377 0.007447 -3.304198
In 19.908767 3.324058 -3.304198
In 19.908767 0.007447 0.012412
In 23.225377 3.324058 0.012412
In 23.225377 0.007447 3.329023
In 19.908767 3.324058 3.329023
In 19.908767 0.007447 6.645634
In 19.908767 9.957280 -16.570641
In 19.908767 6.640669 -13.254030
In 23.225377 9.957280 -13.254030
In 23.225377 6.640669 -9.937420
In 19.908767 9.957280 -9.937420
In 19.908767 6.640669 -6.620809
In 23.225377 9.957280 -6.620809
In 23.225377 6.640669 -3.304198
In 19.908767 9.957280 -3.304198
In 19.908767 6.640669 0.012412
In 19.908767 13.273890 -19.887252
In 23.225377 13.273890 -16.570641
In 19.908767 16.590501 -16.570641
In 19.908767 13.273890 -13.254030
In 23.225377 16.590501 -13.254030
In 23.225377 13.273890 -9.937420
In 19.908767 16.590501 -9.937420
In 19.908767 13.273890 -6.620809
In 19.908767 19.907112 -13.254030
In 26.541988 -9.942385 9.962245
In 26.541988 -13.258995 13.278855
In 26.541988 -3.309163 3.329023
In 26.541988 -6.625774 6.645634
In 26.541988 3.324058 -3.304198
In 26.541988 0.007447 0.012412
In 26.541988 9.957280 -9.937420
In 26.541988 6.640669 -6.620809
In 26.541988 13.273890 -13.254030
Sb -24.865478 -14.917301 -14.912336
Sb -21.548867 -14.917301 -18.228946
Sb -21.548867 -18.233911 -14.912336
Sb -21.548867 -14.917301 -11.595725
Sb -21.548867 -11.600690 -14.912336
Sb -24.865478 -11.600690 -11.595725
Sb -24.865478 -8.284079 -8.279114
Sb -21.548867 -8.284079 -11.595725
Sb -21.548867 -11.600690 -8.279114
Sb -21.548867 -8.284079 -4.962504
Sb -21.548867 -4.967469 -8.279114
Sb -24.865478 -4.967469 -4.962504
Sb -24.865478 -1.650858 -1.645893
Sb -21.548867 -1.650858 -4.962504
Sb -21.548867 -4.967469 -1.645893
Sb -21.548867 -1.650858 1.670718
Sb -21.548867 1.665753 -1.645893
Sb -24.865478 1.665753 1.670718
Sb -24.865478 4.982364 4.987329
Sb -21.548867 4.982364 1.670718
Sb -21.548867 1.665753 4.987329
Sb -21.548867 4.982364 8.303939
Sb -21.548867 8.298974 4.987329
Sb -24.865478 8.298974 8.303939
Sb -24.865478 11.615585 11.620550
Sb -21.548867 11.615585 8.303939
Sb -21.548867 8.298974 11.620550
Sb -21.548867 11.615585 14.937161
Sb -21.548867 14.932196 11.620550
Sb -24.865478 14.932196 14.937161
Sb -21.548867 18.248806 14.937161
Sb -21.548867 14.932196 18.253771
Sb -18.232256 -21.550522 -14.912336
Sb -14.915646 -21.550522 -18.228946
Sb -14.915646 -24.867133 -14.912336
Sb -14.915646 -21.550522 -11.595725
Sb -18.232256 -14.917301 -21.545557
Sb -14.915646 -14.917301 -24.862168
Sb -14.915646 -18.233911 -21.545557
Sb -18.232256 -18.233911 -18.228946
Sb -18.232256 -14.917301 -14.912336
Sb -14.915646 -14.917301 -18.228946
Sb -14.915646 -18.233911 -14.912336
Sb -18.232256 -18.233911 -11.595725
Sb -18.232256 -14.917301 -8.279114
Sb -14.915646 -14.917301 -11.595725
Sb -14.915646 -18.233911 -8.279114
Sb -14.915646 -14.917301 -4.962504
Sb -14.915646 -11.600690 -21.545557
Sb -18.232256 -11.600690 -18.228946
Sb -18.232256 -8.284079 -14.912336
Sb -14.915646 -8.284079 -18.228946
Sb -14.915646 -11.600690 -14.912336
Sb -18.232256 -11.600690 -11.595725
Sb -18.232256 -8.284079 -8.279114
Sb -14.915646 -8.284079 -11.595725
Sb -14.915646 -11.600690 -8.279114
Sb -18.232256 -11.600690 -4.962504
Sb -18.232256 -8.284079 -1.645893
Sb -14.915646 -8.284079 -4.962504
Sb -14.915646 -11.600690 -1.645893
Sb -14.915646 -8.284079 1.670718
Sb -14.915646 -4.967469 -14.912336
Sb -18.232256 -4.967469 -11.595725
Sb -18.232256 -1.650858 -8.279114
Sb -14.915646 -1.650858 -11.595725
Sb -14.915646 -4.967469 -8.279114
Sb -18.232256 -4.967469 -4.962504
Sb -18.232256 -1.650858 -1.645893
Sb -14.915646 -1.650858 -4.962504
Sb -14.915646 -4.967469 -1.645893
Sb -18.232256 -4.967469 1.670718
Sb -18.232256 -1.650858 4.987329
Sb -14.915646 -1.650858 1.670718
Sb -14.915646 -4.967469 4.987329
Sb -14.915646 -1.650858 8.303939
Sb -14.915646 1.665753 -8.279114
Sb -18.232256 1.665753 -4.962504
Sb -18.232256 4.982364 -1.645893
Sb -14.915646 4.982364 -4.962504
Sb -14.915646 1.665753 -1.645893
Sb -18.232256 1.665753 1.670718
Sb -18.232256 4.982364 4.987329
Sb -14.915646 4.982364 1.670718
Sb -14.915646 1.665753 4.987329
Sb -18.232256 1.665753 8.303939
Sb -18.232256 4.982364 11.620550
Sb -14.915646 4.982364 8.303939
Sb -14.915646 1.665753 11.620550
Sb -14.915646 4.982364 14.937161
Sb -14.915646 8.298974 -1.645893
Sb -18.232256 8.298974 1.670718
Sb -18.232256 11.615585 4.987329
Sb -14.915646 11.615585 1.670718
Sb -14.915646 8.298974 4.987329
Sb -18.232256 8.298974 8.303939
Sb -18.232256 11.615585 11.620550
Sb -14.915646 11.615585 8.303939
Sb -14.915646 8.298974 11.620550
Sb -18.232256 8.298974 14.937161
Sb -18.232256 11.615585 18.253771
Sb -14.915646 11.615585 14.937161
Sb -14.915646 8.298974 18.253771
Sb -14.915646 11.615585 21.570382
Sb -14.915646 14.932196 4.987329
Sb -18.232256 14.932196 8.303939
Sb -18.232256 18.248806 11.620550
Sb -14.915646 18.248806 8.303939
Sb -14.915646 14.932196 11.620550
Sb -18.232256 14.932196 14.937161
Sb -18.232256 18.248806 18.253771
Sb -14.915646 18.248806 14.937161
Sb -14.915646 14.932196 18.253771
Sb -18.232256 14.932196 21.570382
Sb -14.915646 18.248806 21.570382
Sb -14.915646 14.932196 24.886993
Sb -14.915646 21.565417 11.620550
Sb -18.232256 21.565417 14.937161
Sb -14.915646 24.882028 14.937161
Sb -14.915646 21.565417 18.253771
Sb -11.599035 -21.550522 -14.912336
Sb -11.599035 -24.867133 -11.595725
Sb -11.599035 -21.550522 -8.279114
Sb -8.282424 -21.550522 -11.595725
Sb -8.282424 -24.867133 -8.279114
Sb -8.282424 -21.550522 -4.962504
Sb -11.599035 -14.917301 -21.545557
Sb -11.599035 -18.233911 -18.228946
Sb -11.599035 -14.917301 -14.912336
Sb -8.282424 -14.917301 -18.228946
Sb -8.282424 -18.233911 -14.912336
Sb -11.599035 -18.233911 -11.595725
Sb -11.599035 -14.917301 -8.279114
Sb -8.282424 -14.917301 -11.595725
Sb -8.282424 -18.233911 -8.279114
Sb -11.599035 -18.233911 -4.962504
Sb -11.599035 -14.917301 -1.645893
Sb -8.282424 -14.917301 -4.962504
Sb -8.282424 -18.233911 -1.645893
Sb -8.282424 -14.917301 1.670718
Sb -11.599035 -11.600690 -24.862168
Sb -11.599035 -8.284079 -21.545557
Sb -8.282424 -8.284079 -24.862168
Sb -8.282424 -11.600690 -21.545557
Sb -11.599035 -11.600690 -18.228946
Sb -11.599035 -8.284079 -14.912336
Sb -8.282424 -8.284079 -18.228946
Sb -8.282424 -11.600690 -14.912336
Sb -11.599035 -11.600690 -11.595725
Sb -11.599035 -8.284079 -8.279114
Sb -8.282424 -8.284079 -11.595725
Sb -8.282424 -11.600690 -8.279114
Sb -11.599035 -11.600690 -4.962504
Sb -11.599035 -8.284079 -1.645893
Sb -8.282424 -8.284079 -4.962504
Sb -8.282424 -11.600690 -1.645893
Sb -11.599035 -11.600690 1.670718
Sb -11.599035 -8.284079 4.987329
Sb -8.282424 -8.284079 1.670718
Sb -8.282424 -11.600690 4.987329
Sb -8.282424 -8.284079 8.303939
Sb -8.282424 -4.967469 -21.545557
Sb -11.599035 -4.967469 -18.228946
Sb -11.599035 -1.650858 -14.912336
Sb -8.282424 -1.650858 -18.228946
Sb -8.282424 -4.967469 -14.912336
Sb -11.599035 -4.967469 -11.595725
Sb -11.599035 -1.650858 -8.279114
Sb -8.282424 -1.650858 -11.595725
Sb -8.282424 -4.967469 -8.279114
Sb -11.599035 -4.967469 -4.962504
Sb -11.599035 -1.650858 -1.645893
Sb -8.282424 -1.650858 -4.962504
Sb -8.282424 -4.967469 -1.645893
Sb -11.599035 -4.967469 1.670718
Sb -11.599035 -1.650858 4.987329
Sb -8.282424 -1.650858 1.670718
Sb -8.282424 -4.967469 4.987329
Sb -11.599035 -4.967469 8.303939
Sb -11.599035 -1.650858 11.620550
Sb -8.282424 -1.650858 8.303939
Sb -8.282424 -4.967469 11.620550
Sb -8.282424 -1.650858 14.937161
Sb -8.282424 1.665753 -14.912336
Sb -11.599035 1.665753 -11.595725
Sb -11.599035 4.982364 -8.279114
Sb -8.282424 4.982364 -11.595725
Sb -8.282424 1.665753 -8.279114
Sb -11.599035 1.665753 -4.962504
Sb -11.599035 4.982364 -1.645893
Sb -8.282424 4.982364 -4.962504
Sb -8.282424 1.665753 -1.645893
Sb -11.599035 1.665753 1.670718
Sb -11.599035 4.982364 4.987329
Sb -8.282424 4.982364 1.670718
Sb -8.282424 1.665753 4.987329
Sb -11.599035 1.665753 8.303939
Sb -11.599035 4.982364 11.620550
Sb -8.282424 4.982364 8.303939
Sb -8.282424 1.665753 11.620550
Sb -11.599035 1.665753 14.937161
Sb -11.599035 4.982364 18.253771
Sb -8.282424 4.982364 14.937161
Sb -8.282424 1.665753 18.253771
Sb -8.282424 4.982364 21.570382
Sb -8.282424 8.298974 -8.279114
Sb -11.599035 8.298974 -4.962504
Sb -11.599035 11.615585 -1.645893
Sb -8.282424 11.615585 -4.962504
Sb -8.282424 8.298974 -1.645893
Sb -11.599035 8.298974 1.670718
Sb -11.599035 11.615585 4.987329
Sb -8.282424 11.615585 1.670718
Sb -8.282424 8.298974 4.987329
Sb -11.599035 8.298974 8.303939
Sb -11.599035 11.615585 11.620550
Sb -8.282424 11.615585 8.303939
Sb -8.282424 8.298974 11.620550
Sb -11.599035 8.298974 14.937161
Sb -11.599035 11.615585 18.253771
Sb -8.282424 11.615585 14.937161
Sb -8.282424 8.298974 18.253771
Sb -11.599035 8.298974 21.570382
Sb -11.599035 11.615585 24.886993
Sb -8.282424 11.615585 21.570382
Sb -8.282424 8.298974 24.886993
Sb -8.282424 14.932196 -1.645893
Sb -11.599035 14.932196 1.670718
Sb -11.599035 18.248806 4.987329
Sb -8.282424 18.248806 1.670718
Sb -8.282424 14.932196 4.987329
Sb -11.599035 14.932196 8.303939
Sb -11.599035 18.248806 11.620550
Sb -8.282424 18.248806 8.303939
Sb -8.282424 14.932196 11.620550
Sb -11.599035 14.932196 14.937161
Sb -11.599035 18.248806 18.253771
Sb -8.282424 18.248806 14.937161
Sb -8.282424 14.932196 18.253771
Sb -11.599035 14.932196 21.570382
Sb -8.282424 21.565417 4.987329
Sb -11.599035 21.565417 8.303939
Sb -11.599035 24.882028 11.620550
Sb -8.282424 24.882028 8.303939
Sb -8.282424 21.565417 11.620550
Sb -11.599035 21.565417 14.937161
Sb -4.965814 -21.550522 -8.279114
Sb -4.965814 -24.867133 -4.962504
Sb -4.965814 -21.550522 -1.645893
Sb -1.649203 -21.550522 -4.962504
Sb -1.649203 -24.867133 -1.645893
Sb -1.649203 -21.550522 1.670718
Sb -4.965814 -14.917301 -14.912336
Sb -4.965814 -18.233911 -11.595725
Sb -4.965814 -14.917301 -8.279114
Sb -1.649203 -14.917301 -11.595725
Sb -1.649203 -18.233911 -8.279114
Sb -4.965814 -18.233911 -4.962504
Sb -4.965814 -14.917301 -1.645893
Sb -1.649203 -14.917301 -4.962504
Sb -1.649203 -18.233911 -1.645893
Sb -4.965814 -18.233911 1.670718
Sb -4.965814 -14.917301 4.987329
Sb -1.649203 -14.917301 1.670718
Sb -1.649203 -18.233911 4.987329
Sb -1.649203 -14.917301 8.303939
Sb -4.965814 -8.284079 -21.545557
Sb -4.965814 -11.600690 -18.228946
Sb -4.965814 -8.284079 -14.912336
Sb -1.649203 -8.284079 -18.228946
Sb -1.649203 -11.600690 -14.912336
Sb -4.965814 -11.600690 -11.595725
Sb -4.965814 -8.284079 -8.279114
Sb -1.649203 -8.284079 -11.595725
Sb -1.649203 -11.600690 -8.279114
Sb -4.965814 -11.600690 -4.962504
Sb -4.965814 -8.284079 -1.645893
Sb -1.649203 -8.284079 -4.962504
Sb -1.649203 -11.600690 -1.645893
Sb -4.965814 -11.600690 1.670718
Sb -4.965814 -8.284079 4.987329
Sb -1.649203 -8.284079 1.670718
Sb -1.649203 -11.600690 4.987329
Sb -4.965814 -11.600690 8.303939
Sb -4.965814 -8.284079 11.620550
Sb -1.649203 -8.284079 8.303939
Sb -1.649203 -11.600690 11.620550
Sb -1.649203 -8.284079 14.937161
Sb -4.965814 -4.967469 -24.862168
Sb -4.965814 -1.650858 -21.545557
Sb -1.649203 -1.650858 -24.862168
Sb -1.649203 -4.967469 -21.545557
Sb -4.965814 -4.967469 -18.228946
Sb -4.965814 -1.650858 -14.912336
Sb -1.649203 -1.650858 -18.228946
Sb -1.649203 -4.967469 -14.912336
Sb -4.965814 -4.967469 -11.595725
Sb -4.965814 -1.650858 -8.279114
Sb -1.649203 -1.650858 -11.595725
Sb -1.649203 -4.967469 -8.279114
Sb -4.965814 -4.967469 -4.962504
Sb -4.965814 -1.650858 -1.645893
Sb -1.649203 -1.650858 -4.962504
Sb -1.649203 -4.967469 -1.645893
Sb -4.965814 -4.967469 1.670718
Sb -4.965814 -1.650858 4.987329
Sb -1.649203 -1.650858 1.670718
Sb -1.649203 -4.967469 4.987329
Sb -4.965814 -4.967469 8.303939
Sb -4.965814 -1.650858 11.620550
Sb -1.649203 -1.650858 8.303939
Sb -1.649203 -4.967469 11.620550
Sb -4.965814 -4.967469 14.937161
Sb -4.965814 -1.650858 18.253771
Sb -1.649203 -1.650858 14.937161
Sb -1.649203 -4.967469 18.253771
Sb -1.649203 -1.650858 21.570382
Sb -1.649203 1.665753 -21.545557
Sb -4.965814 1.665753 -18.228946
Sb -4.965814 4.982364 -14.912336
Sb -1.649203 4.982364 -18.228946
Sb -1.649203 1.665753 -14.912336
Sb -4.965814 1.665753 -11.595725
Sb -4.965814 4.982364 -8.279114
Sb -1.649203 4.982364 -11.595725
Sb -1.649203 1.665753 -8.279114
Sb -4.965814 1.665753 -4.962504
Sb -4.965814 4.982364 -1.645893
Sb -1.649203 4.982364 -4.962504
Sb -1.649203 1.665753 -1.645893
Sb -4.965814 1.665753 1.670718
Sb -4.965814 4.982364 4.987329
Sb -1.649203 4.982364 1.670718
Sb -1.649203 1.665753 4.987329
Sb -4.965814 1.665753 8.303939
Sb -4.965814 4.982364 11.620550
Sb -1.649203 4.982364 8.303939
Sb -1.649203 1.665753 11.620550
Sb -4.965814 1.665753 14.937161
Sb -4.965814 4.982364 18.253771
Sb -1.649203 4.982364 14.937161
Sb -1.649203 1.665753 18.253771
Sb -4.965814 1.665753 21.570382
Sb -4.965814 4.982364 24.886993
Sb -1.649203 4.982364 21.570382
Sb -1.649203 1.665753 24.886993
Sb -1.649203 8.298974 -14.912336
Sb -4.965814 8.298974 -11.595725
Sb -4.965814 11.615585 -8.279114
Sb -1.649203 11.615585 -11.595725
Sb -1.649203 8.298974 -8.279114
Sb -4.965814 8.298974 -4.962504
Sb -4.965814 11.615585 -1.645893
Sb -1.649203 11.615585 -4.962504
Sb -1.649203 8.298974 -1.645893
Sb -4.965814 8.298974 1.670718
Sb -4.965814 11.615585 4.987329
Sb -1.649203 11.615585 1.670718
Sb -1.649203 8.298974 4.987329
Sb -4.965814 8.298974 8.303939
Sb -4.965814 11.615585 11.620550
Sb -1.649203 11.615585 8.303939
Sb -1.649203 8.298974 11.620550
Sb -4.965814 8.298974 14.937161
Sb -4.965814 11.615585 18.253771
Sb -1.649203 11.615585 14.937161
Sb -1.649203 8.298974 18.253771
Sb -4.965814 8.298974 21.570382
Sb -1.649203 14.932196 -8.279114
Sb -4.965814 14.932196 -4.962504
Sb -4.965814 18.248806 -1.645893
Sb -1.649203 18.248806 -4.962504
Sb -1.649203 14.932196 -1.645893
Sb -4.965814 14.932196 1.670718
Sb -4.965814 18.248806 4.987329
Sb -1.649203 18.248806 1.670718
Sb -1.649203 14.932196 4.987329
Sb -4.965814 14.932196 8.303939
Sb -4.965814 18.248806 11.620550
Sb -1.649203 18.248806 8.303939
Sb -1.649203 14.932196 11.620550
Sb -4.965814 14.932196 14.937161
Sb -1.649203 21.565417 -1.645893
Sb -4.965814 21.565417 1.670718
Sb -4.965814 24.882028 4.987329
Sb -1.649203 24.882028 1.670718
Sb -1.649203 21.565417 4.987329
Sb -4.965814 21.565417 8.303939
Sb 1.667408 -21.550522 -1.645893
Sb 1.667408 -24.867133 1.670718
Sb 1.667408 -21.550522 4.987329
Sb 4.984019 -21.550522 1.670718
Sb 4.984019 -24.867133 4.987329
Sb 4.984019 -21.550522 8.303939
Sb 1.667408 -14.917301 -8.279114
Sb 1.667408 -18.233911 -4.962504
Sb 1.667408 -14.917301 -1.645893
Sb 4.984019 -14.917301 -4.962504
Sb 4.984019 -18.233911 -1.645893
Sb 1.667408 -18.233911 1.670718
Sb 1.667408 -14.917301 4.987329
Sb 4.984019 -14.917301 1.670718
Sb 4.984019 -18.233911 4.987329
Sb 1.667408 -18.233911 8.303939
Sb 1.667408 -14.917301 11.620550
Sb 4.984019 -14.917301 8.303939
Sb 4.984019 -18.233911 11.620550
Sb 4.984019 -14.917301 14.937161
Sb 1.667408 -8.284079 -14.912336
Sb 1.667408 -11.600690 -11.595725
Sb 1.667408 -8.284079 -8.279114
Sb 4.984019 -8.284079 -11.595725
Sb 4.984019 -11.600690 -8.279114
Sb 1.667408 -11.600690 -4.962504
Sb 1.667408 -8.284079 -1.645893
Sb 4.984019 -8.284079 -4.962504
Sb 4.984019 -11.600690 -1.645893
Sb 1.667408 -11.600690 1.670718
Sb 1.667408 -8.284079 4.987329
Sb 4.984019 -8.284079 1.670718
Sb 4.984019 -11.600690 4.987329
Sb 1.667408 -11.600690 8.303939
Sb 1.667408 -8.284079 11.620550
Sb 4.984019 -8.284079 8.303939
Sb 4.984019 -11.600690 11.620550
Sb 1.667408 -11.600690 14.937161
Sb 1.667408 -8.284079 18.253771
Sb 4.984019 -8.284079 14.937161
Sb 4.984019 -11.600690 18.253771
Sb 4.984019 -8.284079 21.570382
Sb 1.667408 -1.650858 -21.545557
Sb 1.667408 -4.967469 -18.228946
Sb 1.667408 -1.650858 -14.912336
Sb 4.984019 -1.650858 -18.228946
Sb 4.984019 -4.967469 -14.912336
Sb 1.667408 -4.967469 -11.595725
Sb 1.667408 -1.650858 -8.279114
Sb 4.984019 -1.650858 -11.595725
Sb 4.984019 -4.967469 -8.279114
Sb 1.667408 -4.967469 -4.962504
Sb 1.667408 -1.650858 -1.645893
Sb 4.984019 -1.650858 -4.962504
Sb 4.984019 -4.967469 -1.645893
Sb 1.667408 -4.967469 1.670718
Sb 1.667408 -1.650858 4.987329
Sb 4.984019 -1.650858 1.670718
Sb 4.984019 -4.967469 4.987329
Sb 1.667408 -4.967469 8.303939
Sb 1.667408 -1.650858 11.620550
Sb 4.984019 -1.650858 8.303939
Sb 4.984019 -4.967469 11.620550
Sb 1.667408 -4.967469 14.937161
Sb 1.667408 -1.650858 18.253771
Sb 4.984019 -1.650858 14.937161
Sb 4.984019 -4.967469 18.253771
Sb 1.667408 -4.967469 21.570382
Sb 1.667408 -1.650858 24.886993
Sb 4.984019 -1.650858 21.570382
Sb 4.984019 -4.967469 24.886993
Sb 1.667408 1.665753 -24.862168
Sb 1.667408 4.982364 -21.545557
Sb 4.984019 4.982364 -24.862168
Sb 4.984019 1.665753 -21.545557
Sb 1.667408 1.665753 -18.228946
Sb 1.667408 4.982364 -14.912336
Sb 4.984019 4.982364 -18.228946
Sb 4.984019 1.665753 -14.912336
Sb 1.667408 1.665753 -11.595725
Sb 1.667408 4.982364 -8.279114
Sb 4.984019 4.982364 -11.595725
Sb 4.984019 1.665753 -8.279114
Sb 1.667408 1.665753 -4.962504
Sb 1.667408 4.982364 -1.645893
Sb 4.984019 4.982364 -4.962504
Sb 4.984019 1.665753 -1.645893
Sb 1.667408 1.665753 1.670718
Sb 1.667408 4.982364 4.987329
Sb 4.984019 4.982364 1.670718
Sb 4.984019 1.665753 4.987329
Sb 1.667408 1.665753 8.303939
Sb 1.667408 4.982364 11.620550
Sb 4.984019 4.982364 8.303939
Sb 4.984019 1.665753 11.620550
Sb 1.667408 1.665753 14.937161
Sb 1.667408 4.982364 18.253771
Sb 4.984019 4.982364 14.937161
Sb 4.984019 1.665753 18.253771
Sb 1.667408 1.665753 21.570382
Sb 4.984019 8.298974 -21.545557
Sb 1.667408 8.298974 -18.228946
Sb 1.667408 11.615585 -14.912336
Sb 4.984019 11.615585 -18.228946
Sb 4.984019 8.298974 -14.912336
Sb 1.667408 8.298974 -11.595725
Sb 1.667408 11.615585 -8.279114
Sb 4.984019 11.615585 -11.595725
Sb 4.984019 8.298974 -8.279114
Sb 1.667408 8.298974 -4.962504
Sb 1.667408 11.615585 -1.645893
Sb 4.984019 11.615585 -4.962504
Sb 4.984019 8.298974 -1.645893
Sb 1.667408 8.298974 1.670718
Sb 1.667408 11.615585 4.987329
Sb 4.984019 11.615585 1.670718
Sb 4.984019 8.298974 4.987329
Sb 1.667408 8.298974 8.303939
Sb 1.667408 11.615585 11.620550
Sb 4.984019 11.615585 8.303939
Sb 4.984019 8.298974 11.620550
Sb 1.667408 8.298974 14.937161
Sb 4.984019 14.932196 -14.912336
Sb 1.667408 14.932196 -11.595725
Sb 1.667408 18.248806 -8.279114
Sb 4.984019 18.248806 -11.595725
Sb 4.984019 14.932196 -8.279114
Sb 1.667408 14.932196 -4.962504
Sb 1.667408 18.248806 -1.645893
Sb 4.984019 18.248806 -4.962504
Sb 4.984019 14.932196 -1.645893
Sb 1.667408 14.932196 1.670718
Sb 1.667408 18.248806 4.987329
Sb 4.984019 18.248806 1.670718
Sb 4.984019 14.932196 4.987329
Sb 1.667408 14.932196 8.303939
Sb 4.984019 21.565417 -8.279114
Sb 1.667408 21.565417 -4.962504
Sb 1.667408 24.882028 -1.645893
Sb 4.984019 24.882028 -4.962504
Sb 4.984019 21.565417 -1.645893
Sb 1.667408 21.565417 1.670718
Sb 8.300629 -21.550522 4.987329
Sb 8.300629 -24.867133 8.303939
Sb 8.300629 -21.550522 11.620550
Sb 11.617240 -21.550522 8.303939
Sb 11.617240 -24.867133 11.620550
Sb 11.617240 -21.550522 14.937161
Sb 8.300629 -14.917301 -1.645893
Sb 8.300629 -18.233911 1.670718
Sb 8.300629 -14.917301 4.987329
Sb 11.617240 -14.917301 1.670718
Sb 11.617240 -18.233911 4.987329
Sb 8.300629 -18.233911 8.303939
Sb 8.300629 -14.917301 11.620550
Sb 11.617240 -14.917301 8.303939
Sb 11.617240 -18.233911 11.620550
Sb 8.300629 -18.233911 14.937161
Sb 8.300629 -14.917301 18.253771
Sb 11.617240 -14.917301 14.937161
Sb 11.617240 -18.233911 18.253771
Sb 11.617240 -14.917301 21.570382
Sb 8.300629 -8.284079 -8.279114
Sb 8.300629 -11.600690 -4.962504
Sb 8.300629 -8.284079 -1.645893
Sb 11.617240 -8.284079 -4.962504
Sb 11.617240 -11.600690 -1.645893
Sb 8.300629 -11.600690 1.670718
Sb 8.300629 -8.284079 4.987329
Sb 11.617240 -8.284079 1.670718
Sb 11.617240 -11.600690 4.987329
Sb 8.300629 -11.600690 8.303939
Sb 8.300629 -8.284079 11.620550
Sb 11.617240 -8.284079 8.303939
Sb 11.617240 -11.600690 11.620550
Sb 8.300629 -11.600690 14.937161
Sb 8.300629 -8.284079 18.253771
Sb 11.617240 -8.284079 14.937161
Sb 11.617240 -11.600690 18.253771
Sb 8.300629 -11.600690 21.570382
Sb 8.300629 -8.284079 24.886993
Sb 11.617240 -8.284079 21.570382
Sb 11.617240 -11.600690 24.886993
Sb 8.300629 -1.650858 -14.912336
Sb 8.300629 -4.967469 -11.595725
Sb 8.300629 -1.650858 -8.279114
Sb 11.617240 -1.650858 -11.595725
Sb 11.617240 -4.967469 -8.279114
Sb 8.300629 -4.967469 -4.962504
Sb 8.300629 -1.650858 -1.645893
Sb 11.617240 -1.650858 -4.962504
Sb 11.617240 -4.967469 -1.645893
Sb 8.300629 -4.967469 1.670718
Sb 8.300629 -1.650858 4.987329
Sb 11.617240 -1.650858 1.670718
Sb 11.617240 -4.967469 4.987329
Sb 8.300629 -4.967469 8.303939
Sb 8.300629 -1.650858 11.620550
Sb 11.617240 -1.650858 8.303939
Sb 11.617240 -4.967469 11.620550
Sb 8.300629 -4.967469 14.937161
Sb 8.300629 -1.650858 18.253771
Sb 11.617240 -1.650858 14.937161
Sb 11.617240 -4.967469 18.253771
Sb 8.300629 -4.967469 21.570382
Sb 8.300629 4.982364 -21.545557
Sb 8.300629 1.665753 -18.228946
Sb 8.300629 4.982364 -14.912336
Sb 11.617240 4.982364 -18.228946
Sb 11.617240 1.665753 -14.912336
Sb 8.300629 1.665753 -11.595725
Sb 8.300629 4.982364 -8.279114
Sb 11.617240 4.982364 -11.595725
Sb 11.617240 1.665753 -8.279114
Sb 8.300629 1.665753 -4.962504
Sb 8.300629 4.982364 -1.645893
Sb 11.617240 4.982364 -4.962504
Sb 11.617240 1.665753 -1.645893
Sb 8.300629 1.665753 1.670718
Sb 8.300629 4.982364 4.987329
Sb 11.617240 4.982364 1.670718
Sb 11.617240 1.665753 4.987329
Sb 8.300629 1.665753 8.303939
Sb 8.300629 4.982364 11.620550
Sb 11.617240 4.982364 8.303939
Sb 11.617240 1.665753 11.620550
Sb 8.300629 1.665753 14.937161
Sb 8.300629 8.298974 -24.862168
Sb 8.300629 11.615585 -21.545557
Sb 11.617240 11.615585 -24.862168
Sb 11.617240 8.298974 -21.545557
Sb 8.300629 8.298974 -18.228946
Sb 8.300629 11.615585 -14.912336
Sb 11.617240 11.615585 -18.228946
Sb 11.617240 8.298974 -14.912336
Sb 8.300629 8.298974 -11.595725
Sb 8.300629 11.615585 -8.279114
Sb 11.617240 11.615585 -11.595725
Sb 11.617240 8.298974 -8.279114
Sb 8.300629 8.298974 -4.962504
Sb 8.300629 11.615585 -1.645893
Sb 11.617240 11.615585 -4.962504
Sb 11.617240 8.298974 -1.645893
Sb 8.300629 8.298974 1.670718
Sb 8.300629 11.615585 4.987329
Sb 11.617240 11.615585 1.670718
Sb 11.617240 8.298974 4.987329
Sb 8.300629 8.298974 8.303939
Sb 11.617240 14.932196 -21.545557
Sb 8.300629 14.932196 -18.228946
Sb 8.300629 18.248806 -14.912336
Sb 11.617240 18.248806 -18.228946
Sb 11.617240 14.932196 -14.912336
Sb 8.300629 14.932196 -11.595725
Sb 8.300629 18.248806 -8.279114
Sb 11.617240 18.248806 -11.595725
Sb 11.617240 14.932196 -8.279114
Sb 8.300629 14.932196 -4.962504
Sb 8.300629 18.248806 -1.645893
Sb 11.617240 18.248806 -4.962504
Sb 11.617240 14.932196 -1.645893
Sb 8.300629 14.932196 1.670718
Sb 11.617240 21.565417 -14.912336
Sb 8.300629 21.565417 -11.595725
Sb 8.300629 24.882028 -8.279114
Sb 11.617240 24.882028 -11.595725
Sb 11.617240 21.565417 -8.279114
Sb 8.300629 21.565417 -4.962504
Sb 14.933851 -21.550522 11.620550
Sb 14.933851 -24.867133 14.937161
Sb 14.933851 -21.550522 18.253771
Sb 18.250461 -21.550522 14.937161
Sb 14.933851 -14.917301 4.987329
Sb 14.933851 -18.233911 8.303939
Sb 14.933851 -14.917301 11.620550
Sb 18.250461 -14.917301 8.303939
Sb 18.250461 -18.233911 11.620550
Sb 14.933851 -18.233911 14.937161
Sb 14.933851 -14.917301 18.253771
Sb 18.250461 -14.917301 14.937161
Sb 18.250461 -18.233911 18.253771
Sb 14.933851 -18.233911 21.570382
Sb 14.933851 -14.917301 24.886993
Sb 18.250461 -14.917301 21.570382
Sb 14.933851 -8.284079 -1.645893
Sb 14.933851 -11.600690 1.670718
Sb 14.933851 -8.284079 4.987329
Sb 18.250461 -8.284079 1.670718
Sb 18.250461 -11.600690 4.987329
Sb 14.933851 -11.600690 8.303939
Sb 14.933851 -8.284079 11.620550
Sb 18.250461 -8.284079 8.303939
Sb 18.250461 -11.600690 11.620550
Sb 14.933851 -11.600690 14.937161
Sb 14.933851 -8.284079 18.253771
Sb 18.250461 -8.284079 14.937161
Sb 18.250461 -11.600690 18.253771
Sb 14.933851 -11.600690 21.570382
Sb 14.933851 -1.650858 -8.279114
Sb 14.933851 -4.967469 -4.962504
Sb 14.933851 -1.650858 -1.645893
Sb 18.250461 -1.650858 -4.962504
Sb 18.250461 -4.967469 -1.645893
Sb 14.933851 -4.967469 1.670718
Sb 14.933851 -1.650858 4.987329
Sb 18.250461 -1.650858 1.670718
Sb 18.250461 -4.967469 4.987329
Sb 14.933851 -4.967469 8.303939
Sb 14.933851 -1.650858 11.620550
Sb 18.250461 -1.650858 8.303939
Sb 18.250461 -4.967469 11.620550
Sb 14.933851 -4.967469 14.937161
Sb 14.933851 4.982364 -14.912336
Sb 14.933851 1.665753 -11.595725
Sb 14.933851 4.982364 -8.279114
Sb 18.250461 4.982364 -11.595725
Sb 18.250461 1.665753 -8.279114
Sb 14.933851 1.665753 -4.962504
Sb 14.933851 4.982364 -1.645893
Sb 18.250461 4.982364 -4.962504
Sb 18.250461 1.665753 -1.645893
Sb 14.933851 1.665753 1.670718
Sb 14.933851 4.982364 4.987329
Sb 18.250461 4.982364 1.670718
Sb 18.250461 1.665753 4.987329
Sb 14.933851 1.665753 8.303939
Sb 14.933851 11.615585 -21.545557
Sb 14.933851 8.298974 -18.228946
Sb 14.933851 11.615585 -14.912336
Sb 18.250461 11.615585 -18.228946
Sb 18.250461 8.298974 -14.912336
Sb 14.933851 8.298974 -11.595725
Sb 14.933851 11.615585 -8.279114
Sb 18.250461 11.615585 -11.595725
Sb 18.250461 8.298974 -8.279114
Sb 14.933851 8.298974 -4.962504
Sb 14.933851 11.615585 -1.645893
Sb 18.250461 11.615585 -4.962504
Sb 18.250461 8.298974 -1.645893
Sb 14.933851 8.298974 1.670718
Sb 14.933851 14.932196 -24.862168
Sb 14.933851 18.248806 -21.545557
Sb 18.250461 14.932196 -21.545557
Sb 14.933851 14.932196 -18.228946
Sb 14.933851 18.248806 -14.912336
Sb 18.250461 18.248806 -18.228946
Sb 18.250461 14.932196 -14.912336
Sb 14.933851 14.932196 -11.595725
Sb 14.933851 18.248806 -8.279114
Sb 18.250461 18.248806 -11.595725
Sb 18.250461 14.932196 -8.279114
Sb 14.933851 14.932196 -4.962504
Sb 14.933851 21.565417 -18.228946
Sb 14.933851 24.882028 -14.912336
Sb 18.250461 21.565417 -14.912336
Sb 14.933851 21.565417 -11.595725
Sb 21.567072 -14.917301 11.620550
Sb 21.567072 -18.233911 14.937161
Sb 21.567072 -14.917301 18.253771
Sb 24.883683 -14.917301 14.937161
Sb 21.567072 -8.284079 4.987329
Sb 21.567072 -11.600690 8.303939
Sb 21.567072 -8.284079 11.620550
Sb 24.883683 -8.284079 8.303939
Sb 24.883683 -11.600690 11.620550
Sb 21.567072 -11.600690 14.937161
Sb 21.567072 -1.650858 -1.645893
Sb 21.567072 -4.967469 1.670718
Sb 21.567072 -1.650858 4.987329
Sb 24.883683 -1.650858 1.670718
Sb 24.883683 -4.967469 4.987329
Sb 21.567072 -4.967469 8.303939
Sb 21.567072 4.982364 -8.279114
Sb 21.567072 1.665753 -4.962504
Sb 21.567072 4.982364 -1.645893
Sb 24.883683 4.982364 -4.962504
Sb 24.883683 1.665753 -1.645893
Sb 21.567072 1.665753 1.670718
Sb 21.567072 11.615585 -14.912336
Sb 21.567072 8.298974 -11.595725
Sb 21.567072 11.615585 -8.279114
Sb 24.883683 11.615585 -11.595725
Sb 24.883683 8.298974 -8.279114
Sb 21.567072 8.298974 -4.962504
Sb 21.567072 14.932196 -18.228946
Sb 21.567072 18.248806 -14.912336
Sb 24.883683 14.932196 -14.912336
Sb 21.567072 14.932196 -11.595725
Cl -28.182089 -14.917301 -11.595725
Cl 28.200294 14.932196 -11.595725
Cl -14.915646 28.198639 11.620550
Cl 14.933851 -28.183744 11.620550
Cl -14.915646 -11.600690 -28.178779
Cl -11.599035 14.932196 28.203604
Cl 11.617240 -14.917301 28.203604
Cl 14.933851 11.615585 -28.178779
Cl -28.182089 11.615585 14.937161
Cl -11.599035 -28.183744 -14.912336
Cl 11.617240 28.198639 -14.912336
Cl 28.200294 -11.600690 14.937161
Cl -28.182089 1.665753 -1.645893
Cl -1.649203 -28.183744 1.670718
Cl 1.667408 28.198639 1.670718
Cl 28.200294 -1.650858 -1.645893
Cl -4.965814 -8.284079 -28.178779
Cl -8.282424 4.982364 28.203604
Cl 8.300629 -4.967469 28.203604
Cl 4.984019 8.298974 -28.178779
Cl -28.182089 -4.967469 -1.645893
Cl -4.965814 28.198639 1.670718
Cl 4.984019 -28.183744 1.670718
Cl 28.200294 4.982364 -1.645893
Cl -28.182089 -8.284079 -11.595725
Cl -8.282424 28.198639 11.620550
Cl 8.300629 -28.183744 11.620550
Cl 28.200294 8.298974 -11.595725
Cl -28.182089 11.615585 8.303939
Cl -11.599035 -28.183744 -8.279114
Cl 11.617240 28.198639 -8.279114
Cl 28.200294 -11.600690 8.303939
Cl -4.965814 -1.650858 -28.178779
Cl -1.649203 4.982364 28.203604
Cl 1.667408 -4.967469 28.203604
Cl 4.984019 1.665753 -28.178779
Cl -28.182089 4.982364 8.303939
Cl -4.965814 -28.183744 -8.279114
Cl 4.984019 28.198639 -8.279114
Cl 28.200294 -4.967469 8.303939
Cl -8.282424 -11.600690 -28.178779
Cl -11.599035 8.298974 28.203604
Cl 11.617240 -8.284079 28.203604
Cl 8.300629 11.615585 -28.178779
Cl -28.182089 -4.967469 -8.279114
Cl -4.965814 28.198639 8.303939
Cl 4.984019 -28.183744 8.303939
Cl 28.200294 4.982364 -8.279114
Cl -28.182089 1.665753 4.987329
Cl -1.649203 -28.183744 -4.962504
Cl 1.667408 28.198639 -4.962504
Cl 28.200294 -1.650858 4.987329
Cl -1.649203 1.665753 -28.178779
Cl -1.649203 -1.650858 28.203604
Cl 11.617240 -8.284079 -11.595725
Cl 8.300629 11.615585 11.620550
Cl -11.599035 -11.600690 8.303939
Cl -11.599035 11.615585 -8.279114
Cl 14.933851 -18.233911 1.670718
Cl 18.250461 14.932196 -1.645893
Cl -14.915646 -1.650858 -18.228946
Cl 1.667408 -14.917301 18.253771
Cl 1.667408 -14.917301 -14.912336
Cl 14.933851 1.665753 14.937161
Cl -18.232256 -18.233911 -4.962504
Cl -18.232256 18.248806 4.987329
Cl -1.649203 14.932196 18.253771
Cl 14.933851 1.665753 -18.228946
Cl -14.915646 -1.650858 14.937161
Cl -1.649203 14.932196 -14.912336
Cl 21.567072 -21.550522 11.620550
Cl 21.567072 21.565417 -11.595725
Cl -11.599035 -21.550522 -21.545557
Cl 21.567072 -11.600690 21.570382
Cl -21.548867 11.615585 21.570382
Cl 11.617240 21.565417 -21.545557
Cl -11.599035 21.565417 21.570382
Cl 21.567072 11.615585 -21.545557
Cl -21.548867 -11.600690 -21.545557
Cl 11.617240 -21.550522 21.570382
Cl 8.300629 18.248806 4.987329
Cl 18.250461 -8.284079 -4.962504
Cl -21.548867 8.298974 -1.645893
Cl -8.282424 -21.550522 1.670718
Cl 4.984019 -4.967469 -21.545557
Cl 4.984019 4.982364 21.570382
Cl -4.965814 -8.284079 18.253771
Cl -8.282424 4.982364 -18.228946
Cl 8.300629 -18.233911 -4.962504
Cl 18.250461 8.298974 4.987329
Cl -18.232256 -11.600690 1.670718
Cl -11.599035 18.248806 -1.645893
Cl -21.548867 1.665753 -8.279114
Cl -1.649203 -21.550522 8.303939
Cl -4.965814 -21.550522 -14.912336
Cl 21.567072 -4.967469 14.937161
Cl -21.548867 4.982364 14.937161
Cl 4.984019 21.565417 -14.912336
Cl 11.617240 21.565417 -1.645893
Cl 21.567072 -11.600690 1.670718
Cl -24.865478 18.248806 11.620550
Cl -18.232256 -24.867133 -11.595725
Cl -1.649203 21.565417 11.620550
Cl 21.567072 1.665753 -11.595725
Cl -21.548867 -4.967469 4.987329
Cl -4.965814 21.565417 -4.962504
Cl -4.965814 11.615585 24.886993
Cl 11.617240 4.982364 -24.862168
Cl 11.617240 -24.867133 4.987329
Cl 24.883683 11.615585 -4.962504
Cl -24.865478 -11.600690 -4.962504
Cl -11.599035 24.882028 4.987329
Cl -11.599035 -4.967469 -24.862168
Cl 4.984019 -11.600690 24.886993
Cl -4.965814 -14.917301 -21.545557
Cl 14.933851 -4.967469 21.570382
Cl -11.599035 1.665753 21.570382
Cl 1.667408 11.615585 -21.545557
Cl 1.667408 -21.550522 -8.279114
Cl 21.567072 1.665753 8.303939
Cl -14.915646 4.982364 -11.595725
Cl -4.965814 -14.917301 11.620550
Cl 14.933851 28.198639 -11.595725
Cl 28.200294 -14.917301 11.620550
Cl -21.548867 -4.967469 -14.912336
Cl 4.984019 -21.550522 14.937161
Cl -11.599035 28.198639 14.937161
Cl 28.200294 11.615585 -14.912336
Cl -14.915646 11.615585 28.203604
Cl 11.617240 14.932196 -28.178779
Cl -11.599035 -14.917301 -28.178779
Cl 14.933851 -11.600690 28.203604
Cl -28.182089 8.298974 4.987329
Cl -8.282424 -28.183744 -4.962504
Cl 4.984019 28.198639 -1.645893
Cl 28.200294 -4.967469 1.670718
Cl -28.182089 -11.600690 -14.912336
Cl 11.617240 -28.183744 14.937161
Cl 1.667408 -1.650858 -28.178779
Cl 1.667408 1.665753 28.203604
Cl -24.865478 -18.233911 -11.595725
Cl -18.232256 24.882028 11.620550
Cl 8.300629 -8.284079 -14.912336
Cl 8.300629 8.298974 14.937161
Cl -14.915646 -4.967469 11.620550
Cl -4.965814 14.932196 -11.595725
Cl 18.250461 21.565417 -8.279114
Cl 21.567072 -18.233911 8.303939
Cl -18.232256 11.615585 -1.645893
Cl -11.599035 -18.233911 1.670718
Cl -8.282424 21.565417 18.253771
Cl 21.567072 8.298974 -18.228946
Cl 11.617240 -14.917301 -4.962504
Cl 14.933851 11.615585 4.987329
Cl -4.965814 -4.967469 21.570382
Cl -4.965814 4.982364 -21.545557
Cl 1.667408 21.565417 8.303939
Cl 21.567072 -1.650858 -8.279114
Cl -18.232256 8.298974 21.570382
Cl 8.300629 18.248806 -21.545557
Cl 1.667408 -8.284079 -21.545557
Cl 8.300629 1.665753 21.570382
Cl -18.232256 -8.284079 -21.545557
Cl 8.300629 -18.233911 21.570382
Cl 4.984019 -24.867133 -1.645893
Cl 24.883683 4.982364 1.670718
Cl -21.548867 -1.650858 8.303939
Cl -1.649203 21.565417 -8.279114
Cl 1.667408 11.615585 18.253771
Cl 11.617240 -1.650858 -18.228946
Cl -21.548867 14.932196 4.987329
Cl -14.915646 -21.550522 -4.962504
Cl 4.984019 -14.917301 -11.595725
Cl 14.933851 4.982364 11.620550
Cl -8.282424 -8.284079 14.937161
Cl -8.282424 8.298974 -14.912336
Cl 11.617240 -28.183744 8.303939
Cl 28.200294 11.615585 -8.279114
Cl -28.182089 14.932196 11.620550
Cl -14.915646 -28.183744 -11.595725
Cl -8.282424 11.615585 28.203604
Cl 11.617240 8.298974 -28.178779
Cl -28.182089 -8.284079 -4.962504
Cl -8.282424 28.198639 4.987329
Cl 4.984019 14.932196 11.620550
Cl 14.933851 -4.967469 -11.595725
Cl -11.599035 -8.284079 -28.178779
Cl 8.300629 -11.600690 28.203604
Cl -11.599035 -24.867133 -18.228946
Cl 24.883683 -11.600690 18.253771
Cl -28.182089 8.298974 11.620550
Cl 8.300629 28.198639 -11.595725
Cl -28.182089 -1.650858 -4.962504
Cl 1.667408 -28.183744 4.987329
Cl 8.300629 28.198639 -4.962504
Cl 28.200294 -8.284079 4.987329
Cl 18.250461 -24.867133 11.620550
Cl 24.883683 18.248806 -11.595725
Cl -4.965814 1.665753 28.203604
Cl 1.667408 4.982364 -28.178779
Cl -11.599035 18.248806 24.886993
Cl 18.250461 11.615585 -24.862168
Cl -21.548867 -21.550522 -11.595725
Cl -21.548867 21.565417 11.620550
Cl -11.599035 -18.233911 -24.862168
Cl 18.250461 -11.600690 24.886993
Cl -24.865478 11.615585 18.253771
Cl 11.617240 24.882028 -18.228946
Cl -8.282424 -28.183744 -11.595725
Cl 28.200294 -8.284079 11.620550
Cl -28.182089 4.982364 1.670718
Cl -4.965814 -28.183744 -1.645893
Cl -24.865478 -11.600690 -18.228946
Cl 11.617240 -24.867133 18.253771
Cl -1.649203 28.198639 4.987329
Cl 28.200294 1.665753 -4.962504
Cl -1.649203 -4.967469 -28.178779
Cl 4.984019 -1.650858 28.203604
Cl -28.182089 -1.650858 1.670718
Cl -1.649203 28.198639 -1.645893
Cl 18.250461 -14.917301 1.670718
Cl 14.933851 18.248806 -1.645893
Cl -18.232256 4.982364 -8.279114
Cl -4.965814 -18.233911 8.303939
Cl -14.915646 -11.600690 4.987329
Cl -11.599035 14.932196 -4.962504
Cl -1.649203 -14.917301 -18.228946
Cl 14.933851 -1.650858 18.253771
Cl -14.915646 1.665753 18.253771
Cl 1.667408 14.932196 -18.228946
Cl -4.965814 18.248806 18.253771
Cl 18.250461 4.982364 -18.228946
Cl -11.599035 -1.650858 -21.545557
Cl 1.667408 -11.600690 21.570382
Cl 11.617240 -21.550522 1.670718
Cl 21.567072 11.615585 -1.645893
Cl -21.548867 -11.600690 -1.645893
Cl -11.599035 21.565417 1.670718
Cl 4.984019 21.565417 4.987329
Cl 21.567072 -4.967469 -4.962504
Cl -1.649203 8.298974 24.886993
Cl 8.300629 1.665753 -24.862168
Cl -18.232256 -1.650858 -14.912336
Cl 1.667408 -18.233911 14.937161
Cl -1.649203 -21.550522 -11.595725
Cl 21.567072 -1.650858 11.620550
Cl -21.548867 1.665753 11.620550
Cl 1.667408 21.565417 -11.595725
Cl -8.282424 -1.650858 21.570382
Cl -1.649203 8.298974 -21.545557
Cl 11.617240 14.932196 4.987329
Cl 14.933851 -11.600690 -4.962504
Cl 18.250461 24.882028 -11.595725
Cl 24.883683 -18.233911 11.620550
Cl -18.232256 11.615585 24.886993
Cl 11.617240 18.248806 -24.862168
Cl 1.667408 -28.183744 -1.645893
Cl 28.200294 1.665753 1.670718
Cl -28.182089 -11.600690 -8.279114
Cl -11.599035 28.198639 8.303939
Cl -11.599035 24.882028 18.253771
Cl 24.883683 11.615585 -18.228946
Cl -18.232256 -11.600690 -24.862168
Cl 11.617240 -18.233911 24.886993
Cl -8.282424 -4.967469 -28.178779
Cl 4.984019 -8.284079 28.203604
Cl 8.300629 -28.183744 4.987329
Cl 28.200294 8.298974 -4.962504
Cl -24.865478 4.982364 -1.645893
Cl -4.965814 -24.867133 1.670718
Cl -8.282424 -18.233911 -21.545557
Cl 18.250461 -8.284079 21.570382
Cl 8.300629 24.882028 -1.645893
Cl 24.883683 -8.284079 1.670718
Cl -18.232256 14.932196 1.670718
Cl -14.915646 -18.233911 -1.645893
Cl -24.865478 -4.967469 -11.595725
Cl 4.984019 -24.867133 11.620550
Cl -1.649203 -8.284079 -24.862168
Cl 8.300629 -1.650858 24.886993
Cl -4.965814 24.882028 11.620550
Cl 24.883683 4.982364 -11.595725
Cl -11.599035 8.298974 -11.595725
Cl -8.282424 -11.600690 11.620550
Cl -21.548867 -18.233911 -8.279114
Cl -18.232256 21.565417 8.303939
Cl 18.250461 -21.550522 8.303939
Cl 21.567072 18.248806 -8.279114
Cl -11.599035 4.982364 24.886993
Cl 4.984019 11.615585 -24.862168
Cl 4.984019 8.298974 18.253771
Cl 8.300629 -4.967469 -18.228946
Cl -24.865478 -4.967469 1.670718
Cl -4.965814 24.882028 -1.645893
Cl 4.984019 -21.550522 -4.962504
Cl 21.567072 4.982364 4.987329
Cl -4.965814 1.665753 -24.862168
Cl -1.649203 -4.967469 24.886993
Cl 8.300629 -11.600690 -11.595725
Cl 11.617240 8.298974 11.620550
Cl -24.865478 11.615585 4.987329
Cl -11.599035 -24.867133 -4.962504
Cl -4.965814 8.298974 28.203604
Cl 8.300629 4.982364 -28.178779
Cl -18.232256 4.982364 18.253771
Cl 4.984019 18.248806 -18.228946
Cl 1.667408 18.248806 11.620550
Cl 18.250461 -1.650858 -11.595725
Cl -18.232256 -4.967469 8.303939
Cl -4.965814 18.248806 -8.279114
Cl 14.933851 21.565417 -4.962504
Cl 21.567072 -14.917301 4.987329
Cl -14.915646 1.665753 -14.912336
Cl -1.649203 -14.917301 14.937161
Cl -4.965814 14.932196 21.570382
Cl 14.933851 4.982364 -21.545557
Cl -18.232256 8.298974 -4.962504
Cl -8.282424 -18.233911 4.987329
Cl 1.667408 -11.600690 -18.228946
Cl 11.617240 1.665753 18.253771
Cl -11.599035 -4.967469 14.937161
Cl -4.965814 11.615585 -14.912336
Cl -8.282424 -24.867133 -14.912336
Cl 24.883683 -8.284079 14.937161
Cl -24.865478 8.298974 14.937161
Cl 8.300629 24.882028 -14.912336
Cl -1.649203 -24.867133 -8.279114
Cl 24.883683 -1.650858 8.303939
Cl -21.548867 -8.284079 -18.228946
Cl 8.300629 -21.550522 18.253771
Cl 1.667408 24.882028 4.987329
Cl 24.883683 -1.650858 -4.962504
Cl -24.865478 -1.650858 -8.279114
Cl 1.667408 -24.867133 8.303939
Cl -4.965814 -11.600690 -24.862168
Cl 11.617240 -4.967469 24.886993
Cl -24.865478 1.665753 8.303939
Cl 1.667408 24.882028 -8.279114
Cl 4.984019 -1.650858 -24.862168
