634
GaSb-Sb-Ga288Sb259Cl87-clean
Ga -10.720755 -10.720755 -10.720755
Ga -10.720755 -13.789359 -7.652151
Ga -13.789359 -10.720755 -7.652151
Ga -10.720755 -10.720755 -4.583546
Ga -10.720755 -7.652151 -13.789359
Ga -13.789359 -7.652151 -10.720755
Ga -10.720755 -4.583546 -10.720755
Ga -10.720755 -7.652151 -7.652151
Ga -13.789359 -4.583546 -7.652151
Ga -13.789359 -7.652151 -4.583546
Ga -10.720755 -4.583546 -4.583546
Ga -10.720755 -7.652151 -1.514942
Ga -13.789359 -4.583546 -1.514942
Ga -10.720755 -4.583546 1.553662
Ga -10.720755 -1.514942 -7.652151
Ga -13.789359 -1.514942 -4.583546
Ga -10.720755 1.553662 -4.583546
Ga -10.720755 -1.514942 -1.514942
Ga -13.789359 1.553662 -1.514942
Ga -13.789359 -1.514942 1.553662
Ga -10.720755 1.553662 1.553662
Ga -10.720755 -1.514942 4.622267
Ga -13.789359 1.553662 4.622267
Ga -10.720755 1.553662 7.690871
Ga -10.720755 4.622267 -1.514942
Ga -13.789359 4.622267 1.553662
Ga -10.720755 7.690871 1.553662
Ga -10.720755 4.622267 4.622267
Ga -13.789359 7.690871 4.622267
Ga -13.789359 4.622267 7.690871
Ga -10.720755 7.690871 7.690871
Ga -10.720755 4.622267 10.759475
Ga -13.789359 7.690871 10.759475
Ga -10.720755 7.690871 13.828080
Ga -10.720755 10.759475 4.622267
Ga -13.789359 10.759475 7.690871
Ga -10.720755 13.828080 7.690871
Ga -10.720755 10.759475 10.759475
Ga -7.652151 -10.720755 -13.789359
Ga -7.652151 -13.789359 -10.720755
Ga -4.583546 -10.720755 -10.720755
Ga -4.583546 -13.789359 -7.652151
Ga -7.652151 -10.720755 -7.652151
Ga -7.652151 -13.789359 -4.583546
Ga -4.583546 -10.720755 -4.583546
Ga -4.583546 -13.789359 -1.514942
Ga -7.652151 -10.720755 -1.514942
Ga -4.583546 -10.720755 1.553662
Ga -4.583546 -7.652151 -13.789359
Ga -7.652151 -4.583546 -13.789359
Ga -7.652151 -7.652151 -10.720755
Ga -4.583546 -4.583546 -10.720755
Ga -4.583546 -7.652151 -7.652151
Ga -7.652151 -4.583546 -7.652151
Ga -7.652151 -7.652151 -4.583546
Ga -4.583546 -4.583546 -4.583546
Ga -4.583546 -7.652151 -1.514942
Ga -7.652151 -4.583546 -1.514942
Ga -7.652151 -7.652151 1.553662
Ga -4.583546 -4.583546 1.553662
Ga -4.583546 -7.652151 4.622267
Ga -7.652151 -4.583546 4.622267
Ga -4.583546 -4.583546 7.690871
Ga -4.583546 -1.514942 -13.789359
Ga -7.652151 -1.514942 -10.720755
Ga -4.583546 1.553662 -10.720755
Ga -4.583546 -1.514942 -7.652151
Ga -7.652151 1.553662 -7.652151
Ga -7.652151 -1.514942 -4.583546
Ga -4.583546 1.553662 -4.583546
Ga -4.583546 -1.514942 -1.514942
Ga -7.652151 1.553662 -1.514942
Ga -7.652151 -1.514942 1.553662
Ga -4.583546 1.553662 1.553662
Ga -4.583546 -1.514942 4.622267
Ga -7.652151 1.553662 4.622267
Ga -7.652151 -1.514942 7.690871
Ga -4.583546 1.553662 7.690871
Ga -4.583546 -1.514942 10.759475
Ga -7.652151 1.553662 10.759475
Ga -4.583546 1.553662 13.828080
Ga -4.583546 4.622267 -7.652151
Ga -7.652151 4.622267 -4.583546
Ga -4.583546 7.690871 -4.583546
Ga -4.583546 4.622267 -1.514942
Ga -7.652151 7.690871 -1.514942
Ga -7.652151 4.622267 1.553662
Ga -4.583546 7.690871 1.553662
Ga -4.583546 4.622267 4.622267
Ga -7.652151 7.690871 4.622267
Ga -7.652151 4.622267 7.690871
Ga -4.583546 7.690871 7.690871
Ga -4.583546 4.622267 10.759475
Ga -7.652151 7.690871 10.759475
Ga -7.652151 4.622267 13.828080
Ga -4.583546 7.690871 13.828080
Ga -4.583546 10.759475 -1.514942
Ga -7.652151 10.759475 1.553662
Ga -4.583546 13.828080 1.553662
Ga -4.583546 10.759475 4.622267
Ga -7.652151 13.828080 4.622267
Ga -7.652151 10.759475 7.690871
Ga -4.583546 13.828080 7.690871
Ga -4.583546 10.759475 10.759475
Ga -7.652151 13.828080 10.759475
Ga -7.652151 10.759475 13.828080
Ga -1.514942 -10.720755 -7.652151
Ga -1.514942 -13.789359 -4.583546
Ga 1.553662 -10.720755 -4.583546
Ga 1.553662 -13.789359 -1.514942
Ga -1.514942 -10.720755 -1.514942
Ga -1.514942 -13.789359 1.553662
Ga 1.553662 -10.720755 1.553662
Ga 1.553662 -13.789359 4.622267
Ga -1.514942 -10.720755 4.622267
Ga 1.553662 -10.720755 7.690871
Ga -1.514942 -4.583546 -13.789359
Ga -1.514942 -7.652151 -10.720755
Ga 1.553662 -4.583546 -10.720755
Ga 1.553662 -7.652151 -7.652151
Ga -1.514942 -4.583546 -7.652151
Ga -1.514942 -7.652151 -4.583546
Ga 1.553662 -4.583546 -4.583546
Ga 1.553662 -7.652151 -1.514942
Ga -1.514942 -4.583546 -1.514942
Ga -1.514942 -7.652151 1.553662
Ga 1.553662 -4.583546 1.553662
Ga 1.553662 -7.652151 4.622267
Ga -1.514942 -4.583546 4.622267
Ga -1.514942 -7.652151 7.690871
Ga 1.553662 -4.583546 7.690871
Ga 1.553662 -7.652151 10.759475
Ga -1.514942 -4.583546 10.759475
Ga 1.553662 -4.583546 13.828080
Ga 1.553662 -1.514942 -13.789359
Ga -1.514942 1.553662 -13.789359
Ga -1.514942 -1.514942 -10.720755
Ga 1.553662 1.553662 -10.720755
Ga 1.553662 -1.514942 -7.652151
Ga -1.514942 1.553662 -7.652151
Ga -1.514942 -1.514942 -4.583546
Ga 1.553662 1.553662 -4.583546
Ga 1.553662 -1.514942 -1.514942
Ga -1.514942 1.553662 -1.514942
Ga -1.514942 -1.514942 1.553662
Ga 1.553662 1.553662 1.553662
Ga 1.553662 -1.514942 4.622267
Ga -1.514942 1.553662 4.622267
Ga -1.514942 -1.514942 7.690871
Ga 1.553662 1.553662 7.690871
Ga 1.553662 -1.514942 10.759475
Ga -1.514942 1.553662 10.759475
Ga -1.514942 -1.514942 13.828080
Ga 1.553662 1.553662 13.828080
Ga 1.553662 4.622267 -13.789359
Ga -1.514942 4.622267 -10.720755
Ga 1.553662 7.690871 -10.720755
Ga 1.553662 4.622267 -7.652151
Ga -1.514942 7.690871 -7.652151
Ga -1.514942 4.622267 -4.583546
Ga 1.553662 7.690871 -4.583546
Ga 1.553662 4.622267 -1.514942
Ga -1.514942 7.690871 -1.514942
Ga -1.514942 4.622267 1.553662
Ga 1.553662 7.690871 1.553662
Ga 1.553662 4.622267 4.622267
Ga -1.514942 7.690871 4.622267
Ga -1.514942 4.622267 7.690871
Ga 1.553662 7.690871 7.690871
Ga 1.553662 4.622267 10.759475
Ga -1.514942 7.690871 10.759475
Ga -1.514942 4.622267 13.828080
Ga 1.553662 10.759475 -7.652151
Ga -1.514942 10.759475 -4.583546
Ga 1.553662 13.828080 -4.583546
Ga 1.553662 10.759475 -1.514942
Ga -1.514942 13.828080 -1.514942
Ga -1.514942 10.759475 1.553662
Ga 1.553662 13.828080 1.553662
Ga 1.553662 10.759475 4.622267
Ga -1.514942 13.828080 4.622267
Ga -1.514942 10.759475 7.690871
Ga 4.622267 -10.720755 -1.514942
Ga 4.622267 -13.789359 1.553662
Ga 7.690871 -10.720755 1.553662
Ga 7.690871 -13.789359 4.622267
Ga 4.622267 -10.720755 4.622267
Ga 4.622267 -13.789359 7.690871
Ga 7.690871 -10.720755 7.690871
Ga 7.690871 -13.789359 10.759475
Ga 4.622267 -10.720755 10.759475
Ga 7.690871 -10.720755 13.828080
Ga 4.622267 -4.583546 -7.652151
Ga 4.622267 -7.652151 -4.583546
Ga 7.690871 -4.583546 -4.583546
Ga 7.690871 -7.652151 -1.514942
Ga 4.622267 -4.583546 -1.514942
Ga 4.622267 -7.652151 1.553662
Ga 7.690871 -4.583546 1.553662
Ga 7.690871 -7.652151 4.622267
Ga 4.622267 -4.583546 4.622267
Ga 4.622267 -7.652151 7.690871
Ga 7.690871 -4.583546 7.690871
Ga 7.690871 -7.652151 10.759475
Ga 4.622267 -4.583546 10.759475
Ga 4.622267 -7.652151 13.828080
Ga 7.690871 -4.583546 13.828080
Ga 4.622267 1.553662 -13.789359
Ga 4.622267 -1.514942 -10.720755
Ga 7.690871 1.553662 -10.720755
Ga 7.690871 -1.514942 -7.652151
Ga 4.622267 1.553662 -7.652151
Ga 4.622267 -1.514942 -4.583546
Ga 7.690871 1.553662 -4.583546
Ga 7.690871 -1.514942 -1.514942
Ga 4.622267 1.553662 -1.514942
Ga 4.622267 -1.514942 1.553662
Ga 7.690871 1.553662 1.553662
Ga 7.690871 -1.514942 4.622267
Ga 4.622267 1.553662 4.622267
Ga 4.622267 -1.514942 7.690871
Ga 7.690871 1.553662 7.690871
Ga 7.690871 -1.514942 10.759475
Ga 4.622267 1.553662 10.759475
Ga 4.622267 -1.514942 13.828080
Ga 7.690871 4.622267 -13.789359
Ga 4.622267 7.690871 -13.789359
Ga 4.622267 4.622267 -10.720755
Ga 7.690871 7.690871 -10.720755
Ga 7.690871 4.622267 -7.652151
Ga 4.622267 7.690871 -7.652151
Ga 4.622267 4.622267 -4.583546
Ga 7.690871 7.690871 -4.583546
Ga 7.690871 4.622267 -1.514942
Ga 4.622267 7.690871 -1.514942
Ga 4.622267 4.622267 1.553662
Ga 7.690871 7.690871 1.553662
Ga 7.690871 4.622267 4.622267
Ga 4.622267 7.690871 4.622267
Ga 4.622267 4.622267 7.690871
Ga 7.690871 10.759475 -13.789359
Ga 4.622267 10.759475 -10.720755
Ga 7.690871 13.828080 -10.720755
Ga 7.690871 10.759475 -7.652151
Ga 4.622267 13.828080 -7.652151
Ga 4.622267 10.759475 -4.583546
Ga 7.690871 13.828080 -4.583546
Ga 7.690871 10.759475 -1.514942
Ga 4.622267 13.828080 -1.514942
Ga 4.622267 10.759475 1.553662
Ga 10.759475 -10.720755 4.622267
Ga 10.759475 -13.789359 7.690871
Ga 13.828080 -10.720755 7.690871
Ga 10.759475 -10.720755 10.759475
Ga 10.759475 -4.583546 -1.514942
Ga 10.759475 -7.652151 1.553662
Ga 13.828080 -4.583546 1.553662
Ga 13.828080 -7.652151 4.622267
Ga 10.759475 -4.583546 4.622267
Ga 10.759475 -7.652151 7.690871
Ga 13.828080 -4.583546 7.690871
Ga 13.828080 -7.652151 10.759475
Ga 10.759475 -4.583546 10.759475
Ga 10.759475 -7.652151 13.828080
Ga 10.759475 1.553662 -7.652151
Ga 10.759475 -1.514942 -4.583546
Ga 13.828080 1.553662 -4.583546
Ga 13.828080 -1.514942 -1.514942
Ga 10.759475 1.553662 -1.514942
Ga 10.759475 -1.514942 1.553662
Ga 13.828080 1.553662 1.553662
Ga 13.828080 -1.514942 4.622267
Ga 10.759475 1.553662 4.622267
Ga 10.759475 -1.514942 7.690871
Ga 10.759475 7.690871 -13.789359
Ga 10.759475 4.622267 -10.720755
Ga 13.828080 7.690871 -10.720755
Ga 13.828080 4.622267 -7.652151
Ga 10.759475 7.690871 -7.652151
Ga 10.759475 4.622267 -4.583546
Ga 13.828080 7.690871 -4.583546
Ga 13.828080 4.622267 -1.514942
Ga 10.759475 7.690871 -1.514942
Ga 10.759475 4.622267 1.553662
Ga 10.759475 10.759475 -10.720755
Ga 13.828080 10.759475 -7.652151
Ga 10.759475 13.828080 -7.652151
Ga 10.759475 10.759475 -4.583546
Sb -9.186453 -9.186453 -12.255057
Sb -12.255057 -9.186453 -9.186453
Sb -9.186453 -9.186453 -6.117848
Sb -9.186453 -12.255057 -9.186453
Sb -12.255057 -9.186453 -3.049244
Sb -9.186453 -9.186453 0.019360
Sb -9.186453 -12.255057 -3.049244
Sb -9.186453 -3.049244 -12.255057
Sb -12.255057 -6.117848 -6.117848
Sb -12.255057 -3.049244 -9.186453
Sb -9.186453 -3.049244 -6.117848
Sb -9.186453 -6.117848 -9.186453
Sb -12.255057 -6.117848 0.019360
Sb -12.255057 -3.049244 -3.049244
Sb -9.186453 -3.049244 0.019360
Sb -9.186453 -6.117848 -3.049244
Sb -12.255057 -3.049244 3.087965
Sb -9.186453 -3.049244 6.156569
Sb -9.186453 -6.117848 3.087965
Sb -12.255057 0.019360 -6.117848
Sb -9.186453 3.087965 -6.117848
Sb -9.186453 0.019360 -9.186453
Sb -12.255057 0.019360 0.019360
Sb -12.255057 3.087965 -3.049244
Sb -9.186453 3.087965 0.019360
Sb -9.186453 0.019360 -3.049244
Sb -12.255057 0.019360 6.156569
Sb -12.255057 3.087965 3.087965
Sb -9.186453 3.087965 6.156569
Sb -9.186453 0.019360 3.087965
Sb -12.255057 3.087965 9.225173
Sb -9.186453 3.087965 12.293778
Sb -9.186453 0.019360 9.225173
Sb -12.255057 6.156569 0.019360
Sb -9.186453 9.225173 0.019360
Sb -9.186453 6.156569 -3.049244
Sb -12.255057 6.156569 6.156569
Sb -12.255057 9.225173 3.087965
Sb -9.186453 9.225173 6.156569
Sb -9.186453 6.156569 3.087965
Sb -12.255057 9.225173 9.225173
Sb -9.186453 9.225173 12.293778
Sb -9.186453 6.156569 9.225173
Sb -9.186453 12.293778 3.087965
Sb -9.186453 12.293778 9.225173
Sb -3.049244 -9.186453 -12.255057
Sb -6.117848 -12.255057 -6.117848
Sb -6.117848 -9.186453 -9.186453
Sb -3.049244 -9.186453 -6.117848
Sb -3.049244 -12.255057 -9.186453
Sb -6.117848 -12.255057 0.019360
Sb -6.117848 -9.186453 -3.049244
Sb -3.049244 -9.186453 0.019360
Sb -3.049244 -12.255057 -3.049244
Sb -6.117848 -9.186453 3.087965
Sb -3.049244 -9.186453 6.156569
Sb -3.049244 -12.255057 3.087965
Sb -6.117848 -6.117848 -12.255057
Sb -3.049244 -3.049244 -12.255057
Sb -6.117848 -6.117848 -6.117848
Sb -6.117848 -3.049244 -9.186453
Sb -3.049244 -3.049244 -6.117848
Sb -3.049244 -6.117848 -9.186453
Sb -6.117848 -6.117848 0.019360
Sb -6.117848 -3.049244 -3.049244
Sb -3.049244 -3.049244 0.019360
Sb -3.049244 -6.117848 -3.049244
Sb -6.117848 -3.049244 3.087965
Sb -3.049244 -3.049244 6.156569
Sb -3.049244 -6.117848 3.087965
Sb -6.117848 -3.049244 9.225173
Sb -3.049244 -3.049244 12.293778
Sb -3.049244 -6.117848 9.225173
Sb -6.117848 0.019360 -12.255057
Sb -3.049244 3.087965 -12.255057
Sb -6.117848 0.019360 -6.117848
Sb -6.117848 3.087965 -9.186453
Sb -3.049244 3.087965 -6.117848
Sb -3.049244 0.019360 -9.186453
Sb -6.117848 0.019360 0.019360
Sb -6.117848 3.087965 -3.049244
Sb -3.049244 3.087965 0.019360
Sb -3.049244 0.019360 -3.049244
Sb -6.117848 0.019360 6.156569
Sb -6.117848 3.087965 3.087965
Sb -3.049244 3.087965 6.156569
Sb -3.049244 0.019360 3.087965
Sb -6.117848 0.019360 12.293778
Sb -6.117848 3.087965 9.225173
Sb -3.049244 3.087965 12.293778
Sb -3.049244 0.019360 9.225173
Sb -6.117848 6.156569 -6.117848
Sb -3.049244 9.225173 -6.117848
Sb -3.049244 6.156569 -9.186453
Sb -6.117848 6.156569 0.019360
Sb -6.117848 9.225173 -3.049244
Sb -3.049244 9.225173 0.019360
Sb -3.049244 6.156569 -3.049244
Sb -6.117848 6.156569 6.156569
Sb -6.117848 9.225173 3.087965
Sb -3.049244 9.225173 6.156569
Sb -3.049244 6.156569 3.087965
Sb -6.117848 6.156569 12.293778
Sb -6.117848 9.225173 9.225173
Sb -3.049244 9.225173 12.293778
Sb -3.049244 6.156569 9.225173
Sb -6.117848 12.293778 0.019360
Sb -3.049244 12.293778 -3.049244
Sb -6.117848 12.293778 6.156569
Sb -3.049244 12.293778 3.087965
Sb -3.049244 12.293778 9.225173
Sb 0.019360 -12.255057 -6.117848
Sb 0.019360 -9.186453 -9.186453
Sb 3.087965 -9.186453 -6.117848
Sb 0.019360 -12.255057 0.019360
Sb 0.019360 -9.186453 -3.049244
Sb 3.087965 -9.186453 0.019360
Sb 3.087965 -12.255057 -3.049244
Sb 0.019360 -12.255057 6.156569
Sb 0.019360 -9.186453 3.087965
Sb 3.087965 -9.186453 6.156569
Sb 3.087965 -12.255057 3.087965
Sb 0.019360 -9.186453 9.225173
Sb 3.087965 -9.186453 12.293778
Sb 3.087965 -12.255057 9.225173
Sb 0.019360 -6.117848 -12.255057
Sb 3.087965 -3.049244 -12.255057
Sb 0.019360 -6.117848 -6.117848
Sb 0.019360 -3.049244 -9.186453
Sb 3.087965 -3.049244 -6.117848
Sb 3.087965 -6.117848 -9.186453
Sb 0.019360 -6.117848 0.019360
Sb 0.019360 -3.049244 -3.049244
Sb 3.087965 -3.049244 0.019360
Sb 3.087965 -6.117848 -3.049244
Sb 0.019360 -6.117848 6.156569
Sb 0.019360 -3.049244 3.087965
Sb 3.087965 -3.049244 6.156569
Sb 3.087965 -6.117848 3.087965
Sb 0.019360 -6.117848 12.293778
Sb 0.019360 -3.049244 9.225173
Sb 3.087965 -3.049244 12.293778
Sb 3.087965 -6.117848 9.225173
Sb 0.019360 0.019360 -12.255057
Sb 3.087965 3.087965 -12.255057
Sb 0.019360 0.019360 -6.117848
Sb 0.019360 3.087965 -9.186453
Sb 3.087965 3.087965 -6.117848
Sb 3.087965 0.019360 -9.186453
Sb 0.019360 0.019360 0.019360
Sb 0.019360 3.087965 -3.049244
Sb 3.087965 3.087965 0.019360
Sb 3.087965 0.019360 -3.049244
Sb 0.019360 0.019360 6.156569
Sb 0.019360 3.087965 3.087965
Sb 3.087965 3.087965 6.156569
Sb 3.087965 0.019360 3.087965
Sb 0.019360 0.019360 12.293778
Sb 0.019360 3.087965 9.225173
Sb 3.087965 3.087965 12.293778
Sb 3.087965 0.019360 9.225173
Sb 0.019360 6.156569 -12.255057
Sb 3.087965 9.225173 -12.255057
Sb 0.019360 6.156569 -6.117848
Sb 0.019360 9.225173 -9.186453
Sb 3.087965 9.225173 -6.117848
Sb 3.087965 6.156569 -9.186453
Sb 0.019360 6.156569 0.019360
Sb 0.019360 9.225173 -3.049244
Sb 3.087965 9.225173 0.019360
Sb 3.087965 6.156569 -3.049244
Sb 0.019360 6.156569 6.156569
Sb 0.019360 9.225173 3.087965
Sb 3.087965 9.225173 6.156569
Sb 3.087965 6.156569 3.087965
Sb 0.019360 6.156569 12.293778
Sb 0.019360 9.225173 9.225173
Sb 3.087965 6.156569 9.225173
Sb 0.019360 12.293778 -6.117848
Sb 3.087965 12.293778 -9.186453
Sb 0.019360 12.293778 0.019360
Sb 3.087965 12.293778 -3.049244
Sb 0.019360 12.293778 6.156569
Sb 3.087965 12.293778 3.087965
Sb 6.156569 -12.255057 0.019360
Sb 6.156569 -9.186453 -3.049244
Sb 9.225173 -9.186453 0.019360
Sb 6.156569 -12.255057 6.156569
Sb 6.156569 -9.186453 3.087965
Sb 9.225173 -9.186453 6.156569
Sb 9.225173 -12.255057 3.087965
Sb 6.156569 -9.186453 9.225173
Sb 9.225173 -9.186453 12.293778
Sb 9.225173 -12.255057 9.225173
Sb 6.156569 -3.049244 -9.186453
Sb 9.225173 -3.049244 -6.117848
Sb 6.156569 -6.117848 0.019360
Sb 6.156569 -3.049244 -3.049244
Sb 9.225173 -3.049244 0.019360
Sb 9.225173 -6.117848 -3.049244
Sb 6.156569 -6.117848 6.156569
Sb 6.156569 -3.049244 3.087965
Sb 9.225173 -3.049244 6.156569
Sb 9.225173 -6.117848 3.087965
Sb 6.156569 -6.117848 12.293778
Sb 6.156569 -3.049244 9.225173
Sb 9.225173 -3.049244 12.293778
Sb 9.225173 -6.117848 9.225173
Sb 6.156569 0.019360 -12.255057
Sb 9.225173 3.087965 -12.255057
Sb 6.156569 0.019360 -6.117848
Sb 6.156569 3.087965 -9.186453
Sb 9.225173 3.087965 -6.117848
Sb 9.225173 0.019360 -9.186453
Sb 6.156569 0.019360 0.019360
Sb 6.156569 3.087965 -3.049244
Sb 9.225173 3.087965 0.019360
Sb 9.225173 0.019360 -3.049244
Sb 6.156569 0.019360 6.156569
Sb 6.156569 3.087965 3.087965
Sb 9.225173 3.087965 6.156569
Sb 9.225173 0.019360 3.087965
Sb 6.156569 0.019360 12.293778
Sb 6.156569 3.087965 9.225173
Sb 9.225173 0.019360 9.225173
Sb 6.156569 6.156569 -12.255057
Sb 9.225173 9.225173 -12.255057
Sb 6.156569 6.156569 -6.117848
Sb 6.156569 9.225173 -9.186453
Sb 9.225173 9.225173 -6.117848
Sb 9.225173 6.156569 -9.186453
Sb 6.156569 6.156569 0.019360
Sb 6.156569 9.225173 -3.049244
Sb 9.225173 9.225173 0.019360
Sb 9.225173 6.156569 -3.049244
Sb 6.156569 6.156569 6.156569
Sb 6.156569 9.225173 3.087965
Sb 9.225173 6.156569 3.087965
Sb 6.156569 12.293778 -6.117848
Sb 9.225173 12.293778 -9.186453
Sb 6.156569 12.293778 0.019360
Sb 9.225173 12.293778 -3.049244
Sb 12.293778 -9.186453 3.087965
Sb 12.293778 -9.186453 9.225173
Sb 12.293778 -6.117848 0.019360
Sb 12.293778 -3.049244 -3.049244
Sb 12.293778 -6.117848 6.156569
Sb 12.293778 -3.049244 3.087965
Sb 12.293778 -3.049244 9.225173
Sb 12.293778 0.019360 -6.117848
Sb 12.293778 3.087965 -9.186453
Sb 12.293778 0.019360 0.019360
Sb 12.293778 3.087965 -3.049244
Sb 12.293778 0.019360 6.156569
Sb 12.293778 3.087965 3.087965
Sb 12.293778 6.156569 -6.117848
Sb 12.293778 9.225173 -9.186453
Sb 12.293778 6.156569 0.019360
Sb 12.293778 9.225173 -3.049244
Cl -15.323661 -9.186453 -6.117848
Cl -15.323661 -3.049244 -6.117848
Cl -15.323661 -6.117848 -9.186453
Cl -15.323661 -3.049244 0.019360
Cl -15.323661 -6.117848 -3.049244
Cl -15.323661 3.087965 0.019360
Cl -15.323661 0.019360 -3.049244
Cl -15.323661 3.087965 6.156569
Cl -15.323661 0.019360 3.087965
Cl -15.323661 9.225173 6.156569
Cl -15.323661 6.156569 3.087965
Cl -15.323661 6.156569 9.225173
Cl -9.186453 -15.323661 -6.117848
Cl -12.255057 -12.255057 -6.117848
Cl -12.255057 -6.117848 -12.255057
Cl -9.186453 -6.117848 -15.323661
Cl -12.255057 6.156569 12.293778
Cl -9.186453 6.156569 15.362382
Cl -12.255057 12.293778 6.156569
Cl -9.186453 15.362382 6.156569
Cl -6.117848 -15.323661 -9.186453
Cl -3.049244 -15.323661 -6.117848
Cl -6.117848 -15.323661 -3.049244
Cl -3.049244 -15.323661 0.019360
Cl -6.117848 -12.255057 -12.255057
Cl -6.117848 -9.186453 -15.323661
Cl -6.117848 -3.049244 -15.323661
Cl -3.049244 -6.117848 -15.323661
Cl -6.117848 -6.117848 6.156569
Cl -3.049244 0.019360 -15.323661
Cl -6.117848 3.087965 15.362382
Cl -3.049244 0.019360 15.362382
Cl -6.117848 9.225173 15.362382
Cl -3.049244 6.156569 15.362382
Cl -3.049244 15.362382 0.019360
Cl -6.117848 15.362382 3.087965
Cl -3.049244 15.362382 6.156569
Cl -6.117848 12.293778 12.293778
Cl -6.117848 15.362382 9.225173
Cl 0.019360 -15.323661 -3.049244
Cl 3.087965 -15.323661 0.019360
Cl 0.019360 -15.323661 3.087965
Cl 3.087965 -15.323661 6.156569
Cl 0.019360 -3.049244 -15.323661
Cl 0.019360 -3.049244 15.362382
Cl 3.087965 -6.117848 15.362382
Cl 0.019360 3.087965 -15.323661
Cl 3.087965 0.019360 -15.323661
Cl 0.019360 3.087965 15.362382
Cl 3.087965 0.019360 15.362382
Cl 3.087965 6.156569 -15.323661
Cl 3.087965 15.362382 -6.117848
Cl 0.019360 15.362382 -3.049244
Cl 3.087965 15.362382 0.019360
Cl 0.019360 15.362382 3.087965
Cl 6.156569 -15.323661 3.087965
Cl 9.225173 -15.323661 6.156569
Cl 6.156569 -15.323661 9.225173
Cl 6.156569 -12.255057 12.293778
Cl 6.156569 -9.186453 15.362382
Cl 6.156569 -6.117848 -6.117848
Cl 6.156569 -3.049244 15.362382
Cl 9.225173 -6.117848 15.362382
Cl 6.156569 3.087965 -15.323661
Cl 6.156569 9.225173 -15.323661
Cl 9.225173 6.156569 -15.323661
Cl 6.156569 12.293778 -12.255057
Cl 6.156569 15.362382 -9.186453
Cl 9.225173 15.362382 -6.117848
Cl 6.156569 15.362382 -3.049244
Cl 12.293778 -12.255057 6.156569
Cl 15.362382 -9.186453 6.156569
Cl 15.362382 -3.049244 0.019360
Cl 15.362382 -3.049244 6.156569
Cl 15.362382 -6.117848 3.087965
Cl 12.293778 -6.117848 12.293778
Cl 15.362382 -6.117848 9.225173
Cl 15.362382 3.087965 -6.117848
Cl 15.362382 3.087965 0.019360
Cl 15.362382 0.019360 -3.049244
Cl 15.362382 0.019360 3.087965
Cl 12.293778 6.156569 -12.255057
Cl 15.362382 9.225173 -6.117848
Cl 15.362382 6.156569 -9.186453
Cl 15.362382 6.156569 -3.049244
Cl 12.293778 12.293778 -6.117848
Cl -12.255057 -12.255057 -12.255057
