1359
ZnSe-Se-Zn640Se561Cl158-clean
Zn -15.574266 -9.911465 -4.234074
Zn -15.574266 -12.743907 -1.401632
Zn -15.574266 -9.911465 1.430811
Zn -15.574266 -4.246580 -9.898959
Zn -15.574266 -7.079022 -7.066517
Zn -15.574266 -4.246580 -4.234074
Zn -15.574266 -7.079022 -1.401632
Zn -15.574266 -4.246580 1.430811
Zn -15.574266 -7.079022 4.263253
Zn -15.574266 -4.246580 7.095696
Zn -15.574266 -1.414137 -12.731402
Zn -15.574266 1.418305 -9.898959
Zn -15.574266 -1.414137 -7.066517
Zn -15.574266 1.418305 -4.234074
Zn -15.574266 -1.414137 -1.401632
Zn -15.574266 1.418305 1.430811
Zn -15.574266 -1.414137 4.263253
Zn -15.574266 1.418305 7.095696
Zn -15.574266 -1.414137 9.928138
Zn -15.574266 1.418305 12.760581
Zn -15.574266 4.250748 -7.066517
Zn -15.574266 7.083191 -4.234074
Zn -15.574266 4.250748 -1.401632
Zn -15.574266 7.083191 1.430811
Zn -15.574266 4.250748 4.263253
Zn -15.574266 7.083191 7.095696
Zn -15.574266 4.250748 9.928138
Zn -15.574266 9.915633 -1.401632
Zn -15.574266 12.748076 1.430811
Zn -15.574266 9.915633 4.263253
Zn -9.909380 -15.576350 -4.234074
Zn -12.741823 -15.576350 -1.401632
Zn -9.909380 -15.576350 1.430811
Zn -9.909380 -9.911465 -9.898959
Zn -9.909380 -12.743907 -7.066517
Zn -12.741823 -9.911465 -7.066517
Zn -12.741823 -12.743907 -4.234074
Zn -9.909380 -9.911465 -4.234074
Zn -9.909380 -12.743907 -1.401632
Zn -12.741823 -9.911465 -1.401632
Zn -12.741823 -12.743907 1.430811
Zn -9.909380 -9.911465 1.430811
Zn -9.909380 -12.743907 4.263253
Zn -12.741823 -9.911465 4.263253
Zn -9.909380 -9.911465 7.095696
Zn -9.909380 -4.246580 -15.563844
Zn -9.909380 -7.079022 -12.731402
Zn -12.741823 -4.246580 -12.731402
Zn -12.741823 -7.079022 -9.898959
Zn -9.909380 -4.246580 -9.898959
Zn -9.909380 -7.079022 -7.066517
Zn -12.741823 -4.246580 -7.066517
Zn -12.741823 -7.079022 -4.234074
Zn -9.909380 -4.246580 -4.234074
Zn -9.909380 -7.079022 -1.401632
Zn -12.741823 -4.246580 -1.401632
Zn -12.741823 -7.079022 1.430811
Zn -9.909380 -4.246580 1.430811
Zn -9.909380 -7.079022 4.263253
Zn -12.741823 -4.246580 4.263253
Zn -12.741823 -7.079022 7.095696
Zn -9.909380 -4.246580 7.095696
Zn -9.909380 -7.079022 9.928138
Zn -12.741823 -4.246580 9.928138
Zn -9.909380 -4.246580 12.760581
Zn -12.741823 -1.414137 -15.563844
Zn -9.909380 1.418305 -15.563844
Zn -9.909380 -1.414137 -12.731402
Zn -12.741823 1.418305 -12.731402
Zn -12.741823 -1.414137 -9.898959
Zn -9.909380 1.418305 -9.898959
Zn -9.909380 -1.414137 -7.066517
Zn -12.741823 1.418305 -7.066517
Zn -12.741823 -1.414137 -4.234074
Zn -9.909380 1.418305 -4.234074
Zn -9.909380 -1.414137 -1.401632
Zn -12.741823 1.418305 -1.401632
Zn -12.741823 -1.414137 1.430811
Zn -9.909380 1.418305 1.430811
Zn -9.909380 -1.414137 4.263253
Zn -12.741823 1.418305 4.263253
Zn -12.741823 -1.414137 7.095696
Zn -9.909380 1.418305 7.095696
Zn -9.909380 -1.414137 9.928138
Zn -12.741823 1.418305 9.928138
Zn -12.741823 -1.414137 12.760581
Zn -9.909380 1.418305 12.760581
Zn -9.909380 -1.414137 15.593023
Zn -12.741823 1.418305 15.593023
Zn -9.909380 4.250748 -12.731402
Zn -12.741823 4.250748 -9.898959
Zn -9.909380 7.083191 -9.898959
Zn -9.909380 4.250748 -7.066517
Zn -12.741823 7.083191 -7.066517
Zn -12.741823 4.250748 -4.234074
Zn -9.909380 7.083191 -4.234074
Zn -9.909380 4.250748 -1.401632
Zn -12.741823 7.083191 -1.401632
Zn -12.741823 4.250748 1.430811
Zn -9.909380 7.083191 1.430811
Zn -9.909380 4.250748 4.263253
Zn -12.741823 7.083191 4.263253
Zn -12.741823 4.250748 7.095696
Zn -9.909380 7.083191 7.095696
Zn -9.909380 4.250748 9.928138
Zn -12.741823 7.083191 9.928138
Zn -12.741823 4.250748 12.760581
Zn -9.909380 7.083191 12.760581
Zn -9.909380 4.250748 15.593023
Zn -9.909380 9.915633 -7.066517
Zn -12.741823 9.915633 -4.234074
Zn -9.909380 12.748076 -4.234074
Zn -9.909380 9.915633 -1.401632
Zn -12.741823 12.748076 -1.401632
Zn -12.741823 9.915633 1.430811
Zn -9.909380 12.748076 1.430811
Zn -9.909380 9.915633 4.263253
Zn -12.741823 12.748076 4.263253
Zn -12.741823 9.915633 7.095696
Zn -9.909380 12.748076 7.095696
Zn -9.909380 9.915633 9.928138
Zn -9.909380 15.580518 -1.401632
Zn -12.741823 15.580518 1.430811
Zn -9.909380 15.580518 4.263253
Zn -4.244495 -15.576350 -9.898959
Zn -7.076938 -15.576350 -7.066517
Zn -4.244495 -15.576350 -4.234074
Zn -7.076938 -15.576350 -1.401632
Zn -4.244495 -15.576350 1.430811
Zn -7.076938 -15.576350 4.263253
Zn -4.244495 -15.576350 7.095696
Zn -4.244495 -9.911465 -15.563844
Zn -4.244495 -12.743907 -12.731402
Zn -7.076938 -9.911465 -12.731402
Zn -7.076938 -12.743907 -9.898959
Zn -4.244495 -9.911465 -9.898959
Zn -4.244495 -12.743907 -7.066517
Zn -7.076938 -9.911465 -7.066517
Zn -7.076938 -12.743907 -4.234074
Zn -4.244495 -9.911465 -4.234074
Zn -4.244495 -12.743907 -1.401632
Zn -7.076938 -9.911465 -1.401632
Zn -7.076938 -12.743907 1.430811
Zn -4.244495 -9.911465 1.430811
Zn -4.244495 -12.743907 4.263253
Zn -7.076938 -9.911465 4.263253
Zn -7.076938 -12.743907 7.095696
Zn -4.244495 -9.911465 7.095696
Zn -4.244495 -12.743907 9.928138
Zn -7.076938 -9.911465 9.928138
Zn -4.244495 -9.911465 12.760581
Zn -7.076938 -7.079022 -15.563844
Zn -4.244495 -4.246580 -15.563844
Zn -4.244495 -7.079022 -12.731402
Zn -7.076938 -4.246580 -12.731402
Zn -7.076938 -7.079022 -9.898959
Zn -4.244495 -4.246580 -9.898959
Zn -4.244495 -7.079022 -7.066517
Zn -7.076938 -4.246580 -7.066517
Zn -7.076938 -7.079022 -4.234074
Zn -4.244495 -4.246580 -4.234074
Zn -4.244495 -7.079022 -1.401632
Zn -7.076938 -4.246580 -1.401632
Zn -7.076938 -7.079022 1.430811
Zn -4.244495 -4.246580 1.430811
Zn -4.244495 -7.079022 4.263253
Zn -7.076938 -4.246580 4.263253
Zn -7.076938 -7.079022 7.095696
Zn -4.244495 -4.246580 7.095696
Zn -4.244495 -7.079022 9.928138
Zn -7.076938 -4.246580 9.928138
Zn -7.076938 -7.079022 12.760581
Zn -4.244495 -4.246580 12.760581
Zn -4.244495 -7.079022 15.593023
Zn -7.076938 -4.246580 15.593023
Zn -7.076938 -1.414137 -15.563844
Zn -4.244495 1.418305 -15.563844
Zn -4.244495 -1.414137 -12.731402
Zn -7.076938 1.418305 -12.731402
Zn -7.076938 -1.414137 -9.898959
Zn -4.244495 1.418305 -9.898959
Zn -4.244495 -1.414137 -7.066517
Zn -7.076938 1.418305 -7.066517
Zn -7.076938 -1.414137 -4.234074
Zn -4.244495 1.418305 -4.234074
Zn -4.244495 -1.414137 -1.401632
Zn -7.076938 1.418305 -1.401632
Zn -7.076938 -1.414137 1.430811
Zn -4.244495 1.418305 1.430811
Zn -4.244495 -1.414137 4.263253
Zn -7.076938 1.418305 4.263253
Zn -7.076938 -1.414137 7.095696
Zn -4.244495 1.418305 7.095696
Zn -4.244495 -1.414137 9.928138
Zn -7.076938 1.418305 9.928138
Zn -7.076938 -1.414137 12.760581
Zn -4.244495 1.418305 12.760581
Zn -4.244495 -1.414137 15.593023
Zn -7.076938 1.418305 15.593023
Zn -7.076938 4.250748 -15.563844
Zn -4.244495 7.083191 -15.563844
Zn -4.244495 4.250748 -12.731402
Zn -7.076938 7.083191 -12.731402
Zn -7.076938 4.250748 -9.898959
Zn -4.244495 7.083191 -9.898959
Zn -4.244495 4.250748 -7.066517
Zn -7.076938 7.083191 -7.066517
Zn -7.076938 4.250748 -4.234074
Zn -4.244495 7.083191 -4.234074
Zn -4.244495 4.250748 -1.401632
Zn -7.076938 7.083191 -1.401632
Zn -7.076938 4.250748 1.430811
Zn -4.244495 7.083191 1.430811
Zn -4.244495 4.250748 4.263253
Zn -7.076938 7.083191 4.263253
Zn -7.076938 4.250748 7.095696
Zn -4.244495 7.083191 7.095696
Zn -4.244495 4.250748 9.928138
Zn -7.076938 7.083191 9.928138
Zn -7.076938 4.250748 12.760581
Zn -4.244495 7.083191 12.760581
Zn -4.244495 4.250748 15.593023
Zn -7.076938 7.083191 15.593023
Zn -4.244495 9.915633 -12.731402
Zn -7.076938 9.915633 -9.898959
Zn -4.244495 12.748076 -9.898959
Zn -4.244495 9.915633 -7.066517
Zn -7.076938 12.748076 -7.066517
Zn -7.076938 9.915633 -4.234074
Zn -4.244495 12.748076 -4.234074
Zn -4.244495 9.915633 -1.401632
Zn -7.076938 12.748076 -1.401632
Zn -7.076938 9.915633 1.430811
Zn -4.244495 12.748076 1.430811
Zn -4.244495 9.915633 4.263253
Zn -7.076938 12.748076 4.263253
Zn -7.076938 9.915633 7.095696
Zn -4.244495 12.748076 7.095696
Zn -4.244495 9.915633 9.928138
Zn -7.076938 12.748076 9.928138
Zn -7.076938 9.915633 12.760581
Zn -4.244495 12.748076 12.760581
Zn -4.244495 9.915633 15.593023
Zn -4.244495 15.580518 -7.066517
Zn -7.076938 15.580518 -4.234074
Zn -4.244495 15.580518 -1.401632
Zn -7.076938 15.580518 1.430811
Zn -4.244495 15.580518 4.263253
Zn -7.076938 15.580518 7.095696
Zn -4.244495 15.580518 9.928138
Zn -1.412053 -15.576350 -12.731402
Zn 1.420390 -15.576350 -9.898959
Zn -1.412053 -15.576350 -7.066517
Zn 1.420390 -15.576350 -4.234074
Zn -1.412053 -15.576350 -1.401632
Zn 1.420390 -15.576350 1.430811
Zn -1.412053 -15.576350 4.263253
Zn 1.420390 -15.576350 7.095696
Zn -1.412053 -15.576350 9.928138
Zn 1.420390 -15.576350 12.760581
Zn -1.412053 -12.743907 -15.563844
Zn 1.420390 -9.911465 -15.563844
Zn 1.420390 -12.743907 -12.731402
Zn -1.412053 -9.911465 -12.731402
Zn -1.412053 -12.743907 -9.898959
Zn 1.420390 -9.911465 -9.898959
Zn 1.420390 -12.743907 -7.066517
Zn -1.412053 -9.911465 -7.066517
Zn -1.412053 -12.743907 -4.234074
Zn 1.420390 -9.911465 -4.234074
Zn 1.420390 -12.743907 -1.401632
Zn -1.412053 -9.911465 -1.401632
Zn -1.412053 -12.743907 1.430811
Zn 1.420390 -9.911465 1.430811
Zn 1.420390 -12.743907 4.263253
Zn -1.412053 -9.911465 4.263253
Zn -1.412053 -12.743907 7.095696
Zn 1.420390 -9.911465 7.095696
Zn 1.420390 -12.743907 9.928138
Zn -1.412053 -9.911465 9.928138
Zn -1.412053 -12.743907 12.760581
Zn 1.420390 -9.911465 12.760581
Zn 1.420390 -12.743907 15.593023
Zn -1.412053 -9.911465 15.593023
Zn -1.412053 -7.079022 -15.563844
Zn 1.420390 -4.246580 -15.563844
Zn 1.420390 -7.079022 -12.731402
Zn -1.412053 -4.246580 -12.731402
Zn -1.412053 -7.079022 -9.898959
Zn 1.420390 -4.246580 -9.898959
Zn 1.420390 -7.079022 -7.066517
Zn -1.412053 -4.246580 -7.066517
Zn -1.412053 -7.079022 -4.234074
Zn 1.420390 -4.246580 -4.234074
Zn 1.420390 -7.079022 -1.401632
Zn -1.412053 -4.246580 -1.401632
Zn -1.412053 -7.079022 1.430811
Zn 1.420390 -4.246580 1.430811
Zn 1.420390 -7.079022 4.263253
Zn -1.412053 -4.246580 4.263253
Zn -1.412053 -7.079022 7.095696
Zn 1.420390 -4.246580 7.095696
Zn 1.420390 -7.079022 9.928138
Zn -1.412053 -4.246580 9.928138
Zn -1.412053 -7.079022 12.760581
Zn 1.420390 -4.246580 12.760581
Zn 1.420390 -7.079022 15.593023
Zn -1.412053 -4.246580 15.593023
Zn -1.412053 -1.414137 -15.563844
Zn 1.420390 1.418305 -15.563844
Zn 1.420390 -1.414137 -12.731402
Zn -1.412053 1.418305 -12.731402
Zn -1.412053 -1.414137 -9.898959
Zn 1.420390 1.418305 -9.898959
Zn 1.420390 -1.414137 -7.066517
Zn -1.412053 1.418305 -7.066517
Zn -1.412053 -1.414137 -4.234074
Zn 1.420390 1.418305 -4.234074
Zn 1.420390 -1.414137 -1.401632
Zn -1.412053 1.418305 -1.401632
Zn -1.412053 -1.414137 1.430811
Zn 1.420390 1.418305 1.430811
Zn 1.420390 -1.414137 4.263253
Zn -1.412053 1.418305 4.263253
Zn -1.412053 -1.414137 7.095696
Zn 1.420390 1.418305 7.095696
Zn 1.420390 -1.414137 9.928138
Zn -1.412053 1.418305 9.928138
Zn -1.412053 -1.414137 12.760581
Zn 1.420390 1.418305 12.760581
Zn 1.420390 -1.414137 15.593023
Zn -1.412053 1.418305 15.593023
Zn -1.412053 4.250748 -15.563844
Zn 1.420390 7.083191 -15.563844
Zn 1.420390 4.250748 -12.731402
Zn -1.412053 7.083191 -12.731402
Zn -1.412053 4.250748 -9.898959
Zn 1.420390 7.083191 -9.898959
Zn 1.420390 4.250748 -7.066517
Zn -1.412053 7.083191 -7.066517
Zn -1.412053 4.250748 -4.234074
Zn 1.420390 7.083191 -4.234074
Zn 1.420390 4.250748 -1.401632
Zn -1.412053 7.083191 -1.401632
Zn -1.412053 4.250748 1.430811
Zn 1.420390 7.083191 1.430811
Zn 1.420390 4.250748 4.263253
Zn -1.412053 7.083191 4.263253
Zn -1.412053 4.250748 7.095696
Zn 1.420390 7.083191 7.095696
Zn 1.420390 4.250748 9.928138
Zn -1.412053 7.083191 9.928138
Zn -1.412053 4.250748 12.760581
Zn 1.420390 7.083191 12.760581
Zn 1.420390 4.250748 15.593023
Zn -1.412053 7.083191 15.593023
Zn -1.412053 9.915633 -15.563844
Zn 1.420390 12.748076 -15.563844
Zn 1.420390 9.915633 -12.731402
Zn -1.412053 12.748076 -12.731402
Zn -1.412053 9.915633 -9.898959
Zn 1.420390 12.748076 -9.898959
Zn 1.420390 9.915633 -7.066517
Zn -1.412053 12.748076 -7.066517
Zn -1.412053 9.915633 -4.234074
Zn 1.420390 12.748076 -4.234074
Zn 1.420390 9.915633 -1.401632
Zn -1.412053 12.748076 -1.401632
Zn -1.412053 9.915633 1.430811
Zn 1.420390 12.748076 1.430811
Zn 1.420390 9.915633 4.263253
Zn -1.412053 12.748076 4.263253
Zn -1.412053 9.915633 7.095696
Zn 1.420390 12.748076 7.095696
Zn 1.420390 9.915633 9.928138
Zn -1.412053 12.748076 9.928138
Zn -1.412053 9.915633 12.760581
Zn 1.420390 12.748076 12.760581
Zn 1.420390 9.915633 15.593023
Zn -1.412053 12.748076 15.593023
Zn 1.420390 15.580518 -12.731402
Zn -1.412053 15.580518 -9.898959
Zn 1.420390 15.580518 -7.066517
Zn -1.412053 15.580518 -4.234074
Zn 1.420390 15.580518 -1.401632
Zn -1.412053 15.580518 1.430811
Zn 1.420390 15.580518 4.263253
Zn -1.412053 15.580518 7.095696
Zn 1.420390 15.580518 9.928138
Zn -1.412053 15.580518 12.760581
Zn 4.252832 -15.576350 -7.066517
Zn 7.085275 -15.576350 -4.234074
Zn 4.252832 -15.576350 -1.401632
Zn 7.085275 -15.576350 1.430811
Zn 4.252832 -15.576350 4.263253
Zn 7.085275 -15.576350 7.095696
Zn 4.252832 -15.576350 9.928138
Zn 4.252832 -9.911465 -12.731402
Zn 4.252832 -12.743907 -9.898959
Zn 7.085275 -9.911465 -9.898959
Zn 7.085275 -12.743907 -7.066517
Zn 4.252832 -9.911465 -7.066517
Zn 4.252832 -12.743907 -4.234074
Zn 7.085275 -9.911465 -4.234074
Zn 7.085275 -12.743907 -1.401632
Zn 4.252832 -9.911465 -1.401632
Zn 4.252832 -12.743907 1.430811
Zn 7.085275 -9.911465 1.430811
Zn 7.085275 -12.743907 4.263253
Zn 4.252832 -9.911465 4.263253
Zn 4.252832 -12.743907 7.095696
Zn 7.085275 -9.911465 7.095696
Zn 7.085275 -12.743907 9.928138
Zn 4.252832 -9.911465 9.928138
Zn 4.252832 -12.743907 12.760581
Zn 7.085275 -9.911465 12.760581
Zn 4.252832 -9.911465 15.593023
Zn 4.252832 -7.079022 -15.563844
Zn 7.085275 -4.246580 -15.563844
Zn 7.085275 -7.079022 -12.731402
Zn 4.252832 -4.246580 -12.731402
Zn 4.252832 -7.079022 -9.898959
Zn 7.085275 -4.246580 -9.898959
Zn 7.085275 -7.079022 -7.066517
Zn 4.252832 -4.246580 -7.066517
Zn 4.252832 -7.079022 -4.234074
Zn 7.085275 -4.246580 -4.234074
Zn 7.085275 -7.079022 -1.401632
Zn 4.252832 -4.246580 -1.401632
Zn 4.252832 -7.079022 1.430811
Zn 7.085275 -4.246580 1.430811
Zn 7.085275 -7.079022 4.263253
Zn 4.252832 -4.246580 4.263253
Zn 4.252832 -7.079022 7.095696
Zn 7.085275 -4.246580 7.095696
Zn 7.085275 -7.079022 9.928138
Zn 4.252832 -4.246580 9.928138
Zn 4.252832 -7.079022 12.760581
Zn 7.085275 -4.246580 12.760581
Zn 7.085275 -7.079022 15.593023
Zn 4.252832 -4.246580 15.593023
Zn 4.252832 -1.414137 -15.563844
Zn 7.085275 1.418305 -15.563844
Zn 7.085275 -1.414137 -12.731402
Zn 4.252832 1.418305 -12.731402
Zn 4.252832 -1.414137 -9.898959
Zn 7.085275 1.418305 -9.898959
Zn 7.085275 -1.414137 -7.066517
Zn 4.252832 1.418305 -7.066517
Zn 4.252832 -1.414137 -4.234074
Zn 7.085275 1.418305 -4.234074
Zn 7.085275 -1.414137 -1.401632
Zn 4.252832 1.418305 -1.401632
Zn 4.252832 -1.414137 1.430811
Zn 7.085275 1.418305 1.430811
Zn 7.085275 -1.414137 4.263253
Zn 4.252832 1.418305 4.263253
Zn 4.252832 -1.414137 7.095696
Zn 7.085275 1.418305 7.095696
Zn 7.085275 -1.414137 9.928138
Zn 4.252832 1.418305 9.928138
Zn 4.252832 -1.414137 12.760581
Zn 7.085275 1.418305 12.760581
Zn 7.085275 -1.414137 15.593023
Zn 4.252832 1.418305 15.593023
Zn 4.252832 4.250748 -15.563844
Zn 7.085275 7.083191 -15.563844
Zn 7.085275 4.250748 -12.731402
Zn 4.252832 7.083191 -12.731402
Zn 4.252832 4.250748 -9.898959
Zn 7.085275 7.083191 -9.898959
Zn 7.085275 4.250748 -7.066517
Zn 4.252832 7.083191 -7.066517
Zn 4.252832 4.250748 -4.234074
Zn 7.085275 7.083191 -4.234074
Zn 7.085275 4.250748 -1.401632
Zn 4.252832 7.083191 -1.401632
Zn 4.252832 4.250748 1.430811
Zn 7.085275 7.083191 1.430811
Zn 7.085275 4.250748 4.263253
Zn 4.252832 7.083191 4.263253
Zn 4.252832 4.250748 7.095696
Zn 7.085275 7.083191 7.095696
Zn 7.085275 4.250748 9.928138
Zn 4.252832 7.083191 9.928138
Zn 4.252832 4.250748 12.760581
Zn 7.085275 7.083191 12.760581
Zn 7.085275 4.250748 15.593023
Zn 4.252832 7.083191 15.593023
Zn 4.252832 9.915633 -15.563844
Zn 7.085275 9.915633 -12.731402
Zn 4.252832 12.748076 -12.731402
Zn 4.252832 9.915633 -9.898959
Zn 7.085275 12.748076 -9.898959
Zn 7.085275 9.915633 -7.066517
Zn 4.252832 12.748076 -7.066517
Zn 4.252832 9.915633 -4.234074
Zn 7.085275 12.748076 -4.234074
Zn 7.085275 9.915633 -1.401632
Zn 4.252832 12.748076 -1.401632
Zn 4.252832 9.915633 1.430811
Zn 7.085275 12.748076 1.430811
Zn 7.085275 9.915633 4.263253
Zn 4.252832 12.748076 4.263253
Zn 4.252832 9.915633 7.095696
Zn 7.085275 12.748076 7.095696
Zn 7.085275 9.915633 9.928138
Zn 4.252832 12.748076 9.928138
Zn 4.252832 9.915633 12.760581
Zn 4.252832 15.580518 -9.898959
Zn 7.085275 15.580518 -7.066517
Zn 4.252832 15.580518 -4.234074
Zn 7.085275 15.580518 -1.401632
Zn 4.252832 15.580518 1.430811
Zn 7.085275 15.580518 4.263253
Zn 4.252832 15.580518 7.095696
Zn 9.917717 -15.576350 -1.401632
Zn 12.750160 -15.576350 1.430811
Zn 9.917717 -15.576350 4.263253
Zn 9.917717 -9.911465 -7.066517
Zn 9.917717 -12.743907 -4.234074
Zn 12.750160 -9.911465 -4.234074
Zn 12.750160 -12.743907 -1.401632
Zn 9.917717 -9.911465 -1.401632
Zn 9.917717 -12.743907 1.430811
Zn 12.750160 -9.911465 1.430811
Zn 12.750160 -12.743907 4.263253
Zn 9.917717 -9.911465 4.263253
Zn 9.917717 -12.743907 7.095696
Zn 12.750160 -9.911465 7.095696
Zn 9.917717 -9.911465 9.928138
Zn 9.917717 -4.246580 -12.731402
Zn 9.917717 -7.079022 -9.898959
Zn 12.750160 -4.246580 -9.898959
Zn 12.750160 -7.079022 -7.066517
Zn 9.917717 -4.246580 -7.066517
Zn 9.917717 -7.079022 -4.234074
Zn 12.750160 -4.246580 -4.234074
Zn 12.750160 -7.079022 -1.401632
Zn 9.917717 -4.246580 -1.401632
Zn 9.917717 -7.079022 1.430811
Zn 12.750160 -4.246580 1.430811
Zn 12.750160 -7.079022 4.263253
Zn 9.917717 -4.246580 4.263253
Zn 9.917717 -7.079022 7.095696
Zn 12.750160 -4.246580 7.095696
Zn 12.750160 -7.079022 9.928138
Zn 9.917717 -4.246580 9.928138
Zn 9.917717 -7.079022 12.760581
Zn 12.750160 -4.246580 12.760581
Zn 9.917717 -4.246580 15.593023
Zn 9.917717 -1.414137 -15.563844
Zn 12.750160 1.418305 -15.563844
Zn 12.750160 -1.414137 -12.731402
Zn 9.917717 1.418305 -12.731402
Zn 9.917717 -1.414137 -9.898959
Zn 12.750160 1.418305 -9.898959
Zn 12.750160 -1.414137 -7.066517
Zn 9.917717 1.418305 -7.066517
Zn 9.917717 -1.414137 -4.234074
Zn 12.750160 1.418305 -4.234074
Zn 12.750160 -1.414137 -1.401632
Zn 9.917717 1.418305 -1.401632
Zn 9.917717 -1.414137 1.430811
Zn 12.750160 1.418305 1.430811
Zn 12.750160 -1.414137 4.263253
Zn 9.917717 1.418305 4.263253
Zn 9.917717 -1.414137 7.095696
Zn 12.750160 1.418305 7.095696
Zn 12.750160 -1.414137 9.928138
Zn 9.917717 1.418305 9.928138
Zn 9.917717 -1.414137 12.760581
Zn 12.750160 1.418305 12.760581
Zn 12.750160 -1.414137 15.593023
Zn 9.917717 1.418305 15.593023
Zn 9.917717 4.250748 -15.563844
Zn 12.750160 4.250748 -12.731402
Zn 9.917717 7.083191 -12.731402
Zn 9.917717 4.250748 -9.898959
Zn 12.750160 7.083191 -9.898959
Zn 12.750160 4.250748 -7.066517
Zn 9.917717 7.083191 -7.066517
Zn 9.917717 4.250748 -4.234074
Zn 12.750160 7.083191 -4.234074
Zn 12.750160 4.250748 -1.401632
Zn 9.917717 7.083191 -1.401632
Zn 9.917717 4.250748 1.430811
Zn 12.750160 7.083191 1.430811
Zn 12.750160 4.250748 4.263253
Zn 9.917717 7.083191 4.263253
Zn 9.917717 4.250748 7.095696
Zn 12.750160 7.083191 7.095696
Zn 12.750160 4.250748 9.928138
Zn 9.917717 7.083191 9.928138
Zn 9.917717 4.250748 12.760581
Zn 9.917717 9.915633 -9.898959
Zn 12.750160 9.915633 -7.066517
Zn 9.917717 12.748076 -7.066517
Zn 9.917717 9.915633 -4.234074
Zn 12.750160 12.748076 -4.234074
Zn 12.750160 9.915633 -1.401632
Zn 9.917717 12.748076 -1.401632
Zn 9.917717 9.915633 1.430811
Zn 12.750160 12.748076 1.430811
Zn 12.750160 9.915633 4.263253
Zn 9.917717 12.748076 4.263253
Zn 9.917717 9.915633 7.095696
Zn 9.917717 15.580518 -4.234074
Zn 12.750160 15.580518 -1.401632
Zn 9.917717 15.580518 1.430811
Zn 15.582602 -9.911465 -1.401632
Zn 15.582602 -12.743907 1.430811
Zn 15.582602 -9.911465 4.263253
Zn 15.582602 -4.246580 -7.066517
Zn 15.582602 -7.079022 -4.234074
Zn 15.582602 -4.246580 -1.401632
Zn 15.582602 -7.079022 1.430811
Zn 15.582602 -4.246580 4.263253
Zn 15.582602 -7.079022 7.095696
Zn 15.582602 -4.246580 9.928138
Zn 15.582602 1.418305 -12.731402
Zn 15.582602 -1.414137 -9.898959
Zn 15.582602 1.418305 -7.066517
Zn 15.582602 -1.414137 -4.234074
Zn 15.582602 1.418305 -1.401632
Zn 15.582602 -1.414137 1.430811
Zn 15.582602 1.418305 4.263253
Zn 15.582602 -1.414137 7.095696
Zn 15.582602 1.418305 9.928138
Zn 15.582602 -1.414137 12.760581
Zn 15.582602 4.250748 -9.898959
Zn 15.582602 7.083191 -7.066517
Zn 15.582602 4.250748 -4.234074
Zn 15.582602 7.083191 -1.401632
Zn 15.582602 4.250748 1.430811
Zn 15.582602 7.083191 4.263253
Zn 15.582602 4.250748 7.095696
Zn 15.582602 9.915633 -4.234074
Zn 15.582602 12.748076 -1.401632
Zn 15.582602 9.915633 1.430811
Se -14.158044 -14.160128 0.014589
Se -14.158044 -8.495243 -5.650296
Se -14.158044 -8.495243 0.014589
Se -14.158044 -11.327686 -2.817853
Se -14.158044 -8.495243 5.679475
Se -14.158044 -11.327686 2.847032
Se -14.158044 -2.830358 -11.315181
Se -14.158044 -2.830358 -5.650296
Se -14.158044 -5.662801 -8.482738
Se -14.158044 -2.830358 0.014589
Se -14.158044 -5.662801 -2.817853
Se -14.158044 -2.830358 5.679475
Se -14.158044 -5.662801 2.847032
Se -14.158044 -2.830358 11.344360
Se -14.158044 -5.662801 8.511917
Se -14.158044 2.834527 -11.315181
Se -14.158044 0.002084 -14.147623
Se -14.158044 2.834527 -5.650296
Se -14.158044 0.002084 -8.482738
Se -14.158044 2.834527 0.014589
Se -14.158044 0.002084 -2.817853
Se -14.158044 2.834527 5.679475
Se -14.158044 0.002084 2.847032
Se -14.158044 2.834527 11.344360
Se -14.158044 0.002084 8.511917
Se -14.158044 0.002084 14.176802
Se -14.158044 8.499412 -5.650296
Se -14.158044 5.666969 -8.482738
Se -14.158044 8.499412 0.014589
Se -14.158044 5.666969 -2.817853
Se -14.158044 8.499412 5.679475
Se -14.158044 5.666969 2.847032
Se -14.158044 5.666969 8.511917
Se -14.158044 14.164297 0.014589
Se -14.158044 11.331854 -2.817853
Se -14.158044 11.331854 2.847032
Se -8.493159 -14.160128 -5.650296
Se -11.325602 -14.160128 -2.817853
Se -8.493159 -14.160128 0.014589
Se -11.325602 -14.160128 2.847032
Se -8.493159 -14.160128 5.679475
Se -8.493159 -8.495243 -11.315181
Se -11.325602 -11.327686 -5.650296
Se -11.325602 -8.495243 -8.482738
Se -8.493159 -8.495243 -5.650296
Se -8.493159 -11.327686 -8.482738
Se -11.325602 -11.327686 0.014589
Se -11.325602 -8.495243 -2.817853
Se -8.493159 -8.495243 0.014589
Se -8.493159 -11.327686 -2.817853
Se -11.325602 -11.327686 5.679475
Se -11.325602 -8.495243 2.847032
Se -8.493159 -8.495243 5.679475
Se -8.493159 -11.327686 2.847032
Se -11.325602 -8.495243 8.511917
Se -8.493159 -8.495243 11.344360
Se -8.493159 -11.327686 8.511917
Se -11.325602 -5.662801 -11.315181
Se -11.325602 -2.830358 -14.147623
Se -8.493159 -2.830358 -11.315181
Se -8.493159 -5.662801 -14.147623
Se -11.325602 -5.662801 -5.650296
Se -11.325602 -2.830358 -8.482738
Se -8.493159 -2.830358 -5.650296
Se -8.493159 -5.662801 -8.482738
Se -11.325602 -5.662801 0.014589
Se -11.325602 -2.830358 -2.817853
Se -8.493159 -2.830358 0.014589
Se -8.493159 -5.662801 -2.817853
Se -11.325602 -5.662801 5.679475
Se -11.325602 -2.830358 2.847032
Se -8.493159 -2.830358 5.679475
Se -8.493159 -5.662801 2.847032
Se -11.325602 -5.662801 11.344360
Se -11.325602 -2.830358 8.511917
Se -8.493159 -2.830358 11.344360
Se -8.493159 -5.662801 8.511917
Se -11.325602 -2.830358 14.176802
Se -8.493159 -5.662801 14.176802
Se -11.325602 0.002084 -11.315181
Se -11.325602 2.834527 -14.147623
Se -8.493159 2.834527 -11.315181
Se -8.493159 0.002084 -14.147623
Se -11.325602 0.002084 -5.650296
Se -11.325602 2.834527 -8.482738
Se -8.493159 2.834527 -5.650296
Se -8.493159 0.002084 -8.482738
Se -11.325602 0.002084 0.014589
Se -11.325602 2.834527 -2.817853
Se -8.493159 2.834527 0.014589
Se -8.493159 0.002084 -2.817853
Se -11.325602 0.002084 5.679475
Se -11.325602 2.834527 2.847032
Se -8.493159 2.834527 5.679475
Se -8.493159 0.002084 2.847032
Se -11.325602 0.002084 11.344360
Se -11.325602 2.834527 8.511917
Se -8.493159 2.834527 11.344360
Se -8.493159 0.002084 8.511917
Se -11.325602 2.834527 14.176802
Se -8.493159 0.002084 14.176802
Se -11.325602 5.666969 -11.315181
Se -8.493159 8.499412 -11.315181
Se -8.493159 5.666969 -14.147623
Se -11.325602 5.666969 -5.650296
Se -11.325602 8.499412 -8.482738
Se -8.493159 8.499412 -5.650296
Se -8.493159 5.666969 -8.482738
Se -11.325602 5.666969 0.014589
Se -11.325602 8.499412 -2.817853
Se -8.493159 8.499412 0.014589
Se -8.493159 5.666969 -2.817853
Se -11.325602 5.666969 5.679475
Se -11.325602 8.499412 2.847032
Se -8.493159 8.499412 5.679475
Se -8.493159 5.666969 2.847032
Se -11.325602 5.666969 11.344360
Se -11.325602 8.499412 8.511917
Se -8.493159 8.499412 11.344360
Se -8.493159 5.666969 8.511917
Se -8.493159 5.666969 14.176802
Se -11.325602 11.331854 -5.650296
Se -8.493159 14.164297 -5.650296
Se -8.493159 11.331854 -8.482738
Se -11.325602 11.331854 0.014589
Se -11.325602 14.164297 -2.817853
Se -8.493159 14.164297 0.014589
Se -8.493159 11.331854 -2.817853
Se -11.325602 11.331854 5.679475
Se -11.325602 14.164297 2.847032
Se -8.493159 14.164297 5.679475
Se -8.493159 11.331854 2.847032
Se -8.493159 11.331854 8.511917
Se -2.828274 -14.160128 -11.315181
Se -5.660717 -14.160128 -8.482738
Se -2.828274 -14.160128 -5.650296
Se -5.660717 -14.160128 -2.817853
Se -2.828274 -14.160128 0.014589
Se -5.660717 -14.160128 2.847032
Se -2.828274 -14.160128 5.679475
Se -5.660717 -14.160128 8.511917
Se -2.828274 -14.160128 11.344360
Se -5.660717 -11.327686 -11.315181
Se -5.660717 -8.495243 -14.147623
Se -2.828274 -8.495243 -11.315181
Se -2.828274 -11.327686 -14.147623
Se -5.660717 -11.327686 -5.650296
Se -5.660717 -8.495243 -8.482738
Se -2.828274 -8.495243 -5.650296
Se -2.828274 -11.327686 -8.482738
Se -5.660717 -11.327686 0.014589
Se -5.660717 -8.495243 -2.817853
Se -2.828274 -8.495243 0.014589
Se -2.828274 -11.327686 -2.817853
Se -5.660717 -11.327686 5.679475
Se -5.660717 -8.495243 2.847032
Se -2.828274 -8.495243 5.679475
Se -2.828274 -11.327686 2.847032
Se -5.660717 -11.327686 11.344360
Se -5.660717 -8.495243 8.511917
Se -2.828274 -8.495243 11.344360
Se -2.828274 -11.327686 8.511917
Se -5.660717 -8.495243 14.176802
Se -2.828274 -11.327686 14.176802
Se -5.660717 -5.662801 -11.315181
Se -5.660717 -2.830358 -14.147623
Se -2.828274 -2.830358 -11.315181
Se -2.828274 -5.662801 -14.147623
Se -5.660717 -5.662801 -5.650296
Se -5.660717 -2.830358 -8.482738
Se -2.828274 -2.830358 -5.650296
Se -2.828274 -5.662801 -8.482738
Se -5.660717 -5.662801 0.014589
Se -5.660717 -2.830358 -2.817853
Se -2.828274 -2.830358 0.014589
Se -2.828274 -5.662801 -2.817853
Se -5.660717 -5.662801 5.679475
Se -5.660717 -2.830358 2.847032
Se -2.828274 -2.830358 5.679475
Se -2.828274 -5.662801 2.847032
Se -5.660717 -5.662801 11.344360
Se -5.660717 -2.830358 8.511917
Se -2.828274 -2.830358 11.344360
Se -2.828274 -5.662801 8.511917
Se -5.660717 -2.830358 14.176802
Se -2.828274 -5.662801 14.176802
Se -5.660717 0.002084 -11.315181
Se -5.660717 2.834527 -14.147623
Se -2.828274 2.834527 -11.315181
Se -2.828274 0.002084 -14.147623
Se -5.660717 0.002084 -5.650296
Se -5.660717 2.834527 -8.482738
Se -2.828274 2.834527 -5.650296
Se -2.828274 0.002084 -8.482738
Se -5.660717 0.002084 0.014589
Se -5.660717 2.834527 -2.817853
Se -2.828274 2.834527 0.014589
Se -2.828274 0.002084 -2.817853
Se -5.660717 0.002084 5.679475
Se -5.660717 2.834527 2.847032
Se -2.828274 2.834527 5.679475
Se -2.828274 0.002084 2.847032
Se -5.660717 0.002084 11.344360
Se -5.660717 2.834527 8.511917
Se -2.828274 2.834527 11.344360
Se -2.828274 0.002084 8.511917
Se -5.660717 2.834527 14.176802
Se -2.828274 0.002084 14.176802
Se -5.660717 5.666969 -11.315181
Se -5.660717 8.499412 -14.147623
Se -2.828274 8.499412 -11.315181
Se -2.828274 5.666969 -14.147623
Se -5.660717 5.666969 -5.650296
Se -5.660717 8.499412 -8.482738
Se -2.828274 8.499412 -5.650296
Se -2.828274 5.666969 -8.482738
Se -5.660717 5.666969 0.014589
Se -5.660717 8.499412 -2.817853
Se -2.828274 8.499412 0.014589
Se -2.828274 5.666969 -2.817853
Se -5.660717 5.666969 5.679475
Se -5.660717 8.499412 2.847032
Se -2.828274 8.499412 5.679475
Se -2.828274 5.666969 2.847032
Se -5.660717 5.666969 11.344360
Se -5.660717 8.499412 8.511917
Se -2.828274 8.499412 11.344360
Se -2.828274 5.666969 8.511917
Se -5.660717 8.499412 14.176802
Se -2.828274 5.666969 14.176802
Se -5.660717 11.331854 -11.315181
Se -2.828274 14.164297 -11.315181
Se -2.828274 11.331854 -14.147623
Se -5.660717 11.331854 -5.650296
Se -5.660717 14.164297 -8.482738
Se -2.828274 14.164297 -5.650296
Se -2.828274 11.331854 -8.482738
Se -5.660717 11.331854 0.014589
Se -5.660717 14.164297 -2.817853
Se -2.828274 14.164297 0.014589
Se -2.828274 11.331854 -2.817853
Se -5.660717 11.331854 5.679475
Se -5.660717 14.164297 2.847032
Se -2.828274 14.164297 5.679475
Se -2.828274 11.331854 2.847032
Se -5.660717 11.331854 11.344360
Se -5.660717 14.164297 8.511917
Se -2.828274 14.164297 11.344360
Se -2.828274 11.331854 8.511917
Se -2.828274 11.331854 14.176802
Se 0.004168 -14.160128 -14.147623
Se 2.836611 -14.160128 -11.315181
Se 0.004168 -14.160128 -8.482738
Se 2.836611 -14.160128 -5.650296
Se 0.004168 -14.160128 -2.817853
Se 2.836611 -14.160128 0.014589
Se 0.004168 -14.160128 2.847032
Se 2.836611 -14.160128 5.679475
Se 0.004168 -14.160128 8.511917
Se 2.836611 -14.160128 11.344360
Se 0.004168 -14.160128 14.176802
Se 0.004168 -11.327686 -11.315181
Se 0.004168 -8.495243 -14.147623
Se 2.836611 -8.495243 -11.315181
Se 2.836611 -11.327686 -14.147623
Se 0.004168 -11.327686 -5.650296
Se 0.004168 -8.495243 -8.482738
Se 2.836611 -8.495243 -5.650296
Se 2.836611 -11.327686 -8.482738
Se 0.004168 -11.327686 0.014589
Se 0.004168 -8.495243 -2.817853
Se 2.836611 -8.495243 0.014589
Se 2.836611 -11.327686 -2.817853
Se 0.004168 -11.327686 5.679475
Se 0.004168 -8.495243 2.847032
Se 2.836611 -8.495243 5.679475
Se 2.836611 -11.327686 2.847032
Se 0.004168 -11.327686 11.344360
Se 0.004168 -8.495243 8.511917
Se 2.836611 -8.495243 11.344360
Se 2.836611 -11.327686 8.511917
Se 0.004168 -8.495243 14.176802
Se 2.836611 -11.327686 14.176802
Se 0.004168 -5.662801 -11.315181
Se 0.004168 -2.830358 -14.147623
Se 2.836611 -2.830358 -11.315181
Se 2.836611 -5.662801 -14.147623
Se 0.004168 -5.662801 -5.650296
Se 0.004168 -2.830358 -8.482738
Se 2.836611 -2.830358 -5.650296
Se 2.836611 -5.662801 -8.482738
Se 0.004168 -5.662801 0.014589
Se 0.004168 -2.830358 -2.817853
Se 2.836611 -2.830358 0.014589
Se 2.836611 -5.662801 -2.817853
Se 0.004168 -5.662801 5.679475
Se 0.004168 -2.830358 2.847032
Se 2.836611 -2.830358 5.679475
Se 2.836611 -5.662801 2.847032
Se 0.004168 -5.662801 11.344360
Se 0.004168 -2.830358 8.511917
Se 2.836611 -2.830358 11.344360
Se 2.836611 -5.662801 8.511917
Se 0.004168 -2.830358 14.176802
Se 2.836611 -5.662801 14.176802
Se 0.004168 0.002084 -11.315181
Se 0.004168 2.834527 -14.147623
Se 2.836611 2.834527 -11.315181
Se 2.836611 0.002084 -14.147623
Se 0.004168 0.002084 -5.650296
Se 0.004168 2.834527 -8.482738
Se 2.836611 2.834527 -5.650296
Se 2.836611 0.002084 -8.482738
Se 0.004168 0.002084 0.014589
Se 0.004168 2.834527 -2.817853
Se 2.836611 2.834527 0.014589
Se 2.836611 0.002084 -2.817853
Se 0.004168 0.002084 5.679475
Se 0.004168 2.834527 2.847032
Se 2.836611 2.834527 5.679475
Se 2.836611 0.002084 2.847032
Se 0.004168 0.002084 11.344360
Se 0.004168 2.834527 8.511917
Se 2.836611 2.834527 11.344360
Se 2.836611 0.002084 8.511917
Se 0.004168 2.834527 14.176802
Se 2.836611 0.002084 14.176802
Se 0.004168 5.666969 -11.315181
Se 0.004168 8.499412 -14.147623
Se 2.836611 8.499412 -11.315181
Se 2.836611 5.666969 -14.147623
Se 0.004168 5.666969 -5.650296
Se 0.004168 8.499412 -8.482738
Se 2.836611 8.499412 -5.650296
Se 2.836611 5.666969 -8.482738
Se 0.004168 5.666969 0.014589
Se 0.004168 8.499412 -2.817853
Se 2.836611 8.499412 0.014589
Se 2.836611 5.666969 -2.817853
Se 0.004168 5.666969 5.679475
Se 0.004168 8.499412 2.847032
Se 2.836611 8.499412 5.679475
Se 2.836611 5.666969 2.847032
Se 0.004168 5.666969 11.344360
Se 0.004168 8.499412 8.511917
Se 2.836611 8.499412 11.344360
Se 2.836611 5.666969 8.511917
Se 0.004168 8.499412 14.176802
Se 2.836611 5.666969 14.176802
Se 0.004168 11.331854 -11.315181
Se 0.004168 14.164297 -14.147623
Se 2.836611 14.164297 -11.315181
Se 2.836611 11.331854 -14.147623
Se 0.004168 11.331854 -5.650296
Se 0.004168 14.164297 -8.482738
Se 2.836611 14.164297 -5.650296
Se 2.836611 11.331854 -8.482738
Se 0.004168 11.331854 0.014589
Se 0.004168 14.164297 -2.817853
Se 2.836611 14.164297 0.014589
Se 2.836611 11.331854 -2.817853
Se 0.004168 11.331854 5.679475
Se 0.004168 14.164297 2.847032
Se 2.836611 14.164297 5.679475
Se 2.836611 11.331854 2.847032
Se 0.004168 11.331854 11.344360
Se 0.004168 14.164297 8.511917
Se 2.836611 14.164297 11.344360
Se 2.836611 11.331854 8.511917
Se 0.004168 14.164297 14.176802
Se 2.836611 11.331854 14.176802
Se 5.669054 -14.160128 -8.482738
Se 8.501496 -14.160128 -5.650296
Se 5.669054 -14.160128 -2.817853
Se 8.501496 -14.160128 0.014589
Se 5.669054 -14.160128 2.847032
Se 8.501496 -14.160128 5.679475
Se 5.669054 -14.160128 8.511917
Se 5.669054 -11.327686 -11.315181
Se 5.669054 -8.495243 -14.147623
Se 8.501496 -8.495243 -11.315181
Se 5.669054 -11.327686 -5.650296
Se 5.669054 -8.495243 -8.482738
Se 8.501496 -8.495243 -5.650296
Se 8.501496 -11.327686 -8.482738
Se 5.669054 -11.327686 0.014589
Se 5.669054 -8.495243 -2.817853
Se 8.501496 -8.495243 0.014589
Se 8.501496 -11.327686 -2.817853
Se 5.669054 -11.327686 5.679475
Se 5.669054 -8.495243 2.847032
Se 8.501496 -8.495243 5.679475
Se 8.501496 -11.327686 2.847032
Se 5.669054 -11.327686 11.344360
Se 5.669054 -8.495243 8.511917
Se 8.501496 -8.495243 11.344360
Se 8.501496 -11.327686 8.511917
Se 5.669054 -8.495243 14.176802
Se 5.669054 -5.662801 -11.315181
Se 5.669054 -2.830358 -14.147623
Se 8.501496 -2.830358 -11.315181
Se 8.501496 -5.662801 -14.147623
Se 5.669054 -5.662801 -5.650296
Se 5.669054 -2.830358 -8.482738
Se 8.501496 -2.830358 -5.650296
Se 8.501496 -5.662801 -8.482738
Se 5.669054 -5.662801 0.014589
Se 5.669054 -2.830358 -2.817853
Se 8.501496 -2.830358 0.014589
Se 8.501496 -5.662801 -2.817853
Se 5.669054 -5.662801 5.679475
Se 5.669054 -2.830358 2.847032
Se 8.501496 -2.830358 5.679475
Se 8.501496 -5.662801 2.847032
Se 5.669054 -5.662801 11.344360
Se 5.669054 -2.830358 8.511917
Se 8.501496 -2.830358 11.344360
Se 8.501496 -5.662801 8.511917
Se 5.669054 -2.830358 14.176802
Se 8.501496 -5.662801 14.176802
Se 5.669054 0.002084 -11.315181
Se 5.669054 2.834527 -14.147623
Se 8.501496 2.834527 -11.315181
Se 8.501496 0.002084 -14.147623
Se 5.669054 0.002084 -5.650296
Se 5.669054 2.834527 -8.482738
Se 8.501496 2.834527 -5.650296
Se 8.501496 0.002084 -8.482738
Se 5.669054 0.002084 0.014589
Se 5.669054 2.834527 -2.817853
Se 8.501496 2.834527 0.014589
Se 8.501496 0.002084 -2.817853
Se 5.669054 0.002084 5.679475
Se 5.669054 2.834527 2.847032
Se 8.501496 2.834527 5.679475
Se 8.501496 0.002084 2.847032
Se 5.669054 0.002084 11.344360
Se 5.669054 2.834527 8.511917
Se 8.501496 2.834527 11.344360
Se 8.501496 0.002084 8.511917
Se 5.669054 2.834527 14.176802
Se 8.501496 0.002084 14.176802
Se 5.669054 5.666969 -11.315181
Se 5.669054 8.499412 -14.147623
Se 8.501496 8.499412 -11.315181
Se 8.501496 5.666969 -14.147623
Se 5.669054 5.666969 -5.650296
Se 5.669054 8.499412 -8.482738
Se 8.501496 8.499412 -5.650296
Se 8.501496 5.666969 -8.482738
Se 5.669054 5.666969 0.014589
Se 5.669054 8.499412 -2.817853
Se 8.501496 8.499412 0.014589
Se 8.501496 5.666969 -2.817853
Se 5.669054 5.666969 5.679475
Se 5.669054 8.499412 2.847032
Se 8.501496 8.499412 5.679475
Se 8.501496 5.666969 2.847032
Se 5.669054 5.666969 11.344360
Se 5.669054 8.499412 8.511917
Se 8.501496 8.499412 11.344360
Se 8.501496 5.666969 8.511917
Se 5.669054 8.499412 14.176802
Se 8.501496 5.666969 14.176802
Se 5.669054 11.331854 -11.315181
Se 5.669054 11.331854 -5.650296
Se 5.669054 14.164297 -8.482738
Se 8.501496 14.164297 -5.650296
Se 8.501496 11.331854 -8.482738
Se 5.669054 11.331854 0.014589
Se 5.669054 14.164297 -2.817853
Se 8.501496 14.164297 0.014589
Se 8.501496 11.331854 -2.817853
Se 5.669054 11.331854 5.679475
Se 5.669054 14.164297 2.847032
Se 8.501496 14.164297 5.679475
Se 8.501496 11.331854 2.847032
Se 5.669054 11.331854 11.344360
Se 5.669054 14.164297 8.511917
Se 8.501496 11.331854 8.511917
Se 11.333939 -14.160128 -2.817853
Se 14.166381 -14.160128 0.014589
Se 11.333939 -14.160128 2.847032
Se 11.333939 -11.327686 -5.650296
Se 11.333939 -8.495243 -8.482738
Se 14.166381 -8.495243 -5.650296
Se 11.333939 -11.327686 0.014589
Se 11.333939 -8.495243 -2.817853
Se 14.166381 -8.495243 0.014589
Se 14.166381 -11.327686 -2.817853
Se 11.333939 -11.327686 5.679475
Se 11.333939 -8.495243 2.847032
Se 14.166381 -8.495243 5.679475
Se 14.166381 -11.327686 2.847032
Se 11.333939 -8.495243 8.511917
Se 11.333939 -5.662801 -11.315181
Se 11.333939 -2.830358 -14.147623
Se 14.166381 -2.830358 -11.315181
Se 11.333939 -5.662801 -5.650296
Se 11.333939 -2.830358 -8.482738
Se 14.166381 -2.830358 -5.650296
Se 14.166381 -5.662801 -8.482738
Se 11.333939 -5.662801 0.014589
Se 11.333939 -2.830358 -2.817853
Se 14.166381 -2.830358 0.014589
Se 14.166381 -5.662801 -2.817853
Se 11.333939 -5.662801 5.679475
Se 11.333939 -2.830358 2.847032
Se 14.166381 -2.830358 5.679475
Se 14.166381 -5.662801 2.847032
Se 11.333939 -5.662801 11.344360
Se 11.333939 -2.830358 8.511917
Se 14.166381 -2.830358 11.344360
Se 14.166381 -5.662801 8.511917
Se 11.333939 -2.830358 14.176802
Se 11.333939 0.002084 -11.315181
Se 11.333939 2.834527 -14.147623
Se 14.166381 2.834527 -11.315181
Se 14.166381 0.002084 -14.147623
Se 11.333939 0.002084 -5.650296
Se 11.333939 2.834527 -8.482738
Se 14.166381 2.834527 -5.650296
Se 14.166381 0.002084 -8.482738
Se 11.333939 0.002084 0.014589
Se 11.333939 2.834527 -2.817853
Se 14.166381 2.834527 0.014589
Se 14.166381 0.002084 -2.817853
Se 11.333939 0.002084 5.679475
Se 11.333939 2.834527 2.847032
Se 14.166381 2.834527 5.679475
Se 14.166381 0.002084 2.847032
Se 11.333939 0.002084 11.344360
Se 11.333939 2.834527 8.511917
Se 14.166381 2.834527 11.344360
Se 14.166381 0.002084 8.511917
Se 11.333939 2.834527 14.176802
Se 14.166381 0.002084 14.176802
Se 11.333939 5.666969 -11.315181
Se 11.333939 5.666969 -5.650296
Se 11.333939 8.499412 -8.482738
Se 14.166381 8.499412 -5.650296
Se 14.166381 5.666969 -8.482738
Se 11.333939 5.666969 0.014589
Se 11.333939 8.499412 -2.817853
Se 14.166381 8.499412 0.014589
Se 14.166381 5.666969 -2.817853
Se 11.333939 5.666969 5.679475
Se 11.333939 8.499412 2.847032
Se 14.166381 8.499412 5.679475
Se 14.166381 5.666969 2.847032
Se 11.333939 5.666969 11.344360
Se 11.333939 8.499412 8.511917
Se 14.166381 5.666969 8.511917
Se 11.333939 11.331854 -5.650296
Se 11.333939 11.331854 0.014589
Se 11.333939 14.164297 -2.817853
Se 14.166381 14.164297 0.014589
Se 14.166381 11.331854 -2.817853
Se 11.333939 11.331854 5.679475
Se 11.333939 14.164297 2.847032
Se 14.166381 11.331854 2.847032
Cl -16.990487 -11.327686 0.014589
Cl -16.990487 -8.495243 -2.817853
Cl -16.990487 -8.495243 2.847032
Cl -16.990487 -5.662801 -5.650296
Cl -16.990487 -2.830358 -8.482738
Cl -16.990487 -5.662801 0.014589
Cl -16.990487 -2.830358 -2.817853
Cl -16.990487 -5.662801 5.679475
Cl -16.990487 -2.830358 2.847032
Cl -16.990487 -2.830358 8.511917
Cl -16.990487 0.002084 -11.315181
Cl -16.990487 0.002084 -5.650296
Cl -16.990487 2.834527 -8.482738
Cl -16.990487 0.002084 0.014589
Cl -16.990487 2.834527 -2.817853
Cl -16.990487 0.002084 5.679475
Cl -16.990487 2.834527 2.847032
Cl -16.990487 0.002084 11.344360
Cl -16.990487 2.834527 8.511917
Cl -16.990487 5.666969 -5.650296
Cl -16.990487 5.666969 0.014589
Cl -16.990487 8.499412 -2.817853
Cl -16.990487 5.666969 5.679475
Cl -16.990487 8.499412 2.847032
Cl -16.990487 11.331854 0.014589
Cl -11.325602 -16.992571 0.014589
Cl -8.493159 -16.992571 -2.817853
Cl -8.493159 -16.992571 2.847032
Cl -8.493159 -2.830358 -16.980066
Cl -8.493159 -2.830358 17.009245
Cl -11.325602 0.002084 -16.980066
Cl -8.493159 2.834527 -16.980066
Cl -11.325602 0.002084 17.009245
Cl -8.493159 2.834527 17.009245
Cl -11.325602 16.996739 0.014589
Cl -8.493159 16.996739 -2.817853
Cl -8.493159 16.996739 2.847032
Cl -5.660717 -16.992571 -5.650296
Cl -2.828274 -16.992571 -8.482738
Cl -5.660717 -16.992571 0.014589
Cl -2.828274 -16.992571 -2.817853
Cl -5.660717 -16.992571 5.679475
Cl -2.828274 -16.992571 2.847032
Cl -2.828274 -16.992571 8.511917
Cl -2.828274 -8.495243 -16.980066
Cl -2.828274 -8.495243 17.009245
Cl -5.660717 -5.662801 -16.980066
Cl -2.828274 -2.830358 -16.980066
Cl -5.660717 -5.662801 17.009245
Cl -2.828274 -2.830358 17.009245
Cl -5.660717 0.002084 -16.980066
Cl -2.828274 2.834527 -16.980066
Cl -5.660717 0.002084 17.009245
Cl -2.828274 2.834527 17.009245
Cl -5.660717 5.666969 -16.980066
Cl -2.828274 8.499412 -16.980066
Cl -5.660717 5.666969 17.009245
Cl -2.828274 8.499412 17.009245
Cl -5.660717 16.996739 -5.650296
Cl -2.828274 16.996739 -8.482738
Cl -5.660717 16.996739 0.014589
Cl -2.828274 16.996739 -2.817853
Cl -5.660717 16.996739 5.679475
Cl -2.828274 16.996739 2.847032
Cl -2.828274 16.996739 8.511917
Cl 0.004168 -16.992571 -11.315181
Cl 0.004168 -16.992571 -5.650296
Cl 2.836611 -16.992571 -8.482738
Cl 0.004168 -16.992571 0.014589
Cl 2.836611 -16.992571 -2.817853
Cl 0.004168 -16.992571 5.679475
Cl 2.836611 -16.992571 2.847032
Cl 0.004168 -16.992571 11.344360
Cl 2.836611 -16.992571 8.511917
Cl 0.004168 -11.327686 -16.980066
Cl 2.836611 -8.495243 -16.980066
Cl 0.004168 -11.327686 17.009245
Cl 2.836611 -8.495243 17.009245
Cl 0.004168 -5.662801 -16.980066
Cl 2.836611 -2.830358 -16.980066
Cl 0.004168 -5.662801 17.009245
Cl 2.836611 -2.830358 17.009245
Cl 0.004168 0.002084 -16.980066
Cl 2.836611 2.834527 -16.980066
Cl 0.004168 0.002084 17.009245
Cl 2.836611 2.834527 17.009245
Cl 0.004168 5.666969 -16.980066
Cl 2.836611 8.499412 -16.980066
Cl 0.004168 5.666969 17.009245
Cl 2.836611 8.499412 17.009245
Cl 0.004168 11.331854 -16.980066
Cl 0.004168 11.331854 17.009245
Cl 0.004168 16.996739 -11.315181
Cl 0.004168 16.996739 -5.650296
Cl 2.836611 16.996739 -8.482738
Cl 0.004168 16.996739 0.014589
Cl 2.836611 16.996739 -2.817853
Cl 0.004168 16.996739 5.679475
Cl 2.836611 16.996739 2.847032
Cl 0.004168 16.996739 11.344360
Cl 2.836611 16.996739 8.511917
Cl 5.669054 -16.992571 -5.650296
Cl 5.669054 -16.992571 0.014589
Cl 8.501496 -16.992571 -2.817853
Cl 5.669054 -16.992571 5.679475
Cl 8.501496 -16.992571 2.847032
Cl 5.669054 -5.662801 -16.980066
Cl 8.501496 -2.830358 -16.980066
Cl 5.669054 -5.662801 17.009245
Cl 8.501496 -2.830358 17.009245
Cl 5.669054 0.002084 -16.980066
Cl 8.501496 2.834527 -16.980066
Cl 5.669054 0.002084 17.009245
Cl 8.501496 2.834527 17.009245
Cl 5.669054 5.666969 -16.980066
Cl 5.669054 5.666969 17.009245
Cl 5.669054 16.996739 -5.650296
Cl 5.669054 16.996739 0.014589
Cl 8.501496 16.996739 -2.817853
Cl 5.669054 16.996739 5.679475
Cl 8.501496 16.996739 2.847032
Cl 11.333939 -16.992571 0.014589
Cl 11.333939 0.002084 -16.980066
Cl 11.333939 0.002084 17.009245
Cl 11.333939 16.996739 0.014589
Cl 16.998824 -11.327686 0.014589
Cl 16.998824 -8.495243 -2.817853
Cl 16.998824 -8.495243 2.847032
Cl 16.998824 -5.662801 -5.650296
Cl 16.998824 -2.830358 -8.482738
Cl 16.998824 -5.662801 0.014589
Cl 16.998824 -2.830358 -2.817853
Cl 16.998824 -5.662801 5.679475
Cl 16.998824 -2.830358 2.847032
Cl 16.998824 -2.830358 8.511917
Cl 16.998824 0.002084 -11.315181
Cl 16.998824 0.002084 -5.650296
Cl 16.998824 2.834527 -8.482738
Cl 16.998824 0.002084 0.014589
Cl 16.998824 2.834527 -2.817853
Cl 16.998824 0.002084 5.679475
Cl 16.998824 2.834527 2.847032
Cl 16.998824 0.002084 11.344360
Cl 16.998824 2.834527 8.511917
Cl 16.998824 5.666969 -5.650296
Cl 16.998824 5.666969 0.014589
Cl 16.998824 8.499412 -2.817853
Cl 16.998824 5.666969 5.679475
Cl 16.998824 8.499412 2.847032
Cl 16.998824 11.331854 0.014589
Cl -11.325602 -11.327686 -8.482738
Cl -11.325602 8.499412 11.344360
Cl 8.501496 -11.327686 11.344360
Cl 8.501496 11.331854 -11.315181
Cl -14.158044 -2.830358 -14.147623
Cl -14.158044 14.164297 2.847032
Cl 14.166381 -14.160128 2.847032
Cl 14.166381 2.834527 -14.147623
