35
HgTe-Te-Hg16Te13Cl6-clean
Hg -4.934976 1.644992 -1.644992
Hg -4.934976 -1.644992 1.644992
Hg 1.644992 -4.934976 -1.644992
Hg -1.644992 -4.934976 1.644992
Hg 1.644992 -1.644992 -4.934976
Hg -1.644992 1.644992 -4.934976
Hg -1.644992 -1.644992 -1.644992
Hg 1.644992 1.644992 -1.644992
Hg 1.644992 -1.644992 1.644992
Hg -1.644992 1.644992 1.644992
Hg -1.644992 -1.644992 4.934976
Hg 1.644992 1.644992 4.934976
Hg -1.644992 4.934976 -1.644992
Hg 1.644992 4.934976 1.644992
Hg 4.934976 -1.644992 -1.644992
Hg 4.934976 1.644992 1.644992
Te -3.289984 -3.289984 -0.000000
Te -3.289984 -0.000000 -3.289984
Te -3.289984 3.289984 0.000000
Te -3.289984 -0.000000 3.289984
Te 0.000000 -3.289984 -3.289984
Te 0.000000 -3.289984 3.289984
Te 3.289984 -3.289984 0.000000
Te -0.000000 3.289984 -3.289984
Te 3.289984 -0.000000 -3.289984
Te 0.000000 -0.000000 0.000000
Te -0.000000 3.289984 3.289984
Te 3.289984 3.289984 0.000000
Te 3.289984 -0.000000 3.289984
Cl -6.579968 -0.000000 -0.000000
Cl 0.000000 -6.579968 -0.000000
Cl 0.000000 -0.000000 -6.579968
Cl 0.000000 -0.000000 6.579968
Cl -0.000000 6.579968 0.000000
Cl 6.579968 -0.000000 0.000000
