382
GaAs-Ga-Ga165As139Cl78-clean
Ga -8.591404 -8.591404 5.716313
Ga -8.591404 -11.466495 8.591404
Ga -11.466495 -8.591404 8.591404
Ga -11.466495 -11.466495 11.466495
Ga -8.591404 -8.591404 11.466495
Ga -8.591404 -2.841222 -0.033869
Ga -8.591404 -5.716313 2.841222
Ga -11.466495 -2.841222 2.841222
Ga -11.466495 -5.716313 5.716313
Ga -8.591404 -2.841222 5.716313
Ga -8.591404 -5.716313 8.591404
Ga -8.591404 2.908960 -5.784051
Ga -8.591404 0.033869 -2.908960
Ga -11.466495 2.908960 -2.908960
Ga -11.466495 0.033869 -0.033869
Ga -8.591404 2.908960 -0.033869
Ga -8.591404 0.033869 2.841222
Ga -8.591404 8.659142 -11.534233
Ga -8.591404 5.784051 -8.659142
Ga -11.466495 8.659142 -8.659142
Ga -11.466495 5.784051 -5.784051
Ga -8.591404 8.659142 -5.784051
Ga -8.591404 5.784051 -2.908960
Ga -11.466495 11.534233 -11.534233
Ga -8.591404 11.534233 -8.659142
Ga -2.841222 -8.591404 -0.033869
Ga -2.841222 -11.466495 2.841222
Ga -5.716313 -8.591404 2.841222
Ga -5.716313 -11.466495 5.716313
Ga -2.841222 -8.591404 5.716313
Ga -5.716313 -8.591404 8.591404
Ga -2.841222 -2.841222 -5.784051
Ga -2.841222 -5.716313 -2.908960
Ga -5.716313 -2.841222 -2.908960
Ga -5.716313 -5.716313 -0.033869
Ga -2.841222 -2.841222 -0.033869
Ga -2.841222 -5.716313 2.841222
Ga -5.716313 -2.841222 2.841222
Ga -5.716313 -5.716313 5.716313
Ga -2.841222 -2.841222 5.716313
Ga -2.841222 -5.716313 8.591404
Ga -5.716313 -2.841222 8.591404
Ga -5.716313 -5.716313 11.466495
Ga -2.841222 -2.841222 11.466495
Ga -2.841222 2.908960 -11.534233
Ga -2.841222 0.033869 -8.659142
Ga -5.716313 2.908960 -8.659142
Ga -5.716313 0.033869 -5.784051
Ga -2.841222 2.908960 -5.784051
Ga -2.841222 0.033869 -2.908960
Ga -5.716313 2.908960 -2.908960
Ga -5.716313 0.033869 -0.033869
Ga -2.841222 2.908960 -0.033869
Ga -2.841222 0.033869 2.841222
Ga -5.716313 2.908960 2.841222
Ga -5.716313 0.033869 5.716313
Ga -2.841222 2.908960 5.716313
Ga -2.841222 0.033869 8.591404
Ga -5.716313 5.784051 -11.534233
Ga -2.841222 5.784051 -8.659142
Ga -5.716313 8.659142 -8.659142
Ga -5.716313 5.784051 -5.784051
Ga -2.841222 8.659142 -5.784051
Ga -2.841222 5.784051 -2.908960
Ga -5.716313 8.659142 -2.908960
Ga -5.716313 5.784051 -0.033869
Ga -2.841222 8.659142 -0.033869
Ga -2.841222 5.784051 2.841222
Ga -5.716313 11.534233 -5.784051
Ga -2.841222 11.534233 -2.908960
Ga 2.908960 -8.591404 -5.784051
Ga 2.908960 -11.466495 -2.908960
Ga 0.033869 -8.591404 -2.908960
Ga 0.033869 -11.466495 -0.033869
Ga 2.908960 -8.591404 -0.033869
Ga 0.033869 -8.591404 2.841222
Ga 2.908960 -2.841222 -11.534233
Ga 2.908960 -5.716313 -8.659142
Ga 0.033869 -2.841222 -8.659142
Ga 0.033869 -5.716313 -5.784051
Ga 2.908960 -2.841222 -5.784051
Ga 2.908960 -5.716313 -2.908960
Ga 0.033869 -2.841222 -2.908960
Ga 0.033869 -5.716313 -0.033869
Ga 2.908960 -2.841222 -0.033869
Ga 2.908960 -5.716313 2.841222
Ga 0.033869 -2.841222 2.841222
Ga 0.033869 -5.716313 5.716313
Ga 2.908960 -2.841222 5.716313
Ga 0.033869 -2.841222 8.591404
Ga 0.033869 0.033869 -11.534233
Ga 2.908960 0.033869 -8.659142
Ga 0.033869 2.908960 -8.659142
Ga 0.033869 0.033869 -5.784051
Ga 2.908960 2.908960 -5.784051
Ga 2.908960 0.033869 -2.908960
Ga 0.033869 2.908960 -2.908960
Ga 0.033869 0.033869 -0.033869
Ga 2.908960 2.908960 -0.033869
Ga 2.908960 0.033869 2.841222
Ga 0.033869 2.908960 2.841222
Ga 0.033869 0.033869 5.716313
Ga 2.908960 2.908960 5.716313
Ga 2.908960 0.033869 8.591404
Ga 0.033869 2.908960 8.591404
Ga 0.033869 0.033869 11.466495
Ga 2.908960 2.908960 11.466495
Ga 0.033869 5.784051 -5.784051
Ga 2.908960 5.784051 -2.908960
Ga 0.033869 8.659142 -2.908960
Ga 0.033869 5.784051 -0.033869
Ga 2.908960 8.659142 -0.033869
Ga 2.908960 5.784051 2.841222
Ga 0.033869 8.659142 2.841222
Ga 0.033869 5.784051 5.716313
Ga 2.908960 8.659142 5.716313
Ga 2.908960 5.784051 8.591404
Ga 0.033869 11.534233 -0.033869
Ga 2.908960 11.534233 2.841222
Ga 8.659142 -8.591404 -11.534233
Ga 8.659142 -11.466495 -8.659142
Ga 5.784051 -8.591404 -8.659142
Ga 5.784051 -11.466495 -5.784051
Ga 8.659142 -8.591404 -5.784051
Ga 5.784051 -8.591404 -2.908960
Ga 5.784051 -5.716313 -11.534233
Ga 8.659142 -5.716313 -8.659142
Ga 5.784051 -2.841222 -8.659142
Ga 5.784051 -5.716313 -5.784051
Ga 8.659142 -2.841222 -5.784051
Ga 8.659142 -5.716313 -2.908960
Ga 5.784051 -2.841222 -2.908960
Ga 5.784051 -5.716313 -0.033869
Ga 8.659142 -2.841222 -0.033869
Ga 5.784051 -2.841222 2.841222
Ga 5.784051 0.033869 -5.784051
Ga 8.659142 0.033869 -2.908960
Ga 5.784051 2.908960 -2.908960
Ga 5.784051 0.033869 -0.033869
Ga 8.659142 2.908960 -0.033869
Ga 8.659142 0.033869 2.841222
Ga 5.784051 2.908960 2.841222
Ga 5.784051 0.033869 5.716313
Ga 8.659142 2.908960 5.716313
Ga 5.784051 2.908960 8.591404
Ga 5.784051 5.784051 -0.033869
Ga 8.659142 5.784051 2.841222
Ga 5.784051 8.659142 2.841222
Ga 5.784051 5.784051 5.716313
Ga 8.659142 8.659142 5.716313
Ga 8.659142 5.784051 8.591404
Ga 5.784051 8.659142 8.591404
Ga 5.784051 5.784051 11.466495
Ga 8.659142 8.659142 11.466495
Ga 5.784051 11.534233 5.716313
Ga 8.659142 11.534233 8.591404
Ga 11.534233 -11.466495 -11.534233
Ga 11.534233 -8.591404 -8.659142
Ga 11.534233 -5.716313 -5.784051
Ga 11.534233 -2.841222 -2.908960
Ga 11.534233 0.033869 -0.033869
Ga 11.534233 2.908960 2.841222
Ga 11.534233 5.784051 5.716313
Ga 11.534233 8.659142 8.591404
Ga 11.534233 11.534233 11.466495
As -7.153859 -7.153859 1.403677
As -10.028950 -7.153859 10.028950
As -7.153859 -7.153859 7.153859
As -10.028950 -1.403677 -1.471414
As -7.153859 -1.403677 -4.346505
As -7.153859 -4.278768 -1.471414
As -10.028950 -4.278768 1.403677
As -10.028950 -1.403677 4.278768
As -7.153859 -1.403677 1.403677
As -7.153859 -4.278768 4.278768
As -7.153859 -1.403677 7.153859
As -10.028950 4.346505 -7.221596
As -7.153859 4.346505 -10.096688
As -7.153859 1.471414 -7.221596
As -10.028950 1.471414 -4.346505
As -10.028950 4.346505 -1.471414
As -7.153859 4.346505 -4.346505
As -7.153859 1.471414 -1.471414
As -10.028950 1.471414 1.403677
As -7.153859 4.346505 1.403677
As -7.153859 1.471414 4.278768
As -10.028950 7.221596 -10.096688
As -7.153859 7.221596 -7.221596
As -10.028950 7.221596 -4.346505
As -4.278768 -7.153859 -1.471414
As -1.403677 -7.153859 -4.346505
As -1.403677 -10.028950 -1.471414
As -4.278768 -10.028950 1.403677
As -4.278768 -7.153859 4.278768
As -1.403677 -7.153859 1.403677
As -1.403677 -10.028950 4.278768
As -1.403677 -7.153859 7.153859
As -4.278768 -1.403677 -7.221596
As -1.403677 -1.403677 -10.096688
As -1.403677 -4.278768 -7.221596
As -4.278768 -4.278768 -4.346505
As -4.278768 -1.403677 -1.471414
As -1.403677 -1.403677 -4.346505
As -1.403677 -4.278768 -1.471414
As -4.278768 -4.278768 1.403677
As -4.278768 -1.403677 4.278768
As -1.403677 -1.403677 1.403677
As -1.403677 -4.278768 4.278768
As -4.278768 -4.278768 7.153859
As -4.278768 -1.403677 10.028950
As -1.403677 -1.403677 7.153859
As -1.403677 -4.278768 10.028950
As -4.278768 1.471414 -10.096688
As -4.278768 4.346505 -7.221596
As -1.403677 4.346505 -10.096688
As -1.403677 1.471414 -7.221596
As -4.278768 1.471414 -4.346505
As -4.278768 4.346505 -1.471414
As -1.403677 4.346505 -4.346505
As -1.403677 1.471414 -1.471414
As -4.278768 1.471414 1.403677
As -4.278768 4.346505 4.278768
As -1.403677 4.346505 1.403677
As -1.403677 1.471414 4.278768
As -4.278768 1.471414 7.153859
As -1.403677 4.346505 7.153859
As -1.403677 7.221596 -7.221596
As -4.278768 7.221596 -4.346505
As -1.403677 7.221596 -1.471414
As -4.278768 7.221596 1.403677
As -1.403677 10.096688 1.403677
As -1.403677 7.221596 4.278768
As 1.471414 -7.153859 -7.221596
As 4.346505 -7.153859 -10.096688
As 4.346505 -10.028950 -7.221596
As 1.471414 -10.028950 -4.346505
As 1.471414 -7.153859 -1.471414
As 4.346505 -7.153859 -4.346505
As 1.471414 -10.028950 1.403677
As 1.471414 -7.153859 4.278768
As 4.346505 -7.153859 1.403677
As 1.471414 -4.278768 -10.096688
As 1.471414 -1.403677 -7.221596
As 4.346505 -1.403677 -10.096688
As 4.346505 -4.278768 -7.221596
As 1.471414 -4.278768 -4.346505
As 1.471414 -1.403677 -1.471414
As 4.346505 -1.403677 -4.346505
As 4.346505 -4.278768 -1.471414
As 1.471414 -4.278768 1.403677
As 1.471414 -1.403677 4.278768
As 4.346505 -1.403677 1.403677
As 4.346505 -4.278768 4.278768
As 1.471414 -4.278768 7.153859
As 1.471414 -1.403677 10.028950
As 4.346505 -1.403677 7.153859
As 1.471414 1.471414 -10.096688
As 1.471414 4.346505 -7.221596
As 4.346505 1.471414 -7.221596
As 1.471414 1.471414 -4.346505
As 1.471414 4.346505 -1.471414
As 4.346505 4.346505 -4.346505
As 4.346505 1.471414 -1.471414
As 1.471414 1.471414 1.403677
As 1.471414 4.346505 4.278768
As 4.346505 4.346505 1.403677
As 4.346505 1.471414 4.278768
As 1.471414 1.471414 7.153859
As 4.346505 4.346505 7.153859
As 4.346505 1.471414 10.028950
As 1.471414 7.221596 -4.346505
As 1.471414 10.096688 -1.471414
As 1.471414 7.221596 1.403677
As 4.346505 7.221596 4.278768
As 1.471414 7.221596 7.153859
As 4.346505 7.221596 10.028950
As 7.221596 -7.153859 -7.221596
As 10.096688 -10.028950 -7.221596
As 7.221596 -10.028950 -4.346505
As 7.221596 -7.153859 -1.471414
As 10.096688 -7.153859 -4.346505
As 7.221596 -4.278768 -10.096688
As 7.221596 -1.403677 -7.221596
As 10.096688 -4.278768 -7.221596
As 7.221596 -4.278768 -4.346505
As 7.221596 -1.403677 -1.471414
As 10.096688 -1.403677 -4.346505
As 10.096688 -4.278768 -1.471414
As 7.221596 -4.278768 1.403677
As 7.221596 -1.403677 4.278768
As 10.096688 -1.403677 1.403677
As 7.221596 1.471414 -4.346505
As 7.221596 4.346505 -1.471414
As 10.096688 1.471414 -1.471414
As 7.221596 1.471414 1.403677
As 7.221596 4.346505 4.278768
As 10.096688 4.346505 1.403677
As 10.096688 1.471414 4.278768
As 7.221596 1.471414 7.153859
As 7.221596 4.346505 10.028950
As 10.096688 4.346505 7.153859
As 7.221596 7.221596 1.403677
As 7.221596 7.221596 7.153859
As 7.221596 10.096688 10.028950
Cl -12.904041 -7.153859 7.153859
Cl -12.904041 -10.028950 10.028950
Cl -12.904041 -1.403677 1.403677
Cl -12.904041 -4.278768 4.278768
Cl -12.904041 4.346505 -4.346505
Cl -12.904041 1.471414 -1.471414
Cl -12.904041 10.096688 -10.096688
Cl -12.904041 7.221596 -7.221596
Cl -10.028950 -12.904041 10.028950
Cl -7.153859 -12.904041 7.153859
Cl -10.028950 -7.153859 4.278768
Cl -7.153859 -10.028950 4.278768
Cl -10.028950 -10.028950 7.153859
Cl -7.153859 -10.028950 10.028950
Cl -10.028950 -10.028950 12.904041
Cl -7.153859 -7.153859 12.904041
Cl -10.028950 -4.278768 7.153859
Cl -7.153859 -4.278768 10.028950
Cl -10.028950 10.096688 -12.971779
Cl -7.153859 7.221596 -12.971779
Cl -10.028950 10.096688 -7.221596
Cl -7.153859 10.096688 -10.096688
Cl -7.153859 10.096688 -4.346505
Cl -7.153859 7.221596 -1.471414
Cl -10.028950 12.971779 -10.096688
Cl -7.153859 12.971779 -7.221596
Cl -4.278768 -12.904041 4.278768
Cl -1.403677 -12.904041 1.403677
Cl -4.278768 -10.028950 7.153859
Cl -4.278768 -7.153859 10.028950
Cl -4.278768 -4.278768 12.904041
Cl -1.403677 -1.403677 12.904041
Cl -4.278768 4.346505 -12.971779
Cl -1.403677 1.471414 -12.971779
Cl -1.403677 1.471414 10.028950
Cl -4.278768 7.221596 -10.096688
Cl -4.278768 10.096688 -7.221596
Cl -4.278768 10.096688 -1.471414
Cl -1.403677 10.096688 -4.346505
Cl -4.278768 12.971779 -4.346505
Cl -1.403677 12.971779 -1.471414
Cl 1.471414 -12.904041 -1.471414
Cl 4.346505 -12.904041 -4.346505
Cl 4.346505 -10.028950 -1.471414
Cl 1.471414 -1.403677 -12.971779
Cl 4.346505 -4.278768 -12.971779
Cl 1.471414 4.346505 10.028950
Cl 1.471414 1.471414 12.904041
Cl 4.346505 4.346505 12.904041
Cl 4.346505 7.221596 -1.471414
Cl 1.471414 10.096688 4.278768
Cl 4.346505 10.096688 1.403677
Cl 4.346505 10.096688 7.153859
Cl 1.471414 12.971779 1.403677
Cl 4.346505 12.971779 4.278768
Cl 7.221596 -12.904041 -7.221596
Cl 10.096688 -12.904041 -10.096688
Cl 7.221596 -7.153859 -12.971779
Cl 10.096688 -10.028950 -12.971779
Cl 7.221596 -10.028950 -10.096688
Cl 10.096688 -7.153859 -10.096688
Cl 7.221596 10.096688 4.278768
Cl 10.096688 7.221596 4.278768
Cl 10.096688 10.096688 7.153859
Cl 10.096688 7.221596 10.028950
Cl 7.221596 7.221596 12.904041
Cl 10.096688 10.096688 12.904041
Cl 7.221596 12.971779 7.153859
Cl 10.096688 12.971779 10.028950
Cl 12.971779 -10.028950 -10.096688
Cl 12.971779 -7.153859 -7.221596
Cl 12.971779 -4.278768 -4.346505
Cl 12.971779 -1.403677 -1.471414
Cl 12.971779 1.471414 1.403677
Cl 12.971779 4.346505 4.278768
Cl 12.971779 7.221596 7.153859
Cl 12.971779 10.096688 10.028950
Cl -12.904041 -12.904041 12.904041
