2124
CdSe-Se-Cd985Se831Cl308-reconstructed
Cd -16.894442 -19.957486 -1.528631
Cd -19.964713 -16.887214 -1.528631
Cd -16.894442 -10.746672 -10.739444
Cd -16.894442 -13.816943 -7.669173
Cd -19.964713 -10.746672 -7.669173
Cd -19.964713 -13.816943 -4.598902
Cd -16.894442 -10.746672 -4.598902
Cd -16.894442 -13.816943 -1.528631
Cd -19.964713 -10.746672 -1.528631
Cd -19.964713 -13.816943 1.541640
Cd -16.894442 -10.746672 1.541640
Cd -16.894442 -13.816943 4.611912
Cd -19.964713 -10.746672 4.611912
Cd -16.894442 -10.746672 7.682183
Cd -16.894442 -4.606130 -16.879987
Cd -19.964713 -4.606130 -13.809716
Cd -19.964713 -7.676401 -10.739444
Cd -16.894442 -4.606130 -10.739444
Cd -16.894442 -7.676401 -7.669173
Cd -19.964713 -4.606130 -7.669173
Cd -19.964713 -7.676401 -4.598902
Cd -16.894442 -4.606130 -4.598902
Cd -16.894442 -7.676401 -1.528631
Cd -19.964713 -4.606130 -1.528631
Cd -19.964713 -7.676401 1.541640
Cd -16.894442 -4.606130 1.541640
Cd -16.894442 -7.676401 4.611912
Cd -19.964713 -4.606130 4.611912
Cd -19.964713 -7.676401 7.682183
Cd -16.894442 -4.606130 7.682183
Cd -19.964713 -4.606130 10.752454
Cd -16.894442 -4.606130 13.822725
Cd -16.894442 -1.535858 -19.950258
Cd -19.964713 -1.535858 -16.879987
Cd -16.894442 -1.535858 -13.809716
Cd -19.964713 1.534413 -13.809716
Cd -19.964713 -1.535858 -10.739444
Cd -16.894442 1.534413 -10.739444
Cd -16.894442 -1.535858 -7.669173
Cd -19.964713 1.534413 -7.669173
Cd -19.964713 -1.535858 -4.598902
Cd -16.894442 1.534413 -4.598902
Cd -16.894442 -1.535858 -1.528631
Cd -19.964713 1.534413 -1.528631
Cd -19.964713 -1.535858 1.541640
Cd -16.894442 1.534413 1.541640
Cd -16.894442 -1.535858 4.611912
Cd -19.964713 1.534413 4.611912
Cd -19.964713 -1.535858 7.682183
Cd -16.894442 1.534413 7.682183
Cd -16.894442 -1.535858 10.752454
Cd -19.964713 1.534413 10.752454
Cd -19.964713 -1.535858 13.822725
Cd -16.894442 1.534413 13.822725
Cd -16.894442 -1.535858 16.892996
Cd -19.964713 1.534413 16.892996
Cd -16.894442 1.534413 19.963268
Cd -16.894442 4.604684 -13.809716
Cd -19.964713 4.604684 -10.739444
Cd -16.894442 7.674955 -10.739444
Cd -16.894442 4.604684 -7.669173
Cd -19.964713 7.674955 -7.669173
Cd -19.964713 4.604684 -4.598902
Cd -16.894442 7.674955 -4.598902
Cd -16.894442 4.604684 -1.528631
Cd -19.964713 7.674955 -1.528631
Cd -19.964713 4.604684 1.541640
Cd -16.894442 7.674955 1.541640
Cd -16.894442 4.604684 4.611912
Cd -19.964713 7.674955 4.611912
Cd -19.964713 4.604684 7.682183
Cd -16.894442 7.674955 7.682183
Cd -16.894442 4.604684 10.752454
Cd -19.964713 7.674955 10.752454
Cd -19.964713 4.604684 13.822725
Cd -16.894442 4.604684 16.892996
Cd -19.964713 10.745226 -4.598902
Cd -16.894442 13.815498 -4.598902
Cd -16.894442 10.745226 -1.528631
Cd -19.964713 13.815498 -1.528631
Cd -19.964713 10.745226 1.541640
Cd -16.894442 13.815498 1.541640
Cd -16.894442 10.745226 4.611912
Cd -19.964713 13.815498 4.611912
Cd -19.964713 10.745226 7.682183
Cd -16.894442 13.815498 7.682183
Cd -16.894442 10.745226 10.752454
Cd -16.894442 16.885769 -1.528631
Cd -19.964713 16.885769 1.541640
Cd -16.894442 19.956040 1.541640
Cd -10.753900 -16.887214 -10.739444
Cd -10.753900 -19.957486 -7.669173
Cd -13.824171 -16.887214 -7.669173
Cd -13.824171 -19.957486 -4.598902
Cd -10.753900 -16.887214 -4.598902
Cd -10.753900 -19.957486 -1.528631
Cd -13.824171 -16.887214 -1.528631
Cd -13.824171 -19.957486 1.541640
Cd -10.753900 -16.887214 1.541640
Cd -10.753900 -19.957486 4.611912
Cd -13.824171 -16.887214 4.611912
Cd -10.753900 -16.887214 7.682183
Cd -10.753900 -13.816943 -13.809716
Cd -13.824171 -10.746672 -13.809716
Cd -10.753900 -10.746672 -10.739444
Cd -10.753900 -13.816943 -7.669173
Cd -13.824171 -10.746672 -7.669173
Cd -13.824171 -13.816943 -4.598902
Cd -10.753900 -10.746672 -4.598902
Cd -10.753900 -13.816943 -1.528631
Cd -13.824171 -10.746672 -1.528631
Cd -13.824171 -13.816943 1.541640
Cd -10.753900 -10.746672 1.541640
Cd -10.753900 -13.816943 4.611912
Cd -13.824171 -10.746672 4.611912
Cd -10.753900 -10.746672 7.682183
Cd -10.753900 -13.816943 10.752454
Cd -13.824171 -10.746672 10.752454
Cd -10.753900 -7.676401 -19.950258
Cd -13.824171 -4.606130 -19.950258
Cd -13.824171 -7.676401 -16.879987
Cd -10.753900 -4.606130 -16.879987
Cd -10.753900 -7.676401 -13.809716
Cd -13.824171 -4.606130 -13.809716
Cd -13.824171 -7.676401 -10.739444
Cd -10.753900 -4.606130 -10.739444
Cd -10.753900 -7.676401 -7.669173
Cd -13.824171 -4.606130 -7.669173
Cd -13.824171 -7.676401 -4.598902
Cd -10.753900 -4.606130 -4.598902
Cd -10.753900 -7.676401 -1.528631
Cd -13.824171 -4.606130 -1.528631
Cd -13.824171 -7.676401 1.541640
Cd -10.753900 -4.606130 1.541640
Cd -10.753900 -7.676401 4.611912
Cd -13.824171 -4.606130 4.611912
Cd -13.824171 -7.676401 7.682183
Cd -10.753900 -4.606130 7.682183
Cd -10.753900 -7.676401 10.752454
Cd -13.824171 -4.606130 10.752454
Cd -13.824171 -7.676401 13.822725
Cd -10.753900 -4.606130 13.822725
Cd -10.753900 -7.676401 16.892996
Cd -10.753900 -4.606130 19.963268
Cd -10.753900 -1.535858 -19.950258
Cd -13.824171 1.534413 -19.950258
Cd -13.824171 -1.535858 -16.879987
Cd -10.753900 1.534413 -16.879987
Cd -10.753900 -1.535858 -13.809716
Cd -13.824171 1.534413 -13.809716
Cd -13.824171 -1.535858 -10.739444
Cd -10.753900 1.534413 -10.739444
Cd -10.753900 -1.535858 -7.669173
Cd -13.824171 1.534413 -7.669173
Cd -13.824171 -1.535858 -4.598902
Cd -10.753900 1.534413 -4.598902
Cd -10.753900 -1.535858 -1.528631
Cd -13.824171 1.534413 -1.528631
Cd -13.824171 -1.535858 1.541640
Cd -10.753900 1.534413 1.541640
Cd -10.753900 -1.535858 4.611912
Cd -13.824171 1.534413 4.611912
Cd -13.824171 -1.535858 7.682183
Cd -10.753900 1.534413 7.682183
Cd -10.753900 -1.535858 10.752454
Cd -13.824171 1.534413 10.752454
Cd -13.824171 -1.535858 13.822725
Cd -10.753900 1.534413 13.822725
Cd -10.753900 -1.535858 16.892996
Cd -13.824171 1.534413 16.892996
Cd -13.824171 -1.535858 19.963268
Cd -10.753900 1.534413 19.963268
Cd -10.753900 4.604684 -19.950258
Cd -13.824171 4.604684 -16.879987
Cd -10.753900 7.674955 -16.879987
Cd -10.753900 4.604684 -13.809716
Cd -13.824171 4.604684 -10.739444
Cd -10.753900 7.674955 -10.739444
Cd -10.753900 4.604684 -7.669173
Cd -13.824171 7.674955 -7.669173
Cd -13.824171 4.604684 -4.598902
Cd -10.753900 7.674955 -4.598902
Cd -10.753900 4.604684 -1.528631
Cd -13.824171 7.674955 -1.528631
Cd -13.824171 4.604684 1.541640
Cd -10.753900 7.674955 1.541640
Cd -10.753900 4.604684 4.611912
Cd -13.824171 7.674955 4.611912
Cd -13.824171 4.604684 7.682183
Cd -10.753900 7.674955 7.682183
Cd -10.753900 4.604684 10.752454
Cd -13.824171 7.674955 10.752454
Cd -13.824171 4.604684 13.822725
Cd -10.753900 7.674955 13.822725
Cd -10.753900 4.604684 16.892996
Cd -13.824171 7.674955 16.892996
Cd -10.753900 7.674955 19.963268
Cd -10.753900 10.745226 -13.809716
Cd -13.824171 10.745226 -10.739444
Cd -10.753900 10.745226 -7.669173
Cd -13.824171 13.815498 -7.669173
Cd -13.824171 10.745226 -4.598902
Cd -10.753900 13.815498 -4.598902
Cd -10.753900 10.745226 -1.528631
Cd -13.824171 13.815498 -1.528631
Cd -13.824171 10.745226 1.541640
Cd -10.753900 13.815498 1.541640
Cd -10.753900 10.745226 4.611912
Cd -13.824171 13.815498 4.611912
Cd -13.824171 10.745226 7.682183
Cd -10.753900 13.815498 7.682183
Cd -10.753900 10.745226 10.752454
Cd -13.824171 10.745226 13.822725
Cd -10.753900 13.815498 13.822725
Cd -10.753900 16.885769 -7.669173
Cd -10.753900 19.956040 -4.598902
Cd -10.753900 16.885769 -1.528631
Cd -13.824171 19.956040 -1.528631
Cd -13.824171 16.885769 1.541640
Cd -10.753900 19.956040 1.541640
Cd -10.753900 16.885769 4.611912
Cd -13.824171 19.956040 4.611912
Cd -13.824171 16.885769 7.682183
Cd -10.753900 19.956040 7.682183
Cd -10.753900 16.885769 10.752454
Cd -4.613357 -16.887214 -16.879987
Cd -4.613357 -19.957486 -13.809716
Cd -7.683628 -19.957486 -10.739444
Cd -4.613357 -16.887214 -10.739444
Cd -4.613357 -19.957486 -7.669173
Cd -7.683628 -16.887214 -7.669173
Cd -7.683628 -19.957486 -4.598902
Cd -4.613357 -16.887214 -4.598902
Cd -4.613357 -19.957486 -1.528631
Cd -7.683628 -16.887214 -1.528631
Cd -7.683628 -19.957486 1.541640
Cd -4.613357 -16.887214 1.541640
Cd -4.613357 -19.957486 4.611912
Cd -7.683628 -16.887214 4.611912
Cd -7.683628 -19.957486 7.682183
Cd -4.613357 -16.887214 7.682183
Cd -4.613357 -19.957486 10.752454
Cd -4.613357 -16.887214 13.822725
Cd -4.613357 -13.816943 -19.950258
Cd -7.683628 -10.746672 -19.950258
Cd -7.683628 -13.816943 -16.879987
Cd -4.613357 -10.746672 -16.879987
Cd -4.613357 -13.816943 -13.809716
Cd -7.683628 -10.746672 -13.809716
Cd -7.683628 -13.816943 -10.739444
Cd -4.613357 -10.746672 -10.739444
Cd -4.613357 -13.816943 -7.669173
Cd -7.683628 -10.746672 -7.669173
Cd -7.683628 -13.816943 -4.598902
Cd -4.613357 -10.746672 -4.598902
Cd -4.613357 -13.816943 -1.528631
Cd -7.683628 -10.746672 -1.528631
Cd -7.683628 -13.816943 1.541640
Cd -4.613357 -10.746672 1.541640
Cd -4.613357 -13.816943 4.611912
Cd -7.683628 -10.746672 4.611912
Cd -7.683628 -13.816943 7.682183
Cd -4.613357 -10.746672 7.682183
Cd -4.613357 -13.816943 10.752454
Cd -7.683628 -10.746672 10.752454
Cd -7.683628 -13.816943 13.822725
Cd -4.613357 -10.746672 13.822725
Cd -7.683628 -10.746672 16.892996
Cd -4.613357 -10.746672 19.963268
Cd -4.613357 -7.676401 -19.950258
Cd -7.683628 -4.606130 -19.950258
Cd -7.683628 -7.676401 -16.879987
Cd -4.613357 -4.606130 -16.879987
Cd -4.613357 -7.676401 -13.809716
Cd -7.683628 -4.606130 -13.809716
Cd -7.683628 -7.676401 -10.739444
Cd -4.613357 -4.606130 -10.739444
Cd -4.613357 -7.676401 -7.669173
Cd -7.683628 -4.606130 -7.669173
Cd -7.683628 -7.676401 -4.598902
Cd -4.613357 -4.606130 -4.598902
Cd -4.613357 -7.676401 -1.528631
Cd -7.683628 -4.606130 -1.528631
Cd -7.683628 -7.676401 1.541640
Cd -4.613357 -4.606130 1.541640
Cd -4.613357 -7.676401 4.611912
Cd -7.683628 -4.606130 4.611912
Cd -7.683628 -7.676401 7.682183
Cd -4.613357 -4.606130 7.682183
Cd -4.613357 -7.676401 10.752454
Cd -7.683628 -4.606130 10.752454
Cd -7.683628 -7.676401 13.822725
Cd -4.613357 -4.606130 13.822725
Cd -4.613357 -7.676401 16.892996
Cd -7.683628 -4.606130 16.892996
Cd -7.683628 -7.676401 19.963268
Cd -4.613357 -4.606130 19.963268
Cd -4.613357 -1.535858 -19.950258
Cd -7.683628 1.534413 -19.950258
Cd -7.683628 -1.535858 -16.879987
Cd -4.613357 1.534413 -16.879987
Cd -4.613357 -1.535858 -13.809716
Cd -7.683628 1.534413 -13.809716
Cd -7.683628 -1.535858 -10.739444
Cd -4.613357 1.534413 -10.739444
Cd -4.613357 -1.535858 -7.669173
Cd -7.683628 1.534413 -7.669173
Cd -7.683628 -1.535858 -4.598902
Cd -4.613357 1.534413 -4.598902
Cd -4.613357 -1.535858 -1.528631
Cd -7.683628 1.534413 -1.528631
Cd -7.683628 -1.535858 1.541640
Cd -4.613357 1.534413 1.541640
Cd -4.613357 -1.535858 4.611912
Cd -7.683628 1.534413 4.611912
Cd -7.683628 -1.535858 7.682183
Cd -4.613357 1.534413 7.682183
Cd -4.613357 -1.535858 10.752454
Cd -7.683628 1.534413 10.752454
Cd -7.683628 -1.535858 13.822725
Cd -4.613357 1.534413 13.822725
Cd -4.613357 -1.535858 16.892996
Cd -7.683628 1.534413 16.892996
Cd -7.683628 -1.535858 19.963268
Cd -4.613357 1.534413 19.963268
Cd -4.613357 4.604684 -19.950258
Cd -7.683628 7.674955 -19.950258
Cd -7.683628 4.604684 -16.879987
Cd -4.613357 7.674955 -16.879987
Cd -4.613357 4.604684 -13.809716
Cd -7.683628 7.674955 -13.809716
Cd -7.683628 4.604684 -10.739444
Cd -4.613357 7.674955 -10.739444
Cd -4.613357 4.604684 -7.669173
Cd -7.683628 7.674955 -7.669173
Cd -7.683628 4.604684 -4.598902
Cd -4.613357 7.674955 -4.598902
Cd -4.613357 4.604684 -1.528631
Cd -7.683628 7.674955 -1.528631
Cd -7.683628 4.604684 1.541640
Cd -4.613357 7.674955 1.541640
Cd -4.613357 4.604684 4.611912
Cd -7.683628 7.674955 4.611912
Cd -7.683628 4.604684 7.682183
Cd -4.613357 7.674955 7.682183
Cd -4.613357 4.604684 10.752454
Cd -7.683628 7.674955 10.752454
Cd -7.683628 4.604684 13.822725
Cd -4.613357 7.674955 13.822725
Cd -4.613357 4.604684 16.892996
Cd -7.683628 7.674955 16.892996
Cd -7.683628 4.604684 19.963268
Cd -4.613357 7.674955 19.963268
Cd -4.613357 10.745226 -19.950258
Cd -4.613357 13.815498 -16.879987
Cd -4.613357 10.745226 -13.809716
Cd -7.683628 13.815498 -13.809716
Cd -7.683628 10.745226 -10.739444
Cd -4.613357 13.815498 -10.739444
Cd -4.613357 10.745226 -7.669173
Cd -7.683628 13.815498 -7.669173
Cd -7.683628 10.745226 -4.598902
Cd -4.613357 13.815498 -4.598902
Cd -4.613357 10.745226 -1.528631
Cd -7.683628 13.815498 -1.528631
Cd -7.683628 10.745226 1.541640
Cd -4.613357 13.815498 1.541640
Cd -4.613357 10.745226 4.611912
Cd -7.683628 13.815498 4.611912
Cd -7.683628 10.745226 7.682183
Cd -4.613357 13.815498 7.682183
Cd -4.613357 10.745226 10.752454
Cd -7.683628 13.815498 10.752454
Cd -7.683628 10.745226 13.822725
Cd -4.613357 13.815498 13.822725
Cd -4.613357 10.745226 16.892996
Cd -7.683628 13.815498 16.892996
Cd -7.683628 10.745226 19.963268
Cd -4.613357 13.815498 19.963268
Cd -7.683628 16.885769 -10.739444
Cd -4.613357 19.956040 -10.739444
Cd -4.613357 16.885769 -7.669173
Cd -7.683628 19.956040 -7.669173
Cd -7.683628 16.885769 -4.598902
Cd -4.613357 19.956040 -4.598902
Cd -4.613357 16.885769 -1.528631
Cd -7.683628 19.956040 -1.528631
Cd -7.683628 16.885769 1.541640
Cd -4.613357 19.956040 1.541640
Cd -4.613357 16.885769 4.611912
Cd -7.683628 19.956040 4.611912
Cd -7.683628 16.885769 7.682183
Cd -4.613357 19.956040 7.682183
Cd -4.613357 16.885769 10.752454
Cd -7.683628 19.956040 10.752454
Cd -4.613357 19.956040 13.822725
Cd -4.613357 16.885769 16.892996
Cd -1.543086 -16.887214 -19.950258
Cd -1.543086 -19.957486 -16.879987
Cd 1.527185 -19.957486 -13.809716
Cd -1.543086 -16.887214 -13.809716
Cd -1.543086 -19.957486 -10.739444
Cd 1.527185 -16.887214 -10.739444
Cd 1.527185 -19.957486 -7.669173
Cd -1.543086 -16.887214 -7.669173
Cd -1.543086 -19.957486 -4.598902
Cd 1.527185 -16.887214 -4.598902
Cd 1.527185 -19.957486 -1.528631
Cd -1.543086 -16.887214 -1.528631
Cd -1.543086 -19.957486 1.541640
Cd 1.527185 -16.887214 1.541640
Cd 1.527185 -19.957486 4.611912
Cd -1.543086 -16.887214 4.611912
Cd -1.543086 -19.957486 7.682183
Cd 1.527185 -16.887214 7.682183
Cd 1.527185 -19.957486 10.752454
Cd -1.543086 -16.887214 10.752454
Cd -1.543086 -19.957486 13.822725
Cd 1.527185 -16.887214 13.822725
Cd 1.527185 -19.957486 16.892996
Cd -1.543086 -16.887214 16.892996
Cd 1.527185 -16.887214 19.963268
Cd 1.527185 -13.816943 -19.950258
Cd -1.543086 -10.746672 -19.950258
Cd -1.543086 -13.816943 -16.879987
Cd 1.527185 -10.746672 -16.879987
Cd 1.527185 -13.816943 -13.809716
Cd -1.543086 -10.746672 -13.809716
Cd -1.543086 -13.816943 -10.739444
Cd 1.527185 -10.746672 -10.739444
Cd 1.527185 -13.816943 -7.669173
Cd -1.543086 -10.746672 -7.669173
Cd -1.543086 -13.816943 -4.598902
Cd 1.527185 -10.746672 -4.598902
Cd 1.527185 -13.816943 -1.528631
Cd -1.543086 -10.746672 -1.528631
Cd -1.543086 -13.816943 1.541640
Cd 1.527185 -10.746672 1.541640
Cd 1.527185 -13.816943 4.611912
Cd -1.543086 -10.746672 4.611912
Cd -1.543086 -13.816943 7.682183
Cd 1.527185 -10.746672 7.682183
Cd 1.527185 -13.816943 10.752454
Cd -1.543086 -10.746672 10.752454
Cd -1.543086 -13.816943 13.822725
Cd 1.527185 -10.746672 13.822725
Cd 1.527185 -13.816943 16.892996
Cd -1.543086 -10.746672 16.892996
Cd -1.543086 -13.816943 19.963268
Cd 1.527185 -10.746672 19.963268
Cd 1.527185 -7.676401 -19.950258
Cd -1.543086 -4.606130 -19.950258
Cd -1.543086 -7.676401 -16.879987
Cd 1.527185 -4.606130 -16.879987
Cd 1.527185 -7.676401 -13.809716
Cd -1.543086 -4.606130 -13.809716
Cd -1.543086 -7.676401 -10.739444
Cd 1.527185 -4.606130 -10.739444
Cd 1.527185 -7.676401 -7.669173
Cd -1.543086 -4.606130 -7.669173
Cd -1.543086 -7.676401 -4.598902
Cd 1.527185 -4.606130 -4.598902
Cd 1.527185 -7.676401 -1.528631
Cd -1.543086 -4.606130 -1.528631
Cd -1.543086 -7.676401 1.541640
Cd 1.527185 -4.606130 1.541640
Cd 1.527185 -7.676401 4.611912
Cd -1.543086 -4.606130 4.611912
Cd -1.543086 -7.676401 7.682183
Cd 1.527185 -4.606130 7.682183
Cd 1.527185 -7.676401 10.752454
Cd -1.543086 -4.606130 10.752454
Cd -1.543086 -7.676401 13.822725
Cd 1.527185 -4.606130 13.822725
Cd 1.527185 -7.676401 16.892996
Cd -1.543086 -4.606130 16.892996
Cd -1.543086 -7.676401 19.963268
Cd 1.527185 -4.606130 19.963268
Cd 1.527185 -1.535858 -19.950258
Cd -1.543086 1.534413 -19.950258
Cd -1.543086 -1.535858 -16.879987
Cd 1.527185 1.534413 -16.879987
Cd 1.527185 -1.535858 -13.809716
Cd -1.543086 1.534413 -13.809716
Cd -1.543086 -1.535858 -10.739444
Cd 1.527185 1.534413 -10.739444
Cd 1.527185 -1.535858 -7.669173
Cd -1.543086 1.534413 -7.669173
Cd -1.543086 -1.535858 -4.598902
Cd 1.527185 1.534413 -4.598902
Cd 1.527185 -1.535858 -1.528631
Cd -1.543086 1.534413 -1.528631
Cd -1.543086 -1.535858 1.541640
Cd 1.527185 1.534413 1.541640
Cd 1.527185 -1.535858 4.611912
Cd -1.543086 1.534413 4.611912
Cd -1.543086 -1.535858 7.682183
Cd 1.527185 1.534413 7.682183
Cd 1.527185 -1.535858 10.752454
Cd -1.543086 1.534413 10.752454
Cd -1.543086 -1.535858 13.822725
Cd 1.527185 1.534413 13.822725
Cd 1.527185 -1.535858 16.892996
Cd -1.543086 1.534413 16.892996
Cd -1.543086 -1.535858 19.963268
Cd 1.527185 1.534413 19.963268
Cd 1.527185 4.604684 -19.950258
Cd -1.543086 7.674955 -19.950258
Cd -1.543086 4.604684 -16.879987
Cd 1.527185 7.674955 -16.879987
Cd 1.527185 4.604684 -13.809716
Cd -1.543086 7.674955 -13.809716
Cd -1.543086 4.604684 -10.739444
Cd 1.527185 7.674955 -10.739444
Cd 1.527185 4.604684 -7.669173
Cd -1.543086 7.674955 -7.669173
Cd -1.543086 4.604684 -4.598902
Cd 1.527185 7.674955 -4.598902
Cd 1.527185 4.604684 -1.528631
Cd -1.543086 7.674955 -1.528631
Cd -1.543086 4.604684 1.541640
Cd 1.527185 7.674955 1.541640
Cd 1.527185 4.604684 4.611912
Cd -1.543086 7.674955 4.611912
Cd -1.543086 4.604684 7.682183
Cd 1.527185 7.674955 7.682183
Cd 1.527185 4.604684 10.752454
Cd -1.543086 7.674955 10.752454
Cd -1.543086 4.604684 13.822725
Cd 1.527185 7.674955 13.822725
Cd 1.527185 4.604684 16.892996
Cd -1.543086 7.674955 16.892996
Cd -1.543086 4.604684 19.963268
Cd 1.527185 7.674955 19.963268
Cd 1.527185 10.745226 -19.950258
Cd -1.543086 13.815498 -19.950258
Cd -1.543086 10.745226 -16.879987
Cd 1.527185 13.815498 -16.879987
Cd 1.527185 10.745226 -13.809716
Cd -1.543086 13.815498 -13.809716
Cd -1.543086 10.745226 -10.739444
Cd 1.527185 13.815498 -10.739444
Cd 1.527185 10.745226 -7.669173
Cd -1.543086 13.815498 -7.669173
Cd -1.543086 10.745226 -4.598902
Cd 1.527185 13.815498 -4.598902
Cd 1.527185 10.745226 -1.528631
Cd -1.543086 13.815498 -1.528631
Cd -1.543086 10.745226 1.541640
Cd 1.527185 13.815498 1.541640
Cd 1.527185 10.745226 4.611912
Cd -1.543086 13.815498 4.611912
Cd -1.543086 10.745226 7.682183
Cd 1.527185 13.815498 7.682183
Cd 1.527185 10.745226 10.752454
Cd -1.543086 13.815498 10.752454
Cd -1.543086 10.745226 13.822725
Cd 1.527185 13.815498 13.822725
Cd 1.527185 10.745226 16.892996
Cd -1.543086 13.815498 16.892996
Cd -1.543086 10.745226 19.963268
Cd 1.527185 13.815498 19.963268
Cd 1.527185 16.885769 -19.950258
Cd -1.543086 16.885769 -16.879987
Cd 1.527185 19.956040 -16.879987
Cd 1.527185 16.885769 -13.809716
Cd -1.543086 19.956040 -13.809716
Cd -1.543086 16.885769 -10.739444
Cd 1.527185 19.956040 -10.739444
Cd 1.527185 16.885769 -7.669173
Cd -1.543086 19.956040 -7.669173
Cd -1.543086 16.885769 -4.598902
Cd 1.527185 19.956040 -4.598902
Cd 1.527185 16.885769 -1.528631
Cd -1.543086 19.956040 -1.528631
Cd -1.543086 16.885769 1.541640
Cd 1.527185 19.956040 1.541640
Cd 1.527185 16.885769 4.611912
Cd -1.543086 19.956040 4.611912
Cd -1.543086 16.885769 7.682183
Cd 1.527185 19.956040 7.682183
Cd 1.527185 16.885769 10.752454
Cd -1.543086 19.956040 10.752454
Cd -1.543086 16.885769 13.822725
Cd 1.527185 19.956040 13.822725
Cd -1.543086 19.956040 16.892996
Cd -1.543086 16.885769 19.963268
Cd 4.597456 -16.887214 -13.809716
Cd 4.597456 -19.957486 -10.739444
Cd 7.667728 -16.887214 -10.739444
Cd 7.667728 -19.957486 -7.669173
Cd 4.597456 -16.887214 -7.669173
Cd 4.597456 -19.957486 -4.598902
Cd 7.667728 -16.887214 -4.598902
Cd 7.667728 -19.957486 -1.528631
Cd 4.597456 -16.887214 -1.528631
Cd 4.597456 -19.957486 1.541640
Cd 7.667728 -16.887214 1.541640
Cd 7.667728 -19.957486 4.611912
Cd 4.597456 -16.887214 4.611912
Cd 4.597456 -19.957486 7.682183
Cd 7.667728 -16.887214 7.682183
Cd 7.667728 -19.957486 10.752454
Cd 4.597456 -16.887214 10.752454
Cd 4.597456 -19.957486 13.822725
Cd 4.597456 -16.887214 16.892996
Cd 4.597456 -10.746672 -19.950258
Cd 4.597456 -13.816943 -16.879987
Cd 7.667728 -10.746672 -16.879987
Cd 4.597456 -10.746672 -13.809716
Cd 4.597456 -13.816943 -10.739444
Cd 7.667728 -10.746672 -10.739444
Cd 7.667728 -13.816943 -7.669173
Cd 4.597456 -10.746672 -7.669173
Cd 4.597456 -13.816943 -4.598902
Cd 7.667728 -10.746672 -4.598902
Cd 7.667728 -13.816943 -1.528631
Cd 4.597456 -10.746672 -1.528631
Cd 4.597456 -13.816943 1.541640
Cd 7.667728 -10.746672 1.541640
Cd 7.667728 -13.816943 4.611912
Cd 4.597456 -10.746672 4.611912
Cd 4.597456 -13.816943 7.682183
Cd 7.667728 -10.746672 7.682183
Cd 7.667728 -13.816943 10.752454
Cd 4.597456 -10.746672 10.752454
Cd 4.597456 -13.816943 13.822725
Cd 7.667728 -10.746672 13.822725
Cd 7.667728 -13.816943 16.892996
Cd 4.597456 -10.746672 16.892996
Cd 7.667728 -10.746672 19.963268
Cd 7.667728 -7.676401 -19.950258
Cd 4.597456 -4.606130 -19.950258
Cd 4.597456 -7.676401 -16.879987
Cd 7.667728 -4.606130 -16.879987
Cd 7.667728 -7.676401 -13.809716
Cd 4.597456 -4.606130 -13.809716
Cd 4.597456 -7.676401 -10.739444
Cd 7.667728 -4.606130 -10.739444
Cd 7.667728 -7.676401 -7.669173
Cd 4.597456 -4.606130 -7.669173
Cd 4.597456 -7.676401 -4.598902
Cd 7.667728 -4.606130 -4.598902
Cd 7.667728 -7.676401 -1.528631
Cd 4.597456 -4.606130 -1.528631
Cd 4.597456 -7.676401 1.541640
Cd 7.667728 -4.606130 1.541640
Cd 7.667728 -7.676401 4.611912
Cd 4.597456 -4.606130 4.611912
Cd 4.597456 -7.676401 7.682183
Cd 7.667728 -4.606130 7.682183
Cd 7.667728 -7.676401 10.752454
Cd 4.597456 -4.606130 10.752454
Cd 4.597456 -7.676401 13.822725
Cd 7.667728 -4.606130 13.822725
Cd 7.667728 -7.676401 16.892996
Cd 4.597456 -4.606130 16.892996
Cd 4.597456 -7.676401 19.963268
Cd 7.667728 -4.606130 19.963268
Cd 7.667728 -1.535858 -19.950258
Cd 4.597456 1.534413 -19.950258
Cd 4.597456 -1.535858 -16.879987
Cd 7.667728 1.534413 -16.879987
Cd 7.667728 -1.535858 -13.809716
Cd 4.597456 1.534413 -13.809716
Cd 4.597456 -1.535858 -10.739444
Cd 7.667728 1.534413 -10.739444
Cd 7.667728 -1.535858 -7.669173
Cd 4.597456 1.534413 -7.669173
Cd 4.597456 -1.535858 -4.598902
Cd 7.667728 1.534413 -4.598902
Cd 7.667728 -1.535858 -1.528631
Cd 4.597456 1.534413 -1.528631
Cd 4.597456 -1.535858 1.541640
Cd 7.667728 1.534413 1.541640
Cd 7.667728 -1.535858 4.611912
Cd 4.597456 1.534413 4.611912
Cd 4.597456 -1.535858 7.682183
Cd 7.667728 1.534413 7.682183
Cd 7.667728 -1.535858 10.752454
Cd 4.597456 1.534413 10.752454
Cd 4.597456 -1.535858 13.822725
Cd 7.667728 1.534413 13.822725
Cd 7.667728 -1.535858 16.892996
Cd 4.597456 1.534413 16.892996
Cd 4.597456 -1.535858 19.963268
Cd 7.667728 1.534413 19.963268
Cd 7.667728 4.604684 -19.950258
Cd 4.597456 7.674955 -19.950258
Cd 4.597456 4.604684 -16.879987
Cd 7.667728 7.674955 -16.879987
Cd 7.667728 4.604684 -13.809716
Cd 4.597456 7.674955 -13.809716
Cd 4.597456 4.604684 -10.739444
Cd 7.667728 7.674955 -10.739444
Cd 7.667728 4.604684 -7.669173
Cd 4.597456 7.674955 -7.669173
Cd 4.597456 4.604684 -4.598902
Cd 7.667728 7.674955 -4.598902
Cd 7.667728 4.604684 -1.528631
Cd 4.597456 7.674955 -1.528631
Cd 4.597456 4.604684 1.541640
Cd 7.667728 7.674955 1.541640
Cd 7.667728 4.604684 4.611912
Cd 4.597456 7.674955 4.611912
Cd 4.597456 4.604684 7.682183
Cd 7.667728 7.674955 7.682183
Cd 7.667728 4.604684 10.752454
Cd 4.597456 7.674955 10.752454
Cd 4.597456 4.604684 13.822725
Cd 7.667728 7.674955 13.822725
Cd 7.667728 4.604684 16.892996
Cd 4.597456 7.674955 16.892996
Cd 4.597456 4.604684 19.963268
Cd 7.667728 7.674955 19.963268
Cd 7.667728 10.745226 -19.950258
Cd 4.597456 13.815498 -19.950258
Cd 4.597456 10.745226 -16.879987
Cd 7.667728 10.745226 -13.809716
Cd 4.597456 13.815498 -13.809716
Cd 4.597456 10.745226 -10.739444
Cd 7.667728 13.815498 -10.739444
Cd 7.667728 10.745226 -7.669173
Cd 4.597456 13.815498 -7.669173
Cd 4.597456 10.745226 -4.598902
Cd 7.667728 13.815498 -4.598902
Cd 7.667728 10.745226 -1.528631
Cd 4.597456 13.815498 -1.528631
Cd 4.597456 10.745226 1.541640
Cd 7.667728 13.815498 1.541640
Cd 7.667728 10.745226 4.611912
Cd 4.597456 13.815498 4.611912
Cd 4.597456 10.745226 7.682183
Cd 7.667728 13.815498 7.682183
Cd 7.667728 10.745226 10.752454
Cd 4.597456 13.815498 10.752454
Cd 4.597456 10.745226 13.822725
Cd 7.667728 10.745226 16.892996
Cd 4.597456 13.815498 16.892996
Cd 4.597456 10.745226 19.963268
Cd 4.597456 16.885769 -16.879987
Cd 7.667728 16.885769 -13.809716
Cd 4.597456 16.885769 -10.739444
Cd 7.667728 19.956040 -10.739444
Cd 7.667728 16.885769 -7.669173
Cd 4.597456 19.956040 -7.669173
Cd 4.597456 16.885769 -4.598902
Cd 7.667728 19.956040 -4.598902
Cd 7.667728 16.885769 -1.528631
Cd 4.597456 19.956040 -1.528631
Cd 4.597456 16.885769 1.541640
Cd 7.667728 19.956040 1.541640
Cd 7.667728 16.885769 4.611912
Cd 4.597456 19.956040 4.611912
Cd 4.597456 16.885769 7.682183
Cd 7.667728 19.956040 7.682183
Cd 7.667728 16.885769 10.752454
Cd 4.597456 19.956040 10.752454
Cd 4.597456 16.885769 13.822725
Cd 10.737999 -19.957486 -4.598902
Cd 13.808270 -16.887214 -4.598902
Cd 13.808270 -19.957486 -1.528631
Cd 10.737999 -16.887214 -1.528631
Cd 10.737999 -19.957486 1.541640
Cd 13.808270 -16.887214 1.541640
Cd 13.808270 -19.957486 4.611912
Cd 10.737999 -16.887214 4.611912
Cd 10.737999 -19.957486 7.682183
Cd 13.808270 -16.887214 7.682183
Cd 10.737999 -16.887214 10.752454
Cd 10.737999 -10.746672 -13.809716
Cd 10.737999 -13.816943 -10.739444
Cd 13.808270 -13.816943 -7.669173
Cd 10.737999 -10.746672 -7.669173
Cd 10.737999 -13.816943 -4.598902
Cd 13.808270 -10.746672 -4.598902
Cd 13.808270 -13.816943 -1.528631
Cd 10.737999 -10.746672 -1.528631
Cd 10.737999 -13.816943 1.541640
Cd 13.808270 -10.746672 1.541640
Cd 13.808270 -13.816943 4.611912
Cd 10.737999 -10.746672 4.611912
Cd 10.737999 -13.816943 7.682183
Cd 13.808270 -10.746672 7.682183
Cd 10.737999 -10.746672 10.752454
Cd 10.737999 -13.816943 13.822725
Cd 13.808270 -10.746672 13.822725
Cd 10.737999 -4.606130 -19.950258
Cd 13.808270 -4.606130 -16.879987
Cd 13.808270 -7.676401 -13.809716
Cd 10.737999 -4.606130 -13.809716
Cd 10.737999 -7.676401 -10.739444
Cd 13.808270 -4.606130 -10.739444
Cd 13.808270 -7.676401 -7.669173
Cd 10.737999 -4.606130 -7.669173
Cd 10.737999 -7.676401 -4.598902
Cd 13.808270 -4.606130 -4.598902
Cd 13.808270 -7.676401 -1.528631
Cd 10.737999 -4.606130 -1.528631
Cd 10.737999 -7.676401 1.541640
Cd 13.808270 -4.606130 1.541640
Cd 13.808270 -7.676401 4.611912
Cd 10.737999 -4.606130 4.611912
Cd 10.737999 -7.676401 7.682183
Cd 13.808270 -4.606130 7.682183
Cd 13.808270 -7.676401 10.752454
Cd 10.737999 -4.606130 10.752454
Cd 10.737999 -7.676401 13.822725
Cd 13.808270 -4.606130 13.822725
Cd 13.808270 -7.676401 16.892996
Cd 10.737999 -4.606130 16.892996
Cd 10.737999 -7.676401 19.963268
Cd 13.808270 -4.606130 19.963268
Cd 13.808270 -1.535858 -19.950258
Cd 10.737999 1.534413 -19.950258
Cd 10.737999 -1.535858 -16.879987
Cd 13.808270 1.534413 -16.879987
Cd 13.808270 -1.535858 -13.809716
Cd 10.737999 1.534413 -13.809716
Cd 10.737999 -1.535858 -10.739444
Cd 13.808270 1.534413 -10.739444
Cd 13.808270 -1.535858 -7.669173
Cd 10.737999 1.534413 -7.669173
Cd 10.737999 -1.535858 -4.598902
Cd 13.808270 1.534413 -4.598902
Cd 13.808270 -1.535858 -1.528631
Cd 10.737999 1.534413 -1.528631
Cd 10.737999 -1.535858 1.541640
Cd 13.808270 1.534413 1.541640
Cd 13.808270 -1.535858 4.611912
Cd 10.737999 1.534413 4.611912
Cd 10.737999 -1.535858 7.682183
Cd 13.808270 1.534413 7.682183
Cd 13.808270 -1.535858 10.752454
Cd 10.737999 1.534413 10.752454
Cd 10.737999 -1.535858 13.822725
Cd 13.808270 1.534413 13.822725
Cd 13.808270 -1.535858 16.892996
Cd 10.737999 1.534413 16.892996
Cd 10.737999 -1.535858 19.963268
Cd 13.808270 1.534413 19.963268
Cd 13.808270 4.604684 -19.950258
Cd 10.737999 7.674955 -19.950258
Cd 10.737999 4.604684 -16.879987
Cd 13.808270 7.674955 -16.879987
Cd 13.808270 4.604684 -13.809716
Cd 10.737999 7.674955 -13.809716
Cd 10.737999 4.604684 -10.739444
Cd 13.808270 7.674955 -10.739444
Cd 13.808270 4.604684 -7.669173
Cd 10.737999 7.674955 -7.669173
Cd 10.737999 4.604684 -4.598902
Cd 13.808270 7.674955 -4.598902
Cd 13.808270 4.604684 -1.528631
Cd 10.737999 7.674955 -1.528631
Cd 10.737999 4.604684 1.541640
Cd 13.808270 7.674955 1.541640
Cd 13.808270 4.604684 4.611912
Cd 10.737999 7.674955 4.611912
Cd 10.737999 4.604684 7.682183
Cd 13.808270 7.674955 7.682183
Cd 13.808270 4.604684 10.752454
Cd 10.737999 7.674955 10.752454
Cd 10.737999 4.604684 13.822725
Cd 13.808270 7.674955 13.822725
Cd 13.808270 4.604684 16.892996
Cd 10.737999 4.604684 19.963268
Cd 10.737999 10.745226 -16.879987
Cd 10.737999 13.815498 -13.809716
Cd 10.737999 10.745226 -10.739444
Cd 13.808270 13.815498 -10.739444
Cd 13.808270 10.745226 -7.669173
Cd 10.737999 13.815498 -7.669173
Cd 10.737999 10.745226 -4.598902
Cd 13.808270 13.815498 -4.598902
Cd 13.808270 10.745226 -1.528631
Cd 10.737999 13.815498 -1.528631
Cd 10.737999 10.745226 1.541640
Cd 13.808270 13.815498 1.541640
Cd 13.808270 10.745226 4.611912
Cd 10.737999 13.815498 4.611912
Cd 10.737999 10.745226 7.682183
Cd 13.808270 13.815498 7.682183
Cd 10.737999 13.815498 10.752454
Cd 10.737999 10.745226 13.822725
Cd 13.808270 16.885769 -7.669173
Cd 10.737999 19.956040 -7.669173
Cd 10.737999 16.885769 -4.598902
Cd 13.808270 19.956040 -4.598902
Cd 13.808270 16.885769 -1.528631
Cd 10.737999 19.956040 -1.528631
Cd 10.737999 16.885769 1.541640
Cd 13.808270 19.956040 1.541640
Cd 13.808270 16.885769 4.611912
Cd 10.737999 19.956040 4.611912
Cd 16.878541 -16.887214 -1.528631
Cd 16.878541 -19.957486 1.541640
Cd 19.948812 -16.887214 1.541640
Cd 16.878541 -10.746672 -7.669173
Cd 19.948812 -10.746672 -4.598902
Cd 19.948812 -13.816943 -1.528631
Cd 16.878541 -10.746672 -1.528631
Cd 16.878541 -13.816943 1.541640
Cd 19.948812 -10.746672 1.541640
Cd 19.948812 -13.816943 4.611912
Cd 16.878541 -10.746672 4.611912
Cd 16.878541 -13.816943 7.682183
Cd 19.948812 -10.746672 7.682183
Cd 16.878541 -10.746672 10.752454
Cd 16.878541 -7.676401 -10.739444
Cd 19.948812 -4.606130 -10.739444
Cd 19.948812 -7.676401 -7.669173
Cd 16.878541 -4.606130 -7.669173
Cd 16.878541 -7.676401 -4.598902
Cd 19.948812 -4.606130 -4.598902
Cd 19.948812 -7.676401 -1.528631
Cd 16.878541 -4.606130 -1.528631
Cd 16.878541 -7.676401 1.541640
Cd 19.948812 -4.606130 1.541640
Cd 19.948812 -7.676401 4.611912
Cd 16.878541 -4.606130 4.611912
Cd 16.878541 -7.676401 7.682183
Cd 19.948812 -4.606130 7.682183
Cd 19.948812 -7.676401 10.752454
Cd 16.878541 -4.606130 10.752454
Cd 19.948812 -4.606130 13.822725
Cd 16.878541 -4.606130 16.892996
Cd 16.878541 1.534413 -19.950258
Cd 16.878541 -1.535858 -16.879987
Cd 19.948812 1.534413 -16.879987
Cd 19.948812 -1.535858 -13.809716
Cd 16.878541 1.534413 -13.809716
Cd 16.878541 -1.535858 -10.739444
Cd 19.948812 1.534413 -10.739444
Cd 19.948812 -1.535858 -7.669173
Cd 16.878541 1.534413 -7.669173
Cd 16.878541 -1.535858 -4.598902
Cd 19.948812 1.534413 -4.598902
Cd 19.948812 -1.535858 -1.528631
Cd 16.878541 1.534413 -1.528631
Cd 16.878541 -1.535858 1.541640
Cd 19.948812 1.534413 1.541640
Cd 19.948812 -1.535858 4.611912
Cd 16.878541 1.534413 4.611912
Cd 16.878541 -1.535858 7.682183
Cd 19.948812 1.534413 7.682183
Cd 19.948812 -1.535858 10.752454
Cd 16.878541 1.534413 10.752454
Cd 16.878541 -1.535858 13.822725
Cd 19.948812 1.534413 13.822725
Cd 19.948812 -1.535858 16.892996
Cd 16.878541 1.534413 16.892996
Cd 16.878541 -1.535858 19.963268
Cd 19.948812 4.604684 -13.809716
Cd 16.878541 7.674955 -13.809716
Cd 16.878541 4.604684 -10.739444
Cd 19.948812 7.674955 -10.739444
Cd 19.948812 4.604684 -7.669173
Cd 16.878541 7.674955 -7.669173
Cd 16.878541 4.604684 -4.598902
Cd 19.948812 7.674955 -4.598902
Cd 19.948812 4.604684 -1.528631
Cd 16.878541 7.674955 -1.528631
Cd 16.878541 4.604684 1.541640
Cd 19.948812 7.674955 1.541640
Cd 19.948812 4.604684 4.611912
Cd 16.878541 7.674955 4.611912
Cd 16.878541 4.604684 7.682183
Cd 19.948812 7.674955 7.682183
Cd 19.948812 4.604684 10.752454
Cd 16.878541 7.674955 10.752454
Cd 16.878541 10.745226 -10.739444
Cd 19.948812 10.745226 -7.669173
Cd 16.878541 10.745226 -4.598902
Cd 19.948812 13.815498 -4.598902
Cd 19.948812 10.745226 -1.528631
Cd 16.878541 13.815498 -1.528631
Cd 16.878541 10.745226 1.541640
Cd 19.948812 13.815498 1.541640
Cd 19.948812 10.745226 4.611912
Cd 16.878541 10.745226 7.682183
Cd 16.878541 16.885769 -4.598902
Cd 19.948812 16.885769 -1.528631
Cd 16.878541 19.956040 -1.528631
Cd 16.878541 16.885769 1.541640
Se -15.359306 -15.352079 -6.134038
Se -18.429578 -15.352079 -3.063766
Se -15.359306 -15.352079 0.006505
Se -15.359306 -18.422350 -3.063766
Se -15.359306 -9.211536 -12.274580
Se -18.429578 -12.281808 -6.134038
Se -18.429578 -9.211536 -9.204309
Se -15.359306 -9.211536 -6.134038
Se -15.359306 -12.281808 -9.204309
Se -18.429578 -12.281808 0.006505
Se -18.429578 -9.211536 -3.063766
Se -15.359306 -9.211536 0.006505
Se -15.359306 -12.281808 -3.063766
Se -18.429578 -12.281808 6.147047
Se -18.429578 -9.211536 3.076776
Se -15.359306 -9.211536 6.147047
Se -15.359306 -12.281808 3.076776
Se -15.359306 -3.070994 -18.415122
Se -18.429578 -6.141265 -12.274580
Se -18.429578 -3.070994 -15.344851
Se -15.359306 -3.070994 -12.274580
Se -15.359306 -6.141265 -15.344851
Se -18.429578 -6.141265 -6.134038
Se -18.429578 -3.070994 -9.204309
Se -15.359306 -3.070994 -6.134038
Se -15.359306 -6.141265 -9.204309
Se -18.429578 -6.141265 0.006505
Se -18.429578 -3.070994 -3.063766
Se -15.359306 -3.070994 0.006505
Se -15.359306 -6.141265 -3.063766
Se -18.429578 -6.141265 6.147047
Se -18.429578 -3.070994 3.076776
Se -15.359306 -3.070994 6.147047
Se -15.359306 -6.141265 3.076776
Se -18.429578 -3.070994 9.217318
Se -15.359306 -3.070994 12.287590
Se -15.359306 -6.141265 9.217318
Se -18.429578 -0.000723 -12.274580
Se -15.359306 3.069548 -12.274580
Se -15.359306 -0.000723 -15.344851
Se -18.429578 -0.000723 -6.134038
Se -18.429578 3.069548 -9.204309
Se -15.359306 3.069548 -6.134038
Se -15.359306 -0.000723 -9.204309
Se -18.429578 -0.000723 0.006505
Se -18.429578 3.069548 -3.063766
Se -15.359306 3.069548 0.006505
Se -15.359306 -0.000723 -3.063766
Se -18.429578 -0.000723 6.147047
Se -18.429578 3.069548 3.076776
Se -15.359306 3.069548 6.147047
Se -15.359306 -0.000723 3.076776
Se -18.429578 -0.000723 12.287590
Se -18.429578 3.069548 9.217318
Se -15.359306 3.069548 12.287590
Se -15.359306 -0.000723 9.217318
Se -18.429578 -0.000723 18.428132
Se -18.429578 3.069548 15.357861
Se -15.359306 3.069548 18.428132
Se -15.359306 -0.000723 15.357861
Se -18.429578 6.139820 -12.274580
Se -18.429578 6.139820 -6.134038
Se -15.359306 9.210091 -6.134038
Se -15.359306 6.139820 -9.204309
Se -18.429578 6.139820 0.006505
Se -18.429578 9.210091 -3.063766
Se -15.359306 9.210091 0.006505
Se -15.359306 6.139820 -3.063766
Se -18.429578 6.139820 6.147047
Se -18.429578 9.210091 3.076776
Se -15.359306 9.210091 6.147047
Se -15.359306 6.139820 3.076776
Se -18.429578 6.139820 12.287590
Se -18.429578 9.210091 9.217318
Se -15.359306 9.210091 12.287590
Se -15.359306 6.139820 9.217318
Se -15.359306 6.139820 15.357861
Se -18.429578 12.280362 0.006505
Se -15.359306 15.350633 0.006505
Se -15.359306 12.280362 -3.063766
Se -18.429578 12.280362 6.147047
Se -18.429578 15.350633 3.076776
Se -15.359306 15.350633 6.147047
Se -15.359306 12.280362 3.076776
Se -15.359306 12.280362 9.217318
Se -18.429578 18.420904 0.006505
Se -15.359306 18.420904 3.076776
Se -9.218764 -15.352079 -12.274580
Se -12.289035 -18.422350 -6.134038
Se -12.289035 -15.352079 -9.204309
Se -9.218764 -15.352079 -6.134038
Se -9.218764 -18.422350 -9.204309
Se -12.289035 -18.422350 0.006505
Se -12.289035 -15.352079 -3.063766
Se -9.218764 -15.352079 0.006505
Se -9.218764 -18.422350 -3.063766
Se -12.289035 -18.422350 6.147047
Se -12.289035 -15.352079 3.076776
Se -9.218764 -15.352079 6.147047
Se -9.218764 -18.422350 3.076776
Se -9.218764 -9.211536 -18.415122
Se -12.289035 -12.281808 -12.274580
Se -12.289035 -9.211536 -15.344851
Se -9.218764 -9.211536 -12.274580
Se -9.218764 -12.281808 -15.344851
Se -12.289035 -12.281808 -6.134038
Se -12.289035 -9.211536 -9.204309
Se -9.218764 -9.211536 -6.134038
Se -9.218764 -12.281808 -9.204309
Se -12.289035 -12.281808 0.006505
Se -12.289035 -9.211536 -3.063766
Se -9.218764 -9.211536 0.006505
Se -9.218764 -12.281808 -3.063766
Se -12.289035 -12.281808 6.147047
Se -12.289035 -9.211536 3.076776
Se -9.218764 -9.211536 6.147047
Se -9.218764 -12.281808 3.076776
Se -12.289035 -9.211536 9.217318
Se -9.218764 -9.211536 12.287590
Se -9.218764 -12.281808 9.217318
Se -9.218764 -9.211536 18.428132
Se -12.289035 -6.141265 -18.415122
Se -9.218764 -3.070994 -18.415122
Se -12.289035 -6.141265 -12.274580
Se -12.289035 -3.070994 -15.344851
Se -9.218764 -3.070994 -12.274580
Se -9.218764 -6.141265 -15.344851
Se -12.289035 -6.141265 -6.134038
Se -12.289035 -3.070994 -9.204309
Se -9.218764 -3.070994 -6.134038
Se -9.218764 -6.141265 -9.204309
Se -12.289035 -6.141265 0.006505
Se -12.289035 -3.070994 -3.063766
Se -9.218764 -3.070994 0.006505
Se -9.218764 -6.141265 -3.063766
Se -12.289035 -6.141265 6.147047
Se -12.289035 -3.070994 3.076776
Se -9.218764 -3.070994 6.147047
Se -9.218764 -6.141265 3.076776
Se -12.289035 -6.141265 12.287590
Se -12.289035 -3.070994 9.217318
Se -9.218764 -3.070994 12.287590
Se -9.218764 -6.141265 9.217318
Se -12.289035 -3.070994 15.357861
Se -9.218764 -3.070994 18.428132
Se -9.218764 -6.141265 15.357861
Se -12.289035 -0.000723 -18.415122
Se -9.218764 3.069548 -18.415122
Se -12.289035 -0.000723 -12.274580
Se -12.289035 3.069548 -15.344851
Se -9.218764 3.069548 -12.274580
Se -9.218764 -0.000723 -15.344851
Se -12.289035 -0.000723 -6.134038
Se -12.289035 3.069548 -9.204309
Se -9.218764 3.069548 -6.134038
Se -9.218764 -0.000723 -9.204309
Se -12.289035 -0.000723 0.006505
Se -12.289035 3.069548 -3.063766
Se -9.218764 3.069548 0.006505
Se -9.218764 -0.000723 -3.063766
Se -12.289035 -0.000723 6.147047
Se -12.289035 3.069548 3.076776
Se -9.218764 3.069548 6.147047
Se -9.218764 -0.000723 3.076776
Se -12.289035 -0.000723 12.287590
Se -12.289035 3.069548 9.217318
Se -9.218764 3.069548 12.287590
Se -9.218764 -0.000723 9.217318
Se -12.289035 -0.000723 18.428132
Se -12.289035 3.069548 15.357861
Se -9.218764 3.069548 18.428132
Se -9.218764 -0.000723 15.357861
Se -12.289035 6.139820 -18.415122
Se -12.289035 6.139820 -12.274580
Se -9.218764 9.210091 -12.274580
Se -9.218764 6.139820 -15.344851
Se -12.289035 6.139820 -6.134038
Se -12.289035 9.210091 -9.204309
Se -9.218764 9.210091 -6.134038
Se -9.218764 6.139820 -9.204309
Se -12.289035 6.139820 0.006505
Se -12.289035 9.210091 -3.063766
Se -9.218764 9.210091 0.006505
Se -9.218764 6.139820 -3.063766
Se -12.289035 6.139820 6.147047
Se -12.289035 9.210091 3.076776
Se -9.218764 9.210091 6.147047
Se -9.218764 6.139820 3.076776
Se -12.289035 6.139820 12.287590
Se -12.289035 9.210091 9.217318
Se -9.218764 9.210091 12.287590
Se -9.218764 6.139820 9.217318
Se -12.289035 6.139820 18.428132
Se -12.289035 9.210091 15.357861
Se -9.218764 9.210091 18.428132
Se -9.218764 6.139820 15.357861
Se -12.289035 12.280362 -6.134038
Se -9.218764 15.350633 -6.134038
Se -9.218764 12.280362 -9.204309
Se -12.289035 12.280362 0.006505
Se -12.289035 15.350633 -3.063766
Se -9.218764 15.350633 0.006505
Se -9.218764 12.280362 -3.063766
Se -12.289035 12.280362 6.147047
Se -12.289035 15.350633 3.076776
Se -9.218764 15.350633 6.147047
Se -9.218764 12.280362 3.076776
Se -12.289035 12.280362 12.287590
Se -12.289035 15.350633 9.217318
Se -9.218764 15.350633 12.287590
Se -9.218764 12.280362 9.217318
Se -9.218764 12.280362 15.357861
Se -9.218764 18.420904 -9.204309
Se -12.289035 18.420904 0.006505
Se -9.218764 18.420904 -3.063766
Se -12.289035 18.420904 6.147047
Se -9.218764 18.420904 3.076776
Se -9.218764 18.420904 9.217318
Se -3.078222 -15.352079 -18.415122
Se -6.148493 -18.422350 -12.274580
Se -6.148493 -15.352079 -15.344851
Se -3.078222 -15.352079 -12.274580
Se -3.078222 -18.422350 -15.344851
Se -6.148493 -18.422350 -6.134038
Se -6.148493 -15.352079 -9.204309
Se -3.078222 -15.352079 -6.134038
Se -3.078222 -18.422350 -9.204309
Se -6.148493 -18.422350 0.006505
Se -6.148493 -15.352079 -3.063766
Se -3.078222 -15.352079 0.006505
Se -3.078222 -18.422350 -3.063766
Se -6.148493 -18.422350 6.147047
Se -6.148493 -15.352079 3.076776
Se -3.078222 -15.352079 6.147047
Se -3.078222 -18.422350 3.076776
Se -6.148493 -15.352079 9.217318
Se -3.078222 -15.352079 12.287590
Se -3.078222 -18.422350 9.217318
Se -6.148493 -12.281808 -18.415122
Se -3.078222 -9.211536 -18.415122
Se -6.148493 -12.281808 -12.274580
Se -6.148493 -9.211536 -15.344851
Se -3.078222 -9.211536 -12.274580
Se -3.078222 -12.281808 -15.344851
Se -6.148493 -12.281808 -6.134038
Se -6.148493 -9.211536 -9.204309
Se -3.078222 -9.211536 -6.134038
Se -3.078222 -12.281808 -9.204309
Se -6.148493 -12.281808 0.006505
Se -6.148493 -9.211536 -3.063766
Se -3.078222 -9.211536 0.006505
Se -3.078222 -12.281808 -3.063766
Se -6.148493 -12.281808 6.147047
Se -6.148493 -9.211536 3.076776
Se -3.078222 -9.211536 6.147047
Se -3.078222 -12.281808 3.076776
Se -6.148493 -12.281808 12.287590
Se -6.148493 -9.211536 9.217318
Se -3.078222 -9.211536 12.287590
Se -3.078222 -12.281808 9.217318
Se -6.148493 -9.211536 15.357861
Se -3.078222 -9.211536 18.428132
Se -3.078222 -12.281808 15.357861
Se -6.148493 -6.141265 -18.415122
Se -3.078222 -3.070994 -18.415122
Se -6.148493 -6.141265 -12.274580
Se -6.148493 -3.070994 -15.344851
Se -3.078222 -3.070994 -12.274580
Se -3.078222 -6.141265 -15.344851
Se -6.148493 -6.141265 -6.134038
Se -6.148493 -3.070994 -9.204309
Se -3.078222 -3.070994 -6.134038
Se -3.078222 -6.141265 -9.204309
Se -6.148493 -6.141265 0.006505
Se -6.148493 -3.070994 -3.063766
Se -3.078222 -3.070994 0.006505
Se -3.078222 -6.141265 -3.063766
Se -6.148493 -6.141265 6.147047
Se -6.148493 -3.070994 3.076776
Se -3.078222 -3.070994 6.147047
Se -3.078222 -6.141265 3.076776
Se -6.148493 -6.141265 12.287590
Se -6.148493 -3.070994 9.217318
Se -3.078222 -3.070994 12.287590
Se -3.078222 -6.141265 9.217318
Se -6.148493 -6.141265 18.428132
Se -6.148493 -3.070994 15.357861
Se -3.078222 -3.070994 18.428132
Se -3.078222 -6.141265 15.357861
Se -6.148493 -0.000723 -18.415122
Se -3.078222 3.069548 -18.415122
Se -6.148493 -0.000723 -12.274580
Se -6.148493 3.069548 -15.344851
Se -3.078222 3.069548 -12.274580
Se -3.078222 -0.000723 -15.344851
Se -6.148493 -0.000723 -6.134038
Se -6.148493 3.069548 -9.204309
Se -3.078222 3.069548 -6.134038
Se -3.078222 -0.000723 -9.204309
Se -6.148493 -0.000723 0.006505
Se -6.148493 3.069548 -3.063766
Se -3.078222 3.069548 0.006505
Se -3.078222 -0.000723 -3.063766
Se -6.148493 -0.000723 6.147047
Se -6.148493 3.069548 3.076776
Se -3.078222 3.069548 6.147047
Se -3.078222 -0.000723 3.076776
Se -6.148493 -0.000723 12.287590
Se -6.148493 3.069548 9.217318
Se -3.078222 3.069548 12.287590
Se -3.078222 -0.000723 9.217318
Se -6.148493 -0.000723 18.428132
Se -6.148493 3.069548 15.357861
Se -3.078222 3.069548 18.428132
Se -3.078222 -0.000723 15.357861
Se -6.148493 6.139820 -18.415122
Se -3.078222 9.210091 -18.415122
Se -6.148493 6.139820 -12.274580
Se -6.148493 9.210091 -15.344851
Se -3.078222 9.210091 -12.274580
Se -3.078222 6.139820 -15.344851
Se -6.148493 6.139820 -6.134038
Se -6.148493 9.210091 -9.204309
Se -3.078222 9.210091 -6.134038
Se -3.078222 6.139820 -9.204309
Se -6.148493 6.139820 0.006505
Se -6.148493 9.210091 -3.063766
Se -3.078222 9.210091 0.006505
Se -3.078222 6.139820 -3.063766
Se -6.148493 6.139820 6.147047
Se -6.148493 9.210091 3.076776
Se -3.078222 9.210091 6.147047
Se -3.078222 6.139820 3.076776
Se -6.148493 6.139820 12.287590
Se -6.148493 9.210091 9.217318
Se -3.078222 9.210091 12.287590
Se -3.078222 6.139820 9.217318
Se -6.148493 6.139820 18.428132
Se -6.148493 9.210091 15.357861
Se -3.078222 9.210091 18.428132
Se -3.078222 6.139820 15.357861
Se -6.148493 12.280362 -12.274580
Se -3.078222 15.350633 -12.274580
Se -3.078222 12.280362 -15.344851
Se -6.148493 12.280362 -6.134038
Se -6.148493 15.350633 -9.204309
Se -3.078222 15.350633 -6.134038
Se -3.078222 12.280362 -9.204309
Se -6.148493 12.280362 0.006505
Se -6.148493 15.350633 -3.063766
Se -3.078222 15.350633 0.006505
Se -3.078222 12.280362 -3.063766
Se -6.148493 12.280362 6.147047
Se -6.148493 15.350633 3.076776
Se -3.078222 15.350633 6.147047
Se -3.078222 12.280362 3.076776
Se -6.148493 12.280362 12.287590
Se -6.148493 15.350633 9.217318
Se -3.078222 15.350633 12.287590
Se -3.078222 12.280362 9.217318
Se -6.148493 12.280362 18.428132
Se -6.148493 15.350633 15.357861
Se -3.078222 15.350633 18.428132
Se -3.078222 12.280362 15.357861
Se -6.148493 18.420904 -6.134038
Se -3.078222 18.420904 -9.204309
Se -6.148493 18.420904 0.006505
Se -3.078222 18.420904 -3.063766
Se -6.148493 18.420904 6.147047
Se -3.078222 18.420904 3.076776
Se -6.148493 18.420904 12.287590
Se -3.078222 18.420904 9.217318
Se -3.078222 18.420904 15.357861
Se -0.007950 -18.422350 -12.274580
Se -0.007950 -15.352079 -15.344851
Se 3.062321 -15.352079 -12.274580
Se -0.007950 -18.422350 -6.134038
Se -0.007950 -15.352079 -9.204309
Se 3.062321 -15.352079 -6.134038
Se 3.062321 -18.422350 -9.204309
Se -0.007950 -18.422350 0.006505
Se -0.007950 -15.352079 -3.063766
Se 3.062321 -15.352079 0.006505
Se 3.062321 -18.422350 -3.063766
Se -0.007950 -18.422350 6.147047
Se -0.007950 -15.352079 3.076776
Se 3.062321 -15.352079 6.147047
Se 3.062321 -18.422350 3.076776
Se -0.007950 -18.422350 12.287590
Se -0.007950 -15.352079 9.217318
Se 3.062321 -15.352079 12.287590
Se 3.062321 -18.422350 9.217318
Se -0.007950 -18.422350 18.428132
Se -0.007950 -15.352079 15.357861
Se 3.062321 -15.352079 18.428132
Se 3.062321 -18.422350 15.357861
Se -0.007950 -12.281808 -18.415122
Se 3.062321 -9.211536 -18.415122
Se -0.007950 -12.281808 -12.274580
Se -0.007950 -9.211536 -15.344851
Se 3.062321 -9.211536 -12.274580
Se 3.062321 -12.281808 -15.344851
Se -0.007950 -12.281808 -6.134038
Se -0.007950 -9.211536 -9.204309
Se 3.062321 -9.211536 -6.134038
Se 3.062321 -12.281808 -9.204309
Se -0.007950 -12.281808 0.006505
Se -0.007950 -9.211536 -3.063766
Se 3.062321 -9.211536 0.006505
Se 3.062321 -12.281808 -3.063766
Se -0.007950 -12.281808 6.147047
Se -0.007950 -9.211536 3.076776
Se 3.062321 -9.211536 6.147047
Se 3.062321 -12.281808 3.076776
Se -0.007950 -12.281808 12.287590
Se -0.007950 -9.211536 9.217318
Se 3.062321 -9.211536 12.287590
Se 3.062321 -12.281808 9.217318
Se -0.007950 -12.281808 18.428132
Se -0.007950 -9.211536 15.357861
Se 3.062321 -9.211536 18.428132
Se 3.062321 -12.281808 15.357861
Se -0.007950 -6.141265 -18.415122
Se 3.062321 -3.070994 -18.415122
Se -0.007950 -6.141265 -12.274580
Se -0.007950 -3.070994 -15.344851
Se 3.062321 -3.070994 -12.274580
Se 3.062321 -6.141265 -15.344851
Se -0.007950 -6.141265 -6.134038
Se -0.007950 -3.070994 -9.204309
Se 3.062321 -3.070994 -6.134038
Se 3.062321 -6.141265 -9.204309
Se -0.007950 -6.141265 0.006505
Se -0.007950 -3.070994 -3.063766
Se 3.062321 -3.070994 0.006505
Se 3.062321 -6.141265 -3.063766
Se -0.007950 -6.141265 6.147047
Se -0.007950 -3.070994 3.076776
Se 3.062321 -3.070994 6.147047
Se 3.062321 -6.141265 3.076776
Se -0.007950 -6.141265 12.287590
Se -0.007950 -3.070994 9.217318
Se 3.062321 -3.070994 12.287590
Se 3.062321 -6.141265 9.217318
Se -0.007950 -6.141265 18.428132
Se -0.007950 -3.070994 15.357861
Se 3.062321 -3.070994 18.428132
Se 3.062321 -6.141265 15.357861
Se -0.007950 -0.000723 -18.415122
Se 3.062321 3.069548 -18.415122
Se -0.007950 -0.000723 -12.274580
Se -0.007950 3.069548 -15.344851
Se 3.062321 3.069548 -12.274580
Se 3.062321 -0.000723 -15.344851
Se -0.007950 -0.000723 -6.134038
Se -0.007950 3.069548 -9.204309
Se 3.062321 3.069548 -6.134038
Se 3.062321 -0.000723 -9.204309
Se -0.007950 -0.000723 0.006505
Se -0.007950 3.069548 -3.063766
Se 3.062321 3.069548 0.006505
Se 3.062321 -0.000723 -3.063766
Se -0.007950 -0.000723 6.147047
Se -0.007950 3.069548 3.076776
Se 3.062321 3.069548 6.147047
Se 3.062321 -0.000723 3.076776
Se -0.007950 -0.000723 12.287590
Se -0.007950 3.069548 9.217318
Se 3.062321 3.069548 12.287590
Se 3.062321 -0.000723 9.217318
Se -0.007950 -0.000723 18.428132
Se -0.007950 3.069548 15.357861
Se 3.062321 3.069548 18.428132
Se 3.062321 -0.000723 15.357861
Se -0.007950 6.139820 -18.415122
Se 3.062321 9.210091 -18.415122
Se -0.007950 6.139820 -12.274580
Se -0.007950 9.210091 -15.344851
Se 3.062321 9.210091 -12.274580
Se 3.062321 6.139820 -15.344851
Se -0.007950 6.139820 -6.134038
Se -0.007950 9.210091 -9.204309
Se 3.062321 9.210091 -6.134038
Se 3.062321 6.139820 -9.204309
Se -0.007950 6.139820 0.006505
Se -0.007950 9.210091 -3.063766
Se 3.062321 9.210091 0.006505
Se 3.062321 6.139820 -3.063766
Se -0.007950 6.139820 6.147047
Se -0.007950 9.210091 3.076776
Se 3.062321 9.210091 6.147047
Se 3.062321 6.139820 3.076776
Se -0.007950 6.139820 12.287590
Se -0.007950 9.210091 9.217318
Se 3.062321 9.210091 12.287590
Se 3.062321 6.139820 9.217318
Se -0.007950 6.139820 18.428132
Se -0.007950 9.210091 15.357861
Se 3.062321 9.210091 18.428132
Se 3.062321 6.139820 15.357861
Se -0.007950 12.280362 -18.415122
Se 3.062321 15.350633 -18.415122
Se -0.007950 12.280362 -12.274580
Se -0.007950 15.350633 -15.344851
Se 3.062321 15.350633 -12.274580
Se 3.062321 12.280362 -15.344851
Se -0.007950 12.280362 -6.134038
Se -0.007950 15.350633 -9.204309
Se 3.062321 15.350633 -6.134038
Se 3.062321 12.280362 -9.204309
Se -0.007950 12.280362 0.006505
Se -0.007950 15.350633 -3.063766
Se 3.062321 15.350633 0.006505
Se 3.062321 12.280362 -3.063766
Se -0.007950 12.280362 6.147047
Se -0.007950 15.350633 3.076776
Se 3.062321 15.350633 6.147047
Se 3.062321 12.280362 3.076776
Se -0.007950 12.280362 12.287590
Se -0.007950 15.350633 9.217318
Se 3.062321 15.350633 12.287590
Se 3.062321 12.280362 9.217318
Se -0.007950 12.280362 18.428132
Se -0.007950 15.350633 15.357861
Se 3.062321 12.280362 15.357861
Se -0.007950 18.420904 -18.415122
Se -0.007950 18.420904 -12.274580
Se 3.062321 18.420904 -15.344851
Se -0.007950 18.420904 -6.134038
Se 3.062321 18.420904 -9.204309
Se -0.007950 18.420904 0.006505
Se 3.062321 18.420904 -3.063766
Se -0.007950 18.420904 6.147047
Se 3.062321 18.420904 3.076776
Se -0.007950 18.420904 12.287590
Se 3.062321 18.420904 9.217318
Se 6.132592 -18.422350 -12.274580
Se 6.132592 -18.422350 -6.134038
Se 6.132592 -15.352079 -9.204309
Se 9.202863 -15.352079 -6.134038
Se 6.132592 -18.422350 0.006505
Se 6.132592 -15.352079 -3.063766
Se 9.202863 -15.352079 0.006505
Se 9.202863 -18.422350 -3.063766
Se 6.132592 -18.422350 6.147047
Se 6.132592 -15.352079 3.076776
Se 9.202863 -15.352079 6.147047
Se 9.202863 -18.422350 3.076776
Se 6.132592 -18.422350 12.287590
Se 6.132592 -15.352079 9.217318
Se 9.202863 -15.352079 12.287590
Se 9.202863 -18.422350 9.217318
Se 6.132592 -15.352079 15.357861
Se 6.132592 -12.281808 -18.415122
Se 6.132592 -12.281808 -12.274580
Se 6.132592 -9.211536 -15.344851
Se 9.202863 -9.211536 -12.274580
Se 6.132592 -12.281808 -6.134038
Se 6.132592 -9.211536 -9.204309
Se 9.202863 -9.211536 -6.134038
Se 9.202863 -12.281808 -9.204309
Se 6.132592 -12.281808 0.006505
Se 6.132592 -9.211536 -3.063766
Se 9.202863 -9.211536 0.006505
Se 9.202863 -12.281808 -3.063766
Se 6.132592 -12.281808 6.147047
Se 6.132592 -9.211536 3.076776
Se 9.202863 -9.211536 6.147047
Se 9.202863 -12.281808 3.076776
Se 6.132592 -12.281808 12.287590
Se 6.132592 -9.211536 9.217318
Se 9.202863 -9.211536 12.287590
Se 9.202863 -12.281808 9.217318
Se 6.132592 -12.281808 18.428132
Se 6.132592 -9.211536 15.357861
Se 9.202863 -9.211536 18.428132
Se 9.202863 -12.281808 15.357861
Se 6.132592 -6.141265 -18.415122
Se 9.202863 -3.070994 -18.415122
Se 6.132592 -6.141265 -12.274580
Se 6.132592 -3.070994 -15.344851
Se 9.202863 -3.070994 -12.274580
Se 9.202863 -6.141265 -15.344851
Se 6.132592 -6.141265 -6.134038
Se 6.132592 -3.070994 -9.204309
Se 9.202863 -3.070994 -6.134038
Se 9.202863 -6.141265 -9.204309
Se 6.132592 -6.141265 0.006505
Se 6.132592 -3.070994 -3.063766
Se 9.202863 -3.070994 0.006505
Se 9.202863 -6.141265 -3.063766
Se 6.132592 -6.141265 6.147047
Se 6.132592 -3.070994 3.076776
Se 9.202863 -3.070994 6.147047
Se 9.202863 -6.141265 3.076776
Se 6.132592 -6.141265 12.287590
Se 6.132592 -3.070994 9.217318
Se 9.202863 -3.070994 12.287590
Se 9.202863 -6.141265 9.217318
Se 6.132592 -6.141265 18.428132
Se 6.132592 -3.070994 15.357861
Se 9.202863 -3.070994 18.428132
Se 9.202863 -6.141265 15.357861
Se 6.132592 -0.000723 -18.415122
Se 9.202863 3.069548 -18.415122
Se 6.132592 -0.000723 -12.274580
Se 6.132592 3.069548 -15.344851
Se 9.202863 3.069548 -12.274580
Se 9.202863 -0.000723 -15.344851
Se 6.132592 -0.000723 -6.134038
Se 6.132592 3.069548 -9.204309
Se 9.202863 3.069548 -6.134038
Se 9.202863 -0.000723 -9.204309
Se 6.132592 -0.000723 0.006505
Se 6.132592 3.069548 -3.063766
Se 9.202863 3.069548 0.006505
Se 9.202863 -0.000723 -3.063766
Se 6.132592 -0.000723 6.147047
Se 6.132592 3.069548 3.076776
Se 9.202863 3.069548 6.147047
Se 9.202863 -0.000723 3.076776
Se 6.132592 -0.000723 12.287590
Se 6.132592 3.069548 9.217318
Se 9.202863 3.069548 12.287590
Se 9.202863 -0.000723 9.217318
Se 6.132592 -0.000723 18.428132
Se 6.132592 3.069548 15.357861
Se 9.202863 3.069548 18.428132
Se 9.202863 -0.000723 15.357861
Se 6.132592 6.139820 -18.415122
Se 9.202863 9.210091 -18.415122
Se 6.132592 6.139820 -12.274580
Se 6.132592 9.210091 -15.344851
Se 9.202863 9.210091 -12.274580
Se 9.202863 6.139820 -15.344851
Se 6.132592 6.139820 -6.134038
Se 6.132592 9.210091 -9.204309
Se 9.202863 9.210091 -6.134038
Se 9.202863 6.139820 -9.204309
Se 6.132592 6.139820 0.006505
Se 6.132592 9.210091 -3.063766
Se 9.202863 9.210091 0.006505
Se 9.202863 6.139820 -3.063766
Se 6.132592 6.139820 6.147047
Se 6.132592 9.210091 3.076776
Se 9.202863 9.210091 6.147047
Se 9.202863 6.139820 3.076776
Se 6.132592 6.139820 12.287590
Se 6.132592 9.210091 9.217318
Se 9.202863 9.210091 12.287590
Se 9.202863 6.139820 9.217318
Se 6.132592 6.139820 18.428132
Se 6.132592 9.210091 15.357861
Se 9.202863 6.139820 15.357861
Se 6.132592 12.280362 -18.415122
Se 6.132592 12.280362 -12.274580
Se 6.132592 15.350633 -15.344851
Se 9.202863 15.350633 -12.274580
Se 9.202863 12.280362 -15.344851
Se 6.132592 12.280362 -6.134038
Se 6.132592 15.350633 -9.204309
Se 9.202863 15.350633 -6.134038
Se 9.202863 12.280362 -9.204309
Se 6.132592 12.280362 0.006505
Se 6.132592 15.350633 -3.063766
Se 9.202863 15.350633 0.006505
Se 9.202863 12.280362 -3.063766
Se 6.132592 12.280362 6.147047
Se 6.132592 15.350633 3.076776
Se 9.202863 15.350633 6.147047
Se 9.202863 12.280362 3.076776
Se 6.132592 12.280362 12.287590
Se 6.132592 15.350633 9.217318
Se 9.202863 12.280362 9.217318
Se 6.132592 12.280362 18.428132
Se 6.132592 18.420904 -12.274580
Se 6.132592 18.420904 -6.134038
Se 9.202863 18.420904 -9.204309
Se 6.132592 18.420904 0.006505
Se 9.202863 18.420904 -3.063766
Se 6.132592 18.420904 6.147047
Se 9.202863 18.420904 3.076776
Se 6.132592 18.420904 12.287590
Se 12.273134 -18.422350 0.006505
Se 12.273134 -15.352079 -3.063766
Se 15.343406 -15.352079 0.006505
Se 12.273134 -18.422350 6.147047
Se 12.273134 -15.352079 3.076776
Se 15.343406 -15.352079 6.147047
Se 15.343406 -18.422350 3.076776
Se 12.273134 -15.352079 9.217318
Se 12.273134 -12.281808 -6.134038
Se 12.273134 -9.211536 -9.204309
Se 15.343406 -9.211536 -6.134038
Se 12.273134 -12.281808 0.006505
Se 12.273134 -9.211536 -3.063766
Se 15.343406 -9.211536 0.006505
Se 15.343406 -12.281808 -3.063766
Se 12.273134 -12.281808 6.147047
Se 12.273134 -9.211536 3.076776
Se 15.343406 -9.211536 6.147047
Se 15.343406 -12.281808 3.076776
Se 12.273134 -12.281808 12.287590
Se 12.273134 -9.211536 9.217318
Se 15.343406 -9.211536 12.287590
Se 15.343406 -12.281808 9.217318
Se 12.273134 -9.211536 15.357861
Se 12.273134 -6.141265 -12.274580
Se 12.273134 -3.070994 -15.344851
Se 15.343406 -3.070994 -12.274580
Se 12.273134 -6.141265 -6.134038
Se 12.273134 -3.070994 -9.204309
Se 15.343406 -3.070994 -6.134038
Se 15.343406 -6.141265 -9.204309
Se 12.273134 -6.141265 0.006505
Se 12.273134 -3.070994 -3.063766
Se 15.343406 -3.070994 0.006505
Se 15.343406 -6.141265 -3.063766
Se 12.273134 -6.141265 6.147047
Se 12.273134 -3.070994 3.076776
Se 15.343406 -3.070994 6.147047
Se 15.343406 -6.141265 3.076776
Se 12.273134 -6.141265 12.287590
Se 12.273134 -3.070994 9.217318
Se 15.343406 -3.070994 12.287590
Se 15.343406 -6.141265 9.217318
Se 12.273134 -6.141265 18.428132
Se 12.273134 -3.070994 15.357861
Se 15.343406 -3.070994 18.428132
Se 15.343406 -6.141265 15.357861
Se 12.273134 -0.000723 -18.415122
Se 15.343406 3.069548 -18.415122
Se 12.273134 -0.000723 -12.274580
Se 12.273134 3.069548 -15.344851
Se 15.343406 3.069548 -12.274580
Se 15.343406 -0.000723 -15.344851
Se 12.273134 -0.000723 -6.134038
Se 12.273134 3.069548 -9.204309
Se 15.343406 3.069548 -6.134038
Se 15.343406 -0.000723 -9.204309
Se 12.273134 -0.000723 0.006505
Se 12.273134 3.069548 -3.063766
Se 15.343406 3.069548 0.006505
Se 15.343406 -0.000723 -3.063766
Se 12.273134 -0.000723 6.147047
Se 12.273134 3.069548 3.076776
Se 15.343406 3.069548 6.147047
Se 15.343406 -0.000723 3.076776
Se 12.273134 -0.000723 12.287590
Se 12.273134 3.069548 9.217318
Se 15.343406 3.069548 12.287590
Se 15.343406 -0.000723 9.217318
Se 12.273134 -0.000723 18.428132
Se 12.273134 3.069548 15.357861
Se 15.343406 -0.000723 15.357861
Se 12.273134 6.139820 -18.415122
Se 12.273134 6.139820 -12.274580
Se 12.273134 9.210091 -15.344851
Se 15.343406 9.210091 -12.274580
Se 15.343406 6.139820 -15.344851
Se 12.273134 6.139820 -6.134038
Se 12.273134 9.210091 -9.204309
Se 15.343406 9.210091 -6.134038
Se 15.343406 6.139820 -9.204309
Se 12.273134 6.139820 0.006505
Se 12.273134 9.210091 -3.063766
Se 15.343406 9.210091 0.006505
Se 15.343406 6.139820 -3.063766
Se 12.273134 6.139820 6.147047
Se 12.273134 9.210091 3.076776
Se 15.343406 9.210091 6.147047
Se 15.343406 6.139820 3.076776
Se 12.273134 6.139820 12.287590
Se 12.273134 9.210091 9.217318
Se 15.343406 6.139820 9.217318
Se 12.273134 12.280362 -12.274580
Se 12.273134 12.280362 -6.134038
Se 12.273134 15.350633 -9.204309
Se 15.343406 15.350633 -6.134038
Se 15.343406 12.280362 -9.204309
Se 12.273134 12.280362 0.006505
Se 12.273134 15.350633 -3.063766
Se 15.343406 15.350633 0.006505
Se 15.343406 12.280362 -3.063766
Se 12.273134 12.280362 6.147047
Se 12.273134 15.350633 3.076776
Se 15.343406 12.280362 3.076776
Se 12.273134 18.420904 -6.134038
Se 12.273134 18.420904 0.006505
Se 15.343406 18.420904 -3.063766
Se 18.413677 -18.422350 0.006505
Se 18.413677 -15.352079 3.076776
Se 18.413677 -9.211536 -9.204309
Se 18.413677 -12.281808 0.006505
Se 18.413677 -9.211536 -3.063766
Se 18.413677 -12.281808 6.147047
Se 18.413677 -9.211536 3.076776
Se 18.413677 -9.211536 9.217318
Se 18.413677 -6.141265 -6.134038
Se 18.413677 -3.070994 -9.204309
Se 18.413677 -6.141265 0.006505
Se 18.413677 -3.070994 -3.063766
Se 18.413677 -6.141265 6.147047
Se 18.413677 -3.070994 3.076776
Se 18.413677 -6.141265 12.287590
Se 18.413677 -3.070994 9.217318
Se 18.413677 -3.070994 15.357861
Se 18.413677 -0.000723 -18.415122
Se 18.413677 -0.000723 -12.274580
Se 18.413677 3.069548 -15.344851
Se 18.413677 -0.000723 -6.134038
Se 18.413677 3.069548 -9.204309
Se 18.413677 -0.000723 0.006505
Se 18.413677 3.069548 -3.063766
Se 18.413677 -0.000723 6.147047
Se 18.413677 3.069548 3.076776
Se 18.413677 -0.000723 12.287590
Se 18.413677 3.069548 9.217318
Se 18.413677 -0.000723 18.428132
Se 18.413677 6.139820 -12.274580
Se 18.413677 6.139820 -6.134038
Se 18.413677 9.210091 -9.204309
Se 18.413677 6.139820 0.006505
Se 18.413677 9.210091 -3.063766
Se 18.413677 6.139820 6.147047
Se 18.413677 9.210091 3.076776
Se 18.413677 9.210091 9.217318
Se 18.413677 12.280362 -6.134038
Se 18.413677 12.280362 0.006505
Se 18.413677 15.350633 -3.063766
Se 18.413677 18.420904 0.006505
Cl -21.499849 -15.352079 0.006505
Cl -21.499849 -9.211536 -6.134038
Cl -21.499849 -9.211536 0.006505
Cl -21.499849 -12.281808 -3.063766
Cl -21.499849 -9.211536 6.147047
Cl -21.499849 -12.281808 3.076776
Cl -21.499849 -3.070994 -12.274580
Cl -21.499849 -3.070994 -6.134038
Cl -21.499849 -6.141265 -9.204309
Cl -21.499849 -3.070994 0.006505
Cl -21.499849 -6.141265 -3.063766
Cl -21.499849 -3.070994 6.147047
Cl -21.499849 -6.141265 3.076776
Cl -21.499849 -3.070994 12.287590
Cl -21.499849 -6.141265 9.217318
Cl -21.499849 3.069548 -12.274580
Cl -21.499849 -0.000723 -15.344851
Cl -21.499849 3.069548 -6.134038
Cl -21.499849 -0.000723 -9.204309
Cl -21.499849 3.069548 0.006505
Cl -21.499849 -0.000723 -3.063766
Cl -21.499849 3.069548 6.147047
Cl -21.499849 -0.000723 3.076776
Cl -21.499849 3.069548 12.287590
Cl -21.499849 -0.000723 9.217318
Cl -21.499849 -0.000723 15.357861
Cl -21.499849 9.210091 -6.134038
Cl -21.499849 6.139820 -9.204309
Cl -21.499849 9.210091 0.006505
Cl -21.499849 6.139820 -3.063766
Cl -21.499849 9.210091 6.147047
Cl -21.499849 6.139820 3.076776
Cl -21.499849 6.139820 9.217318
Cl -21.499849 15.350633 0.006505
Cl -21.499849 12.280362 -3.063766
Cl -21.499849 12.280362 3.076776
Cl -15.359306 -21.492621 0.006505
Cl -18.429578 -18.422350 0.006505
Cl -18.429578 -15.352079 3.076776
Cl -15.359306 -15.352079 6.147047
Cl -15.359306 -18.422350 3.076776
Cl -18.429578 -9.211536 9.217318
Cl -15.359306 -9.211536 12.287590
Cl -15.359306 -12.281808 9.217318
Cl -18.429578 -6.141265 12.287590
Cl -18.429578 -3.070994 15.357861
Cl -15.359306 -3.070994 18.428132
Cl -15.359306 -6.141265 15.357861
Cl -18.429578 -0.000723 -18.415122
Cl -15.359306 3.069548 -18.415122
Cl -15.359306 -0.000723 -21.485394
Cl -18.429578 3.069548 -15.344851
Cl -15.359306 -0.000723 21.498403
Cl -15.359306 9.210091 -12.274580
Cl -15.359306 6.139820 -15.344851
Cl -18.429578 9.210091 -9.204309
Cl -18.429578 12.280362 -6.134038
Cl -15.359306 15.350633 -6.134038
Cl -15.359306 12.280362 -9.204309
Cl -18.429578 15.350633 -3.063766
Cl -15.359306 21.491176 0.006505
Cl -15.359306 18.420904 -3.063766
Cl -9.218764 -21.492621 -6.134038
Cl -12.289035 -21.492621 -3.063766
Cl -9.218764 -21.492621 0.006505
Cl -12.289035 -21.492621 3.076776
Cl -9.218764 -21.492621 6.147047
Cl -12.289035 -15.352079 9.217318
Cl -9.218764 -15.352079 12.287590
Cl -9.218764 -18.422350 9.217318
Cl -12.289035 -12.281808 12.287590
Cl -12.289035 -9.211536 15.357861
Cl -9.218764 -12.281808 15.357861
Cl -12.289035 -3.070994 -21.485394
Cl -9.218764 -6.141265 -21.485394
Cl -12.289035 -6.141265 18.428132
Cl -12.289035 -3.070994 21.498403
Cl -9.218764 -6.141265 21.498403
Cl -12.289035 3.069548 -21.485394
Cl -9.218764 -0.000723 -21.485394
Cl -12.289035 3.069548 21.498403
Cl -9.218764 -0.000723 21.498403
Cl -9.218764 9.210091 -18.415122
Cl -9.218764 6.139820 -21.485394
Cl -12.289035 9.210091 -15.344851
Cl -9.218764 6.139820 21.498403
Cl -12.289035 12.280362 -12.274580
Cl -9.218764 15.350633 -12.274580
Cl -9.218764 12.280362 -15.344851
Cl -12.289035 15.350633 -9.204309
Cl -12.289035 18.420904 -6.134038
Cl -9.218764 21.491176 -6.134038
Cl -12.289035 21.491176 -3.063766
Cl -9.218764 21.491176 0.006505
Cl -12.289035 21.491176 3.076776
Cl -9.218764 21.491176 6.147047
Cl -3.078222 -21.492621 -12.274580
Cl -6.148493 -21.492621 -9.204309
Cl -3.078222 -21.492621 -6.134038
Cl -6.148493 -21.492621 -3.063766
Cl -3.078222 -21.492621 0.006505
Cl -6.148493 -21.492621 3.076776
Cl -3.078222 -21.492621 6.147047
Cl -6.148493 -21.492621 9.217318
Cl -3.078222 -21.492621 12.287590
Cl -6.148493 -18.422350 12.287590
Cl -6.148493 -15.352079 15.357861
Cl -3.078222 -15.352079 18.428132
Cl -3.078222 -18.422350 15.357861
Cl -6.148493 -9.211536 -21.485394
Cl -3.078222 -12.281808 -21.485394
Cl -6.148493 -12.281808 18.428132
Cl -6.148493 -9.211536 21.498403
Cl -3.078222 -12.281808 21.498403
Cl -6.148493 -3.070994 -21.485394
Cl -3.078222 -6.141265 -21.485394
Cl -6.148493 -3.070994 21.498403
Cl -3.078222 -6.141265 21.498403
Cl -6.148493 3.069548 -21.485394
Cl -3.078222 -0.000723 -21.485394
Cl -6.148493 3.069548 21.498403
Cl -3.078222 -0.000723 21.498403
Cl -6.148493 9.210091 -21.485394
Cl -3.078222 6.139820 -21.485394
Cl -6.148493 9.210091 21.498403
Cl -3.078222 6.139820 21.498403
Cl -6.148493 12.280362 -18.415122
Cl -3.078222 15.350633 -18.415122
Cl -3.078222 12.280362 -21.485394
Cl -6.148493 15.350633 -15.344851
Cl -3.078222 12.280362 21.498403
Cl -6.148493 18.420904 -12.274580
Cl -3.078222 21.491176 -12.274580
Cl -3.078222 18.420904 -15.344851
Cl -6.148493 21.491176 -9.204309
Cl -3.078222 21.491176 -6.134038
Cl -6.148493 21.491176 -3.063766
Cl -3.078222 21.491176 0.006505
Cl -6.148493 21.491176 3.076776
Cl -3.078222 21.491176 6.147047
Cl -6.148493 21.491176 9.217318
Cl -3.078222 21.491176 12.287590
Cl -0.007950 -21.492621 -15.344851
Cl 3.062321 -21.492621 -12.274580
Cl -0.007950 -21.492621 -9.204309
Cl 3.062321 -21.492621 -6.134038
Cl -0.007950 -21.492621 -3.063766
Cl 3.062321 -21.492621 0.006505
Cl -0.007950 -21.492621 3.076776
Cl 3.062321 -21.492621 6.147047
Cl -0.007950 -21.492621 9.217318
Cl 3.062321 -21.492621 12.287590
Cl -0.007950 -21.492621 15.357861
Cl -0.007950 -18.422350 -18.415122
Cl -0.007950 -15.352079 -21.485394
Cl 3.062321 -15.352079 -18.415122
Cl 3.062321 -18.422350 -15.344851
Cl -0.007950 -15.352079 21.498403
Cl -0.007950 -9.211536 -21.485394
Cl 3.062321 -12.281808 -21.485394
Cl -0.007950 -9.211536 21.498403
Cl 3.062321 -12.281808 21.498403
Cl -0.007950 -3.070994 -21.485394
Cl 3.062321 -6.141265 -21.485394
Cl -0.007950 -3.070994 21.498403
Cl 3.062321 -6.141265 21.498403
Cl -0.007950 3.069548 -21.485394
Cl 3.062321 -0.000723 -21.485394
Cl -0.007950 3.069548 21.498403
Cl 3.062321 -0.000723 21.498403
Cl -0.007950 9.210091 -21.485394
Cl 3.062321 6.139820 -21.485394
Cl -0.007950 9.210091 21.498403
Cl 3.062321 6.139820 21.498403
Cl -0.007950 15.350633 -21.485394
Cl 3.062321 12.280362 -21.485394
Cl 3.062321 15.350633 18.428132
Cl -0.007950 15.350633 21.498403
Cl 3.062321 12.280362 21.498403
Cl -0.007950 21.491176 -15.344851
Cl 3.062321 21.491176 -12.274580
Cl -0.007950 21.491176 -9.204309
Cl 3.062321 21.491176 -6.134038
Cl -0.007950 21.491176 -3.063766
Cl 3.062321 21.491176 0.006505
Cl -0.007950 21.491176 3.076776
Cl 3.062321 21.491176 6.147047
Cl -0.007950 21.491176 9.217318
Cl 3.062321 21.491176 12.287590
Cl -0.007950 18.420904 18.428132
Cl -0.007950 21.491176 15.357861
Cl 3.062321 18.420904 15.357861
Cl 6.132592 -21.492621 -9.204309
Cl 9.202863 -21.492621 -6.134038
Cl 6.132592 -21.492621 -3.063766
Cl 9.202863 -21.492621 0.006505
Cl 6.132592 -21.492621 3.076776
Cl 9.202863 -21.492621 6.147047
Cl 6.132592 -21.492621 9.217318
Cl 6.132592 -15.352079 -15.344851
Cl 9.202863 -15.352079 -12.274580
Cl 9.202863 -18.422350 -9.204309
Cl 6.132592 -9.211536 -21.485394
Cl 9.202863 -9.211536 -18.415122
Cl 9.202863 -12.281808 -15.344851
Cl 6.132592 -9.211536 21.498403
Cl 6.132592 -3.070994 -21.485394
Cl 9.202863 -6.141265 -21.485394
Cl 6.132592 -3.070994 21.498403
Cl 9.202863 -6.141265 21.498403
Cl 6.132592 3.069548 -21.485394
Cl 9.202863 -0.000723 -21.485394
Cl 6.132592 3.069548 21.498403
Cl 9.202863 -0.000723 21.498403
Cl 6.132592 9.210091 -21.485394
Cl 9.202863 6.139820 -21.485394
Cl 9.202863 9.210091 18.428132
Cl 6.132592 9.210091 21.498403
Cl 9.202863 6.139820 21.498403
Cl 9.202863 15.350633 12.287590
Cl 6.132592 15.350633 15.357861
Cl 9.202863 12.280362 15.357861
Cl 6.132592 21.491176 -9.204309
Cl 9.202863 21.491176 -6.134038
Cl 6.132592 21.491176 -3.063766
Cl 9.202863 21.491176 0.006505
Cl 6.132592 21.491176 3.076776
Cl 9.202863 21.491176 6.147047
Cl 6.132592 21.491176 9.217318
Cl 9.202863 18.420904 9.217318
Cl 12.273134 -21.492621 -3.063766
Cl 15.343406 -21.492621 0.006505
Cl 12.273134 -21.492621 3.076776
Cl 12.273134 -18.422350 -6.134038
Cl 12.273134 -15.352079 -9.204309
Cl 15.343406 -15.352079 -6.134038
Cl 15.343406 -18.422350 -3.063766
Cl 12.273134 -12.281808 -12.274580
Cl 12.273134 -9.211536 -15.344851
Cl 15.343406 -9.211536 -12.274580
Cl 15.343406 -12.281808 -9.204309
Cl 12.273134 -6.141265 -18.415122
Cl 12.273134 -3.070994 -21.485394
Cl 15.343406 -3.070994 -18.415122
Cl 15.343406 -6.141265 -15.344851
Cl 12.273134 -3.070994 21.498403
Cl 12.273134 3.069548 -21.485394
Cl 15.343406 -0.000723 -21.485394
Cl 15.343406 3.069548 18.428132
Cl 12.273134 3.069548 21.498403
Cl 15.343406 -0.000723 21.498403
Cl 15.343406 9.210091 12.287590
Cl 12.273134 6.139820 18.428132
Cl 12.273134 9.210091 15.357861
Cl 15.343406 6.139820 15.357861
Cl 15.343406 15.350633 6.147047
Cl 12.273134 12.280362 12.287590
Cl 12.273134 15.350633 9.217318
Cl 15.343406 12.280362 9.217318
Cl 12.273134 21.491176 -3.063766
Cl 15.343406 21.491176 0.006505
Cl 12.273134 18.420904 6.147047
Cl 12.273134 21.491176 3.076776
Cl 15.343406 18.420904 3.076776
Cl 18.413677 -15.352079 -3.063766
Cl 21.483948 -15.352079 0.006505
Cl 18.413677 -12.281808 -6.134038
Cl 21.483948 -9.211536 -6.134038
Cl 21.483948 -9.211536 0.006505
Cl 21.483948 -12.281808 -3.063766
Cl 21.483948 -9.211536 6.147047
Cl 21.483948 -12.281808 3.076776
Cl 18.413677 -6.141265 -12.274580
Cl 18.413677 -3.070994 -15.344851
Cl 21.483948 -3.070994 -12.274580
Cl 21.483948 -3.070994 -6.134038
Cl 21.483948 -6.141265 -9.204309
Cl 21.483948 -3.070994 0.006505
Cl 21.483948 -6.141265 -3.063766
Cl 21.483948 -3.070994 6.147047
Cl 21.483948 -6.141265 3.076776
Cl 21.483948 -3.070994 12.287590
Cl 21.483948 -6.141265 9.217318
Cl 21.483948 3.069548 -12.274580
Cl 21.483948 -0.000723 -15.344851
Cl 21.483948 3.069548 -6.134038
Cl 21.483948 -0.000723 -9.204309
Cl 21.483948 3.069548 0.006505
Cl 21.483948 -0.000723 -3.063766
Cl 21.483948 3.069548 6.147047
Cl 21.483948 -0.000723 3.076776
Cl 21.483948 3.069548 12.287590
Cl 21.483948 -0.000723 9.217318
Cl 18.413677 3.069548 15.357861
Cl 21.483948 -0.000723 15.357861
Cl 21.483948 9.210091 -6.134038
Cl 21.483948 6.139820 -9.204309
Cl 21.483948 9.210091 0.006505
Cl 21.483948 6.139820 -3.063766
Cl 21.483948 9.210091 6.147047
Cl 21.483948 6.139820 3.076776
Cl 18.413677 6.139820 12.287590
Cl 21.483948 6.139820 9.217318
Cl 21.483948 15.350633 0.006505
Cl 21.483948 12.280362 -3.063766
Cl 18.413677 12.280362 6.147047
Cl 18.413677 15.350633 3.076776
Cl 21.483948 12.280362 3.076776
