188
CdSe-Se-Cd81Se55Cl52-reconstructed
Cd -4.662566 -7.732837 -1.543301
Cd -7.732837 -4.662566 -1.543301
Cd -4.662566 -4.662566 1.526970
Cd -4.662566 -7.732837 4.597241
Cd -7.732837 -4.662566 4.597241
Cd -4.662566 -4.662566 7.667512
Cd -4.662566 -1.592295 -7.683844
Cd -7.732837 1.477976 -7.683844
Cd -7.732837 -1.592295 -4.613572
Cd -4.662566 1.477976 -4.613572
Cd -4.662566 -1.592295 -1.543301
Cd -7.732837 1.477976 -1.543301
Cd -7.732837 -1.592295 1.526970
Cd -4.662566 1.477976 1.526970
Cd -4.662566 -1.592295 4.597241
Cd -7.732837 1.477976 4.597241
Cd -4.662566 1.477976 7.667512
Cd -4.662566 4.548247 -7.683844
Cd -7.732837 4.548247 -4.613572
Cd -4.662566 7.618519 -4.613572
Cd -4.662566 4.548247 -1.543301
Cd -7.732837 4.548247 1.526970
Cd -4.662566 7.618519 1.526970
Cd 1.477976 -7.732837 -7.683844
Cd -1.592295 -4.662566 -7.683844
Cd -1.592295 -7.732837 -4.613572
Cd 1.477976 -4.662566 -4.613572
Cd 1.477976 -7.732837 -1.543301
Cd -1.592295 -4.662566 -1.543301
Cd -1.592295 -7.732837 1.526970
Cd 1.477976 -4.662566 1.526970
Cd 1.477976 -7.732837 4.597241
Cd -1.592295 -4.662566 4.597241
Cd 1.477976 -4.662566 7.667512
Cd 1.477976 -1.592295 -7.683844
Cd -1.592295 1.477976 -7.683844
Cd -1.592295 -1.592295 -4.613572
Cd 1.477976 1.477976 -4.613572
Cd 1.477976 -1.592295 -1.543301
Cd -1.592295 1.477976 -1.543301
Cd -1.592295 -1.592295 1.526970
Cd 1.477976 1.477976 1.526970
Cd 1.477976 -1.592295 4.597241
Cd -1.592295 1.477976 4.597241
Cd -1.592295 -1.592295 7.667512
Cd 1.477976 1.477976 7.667512
Cd 1.477976 4.548247 -7.683844
Cd -1.592295 4.548247 -4.613572
Cd 1.477976 7.618519 -4.613572
Cd 1.477976 4.548247 -1.543301
Cd -1.592295 7.618519 -1.543301
Cd -1.592295 4.548247 1.526970
Cd 1.477976 7.618519 1.526970
Cd 1.477976 4.548247 4.597241
Cd -1.592295 7.618519 4.597241
Cd -1.592295 4.548247 7.667512
Cd 1.477976 7.618519 7.667512
Cd 4.548247 -4.662566 -7.683844
Cd 4.548247 -7.732837 -4.613572
Cd 7.618519 -4.662566 -4.613572
Cd 4.548247 -4.662566 -1.543301
Cd 4.548247 -7.732837 1.526970
Cd 7.618519 -4.662566 1.526970
Cd 4.548247 1.477976 -7.683844
Cd 4.548247 -1.592295 -4.613572
Cd 7.618519 1.477976 -4.613572
Cd 7.618519 -1.592295 -1.543301
Cd 4.548247 1.477976 -1.543301
Cd 4.548247 -1.592295 1.526970
Cd 7.618519 1.477976 1.526970
Cd 7.618519 -1.592295 4.597241
Cd 4.548247 1.477976 4.597241
Cd 4.548247 -1.592295 7.667512
Cd 7.618519 1.477976 7.667512
Cd 7.618519 4.548247 -1.543301
Cd 4.548247 7.618519 -1.543301
Cd 4.548247 4.548247 1.526970
Cd 7.618519 7.618519 1.526970
Cd 7.618519 4.548247 4.597241
Cd 4.548247 7.618519 4.597241
Cd 4.548247 4.548247 7.667512
Se -3.127431 -3.127431 -6.148708
Se -6.197702 -6.197702 -0.008166
Se -6.197702 -3.127431 -3.078437
Se -3.127431 -3.127431 -0.008166
Se -3.127431 -6.197702 -3.078437
Se -6.197702 -3.127431 3.062106
Se -3.127431 -3.127431 6.132377
Se -3.127431 -6.197702 3.062106
Se -6.197702 -0.057159 -6.148708
Se -3.127431 3.013112 -6.148708
Se -6.197702 -0.057159 -0.008166
Se -6.197702 3.013112 -3.078437
Se -3.127431 3.013112 -0.008166
Se -3.127431 -0.057159 -3.078437
Se -6.197702 -0.057159 6.132377
Se -6.197702 3.013112 3.062106
Se -3.127431 3.013112 6.132377
Se -3.127431 -0.057159 3.062106
Se -6.197702 6.083383 -0.008166
Se -3.127431 6.083383 -3.078437
Se -3.127431 6.083383 3.062106
Se -0.057159 -6.197702 -6.148708
Se 3.013112 -3.127431 -6.148708
Se -0.057159 -6.197702 -0.008166
Se -0.057159 -3.127431 -3.078437
Se 3.013112 -3.127431 -0.008166
Se 3.013112 -6.197702 -3.078437
Se -0.057159 -6.197702 6.132377
Se -0.057159 -3.127431 3.062106
Se 3.013112 -3.127431 6.132377
Se 3.013112 -6.197702 3.062106
Se -0.057159 -0.057159 -6.148708
Se 3.013112 3.013112 -6.148708
Se -0.057159 -0.057159 -0.008166
Se -0.057159 3.013112 -3.078437
Se 3.013112 3.013112 -0.008166
Se 3.013112 -0.057159 -3.078437
Se -0.057159 -0.057159 6.132377
Se -0.057159 3.013112 3.062106
Se 3.013112 3.013112 6.132377
Se 3.013112 -0.057159 3.062106
Se -0.057159 6.083383 -6.148708
Se -0.057159 6.083383 -0.008166
Se 3.013112 6.083383 -3.078437
Se -0.057159 6.083383 6.132377
Se 3.013112 6.083383 3.062106
Se 6.083383 -6.197702 -0.008166
Se 6.083383 -3.127431 -3.078437
Se 6.083383 -3.127431 3.062106
Se 6.083383 -0.057159 -6.148708
Se 6.083383 -0.057159 -0.008166
Se 6.083383 3.013112 -3.078437
Se 6.083383 -0.057159 6.132377
Se 6.083383 3.013112 3.062106
Se 6.083383 6.083383 -0.008166
Cl -9.267973 -3.127431 -0.008166
Cl -9.267973 -3.127431 6.132377
Cl -9.267973 -6.197702 3.062106
Cl -9.267973 3.013112 -6.148708
Cl -9.267973 3.013112 -0.008166
Cl -9.267973 -0.057159 -3.078437
Cl -9.267973 -0.057159 3.062106
Cl -9.267973 6.083383 -3.078437
Cl -3.127431 -9.267973 -0.008166
Cl -6.197702 -9.267973 3.062106
Cl -3.127431 -9.267973 6.132377
Cl -6.197702 -6.197702 6.132377
Cl -6.197702 -3.127431 9.202648
Cl -3.127431 -6.197702 9.202648
Cl -6.197702 3.013112 -9.218979
Cl -3.127431 -0.057159 -9.218979
Cl -3.127431 -0.057159 9.202648
Cl -6.197702 6.083383 -6.148708
Cl -3.127431 9.153654 -6.148708
Cl -3.127431 6.083383 -9.218979
Cl -6.197702 9.153654 -3.078437
Cl -3.127431 9.153654 -0.008166
Cl 3.013112 -9.267973 -6.148708
Cl -0.057159 -9.267973 -3.078437
Cl 3.013112 -9.267973 -0.008166
Cl -0.057159 -9.267973 3.062106
Cl -0.057159 -3.127431 -9.218979
Cl 3.013112 -6.197702 -9.218979
Cl -0.057159 -3.127431 9.202648
Cl -0.057159 3.013112 -9.218979
Cl 3.013112 -0.057159 -9.218979
Cl -0.057159 3.013112 9.202648
Cl 3.013112 -0.057159 9.202648
Cl -0.057159 9.153654 -3.078437
Cl 3.013112 9.153654 -0.008166
Cl -0.057159 9.153654 3.062106
Cl 3.013112 9.153654 6.132377
Cl 3.013112 6.083383 9.202648
Cl 6.083383 -9.267973 -3.078437
Cl 6.083383 -6.197702 -6.148708
Cl 6.083383 -3.127431 -9.218979
Cl 9.153654 -3.127431 -6.148708
Cl 9.153654 -3.127431 -0.008166
Cl 9.153654 -6.197702 -3.078437
Cl 9.153654 3.013112 -0.008166
Cl 9.153654 -0.057159 -3.078437
Cl 9.153654 3.013112 6.132377
Cl 9.153654 -0.057159 3.062106
Cl 6.083383 3.013112 9.202648
Cl 6.083383 6.083383 6.132377
Cl 6.083383 9.153654 3.062106
Cl 9.153654 6.083383 3.062106
