380
InP-In-In149P108Cl123-reconstructed
In -8.844277 -8.813203 -5.900069
In -8.844277 -5.861227 -8.852045
In -11.796253 -5.861227 -5.900069
In -8.844277 -2.909250 -5.900069
In -8.844277 -5.861227 -2.948092
In -11.796253 -2.909250 -2.948092
In -8.844277 -2.909250 0.003884
In -8.844277 0.042726 -2.948092
In -11.796253 0.042726 0.003884
In -8.844277 2.994702 0.003884
In -8.844277 0.042726 2.955861
In -11.796253 2.994702 2.955861
In -8.844277 2.994702 5.907837
In -8.844277 5.946679 2.955861
In -11.796253 5.946679 5.907837
In -8.844277 8.898655 5.907837
In -8.844277 5.946679 8.859813
In -5.892300 -8.813203 -8.852045
In -5.892300 -11.765180 -5.900069
In -2.940324 -8.813203 -5.900069
In -2.940324 -11.765180 -2.948092
In -5.892300 -8.813203 -2.948092
In -2.940324 -8.813203 0.003884
In -5.892300 -5.861227 -11.804021
In -2.940324 -2.909250 -11.804021
In -2.940324 -5.861227 -8.852045
In -5.892300 -2.909250 -8.852045
In -5.892300 -5.861227 -5.900069
In -2.940324 -2.909250 -5.900069
In -2.940324 -5.861227 -2.948092
In -5.892300 -2.909250 -2.948092
In -5.892300 -5.861227 0.003884
In -2.940324 -2.909250 0.003884
In -2.940324 -5.861227 2.955861
In -5.892300 -2.909250 2.955861
In -2.940324 -2.909250 5.907837
In -2.940324 0.042726 -8.852045
In -5.892300 0.042726 -5.900069
In -2.940324 2.994702 -5.900069
In -2.940324 0.042726 -2.948092
In -5.892300 2.994702 -2.948092
In -5.892300 0.042726 0.003884
In -2.940324 2.994702 0.003884
In -2.940324 0.042726 2.955861
In -5.892300 2.994702 2.955861
In -5.892300 0.042726 5.907837
In -2.940324 2.994702 5.907837
In -2.940324 0.042726 8.859813
In -5.892300 2.994702 8.859813
In -2.940324 2.994702 11.811790
In -2.940324 5.946679 -2.948092
In -5.892300 5.946679 0.003884
In -2.940324 8.898655 0.003884
In -2.940324 5.946679 2.955861
In -5.892300 8.898655 2.955861
In -5.892300 5.946679 5.907837
In -2.940324 8.898655 5.907837
In -2.940324 5.946679 8.859813
In -5.892300 8.898655 8.859813
In -5.892300 5.946679 11.811790
In -2.940324 11.850632 2.955861
In -5.892300 11.850632 5.907837
In 0.011653 -8.813203 -2.948092
In 0.011653 -11.765180 0.003884
In 2.963629 -8.813203 0.003884
In 2.963629 -11.765180 2.955861
In 0.011653 -8.813203 2.955861
In 2.963629 -8.813203 5.907837
In 0.011653 -2.909250 -8.852045
In 0.011653 -5.861227 -5.900069
In 2.963629 -2.909250 -5.900069
In 2.963629 -5.861227 -2.948092
In 0.011653 -2.909250 -2.948092
In 0.011653 -5.861227 0.003884
In 2.963629 -2.909250 0.003884
In 2.963629 -5.861227 2.955861
In 0.011653 -2.909250 2.955861
In 0.011653 -5.861227 5.907837
In 2.963629 -2.909250 5.907837
In 2.963629 -5.861227 8.859813
In 0.011653 -2.909250 8.859813
In 2.963629 -2.909250 11.811790
In 0.011653 0.042726 -11.804021
In 2.963629 2.994702 -11.804021
In 2.963629 0.042726 -8.852045
In 0.011653 2.994702 -8.852045
In 0.011653 0.042726 -5.900069
In 2.963629 2.994702 -5.900069
In 2.963629 0.042726 -2.948092
In 0.011653 2.994702 -2.948092
In 0.011653 0.042726 0.003884
In 2.963629 2.994702 0.003884
In 2.963629 0.042726 2.955861
In 0.011653 2.994702 2.955861
In 0.011653 0.042726 5.907837
In 2.963629 2.994702 5.907837
In 2.963629 0.042726 8.859813
In 0.011653 2.994702 8.859813
In 0.011653 0.042726 11.811790
In 2.963629 5.946679 -8.852045
In 0.011653 5.946679 -5.900069
In 2.963629 8.898655 -5.900069
In 2.963629 5.946679 -2.948092
In 0.011653 8.898655 -2.948092
In 0.011653 5.946679 0.003884
In 2.963629 8.898655 0.003884
In 2.963629 5.946679 2.955861
In 0.011653 8.898655 2.955861
In 0.011653 5.946679 5.907837
In 2.963629 11.850632 -2.948092
In 0.011653 11.850632 0.003884
In 5.915605 -8.813203 2.955861
In 5.915605 -11.765180 5.907837
In 8.867582 -8.813203 5.907837
In 5.915605 -8.813203 8.859813
In 5.915605 -2.909250 -2.948092
In 5.915605 -5.861227 0.003884
In 8.867582 -2.909250 0.003884
In 8.867582 -5.861227 2.955861
In 5.915605 -2.909250 2.955861
In 5.915605 -5.861227 5.907837
In 8.867582 -2.909250 5.907837
In 8.867582 -5.861227 8.859813
In 5.915605 -2.909250 8.859813
In 5.915605 -5.861227 11.811790
In 5.915605 2.994702 -8.852045
In 5.915605 0.042726 -5.900069
In 8.867582 2.994702 -5.900069
In 8.867582 0.042726 -2.948092
In 5.915605 2.994702 -2.948092
In 5.915605 0.042726 0.003884
In 8.867582 2.994702 0.003884
In 8.867582 0.042726 2.955861
In 5.915605 2.994702 2.955861
In 5.915605 0.042726 5.907837
In 5.915605 5.946679 -11.804021
In 8.867582 5.946679 -8.852045
In 5.915605 8.898655 -8.852045
In 5.915605 5.946679 -5.900069
In 8.867582 8.898655 -5.900069
In 8.867582 5.946679 -2.948092
In 5.915605 8.898655 -2.948092
In 5.915605 5.946679 0.003884
In 5.915605 11.850632 -5.900069
In 11.819558 -2.909250 2.955861
In 11.819558 -5.861227 5.907837
In 11.819558 2.994702 -2.948092
In 11.819558 0.042726 0.003884
In 11.819558 5.946679 -5.900069
P -10.320265 -7.337215 -7.376057
P -7.368288 -7.337215 -4.424080
P -7.368288 -4.385239 -7.376057
P -10.320265 -4.385239 -4.424080
P -10.320265 -1.433262 -1.472104
P -7.368288 -1.433262 -4.424080
P -7.368288 -4.385239 -1.472104
P -7.368288 -1.433262 1.479872
P -7.368288 1.518714 -1.472104
P -10.320265 1.518714 1.479872
P -10.320265 4.470691 4.431849
P -7.368288 4.470691 1.479872
P -7.368288 1.518714 4.431849
P -7.368288 4.470691 7.383825
P -7.368288 7.422667 4.431849
P -10.320265 7.422667 7.383825
P -4.416312 -7.337215 -7.376057
P -4.416312 -10.289191 -4.424080
P -4.416312 -7.337215 -1.472104
P -1.464336 -7.337215 -4.424080
P -1.464336 -10.289191 -1.472104
P -1.464336 -7.337215 1.479872
P -4.416312 -4.385239 -10.328033
P -4.416312 -1.433262 -7.376057
P -1.464336 -1.433262 -10.328033
P -1.464336 -4.385239 -7.376057
P -4.416312 -4.385239 -4.424080
P -4.416312 -1.433262 -1.472104
P -1.464336 -1.433262 -4.424080
P -1.464336 -4.385239 -1.472104
P -4.416312 -4.385239 1.479872
P -4.416312 -1.433262 4.431849
P -1.464336 -1.433262 1.479872
P -1.464336 -4.385239 4.431849
P -1.464336 -1.433262 7.383825
P -1.464336 1.518714 -7.376057
P -4.416312 1.518714 -4.424080
P -4.416312 4.470691 -1.472104
P -1.464336 4.470691 -4.424080
P -1.464336 1.518714 -1.472104
P -4.416312 1.518714 1.479872
P -4.416312 4.470691 4.431849
P -1.464336 4.470691 1.479872
P -1.464336 1.518714 4.431849
P -4.416312 1.518714 7.383825
P -4.416312 4.470691 10.335802
P -1.464336 4.470691 7.383825
P -1.464336 1.518714 10.335802
P -1.464336 7.422667 -1.472104
P -4.416312 7.422667 1.479872
P -4.416312 10.374643 4.431849
P -1.464336 10.374643 1.479872
P -1.464336 7.422667 4.431849
P -4.416312 7.422667 7.383825
P 1.487641 -7.337215 -1.472104
P 1.487641 -10.289191 1.479872
P 1.487641 -7.337215 4.431849
P 4.439617 -7.337215 1.479872
P 4.439617 -10.289191 4.431849
P 4.439617 -7.337215 7.383825
P 1.487641 -1.433262 -7.376057
P 1.487641 -4.385239 -4.424080
P 1.487641 -1.433262 -1.472104
P 4.439617 -1.433262 -4.424080
P 4.439617 -4.385239 -1.472104
P 1.487641 -4.385239 1.479872
P 1.487641 -1.433262 4.431849
P 4.439617 -1.433262 1.479872
P 4.439617 -4.385239 4.431849
P 1.487641 -4.385239 7.383825
P 1.487641 -1.433262 10.335802
P 4.439617 -1.433262 7.383825
P 4.439617 -4.385239 10.335802
P 1.487641 1.518714 -10.328033
P 1.487641 4.470691 -7.376057
P 4.439617 4.470691 -10.328033
P 4.439617 1.518714 -7.376057
P 1.487641 1.518714 -4.424080
P 1.487641 4.470691 -1.472104
P 4.439617 4.470691 -4.424080
P 4.439617 1.518714 -1.472104
P 1.487641 1.518714 1.479872
P 1.487641 4.470691 4.431849
P 4.439617 4.470691 1.479872
P 4.439617 1.518714 4.431849
P 1.487641 1.518714 7.383825
P 4.439617 7.422667 -7.376057
P 1.487641 7.422667 -4.424080
P 1.487641 10.374643 -1.472104
P 4.439617 10.374643 -4.424080
P 4.439617 7.422667 -1.472104
P 1.487641 7.422667 1.479872
P 7.391594 -7.337215 4.431849
P 10.343570 -7.337215 7.383825
P 7.391594 -1.433262 -1.472104
P 7.391594 -4.385239 1.479872
P 7.391594 -1.433262 4.431849
P 10.343570 -1.433262 1.479872
P 10.343570 -4.385239 4.431849
P 7.391594 -4.385239 7.383825
P 7.391594 4.470691 -7.376057
P 7.391594 1.518714 -4.424080
P 7.391594 4.470691 -1.472104
P 10.343570 4.470691 -4.424080
P 10.343570 1.518714 -1.472104
P 7.391594 1.518714 1.479872
P 10.343570 7.422667 -7.376057
P 7.391594 7.422667 -4.424080
Cl -7.368288 -7.337215 -10.328033
Cl -7.368288 -10.289191 -7.376057
Cl -7.368288 10.374643 7.383825
Cl -7.368288 7.422667 10.335802
Cl 7.391594 -10.289191 7.383825
Cl 7.391594 -7.337215 10.335802
Cl 7.391594 7.422667 -10.328033
Cl 7.391594 10.374643 -7.376057
Cl -4.416312 13.326620 7.383825
Cl 13.295546 4.470691 -7.376057
Cl -13.272241 -4.385239 -7.376057
Cl 4.439617 -13.241168 7.383825
Cl -4.416312 -7.337215 -13.280010
Cl 7.391594 -4.385239 13.287778
Cl -7.368288 4.470691 13.287778
Cl 4.439617 7.422667 -13.280010
Cl -13.272241 7.422667 4.431849
Cl -7.368288 -13.241168 -4.424080
Cl -1.464336 4.470691 13.287778
Cl 4.439617 1.518714 -13.280010
Cl -13.272241 1.518714 4.431849
Cl 1.487641 13.326620 -4.424080
Cl 7.391594 13.326620 -4.424080
Cl 13.295546 -7.337215 4.431849
Cl -1.464336 -13.241168 -4.424080
Cl 13.295546 -1.433262 4.431849
Cl 1.487641 -1.433262 -13.280010
Cl 1.487641 1.518714 13.287778
Cl -13.272241 -1.433262 -4.424080
Cl 1.487641 -13.241168 4.431849
Cl -4.416312 -1.433262 -13.280010
Cl 1.487641 -4.385239 13.287778
Cl -13.272241 -1.433262 1.479872
Cl -1.464336 13.326620 -1.472104
Cl -1.464336 13.326620 4.431849
Cl 13.295546 1.518714 -4.424080
Cl 1.487641 -13.241168 -1.472104
Cl 13.295546 1.518714 1.479872
Cl -13.272241 -7.337215 -4.424080
Cl -7.368288 13.326620 4.431849
Cl 7.391594 -13.241168 4.431849
Cl 13.295546 7.422667 -4.424080
Cl -4.416312 -4.385239 7.383825
Cl -4.416312 4.470691 -7.376057
Cl 4.439617 7.422667 4.431849
Cl 7.391594 -4.385239 -4.424080
Cl -10.320265 4.470691 -1.472104
Cl -4.416312 -10.289191 1.479872
Cl 1.487641 -7.337215 -7.376057
Cl 7.391594 1.518714 7.383825
Cl -7.368288 -4.385239 -13.280010
Cl 4.439617 -7.337215 13.287778
Cl -13.272241 4.470691 7.383825
Cl 4.439617 13.326620 -7.376057
Cl -4.416312 7.422667 13.287778
Cl 7.391594 4.470691 -13.280010
Cl 4.439617 13.326620 -1.472104
Cl 13.295546 -4.385239 1.479872
Cl -4.416312 1.518714 13.287778
Cl 1.487641 4.470691 -13.280010
Cl -4.416312 -13.241168 -7.376057
Cl 13.295546 -4.385239 7.383825
Cl -10.320265 -7.337215 -1.472104
Cl -7.368288 10.374643 1.479872
Cl 7.391594 -10.289191 1.479872
Cl 10.343570 7.422667 -1.472104
Cl -7.368288 -1.433262 7.383825
Cl -1.464336 7.422667 -7.376057
Cl 1.487641 7.422667 7.383825
Cl 7.391594 -1.433262 -7.376057
Cl -7.368288 1.518714 -7.376057
Cl -1.464336 -7.337215 7.383825
Cl -13.272241 4.470691 1.479872
Cl -4.416312 -13.241168 -1.472104
Cl -1.464336 -4.385239 -13.280010
Cl 4.439617 -1.433262 13.287778
Cl 1.487641 13.326620 1.479872
Cl 13.295546 -1.433262 -1.472104
Cl -10.320265 -4.385239 -10.328033
Cl 4.439617 -10.289191 10.335802
Cl -10.320265 4.470691 10.335802
Cl 4.439617 10.374643 -10.328033
Cl -4.416312 -10.289191 -10.328033
Cl 10.343570 -4.385239 10.335802
Cl -4.416312 10.374643 10.335802
Cl 10.343570 4.470691 -10.328033
Cl -1.464336 1.518714 -13.280010
Cl -1.464336 -1.433262 13.287778
Cl 4.439617 -10.289191 -1.472104
Cl 10.343570 4.470691 1.479872
Cl -10.320265 -4.385239 1.479872
Cl -4.416312 10.374643 -1.472104
Cl 10.343570 -10.289191 4.431849
Cl 10.343570 10.374643 -4.424080
Cl -10.320265 -10.289191 -4.424080
Cl -10.320265 10.374643 4.431849
Cl -13.272241 1.518714 -1.472104
Cl -1.464336 -13.241168 1.479872
Cl 4.439617 -4.385239 -7.376057
Cl 4.439617 4.470691 7.383825
Cl 4.439617 10.374643 1.479872
Cl 10.343570 -4.385239 -1.472104
Cl -7.368288 -4.385239 4.431849
Cl -4.416312 7.422667 -4.424080
Cl 4.439617 -13.241168 1.479872
Cl 13.295546 4.470691 -1.472104
Cl -13.272241 -4.385239 -1.472104
Cl -4.416312 13.326620 1.479872
Cl -10.320265 -1.433262 -7.376057
Cl 1.487641 -10.289191 7.383825
Cl -1.464336 -7.337215 -10.328033
Cl 7.391594 -1.433262 10.335802
Cl -7.368288 1.518714 10.335802
Cl 1.487641 7.422667 -10.328033
Cl -1.464336 7.422667 10.335802
Cl 7.391594 1.518714 -10.328033
Cl -4.416312 1.518714 -10.328033
Cl -1.464336 -4.385239 10.335802
Cl 1.487641 -10.289191 -4.424080
Cl 10.343570 1.518714 4.431849
Cl -7.368288 -7.337215 1.479872
Cl -7.368288 7.422667 -1.472104
Cl 7.391594 -7.337215 -1.472104
