189
CsPbBr3-Pb-Cs54Pb27Br108-clean
Cs -9.017369 -8.954420 -2.974315
Cs -9.017369 -8.954420 2.974315
Cs -9.017369 -3.005789 -2.974315
Cs -9.017369 -3.005789 2.974315
Cs -9.017369 2.942841 -8.922946
Cs -9.017369 2.942841 -2.974315
Cs -9.017369 2.942841 2.974315
Cs -9.017369 2.942841 8.922946
Cs -9.017369 8.891472 -2.974315
Cs -9.017369 8.891472 2.974315
Cs -3.068738 -8.954420 -8.922946
Cs -3.068738 -8.954420 -2.974315
Cs -3.068738 -8.954420 2.974315
Cs -3.068738 -8.954420 8.922946
Cs -3.068738 -3.005789 -8.922946
Cs -3.068738 -3.005789 -2.974315
Cs -3.068738 -3.005789 2.974315
Cs -3.068738 -3.005789 8.922946
Cs -3.068738 2.942841 -8.922946
Cs -3.068738 2.942841 -2.974315
Cs -3.068738 2.942841 2.974315
Cs -3.068738 2.942841 8.922946
Cs -3.068738 8.891472 -8.922946
Cs -3.068738 8.891472 -2.974315
Cs -3.068738 8.891472 2.974315
Cs -3.068738 8.891472 8.922946
Cs 2.879892 -8.954420 -8.922946
Cs 2.879892 -8.954420 -2.974315
Cs 2.879892 -8.954420 2.974315
Cs 2.879892 -8.954420 8.922946
Cs 2.879892 -3.005789 -8.922946
Cs 2.879892 -3.005789 -2.974315
Cs 2.879892 -3.005789 2.974315
Cs 2.879892 -3.005789 8.922946
Cs 2.879892 2.942841 -8.922946
Cs 2.879892 2.942841 -2.974315
Cs 2.879892 2.942841 2.974315
Cs 2.879892 2.942841 8.922946
Cs 2.879892 8.891472 -8.922946
Cs 2.879892 8.891472 -2.974315
Cs 2.879892 8.891472 2.974315
Cs 2.879892 8.891472 8.922946
Cs 8.828523 -8.954420 -2.974315
Cs 8.828523 -8.954420 2.974315
Cs 8.828523 -3.005789 -8.922946
Cs 8.828523 -3.005789 -2.974315
Cs 8.828523 -3.005789 2.974315
Cs 8.828523 -3.005789 8.922946
Cs 8.828523 2.942841 -8.922946
Cs 8.828523 2.942841 -2.974315
Cs 8.828523 2.942841 2.974315
Cs 8.828523 2.942841 8.922946
Cs 8.828523 8.891472 -2.974315
Cs 8.828523 8.891472 2.974315
Pb -6.043054 -5.980105 -5.948631
Pb -6.043054 -5.980105 0.000000
Pb -6.043054 -5.980105 5.948631
Pb -6.043054 -0.031474 -5.948631
Pb -6.043054 -0.031474 0.000000
Pb -6.043054 -0.031474 5.948631
Pb -6.043054 5.917157 -5.948631
Pb -6.043054 5.917157 0.000000
Pb -6.043054 5.917157 5.948631
Pb -0.094423 -5.980105 -5.948631
Pb -0.094423 -5.980105 0.000000
Pb -0.094423 -5.980105 5.948631
Pb -0.094423 -0.031474 -5.948631
Pb -0.094423 -0.031474 0.000000
Pb -0.094423 -0.031474 5.948631
Pb -0.094423 5.917157 -5.948631
Pb -0.094423 5.917157 0.000000
Pb -0.094423 5.917157 5.948631
Pb 5.854208 -5.980105 -5.948631
Pb 5.854208 -5.980105 0.000000
Pb 5.854208 -5.980105 5.948631
Pb 5.854208 -0.031474 -5.948631
Pb 5.854208 -0.031474 0.000000
Pb 5.854208 -0.031474 5.948631
Pb 5.854208 5.917157 -5.948631
Pb 5.854208 5.917157 0.000000
Pb 5.854208 5.917157 5.948631
Br -9.017369 -5.980105 -5.948631
Br -6.043054 -8.954420 -5.948631
Br -6.043054 -5.980105 -8.922946
Br -9.017369 -5.980105 0.000000
Br -6.043054 -8.954420 0.000000
Br -6.043054 -5.980105 -2.974315
Br -9.017369 -5.980105 5.948631
Br -6.043054 -8.954420 5.948631
Br -6.043054 -5.980105 2.974315
Br -6.043054 -5.980105 8.922946
Br -9.017369 -0.031474 -5.948631
Br -6.043054 -3.005789 -5.948631
Br -6.043054 -0.031474 -8.922946
Br -9.017369 -0.031474 0.000000
Br -6.043054 -3.005789 0.000000
Br -6.043054 -0.031474 -2.974315
Br -9.017369 -0.031474 5.948631
Br -6.043054 -3.005789 5.948631
Br -6.043054 -0.031474 2.974315
Br -6.043054 -0.031474 8.922946
Br -9.017369 5.917157 -5.948631
Br -6.043054 2.942841 -5.948631
Br -6.043054 5.917157 -8.922946
Br -9.017369 5.917157 0.000000
Br -6.043054 2.942841 0.000000
Br -6.043054 5.917157 -2.974315
Br -9.017369 5.917157 5.948631
Br -6.043054 2.942841 5.948631
Br -6.043054 5.917157 2.974315
Br -6.043054 5.917157 8.922946
Br -6.043054 8.891472 -5.948631
Br -6.043054 8.891472 0.000000
Br -6.043054 8.891472 5.948631
Br -3.068738 -5.980105 -5.948631
Br -0.094423 -8.954420 -5.948631
Br -0.094423 -5.980105 -8.922946
Br -3.068738 -5.980105 0.000000
Br -0.094423 -8.954420 0.000000
Br -0.094423 -5.980105 -2.974315
Br -3.068738 -5.980105 5.948631
Br -0.094423 -8.954420 5.948631
Br -0.094423 -5.980105 2.974315
Br -0.094423 -5.980105 8.922946
Br -3.068738 -0.031474 -5.948631
Br -0.094423 -3.005789 -5.948631
Br -0.094423 -0.031474 -8.922946
Br -3.068738 -0.031474 0.000000
Br -0.094423 -3.005789 0.000000
Br -0.094423 -0.031474 -2.974315
Br -3.068738 -0.031474 5.948631
Br -0.094423 -3.005789 5.948631
Br -0.094423 -0.031474 2.974315
Br -0.094423 -0.031474 8.922946
Br -3.068738 5.917157 -5.948631
Br -0.094423 2.942841 -5.948631
Br -0.094423 5.917157 -8.922946
Br -3.068738 5.917157 0.000000
Br -0.094423 2.942841 0.000000
Br -0.094423 5.917157 -2.974315
Br -3.068738 5.917157 5.948631
Br -0.094423 2.942841 5.948631
Br -0.094423 5.917157 2.974315
Br -0.094423 5.917157 8.922946
Br -0.094423 8.891472 -5.948631
Br -0.094423 8.891472 0.000000
Br -0.094423 8.891472 5.948631
Br 2.879892 -5.980105 -5.948631
Br 5.854208 -8.954420 -5.948631
Br 5.854208 -5.980105 -8.922946
Br 2.879892 -5.980105 0.000000
Br 5.854208 -8.954420 0.000000
Br 5.854208 -5.980105 -2.974315
Br 2.879892 -5.980105 5.948631
Br 5.854208 -8.954420 5.948631
Br 5.854208 -5.980105 2.974315
Br 5.854208 -5.980105 8.922946
Br 2.879892 -0.031474 -5.948631
Br 5.854208 -3.005789 -5.948631
Br 5.854208 -0.031474 -8.922946
Br 2.879892 -0.031474 0.000000
Br 5.854208 -3.005789 0.000000
Br 5.854208 -0.031474 -2.974315
Br 2.879892 -0.031474 5.948631
Br 5.854208 -3.005789 5.948631
Br 5.854208 -0.031474 2.974315
Br 5.854208 -0.031474 8.922946
Br 2.879892 5.917157 -5.948631
Br 5.854208 2.942841 -5.948631
Br 5.854208 5.917157 -8.922946
Br 2.879892 5.917157 0.000000
Br 5.854208 2.942841 0.000000
Br 5.854208 5.917157 -2.974315
Br 2.879892 5.917157 5.948631
Br 5.854208 2.942841 5.948631
Br 5.854208 5.917157 2.974315
Br 5.854208 5.917157 8.922946
Br 5.854208 8.891472 -5.948631
Br 5.854208 8.891472 0.000000
Br 5.854208 8.891472 5.948631
Br 8.828523 -5.980105 -5.948631
Br 8.828523 -5.980105 0.000000
Br 8.828523 -5.980105 5.948631
Br 8.828523 -0.031474 -5.948631
Br 8.828523 -0.031474 0.000000
Br 8.828523 -0.031474 5.948631
Br 8.828523 5.917157 -5.948631
Br 8.828523 5.917157 0.000000
Br 8.828523 5.917157 5.948631
