321
HgSe-Se-Hg152Se135Cl34-clean
Hg -10.817849 -4.634843 -4.634843
Hg -10.817849 -4.634843 1.557809
Hg -10.817849 1.557809 -4.634843
Hg -10.817849 -1.538517 -1.538517
Hg -10.817849 1.557809 1.557809
Hg -10.817849 -1.538517 4.654135
Hg -10.817849 4.654135 -1.538517
Hg -10.817849 4.654135 4.654135
Hg -4.625197 -10.827495 -4.634843
Hg -4.625197 -10.827495 1.557809
Hg -4.625197 -4.634843 -10.827495
Hg -4.625197 -7.731169 -7.731169
Hg -7.721523 -4.634843 -7.731169
Hg -7.721523 -7.731169 -4.634843
Hg -4.625197 -4.634843 -4.634843
Hg -4.625197 -7.731169 -1.538517
Hg -7.721523 -4.634843 -1.538517
Hg -7.721523 -7.731169 1.557809
Hg -4.625197 -4.634843 1.557809
Hg -4.625197 -7.731169 4.654135
Hg -7.721523 -4.634843 4.654135
Hg -4.625197 -4.634843 7.750461
Hg -4.625197 1.557809 -10.827495
Hg -4.625197 -1.538517 -7.731169
Hg -7.721523 1.557809 -7.731169
Hg -7.721523 -1.538517 -4.634843
Hg -4.625197 1.557809 -4.634843
Hg -4.625197 -1.538517 -1.538517
Hg -7.721523 1.557809 -1.538517
Hg -7.721523 -1.538517 1.557809
Hg -4.625197 1.557809 1.557809
Hg -4.625197 -1.538517 4.654135
Hg -7.721523 1.557809 4.654135
Hg -7.721523 -1.538517 7.750461
Hg -4.625197 1.557809 7.750461
Hg -4.625197 -1.538517 10.846787
Hg -4.625197 4.654135 -7.731169
Hg -7.721523 4.654135 -4.634843
Hg -4.625197 7.750461 -4.634843
Hg -4.625197 4.654135 -1.538517
Hg -7.721523 7.750461 -1.538517
Hg -7.721523 4.654135 1.557809
Hg -4.625197 7.750461 1.557809
Hg -4.625197 4.654135 4.654135
Hg -7.721523 7.750461 4.654135
Hg -7.721523 4.654135 7.750461
Hg -4.625197 7.750461 7.750461
Hg -4.625197 4.654135 10.846787
Hg -4.625197 10.846787 -1.538517
Hg -4.625197 10.846787 4.654135
Hg 1.567455 -10.827495 -4.634843
Hg -1.528871 -10.827495 -1.538517
Hg 1.567455 -10.827495 1.557809
Hg -1.528871 -10.827495 4.654135
Hg 1.567455 -4.634843 -10.827495
Hg 1.567455 -7.731169 -7.731169
Hg -1.528871 -4.634843 -7.731169
Hg -1.528871 -7.731169 -4.634843
Hg 1.567455 -4.634843 -4.634843
Hg 1.567455 -7.731169 -1.538517
Hg -1.528871 -4.634843 -1.538517
Hg -1.528871 -7.731169 1.557809
Hg 1.567455 -4.634843 1.557809
Hg 1.567455 -7.731169 4.654135
Hg -1.528871 -4.634843 4.654135
Hg -1.528871 -7.731169 7.750461
Hg 1.567455 -4.634843 7.750461
Hg -1.528871 -4.634843 10.846787
Hg -1.528871 -1.538517 -10.827495
Hg 1.567455 1.557809 -10.827495
Hg 1.567455 -1.538517 -7.731169
Hg -1.528871 1.557809 -7.731169
Hg -1.528871 -1.538517 -4.634843
Hg 1.567455 1.557809 -4.634843
Hg 1.567455 -1.538517 -1.538517
Hg -1.528871 1.557809 -1.538517
Hg -1.528871 -1.538517 1.557809
Hg 1.567455 1.557809 1.557809
Hg 1.567455 -1.538517 4.654135
Hg -1.528871 1.557809 4.654135
Hg -1.528871 -1.538517 7.750461
Hg 1.567455 1.557809 7.750461
Hg 1.567455 -1.538517 10.846787
Hg -1.528871 1.557809 10.846787
Hg -1.528871 4.654135 -10.827495
Hg 1.567455 4.654135 -7.731169
Hg -1.528871 7.750461 -7.731169
Hg -1.528871 4.654135 -4.634843
Hg 1.567455 7.750461 -4.634843
Hg 1.567455 4.654135 -1.538517
Hg -1.528871 7.750461 -1.538517
Hg -1.528871 4.654135 1.557809
Hg 1.567455 7.750461 1.557809
Hg 1.567455 4.654135 4.654135
Hg -1.528871 7.750461 4.654135
Hg -1.528871 4.654135 7.750461
Hg 1.567455 7.750461 7.750461
Hg 1.567455 4.654135 10.846787
Hg -1.528871 10.846787 -4.634843
Hg 1.567455 10.846787 -1.538517
Hg -1.528871 10.846787 1.557809
Hg 1.567455 10.846787 4.654135
Hg 4.663781 -10.827495 -1.538517
Hg 4.663781 -10.827495 4.654135
Hg 4.663781 -4.634843 -7.731169
Hg 4.663781 -7.731169 -4.634843
Hg 7.760107 -4.634843 -4.634843
Hg 7.760107 -7.731169 -1.538517
Hg 4.663781 -4.634843 -1.538517
Hg 4.663781 -7.731169 1.557809
Hg 7.760107 -4.634843 1.557809
Hg 7.760107 -7.731169 4.654135
Hg 4.663781 -4.634843 4.654135
Hg 4.663781 -7.731169 7.750461
Hg 7.760107 -4.634843 7.750461
Hg 4.663781 -4.634843 10.846787
Hg 4.663781 -1.538517 -10.827495
Hg 7.760107 -1.538517 -7.731169
Hg 4.663781 1.557809 -7.731169
Hg 4.663781 -1.538517 -4.634843
Hg 7.760107 1.557809 -4.634843
Hg 7.760107 -1.538517 -1.538517
Hg 4.663781 1.557809 -1.538517
Hg 4.663781 -1.538517 1.557809
Hg 7.760107 1.557809 1.557809
Hg 7.760107 -1.538517 4.654135
Hg 4.663781 1.557809 4.654135
Hg 4.663781 -1.538517 7.750461
Hg 7.760107 1.557809 7.750461
Hg 4.663781 1.557809 10.846787
Hg 4.663781 4.654135 -10.827495
Hg 7.760107 4.654135 -7.731169
Hg 4.663781 7.750461 -7.731169
Hg 4.663781 4.654135 -4.634843
Hg 7.760107 7.750461 -4.634843
Hg 7.760107 4.654135 -1.538517
Hg 4.663781 7.750461 -1.538517
Hg 4.663781 4.654135 1.557809
Hg 7.760107 7.750461 1.557809
Hg 7.760107 4.654135 4.654135
Hg 4.663781 7.750461 4.654135
Hg 4.663781 4.654135 7.750461
Hg 4.663781 10.846787 -4.634843
Hg 4.663781 10.846787 1.557809
Hg 10.856433 -4.634843 -1.538517
Hg 10.856433 -4.634843 4.654135
Hg 10.856433 -1.538517 -4.634843
Hg 10.856433 1.557809 -1.538517
Hg 10.856433 -1.538517 1.557809
Hg 10.856433 1.557809 4.654135
Hg 10.856433 4.654135 -4.634843
Hg 10.856433 4.654135 1.557809
Se -9.269686 -3.086680 -6.183006
Se -9.269686 -3.086680 0.009646
Se -9.269686 -6.183006 -3.086680
Se -9.269686 -3.086680 6.202298
Se -9.269686 -6.183006 3.105972
Se -9.269686 3.105972 -6.183006
Se -9.269686 3.105972 0.009646
Se -9.269686 0.009646 -3.086680
Se -9.269686 3.105972 6.202298
Se -9.269686 0.009646 3.105972
Se -9.269686 6.202298 -3.086680
Se -9.269686 6.202298 3.105972
Se -3.077034 -9.279332 -6.183006
Se -6.173360 -9.279332 -3.086680
Se -3.077034 -9.279332 0.009646
Se -6.173360 -9.279332 3.105972
Se -3.077034 -9.279332 6.202298
Se -6.173360 -6.183006 -6.183006
Se -6.173360 -3.086680 -9.279332
Se -3.077034 -3.086680 -6.183006
Se -3.077034 -6.183006 -9.279332
Se -6.173360 -6.183006 0.009646
Se -6.173360 -3.086680 -3.086680
Se -3.077034 -3.086680 0.009646
Se -3.077034 -6.183006 -3.086680
Se -6.173360 -6.183006 6.202298
Se -6.173360 -3.086680 3.105972
Se -3.077034 -3.086680 6.202298
Se -3.077034 -6.183006 3.105972
Se -6.173360 -3.086680 9.298624
Se -3.077034 -6.183006 9.298624
Se -6.173360 0.009646 -6.183006
Se -6.173360 3.105972 -9.279332
Se -3.077034 3.105972 -6.183006
Se -3.077034 0.009646 -9.279332
Se -6.173360 0.009646 0.009646
Se -6.173360 3.105972 -3.086680
Se -3.077034 3.105972 0.009646
Se -3.077034 0.009646 -3.086680
Se -6.173360 0.009646 6.202298
Se -6.173360 3.105972 3.105972
Se -3.077034 3.105972 6.202298
Se -3.077034 0.009646 3.105972
Se -6.173360 3.105972 9.298624
Se -3.077034 0.009646 9.298624
Se -6.173360 6.202298 -6.183006
Se -3.077034 9.298624 -6.183006
Se -3.077034 6.202298 -9.279332
Se -6.173360 6.202298 0.009646
Se -6.173360 9.298624 -3.086680
Se -3.077034 9.298624 0.009646
Se -3.077034 6.202298 -3.086680
Se -6.173360 6.202298 6.202298
Se -6.173360 9.298624 3.105972
Se -3.077034 9.298624 6.202298
Se -3.077034 6.202298 3.105972
Se -3.077034 6.202298 9.298624
Se 3.115618 -9.279332 -6.183006
Se 0.019292 -9.279332 -3.086680
Se 3.115618 -9.279332 0.009646
Se 0.019292 -9.279332 3.105972
Se 3.115618 -9.279332 6.202298
Se 0.019292 -6.183006 -6.183006
Se 0.019292 -3.086680 -9.279332
Se 3.115618 -3.086680 -6.183006
Se 3.115618 -6.183006 -9.279332
Se 0.019292 -6.183006 0.009646
Se 0.019292 -3.086680 -3.086680
Se 3.115618 -3.086680 0.009646
Se 3.115618 -6.183006 -3.086680
Se 0.019292 -6.183006 6.202298
Se 0.019292 -3.086680 3.105972
Se 3.115618 -3.086680 6.202298
Se 3.115618 -6.183006 3.105972
Se 0.019292 -3.086680 9.298624
Se 3.115618 -6.183006 9.298624
Se 0.019292 0.009646 -6.183006
Se 0.019292 3.105972 -9.279332
Se 3.115618 3.105972 -6.183006
Se 3.115618 0.009646 -9.279332
Se 0.019292 0.009646 0.009646
Se 0.019292 3.105972 -3.086680
Se 3.115618 3.105972 0.009646
Se 3.115618 0.009646 -3.086680
Se 0.019292 0.009646 6.202298
Se 0.019292 3.105972 3.105972
Se 3.115618 3.105972 6.202298
Se 3.115618 0.009646 3.105972
Se 0.019292 3.105972 9.298624
Se 3.115618 0.009646 9.298624
Se 0.019292 6.202298 -6.183006
Se 3.115618 9.298624 -6.183006
Se 3.115618 6.202298 -9.279332
Se 0.019292 6.202298 0.009646
Se 0.019292 9.298624 -3.086680
Se 3.115618 9.298624 0.009646
Se 3.115618 6.202298 -3.086680
Se 0.019292 6.202298 6.202298
Se 0.019292 9.298624 3.105972
Se 3.115618 9.298624 6.202298
Se 3.115618 6.202298 3.105972
Se 3.115618 6.202298 9.298624
Se 6.211944 -9.279332 -3.086680
Se 6.211944 -9.279332 3.105972
Se 6.211944 -6.183006 -6.183006
Se 6.211944 -3.086680 -9.279332
Se 9.308270 -3.086680 -6.183006
Se 6.211944 -6.183006 0.009646
Se 6.211944 -3.086680 -3.086680
Se 9.308270 -3.086680 0.009646
Se 9.308270 -6.183006 -3.086680
Se 6.211944 -6.183006 6.202298
Se 6.211944 -3.086680 3.105972
Se 9.308270 -3.086680 6.202298
Se 9.308270 -6.183006 3.105972
Se 6.211944 -3.086680 9.298624
Se 6.211944 0.009646 -6.183006
Se 6.211944 3.105972 -9.279332
Se 9.308270 3.105972 -6.183006
Se 6.211944 0.009646 0.009646
Se 6.211944 3.105972 -3.086680
Se 9.308270 3.105972 0.009646
Se 9.308270 0.009646 -3.086680
Se 6.211944 0.009646 6.202298
Se 6.211944 3.105972 3.105972
Se 9.308270 3.105972 6.202298
Se 9.308270 0.009646 3.105972
Se 6.211944 3.105972 9.298624
Se 6.211944 6.202298 -6.183006
Se 6.211944 6.202298 0.009646
Se 6.211944 9.298624 -3.086680
Se 9.308270 6.202298 -3.086680
Se 6.211944 6.202298 6.202298
Se 6.211944 9.298624 3.105972
Se 9.308270 6.202298 3.105972
Cl -12.366012 -3.086680 -3.086680
Cl -12.366012 -3.086680 3.105972
Cl -12.366012 0.009646 0.009646
Cl -12.366012 3.105972 -3.086680
Cl -12.366012 3.105972 3.105972
Cl -3.077034 -12.375658 -3.086680
Cl -3.077034 -12.375658 3.105972
Cl -3.077034 -3.086680 -12.375658
Cl -3.077034 -3.086680 12.394950
Cl -3.077034 3.105972 -12.375658
Cl -3.077034 3.105972 12.394950
Cl -3.077034 12.394950 -3.086680
Cl -3.077034 12.394950 3.105972
Cl 0.019292 -12.375658 0.009646
Cl 3.115618 -12.375658 -3.086680
Cl 3.115618 -12.375658 3.105972
Cl 3.115618 -3.086680 -12.375658
Cl 3.115618 -3.086680 12.394950
Cl 0.019292 0.009646 -12.375658
Cl 3.115618 3.105972 -12.375658
Cl 0.019292 0.009646 12.394950
Cl 3.115618 3.105972 12.394950
Cl 0.019292 12.394950 0.009646
Cl 3.115618 12.394950 -3.086680
Cl 3.115618 12.394950 3.105972
Cl 12.404596 -3.086680 -3.086680
Cl 12.404596 -3.086680 3.105972
Cl 12.404596 0.009646 0.009646
Cl 12.404596 3.105972 -3.086680
Cl 12.404596 3.105972 3.105972
Cl -9.269686 -6.183006 -6.183006
Cl -9.269686 6.202298 6.202298
Cl 6.211944 -9.279332 6.202298
Cl 6.211944 6.202298 -9.279332
