391
CdTe-Cd-Cd177Te140Cl74-reconstructed
Cd -9.821158 -9.829552 -0.000000
Cd -9.821158 -6.547439 -3.282114
Cd -13.103272 -3.265325 -3.282114
Cd -13.103272 -6.547439 -0.000000
Cd -9.821158 -3.265325 -0.000000
Cd -13.103272 -3.265325 3.282114
Cd -9.821158 -3.265325 6.564227
Cd -9.821158 0.016788 -9.846341
Cd -13.103272 0.016788 -6.564227
Cd -9.821158 0.016788 -3.282114
Cd -13.103272 3.298902 -3.282114
Cd -13.103272 0.016788 -0.000000
Cd -9.821158 3.298902 -0.000000
Cd -9.821158 0.016788 3.282114
Cd -13.103272 3.298902 3.282114
Cd -13.103272 0.016788 6.564227
Cd -9.821158 0.016788 9.846341
Cd -9.821158 6.581015 -3.282114
Cd -13.103272 6.581015 -0.000000
Cd -9.821158 9.863129 -0.000000
Cd -9.821158 6.581015 3.282114
Cd -3.256931 -9.829552 -6.564227
Cd -3.256931 -13.111666 -3.282114
Cd -6.539045 -13.111666 -0.000000
Cd -3.256931 -9.829552 -0.000000
Cd -3.256931 -13.111666 3.282114
Cd -6.539045 -9.829552 3.282114
Cd -3.256931 -3.265325 -13.128454
Cd -6.539045 -3.265325 -9.846341
Cd -6.539045 -6.547439 -6.564227
Cd -3.256931 -3.265325 -6.564227
Cd -3.256931 -6.547439 -3.282114
Cd -6.539045 -3.265325 -3.282114
Cd -6.539045 -6.547439 -0.000000
Cd -3.256931 -3.265325 -0.000000
Cd -3.256931 -6.547439 3.282114
Cd -6.539045 -3.265325 3.282114
Cd -6.539045 -6.547439 6.564227
Cd -3.256931 -3.265325 6.564227
Cd -3.256931 -6.547439 9.846341
Cd -3.256931 -3.265325 13.128454
Cd -6.539045 0.016788 -13.128454
Cd -3.256931 3.298902 -13.128454
Cd -3.256931 0.016788 -9.846341
Cd -6.539045 3.298902 -9.846341
Cd -6.539045 0.016788 -6.564227
Cd -3.256931 3.298902 -6.564227
Cd -3.256931 0.016788 -3.282114
Cd -6.539045 3.298902 -3.282114
Cd -6.539045 0.016788 -0.000000
Cd -3.256931 3.298902 -0.000000
Cd -3.256931 0.016788 3.282114
Cd -6.539045 3.298902 3.282114
Cd -6.539045 0.016788 6.564227
Cd -3.256931 3.298902 6.564227
Cd -3.256931 0.016788 9.846341
Cd -6.539045 3.298902 9.846341
Cd -6.539045 0.016788 13.128454
Cd -3.256931 3.298902 13.128454
Cd -6.539045 6.581015 -6.564227
Cd -3.256931 9.863129 -6.564227
Cd -3.256931 6.581015 -3.282114
Cd -6.539045 6.581015 -0.000000
Cd -3.256931 9.863129 0.000000
Cd -3.256931 6.581015 3.282114
Cd -6.539045 6.581015 6.564227
Cd -3.256931 9.863129 6.564227
Cd -3.256931 13.145243 -3.282114
Cd -6.539045 13.145243 0.000000
Cd -3.256931 13.145243 3.282114
Cd 0.025182 -9.829552 -9.846341
Cd 0.025182 -13.111666 -6.564227
Cd 3.307296 -13.111666 -3.282114
Cd 0.025182 -9.829552 -3.282114
Cd 0.025182 -13.111666 -0.000000
Cd 3.307296 -9.829552 -0.000000
Cd 3.307296 -13.111666 3.282114
Cd 0.025182 -9.829552 3.282114
Cd 0.025182 -13.111666 6.564227
Cd 0.025182 -9.829552 9.846341
Cd 0.025182 -6.547439 -13.128454
Cd 3.307296 -3.265325 -13.128454
Cd 3.307296 -6.547439 -9.846341
Cd 0.025182 -3.265325 -9.846341
Cd 0.025182 -6.547439 -6.564227
Cd 3.307296 -3.265325 -6.564227
Cd 3.307296 -6.547439 -3.282114
Cd 0.025182 -3.265325 -3.282114
Cd 0.025182 -6.547439 -0.000000
Cd 3.307296 -3.265325 -0.000000
Cd 3.307296 -6.547439 3.282114
Cd 0.025182 -3.265325 3.282114
Cd 0.025182 -6.547439 6.564227
Cd 3.307296 -3.265325 6.564227
Cd 3.307296 -6.547439 9.846341
Cd 0.025182 -3.265325 9.846341
Cd 0.025182 -6.547439 13.128454
Cd 3.307296 -3.265325 13.128454
Cd 0.025182 0.016788 -13.128454
Cd 3.307296 3.298902 -13.128454
Cd 3.307296 0.016788 -9.846341
Cd 0.025182 3.298902 -9.846341
Cd 0.025182 0.016788 -6.564227
Cd 3.307296 3.298902 -6.564227
Cd 3.307296 0.016788 -3.282114
Cd 0.025182 3.298902 -3.282114
Cd 0.025182 0.016788 -0.000000
Cd 3.307296 3.298902 0.000000
Cd 3.307296 0.016788 3.282114
Cd 0.025182 3.298902 3.282114
Cd 0.025182 0.016788 6.564227
Cd 3.307296 3.298902 6.564227
Cd 3.307296 0.016788 9.846341
Cd 0.025182 3.298902 9.846341
Cd 0.025182 0.016788 13.128454
Cd 3.307296 3.298902 13.128454
Cd 0.025182 6.581015 -13.128454
Cd 0.025182 9.863129 -9.846341
Cd 0.025182 6.581015 -6.564227
Cd 3.307296 9.863129 -6.564227
Cd 3.307296 6.581015 -3.282114
Cd 0.025182 9.863129 -3.282114
Cd 0.025182 6.581015 0.000000
Cd 3.307296 9.863129 0.000000
Cd 3.307296 6.581015 3.282114
Cd 0.025182 9.863129 3.282114
Cd 0.025182 6.581015 6.564227
Cd 3.307296 6.581015 9.846341
Cd 0.025182 9.863129 9.846341
Cd 0.025182 6.581015 13.128454
Cd 0.025182 13.145243 -6.564227
Cd 3.307296 13.145243 -3.282114
Cd 0.025182 13.145243 0.000000
Cd 3.307296 13.145243 3.282114
Cd 0.025182 13.145243 6.564227
Cd 6.589410 -9.829552 -3.282114
Cd 6.589410 -13.111666 -0.000000
Cd 9.871523 -9.829552 -0.000000
Cd 6.589410 -9.829552 3.282114
Cd 6.589410 -6.547439 -6.564227
Cd 9.871523 -3.265325 -6.564227
Cd 6.589410 -3.265325 -3.282114
Cd 6.589410 -6.547439 -0.000000
Cd 9.871523 -3.265325 0.000000
Cd 6.589410 -3.265325 3.282114
Cd 6.589410 -6.547439 6.564227
Cd 9.871523 -3.265325 6.564227
Cd 6.589410 0.016788 -13.128454
Cd 9.871523 0.016788 -9.846341
Cd 6.589410 3.298902 -9.846341
Cd 6.589410 0.016788 -6.564227
Cd 9.871523 0.016788 -3.282114
Cd 6.589410 3.298902 -3.282114
Cd 6.589410 0.016788 0.000000
Cd 9.871523 3.298902 0.000000
Cd 9.871523 0.016788 3.282114
Cd 6.589410 3.298902 3.282114
Cd 6.589410 0.016788 6.564227
Cd 9.871523 3.298902 6.564227
Cd 9.871523 0.016788 9.846341
Cd 6.589410 0.016788 13.128454
Cd 6.589410 6.581015 -6.564227
Cd 9.871523 6.581015 -3.282114
Cd 6.589410 6.581015 0.000000
Cd 9.871523 9.863129 0.000000
Cd 6.589410 9.863129 3.282114
Cd 6.589410 6.581015 6.564227
Cd 6.589410 13.145243 0.000000
Cd 13.153637 -3.265325 -3.282114
Cd 13.153637 -6.547439 0.000000
Cd 13.153637 -3.265325 3.282114
Cd 13.153637 0.016788 -6.564227
Cd 13.153637 3.298902 -3.282114
Cd 13.153637 0.016788 0.000000
Cd 13.153637 3.298902 3.282114
Cd 13.153637 0.016788 6.564227
Cd 13.153637 6.581015 0.000000
Te -11.462215 -8.188496 -1.641057
Te -8.180101 -8.188496 1.641057
Te -8.180101 -1.624268 -11.487397
Te -11.462215 -1.624268 -1.641057
Te -8.180101 -1.624268 -4.923170
Te -8.180101 -4.906382 -1.641057
Te -11.462215 -4.906382 1.641057
Te -11.462215 -1.624268 4.923170
Te -8.180101 -1.624268 1.641057
Te -8.180101 -4.906382 4.923170
Te -8.180101 -1.624268 8.205284
Te -8.180101 1.657845 -8.205284
Te -11.462215 1.657845 -4.923170
Te -11.462215 4.939959 -1.641057
Te -8.180101 4.939959 -4.923170
Te -8.180101 1.657845 -1.641057
Te -11.462215 1.657845 1.641057
Te -8.180101 4.939959 1.641057
Te -8.180101 1.657845 4.923170
Te -8.180101 1.657845 11.487397
Te -8.180101 8.222072 -1.641057
Te -11.462215 8.222072 1.641057
Te -1.615874 -11.470609 -8.205284
Te -4.897988 -8.188496 -1.641057
Te -1.615874 -8.188496 -4.923170
Te -1.615874 -11.470609 -1.641057
Te -4.897988 -11.470609 1.641057
Te -4.897988 -8.188496 4.923170
Te -1.615874 -8.188496 1.641057
Te -1.615874 -11.470609 4.923170
Te -1.615874 -8.188496 8.205284
Te -4.897988 -1.624268 -8.205284
Te -1.615874 -1.624268 -11.487397
Te -1.615874 -4.906382 -8.205284
Te -4.897988 -4.906382 -4.923170
Te -4.897988 -1.624268 -1.641057
Te -1.615874 -1.624268 -4.923170
Te -1.615874 -4.906382 -1.641057
Te -4.897988 -4.906382 1.641057
Te -4.897988 -1.624268 4.923170
Te -1.615874 -1.624268 1.641057
Te -1.615874 -4.906382 4.923170
Te -4.897988 -4.906382 8.205284
Te -4.897988 -1.624268 11.487397
Te -1.615874 -1.624268 8.205284
Te -1.615874 -4.906382 11.487397
Te -4.897988 1.657845 -11.487397
Te -4.897988 4.939959 -8.205284
Te -1.615874 4.939959 -11.487397
Te -1.615874 1.657845 -8.205284
Te -4.897988 1.657845 -4.923170
Te -4.897988 4.939959 -1.641057
Te -1.615874 4.939959 -4.923170
Te -1.615874 1.657845 -1.641057
Te -4.897988 1.657845 1.641057
Te -4.897988 4.939959 4.923170
Te -1.615874 4.939959 1.641057
Te -1.615874 1.657845 4.923170
Te -4.897988 1.657845 8.205284
Te -1.615874 4.939959 8.205284
Te -1.615874 1.657845 11.487397
Te -1.615874 8.222072 -8.205284
Te -4.897988 8.222072 -4.923170
Te -4.897988 11.504186 -1.641057
Te -1.615874 11.504186 -4.923170
Te -1.615874 8.222072 -1.641057
Te -4.897988 8.222072 1.641057
Te -1.615874 11.504186 1.641057
Te -1.615874 8.222072 4.923170
Te -1.615874 11.504186 8.205284
Te 1.666239 -8.188496 -8.205284
Te 1.666239 -11.470609 -4.923170
Te 1.666239 -8.188496 -1.641057
Te 4.948353 -8.188496 -4.923170
Te 4.948353 -11.470609 -1.641057
Te 1.666239 -11.470609 1.641057
Te 1.666239 -8.188496 4.923170
Te 4.948353 -8.188496 1.641057
Te 1.666239 -8.188496 11.487397
Te 1.666239 -4.906382 -11.487397
Te 1.666239 -1.624268 -8.205284
Te 4.948353 -1.624268 -11.487397
Te 4.948353 -4.906382 -8.205284
Te 1.666239 -4.906382 -4.923170
Te 1.666239 -1.624268 -1.641057
Te 4.948353 -1.624268 -4.923170
Te 4.948353 -4.906382 -1.641057
Te 1.666239 -4.906382 1.641057
Te 1.666239 -1.624268 4.923170
Te 4.948353 -1.624268 1.641057
Te 4.948353 -4.906382 4.923170
Te 1.666239 -4.906382 8.205284
Te 1.666239 -1.624268 11.487397
Te 4.948353 -1.624268 8.205284
Te 1.666239 1.657845 -11.487397
Te 1.666239 4.939959 -8.205284
Te 4.948353 1.657845 -8.205284
Te 1.666239 1.657845 -4.923170
Te 1.666239 4.939959 -1.641057
Te 4.948353 4.939959 -4.923170
Te 4.948353 1.657845 -1.641057
Te 1.666239 1.657845 1.641057
Te 1.666239 4.939959 4.923170
Te 4.948353 4.939959 1.641057
Te 4.948353 1.657845 4.923170
Te 1.666239 1.657845 8.205284
Te 1.666239 4.939959 11.487397
Te 4.948353 4.939959 8.205284
Te 4.948353 1.657845 11.487397
Te 1.666239 11.504186 -8.205284
Te 1.666239 8.222072 -4.923170
Te 1.666239 11.504186 -1.641057
Te 4.948353 8.222072 -1.641057
Te 1.666239 8.222072 1.641057
Te 1.666239 11.504186 4.923170
Te 4.948353 11.504186 1.641057
Te 4.948353 8.222072 4.923170
Te 1.666239 8.222072 8.205284
Te 8.230466 -8.188496 -1.641057
Te 8.230466 -11.470609 1.641057
Te 8.230466 -1.624268 -8.205284
Te 8.230466 -4.906382 -4.923170
Te 8.230466 -1.624268 -1.641057
Te 11.512580 -1.624268 -4.923170
Te 11.512580 -4.906382 -1.641057
Te 8.230466 -4.906382 1.641057
Te 8.230466 -1.624268 4.923170
Te 11.512580 -1.624268 1.641057
Te 11.512580 -1.624268 8.205284
Te 8.230466 1.657845 -11.487397
Te 8.230466 1.657845 -4.923170
Te 8.230466 4.939959 -1.641057
Te 11.512580 1.657845 -1.641057
Te 8.230466 1.657845 1.641057
Te 8.230466 4.939959 4.923170
Te 11.512580 4.939959 1.641057
Te 11.512580 1.657845 4.923170
Te 8.230466 1.657845 8.205284
Te 11.512580 8.222072 -1.641057
Te 8.230466 8.222072 1.641057
Cl -14.744329 -1.624268 -4.923170
Cl -14.744329 -4.906382 -1.641057
Cl -14.744329 -1.624268 1.641057
Cl -14.744329 1.657845 -1.641057
Cl -14.744329 4.939959 1.641057
Cl -14.744329 1.657845 4.923170
Cl -8.180101 -8.188496 -4.923170
Cl -8.180101 -11.470609 -1.641057
Cl -11.462215 -1.624268 -8.205284
Cl -8.180101 -4.906382 -8.205284
Cl -11.462215 -4.906382 -4.923170
Cl -11.462215 4.939959 4.923170
Cl -11.462215 1.657845 8.205284
Cl -8.180101 4.939959 8.205284
Cl -8.180101 11.504186 1.641057
Cl -8.180101 8.222072 4.923170
Cl -4.897988 -14.752723 -1.641057
Cl -1.615874 -14.752723 -4.923170
Cl -1.615874 -14.752723 1.641057
Cl -4.897988 -8.188496 -8.205284
Cl -1.615874 -8.188496 -11.487397
Cl -4.897988 -11.470609 -4.923170
Cl -4.897988 -1.624268 -14.769511
Cl -1.615874 -4.906382 -14.769511
Cl -4.897988 -4.906382 -11.487397
Cl -1.615874 -1.624268 14.769511
Cl -1.615874 1.657845 -14.769511
Cl -4.897988 4.939959 11.487397
Cl -4.897988 1.657845 14.769511
Cl -1.615874 4.939959 14.769511
Cl -4.897988 11.504186 4.923170
Cl -4.897988 8.222072 8.205284
Cl -1.615874 8.222072 11.487397
Cl -1.615874 14.786299 -1.641057
Cl -4.897988 14.786299 1.641057
Cl -1.615874 14.786299 4.923170
Cl 1.666239 -14.752723 -1.641057
Cl 1.666239 -14.752723 4.923170
Cl 4.948353 -14.752723 1.641057
Cl 4.948353 -11.470609 4.923170
Cl 1.666239 -11.470609 8.205284
Cl 4.948353 -8.188496 8.205284
Cl 1.666239 -1.624268 -14.769511
Cl 4.948353 -4.906382 11.487397
Cl 1.666239 -4.906382 14.769511
Cl 4.948353 -1.624268 14.769511
Cl 1.666239 4.939959 -14.769511
Cl 4.948353 1.657845 -14.769511
Cl 4.948353 4.939959 -11.487397
Cl 1.666239 1.657845 14.769511
Cl 1.666239 8.222072 -11.487397
Cl 4.948353 8.222072 -8.205284
Cl 4.948353 11.504186 -4.923170
Cl 1.666239 14.786299 -4.923170
Cl 4.948353 14.786299 -1.641057
Cl 1.666239 14.786299 1.641057
Cl 8.230466 -8.188496 4.923170
Cl 11.512580 -8.188496 1.641057
Cl 11.512580 -4.906382 4.923170
Cl 8.230466 -4.906382 8.205284
Cl 8.230466 -1.624268 11.487397
Cl 8.230466 4.939959 -8.205284
Cl 11.512580 1.657845 -8.205284
Cl 11.512580 4.939959 -4.923170
Cl 8.230466 8.222072 -4.923170
Cl 8.230466 11.504186 -1.641057
Cl 14.794693 -1.624268 -1.641057
Cl 14.794693 -4.906382 1.641057
Cl 14.794693 -1.624268 4.923170
Cl 14.794693 1.657845 -4.923170
Cl 14.794693 4.939959 -1.641057
Cl 14.794693 1.657845 1.641057
Cl -8.180101 1.657845 -11.487397
Cl -1.615874 -8.188496 11.487397
