1946
AlP-P-Al844P715Cl387-clean
Al -15.025635 -15.027040 -12.297662
Al -15.025635 -17.762040 -9.562662
Al -17.760635 -15.027040 -9.562662
Al -15.025635 -15.027040 -6.827662
Al -15.025635 -9.557040 -17.767662
Al -15.025635 -12.292040 -15.032662
Al -17.760635 -9.557040 -15.032662
Al -17.760635 -12.292040 -12.297662
Al -15.025635 -9.557040 -12.297662
Al -15.025635 -12.292040 -9.562662
Al -17.760635 -9.557040 -9.562662
Al -17.760635 -12.292040 -6.827662
Al -15.025635 -9.557040 -6.827662
Al -15.025635 -12.292040 -4.092662
Al -17.760635 -9.557040 -4.092662
Al -15.025635 -9.557040 -1.357662
Al -15.025635 -6.822040 -15.032662
Al -17.760635 -6.822040 -12.297662
Al -15.025635 -4.087040 -12.297662
Al -15.025635 -6.822040 -9.562662
Al -17.760635 -4.087040 -9.562662
Al -17.760635 -6.822040 -6.827662
Al -15.025635 -4.087040 -6.827662
Al -15.025635 -6.822040 -4.092662
Al -17.760635 -4.087040 -4.092662
Al -17.760635 -6.822040 -1.357662
Al -15.025635 -4.087040 -1.357662
Al -15.025635 -6.822040 1.377338
Al -17.760635 -4.087040 1.377338
Al -15.025635 -4.087040 4.112338
Al -15.025635 -1.352040 -9.562662
Al -17.760635 -1.352040 -6.827662
Al -15.025635 1.382960 -6.827662
Al -15.025635 -1.352040 -4.092662
Al -17.760635 1.382960 -4.092662
Al -17.760635 -1.352040 -1.357662
Al -15.025635 1.382960 -1.357662
Al -15.025635 -1.352040 1.377338
Al -17.760635 1.382960 1.377338
Al -17.760635 -1.352040 4.112338
Al -15.025635 1.382960 4.112338
Al -15.025635 -1.352040 6.847338
Al -17.760635 1.382960 6.847338
Al -15.025635 1.382960 9.582338
Al -15.025635 4.117960 -4.092662
Al -17.760635 4.117960 -1.357662
Al -15.025635 6.852960 -1.357662
Al -15.025635 4.117960 1.377338
Al -17.760635 6.852960 1.377338
Al -17.760635 4.117960 4.112338
Al -15.025635 6.852960 4.112338
Al -15.025635 4.117960 6.847338
Al -17.760635 6.852960 6.847338
Al -17.760635 4.117960 9.582338
Al -15.025635 6.852960 9.582338
Al -15.025635 4.117960 12.317338
Al -17.760635 6.852960 12.317338
Al -15.025635 6.852960 15.052338
Al -15.025635 9.587960 1.377338
Al -17.760635 9.587960 4.112338
Al -15.025635 12.322960 4.112338
Al -15.025635 9.587960 6.847338
Al -17.760635 12.322960 6.847338
Al -17.760635 9.587960 9.582338
Al -15.025635 12.322960 9.582338
Al -15.025635 9.587960 12.317338
Al -17.760635 12.322960 12.317338
Al -17.760635 9.587960 15.052338
Al -15.025635 12.322960 15.052338
Al -15.025635 9.587960 17.787338
Al -15.025635 15.057960 6.847338
Al -17.760635 15.057960 9.582338
Al -15.025635 17.792960 9.582338
Al -15.025635 15.057960 12.317338
Al -9.555635 -15.027040 -17.767662
Al -9.555635 -17.762040 -15.032662
Al -12.290635 -15.027040 -15.032662
Al -12.290635 -17.762040 -12.297662
Al -9.555635 -15.027040 -12.297662
Al -9.555635 -17.762040 -9.562662
Al -12.290635 -15.027040 -9.562662
Al -12.290635 -17.762040 -6.827662
Al -9.555635 -15.027040 -6.827662
Al -9.555635 -17.762040 -4.092662
Al -12.290635 -15.027040 -4.092662
Al -9.555635 -15.027040 -1.357662
Al -12.290635 -12.292040 -17.767662
Al -9.555635 -9.557040 -17.767662
Al -9.555635 -12.292040 -15.032662
Al -12.290635 -9.557040 -15.032662
Al -12.290635 -12.292040 -12.297662
Al -9.555635 -9.557040 -12.297662
Al -9.555635 -12.292040 -9.562662
Al -12.290635 -9.557040 -9.562662
Al -12.290635 -12.292040 -6.827662
Al -9.555635 -9.557040 -6.827662
Al -9.555635 -12.292040 -4.092662
Al -12.290635 -9.557040 -4.092662
Al -12.290635 -12.292040 -1.357662
Al -9.555635 -9.557040 -1.357662
Al -9.555635 -12.292040 1.377338
Al -12.290635 -9.557040 1.377338
Al -9.555635 -9.557040 4.112338
Al -12.290635 -6.822040 -17.767662
Al -9.555635 -4.087040 -17.767662
Al -9.555635 -6.822040 -15.032662
Al -12.290635 -4.087040 -15.032662
Al -12.290635 -6.822040 -12.297662
Al -9.555635 -4.087040 -12.297662
Al -9.555635 -6.822040 -9.562662
Al -12.290635 -4.087040 -9.562662
Al -12.290635 -6.822040 -6.827662
Al -9.555635 -4.087040 -6.827662
Al -9.555635 -6.822040 -4.092662
Al -12.290635 -4.087040 -4.092662
Al -12.290635 -6.822040 -1.357662
Al -9.555635 -4.087040 -1.357662
Al -9.555635 -6.822040 1.377338
Al -12.290635 -4.087040 1.377338
Al -12.290635 -6.822040 4.112338
Al -9.555635 -4.087040 4.112338
Al -9.555635 -6.822040 6.847338
Al -12.290635 -4.087040 6.847338
Al -9.555635 -4.087040 9.582338
Al -9.555635 -1.352040 -15.032662
Al -12.290635 -1.352040 -12.297662
Al -9.555635 1.382960 -12.297662
Al -9.555635 -1.352040 -9.562662
Al -12.290635 1.382960 -9.562662
Al -12.290635 -1.352040 -6.827662
Al -9.555635 1.382960 -6.827662
Al -9.555635 -1.352040 -4.092662
Al -12.290635 1.382960 -4.092662
Al -12.290635 -1.352040 -1.357662
Al -9.555635 1.382960 -1.357662
Al -9.555635 -1.352040 1.377338
Al -12.290635 1.382960 1.377338
Al -12.290635 -1.352040 4.112338
Al -9.555635 1.382960 4.112338
Al -9.555635 -1.352040 6.847338
Al -12.290635 1.382960 6.847338
Al -12.290635 -1.352040 9.582338
Al -9.555635 1.382960 9.582338
Al -9.555635 -1.352040 12.317338
Al -12.290635 1.382960 12.317338
Al -9.555635 1.382960 15.052338
Al -9.555635 4.117960 -9.562662
Al -12.290635 4.117960 -6.827662
Al -9.555635 6.852960 -6.827662
Al -9.555635 4.117960 -4.092662
Al -12.290635 6.852960 -4.092662
Al -12.290635 4.117960 -1.357662
Al -9.555635 6.852960 -1.357662
Al -9.555635 4.117960 1.377338
Al -12.290635 6.852960 1.377338
Al -12.290635 4.117960 4.112338
Al -9.555635 6.852960 4.112338
Al -9.555635 4.117960 6.847338
Al -12.290635 6.852960 6.847338
Al -12.290635 4.117960 9.582338
Al -9.555635 6.852960 9.582338
Al -9.555635 4.117960 12.317338
Al -12.290635 6.852960 12.317338
Al -12.290635 4.117960 15.052338
Al -9.555635 6.852960 15.052338
Al -9.555635 4.117960 17.787338
Al -12.290635 6.852960 17.787338
Al -9.555635 9.587960 -4.092662
Al -12.290635 9.587960 -1.357662
Al -9.555635 12.322960 -1.357662
Al -9.555635 9.587960 1.377338
Al -12.290635 12.322960 1.377338
Al -12.290635 9.587960 4.112338
Al -9.555635 12.322960 4.112338
Al -9.555635 9.587960 6.847338
Al -12.290635 12.322960 6.847338
Al -12.290635 9.587960 9.582338
Al -9.555635 12.322960 9.582338
Al -9.555635 9.587960 12.317338
Al -12.290635 12.322960 12.317338
Al -12.290635 9.587960 15.052338
Al -9.555635 12.322960 15.052338
Al -9.555635 9.587960 17.787338
Al -12.290635 12.322960 17.787338
Al -9.555635 15.057960 1.377338
Al -12.290635 15.057960 4.112338
Al -9.555635 17.792960 4.112338
Al -9.555635 15.057960 6.847338
Al -12.290635 17.792960 6.847338
Al -12.290635 15.057960 9.582338
Al -9.555635 17.792960 9.582338
Al -9.555635 15.057960 12.317338
Al -12.290635 17.792960 12.317338
Al -12.290635 15.057960 15.052338
Al -9.555635 17.792960 15.052338
Al -9.555635 15.057960 17.787338
Al -6.820635 -15.027040 -15.032662
Al -6.820635 -17.762040 -12.297662
Al -4.085635 -15.027040 -12.297662
Al -4.085635 -17.762040 -9.562662
Al -6.820635 -15.027040 -9.562662
Al -6.820635 -17.762040 -6.827662
Al -4.085635 -15.027040 -6.827662
Al -4.085635 -17.762040 -4.092662
Al -6.820635 -15.027040 -4.092662
Al -6.820635 -17.762040 -1.357662
Al -4.085635 -15.027040 -1.357662
Al -4.085635 -17.762040 1.377338
Al -6.820635 -15.027040 1.377338
Al -4.085635 -15.027040 4.112338
Al -6.820635 -12.292040 -17.767662
Al -4.085635 -9.557040 -17.767662
Al -4.085635 -12.292040 -15.032662
Al -6.820635 -9.557040 -15.032662
Al -6.820635 -12.292040 -12.297662
Al -4.085635 -9.557040 -12.297662
Al -4.085635 -12.292040 -9.562662
Al -6.820635 -9.557040 -9.562662
Al -6.820635 -12.292040 -6.827662
Al -4.085635 -9.557040 -6.827662
Al -4.085635 -12.292040 -4.092662
Al -6.820635 -9.557040 -4.092662
Al -6.820635 -12.292040 -1.357662
Al -4.085635 -9.557040 -1.357662
Al -4.085635 -12.292040 1.377338
Al -6.820635 -9.557040 1.377338
Al -6.820635 -12.292040 4.112338
Al -4.085635 -9.557040 4.112338
Al -4.085635 -12.292040 6.847338
Al -6.820635 -9.557040 6.847338
Al -4.085635 -9.557040 9.582338
Al -6.820635 -6.822040 -17.767662
Al -4.085635 -4.087040 -17.767662
Al -4.085635 -6.822040 -15.032662
Al -6.820635 -4.087040 -15.032662
Al -6.820635 -6.822040 -12.297662
Al -4.085635 -4.087040 -12.297662
Al -4.085635 -6.822040 -9.562662
Al -6.820635 -4.087040 -9.562662
Al -6.820635 -6.822040 -6.827662
Al -4.085635 -4.087040 -6.827662
Al -4.085635 -6.822040 -4.092662
Al -6.820635 -4.087040 -4.092662
Al -6.820635 -6.822040 -1.357662
Al -4.085635 -4.087040 -1.357662
Al -4.085635 -6.822040 1.377338
Al -6.820635 -4.087040 1.377338
Al -6.820635 -6.822040 4.112338
Al -4.085635 -4.087040 4.112338
Al -4.085635 -6.822040 6.847338
Al -6.820635 -4.087040 6.847338
Al -6.820635 -6.822040 9.582338
Al -4.085635 -4.087040 9.582338
Al -4.085635 -6.822040 12.317338
Al -6.820635 -4.087040 12.317338
Al -4.085635 -4.087040 15.052338
Al -6.820635 -1.352040 -17.767662
Al -4.085635 1.382960 -17.767662
Al -4.085635 -1.352040 -15.032662
Al -6.820635 1.382960 -15.032662
Al -6.820635 -1.352040 -12.297662
Al -4.085635 1.382960 -12.297662
Al -4.085635 -1.352040 -9.562662
Al -6.820635 1.382960 -9.562662
Al -6.820635 -1.352040 -6.827662
Al -4.085635 1.382960 -6.827662
Al -4.085635 -1.352040 -4.092662
Al -6.820635 1.382960 -4.092662
Al -6.820635 -1.352040 -1.357662
Al -4.085635 1.382960 -1.357662
Al -4.085635 -1.352040 1.377338
Al -6.820635 1.382960 1.377338
Al -6.820635 -1.352040 4.112338
Al -4.085635 1.382960 4.112338
Al -4.085635 -1.352040 6.847338
Al -6.820635 1.382960 6.847338
Al -6.820635 -1.352040 9.582338
Al -4.085635 1.382960 9.582338
Al -4.085635 -1.352040 12.317338
Al -6.820635 1.382960 12.317338
Al -6.820635 -1.352040 15.052338
Al -4.085635 1.382960 15.052338
Al -4.085635 -1.352040 17.787338
Al -6.820635 1.382960 17.787338
Al -4.085635 4.117960 -15.032662
Al -6.820635 4.117960 -12.297662
Al -4.085635 6.852960 -12.297662
Al -4.085635 4.117960 -9.562662
Al -6.820635 6.852960 -9.562662
Al -6.820635 4.117960 -6.827662
Al -4.085635 6.852960 -6.827662
Al -4.085635 4.117960 -4.092662
Al -6.820635 6.852960 -4.092662
Al -6.820635 4.117960 -1.357662
Al -4.085635 6.852960 -1.357662
Al -4.085635 4.117960 1.377338
Al -6.820635 6.852960 1.377338
Al -6.820635 4.117960 4.112338
Al -4.085635 6.852960 4.112338
Al -4.085635 4.117960 6.847338
Al -6.820635 6.852960 6.847338
Al -6.820635 4.117960 9.582338
Al -4.085635 6.852960 9.582338
Al -4.085635 4.117960 12.317338
Al -6.820635 6.852960 12.317338
Al -6.820635 4.117960 15.052338
Al -4.085635 6.852960 15.052338
Al -4.085635 4.117960 17.787338
Al -6.820635 6.852960 17.787338
Al -4.085635 9.587960 -9.562662
Al -6.820635 9.587960 -6.827662
Al -4.085635 12.322960 -6.827662
Al -4.085635 9.587960 -4.092662
Al -6.820635 12.322960 -4.092662
Al -6.820635 9.587960 -1.357662
Al -4.085635 12.322960 -1.357662
Al -4.085635 9.587960 1.377338
Al -6.820635 12.322960 1.377338
Al -6.820635 9.587960 4.112338
Al -4.085635 12.322960 4.112338
Al -4.085635 9.587960 6.847338
Al -6.820635 12.322960 6.847338
Al -6.820635 9.587960 9.582338
Al -4.085635 12.322960 9.582338
Al -4.085635 9.587960 12.317338
Al -6.820635 12.322960 12.317338
Al -6.820635 9.587960 15.052338
Al -4.085635 12.322960 15.052338
Al -4.085635 9.587960 17.787338
Al -6.820635 12.322960 17.787338
Al -4.085635 15.057960 -4.092662
Al -6.820635 15.057960 -1.357662
Al -4.085635 17.792960 -1.357662
Al -4.085635 15.057960 1.377338
Al -6.820635 17.792960 1.377338
Al -6.820635 15.057960 4.112338
Al -4.085635 17.792960 4.112338
Al -4.085635 15.057960 6.847338
Al -6.820635 17.792960 6.847338
Al -6.820635 15.057960 9.582338
Al -4.085635 17.792960 9.582338
Al -4.085635 15.057960 12.317338
Al -6.820635 17.792960 12.317338
Al -6.820635 15.057960 15.052338
Al -1.350635 -15.027040 -9.562662
Al -1.350635 -17.762040 -6.827662
Al 1.384365 -15.027040 -6.827662
Al 1.384365 -17.762040 -4.092662
Al -1.350635 -15.027040 -4.092662
Al -1.350635 -17.762040 -1.357662
Al 1.384365 -15.027040 -1.357662
Al 1.384365 -17.762040 1.377338
Al -1.350635 -15.027040 1.377338
Al -1.350635 -17.762040 4.112338
Al 1.384365 -15.027040 4.112338
Al 1.384365 -17.762040 6.847338
Al -1.350635 -15.027040 6.847338
Al 1.384365 -15.027040 9.582338
Al -1.350635 -9.557040 -15.032662
Al -1.350635 -12.292040 -12.297662
Al 1.384365 -9.557040 -12.297662
Al 1.384365 -12.292040 -9.562662
Al -1.350635 -9.557040 -9.562662
Al -1.350635 -12.292040 -6.827662
Al 1.384365 -9.557040 -6.827662
Al 1.384365 -12.292040 -4.092662
Al -1.350635 -9.557040 -4.092662
Al -1.350635 -12.292040 -1.357662
Al 1.384365 -9.557040 -1.357662
Al 1.384365 -12.292040 1.377338
Al -1.350635 -9.557040 1.377338
Al -1.350635 -12.292040 4.112338
Al 1.384365 -9.557040 4.112338
Al 1.384365 -12.292040 6.847338
Al -1.350635 -9.557040 6.847338
Al -1.350635 -12.292040 9.582338
Al 1.384365 -9.557040 9.582338
Al 1.384365 -12.292040 12.317338
Al -1.350635 -9.557040 12.317338
Al 1.384365 -9.557040 15.052338
Al -1.350635 -6.822040 -17.767662
Al 1.384365 -4.087040 -17.767662
Al 1.384365 -6.822040 -15.032662
Al -1.350635 -4.087040 -15.032662
Al -1.350635 -6.822040 -12.297662
Al 1.384365 -4.087040 -12.297662
Al 1.384365 -6.822040 -9.562662
Al -1.350635 -4.087040 -9.562662
Al -1.350635 -6.822040 -6.827662
Al 1.384365 -4.087040 -6.827662
Al 1.384365 -6.822040 -4.092662
Al -1.350635 -4.087040 -4.092662
Al -1.350635 -6.822040 -1.357662
Al 1.384365 -4.087040 -1.357662
Al 1.384365 -6.822040 1.377338
Al -1.350635 -4.087040 1.377338
Al -1.350635 -6.822040 4.112338
Al 1.384365 -4.087040 4.112338
Al 1.384365 -6.822040 6.847338
Al -1.350635 -4.087040 6.847338
Al -1.350635 -6.822040 9.582338
Al 1.384365 -4.087040 9.582338
Al 1.384365 -6.822040 12.317338
Al -1.350635 -4.087040 12.317338
Al -1.350635 -6.822040 15.052338
Al 1.384365 -4.087040 15.052338
Al 1.384365 -6.822040 17.787338
Al -1.350635 -4.087040 17.787338
Al -1.350635 -1.352040 -17.767662
Al 1.384365 1.382960 -17.767662
Al 1.384365 -1.352040 -15.032662
Al -1.350635 1.382960 -15.032662
Al -1.350635 -1.352040 -12.297662
Al 1.384365 1.382960 -12.297662
Al 1.384365 -1.352040 -9.562662
Al -1.350635 1.382960 -9.562662
Al -1.350635 -1.352040 -6.827662
Al 1.384365 1.382960 -6.827662
Al 1.384365 -1.352040 -4.092662
Al -1.350635 1.382960 -4.092662
Al -1.350635 -1.352040 -1.357662
Al 1.384365 1.382960 -1.357662
Al 1.384365 -1.352040 1.377338
Al -1.350635 1.382960 1.377338
Al -1.350635 -1.352040 4.112338
Al 1.384365 1.382960 4.112338
Al 1.384365 -1.352040 6.847338
Al -1.350635 1.382960 6.847338
Al -1.350635 -1.352040 9.582338
Al 1.384365 1.382960 9.582338
Al 1.384365 -1.352040 12.317338
Al -1.350635 1.382960 12.317338
Al -1.350635 -1.352040 15.052338
Al 1.384365 1.382960 15.052338
Al 1.384365 -1.352040 17.787338
Al -1.350635 1.382960 17.787338
Al -1.350635 4.117960 -17.767662
Al 1.384365 6.852960 -17.767662
Al 1.384365 4.117960 -15.032662
Al -1.350635 6.852960 -15.032662
Al -1.350635 4.117960 -12.297662
Al 1.384365 6.852960 -12.297662
Al 1.384365 4.117960 -9.562662
Al -1.350635 6.852960 -9.562662
Al -1.350635 4.117960 -6.827662
Al 1.384365 6.852960 -6.827662
Al 1.384365 4.117960 -4.092662
Al -1.350635 6.852960 -4.092662
Al -1.350635 4.117960 -1.357662
Al 1.384365 6.852960 -1.357662
Al 1.384365 4.117960 1.377338
Al -1.350635 6.852960 1.377338
Al -1.350635 4.117960 4.112338
Al 1.384365 6.852960 4.112338
Al 1.384365 4.117960 6.847338
Al -1.350635 6.852960 6.847338
Al -1.350635 4.117960 9.582338
Al 1.384365 6.852960 9.582338
Al 1.384365 4.117960 12.317338
Al -1.350635 6.852960 12.317338
Al -1.350635 4.117960 15.052338
Al 1.384365 6.852960 15.052338
Al 1.384365 4.117960 17.787338
Al -1.350635 6.852960 17.787338
Al 1.384365 9.587960 -15.032662
Al -1.350635 9.587960 -12.297662
Al 1.384365 12.322960 -12.297662
Al 1.384365 9.587960 -9.562662
Al -1.350635 12.322960 -9.562662
Al -1.350635 9.587960 -6.827662
Al 1.384365 12.322960 -6.827662
Al 1.384365 9.587960 -4.092662
Al -1.350635 12.322960 -4.092662
Al -1.350635 9.587960 -1.357662
Al 1.384365 12.322960 -1.357662
Al 1.384365 9.587960 1.377338
Al -1.350635 12.322960 1.377338
Al -1.350635 9.587960 4.112338
Al 1.384365 12.322960 4.112338
Al 1.384365 9.587960 6.847338
Al -1.350635 12.322960 6.847338
Al -1.350635 9.587960 9.582338
Al 1.384365 12.322960 9.582338
Al 1.384365 9.587960 12.317338
Al -1.350635 12.322960 12.317338
Al -1.350635 9.587960 15.052338
Al 1.384365 15.057960 -9.562662
Al -1.350635 15.057960 -6.827662
Al 1.384365 17.792960 -6.827662
Al 1.384365 15.057960 -4.092662
Al -1.350635 17.792960 -4.092662
Al -1.350635 15.057960 -1.357662
Al 1.384365 17.792960 -1.357662
Al 1.384365 15.057960 1.377338
Al -1.350635 17.792960 1.377338
Al -1.350635 15.057960 4.112338
Al 1.384365 17.792960 4.112338
Al 1.384365 15.057960 6.847338
Al -1.350635 17.792960 6.847338
Al -1.350635 15.057960 9.582338
Al 4.119365 -15.027040 -4.092662
Al 4.119365 -17.762040 -1.357662
Al 6.854365 -15.027040 -1.357662
Al 6.854365 -17.762040 1.377338
Al 4.119365 -15.027040 1.377338
Al 4.119365 -17.762040 4.112338
Al 6.854365 -15.027040 4.112338
Al 6.854365 -17.762040 6.847338
Al 4.119365 -15.027040 6.847338
Al 4.119365 -17.762040 9.582338
Al 6.854365 -15.027040 9.582338
Al 6.854365 -17.762040 12.317338
Al 4.119365 -15.027040 12.317338
Al 6.854365 -15.027040 15.052338
Al 4.119365 -9.557040 -9.562662
Al 4.119365 -12.292040 -6.827662
Al 6.854365 -9.557040 -6.827662
Al 6.854365 -12.292040 -4.092662
Al 4.119365 -9.557040 -4.092662
Al 4.119365 -12.292040 -1.357662
Al 6.854365 -9.557040 -1.357662
Al 6.854365 -12.292040 1.377338
Al 4.119365 -9.557040 1.377338
Al 4.119365 -12.292040 4.112338
Al 6.854365 -9.557040 4.112338
Al 6.854365 -12.292040 6.847338
Al 4.119365 -9.557040 6.847338
Al 4.119365 -12.292040 9.582338
Al 6.854365 -9.557040 9.582338
Al 6.854365 -12.292040 12.317338
Al 4.119365 -9.557040 12.317338
Al 4.119365 -12.292040 15.052338
Al 6.854365 -9.557040 15.052338
Al 6.854365 -12.292040 17.787338
Al 4.119365 -9.557040 17.787338
Al 4.119365 -4.087040 -15.032662
Al 4.119365 -6.822040 -12.297662
Al 6.854365 -4.087040 -12.297662
Al 6.854365 -6.822040 -9.562662
Al 4.119365 -4.087040 -9.562662
Al 4.119365 -6.822040 -6.827662
Al 6.854365 -4.087040 -6.827662
Al 6.854365 -6.822040 -4.092662
Al 4.119365 -4.087040 -4.092662
Al 4.119365 -6.822040 -1.357662
Al 6.854365 -4.087040 -1.357662
Al 6.854365 -6.822040 1.377338
Al 4.119365 -4.087040 1.377338
Al 4.119365 -6.822040 4.112338
Al 6.854365 -4.087040 4.112338
Al 6.854365 -6.822040 6.847338
Al 4.119365 -4.087040 6.847338
Al 4.119365 -6.822040 9.582338
Al 6.854365 -4.087040 9.582338
Al 6.854365 -6.822040 12.317338
Al 4.119365 -4.087040 12.317338
Al 4.119365 -6.822040 15.052338
Al 6.854365 -4.087040 15.052338
Al 6.854365 -6.822040 17.787338
Al 4.119365 -4.087040 17.787338
Al 4.119365 -1.352040 -17.767662
Al 6.854365 1.382960 -17.767662
Al 6.854365 -1.352040 -15.032662
Al 4.119365 1.382960 -15.032662
Al 4.119365 -1.352040 -12.297662
Al 6.854365 1.382960 -12.297662
Al 6.854365 -1.352040 -9.562662
Al 4.119365 1.382960 -9.562662
Al 4.119365 -1.352040 -6.827662
Al 6.854365 1.382960 -6.827662
Al 6.854365 -1.352040 -4.092662
Al 4.119365 1.382960 -4.092662
Al 4.119365 -1.352040 -1.357662
Al 6.854365 1.382960 -1.357662
Al 6.854365 -1.352040 1.377338
Al 4.119365 1.382960 1.377338
Al 4.119365 -1.352040 4.112338
Al 6.854365 1.382960 4.112338
Al 6.854365 -1.352040 6.847338
Al 4.119365 1.382960 6.847338
Al 4.119365 -1.352040 9.582338
Al 6.854365 1.382960 9.582338
Al 6.854365 -1.352040 12.317338
Al 4.119365 1.382960 12.317338
Al 4.119365 -1.352040 15.052338
Al 6.854365 1.382960 15.052338
Al 6.854365 -1.352040 17.787338
Al 4.119365 1.382960 17.787338
Al 4.119365 4.117960 -17.767662
Al 6.854365 6.852960 -17.767662
Al 6.854365 4.117960 -15.032662
Al 4.119365 6.852960 -15.032662
Al 4.119365 4.117960 -12.297662
Al 6.854365 6.852960 -12.297662
Al 6.854365 4.117960 -9.562662
Al 4.119365 6.852960 -9.562662
Al 4.119365 4.117960 -6.827662
Al 6.854365 6.852960 -6.827662
Al 6.854365 4.117960 -4.092662
Al 4.119365 6.852960 -4.092662
Al 4.119365 4.117960 -1.357662
Al 6.854365 6.852960 -1.357662
Al 6.854365 4.117960 1.377338
Al 4.119365 6.852960 1.377338
Al 4.119365 4.117960 4.112338
Al 6.854365 6.852960 4.112338
Al 6.854365 4.117960 6.847338
Al 4.119365 6.852960 6.847338
Al 4.119365 4.117960 9.582338
Al 6.854365 6.852960 9.582338
Al 6.854365 4.117960 12.317338
Al 4.119365 6.852960 12.317338
Al 4.119365 4.117960 15.052338
Al 4.119365 9.587960 -17.767662
Al 6.854365 12.322960 -17.767662
Al 6.854365 9.587960 -15.032662
Al 4.119365 12.322960 -15.032662
Al 4.119365 9.587960 -12.297662
Al 6.854365 12.322960 -12.297662
Al 6.854365 9.587960 -9.562662
Al 4.119365 12.322960 -9.562662
Al 4.119365 9.587960 -6.827662
Al 6.854365 12.322960 -6.827662
Al 6.854365 9.587960 -4.092662
Al 4.119365 12.322960 -4.092662
Al 4.119365 9.587960 -1.357662
Al 6.854365 12.322960 -1.357662
Al 6.854365 9.587960 1.377338
Al 4.119365 12.322960 1.377338
Al 4.119365 9.587960 4.112338
Al 6.854365 12.322960 4.112338
Al 6.854365 9.587960 6.847338
Al 4.119365 12.322960 6.847338
Al 4.119365 9.587960 9.582338
Al 6.854365 15.057960 -15.032662
Al 4.119365 15.057960 -12.297662
Al 6.854365 17.792960 -12.297662
Al 6.854365 15.057960 -9.562662
Al 4.119365 17.792960 -9.562662
Al 4.119365 15.057960 -6.827662
Al 6.854365 17.792960 -6.827662
Al 6.854365 15.057960 -4.092662
Al 4.119365 17.792960 -4.092662
Al 4.119365 15.057960 -1.357662
Al 6.854365 17.792960 -1.357662
Al 6.854365 15.057960 1.377338
Al 4.119365 17.792960 1.377338
Al 4.119365 15.057960 4.112338
Al 9.589365 -15.027040 1.377338
Al 9.589365 -17.762040 4.112338
Al 12.324365 -15.027040 4.112338
Al 12.324365 -17.762040 6.847338
Al 9.589365 -15.027040 6.847338
Al 9.589365 -17.762040 9.582338
Al 12.324365 -15.027040 9.582338
Al 12.324365 -17.762040 12.317338
Al 9.589365 -15.027040 12.317338
Al 9.589365 -17.762040 15.052338
Al 12.324365 -15.027040 15.052338
Al 9.589365 -15.027040 17.787338
Al 9.589365 -9.557040 -4.092662
Al 9.589365 -12.292040 -1.357662
Al 12.324365 -9.557040 -1.357662
Al 12.324365 -12.292040 1.377338
Al 9.589365 -9.557040 1.377338
Al 9.589365 -12.292040 4.112338
Al 12.324365 -9.557040 4.112338
Al 12.324365 -12.292040 6.847338
Al 9.589365 -9.557040 6.847338
Al 9.589365 -12.292040 9.582338
Al 12.324365 -9.557040 9.582338
Al 12.324365 -12.292040 12.317338
Al 9.589365 -9.557040 12.317338
Al 9.589365 -12.292040 15.052338
Al 12.324365 -9.557040 15.052338
Al 12.324365 -12.292040 17.787338
Al 9.589365 -9.557040 17.787338
Al 9.589365 -4.087040 -9.562662
Al 9.589365 -6.822040 -6.827662
Al 12.324365 -4.087040 -6.827662
Al 12.324365 -6.822040 -4.092662
Al 9.589365 -4.087040 -4.092662
Al 9.589365 -6.822040 -1.357662
Al 12.324365 -4.087040 -1.357662
Al 12.324365 -6.822040 1.377338
Al 9.589365 -4.087040 1.377338
Al 9.589365 -6.822040 4.112338
Al 12.324365 -4.087040 4.112338
Al 12.324365 -6.822040 6.847338
Al 9.589365 -4.087040 6.847338
Al 9.589365 -6.822040 9.582338
Al 12.324365 -4.087040 9.582338
Al 12.324365 -6.822040 12.317338
Al 9.589365 -4.087040 12.317338
Al 9.589365 -6.822040 15.052338
Al 12.324365 -4.087040 15.052338
Al 12.324365 -6.822040 17.787338
Al 9.589365 -4.087040 17.787338
Al 9.589365 1.382960 -15.032662
Al 9.589365 -1.352040 -12.297662
Al 12.324365 1.382960 -12.297662
Al 12.324365 -1.352040 -9.562662
Al 9.589365 1.382960 -9.562662
Al 9.589365 -1.352040 -6.827662
Al 12.324365 1.382960 -6.827662
Al 12.324365 -1.352040 -4.092662
Al 9.589365 1.382960 -4.092662
Al 9.589365 -1.352040 -1.357662
Al 12.324365 1.382960 -1.357662
Al 12.324365 -1.352040 1.377338
Al 9.589365 1.382960 1.377338
Al 9.589365 -1.352040 4.112338
Al 12.324365 1.382960 4.112338
Al 12.324365 -1.352040 6.847338
Al 9.589365 1.382960 6.847338
Al 9.589365 -1.352040 9.582338
Al 12.324365 1.382960 9.582338
Al 12.324365 -1.352040 12.317338
Al 9.589365 1.382960 12.317338
Al 9.589365 -1.352040 15.052338
Al 9.589365 4.117960 -17.767662
Al 12.324365 6.852960 -17.767662
Al 12.324365 4.117960 -15.032662
Al 9.589365 6.852960 -15.032662
Al 9.589365 4.117960 -12.297662
Al 12.324365 6.852960 -12.297662
Al 12.324365 4.117960 -9.562662
Al 9.589365 6.852960 -9.562662
Al 9.589365 4.117960 -6.827662
Al 12.324365 6.852960 -6.827662
Al 12.324365 4.117960 -4.092662
Al 9.589365 6.852960 -4.092662
Al 9.589365 4.117960 -1.357662
Al 12.324365 6.852960 -1.357662
Al 12.324365 4.117960 1.377338
Al 9.589365 6.852960 1.377338
Al 9.589365 4.117960 4.112338
Al 12.324365 6.852960 4.112338
Al 12.324365 4.117960 6.847338
Al 9.589365 6.852960 6.847338
Al 9.589365 4.117960 9.582338
Al 9.589365 9.587960 -17.767662
Al 12.324365 12.322960 -17.767662
Al 12.324365 9.587960 -15.032662
Al 9.589365 12.322960 -15.032662
Al 9.589365 9.587960 -12.297662
Al 12.324365 12.322960 -12.297662
Al 12.324365 9.587960 -9.562662
Al 9.589365 12.322960 -9.562662
Al 9.589365 9.587960 -6.827662
Al 12.324365 12.322960 -6.827662
Al 12.324365 9.587960 -4.092662
Al 9.589365 12.322960 -4.092662
Al 9.589365 9.587960 -1.357662
Al 12.324365 12.322960 -1.357662
Al 12.324365 9.587960 1.377338
Al 9.589365 12.322960 1.377338
Al 9.589365 9.587960 4.112338
Al 9.589365 15.057960 -17.767662
Al 12.324365 15.057960 -15.032662
Al 9.589365 17.792960 -15.032662
Al 9.589365 15.057960 -12.297662
Al 12.324365 17.792960 -12.297662
Al 12.324365 15.057960 -9.562662
Al 9.589365 17.792960 -9.562662
Al 9.589365 15.057960 -6.827662
Al 12.324365 17.792960 -6.827662
Al 12.324365 15.057960 -4.092662
Al 9.589365 17.792960 -4.092662
Al 9.589365 15.057960 -1.357662
Al 15.059365 -15.027040 6.847338
Al 15.059365 -17.762040 9.582338
Al 17.794365 -15.027040 9.582338
Al 15.059365 -15.027040 12.317338
Al 15.059365 -9.557040 1.377338
Al 15.059365 -12.292040 4.112338
Al 17.794365 -9.557040 4.112338
Al 17.794365 -12.292040 6.847338
Al 15.059365 -9.557040 6.847338
Al 15.059365 -12.292040 9.582338
Al 17.794365 -9.557040 9.582338
Al 17.794365 -12.292040 12.317338
Al 15.059365 -9.557040 12.317338
Al 15.059365 -12.292040 15.052338
Al 17.794365 -9.557040 15.052338
Al 15.059365 -9.557040 17.787338
Al 15.059365 -4.087040 -4.092662
Al 15.059365 -6.822040 -1.357662
Al 17.794365 -4.087040 -1.357662
Al 17.794365 -6.822040 1.377338
Al 15.059365 -4.087040 1.377338
Al 15.059365 -6.822040 4.112338
Al 17.794365 -4.087040 4.112338
Al 17.794365 -6.822040 6.847338
Al 15.059365 -4.087040 6.847338
Al 15.059365 -6.822040 9.582338
Al 17.794365 -4.087040 9.582338
Al 17.794365 -6.822040 12.317338
Al 15.059365 -4.087040 12.317338
Al 15.059365 -6.822040 15.052338
Al 15.059365 1.382960 -9.562662
Al 15.059365 -1.352040 -6.827662
Al 17.794365 1.382960 -6.827662
Al 17.794365 -1.352040 -4.092662
Al 15.059365 1.382960 -4.092662
Al 15.059365 -1.352040 -1.357662
Al 17.794365 1.382960 -1.357662
Al 17.794365 -1.352040 1.377338
Al 15.059365 1.382960 1.377338
Al 15.059365 -1.352040 4.112338
Al 17.794365 1.382960 4.112338
Al 17.794365 -1.352040 6.847338
Al 15.059365 1.382960 6.847338
Al 15.059365 -1.352040 9.582338
Al 15.059365 6.852960 -15.032662
Al 15.059365 4.117960 -12.297662
Al 17.794365 6.852960 -12.297662
Al 17.794365 4.117960 -9.562662
Al 15.059365 6.852960 -9.562662
Al 15.059365 4.117960 -6.827662
Al 17.794365 6.852960 -6.827662
Al 17.794365 4.117960 -4.092662
Al 15.059365 6.852960 -4.092662
Al 15.059365 4.117960 -1.357662
Al 17.794365 6.852960 -1.357662
Al 17.794365 4.117960 1.377338
Al 15.059365 6.852960 1.377338
Al 15.059365 4.117960 4.112338
Al 15.059365 9.587960 -17.767662
Al 17.794365 9.587960 -15.032662
Al 15.059365 12.322960 -15.032662
Al 15.059365 9.587960 -12.297662
Al 17.794365 12.322960 -12.297662
Al 17.794365 9.587960 -9.562662
Al 15.059365 12.322960 -9.562662
Al 15.059365 9.587960 -6.827662
Al 17.794365 12.322960 -6.827662
Al 17.794365 9.587960 -4.092662
Al 15.059365 12.322960 -4.092662
Al 15.059365 9.587960 -1.357662
Al 15.059365 15.057960 -12.297662
Al 17.794365 15.057960 -9.562662
Al 15.059365 17.792960 -9.562662
Al 15.059365 15.057960 -6.827662
P -16.393135 -13.659540 -13.665162
P -13.658135 -13.659540 -16.400162
P -13.658135 -16.394540 -13.665162
P -16.393135 -16.394540 -10.930162
P -16.393135 -13.659540 -8.195162
P -13.658135 -13.659540 -10.930162
P -13.658135 -16.394540 -8.195162
P -13.658135 -13.659540 -5.460162
P -16.393135 -10.924540 -16.400162
P -16.393135 -8.189540 -13.665162
P -13.658135 -8.189540 -16.400162
P -13.658135 -10.924540 -13.665162
P -16.393135 -10.924540 -10.930162
P -16.393135 -8.189540 -8.195162
P -13.658135 -8.189540 -10.930162
P -13.658135 -10.924540 -8.195162
P -16.393135 -10.924540 -5.460162
P -16.393135 -8.189540 -2.725162
P -13.658135 -8.189540 -5.460162
P -13.658135 -10.924540 -2.725162
P -13.658135 -8.189540 0.009838
P -13.658135 -5.454540 -13.665162
P -16.393135 -5.454540 -10.930162
P -16.393135 -2.719540 -8.195162
P -13.658135 -2.719540 -10.930162
P -13.658135 -5.454540 -8.195162
P -16.393135 -5.454540 -5.460162
P -16.393135 -2.719540 -2.725162
P -13.658135 -2.719540 -5.460162
P -13.658135 -5.454540 -2.725162
P -16.393135 -5.454540 0.009838
P -16.393135 -2.719540 2.744838
P -13.658135 -2.719540 0.009838
P -13.658135 -5.454540 2.744838
P -13.658135 -2.719540 5.479838
P -13.658135 0.015460 -8.195162
P -16.393135 0.015460 -5.460162
P -16.393135 2.750460 -2.725162
P -13.658135 2.750460 -5.460162
P -13.658135 0.015460 -2.725162
P -16.393135 0.015460 0.009838
P -16.393135 2.750460 2.744838
P -13.658135 2.750460 0.009838
P -13.658135 0.015460 2.744838
P -16.393135 0.015460 5.479838
P -16.393135 2.750460 8.214838
P -13.658135 2.750460 5.479838
P -13.658135 0.015460 8.214838
P -13.658135 2.750460 10.949838
P -13.658135 5.485460 -2.725162
P -16.393135 5.485460 0.009838
P -16.393135 8.220460 2.744838
P -13.658135 8.220460 0.009838
P -13.658135 5.485460 2.744838
P -16.393135 5.485460 5.479838
P -16.393135 8.220460 8.214838
P -13.658135 8.220460 5.479838
P -13.658135 5.485460 8.214838
P -16.393135 5.485460 10.949838
P -16.393135 8.220460 13.684838
P -13.658135 8.220460 10.949838
P -13.658135 5.485460 13.684838
P -13.658135 8.220460 16.419838
P -13.658135 10.955460 2.744838
P -16.393135 10.955460 5.479838
P -16.393135 13.690460 8.214838
P -13.658135 13.690460 5.479838
P -13.658135 10.955460 8.214838
P -16.393135 10.955460 10.949838
P -16.393135 13.690460 13.684838
P -13.658135 13.690460 10.949838
P -13.658135 10.955460 13.684838
P -16.393135 10.955460 16.419838
P -13.658135 13.690460 16.419838
P -13.658135 16.425460 8.214838
P -16.393135 16.425460 10.949838
P -13.658135 16.425460 13.684838
P -10.923135 -16.394540 -16.400162
P -10.923135 -13.659540 -13.665162
P -8.188135 -13.659540 -16.400162
P -8.188135 -16.394540 -13.665162
P -10.923135 -16.394540 -10.930162
P -10.923135 -13.659540 -8.195162
P -8.188135 -13.659540 -10.930162
P -8.188135 -16.394540 -8.195162
P -10.923135 -16.394540 -5.460162
P -10.923135 -13.659540 -2.725162
P -8.188135 -13.659540 -5.460162
P -8.188135 -16.394540 -2.725162
P -8.188135 -13.659540 0.009838
P -10.923135 -10.924540 -16.400162
P -10.923135 -8.189540 -13.665162
P -8.188135 -8.189540 -16.400162
P -8.188135 -10.924540 -13.665162
P -10.923135 -10.924540 -10.930162
P -10.923135 -8.189540 -8.195162
P -8.188135 -8.189540 -10.930162
P -8.188135 -10.924540 -8.195162
P -10.923135 -10.924540 -5.460162
P -10.923135 -8.189540 -2.725162
P -8.188135 -8.189540 -5.460162
P -8.188135 -10.924540 -2.725162
P -10.923135 -10.924540 0.009838
P -10.923135 -8.189540 2.744838
P -8.188135 -8.189540 0.009838
P -8.188135 -10.924540 2.744838
P -8.188135 -8.189540 5.479838
P -10.923135 -5.454540 -16.400162
P -10.923135 -2.719540 -13.665162
P -8.188135 -2.719540 -16.400162
P -8.188135 -5.454540 -13.665162
P -10.923135 -5.454540 -10.930162
P -10.923135 -2.719540 -8.195162
P -8.188135 -2.719540 -10.930162
P -8.188135 -5.454540 -8.195162
P -10.923135 -5.454540 -5.460162
P -10.923135 -2.719540 -2.725162
P -8.188135 -2.719540 -5.460162
P -8.188135 -5.454540 -2.725162
P -10.923135 -5.454540 0.009838
P -10.923135 -2.719540 2.744838
P -8.188135 -2.719540 0.009838
P -8.188135 -5.454540 2.744838
P -10.923135 -5.454540 5.479838
P -10.923135 -2.719540 8.214838
P -8.188135 -2.719540 5.479838
P -8.188135 -5.454540 8.214838
P -8.188135 -2.719540 10.949838
P -8.188135 0.015460 -13.665162
P -10.923135 0.015460 -10.930162
P -10.923135 2.750460 -8.195162
P -8.188135 2.750460 -10.930162
P -8.188135 0.015460 -8.195162
P -10.923135 0.015460 -5.460162
P -10.923135 2.750460 -2.725162
P -8.188135 2.750460 -5.460162
P -8.188135 0.015460 -2.725162
P -10.923135 0.015460 0.009838
P -10.923135 2.750460 2.744838
P -8.188135 2.750460 0.009838
P -8.188135 0.015460 2.744838
P -10.923135 0.015460 5.479838
P -10.923135 2.750460 8.214838
P -8.188135 2.750460 5.479838
P -8.188135 0.015460 8.214838
P -10.923135 0.015460 10.949838
P -10.923135 2.750460 13.684838
P -8.188135 2.750460 10.949838
P -8.188135 0.015460 13.684838
P -8.188135 2.750460 16.419838
P -8.188135 5.485460 -8.195162
P -10.923135 5.485460 -5.460162
P -10.923135 8.220460 -2.725162
P -8.188135 8.220460 -5.460162
P -8.188135 5.485460 -2.725162
P -10.923135 5.485460 0.009838
P -10.923135 8.220460 2.744838
P -8.188135 8.220460 0.009838
P -8.188135 5.485460 2.744838
P -10.923135 5.485460 5.479838
P -10.923135 8.220460 8.214838
P -8.188135 8.220460 5.479838
P -8.188135 5.485460 8.214838
P -10.923135 5.485460 10.949838
P -10.923135 8.220460 13.684838
P -8.188135 8.220460 10.949838
P -8.188135 5.485460 13.684838
P -10.923135 5.485460 16.419838
P -8.188135 8.220460 16.419838
P -8.188135 10.955460 -2.725162
P -10.923135 10.955460 0.009838
P -10.923135 13.690460 2.744838
P -8.188135 13.690460 0.009838
P -8.188135 10.955460 2.744838
P -10.923135 10.955460 5.479838
P -10.923135 13.690460 8.214838
P -8.188135 13.690460 5.479838
P -8.188135 10.955460 8.214838
P -10.923135 10.955460 10.949838
P -10.923135 13.690460 13.684838
P -8.188135 13.690460 10.949838
P -8.188135 10.955460 13.684838
P -10.923135 10.955460 16.419838
P -8.188135 13.690460 16.419838
P -8.188135 16.425460 2.744838
P -10.923135 16.425460 5.479838
P -8.188135 16.425460 8.214838
P -10.923135 16.425460 10.949838
P -8.188135 16.425460 13.684838
P -10.923135 16.425460 16.419838
P -5.453135 -13.659540 -13.665162
P -5.453135 -16.394540 -10.930162
P -5.453135 -13.659540 -8.195162
P -2.718135 -13.659540 -10.930162
P -2.718135 -16.394540 -8.195162
P -5.453135 -16.394540 -5.460162
P -5.453135 -13.659540 -2.725162
P -2.718135 -13.659540 -5.460162
P -2.718135 -16.394540 -2.725162
P -5.453135 -16.394540 0.009838
P -5.453135 -13.659540 2.744838
P -2.718135 -13.659540 0.009838
P -2.718135 -16.394540 2.744838
P -2.718135 -13.659540 5.479838
P -5.453135 -10.924540 -16.400162
P -5.453135 -8.189540 -13.665162
P -2.718135 -8.189540 -16.400162
P -2.718135 -10.924540 -13.665162
P -5.453135 -10.924540 -10.930162
P -5.453135 -8.189540 -8.195162
P -2.718135 -8.189540 -10.930162
P -2.718135 -10.924540 -8.195162
P -5.453135 -10.924540 -5.460162
P -5.453135 -8.189540 -2.725162
P -2.718135 -8.189540 -5.460162
P -2.718135 -10.924540 -2.725162
P -5.453135 -10.924540 0.009838
P -5.453135 -8.189540 2.744838
P -2.718135 -8.189540 0.009838
P -2.718135 -10.924540 2.744838
P -5.453135 -10.924540 5.479838
P -5.453135 -8.189540 8.214838
P -2.718135 -8.189540 5.479838
P -2.718135 -10.924540 8.214838
P -2.718135 -8.189540 10.949838
P -5.453135 -5.454540 -16.400162
P -5.453135 -2.719540 -13.665162
P -2.718135 -2.719540 -16.400162
P -2.718135 -5.454540 -13.665162
P -5.453135 -5.454540 -10.930162
P -5.453135 -2.719540 -8.195162
P -2.718135 -2.719540 -10.930162
P -2.718135 -5.454540 -8.195162
P -5.453135 -5.454540 -5.460162
P -5.453135 -2.719540 -2.725162
P -2.718135 -2.719540 -5.460162
P -2.718135 -5.454540 -2.725162
P -5.453135 -5.454540 0.009838
P -5.453135 -2.719540 2.744838
P -2.718135 -2.719540 0.009838
P -2.718135 -5.454540 2.744838
P -5.453135 -5.454540 5.479838
P -5.453135 -2.719540 8.214838
P -2.718135 -2.719540 5.479838
P -2.718135 -5.454540 8.214838
P -5.453135 -5.454540 10.949838
P -5.453135 -2.719540 13.684838
P -2.718135 -2.719540 10.949838
P -2.718135 -5.454540 13.684838
P -2.718135 -2.719540 16.419838
P -5.453135 0.015460 -16.400162
P -5.453135 2.750460 -13.665162
P -2.718135 2.750460 -16.400162
P -2.718135 0.015460 -13.665162
P -5.453135 0.015460 -10.930162
P -5.453135 2.750460 -8.195162
P -2.718135 2.750460 -10.930162
P -2.718135 0.015460 -8.195162
P -5.453135 0.015460 -5.460162
P -5.453135 2.750460 -2.725162
P -2.718135 2.750460 -5.460162
P -2.718135 0.015460 -2.725162
P -5.453135 0.015460 0.009838
P -5.453135 2.750460 2.744838
P -2.718135 2.750460 0.009838
P -2.718135 0.015460 2.744838
P -5.453135 0.015460 5.479838
P -5.453135 2.750460 8.214838
P -2.718135 2.750460 5.479838
P -2.718135 0.015460 8.214838
P -5.453135 0.015460 10.949838
P -5.453135 2.750460 13.684838
P -2.718135 2.750460 10.949838
P -2.718135 0.015460 13.684838
P -5.453135 0.015460 16.419838
P -2.718135 2.750460 16.419838
P -2.718135 5.485460 -13.665162
P -5.453135 5.485460 -10.930162
P -5.453135 8.220460 -8.195162
P -2.718135 8.220460 -10.930162
P -2.718135 5.485460 -8.195162
P -5.453135 5.485460 -5.460162
P -5.453135 8.220460 -2.725162
P -2.718135 8.220460 -5.460162
P -2.718135 5.485460 -2.725162
P -5.453135 5.485460 0.009838
P -5.453135 8.220460 2.744838
P -2.718135 8.220460 0.009838
P -2.718135 5.485460 2.744838
P -5.453135 5.485460 5.479838
P -5.453135 8.220460 8.214838
P -2.718135 8.220460 5.479838
P -2.718135 5.485460 8.214838
P -5.453135 5.485460 10.949838
P -5.453135 8.220460 13.684838
P -2.718135 8.220460 10.949838
P -2.718135 5.485460 13.684838
P -5.453135 5.485460 16.419838
P -2.718135 8.220460 16.419838
P -2.718135 10.955460 -8.195162
P -5.453135 10.955460 -5.460162
P -5.453135 13.690460 -2.725162
P -2.718135 13.690460 -5.460162
P -2.718135 10.955460 -2.725162
P -5.453135 10.955460 0.009838
P -5.453135 13.690460 2.744838
P -2.718135 13.690460 0.009838
P -2.718135 10.955460 2.744838
P -5.453135 10.955460 5.479838
P -5.453135 13.690460 8.214838
P -2.718135 13.690460 5.479838
P -2.718135 10.955460 8.214838
P -5.453135 10.955460 10.949838
P -5.453135 13.690460 13.684838
P -2.718135 13.690460 10.949838
P -2.718135 10.955460 13.684838
P -5.453135 10.955460 16.419838
P -2.718135 16.425460 -2.725162
P -5.453135 16.425460 0.009838
P -2.718135 16.425460 2.744838
P -5.453135 16.425460 5.479838
P -2.718135 16.425460 8.214838
P -5.453135 16.425460 10.949838
P 0.016865 -13.659540 -8.195162
P 0.016865 -16.394540 -5.460162
P 0.016865 -13.659540 -2.725162
P 2.751865 -13.659540 -5.460162
P 2.751865 -16.394540 -2.725162
P 0.016865 -16.394540 0.009838
P 0.016865 -13.659540 2.744838
P 2.751865 -13.659540 0.009838
P 2.751865 -16.394540 2.744838
P 0.016865 -16.394540 5.479838
P 0.016865 -13.659540 8.214838
P 2.751865 -13.659540 5.479838
P 2.751865 -16.394540 8.214838
P 2.751865 -13.659540 10.949838
P 0.016865 -8.189540 -13.665162
P 0.016865 -10.924540 -10.930162
P 0.016865 -8.189540 -8.195162
P 2.751865 -8.189540 -10.930162
P 2.751865 -10.924540 -8.195162
P 0.016865 -10.924540 -5.460162
P 0.016865 -8.189540 -2.725162
P 2.751865 -8.189540 -5.460162
P 2.751865 -10.924540 -2.725162
P 0.016865 -10.924540 0.009838
P 0.016865 -8.189540 2.744838
P 2.751865 -8.189540 0.009838
P 2.751865 -10.924540 2.744838
P 0.016865 -10.924540 5.479838
P 0.016865 -8.189540 8.214838
P 2.751865 -8.189540 5.479838
P 2.751865 -10.924540 8.214838
P 0.016865 -10.924540 10.949838
P 0.016865 -8.189540 13.684838
P 2.751865 -8.189540 10.949838
P 2.751865 -10.924540 13.684838
P 2.751865 -8.189540 16.419838
P 0.016865 -5.454540 -16.400162
P 0.016865 -2.719540 -13.665162
P 2.751865 -2.719540 -16.400162
P 2.751865 -5.454540 -13.665162
P 0.016865 -5.454540 -10.930162
P 0.016865 -2.719540 -8.195162
P 2.751865 -2.719540 -10.930162
P 2.751865 -5.454540 -8.195162
P 0.016865 -5.454540 -5.460162
P 0.016865 -2.719540 -2.725162
P 2.751865 -2.719540 -5.460162
P 2.751865 -5.454540 -2.725162
P 0.016865 -5.454540 0.009838
P 0.016865 -2.719540 2.744838
P 2.751865 -2.719540 0.009838
P 2.751865 -5.454540 2.744838
P 0.016865 -5.454540 5.479838
P 0.016865 -2.719540 8.214838
P 2.751865 -2.719540 5.479838
P 2.751865 -5.454540 8.214838
P 0.016865 -5.454540 10.949838
P 0.016865 -2.719540 13.684838
P 2.751865 -2.719540 10.949838
P 2.751865 -5.454540 13.684838
P 0.016865 -5.454540 16.419838
P 2.751865 -2.719540 16.419838
P 0.016865 0.015460 -16.400162
P 0.016865 2.750460 -13.665162
P 2.751865 2.750460 -16.400162
P 2.751865 0.015460 -13.665162
P 0.016865 0.015460 -10.930162
P 0.016865 2.750460 -8.195162
P 2.751865 2.750460 -10.930162
P 2.751865 0.015460 -8.195162
P 0.016865 0.015460 -5.460162
P 0.016865 2.750460 -2.725162
P 2.751865 2.750460 -5.460162
P 2.751865 0.015460 -2.725162
P 0.016865 0.015460 0.009838
P 0.016865 2.750460 2.744838
P 2.751865 2.750460 0.009838
P 2.751865 0.015460 2.744838
P 0.016865 0.015460 5.479838
P 0.016865 2.750460 8.214838
P 2.751865 2.750460 5.479838
P 2.751865 0.015460 8.214838
P 0.016865 0.015460 10.949838
P 0.016865 2.750460 13.684838
P 2.751865 2.750460 10.949838
P 2.751865 0.015460 13.684838
P 0.016865 0.015460 16.419838
P 2.751865 2.750460 16.419838
P 0.016865 5.485460 -16.400162
P 0.016865 8.220460 -13.665162
P 2.751865 8.220460 -16.400162
P 2.751865 5.485460 -13.665162
P 0.016865 5.485460 -10.930162
P 0.016865 8.220460 -8.195162
P 2.751865 8.220460 -10.930162
P 2.751865 5.485460 -8.195162
P 0.016865 5.485460 -5.460162
P 0.016865 8.220460 -2.725162
P 2.751865 8.220460 -5.460162
P 2.751865 5.485460 -2.725162
P 0.016865 5.485460 0.009838
P 0.016865 8.220460 2.744838
P 2.751865 8.220460 0.009838
P 2.751865 5.485460 2.744838
P 0.016865 5.485460 5.479838
P 0.016865 8.220460 8.214838
P 2.751865 8.220460 5.479838
P 2.751865 5.485460 8.214838
P 0.016865 5.485460 10.949838
P 0.016865 8.220460 13.684838
P 2.751865 8.220460 10.949838
P 2.751865 5.485460 13.684838
P 0.016865 5.485460 16.419838
P 2.751865 10.955460 -13.665162
P 0.016865 10.955460 -10.930162
P 0.016865 13.690460 -8.195162
P 2.751865 13.690460 -10.930162
P 2.751865 10.955460 -8.195162
P 0.016865 10.955460 -5.460162
P 0.016865 13.690460 -2.725162
P 2.751865 13.690460 -5.460162
P 2.751865 10.955460 -2.725162
P 0.016865 10.955460 0.009838
P 0.016865 13.690460 2.744838
P 2.751865 13.690460 0.009838
P 2.751865 10.955460 2.744838
P 0.016865 10.955460 5.479838
P 0.016865 13.690460 8.214838
P 2.751865 13.690460 5.479838
P 2.751865 10.955460 8.214838
P 0.016865 10.955460 10.949838
P 2.751865 16.425460 -8.195162
P 0.016865 16.425460 -5.460162
P 2.751865 16.425460 -2.725162
P 0.016865 16.425460 0.009838
P 2.751865 16.425460 2.744838
P 0.016865 16.425460 5.479838
P 5.486865 -13.659540 -2.725162
P 5.486865 -16.394540 0.009838
P 5.486865 -13.659540 2.744838
P 8.221865 -13.659540 0.009838
P 8.221865 -16.394540 2.744838
P 5.486865 -16.394540 5.479838
P 5.486865 -13.659540 8.214838
P 8.221865 -13.659540 5.479838
P 8.221865 -16.394540 8.214838
P 5.486865 -16.394540 10.949838
P 5.486865 -13.659540 13.684838
P 8.221865 -13.659540 10.949838
P 8.221865 -16.394540 13.684838
P 8.221865 -13.659540 16.419838
P 5.486865 -8.189540 -8.195162
P 5.486865 -10.924540 -5.460162
P 5.486865 -8.189540 -2.725162
P 8.221865 -8.189540 -5.460162
P 8.221865 -10.924540 -2.725162
P 5.486865 -10.924540 0.009838
P 5.486865 -8.189540 2.744838
P 8.221865 -8.189540 0.009838
P 8.221865 -10.924540 2.744838
P 5.486865 -10.924540 5.479838
P 5.486865 -8.189540 8.214838
P 8.221865 -8.189540 5.479838
P 8.221865 -10.924540 8.214838
P 5.486865 -10.924540 10.949838
P 5.486865 -8.189540 13.684838
P 8.221865 -8.189540 10.949838
P 8.221865 -10.924540 13.684838
P 5.486865 -10.924540 16.419838
P 8.221865 -8.189540 16.419838
P 5.486865 -2.719540 -13.665162
P 5.486865 -5.454540 -10.930162
P 5.486865 -2.719540 -8.195162
P 8.221865 -2.719540 -10.930162
P 8.221865 -5.454540 -8.195162
P 5.486865 -5.454540 -5.460162
P 5.486865 -2.719540 -2.725162
P 8.221865 -2.719540 -5.460162
P 8.221865 -5.454540 -2.725162
P 5.486865 -5.454540 0.009838
P 5.486865 -2.719540 2.744838
P 8.221865 -2.719540 0.009838
P 8.221865 -5.454540 2.744838
P 5.486865 -5.454540 5.479838
P 5.486865 -2.719540 8.214838
P 8.221865 -2.719540 5.479838
P 8.221865 -5.454540 8.214838
P 5.486865 -5.454540 10.949838
P 5.486865 -2.719540 13.684838
P 8.221865 -2.719540 10.949838
P 8.221865 -5.454540 13.684838
P 5.486865 -5.454540 16.419838
P 8.221865 -2.719540 16.419838
P 5.486865 0.015460 -16.400162
P 5.486865 2.750460 -13.665162
P 8.221865 2.750460 -16.400162
P 8.221865 0.015460 -13.665162
P 5.486865 0.015460 -10.930162
P 5.486865 2.750460 -8.195162
P 8.221865 2.750460 -10.930162
P 8.221865 0.015460 -8.195162
P 5.486865 0.015460 -5.460162
P 5.486865 2.750460 -2.725162
P 8.221865 2.750460 -5.460162
P 8.221865 0.015460 -2.725162
P 5.486865 0.015460 0.009838
P 5.486865 2.750460 2.744838
P 8.221865 2.750460 0.009838
P 8.221865 0.015460 2.744838
P 5.486865 0.015460 5.479838
P 5.486865 2.750460 8.214838
P 8.221865 2.750460 5.479838
P 8.221865 0.015460 8.214838
P 5.486865 0.015460 10.949838
P 5.486865 2.750460 13.684838
P 8.221865 2.750460 10.949838
P 8.221865 0.015460 13.684838
P 5.486865 0.015460 16.419838
P 5.486865 5.485460 -16.400162
P 5.486865 8.220460 -13.665162
P 8.221865 8.220460 -16.400162
P 8.221865 5.485460 -13.665162
P 5.486865 5.485460 -10.930162
P 5.486865 8.220460 -8.195162
P 8.221865 8.220460 -10.930162
P 8.221865 5.485460 -8.195162
P 5.486865 5.485460 -5.460162
P 5.486865 8.220460 -2.725162
P 8.221865 8.220460 -5.460162
P 8.221865 5.485460 -2.725162
P 5.486865 5.485460 0.009838
P 5.486865 8.220460 2.744838
P 8.221865 8.220460 0.009838
P 8.221865 5.485460 2.744838
P 5.486865 5.485460 5.479838
P 5.486865 8.220460 8.214838
P 8.221865 8.220460 5.479838
P 8.221865 5.485460 8.214838
P 5.486865 5.485460 10.949838
P 5.486865 10.955460 -16.400162
P 5.486865 13.690460 -13.665162
P 8.221865 13.690460 -16.400162
P 8.221865 10.955460 -13.665162
P 5.486865 10.955460 -10.930162
P 5.486865 13.690460 -8.195162
P 8.221865 13.690460 -10.930162
P 8.221865 10.955460 -8.195162
P 5.486865 10.955460 -5.460162
P 5.486865 13.690460 -2.725162
P 8.221865 13.690460 -5.460162
P 8.221865 10.955460 -2.725162
P 5.486865 10.955460 0.009838
P 5.486865 13.690460 2.744838
P 8.221865 13.690460 0.009838
P 8.221865 10.955460 2.744838
P 5.486865 10.955460 5.479838
P 8.221865 16.425460 -13.665162
P 5.486865 16.425460 -10.930162
P 8.221865 16.425460 -8.195162
P 5.486865 16.425460 -5.460162
P 8.221865 16.425460 -2.725162
P 5.486865 16.425460 0.009838
P 10.956865 -13.659540 2.744838
P 10.956865 -16.394540 5.479838
P 10.956865 -13.659540 8.214838
P 13.691865 -13.659540 5.479838
P 13.691865 -16.394540 8.214838
P 10.956865 -16.394540 10.949838
P 10.956865 -13.659540 13.684838
P 13.691865 -13.659540 10.949838
P 13.691865 -16.394540 13.684838
P 10.956865 -16.394540 16.419838
P 13.691865 -13.659540 16.419838
P 10.956865 -8.189540 -2.725162
P 10.956865 -10.924540 0.009838
P 10.956865 -8.189540 2.744838
P 13.691865 -8.189540 0.009838
P 13.691865 -10.924540 2.744838
P 10.956865 -10.924540 5.479838
P 10.956865 -8.189540 8.214838
P 13.691865 -8.189540 5.479838
P 13.691865 -10.924540 8.214838
P 10.956865 -10.924540 10.949838
P 10.956865 -8.189540 13.684838
P 13.691865 -8.189540 10.949838
P 13.691865 -10.924540 13.684838
P 10.956865 -10.924540 16.419838
P 13.691865 -8.189540 16.419838
P 10.956865 -2.719540 -8.195162
P 10.956865 -5.454540 -5.460162
P 10.956865 -2.719540 -2.725162
P 13.691865 -2.719540 -5.460162
P 13.691865 -5.454540 -2.725162
P 10.956865 -5.454540 0.009838
P 10.956865 -2.719540 2.744838
P 13.691865 -2.719540 0.009838
P 13.691865 -5.454540 2.744838
P 10.956865 -5.454540 5.479838
P 10.956865 -2.719540 8.214838
P 13.691865 -2.719540 5.479838
P 13.691865 -5.454540 8.214838
P 10.956865 -5.454540 10.949838
P 10.956865 -2.719540 13.684838
P 13.691865 -2.719540 10.949838
P 13.691865 -5.454540 13.684838
P 10.956865 -5.454540 16.419838
P 10.956865 2.750460 -13.665162
P 10.956865 0.015460 -10.930162
P 10.956865 2.750460 -8.195162
P 13.691865 2.750460 -10.930162
P 13.691865 0.015460 -8.195162
P 10.956865 0.015460 -5.460162
P 10.956865 2.750460 -2.725162
P 13.691865 2.750460 -5.460162
P 13.691865 0.015460 -2.725162
P 10.956865 0.015460 0.009838
P 10.956865 2.750460 2.744838
P 13.691865 2.750460 0.009838
P 13.691865 0.015460 2.744838
P 10.956865 0.015460 5.479838
P 10.956865 2.750460 8.214838
P 13.691865 2.750460 5.479838
P 13.691865 0.015460 8.214838
P 10.956865 0.015460 10.949838
P 10.956865 5.485460 -16.400162
P 10.956865 8.220460 -13.665162
P 13.691865 8.220460 -16.400162
P 13.691865 5.485460 -13.665162
P 10.956865 5.485460 -10.930162
P 10.956865 8.220460 -8.195162
P 13.691865 8.220460 -10.930162
P 13.691865 5.485460 -8.195162
P 10.956865 5.485460 -5.460162
P 10.956865 8.220460 -2.725162
P 13.691865 8.220460 -5.460162
P 13.691865 5.485460 -2.725162
P 10.956865 5.485460 0.009838
P 10.956865 8.220460 2.744838
P 13.691865 8.220460 0.009838
P 13.691865 5.485460 2.744838
P 10.956865 5.485460 5.479838
P 10.956865 10.955460 -16.400162
P 10.956865 13.690460 -13.665162
P 13.691865 13.690460 -16.400162
P 13.691865 10.955460 -13.665162
P 10.956865 10.955460 -10.930162
P 10.956865 13.690460 -8.195162
P 13.691865 13.690460 -10.930162
P 13.691865 10.955460 -8.195162
P 10.956865 10.955460 -5.460162
P 10.956865 13.690460 -2.725162
P 13.691865 13.690460 -5.460162
P 13.691865 10.955460 -2.725162
P 10.956865 10.955460 0.009838
P 10.956865 16.425460 -16.400162
P 13.691865 16.425460 -13.665162
P 10.956865 16.425460 -10.930162
P 13.691865 16.425460 -8.195162
P 10.956865 16.425460 -5.460162
P 16.426865 -13.659540 8.214838
P 16.426865 -16.394540 10.949838
P 16.426865 -13.659540 13.684838
P 16.426865 -8.189540 2.744838
P 16.426865 -10.924540 5.479838
P 16.426865 -8.189540 8.214838
P 16.426865 -10.924540 10.949838
P 16.426865 -8.189540 13.684838
P 16.426865 -10.924540 16.419838
P 16.426865 -2.719540 -2.725162
P 16.426865 -5.454540 0.009838
P 16.426865 -2.719540 2.744838
P 16.426865 -5.454540 5.479838
P 16.426865 -2.719540 8.214838
P 16.426865 -5.454540 10.949838
P 16.426865 2.750460 -8.195162
P 16.426865 0.015460 -5.460162
P 16.426865 2.750460 -2.725162
P 16.426865 0.015460 0.009838
P 16.426865 2.750460 2.744838
P 16.426865 0.015460 5.479838
P 16.426865 8.220460 -13.665162
P 16.426865 5.485460 -10.930162
P 16.426865 8.220460 -8.195162
P 16.426865 5.485460 -5.460162
P 16.426865 8.220460 -2.725162
P 16.426865 5.485460 0.009838
P 16.426865 10.955460 -16.400162
P 16.426865 13.690460 -13.665162
P 16.426865 10.955460 -10.930162
P 16.426865 13.690460 -8.195162
P 16.426865 10.955460 -5.460162
P 16.426865 16.425460 -10.930162
Cl -19.128135 -13.659540 -10.930162
Cl -19.128135 -10.924540 -13.665162
Cl -19.128135 -8.189540 -10.930162
Cl -19.128135 -10.924540 -8.195162
Cl -19.128135 -8.189540 -5.460162
Cl -19.128135 -5.454540 -8.195162
Cl -19.128135 -2.719540 -5.460162
Cl -19.128135 -5.454540 -2.725162
Cl -19.128135 -2.719540 0.009838
Cl -19.128135 0.015460 -2.725162
Cl -19.128135 2.750460 0.009838
Cl -19.128135 0.015460 2.744838
Cl -19.128135 2.750460 5.479838
Cl -19.128135 5.485460 2.744838
Cl -19.128135 8.220460 5.479838
Cl -19.128135 5.485460 8.214838
Cl -19.128135 8.220460 10.949838
Cl -19.128135 10.955460 8.214838
Cl -19.128135 13.690460 10.949838
Cl -19.128135 10.955460 13.684838
Cl -13.658135 -19.129540 -10.930162
Cl -13.658135 -10.924540 -19.135162
Cl -13.658135 10.955460 19.154838
Cl -13.658135 19.160460 10.949838
Cl -10.923135 -19.129540 -13.665162
Cl -10.923135 -19.129540 -8.195162
Cl -8.188135 -19.129540 -10.930162
Cl -8.188135 -19.129540 -5.460162
Cl -10.923135 -13.659540 -19.135162
Cl -10.923135 -8.189540 -19.135162
Cl -8.188135 -10.924540 -19.135162
Cl -8.188135 -5.454540 -19.135162
Cl -10.923135 8.220460 19.154838
Cl -8.188135 5.485460 19.154838
Cl -10.923135 13.690460 19.154838
Cl -8.188135 10.955460 19.154838
Cl -10.923135 19.160460 8.214838
Cl -8.188135 19.160460 5.479838
Cl -10.923135 19.160460 13.684838
Cl -8.188135 19.160460 10.949838
Cl -5.453135 -19.129540 -8.195162
Cl -5.453135 -19.129540 -2.725162
Cl -2.718135 -19.129540 -5.460162
Cl -2.718135 -19.129540 0.009838
Cl -5.453135 -8.189540 -19.135162
Cl -5.453135 -2.719540 -19.135162
Cl -2.718135 -5.454540 -19.135162
Cl -2.718135 0.015460 -19.135162
Cl -5.453135 2.750460 19.154838
Cl -2.718135 0.015460 19.154838
Cl -5.453135 8.220460 19.154838
Cl -2.718135 5.485460 19.154838
Cl -5.453135 19.160460 2.744838
Cl -2.718135 19.160460 0.009838
Cl -5.453135 19.160460 8.214838
Cl -2.718135 19.160460 5.479838
Cl 0.016865 -19.129540 -2.725162
Cl 0.016865 -19.129540 2.744838
Cl 2.751865 -19.129540 0.009838
Cl 2.751865 -19.129540 5.479838
Cl 0.016865 -2.719540 -19.135162
Cl 0.016865 -2.719540 19.154838
Cl 2.751865 -5.454540 19.154838
Cl 0.016865 2.750460 -19.135162
Cl 2.751865 0.015460 -19.135162
Cl 0.016865 2.750460 19.154838
Cl 2.751865 0.015460 19.154838
Cl 2.751865 5.485460 -19.135162
Cl 0.016865 19.160460 -2.725162
Cl 2.751865 19.160460 -5.460162
Cl 0.016865 19.160460 2.744838
Cl 2.751865 19.160460 0.009838
Cl 5.486865 -19.129540 2.744838
Cl 5.486865 -19.129540 8.214838
Cl 8.221865 -19.129540 5.479838
Cl 8.221865 -19.129540 10.949838
Cl 5.486865 -8.189540 19.154838
Cl 8.221865 -10.924540 19.154838
Cl 5.486865 -2.719540 19.154838
Cl 8.221865 -5.454540 19.154838
Cl 5.486865 2.750460 -19.135162
Cl 5.486865 8.220460 -19.135162
Cl 8.221865 5.485460 -19.135162
Cl 8.221865 10.955460 -19.135162
Cl 5.486865 19.160460 -8.195162
Cl 8.221865 19.160460 -10.930162
Cl 5.486865 19.160460 -2.725162
Cl 8.221865 19.160460 -5.460162
Cl 10.956865 -19.129540 8.214838
Cl 10.956865 -19.129540 13.684838
Cl 13.691865 -19.129540 10.949838
Cl 10.956865 -13.659540 19.154838
Cl 10.956865 -8.189540 19.154838
Cl 13.691865 -10.924540 19.154838
Cl 10.956865 8.220460 -19.135162
Cl 10.956865 13.690460 -19.135162
Cl 13.691865 10.955460 -19.135162
Cl 10.956865 19.160460 -13.665162
Cl 10.956865 19.160460 -8.195162
Cl 13.691865 19.160460 -10.930162
Cl 19.161865 -13.659540 10.949838
Cl 19.161865 -8.189540 5.479838
Cl 19.161865 -10.924540 8.214838
Cl 19.161865 -8.189540 10.949838
Cl 19.161865 -10.924540 13.684838
Cl 19.161865 -2.719540 0.009838
Cl 19.161865 -5.454540 2.744838
Cl 19.161865 -2.719540 5.479838
Cl 19.161865 -5.454540 8.214838
Cl 19.161865 2.750460 -5.460162
Cl 19.161865 0.015460 -2.725162
Cl 19.161865 2.750460 0.009838
Cl 19.161865 0.015460 2.744838
Cl 19.161865 8.220460 -10.930162
Cl 19.161865 5.485460 -8.195162
Cl 19.161865 8.220460 -5.460162
Cl 19.161865 5.485460 -2.725162
Cl 19.161865 10.955460 -13.665162
Cl 19.161865 13.690460 -10.930162
Cl 19.161865 10.955460 -8.195162
Cl -10.923135 -10.924540 5.479838
Cl -10.923135 5.485460 -10.930162
Cl 5.486865 -10.924540 -10.930162
Cl 8.221865 8.220460 10.949838
Cl -16.393135 8.220460 19.154838
Cl -16.393135 19.160460 8.214838
Cl 19.161865 -16.394540 8.214838
Cl 19.161865 16.425460 -8.195162
Cl 8.221865 -16.394540 19.154838
Cl 8.221865 19.160460 -16.400162
Cl 19.161865 8.220460 -16.400162
Cl -8.188135 19.160460 16.419838
Cl 19.161865 -8.189540 16.419838
Cl -16.393135 -19.129540 -8.195162
Cl -16.393135 -8.189540 -19.135162
Cl -8.188135 -16.394540 -19.135162
Cl -5.453135 -2.719540 19.154838
Cl -5.453135 19.160460 -2.725162
Cl 19.161865 -5.454540 -2.725162
Cl 5.486865 19.160460 2.744838
Cl 19.161865 5.485460 2.744838
Cl 0.016865 -19.129540 8.214838
Cl 0.016865 8.220460 -19.135162
Cl 8.221865 0.015460 -19.135162
Cl -19.128135 0.015460 8.214838
Cl -19.128135 8.220460 0.009838
Cl 8.221865 -19.129540 0.009838
Cl 0.016865 8.220460 19.154838
Cl 8.221865 0.015460 19.154838
Cl -19.128135 -10.924540 -2.725162
Cl -19.128135 -2.719540 -10.930162
Cl -2.718135 -19.129540 -10.930162
Cl -8.188135 -19.129540 0.009838
Cl -8.188135 0.015460 -19.135162
Cl 0.016865 -8.189540 -19.135162
Cl 0.016865 16.425460 10.949838
Cl 0.016865 -10.924540 16.419838
Cl 0.016865 16.425460 -10.930162
Cl 16.426865 0.015460 -10.930162
Cl 16.426865 0.015460 10.949838
Cl 13.691865 13.690460 0.009838
Cl -13.658135 0.015460 13.684838
Cl -13.658135 13.690460 0.009838
Cl 13.691865 -13.659540 0.009838
Cl -19.128135 -5.454540 2.744838
Cl -19.128135 2.750460 -5.460162
Cl 2.751865 -19.129540 -5.460162
Cl 13.691865 19.160460 -5.460162
Cl -5.453135 -10.924540 10.949838
Cl -5.453135 10.955460 -10.930162
Cl 10.956865 -5.454540 -10.930162
Cl 13.691865 -5.454540 19.154838
Cl -5.453135 13.690460 19.154838
Cl 5.486865 -19.129540 13.684838
Cl 5.486865 13.690460 -19.135162
Cl 13.691865 5.485460 -19.135162
Cl -19.128135 5.485460 13.684838
Cl -19.128135 13.690460 5.479838
Cl 13.691865 -19.129540 5.479838
Cl 19.161865 10.955460 -2.725162
Cl -10.923135 2.750460 19.154838
Cl -10.923135 19.160460 2.744838
Cl 19.161865 -10.924540 2.744838
Cl 8.221865 13.690460 5.479838
Cl -13.658135 -16.394540 -2.725162
Cl -13.658135 -2.719540 -16.400162
Cl -2.718135 -13.659540 -16.400162
Cl 13.691865 5.485460 8.214838
Cl -10.923135 -5.454540 10.949838
Cl -10.923135 10.955460 -5.460162
Cl 10.956865 -10.924540 -5.460162
Cl 5.486865 5.485460 16.419838
Cl -5.453135 -16.394540 5.479838
Cl -5.453135 5.485460 -16.400162
Cl 5.486865 -5.454540 -16.400162
Cl 2.751865 10.955460 13.684838
Cl 10.956865 2.750460 13.684838
Cl -19.128135 -16.394540 -8.195162
Cl -19.128135 -8.189540 -16.400162
Cl -8.188135 -19.129540 -16.400162
Cl 2.751865 -10.924540 19.154838
Cl 2.751865 19.160460 -10.930162
Cl 19.161865 2.750460 -10.930162
Cl -2.718135 19.160460 10.949838
Cl 19.161865 -2.719540 10.949838
Cl -2.718135 -5.454540 19.154838
Cl -2.718135 19.160460 -5.460162
Cl 19.161865 -2.719540 -5.460162
Cl 8.221865 19.160460 0.009838
Cl -13.658135 -10.924540 2.744838
Cl -13.658135 2.750460 -10.930162
Cl 2.751865 -13.659540 -10.930162
Cl 19.161865 2.750460 5.479838
Cl 0.016865 -16.394540 10.949838
Cl 0.016865 10.955460 -16.400162
Cl 10.956865 0.015460 -16.400162
Cl 2.751865 19.160460 5.479838
Cl -16.393135 -2.719540 8.214838
Cl -16.393135 8.220460 -2.725162
Cl 8.221865 -16.394540 -2.725162
Cl 13.691865 10.955460 2.744838
Cl -8.188135 -5.454540 13.684838
Cl -8.188135 13.690460 -5.460162
Cl 13.691865 -8.189540 -5.460162
Cl -2.718135 13.690460 16.419838
Cl -19.128135 8.220460 16.419838
Cl -19.128135 16.425460 8.214838
Cl 16.426865 -19.129540 8.214838
Cl 13.691865 -2.719540 16.419838
Cl 8.221865 -19.129540 16.419838
Cl 8.221865 16.425460 -19.135162
Cl 16.426865 8.220460 -19.135162
Cl 16.426865 19.160460 -8.195162
Cl -10.923135 -19.129540 -2.725162
Cl -10.923135 -2.719540 -19.135162
Cl -2.718135 -10.924540 -19.135162
Cl 5.486865 13.690460 8.214838
Cl -19.128135 -8.189540 0.009838
Cl -19.128135 0.015460 -8.195162
Cl 0.016865 -19.129540 -8.195162
Cl 16.426865 -8.189540 19.154838
Cl -5.453135 -19.129540 2.744838
Cl -5.453135 2.750460 -19.135162
Cl 2.751865 -5.454540 -19.135162
Cl -8.188135 16.425460 19.154838
Cl -13.658135 5.485460 19.154838
Cl -13.658135 19.160460 5.479838
Cl 19.161865 -13.659540 5.479838
Cl 5.486865 2.750460 19.154838
Cl 5.486865 -13.659540 19.154838
Cl 5.486865 19.160460 -13.665162
Cl 19.161865 5.485460 -13.665162
Cl 19.161865 13.690460 -5.460162
Cl -19.128135 -13.659540 -5.460162
Cl -19.128135 -5.454540 -13.665162
Cl -5.453135 -19.129540 -13.665162
Cl -8.188135 0.015460 19.154838
Cl -8.188135 19.160460 0.009838
Cl 19.161865 -8.189540 0.009838
Cl 10.956865 19.160460 -2.725162
Cl -19.128135 2.750460 10.949838
Cl -19.128135 10.955460 2.744838
Cl 10.956865 -19.129540 2.744838
Cl 19.161865 8.220460 0.009838
Cl -5.453135 19.160460 13.684838
Cl -2.718135 -10.924540 13.684838
Cl -2.718135 13.690460 -10.930162
Cl 13.691865 -2.719540 -10.930162
Cl 19.161865 -5.454540 13.684838
Cl -16.393135 -5.454540 5.479838
Cl -16.393135 5.485460 -5.460162
Cl 5.486865 -16.394540 -5.460162
Cl 10.956865 8.220460 8.214838
Cl -8.188135 -13.659540 5.479838
Cl -8.188135 5.485460 -13.665162
Cl 5.486865 -8.189540 -13.665162
Cl 2.751865 -16.394540 13.684838
Cl 2.751865 13.690460 -16.400162
Cl 13.691865 2.750460 -16.400162
Cl -2.718135 10.955460 19.154838
Cl -13.658135 -13.659540 0.009838
Cl -13.658135 0.015460 -13.665162
Cl 0.016865 -13.659540 -13.665162
Cl 10.956865 -2.719540 19.154838
Cl -10.923135 -8.189540 8.214838
Cl -10.923135 8.220460 -8.195162
Cl 8.221865 -10.924540 -8.195162
Cl 19.161865 0.015460 8.214838
Cl 0.016865 19.160460 8.214838
Cl -13.658135 -19.129540 -5.460162
Cl -13.658135 -5.454540 -19.135162
Cl -5.453135 -13.659540 -19.135162
Cl 2.751865 5.485460 19.154838
Cl 0.016865 -8.189540 19.154838
Cl 0.016865 19.160460 -8.195162
Cl 19.161865 0.015460 -8.195162
Cl -2.718135 -19.129540 5.479838
Cl -2.718135 5.485460 -19.135162
Cl 5.486865 -2.719540 -19.135162
Cl 13.691865 16.425460 -2.725162
Cl -13.658135 2.750460 16.419838
Cl -13.658135 16.425460 2.744838
Cl 16.426865 -13.659540 2.744838
Cl 13.691865 8.220460 5.479838
Cl 2.751865 13.690460 10.949838
Cl -8.188135 -2.719540 16.419838
Cl -8.188135 16.425460 -2.725162
Cl 16.426865 -8.189540 -2.725162
Cl 13.691865 0.015460 13.684838
Cl -2.718135 -13.659540 10.949838
Cl -2.718135 10.955460 -13.665162
Cl 10.956865 -2.719540 -13.665162
Cl 8.221865 16.425460 2.744838
Cl -13.658135 -2.719540 10.949838
Cl -13.658135 10.955460 -2.725162
Cl 10.956865 -13.659540 -2.725162
Cl 5.486865 8.220460 13.684838
Cl 2.751865 -19.129540 10.949838
Cl 2.751865 10.955460 -19.135162
Cl 10.956865 2.750460 -19.135162
Cl -19.128135 -2.719540 5.479838
Cl -19.128135 5.485460 -2.725162
Cl 5.486865 -19.129540 -2.725162
Cl 16.426865 13.690460 -2.725162
Cl -5.453135 -8.189540 13.684838
Cl -5.453135 13.690460 -8.195162
Cl 13.691865 -5.454540 -8.195162
Cl -2.718135 16.425460 13.684838
Cl -16.393135 -13.659540 -2.725162
Cl -16.393135 -2.719540 -13.665162
Cl -2.718135 -16.394540 -13.665162
Cl 16.426865 5.485460 5.479838
Cl -16.393135 2.750460 13.684838
Cl -16.393135 13.690460 2.744838
Cl 13.691865 -16.394540 2.744838
Cl 8.221865 2.750460 16.419838
Cl -8.188135 -16.394540 2.744838
Cl -8.188135 2.750460 -16.400162
Cl 2.751865 -8.189540 -16.400162
Cl 0.016865 10.955460 16.419838
Cl 2.751865 -13.659540 16.419838
Cl 2.751865 16.425460 -13.665162
Cl 16.426865 2.750460 -13.665162
Cl 10.956865 13.690460 2.744838
Cl -16.393135 -8.189540 2.744838
Cl -16.393135 2.750460 -8.195162
Cl 2.751865 -16.394540 -8.195162
Cl 13.691865 2.750460 10.949838
Cl 16.426865 -5.454540 16.419838
Cl -8.188135 -10.924540 8.214838
Cl -8.188135 8.220460 -10.930162
Cl 8.221865 -8.189540 -10.930162
Cl 8.221865 10.955460 8.214838
Cl -5.453135 -5.454540 16.419838
Cl -5.453135 16.425460 -5.460162
Cl 16.426865 -5.454540 -5.460162
Cl 2.751865 16.425460 8.214838
Cl -10.923135 -16.394540 0.009838
Cl -10.923135 0.015460 -16.400162
Cl 0.016865 -10.924540 -16.400162
Cl 16.426865 10.955460 0.009838
Cl -10.923135 0.015460 16.419838
Cl -10.923135 16.425460 0.009838
Cl 16.426865 -10.924540 0.009838
Cl -2.718135 -16.394540 8.214838
Cl -2.718135 8.220460 -16.400162
Cl 8.221865 -2.719540 -16.400162
Cl -5.453135 16.425460 16.419838
Cl 5.486865 -16.394540 16.419838
Cl 5.486865 16.425460 -16.400162
Cl 16.426865 5.485460 -16.400162
Cl 16.426865 16.425460 -5.460162
Cl -16.393135 5.485460 16.419838
Cl -16.393135 16.425460 5.479838
Cl 16.426865 -16.394540 5.479838
Cl 8.221865 5.485460 13.684838
Cl -16.393135 -16.394540 -5.460162
Cl -16.393135 -5.454540 -16.400162
Cl -5.453135 -16.394540 -16.400162
Cl 16.426865 -2.719540 13.684838
Cl -13.658135 -5.454540 8.214838
Cl -13.658135 8.220460 -5.460162
Cl 8.221865 -13.659540 -5.460162
Cl 2.751865 8.220460 16.419838
Cl -16.393135 -10.924540 0.009838
Cl -16.393135 0.015460 -10.930162
Cl 0.016865 -16.394540 -10.930162
