1916
GaAs-Ga-Ga827As696Cl393-reconstructed
Ga -20.111382 -14.365702 -11.496613
Ga -20.111382 -11.490610 -14.371704
Ga -20.111382 -8.615519 -11.496613
Ga -20.111382 -11.490610 -8.621522
Ga -20.111382 -8.615519 -5.746431
Ga -20.111382 -5.740428 -8.621522
Ga -20.111382 -2.865337 -5.746431
Ga -20.111382 -5.740428 -2.871340
Ga -20.111382 -2.865337 0.003751
Ga -20.111382 0.009754 -2.871340
Ga -20.111382 2.884845 0.003751
Ga -20.111382 0.009754 2.878842
Ga -20.111382 2.884845 5.753934
Ga -20.111382 5.759936 2.878842
Ga -20.111382 8.635027 5.753934
Ga -20.111382 5.759936 8.629025
Ga -20.111382 8.635027 11.504116
Ga -20.111382 11.510118 8.629025
Ga -20.111382 14.385209 11.504116
Ga -20.111382 11.510118 14.379207
Ga -14.361200 -20.115884 -11.496613
Ga -14.361200 -17.240793 -14.371704
Ga -17.236291 -14.365702 -14.371704
Ga -17.236291 -17.240793 -11.496613
Ga -14.361200 -14.365702 -11.496613
Ga -14.361200 -17.240793 -8.621522
Ga -17.236291 -14.365702 -8.621522
Ga -14.361200 -14.365702 -5.746431
Ga -14.361200 -11.490610 -20.121886
Ga -17.236291 -11.490610 -17.246795
Ga -14.361200 -8.615519 -17.246795
Ga -14.361200 -11.490610 -14.371704
Ga -17.236291 -8.615519 -14.371704
Ga -17.236291 -11.490610 -11.496613
Ga -14.361200 -8.615519 -11.496613
Ga -14.361200 -11.490610 -8.621522
Ga -17.236291 -8.615519 -8.621522
Ga -17.236291 -11.490610 -5.746431
Ga -14.361200 -8.615519 -5.746431
Ga -14.361200 -11.490610 -2.871340
Ga -17.236291 -8.615519 -2.871340
Ga -14.361200 -8.615519 0.003751
Ga -14.361200 -5.740428 -14.371704
Ga -17.236291 -5.740428 -11.496613
Ga -14.361200 -2.865337 -11.496613
Ga -14.361200 -5.740428 -8.621522
Ga -17.236291 -2.865337 -8.621522
Ga -17.236291 -5.740428 -5.746431
Ga -14.361200 -2.865337 -5.746431
Ga -14.361200 -5.740428 -2.871340
Ga -17.236291 -2.865337 -2.871340
Ga -17.236291 -5.740428 0.003751
Ga -14.361200 -2.865337 0.003751
Ga -14.361200 -5.740428 2.878842
Ga -17.236291 -2.865337 2.878842
Ga -14.361200 -2.865337 5.753934
Ga -14.361200 0.009754 -8.621522
Ga -17.236291 0.009754 -5.746431
Ga -14.361200 2.884845 -5.746431
Ga -14.361200 0.009754 -2.871340
Ga -17.236291 2.884845 -2.871340
Ga -17.236291 0.009754 0.003751
Ga -14.361200 2.884845 0.003751
Ga -14.361200 0.009754 2.878842
Ga -17.236291 2.884845 2.878842
Ga -17.236291 0.009754 5.753934
Ga -14.361200 2.884845 5.753934
Ga -14.361200 0.009754 8.629025
Ga -17.236291 2.884845 8.629025
Ga -14.361200 2.884845 11.504116
Ga -14.361200 5.759936 -2.871340
Ga -17.236291 5.759936 0.003751
Ga -14.361200 8.635027 0.003751
Ga -14.361200 5.759936 2.878842
Ga -17.236291 8.635027 2.878842
Ga -17.236291 5.759936 5.753934
Ga -14.361200 8.635027 5.753934
Ga -14.361200 5.759936 8.629025
Ga -17.236291 8.635027 8.629025
Ga -17.236291 5.759936 11.504116
Ga -14.361200 8.635027 11.504116
Ga -14.361200 5.759936 14.379207
Ga -17.236291 8.635027 14.379207
Ga -14.361200 8.635027 17.254298
Ga -14.361200 11.510118 2.878842
Ga -17.236291 11.510118 5.753934
Ga -14.361200 14.385209 5.753934
Ga -14.361200 11.510118 8.629025
Ga -17.236291 14.385209 8.629025
Ga -17.236291 11.510118 11.504116
Ga -14.361200 14.385209 11.504116
Ga -14.361200 11.510118 14.379207
Ga -17.236291 14.385209 14.379207
Ga -17.236291 11.510118 17.254298
Ga -14.361200 11.510118 20.129389
Ga -14.361200 17.260300 8.629025
Ga -17.236291 17.260300 11.504116
Ga -14.361200 20.135391 11.504116
Ga -14.361200 17.260300 14.379207
Ga -11.486109 -20.115884 -14.371704
Ga -8.611018 -20.115884 -11.496613
Ga -11.486109 -20.115884 -8.621522
Ga -8.611018 -20.115884 -5.746431
Ga -11.486109 -14.365702 -20.121886
Ga -11.486109 -17.240793 -17.246795
Ga -8.611018 -17.240793 -14.371704
Ga -11.486109 -14.365702 -14.371704
Ga -11.486109 -17.240793 -11.496613
Ga -8.611018 -14.365702 -11.496613
Ga -8.611018 -17.240793 -8.621522
Ga -11.486109 -14.365702 -8.621522
Ga -11.486109 -17.240793 -5.746431
Ga -8.611018 -14.365702 -5.746431
Ga -8.611018 -17.240793 -2.871340
Ga -11.486109 -14.365702 -2.871340
Ga -8.611018 -14.365702 0.003751
Ga -8.611018 -11.490610 -20.121886
Ga -11.486109 -8.615519 -20.121886
Ga -11.486109 -11.490610 -17.246795
Ga -8.611018 -8.615519 -17.246795
Ga -8.611018 -11.490610 -14.371704
Ga -11.486109 -8.615519 -14.371704
Ga -11.486109 -11.490610 -11.496613
Ga -8.611018 -8.615519 -11.496613
Ga -8.611018 -11.490610 -8.621522
Ga -11.486109 -8.615519 -8.621522
Ga -11.486109 -11.490610 -5.746431
Ga -8.611018 -8.615519 -5.746431
Ga -8.611018 -11.490610 -2.871340
Ga -11.486109 -8.615519 -2.871340
Ga -11.486109 -11.490610 0.003751
Ga -8.611018 -8.615519 0.003751
Ga -8.611018 -11.490610 2.878842
Ga -11.486109 -8.615519 2.878842
Ga -8.611018 -8.615519 5.753934
Ga -8.611018 -5.740428 -20.121886
Ga -11.486109 -5.740428 -17.246795
Ga -8.611018 -2.865337 -17.246795
Ga -8.611018 -5.740428 -14.371704
Ga -11.486109 -2.865337 -14.371704
Ga -11.486109 -5.740428 -11.496613
Ga -8.611018 -2.865337 -11.496613
Ga -8.611018 -5.740428 -8.621522
Ga -11.486109 -2.865337 -8.621522
Ga -11.486109 -5.740428 -5.746431
Ga -8.611018 -2.865337 -5.746431
Ga -8.611018 -5.740428 -2.871340
Ga -11.486109 -2.865337 -2.871340
Ga -11.486109 -5.740428 0.003751
Ga -8.611018 -2.865337 0.003751
Ga -8.611018 -5.740428 2.878842
Ga -11.486109 -2.865337 2.878842
Ga -11.486109 -5.740428 5.753934
Ga -8.611018 -2.865337 5.753934
Ga -8.611018 -5.740428 8.629025
Ga -11.486109 -2.865337 8.629025
Ga -8.611018 -2.865337 11.504116
Ga -8.611018 0.009754 -14.371704
Ga -11.486109 0.009754 -11.496613
Ga -8.611018 2.884845 -11.496613
Ga -8.611018 0.009754 -8.621522
Ga -11.486109 2.884845 -8.621522
Ga -11.486109 0.009754 -5.746431
Ga -8.611018 2.884845 -5.746431
Ga -8.611018 0.009754 -2.871340
Ga -11.486109 2.884845 -2.871340
Ga -11.486109 0.009754 0.003751
Ga -8.611018 2.884845 0.003751
Ga -8.611018 0.009754 2.878842
Ga -11.486109 2.884845 2.878842
Ga -11.486109 0.009754 5.753934
Ga -8.611018 2.884845 5.753934
Ga -8.611018 0.009754 8.629025
Ga -11.486109 2.884845 8.629025
Ga -11.486109 0.009754 11.504116
Ga -8.611018 2.884845 11.504116
Ga -8.611018 0.009754 14.379207
Ga -11.486109 2.884845 14.379207
Ga -8.611018 2.884845 17.254298
Ga -8.611018 5.759936 -8.621522
Ga -11.486109 5.759936 -5.746431
Ga -8.611018 8.635027 -5.746431
Ga -8.611018 5.759936 -2.871340
Ga -11.486109 8.635027 -2.871340
Ga -11.486109 5.759936 0.003751
Ga -8.611018 8.635027 0.003751
Ga -8.611018 5.759936 2.878842
Ga -11.486109 8.635027 2.878842
Ga -11.486109 5.759936 5.753934
Ga -8.611018 8.635027 5.753934
Ga -8.611018 5.759936 8.629025
Ga -11.486109 8.635027 8.629025
Ga -11.486109 5.759936 11.504116
Ga -8.611018 8.635027 11.504116
Ga -8.611018 5.759936 14.379207
Ga -11.486109 8.635027 14.379207
Ga -11.486109 5.759936 17.254298
Ga -8.611018 8.635027 17.254298
Ga -8.611018 5.759936 20.129389
Ga -11.486109 8.635027 20.129389
Ga -8.611018 11.510118 -2.871340
Ga -11.486109 11.510118 0.003751
Ga -8.611018 14.385209 0.003751
Ga -8.611018 11.510118 2.878842
Ga -11.486109 14.385209 2.878842
Ga -11.486109 11.510118 5.753934
Ga -8.611018 14.385209 5.753934
Ga -8.611018 11.510118 8.629025
Ga -11.486109 14.385209 8.629025
Ga -11.486109 11.510118 11.504116
Ga -8.611018 14.385209 11.504116
Ga -8.611018 11.510118 14.379207
Ga -11.486109 14.385209 14.379207
Ga -11.486109 11.510118 17.254298
Ga -8.611018 11.510118 20.129389
Ga -11.486109 14.385209 20.129389
Ga -8.611018 17.260300 2.878842
Ga -11.486109 17.260300 5.753934
Ga -8.611018 20.135391 5.753934
Ga -8.611018 17.260300 8.629025
Ga -11.486109 20.135391 8.629025
Ga -11.486109 17.260300 11.504116
Ga -8.611018 20.135391 11.504116
Ga -8.611018 17.260300 14.379207
Ga -11.486109 20.135391 14.379207
Ga -11.486109 17.260300 17.254298
Ga -5.735927 -20.115884 -8.621522
Ga -2.860836 -20.115884 -5.746431
Ga -5.735927 -20.115884 -2.871340
Ga -2.860836 -20.115884 0.003751
Ga -5.735927 -14.365702 -14.371704
Ga -5.735927 -17.240793 -11.496613
Ga -2.860836 -14.365702 -11.496613
Ga -2.860836 -17.240793 -8.621522
Ga -5.735927 -14.365702 -8.621522
Ga -5.735927 -17.240793 -5.746431
Ga -2.860836 -14.365702 -5.746431
Ga -2.860836 -17.240793 -2.871340
Ga -5.735927 -14.365702 -2.871340
Ga -5.735927 -17.240793 0.003751
Ga -2.860836 -14.365702 0.003751
Ga -2.860836 -17.240793 2.878842
Ga -5.735927 -14.365702 2.878842
Ga -2.860836 -14.365702 5.753934
Ga -5.735927 -8.615519 -20.121886
Ga -5.735927 -11.490610 -17.246795
Ga -2.860836 -8.615519 -17.246795
Ga -2.860836 -11.490610 -14.371704
Ga -5.735927 -8.615519 -14.371704
Ga -5.735927 -11.490610 -11.496613
Ga -2.860836 -8.615519 -11.496613
Ga -2.860836 -11.490610 -8.621522
Ga -5.735927 -8.615519 -8.621522
Ga -5.735927 -11.490610 -5.746431
Ga -2.860836 -8.615519 -5.746431
Ga -2.860836 -11.490610 -2.871340
Ga -5.735927 -8.615519 -2.871340
Ga -5.735927 -11.490610 0.003751
Ga -2.860836 -8.615519 0.003751
Ga -2.860836 -11.490610 2.878842
Ga -5.735927 -8.615519 2.878842
Ga -5.735927 -11.490610 5.753934
Ga -2.860836 -8.615519 5.753934
Ga -2.860836 -11.490610 8.629025
Ga -5.735927 -8.615519 8.629025
Ga -2.860836 -8.615519 11.504116
Ga -2.860836 -5.740428 -20.121886
Ga -5.735927 -2.865337 -20.121886
Ga -5.735927 -5.740428 -17.246795
Ga -2.860836 -2.865337 -17.246795
Ga -2.860836 -5.740428 -14.371704
Ga -5.735927 -2.865337 -14.371704
Ga -5.735927 -5.740428 -11.496613
Ga -2.860836 -2.865337 -11.496613
Ga -2.860836 -5.740428 -8.621522
Ga -5.735927 -2.865337 -8.621522
Ga -5.735927 -5.740428 -5.746431
Ga -2.860836 -2.865337 -5.746431
Ga -2.860836 -5.740428 -2.871340
Ga -5.735927 -2.865337 -2.871340
Ga -5.735927 -5.740428 0.003751
Ga -2.860836 -2.865337 0.003751
Ga -2.860836 -5.740428 2.878842
Ga -5.735927 -2.865337 2.878842
Ga -5.735927 -5.740428 5.753934
Ga -2.860836 -2.865337 5.753934
Ga -2.860836 -5.740428 8.629025
Ga -5.735927 -2.865337 8.629025
Ga -5.735927 -5.740428 11.504116
Ga -2.860836 -2.865337 11.504116
Ga -2.860836 -5.740428 14.379207
Ga -5.735927 -2.865337 14.379207
Ga -2.860836 -2.865337 17.254298
Ga -2.860836 0.009754 -20.121886
Ga -5.735927 0.009754 -17.246795
Ga -2.860836 2.884845 -17.246795
Ga -2.860836 0.009754 -14.371704
Ga -5.735927 2.884845 -14.371704
Ga -5.735927 0.009754 -11.496613
Ga -2.860836 2.884845 -11.496613
Ga -2.860836 0.009754 -8.621522
Ga -5.735927 2.884845 -8.621522
Ga -5.735927 0.009754 -5.746431
Ga -2.860836 2.884845 -5.746431
Ga -2.860836 0.009754 -2.871340
Ga -5.735927 2.884845 -2.871340
Ga -5.735927 0.009754 0.003751
Ga -2.860836 2.884845 0.003751
Ga -2.860836 0.009754 2.878842
Ga -5.735927 2.884845 2.878842
Ga -5.735927 0.009754 5.753934
Ga -2.860836 2.884845 5.753934
Ga -2.860836 0.009754 8.629025
Ga -5.735927 2.884845 8.629025
Ga -5.735927 0.009754 11.504116
Ga -2.860836 2.884845 11.504116
Ga -2.860836 0.009754 14.379207
Ga -5.735927 2.884845 14.379207
Ga -5.735927 0.009754 17.254298
Ga -2.860836 2.884845 17.254298
Ga -2.860836 0.009754 20.129389
Ga -5.735927 2.884845 20.129389
Ga -2.860836 5.759936 -14.371704
Ga -5.735927 5.759936 -11.496613
Ga -2.860836 8.635027 -11.496613
Ga -2.860836 5.759936 -8.621522
Ga -5.735927 8.635027 -8.621522
Ga -5.735927 5.759936 -5.746431
Ga -2.860836 8.635027 -5.746431
Ga -2.860836 5.759936 -2.871340
Ga -5.735927 8.635027 -2.871340
Ga -5.735927 5.759936 0.003751
Ga -2.860836 8.635027 0.003751
Ga -2.860836 5.759936 2.878842
Ga -5.735927 8.635027 2.878842
Ga -5.735927 5.759936 5.753934
Ga -2.860836 8.635027 5.753934
Ga -2.860836 5.759936 8.629025
Ga -5.735927 8.635027 8.629025
Ga -5.735927 5.759936 11.504116
Ga -2.860836 8.635027 11.504116
Ga -2.860836 5.759936 14.379207
Ga -5.735927 8.635027 14.379207
Ga -5.735927 5.759936 17.254298
Ga -2.860836 8.635027 17.254298
Ga -2.860836 5.759936 20.129389
Ga -5.735927 8.635027 20.129389
Ga -2.860836 11.510118 -8.621522
Ga -5.735927 11.510118 -5.746431
Ga -2.860836 14.385209 -5.746431
Ga -2.860836 11.510118 -2.871340
Ga -5.735927 14.385209 -2.871340
Ga -5.735927 11.510118 0.003751
Ga -2.860836 14.385209 0.003751
Ga -2.860836 11.510118 2.878842
Ga -5.735927 14.385209 2.878842
Ga -5.735927 11.510118 5.753934
Ga -2.860836 14.385209 5.753934
Ga -2.860836 11.510118 8.629025
Ga -5.735927 14.385209 8.629025
Ga -5.735927 11.510118 11.504116
Ga -2.860836 14.385209 11.504116
Ga -2.860836 11.510118 14.379207
Ga -5.735927 14.385209 14.379207
Ga -5.735927 11.510118 17.254298
Ga -2.860836 17.260300 -2.871340
Ga -5.735927 17.260300 0.003751
Ga -2.860836 20.135391 0.003751
Ga -2.860836 17.260300 2.878842
Ga -5.735927 20.135391 2.878842
Ga -5.735927 17.260300 5.753934
Ga -2.860836 20.135391 5.753934
Ga -2.860836 17.260300 8.629025
Ga -5.735927 20.135391 8.629025
Ga -5.735927 17.260300 11.504116
Ga 0.014255 -20.115884 -2.871340
Ga 2.889346 -20.115884 0.003751
Ga 0.014255 -20.115884 2.878842
Ga 2.889346 -20.115884 5.753934
Ga 0.014255 -14.365702 -8.621522
Ga 0.014255 -17.240793 -5.746431
Ga 2.889346 -14.365702 -5.746431
Ga 2.889346 -17.240793 -2.871340
Ga 0.014255 -14.365702 -2.871340
Ga 0.014255 -17.240793 0.003751
Ga 2.889346 -14.365702 0.003751
Ga 2.889346 -17.240793 2.878842
Ga 0.014255 -14.365702 2.878842
Ga 0.014255 -17.240793 5.753934
Ga 2.889346 -14.365702 5.753934
Ga 2.889346 -17.240793 8.629025
Ga 0.014255 -14.365702 8.629025
Ga 2.889346 -14.365702 11.504116
Ga 0.014255 -8.615519 -14.371704
Ga 0.014255 -11.490610 -11.496613
Ga 2.889346 -8.615519 -11.496613
Ga 2.889346 -11.490610 -8.621522
Ga 0.014255 -8.615519 -8.621522
Ga 0.014255 -11.490610 -5.746431
Ga 2.889346 -8.615519 -5.746431
Ga 2.889346 -11.490610 -2.871340
Ga 0.014255 -8.615519 -2.871340
Ga 0.014255 -11.490610 0.003751
Ga 2.889346 -8.615519 0.003751
Ga 2.889346 -11.490610 2.878842
Ga 0.014255 -8.615519 2.878842
Ga 0.014255 -11.490610 5.753934
Ga 2.889346 -8.615519 5.753934
Ga 2.889346 -11.490610 8.629025
Ga 0.014255 -8.615519 8.629025
Ga 0.014255 -11.490610 11.504116
Ga 2.889346 -8.615519 11.504116
Ga 2.889346 -11.490610 14.379207
Ga 0.014255 -8.615519 14.379207
Ga 2.889346 -8.615519 17.254298
Ga 0.014255 -2.865337 -20.121886
Ga 0.014255 -5.740428 -17.246795
Ga 2.889346 -2.865337 -17.246795
Ga 2.889346 -5.740428 -14.371704
Ga 0.014255 -2.865337 -14.371704
Ga 0.014255 -5.740428 -11.496613
Ga 2.889346 -2.865337 -11.496613
Ga 2.889346 -5.740428 -8.621522
Ga 0.014255 -2.865337 -8.621522
Ga 0.014255 -5.740428 -5.746431
Ga 2.889346 -2.865337 -5.746431
Ga 2.889346 -5.740428 -2.871340
Ga 0.014255 -2.865337 -2.871340
Ga 0.014255 -5.740428 0.003751
Ga 2.889346 -2.865337 0.003751
Ga 2.889346 -5.740428 2.878842
Ga 0.014255 -2.865337 2.878842
Ga 0.014255 -5.740428 5.753934
Ga 2.889346 -2.865337 5.753934
Ga 2.889346 -5.740428 8.629025
Ga 0.014255 -2.865337 8.629025
Ga 0.014255 -5.740428 11.504116
Ga 2.889346 -2.865337 11.504116
Ga 2.889346 -5.740428 14.379207
Ga 0.014255 -2.865337 14.379207
Ga 0.014255 -5.740428 17.254298
Ga 2.889346 -2.865337 17.254298
Ga 2.889346 -5.740428 20.129389
Ga 0.014255 -2.865337 20.129389
Ga 2.889346 0.009754 -20.121886
Ga 0.014255 2.884845 -20.121886
Ga 0.014255 0.009754 -17.246795
Ga 2.889346 2.884845 -17.246795
Ga 2.889346 0.009754 -14.371704
Ga 0.014255 2.884845 -14.371704
Ga 0.014255 0.009754 -11.496613
Ga 2.889346 2.884845 -11.496613
Ga 2.889346 0.009754 -8.621522
Ga 0.014255 2.884845 -8.621522
Ga 0.014255 0.009754 -5.746431
Ga 2.889346 2.884845 -5.746431
Ga 2.889346 0.009754 -2.871340
Ga 0.014255 2.884845 -2.871340
Ga 0.014255 0.009754 0.003751
Ga 2.889346 2.884845 0.003751
Ga 2.889346 0.009754 2.878842
Ga 0.014255 2.884845 2.878842
Ga 0.014255 0.009754 5.753934
Ga 2.889346 2.884845 5.753934
Ga 2.889346 0.009754 8.629025
Ga 0.014255 2.884845 8.629025
Ga 0.014255 0.009754 11.504116
Ga 2.889346 2.884845 11.504116
Ga 2.889346 0.009754 14.379207
Ga 0.014255 2.884845 14.379207
Ga 0.014255 0.009754 17.254298
Ga 2.889346 2.884845 17.254298
Ga 2.889346 0.009754 20.129389
Ga 0.014255 2.884845 20.129389
Ga 2.889346 5.759936 -20.121886
Ga 0.014255 5.759936 -17.246795
Ga 2.889346 8.635027 -17.246795
Ga 2.889346 5.759936 -14.371704
Ga 0.014255 8.635027 -14.371704
Ga 0.014255 5.759936 -11.496613
Ga 2.889346 8.635027 -11.496613
Ga 2.889346 5.759936 -8.621522
Ga 0.014255 8.635027 -8.621522
Ga 0.014255 5.759936 -5.746431
Ga 2.889346 8.635027 -5.746431
Ga 2.889346 5.759936 -2.871340
Ga 0.014255 8.635027 -2.871340
Ga 0.014255 5.759936 0.003751
Ga 2.889346 8.635027 0.003751
Ga 2.889346 5.759936 2.878842
Ga 0.014255 8.635027 2.878842
Ga 0.014255 5.759936 5.753934
Ga 2.889346 8.635027 5.753934
Ga 2.889346 5.759936 8.629025
Ga 0.014255 8.635027 8.629025
Ga 0.014255 5.759936 11.504116
Ga 2.889346 8.635027 11.504116
Ga 2.889346 5.759936 14.379207
Ga 0.014255 8.635027 14.379207
Ga 0.014255 5.759936 17.254298
Ga 2.889346 11.510118 -14.371704
Ga 0.014255 11.510118 -11.496613
Ga 2.889346 14.385209 -11.496613
Ga 2.889346 11.510118 -8.621522
Ga 0.014255 14.385209 -8.621522
Ga 0.014255 11.510118 -5.746431
Ga 2.889346 14.385209 -5.746431
Ga 2.889346 11.510118 -2.871340
Ga 0.014255 14.385209 -2.871340
Ga 0.014255 11.510118 0.003751
Ga 2.889346 14.385209 0.003751
Ga 2.889346 11.510118 2.878842
Ga 0.014255 14.385209 2.878842
Ga 0.014255 11.510118 5.753934
Ga 2.889346 14.385209 5.753934
Ga 2.889346 11.510118 8.629025
Ga 0.014255 14.385209 8.629025
Ga 0.014255 11.510118 11.504116
Ga 2.889346 17.260300 -8.621522
Ga 0.014255 17.260300 -5.746431
Ga 2.889346 20.135391 -5.746431
Ga 2.889346 17.260300 -2.871340
Ga 0.014255 20.135391 -2.871340
Ga 0.014255 17.260300 0.003751
Ga 2.889346 20.135391 0.003751
Ga 2.889346 17.260300 2.878842
Ga 0.014255 20.135391 2.878842
Ga 0.014255 17.260300 5.753934
Ga 5.764438 -20.115884 2.878842
Ga 8.639529 -20.115884 5.753934
Ga 5.764438 -20.115884 8.629025
Ga 8.639529 -20.115884 11.504116
Ga 5.764438 -14.365702 -2.871340
Ga 5.764438 -17.240793 0.003751
Ga 8.639529 -14.365702 0.003751
Ga 8.639529 -17.240793 2.878842
Ga 5.764438 -14.365702 2.878842
Ga 5.764438 -17.240793 5.753934
Ga 8.639529 -14.365702 5.753934
Ga 8.639529 -17.240793 8.629025
Ga 5.764438 -14.365702 8.629025
Ga 5.764438 -17.240793 11.504116
Ga 8.639529 -14.365702 11.504116
Ga 8.639529 -17.240793 14.379207
Ga 5.764438 -14.365702 14.379207
Ga 5.764438 -8.615519 -8.621522
Ga 5.764438 -11.490610 -5.746431
Ga 8.639529 -8.615519 -5.746431
Ga 8.639529 -11.490610 -2.871340
Ga 5.764438 -8.615519 -2.871340
Ga 5.764438 -11.490610 0.003751
Ga 8.639529 -8.615519 0.003751
Ga 8.639529 -11.490610 2.878842
Ga 5.764438 -8.615519 2.878842
Ga 5.764438 -11.490610 5.753934
Ga 8.639529 -8.615519 5.753934
Ga 8.639529 -11.490610 8.629025
Ga 5.764438 -8.615519 8.629025
Ga 5.764438 -11.490610 11.504116
Ga 8.639529 -8.615519 11.504116
Ga 8.639529 -11.490610 14.379207
Ga 5.764438 -8.615519 14.379207
Ga 5.764438 -11.490610 17.254298
Ga 8.639529 -8.615519 17.254298
Ga 8.639529 -11.490610 20.129389
Ga 5.764438 -8.615519 20.129389
Ga 5.764438 -2.865337 -14.371704
Ga 5.764438 -5.740428 -11.496613
Ga 8.639529 -2.865337 -11.496613
Ga 8.639529 -5.740428 -8.621522
Ga 5.764438 -2.865337 -8.621522
Ga 5.764438 -5.740428 -5.746431
Ga 8.639529 -2.865337 -5.746431
Ga 8.639529 -5.740428 -2.871340
Ga 5.764438 -2.865337 -2.871340
Ga 5.764438 -5.740428 0.003751
Ga 8.639529 -2.865337 0.003751
Ga 8.639529 -5.740428 2.878842
Ga 5.764438 -2.865337 2.878842
Ga 5.764438 -5.740428 5.753934
Ga 8.639529 -2.865337 5.753934
Ga 8.639529 -5.740428 8.629025
Ga 5.764438 -2.865337 8.629025
Ga 5.764438 -5.740428 11.504116
Ga 8.639529 -2.865337 11.504116
Ga 8.639529 -5.740428 14.379207
Ga 5.764438 -2.865337 14.379207
Ga 5.764438 -5.740428 17.254298
Ga 8.639529 -2.865337 17.254298
Ga 8.639529 -5.740428 20.129389
Ga 5.764438 -2.865337 20.129389
Ga 5.764438 2.884845 -20.121886
Ga 5.764438 0.009754 -17.246795
Ga 8.639529 2.884845 -17.246795
Ga 8.639529 0.009754 -14.371704
Ga 5.764438 2.884845 -14.371704
Ga 5.764438 0.009754 -11.496613
Ga 8.639529 2.884845 -11.496613
Ga 8.639529 0.009754 -8.621522
Ga 5.764438 2.884845 -8.621522
Ga 5.764438 0.009754 -5.746431
Ga 8.639529 2.884845 -5.746431
Ga 8.639529 0.009754 -2.871340
Ga 5.764438 2.884845 -2.871340
Ga 5.764438 0.009754 0.003751
Ga 8.639529 2.884845 0.003751
Ga 8.639529 0.009754 2.878842
Ga 5.764438 2.884845 2.878842
Ga 5.764438 0.009754 5.753934
Ga 8.639529 2.884845 5.753934
Ga 8.639529 0.009754 8.629025
Ga 5.764438 2.884845 8.629025
Ga 5.764438 0.009754 11.504116
Ga 8.639529 2.884845 11.504116
Ga 8.639529 0.009754 14.379207
Ga 5.764438 2.884845 14.379207
Ga 5.764438 0.009754 17.254298
Ga 8.639529 5.759936 -20.121886
Ga 5.764438 8.635027 -20.121886
Ga 5.764438 5.759936 -17.246795
Ga 8.639529 8.635027 -17.246795
Ga 8.639529 5.759936 -14.371704
Ga 5.764438 8.635027 -14.371704
Ga 5.764438 5.759936 -11.496613
Ga 8.639529 8.635027 -11.496613
Ga 8.639529 5.759936 -8.621522
Ga 5.764438 8.635027 -8.621522
Ga 5.764438 5.759936 -5.746431
Ga 8.639529 8.635027 -5.746431
Ga 8.639529 5.759936 -2.871340
Ga 5.764438 8.635027 -2.871340
Ga 5.764438 5.759936 0.003751
Ga 8.639529 8.635027 0.003751
Ga 8.639529 5.759936 2.878842
Ga 5.764438 8.635027 2.878842
Ga 5.764438 5.759936 5.753934
Ga 8.639529 8.635027 5.753934
Ga 8.639529 5.759936 8.629025
Ga 5.764438 8.635027 8.629025
Ga 5.764438 5.759936 11.504116
Ga 8.639529 11.510118 -20.121886
Ga 5.764438 11.510118 -17.246795
Ga 8.639529 11.510118 -14.371704
Ga 5.764438 14.385209 -14.371704
Ga 5.764438 11.510118 -11.496613
Ga 8.639529 14.385209 -11.496613
Ga 8.639529 11.510118 -8.621522
Ga 5.764438 14.385209 -8.621522
Ga 5.764438 11.510118 -5.746431
Ga 8.639529 14.385209 -5.746431
Ga 8.639529 11.510118 -2.871340
Ga 5.764438 14.385209 -2.871340
Ga 5.764438 11.510118 0.003751
Ga 8.639529 14.385209 0.003751
Ga 8.639529 11.510118 2.878842
Ga 5.764438 14.385209 2.878842
Ga 5.764438 11.510118 5.753934
Ga 8.639529 17.260300 -14.371704
Ga 5.764438 17.260300 -11.496613
Ga 8.639529 20.135391 -11.496613
Ga 8.639529 17.260300 -8.621522
Ga 5.764438 20.135391 -8.621522
Ga 5.764438 17.260300 -5.746431
Ga 8.639529 20.135391 -5.746431
Ga 8.639529 17.260300 -2.871340
Ga 5.764438 20.135391 -2.871340
Ga 5.764438 17.260300 0.003751
Ga 11.514620 -20.115884 8.629025
Ga 14.389711 -20.115884 11.504116
Ga 11.514620 -20.115884 14.379207
Ga 11.514620 -14.365702 2.878842
Ga 11.514620 -17.240793 5.753934
Ga 14.389711 -14.365702 5.753934
Ga 14.389711 -17.240793 8.629025
Ga 11.514620 -14.365702 8.629025
Ga 11.514620 -17.240793 11.504116
Ga 14.389711 -14.365702 11.504116
Ga 14.389711 -17.240793 14.379207
Ga 11.514620 -14.365702 14.379207
Ga 11.514620 -17.240793 17.254298
Ga 11.514620 -14.365702 20.129389
Ga 11.514620 -8.615519 -2.871340
Ga 11.514620 -11.490610 0.003751
Ga 14.389711 -8.615519 0.003751
Ga 14.389711 -11.490610 2.878842
Ga 11.514620 -8.615519 2.878842
Ga 11.514620 -11.490610 5.753934
Ga 14.389711 -8.615519 5.753934
Ga 14.389711 -11.490610 8.629025
Ga 11.514620 -8.615519 8.629025
Ga 11.514620 -11.490610 11.504116
Ga 14.389711 -8.615519 11.504116
Ga 14.389711 -11.490610 14.379207
Ga 11.514620 -8.615519 14.379207
Ga 11.514620 -11.490610 17.254298
Ga 14.389711 -8.615519 17.254298
Ga 14.389711 -11.490610 20.129389
Ga 11.514620 -8.615519 20.129389
Ga 11.514620 -2.865337 -8.621522
Ga 11.514620 -5.740428 -5.746431
Ga 14.389711 -2.865337 -5.746431
Ga 14.389711 -5.740428 -2.871340
Ga 11.514620 -2.865337 -2.871340
Ga 11.514620 -5.740428 0.003751
Ga 14.389711 -2.865337 0.003751
Ga 14.389711 -5.740428 2.878842
Ga 11.514620 -2.865337 2.878842
Ga 11.514620 -5.740428 5.753934
Ga 14.389711 -2.865337 5.753934
Ga 14.389711 -5.740428 8.629025
Ga 11.514620 -2.865337 8.629025
Ga 11.514620 -5.740428 11.504116
Ga 14.389711 -2.865337 11.504116
Ga 14.389711 -5.740428 14.379207
Ga 11.514620 -2.865337 14.379207
Ga 11.514620 -5.740428 17.254298
Ga 11.514620 2.884845 -14.371704
Ga 11.514620 0.009754 -11.496613
Ga 14.389711 2.884845 -11.496613
Ga 14.389711 0.009754 -8.621522
Ga 11.514620 2.884845 -8.621522
Ga 11.514620 0.009754 -5.746431
Ga 14.389711 2.884845 -5.746431
Ga 14.389711 0.009754 -2.871340
Ga 11.514620 2.884845 -2.871340
Ga 11.514620 0.009754 0.003751
Ga 14.389711 2.884845 0.003751
Ga 14.389711 0.009754 2.878842
Ga 11.514620 2.884845 2.878842
Ga 11.514620 0.009754 5.753934
Ga 14.389711 2.884845 5.753934
Ga 14.389711 0.009754 8.629025
Ga 11.514620 2.884845 8.629025
Ga 11.514620 0.009754 11.504116
Ga 11.514620 8.635027 -20.121886
Ga 11.514620 5.759936 -17.246795
Ga 14.389711 8.635027 -17.246795
Ga 14.389711 5.759936 -14.371704
Ga 11.514620 8.635027 -14.371704
Ga 11.514620 5.759936 -11.496613
Ga 14.389711 8.635027 -11.496613
Ga 14.389711 5.759936 -8.621522
Ga 11.514620 8.635027 -8.621522
Ga 11.514620 5.759936 -5.746431
Ga 14.389711 8.635027 -5.746431
Ga 14.389711 5.759936 -2.871340
Ga 11.514620 8.635027 -2.871340
Ga 11.514620 5.759936 0.003751
Ga 14.389711 8.635027 0.003751
Ga 14.389711 5.759936 2.878842
Ga 11.514620 8.635027 2.878842
Ga 11.514620 5.759936 5.753934
Ga 14.389711 11.510118 -20.121886
Ga 11.514620 14.385209 -20.121886
Ga 11.514620 11.510118 -17.246795
Ga 14.389711 11.510118 -14.371704
Ga 11.514620 14.385209 -14.371704
Ga 11.514620 11.510118 -11.496613
Ga 14.389711 14.385209 -11.496613
Ga 14.389711 11.510118 -8.621522
Ga 11.514620 14.385209 -8.621522
Ga 11.514620 11.510118 -5.746431
Ga 14.389711 14.385209 -5.746431
Ga 14.389711 11.510118 -2.871340
Ga 11.514620 14.385209 -2.871340
Ga 11.514620 11.510118 0.003751
Ga 11.514620 17.260300 -17.246795
Ga 14.389711 17.260300 -14.371704
Ga 11.514620 20.135391 -14.371704
Ga 11.514620 17.260300 -11.496613
Ga 14.389711 20.135391 -11.496613
Ga 14.389711 17.260300 -8.621522
Ga 11.514620 20.135391 -8.621522
Ga 11.514620 17.260300 -5.746431
Ga 17.264802 -14.365702 8.629025
Ga 17.264802 -17.240793 11.504116
Ga 20.139893 -14.365702 11.504116
Ga 17.264802 -14.365702 14.379207
Ga 17.264802 -8.615519 2.878842
Ga 17.264802 -11.490610 5.753934
Ga 20.139893 -8.615519 5.753934
Ga 20.139893 -11.490610 8.629025
Ga 17.264802 -8.615519 8.629025
Ga 17.264802 -11.490610 11.504116
Ga 20.139893 -8.615519 11.504116
Ga 20.139893 -11.490610 14.379207
Ga 17.264802 -8.615519 14.379207
Ga 17.264802 -11.490610 17.254298
Ga 17.264802 -2.865337 -2.871340
Ga 17.264802 -5.740428 0.003751
Ga 20.139893 -2.865337 0.003751
Ga 20.139893 -5.740428 2.878842
Ga 17.264802 -2.865337 2.878842
Ga 17.264802 -5.740428 5.753934
Ga 20.139893 -2.865337 5.753934
Ga 20.139893 -5.740428 8.629025
Ga 17.264802 -2.865337 8.629025
Ga 17.264802 -5.740428 11.504116
Ga 17.264802 2.884845 -8.621522
Ga 17.264802 0.009754 -5.746431
Ga 20.139893 2.884845 -5.746431
Ga 20.139893 0.009754 -2.871340
Ga 17.264802 2.884845 -2.871340
Ga 17.264802 0.009754 0.003751
Ga 20.139893 2.884845 0.003751
Ga 20.139893 0.009754 2.878842
Ga 17.264802 2.884845 2.878842
Ga 17.264802 0.009754 5.753934
Ga 17.264802 8.635027 -14.371704
Ga 17.264802 5.759936 -11.496613
Ga 20.139893 8.635027 -11.496613
Ga 20.139893 5.759936 -8.621522
Ga 17.264802 8.635027 -8.621522
Ga 17.264802 5.759936 -5.746431
Ga 20.139893 8.635027 -5.746431
Ga 20.139893 5.759936 -2.871340
Ga 17.264802 8.635027 -2.871340
Ga 17.264802 5.759936 0.003751
Ga 17.264802 11.510118 -17.246795
Ga 20.139893 11.510118 -14.371704
Ga 17.264802 14.385209 -14.371704
Ga 17.264802 11.510118 -11.496613
Ga 20.139893 14.385209 -11.496613
Ga 20.139893 11.510118 -8.621522
Ga 17.264802 14.385209 -8.621522
Ga 17.264802 11.510118 -5.746431
Ga 17.264802 17.260300 -11.496613
As -18.673836 -12.928156 -15.809249
As -18.673836 -12.928156 -10.059067
As -18.673836 -10.053065 -12.934158
As -18.673836 -7.177974 -10.059067
As -18.673836 -10.053065 -7.183976
As -18.673836 -7.177974 -4.308885
As -18.673836 -4.302883 -7.183976
As -18.673836 -1.427792 -4.308885
As -18.673836 -4.302883 -1.433794
As -18.673836 -1.427792 1.441297
As -18.673836 1.447299 -1.433794
As -18.673836 4.322390 1.441297
As -18.673836 1.447299 4.316388
As -18.673836 4.322390 7.191479
As -18.673836 7.197481 4.316388
As -18.673836 10.072572 7.191479
As -18.673836 7.197481 10.066570
As -18.673836 10.072572 12.941661
As -18.673836 12.947663 10.066570
As -18.673836 12.947663 15.816752
As -15.798745 -18.678338 -12.934158
As -12.923654 -18.678338 -10.059067
As -15.798745 -12.928156 -12.934158
As -12.923654 -12.928156 -15.809249
As -12.923654 -15.803247 -12.934158
As -15.798745 -15.803247 -10.059067
As -15.798745 -12.928156 -7.183976
As -12.923654 -12.928156 -10.059067
As -12.923654 -15.803247 -7.183976
As -12.923654 -12.928156 -4.308885
As -12.923654 -10.053065 -18.684340
As -15.798745 -10.053065 -15.809249
As -15.798745 -7.177974 -12.934158
As -12.923654 -7.177974 -15.809249
As -12.923654 -10.053065 -12.934158
As -15.798745 -10.053065 -10.059067
As -15.798745 -7.177974 -7.183976
As -12.923654 -7.177974 -10.059067
As -12.923654 -10.053065 -7.183976
As -15.798745 -10.053065 -4.308885
As -15.798745 -7.177974 -1.433794
As -12.923654 -7.177974 -4.308885
As -12.923654 -10.053065 -1.433794
As -12.923654 -7.177974 1.441297
As -12.923654 -4.302883 -12.934158
As -15.798745 -4.302883 -10.059067
As -15.798745 -1.427792 -7.183976
As -12.923654 -1.427792 -10.059067
As -12.923654 -4.302883 -7.183976
As -15.798745 -4.302883 -4.308885
As -15.798745 -1.427792 -1.433794
As -12.923654 -1.427792 -4.308885
As -12.923654 -4.302883 -1.433794
As -15.798745 -4.302883 1.441297
As -15.798745 -1.427792 4.316388
As -12.923654 -1.427792 1.441297
As -12.923654 -4.302883 4.316388
As -12.923654 -1.427792 7.191479
As -12.923654 1.447299 -7.183976
As -15.798745 1.447299 -4.308885
As -15.798745 4.322390 -1.433794
As -12.923654 4.322390 -4.308885
As -12.923654 1.447299 -1.433794
As -15.798745 1.447299 1.441297
As -15.798745 4.322390 4.316388
As -12.923654 4.322390 1.441297
As -12.923654 1.447299 4.316388
As -15.798745 1.447299 7.191479
As -15.798745 4.322390 10.066570
As -12.923654 4.322390 7.191479
As -12.923654 1.447299 10.066570
As -12.923654 4.322390 12.941661
As -12.923654 7.197481 -1.433794
As -15.798745 7.197481 1.441297
As -15.798745 10.072572 4.316388
As -12.923654 10.072572 1.441297
As -12.923654 7.197481 4.316388
As -15.798745 7.197481 7.191479
As -15.798745 10.072572 10.066570
As -12.923654 10.072572 7.191479
As -12.923654 7.197481 10.066570
As -15.798745 7.197481 12.941661
As -15.798745 10.072572 15.816752
As -12.923654 10.072572 12.941661
As -12.923654 7.197481 15.816752
As -12.923654 10.072572 18.691843
As -12.923654 12.947663 4.316388
As -15.798745 12.947663 7.191479
As -15.798745 15.822754 10.066570
As -12.923654 15.822754 7.191479
As -12.923654 12.947663 10.066570
As -15.798745 12.947663 12.941661
As -12.923654 15.822754 12.941661
As -12.923654 12.947663 15.816752
As -12.923654 18.697846 10.066570
As -15.798745 18.697846 12.941661
As -10.048563 -18.678338 -12.934158
As -10.048563 -18.678338 -7.183976
As -7.173472 -18.678338 -10.059067
As -7.173472 -18.678338 -4.308885
As -10.048563 -12.928156 -18.684340
As -10.048563 -15.803247 -15.809249
As -10.048563 -12.928156 -12.934158
As -7.173472 -12.928156 -15.809249
As -7.173472 -15.803247 -12.934158
As -10.048563 -15.803247 -10.059067
As -10.048563 -12.928156 -7.183976
As -7.173472 -12.928156 -10.059067
As -7.173472 -15.803247 -7.183976
As -10.048563 -15.803247 -4.308885
As -10.048563 -12.928156 -1.433794
As -7.173472 -12.928156 -4.308885
As -7.173472 -15.803247 -1.433794
As -7.173472 -12.928156 1.441297
As -10.048563 -7.177974 -18.684340
As -7.173472 -10.053065 -18.684340
As -10.048563 -10.053065 -15.809249
As -10.048563 -7.177974 -12.934158
As -7.173472 -7.177974 -15.809249
As -7.173472 -10.053065 -12.934158
As -10.048563 -10.053065 -10.059067
As -10.048563 -7.177974 -7.183976
As -7.173472 -7.177974 -10.059067
As -7.173472 -10.053065 -7.183976
As -10.048563 -10.053065 -4.308885
As -10.048563 -7.177974 -1.433794
As -7.173472 -7.177974 -4.308885
As -7.173472 -10.053065 -1.433794
As -10.048563 -10.053065 1.441297
As -10.048563 -7.177974 4.316388
As -7.173472 -7.177974 1.441297
As -7.173472 -10.053065 4.316388
As -7.173472 -7.177974 7.191479
As -7.173472 -4.302883 -18.684340
As -10.048563 -4.302883 -15.809249
As -10.048563 -1.427792 -12.934158
As -7.173472 -1.427792 -15.809249
As -7.173472 -4.302883 -12.934158
As -10.048563 -4.302883 -10.059067
As -10.048563 -1.427792 -7.183976
As -7.173472 -1.427792 -10.059067
As -7.173472 -4.302883 -7.183976
As -10.048563 -4.302883 -4.308885
As -10.048563 -1.427792 -1.433794
As -7.173472 -1.427792 -4.308885
As -7.173472 -4.302883 -1.433794
As -10.048563 -4.302883 1.441297
As -10.048563 -1.427792 4.316388
As -7.173472 -1.427792 1.441297
As -7.173472 -4.302883 4.316388
As -10.048563 -4.302883 7.191479
As -10.048563 -1.427792 10.066570
As -7.173472 -1.427792 7.191479
As -7.173472 -4.302883 10.066570
As -7.173472 -1.427792 12.941661
As -7.173472 1.447299 -12.934158
As -10.048563 1.447299 -10.059067
As -10.048563 4.322390 -7.183976
As -7.173472 4.322390 -10.059067
As -7.173472 1.447299 -7.183976
As -10.048563 1.447299 -4.308885
As -10.048563 4.322390 -1.433794
As -7.173472 4.322390 -4.308885
As -7.173472 1.447299 -1.433794
As -10.048563 1.447299 1.441297
As -10.048563 4.322390 4.316388
As -7.173472 4.322390 1.441297
As -7.173472 1.447299 4.316388
As -10.048563 1.447299 7.191479
As -10.048563 4.322390 10.066570
As -7.173472 4.322390 7.191479
As -7.173472 1.447299 10.066570
As -10.048563 1.447299 12.941661
As -10.048563 4.322390 15.816752
As -7.173472 4.322390 12.941661
As -7.173472 1.447299 15.816752
As -7.173472 4.322390 18.691843
As -7.173472 7.197481 -7.183976
As -10.048563 7.197481 -4.308885
As -10.048563 10.072572 -1.433794
As -7.173472 10.072572 -4.308885
As -7.173472 7.197481 -1.433794
As -10.048563 7.197481 1.441297
As -10.048563 10.072572 4.316388
As -7.173472 10.072572 1.441297
As -7.173472 7.197481 4.316388
As -10.048563 7.197481 7.191479
As -10.048563 10.072572 10.066570
As -7.173472 10.072572 7.191479
As -7.173472 7.197481 10.066570
As -10.048563 7.197481 12.941661
As -10.048563 10.072572 15.816752
As -7.173472 10.072572 12.941661
As -7.173472 7.197481 15.816752
As -10.048563 7.197481 18.691843
As -7.173472 10.072572 18.691843
As -7.173472 12.947663 -1.433794
As -10.048563 12.947663 1.441297
As -10.048563 15.822754 4.316388
As -7.173472 15.822754 1.441297
As -7.173472 12.947663 4.316388
As -10.048563 12.947663 7.191479
As -10.048563 15.822754 10.066570
As -7.173472 15.822754 7.191479
As -7.173472 12.947663 10.066570
As -10.048563 12.947663 12.941661
As -10.048563 15.822754 15.816752
As -7.173472 15.822754 12.941661
As -7.173472 12.947663 15.816752
As -10.048563 12.947663 18.691843
As -7.173472 18.697846 4.316388
As -10.048563 18.697846 7.191479
As -7.173472 18.697846 10.066570
As -10.048563 18.697846 12.941661
As -4.298381 -18.678338 -7.183976
As -4.298381 -18.678338 -1.433794
As -1.423290 -18.678338 -4.308885
As -1.423290 -18.678338 1.441297
As -4.298381 -12.928156 -12.934158
As -4.298381 -15.803247 -10.059067
As -4.298381 -12.928156 -7.183976
As -1.423290 -12.928156 -10.059067
As -1.423290 -15.803247 -7.183976
As -4.298381 -15.803247 -4.308885
As -4.298381 -12.928156 -1.433794
As -1.423290 -12.928156 -4.308885
As -1.423290 -15.803247 -1.433794
As -4.298381 -15.803247 1.441297
As -4.298381 -12.928156 4.316388
As -1.423290 -12.928156 1.441297
As -1.423290 -15.803247 4.316388
As -1.423290 -12.928156 7.191479
As -4.298381 -7.177974 -18.684340
As -4.298381 -10.053065 -15.809249
As -4.298381 -7.177974 -12.934158
As -1.423290 -7.177974 -15.809249
As -1.423290 -10.053065 -12.934158
As -4.298381 -10.053065 -10.059067
As -4.298381 -7.177974 -7.183976
As -1.423290 -7.177974 -10.059067
As -1.423290 -10.053065 -7.183976
As -4.298381 -10.053065 -4.308885
As -4.298381 -7.177974 -1.433794
As -1.423290 -7.177974 -4.308885
As -1.423290 -10.053065 -1.433794
As -4.298381 -10.053065 1.441297
As -4.298381 -7.177974 4.316388
As -1.423290 -7.177974 1.441297
As -1.423290 -10.053065 4.316388
As -4.298381 -10.053065 7.191479
As -4.298381 -7.177974 10.066570
As -1.423290 -7.177974 7.191479
As -1.423290 -10.053065 10.066570
As -1.423290 -7.177974 12.941661
As -4.298381 -1.427792 -18.684340
As -1.423290 -4.302883 -18.684340
As -4.298381 -4.302883 -15.809249
As -4.298381 -1.427792 -12.934158
As -1.423290 -1.427792 -15.809249
As -1.423290 -4.302883 -12.934158
As -4.298381 -4.302883 -10.059067
As -4.298381 -1.427792 -7.183976
As -1.423290 -1.427792 -10.059067
As -1.423290 -4.302883 -7.183976
As -4.298381 -4.302883 -4.308885
As -4.298381 -1.427792 -1.433794
As -1.423290 -1.427792 -4.308885
As -1.423290 -4.302883 -1.433794
As -4.298381 -4.302883 1.441297
As -4.298381 -1.427792 4.316388
As -1.423290 -1.427792 1.441297
As -1.423290 -4.302883 4.316388
As -4.298381 -4.302883 7.191479
As -4.298381 -1.427792 10.066570
As -1.423290 -1.427792 7.191479
As -1.423290 -4.302883 10.066570
As -4.298381 -4.302883 12.941661
As -4.298381 -1.427792 15.816752
As -1.423290 -1.427792 12.941661
As -1.423290 -4.302883 15.816752
As -1.423290 -1.427792 18.691843
As -1.423290 1.447299 -18.684340
As -4.298381 1.447299 -15.809249
As -4.298381 4.322390 -12.934158
As -1.423290 4.322390 -15.809249
As -1.423290 1.447299 -12.934158
As -4.298381 1.447299 -10.059067
As -4.298381 4.322390 -7.183976
As -1.423290 4.322390 -10.059067
As -1.423290 1.447299 -7.183976
As -4.298381 1.447299 -4.308885
As -4.298381 4.322390 -1.433794
As -1.423290 4.322390 -4.308885
As -1.423290 1.447299 -1.433794
As -4.298381 1.447299 1.441297
As -4.298381 4.322390 4.316388
As -1.423290 4.322390 1.441297
As -1.423290 1.447299 4.316388
As -4.298381 1.447299 7.191479
As -4.298381 4.322390 10.066570
As -1.423290 4.322390 7.191479
As -1.423290 1.447299 10.066570
As -4.298381 1.447299 12.941661
As -4.298381 4.322390 15.816752
As -1.423290 4.322390 12.941661
As -1.423290 1.447299 15.816752
As -4.298381 1.447299 18.691843
As -1.423290 4.322390 18.691843
As -1.423290 7.197481 -12.934158
As -4.298381 7.197481 -10.059067
As -4.298381 10.072572 -7.183976
As -1.423290 10.072572 -10.059067
As -1.423290 7.197481 -7.183976
As -4.298381 7.197481 -4.308885
As -4.298381 10.072572 -1.433794
As -1.423290 10.072572 -4.308885
As -1.423290 7.197481 -1.433794
As -4.298381 7.197481 1.441297
As -4.298381 10.072572 4.316388
As -1.423290 10.072572 1.441297
As -1.423290 7.197481 4.316388
As -4.298381 7.197481 7.191479
As -4.298381 10.072572 10.066570
As -1.423290 10.072572 7.191479
As -1.423290 7.197481 10.066570
As -4.298381 7.197481 12.941661
As -4.298381 10.072572 15.816752
As -1.423290 10.072572 12.941661
As -1.423290 7.197481 15.816752
As -4.298381 7.197481 18.691843
As -1.423290 12.947663 -7.183976
As -4.298381 12.947663 -4.308885
As -4.298381 15.822754 -1.433794
As -1.423290 15.822754 -4.308885
As -1.423290 12.947663 -1.433794
As -4.298381 12.947663 1.441297
As -4.298381 15.822754 4.316388
As -1.423290 15.822754 1.441297
As -1.423290 12.947663 4.316388
As -4.298381 12.947663 7.191479
As -4.298381 15.822754 10.066570
As -1.423290 15.822754 7.191479
As -1.423290 12.947663 10.066570
As -4.298381 12.947663 12.941661
As -1.423290 18.697846 -1.433794
As -4.298381 18.697846 1.441297
As -1.423290 18.697846 4.316388
As -4.298381 18.697846 7.191479
As 1.451801 -18.678338 -1.433794
As 1.451801 -18.678338 4.316388
As 4.326892 -18.678338 1.441297
As 4.326892 -18.678338 7.191479
As 1.451801 -12.928156 -7.183976
As 1.451801 -15.803247 -4.308885
As 1.451801 -12.928156 -1.433794
As 4.326892 -12.928156 -4.308885
As 4.326892 -15.803247 -1.433794
As 1.451801 -15.803247 1.441297
As 1.451801 -12.928156 4.316388
As 4.326892 -12.928156 1.441297
As 4.326892 -15.803247 4.316388
As 1.451801 -15.803247 7.191479
As 1.451801 -12.928156 10.066570
As 4.326892 -12.928156 7.191479
As 4.326892 -15.803247 10.066570
As 4.326892 -12.928156 12.941661
As 1.451801 -7.177974 -12.934158
As 1.451801 -10.053065 -10.059067
As 1.451801 -7.177974 -7.183976
As 4.326892 -7.177974 -10.059067
As 4.326892 -10.053065 -7.183976
As 1.451801 -10.053065 -4.308885
As 1.451801 -7.177974 -1.433794
As 4.326892 -7.177974 -4.308885
As 4.326892 -10.053065 -1.433794
As 1.451801 -10.053065 1.441297
As 1.451801 -7.177974 4.316388
As 4.326892 -7.177974 1.441297
As 4.326892 -10.053065 4.316388
As 1.451801 -10.053065 7.191479
As 1.451801 -7.177974 10.066570
As 4.326892 -7.177974 7.191479
As 4.326892 -10.053065 10.066570
As 1.451801 -10.053065 12.941661
As 1.451801 -7.177974 15.816752
As 4.326892 -7.177974 12.941661
As 4.326892 -10.053065 15.816752
As 4.326892 -7.177974 18.691843
As 1.451801 -1.427792 -18.684340
As 1.451801 -4.302883 -15.809249
As 1.451801 -1.427792 -12.934158
As 4.326892 -1.427792 -15.809249
As 4.326892 -4.302883 -12.934158
As 1.451801 -4.302883 -10.059067
As 1.451801 -1.427792 -7.183976
As 4.326892 -1.427792 -10.059067
As 4.326892 -4.302883 -7.183976
As 1.451801 -4.302883 -4.308885
As 1.451801 -1.427792 -1.433794
As 4.326892 -1.427792 -4.308885
As 4.326892 -4.302883 -1.433794
As 1.451801 -4.302883 1.441297
As 1.451801 -1.427792 4.316388
As 4.326892 -1.427792 1.441297
As 4.326892 -4.302883 4.316388
As 1.451801 -4.302883 7.191479
As 1.451801 -1.427792 10.066570
As 4.326892 -1.427792 7.191479
As 4.326892 -4.302883 10.066570
As 1.451801 -4.302883 12.941661
As 1.451801 -1.427792 15.816752
As 4.326892 -1.427792 12.941661
As 4.326892 -4.302883 15.816752
As 1.451801 -4.302883 18.691843
As 4.326892 -1.427792 18.691843
As 1.451801 4.322390 -18.684340
As 4.326892 1.447299 -18.684340
As 1.451801 1.447299 -15.809249
As 1.451801 4.322390 -12.934158
As 4.326892 4.322390 -15.809249
As 4.326892 1.447299 -12.934158
As 1.451801 1.447299 -10.059067
As 1.451801 4.322390 -7.183976
As 4.326892 4.322390 -10.059067
As 4.326892 1.447299 -7.183976
As 1.451801 1.447299 -4.308885
As 1.451801 4.322390 -1.433794
As 4.326892 4.322390 -4.308885
As 4.326892 1.447299 -1.433794
As 1.451801 1.447299 1.441297
As 1.451801 4.322390 4.316388
As 4.326892 4.322390 1.441297
As 4.326892 1.447299 4.316388
As 1.451801 1.447299 7.191479
As 1.451801 4.322390 10.066570
As 4.326892 4.322390 7.191479
As 4.326892 1.447299 10.066570
As 1.451801 1.447299 12.941661
As 1.451801 4.322390 15.816752
As 4.326892 4.322390 12.941661
As 4.326892 1.447299 15.816752
As 1.451801 1.447299 18.691843
As 4.326892 7.197481 -18.684340
As 1.451801 7.197481 -15.809249
As 1.451801 10.072572 -12.934158
As 4.326892 10.072572 -15.809249
As 4.326892 7.197481 -12.934158
As 1.451801 7.197481 -10.059067
As 1.451801 10.072572 -7.183976
As 4.326892 10.072572 -10.059067
As 4.326892 7.197481 -7.183976
As 1.451801 7.197481 -4.308885
As 1.451801 10.072572 -1.433794
As 4.326892 10.072572 -4.308885
As 4.326892 7.197481 -1.433794
As 1.451801 7.197481 1.441297
As 1.451801 10.072572 4.316388
As 4.326892 10.072572 1.441297
As 4.326892 7.197481 4.316388
As 1.451801 7.197481 7.191479
As 1.451801 10.072572 10.066570
As 4.326892 10.072572 7.191479
As 4.326892 7.197481 10.066570
As 1.451801 7.197481 12.941661
As 4.326892 12.947663 -12.934158
As 1.451801 12.947663 -10.059067
As 1.451801 15.822754 -7.183976
As 4.326892 15.822754 -10.059067
As 4.326892 12.947663 -7.183976
As 1.451801 12.947663 -4.308885
As 1.451801 15.822754 -1.433794
As 4.326892 15.822754 -4.308885
As 4.326892 12.947663 -1.433794
As 1.451801 12.947663 1.441297
As 1.451801 15.822754 4.316388
As 4.326892 15.822754 1.441297
As 4.326892 12.947663 4.316388
As 1.451801 12.947663 7.191479
As 4.326892 18.697846 -7.183976
As 1.451801 18.697846 -4.308885
As 4.326892 18.697846 -1.433794
As 1.451801 18.697846 1.441297
As 7.201983 -18.678338 4.316388
As 7.201983 -18.678338 10.066570
As 10.077074 -18.678338 7.191479
As 10.077074 -18.678338 12.941661
As 7.201983 -12.928156 -1.433794
As 7.201983 -15.803247 1.441297
As 7.201983 -12.928156 4.316388
As 10.077074 -12.928156 1.441297
As 10.077074 -15.803247 4.316388
As 7.201983 -15.803247 7.191479
As 7.201983 -12.928156 10.066570
As 10.077074 -12.928156 7.191479
As 10.077074 -15.803247 10.066570
As 7.201983 -15.803247 12.941661
As 7.201983 -12.928156 15.816752
As 10.077074 -12.928156 12.941661
As 10.077074 -15.803247 15.816752
As 10.077074 -12.928156 18.691843
As 7.201983 -7.177974 -7.183976
As 7.201983 -10.053065 -4.308885
As 7.201983 -7.177974 -1.433794
As 10.077074 -7.177974 -4.308885
As 10.077074 -10.053065 -1.433794
As 7.201983 -10.053065 1.441297
As 7.201983 -7.177974 4.316388
As 10.077074 -7.177974 1.441297
As 10.077074 -10.053065 4.316388
As 7.201983 -10.053065 7.191479
As 7.201983 -7.177974 10.066570
As 10.077074 -7.177974 7.191479
As 10.077074 -10.053065 10.066570
As 7.201983 -10.053065 12.941661
As 7.201983 -7.177974 15.816752
As 10.077074 -7.177974 12.941661
As 10.077074 -10.053065 15.816752
As 7.201983 -10.053065 18.691843
As 10.077074 -7.177974 18.691843
As 7.201983 -1.427792 -12.934158
As 7.201983 -4.302883 -10.059067
As 7.201983 -1.427792 -7.183976
As 10.077074 -1.427792 -10.059067
As 10.077074 -4.302883 -7.183976
As 7.201983 -4.302883 -4.308885
As 7.201983 -1.427792 -1.433794
As 10.077074 -1.427792 -4.308885
As 10.077074 -4.302883 -1.433794
As 7.201983 -4.302883 1.441297
As 7.201983 -1.427792 4.316388
As 10.077074 -1.427792 1.441297
As 10.077074 -4.302883 4.316388
As 7.201983 -4.302883 7.191479
As 7.201983 -1.427792 10.066570
As 10.077074 -1.427792 7.191479
As 10.077074 -4.302883 10.066570
As 7.201983 -4.302883 12.941661
As 7.201983 -1.427792 15.816752
As 10.077074 -1.427792 12.941661
As 10.077074 -4.302883 15.816752
As 7.201983 -4.302883 18.691843
As 7.201983 4.322390 -18.684340
As 7.201983 1.447299 -15.809249
As 7.201983 4.322390 -12.934158
As 10.077074 4.322390 -15.809249
As 10.077074 1.447299 -12.934158
As 7.201983 1.447299 -10.059067
As 7.201983 4.322390 -7.183976
As 10.077074 4.322390 -10.059067
As 10.077074 1.447299 -7.183976
As 7.201983 1.447299 -4.308885
As 7.201983 4.322390 -1.433794
As 10.077074 4.322390 -4.308885
As 10.077074 1.447299 -1.433794
As 7.201983 1.447299 1.441297
As 7.201983 4.322390 4.316388
As 10.077074 4.322390 1.441297
As 10.077074 1.447299 4.316388
As 7.201983 1.447299 7.191479
As 7.201983 4.322390 10.066570
As 10.077074 4.322390 7.191479
As 10.077074 1.447299 10.066570
As 7.201983 1.447299 12.941661
As 7.201983 10.072572 -18.684340
As 10.077074 7.197481 -18.684340
As 7.201983 7.197481 -15.809249
As 7.201983 10.072572 -12.934158
As 10.077074 10.072572 -15.809249
As 10.077074 7.197481 -12.934158
As 7.201983 7.197481 -10.059067
As 7.201983 10.072572 -7.183976
As 10.077074 10.072572 -10.059067
As 10.077074 7.197481 -7.183976
As 7.201983 7.197481 -4.308885
As 7.201983 10.072572 -1.433794
As 10.077074 10.072572 -4.308885
As 10.077074 7.197481 -1.433794
As 7.201983 7.197481 1.441297
As 7.201983 10.072572 4.316388
As 10.077074 10.072572 1.441297
As 10.077074 7.197481 4.316388
As 7.201983 7.197481 7.191479
As 10.077074 12.947663 -18.684340
As 7.201983 12.947663 -15.809249
As 7.201983 15.822754 -12.934158
As 10.077074 15.822754 -15.809249
As 10.077074 12.947663 -12.934158
As 7.201983 12.947663 -10.059067
As 7.201983 15.822754 -7.183976
As 10.077074 15.822754 -10.059067
As 10.077074 12.947663 -7.183976
As 7.201983 12.947663 -4.308885
As 7.201983 15.822754 -1.433794
As 10.077074 15.822754 -4.308885
As 10.077074 12.947663 -1.433794
As 7.201983 12.947663 1.441297
As 10.077074 18.697846 -12.934158
As 7.201983 18.697846 -10.059067
As 10.077074 18.697846 -7.183976
As 7.201983 18.697846 -4.308885
As 12.952165 -18.678338 10.066570
As 15.827256 -18.678338 12.941661
As 12.952165 -12.928156 4.316388
As 12.952165 -15.803247 7.191479
As 12.952165 -12.928156 10.066570
As 15.827256 -12.928156 7.191479
As 15.827256 -15.803247 10.066570
As 12.952165 -15.803247 12.941661
As 12.952165 -12.928156 15.816752
As 15.827256 -12.928156 12.941661
As 12.952165 -7.177974 -1.433794
As 12.952165 -10.053065 1.441297
As 12.952165 -7.177974 4.316388
As 15.827256 -7.177974 1.441297
As 15.827256 -10.053065 4.316388
As 12.952165 -10.053065 7.191479
As 12.952165 -7.177974 10.066570
As 15.827256 -7.177974 7.191479
As 15.827256 -10.053065 10.066570
As 12.952165 -10.053065 12.941661
As 12.952165 -7.177974 15.816752
As 15.827256 -7.177974 12.941661
As 15.827256 -10.053065 15.816752
As 12.952165 -10.053065 18.691843
As 12.952165 -1.427792 -7.183976
As 12.952165 -4.302883 -4.308885
As 12.952165 -1.427792 -1.433794
As 15.827256 -1.427792 -4.308885
As 15.827256 -4.302883 -1.433794
As 12.952165 -4.302883 1.441297
As 12.952165 -1.427792 4.316388
As 15.827256 -1.427792 1.441297
As 15.827256 -4.302883 4.316388
As 12.952165 -4.302883 7.191479
As 12.952165 -1.427792 10.066570
As 15.827256 -1.427792 7.191479
As 15.827256 -4.302883 10.066570
As 12.952165 -4.302883 12.941661
As 12.952165 4.322390 -12.934158
As 12.952165 1.447299 -10.059067
As 12.952165 4.322390 -7.183976
As 15.827256 4.322390 -10.059067
As 15.827256 1.447299 -7.183976
As 12.952165 1.447299 -4.308885
As 12.952165 4.322390 -1.433794
As 15.827256 4.322390 -4.308885
As 15.827256 1.447299 -1.433794
As 12.952165 1.447299 1.441297
As 12.952165 4.322390 4.316388
As 15.827256 4.322390 1.441297
As 15.827256 1.447299 4.316388
As 12.952165 1.447299 7.191479
As 12.952165 10.072572 -18.684340
As 12.952165 7.197481 -15.809249
As 12.952165 10.072572 -12.934158
As 15.827256 10.072572 -15.809249
As 15.827256 7.197481 -12.934158
As 12.952165 7.197481 -10.059067
As 12.952165 10.072572 -7.183976
As 15.827256 10.072572 -10.059067
As 15.827256 7.197481 -7.183976
As 12.952165 7.197481 -4.308885
As 12.952165 10.072572 -1.433794
As 15.827256 10.072572 -4.308885
As 15.827256 7.197481 -1.433794
As 12.952165 7.197481 1.441297
As 12.952165 12.947663 -15.809249
As 12.952165 15.822754 -12.934158
As 15.827256 12.947663 -12.934158
As 12.952165 12.947663 -10.059067
As 12.952165 15.822754 -7.183976
As 15.827256 15.822754 -10.059067
As 15.827256 12.947663 -7.183976
As 12.952165 12.947663 -4.308885
As 15.827256 18.697846 -12.934158
As 12.952165 18.697846 -10.059067
As 18.702347 -12.928156 10.066570
As 18.702347 -12.928156 15.816752
As 18.702347 -7.177974 4.316388
As 18.702347 -10.053065 7.191479
As 18.702347 -7.177974 10.066570
As 18.702347 -10.053065 12.941661
As 18.702347 -1.427792 -1.433794
As 18.702347 -4.302883 1.441297
As 18.702347 -1.427792 4.316388
As 18.702347 -4.302883 7.191479
As 18.702347 4.322390 -7.183976
As 18.702347 1.447299 -4.308885
As 18.702347 4.322390 -1.433794
As 18.702347 1.447299 1.441297
As 18.702347 10.072572 -12.934158
As 18.702347 7.197481 -10.059067
As 18.702347 10.072572 -7.183976
As 18.702347 7.197481 -4.308885
As 18.702347 12.947663 -15.809249
As 18.702347 12.947663 -10.059067
Cl -21.548927 -12.928156 -12.934158
Cl -18.673836 -15.803247 -12.934158
Cl -21.548927 -10.053065 -10.059067
Cl -21.548927 -7.177974 -7.183976
Cl -21.548927 -4.302883 -4.308885
Cl -21.548927 -1.427792 -1.433794
Cl -21.548927 1.447299 1.441297
Cl -21.548927 4.322390 4.316388
Cl -21.548927 7.197481 7.191479
Cl -21.548927 10.072572 10.066570
Cl -21.548927 12.947663 12.941661
Cl -18.673836 15.822754 12.941661
Cl -12.923654 -18.678338 -15.809249
Cl -12.923654 -21.553429 -12.934158
Cl -15.798745 -12.928156 -18.684340
Cl -12.923654 -12.928156 -21.559431
Cl -12.923654 -15.803247 -18.684340
Cl -15.798745 -15.803247 -15.809249
Cl -15.798745 15.822754 15.816752
Cl -15.798745 12.947663 18.691843
Cl -12.923654 15.822754 18.691843
Cl -12.923654 12.947663 21.566934
Cl -12.923654 21.572937 12.941661
Cl -12.923654 18.697846 15.816752
Cl -10.048563 -21.553429 -10.059067
Cl -7.173472 -21.553429 -7.183976
Cl -10.048563 -10.053065 -21.559431
Cl -7.173472 -7.177974 -21.559431
Cl -10.048563 10.072572 21.566934
Cl -7.173472 7.197481 21.566934
Cl -10.048563 21.572937 10.066570
Cl -7.173472 21.572937 7.191479
Cl -4.298381 -21.553429 -4.308885
Cl -1.423290 -21.553429 -1.433794
Cl -4.298381 -4.302883 -21.559431
Cl -1.423290 -1.427792 -21.559431
Cl -4.298381 4.322390 21.566934
Cl -1.423290 1.447299 21.566934
Cl -4.298381 21.572937 4.316388
Cl -1.423290 21.572937 1.441297
Cl 1.451801 -21.553429 1.441297
Cl 4.326892 -21.553429 4.316388
Cl 1.451801 -1.427792 21.566934
Cl 4.326892 -4.302883 21.566934
Cl 1.451801 1.447299 -21.559431
Cl 4.326892 4.322390 -21.559431
Cl 1.451801 21.572937 -1.433794
Cl 4.326892 21.572937 -4.308885
Cl 7.201983 -21.553429 7.191479
Cl 10.077074 -21.553429 10.066570
Cl 7.201983 -7.177974 21.566934
Cl 10.077074 -10.053065 21.566934
Cl 7.201983 7.197481 -21.559431
Cl 10.077074 10.072572 -21.559431
Cl 7.201983 21.572937 -7.183976
Cl 10.077074 21.572937 -10.059067
Cl 12.952165 -21.553429 12.941661
Cl 12.952165 -18.678338 15.816752
Cl 15.827256 -15.803247 15.816752
Cl 12.952165 -15.803247 18.691843
Cl 12.952165 -12.928156 21.566934
Cl 15.827256 -12.928156 18.691843
Cl 12.952165 12.947663 -21.559431
Cl 12.952165 15.822754 -18.684340
Cl 15.827256 12.947663 -18.684340
Cl 15.827256 15.822754 -15.809249
Cl 12.952165 18.697846 -15.809249
Cl 12.952165 21.572937 -12.934158
Cl 18.702347 -15.803247 12.941661
Cl 21.577438 -12.928156 12.941661
Cl 21.577438 -7.177974 7.191479
Cl 21.577438 -10.053065 10.066570
Cl 21.577438 -1.427792 1.441297
Cl 21.577438 -4.302883 4.316388
Cl 21.577438 4.322390 -4.308885
Cl 21.577438 1.447299 -1.433794
Cl 21.577438 10.072572 -10.059067
Cl 21.577438 7.197481 -7.183976
Cl 18.702347 15.822754 -12.934158
Cl 21.577438 12.947663 -12.934158
Cl -10.048563 -10.053065 7.191479
Cl -10.048563 7.197481 -10.059067
Cl 7.201983 -10.053065 -10.059067
Cl 10.077074 10.072572 7.191479
Cl -15.798745 10.072572 21.566934
Cl -15.798745 21.572937 10.066570
Cl -10.048563 15.822754 21.566934
Cl 21.577438 -15.803247 10.066570
Cl 10.077074 -15.803247 21.566934
Cl 15.827256 -10.053065 21.566934
Cl 10.077074 21.572937 -15.809249
Cl 21.577438 10.072572 -15.809249
Cl -21.548927 -15.803247 -10.059067
Cl -21.548927 -10.053065 -15.809249
Cl -10.048563 -21.553429 -15.809249
Cl 15.827256 21.572937 -10.059067
Cl 1.451801 -21.553429 7.191479
Cl 1.451801 7.197481 -21.559431
Cl 7.201983 1.447299 -21.559431
Cl 21.577438 -1.427792 7.191479
Cl -21.548927 1.447299 7.191479
Cl -21.548927 7.197481 1.441297
Cl -1.423290 21.572937 7.191479
Cl 7.201983 -21.553429 1.441297
Cl -4.298381 -1.427792 21.566934
Cl -4.298381 21.572937 -1.433794
Cl 4.326892 1.447299 21.566934
Cl 21.577438 -4.302883 -1.433794
Cl -10.048563 -21.553429 -4.308885
Cl -10.048563 -4.302883 -21.559431
Cl -4.298381 -10.053065 -21.559431
Cl 21.577438 10.072572 -4.308885
Cl 7.201983 21.572937 -1.433794
Cl -21.548927 -1.427792 -7.183976
Cl -21.548927 -7.177974 -1.433794
Cl -1.423290 -21.553429 -7.183976
Cl 15.827256 1.447299 -12.934158
Cl 1.451801 15.822754 -12.934158
Cl 1.451801 -12.928156 15.816752
Cl -1.423290 12.947663 15.816752
Cl 12.952165 -1.427792 15.816752
Cl -12.923654 1.447299 15.816752
Cl -12.923654 15.822754 1.441297
Cl 15.827256 -12.928156 1.441297
Cl 10.077074 -21.553429 15.816752
Cl 15.827256 10.072572 -21.559431
Cl 10.077074 15.822754 -21.559431
Cl -10.048563 21.572937 15.816752
Cl 21.577438 -10.053065 15.816752
Cl -21.548927 15.822754 10.066570
Cl -21.548927 10.072572 15.816752
Cl 15.827256 -21.553429 10.066570
Cl -15.798745 -21.553429 -10.059067
Cl -15.798745 -10.053065 -21.559431
Cl -10.048563 -15.803247 -21.559431
Cl 21.577438 15.822754 -10.059067
Cl -4.298381 -21.553429 1.441297
Cl -4.298381 1.447299 -21.559431
Cl 1.451801 -4.302883 -21.559431
Cl 21.577438 4.322390 1.441297
Cl -1.423290 7.197481 21.566934
Cl 1.451801 -7.177974 21.566934
Cl 1.451801 21.572937 -7.183976
Cl 21.577438 1.447299 -7.183976
Cl -15.798745 -12.928156 -1.433794
Cl -15.798745 -1.427792 -12.934158
Cl -1.423290 -15.803247 -12.934158
Cl 12.952165 15.822754 -1.433794
Cl -15.798745 -4.302883 7.191479
Cl -15.798745 7.197481 -4.308885
Cl 7.201983 -15.803247 -4.308885
Cl 4.326892 15.822754 7.191479
Cl 15.827256 4.322390 7.191479
Cl -4.298381 -15.803247 7.191479
Cl -4.298381 7.197481 -15.809249
Cl 7.201983 -4.302883 -15.809249
Cl 4.326892 7.197481 15.816752
Cl -4.298381 -7.177974 15.816752
Cl -4.298381 15.822754 -7.183976
Cl 15.827256 -4.302883 -7.183976
Cl -10.048563 4.322390 21.566934
Cl -10.048563 21.572937 4.316388
Cl 21.577438 -10.053065 4.316388
Cl 10.077074 -4.302883 21.566934
Cl -4.298381 18.697846 12.941661
Cl -18.673836 4.322390 12.941661
Cl -18.673836 12.947663 4.316388
Cl 12.952165 -18.678338 4.316388
Cl 4.326892 -18.678338 12.941661
Cl 12.952165 4.322390 -18.684340
Cl 4.326892 12.947663 -18.684340
Cl 18.702347 -4.302883 12.941661
Cl 15.827256 10.072572 1.441297
Cl -10.048563 -15.803247 1.441297
Cl -10.048563 1.447299 -15.809249
Cl 1.451801 -10.053065 -15.809249
Cl -10.048563 -4.302883 12.941661
Cl -10.048563 12.947663 -4.308885
Cl 12.952165 -10.053065 -4.308885
Cl 10.077074 4.322390 12.941661
Cl 12.952165 21.572937 -7.183976
Cl -21.548927 -7.177974 -12.934158
Cl -21.548927 -12.928156 -7.183976
Cl -7.173472 -21.553429 -12.934158
Cl -7.173472 12.947663 21.566934
Cl 7.201983 -12.928156 21.566934
Cl 7.201983 21.572937 -12.934158
Cl 21.577438 7.197481 -12.934158
Cl 4.326892 21.572937 1.441297
Cl -21.548927 -4.302883 1.441297
Cl -21.548927 1.447299 -4.308885
Cl 1.451801 -21.553429 -4.308885
Cl -15.798745 -18.678338 -7.183976
Cl -15.798745 -7.177974 -18.684340
Cl 18.702347 15.822754 -7.183976
Cl -4.298381 -12.928156 -18.684340
Cl 4.326892 12.947663 10.066570
Cl -4.298381 -12.928156 10.066570
Cl -4.298381 10.072572 -12.934158
Cl 10.077074 -4.302883 -12.934158
Cl 15.827256 -7.177974 18.691843
Cl -15.798745 7.197481 18.691843
Cl -15.798745 18.697846 7.191479
Cl 18.702347 -15.803247 7.191479
Cl -15.798745 -10.053065 1.441297
Cl -15.798745 1.447299 -10.059067
Cl 4.326892 -15.803247 -7.183976
Cl 10.077074 15.822754 1.441297
Cl 7.201983 1.447299 18.691843
Cl -7.173472 -1.427792 18.691843
Cl -7.173472 18.697846 -1.433794
Cl 18.702347 -7.177974 -1.433794
Cl 15.827256 1.447299 10.066570
Cl -15.798745 -1.427792 10.066570
Cl -15.798745 10.072572 -1.433794
Cl 10.077074 -15.803247 -1.433794
Cl 7.201983 -21.553429 12.941661
Cl 7.201983 12.947663 -21.559431
Cl 12.952165 7.197481 -21.559431
Cl -7.173472 21.572937 12.941661
Cl -10.048563 -18.678338 -18.684340
Cl 21.577438 -7.177974 12.941661
Cl -21.548927 7.197481 12.941661
Cl -21.548927 12.947663 7.191479
Cl 12.952165 -21.553429 7.191479
Cl -7.173472 -21.553429 -1.433794
Cl -7.173472 -1.427792 -21.559431
Cl 21.577438 7.197481 -1.433794
Cl 4.326892 -1.427792 -21.559431
Cl -4.298381 10.072572 21.566934
Cl 4.326892 -10.053065 21.566934
Cl 4.326892 21.572937 -10.059067
Cl 21.577438 4.322390 -10.059067
Cl 1.451801 21.572937 4.316388
Cl -1.423290 -21.553429 4.316388
Cl -1.423290 4.322390 -21.559431
Cl 18.702347 10.072572 -18.684340
Cl -10.048563 18.697846 18.691843
Cl 10.077074 -18.678338 18.691843
Cl 10.077074 18.697846 -18.684340
Cl -4.298381 -21.553429 -10.059067
Cl -21.548927 4.322390 -1.433794
Cl -21.548927 -1.427792 4.316388
Cl 21.577438 1.447299 4.316388
Cl 10.077074 21.572937 -4.308885
Cl -21.548927 -10.053065 -4.308885
Cl -21.548927 -4.302883 -10.059067
Cl -1.423290 -7.177974 -21.559431
Cl 21.577438 -1.427792 -4.308885
Cl -1.423290 -4.302883 21.566934
Cl -1.423290 21.572937 -4.308885
Cl 1.451801 4.322390 21.566934
Cl 4.326892 -21.553429 -1.433794
Cl 1.451801 -15.803247 12.941661
Cl 1.451801 12.947663 -15.809249
Cl -1.423290 15.822754 12.941661
Cl 12.952165 1.447299 -15.809249
Cl 18.702347 12.947663 -4.308885
Cl -12.923654 -18.678338 -4.308885
Cl -12.923654 -4.302883 -18.684340
Cl 10.077074 7.197481 10.066570
Cl -10.048563 -7.177974 10.066570
Cl -10.048563 10.072572 -7.183976
Cl 4.326892 -10.053065 -12.934158
Cl 12.952165 -7.177974 -7.183976
Cl -10.048563 -12.928156 4.316388
Cl -10.048563 4.322390 -12.934158
Cl 12.952165 10.072572 4.316388
Cl -4.298381 -15.803247 -15.809249
Cl 1.451801 10.072572 15.816752
Cl -1.423290 -10.053065 15.816752
Cl -1.423290 15.822754 -10.059067
Cl 21.577438 -12.928156 7.191479
Cl -12.923654 7.197481 21.566934
Cl -12.923654 21.572937 7.191479
Cl 12.952165 -7.177974 21.566934
Cl -18.673836 -18.678338 -10.059067
Cl -18.673836 -10.053065 -18.684340
Cl 18.702347 18.697846 -10.059067
Cl 15.827256 -1.427792 -10.059067
Cl 1.451801 -15.803247 -10.059067
Cl 7.201983 15.822754 4.316388
Cl -15.798745 -7.177974 4.316388
Cl -15.798745 4.322390 -7.183976
Cl 18.702347 -10.053065 18.691843
Cl -18.673836 10.072572 18.691843
Cl -18.673836 18.697846 10.066570
Cl 18.702347 -18.678338 10.066570
Cl 21.577438 -4.302883 10.066570
Cl 10.077074 -21.553429 4.316388
Cl -21.548927 10.072572 4.316388
Cl -21.548927 4.322390 10.066570
Cl 7.201983 -1.427792 21.566934
Cl -7.173472 1.447299 21.566934
Cl -7.173472 21.572937 1.441297
Cl 21.577438 -7.177974 1.441297
Cl 4.326892 -21.553429 10.066570
Cl 4.326892 10.072572 -21.559431
Cl 10.077074 4.322390 -21.559431
Cl -4.298381 21.572937 10.066570
Cl -7.173472 -12.928156 -21.559431
Cl 7.201983 18.697846 -15.809249
Cl -4.298381 -18.678338 4.316388
Cl 12.952165 1.447299 12.941661
Cl 18.702347 7.197481 -15.809249
Cl -4.298381 4.322390 -18.684340
Cl 12.952165 18.697846 -4.308885
Cl 4.326892 -12.928156 18.691843
Cl 12.952165 -12.928156 -1.433794
Cl -4.298381 12.947663 18.691843
Cl -18.673836 -4.302883 -12.934158
Cl -18.673836 -12.928156 -4.308885
Cl 4.326892 -4.302883 -18.684340
Cl -10.048563 15.822754 -1.433794
Cl -10.048563 -1.427792 15.816752
Cl 18.702347 7.197481 1.441297
Cl 1.451801 18.697846 7.191479
Cl -15.798745 12.947663 1.441297
Cl -15.798745 1.447299 12.941661
Cl 10.077074 -10.053065 -7.183976
Cl -4.298381 12.947663 -10.059067
Cl -4.298381 -10.053065 12.941661
Cl 4.326892 10.072572 12.941661
Cl 15.827256 -15.803247 4.316388
Cl -12.923654 -7.177974 -21.559431
Cl -12.923654 -21.553429 -7.183976
Cl 21.577438 12.947663 -7.183976
Cl 10.077074 -1.427792 -15.809249
Cl 15.827256 -4.302883 15.816752
Cl -12.923654 -1.427792 -15.809249
Cl -12.923654 -15.803247 -1.433794
Cl -7.173472 -18.678338 -15.809249
Cl 7.201983 4.322390 15.816752
Cl -1.423290 10.072572 -15.809249
Cl -1.423290 -15.803247 10.066570
Cl 18.702347 1.447299 -10.059067
Cl 15.827256 12.947663 -1.433794
Cl 7.201983 -18.678338 15.816752
Cl 1.451801 -18.678338 -7.183976
Cl -18.673836 4.322390 -4.308885
Cl -7.173472 18.697846 15.816752
Cl -18.673836 -4.302883 4.316388
Cl 1.451801 18.697846 -10.059067
Cl -1.423290 -10.053065 -18.684340
Cl 18.702347 1.447299 7.191479
Cl -12.923654 4.322390 18.691843
Cl -12.923654 18.697846 4.316388
Cl 7.201983 -18.678338 -1.433794
Cl 18.702347 -10.053065 1.441297
Cl 7.201983 18.697846 1.441297
Cl -4.298381 -4.302883 18.691843
Cl -7.173472 1.447299 -18.684340
Cl -7.173472 -18.678338 1.441297
Cl -4.298381 18.697846 -4.308885
Cl 10.077074 -1.427792 18.691843
Cl 18.702347 -4.302883 -4.308885
Cl 1.451801 7.197481 18.691843
Cl 15.827256 4.322390 -15.809249
Cl 4.326892 15.822754 -15.809249
Cl -12.923654 -7.177974 7.191479
Cl 7.201983 -7.177974 -12.934158
Cl 12.952165 7.197481 7.191479
Cl -12.923654 4.322390 -10.059067
Cl -7.173472 -7.177974 12.941661
Cl 1.451801 15.822754 10.066570
Cl 1.451801 -12.928156 -12.934158
Cl -12.923654 10.072572 -4.308885
Cl -7.173472 -12.928156 7.191479
Cl 10.077074 12.947663 4.316388
Cl -7.173472 10.072572 -10.059067
Cl 7.201983 -12.928156 -7.183976
Cl -18.673836 7.197481 15.816752
Cl -18.673836 -15.803247 -7.183976
Cl -18.673836 -7.177974 -15.809249
Cl 15.827256 18.697846 -7.183976
Cl 12.952165 -4.302883 -10.059067
Cl -18.673836 15.822754 7.191479
Cl 7.201983 10.072572 10.066570
Cl -4.298381 -18.678338 -12.934158
Cl 1.451801 -10.053065 18.691843
Cl -18.673836 -10.053065 -1.433794
Cl 18.702347 -1.427792 10.066570
Cl -18.673836 -1.427792 -10.059067
Cl 10.077074 -18.678338 1.441297
Cl -18.673836 1.447299 10.066570
Cl -18.673836 10.072572 1.441297
Cl 7.201983 -1.427792 -18.684340
Cl -4.298381 15.822754 15.816752
Cl 1.451801 -18.678338 10.066570
Cl 1.451801 10.072572 -18.684340
Cl 18.702347 4.322390 4.316388
Cl 1.451801 -7.177974 -18.684340
Cl 4.326892 -15.803247 15.816752
