2297
HgSe-Hg-Hg1103Se1012Cl182-clean
Hg -21.667542 -9.286282 -6.189956
Hg -21.667542 -12.382608 -3.093630
Hg -21.667542 -9.286282 0.002696
Hg -21.667542 -12.382608 3.099022
Hg -21.667542 -9.286282 6.195348
Hg -21.667542 -3.093630 -12.382608
Hg -21.667542 -6.189956 -9.286282
Hg -21.667542 -3.093630 -6.189956
Hg -21.667542 -6.189956 -3.093630
Hg -21.667542 -3.093630 0.002696
Hg -21.667542 -6.189956 3.099022
Hg -21.667542 -3.093630 6.195348
Hg -21.667542 -6.189956 9.291674
Hg -21.667542 -3.093630 12.388000
Hg -21.667542 3.099022 -12.382608
Hg -21.667542 0.002696 -9.286282
Hg -21.667542 3.099022 -6.189956
Hg -21.667542 0.002696 -3.093630
Hg -21.667542 3.099022 0.002696
Hg -21.667542 0.002696 3.099022
Hg -21.667542 3.099022 6.195348
Hg -21.667542 0.002696 9.291674
Hg -21.667542 3.099022 12.388000
Hg -21.667542 6.195348 -9.286282
Hg -21.667542 9.291674 -6.189956
Hg -21.667542 6.195348 -3.093630
Hg -21.667542 9.291674 0.002696
Hg -21.667542 6.195348 3.099022
Hg -21.667542 9.291674 6.195348
Hg -21.667542 6.195348 9.291674
Hg -21.667542 12.388000 -3.093630
Hg -21.667542 12.388000 3.099022
Hg -15.474890 -15.478934 -6.189956
Hg -15.474890 -18.575260 -3.093630
Hg -18.571216 -15.478934 -3.093630
Hg -15.474890 -15.478934 0.002696
Hg -15.474890 -18.575260 3.099022
Hg -18.571216 -15.478934 3.099022
Hg -15.474890 -15.478934 6.195348
Hg -15.474890 -9.286282 -12.382608
Hg -15.474890 -12.382608 -9.286282
Hg -18.571216 -9.286282 -9.286282
Hg -18.571216 -12.382608 -6.189956
Hg -15.474890 -9.286282 -6.189956
Hg -15.474890 -12.382608 -3.093630
Hg -18.571216 -9.286282 -3.093630
Hg -18.571216 -12.382608 0.002696
Hg -15.474890 -9.286282 0.002696
Hg -15.474890 -12.382608 3.099022
Hg -18.571216 -9.286282 3.099022
Hg -18.571216 -12.382608 6.195348
Hg -15.474890 -9.286282 6.195348
Hg -15.474890 -12.382608 9.291674
Hg -18.571216 -9.286282 9.291674
Hg -15.474890 -9.286282 12.388000
Hg -15.474890 -3.093630 -18.575260
Hg -15.474890 -6.189956 -15.478934
Hg -18.571216 -3.093630 -15.478934
Hg -18.571216 -6.189956 -12.382608
Hg -15.474890 -3.093630 -12.382608
Hg -15.474890 -6.189956 -9.286282
Hg -18.571216 -3.093630 -9.286282
Hg -18.571216 -6.189956 -6.189956
Hg -15.474890 -3.093630 -6.189956
Hg -15.474890 -6.189956 -3.093630
Hg -18.571216 -3.093630 -3.093630
Hg -18.571216 -6.189956 0.002696
Hg -15.474890 -3.093630 0.002696
Hg -15.474890 -6.189956 3.099022
Hg -18.571216 -3.093630 3.099022
Hg -18.571216 -6.189956 6.195348
Hg -15.474890 -3.093630 6.195348
Hg -15.474890 -6.189956 9.291674
Hg -18.571216 -3.093630 9.291674
Hg -18.571216 -6.189956 12.388000
Hg -15.474890 -3.093630 12.388000
Hg -15.474890 -6.189956 15.484326
Hg -18.571216 -3.093630 15.484326
Hg -15.474890 -3.093630 18.580652
Hg -15.474890 3.099022 -18.575260
Hg -15.474890 0.002696 -15.478934
Hg -18.571216 3.099022 -15.478934
Hg -18.571216 0.002696 -12.382608
Hg -15.474890 3.099022 -12.382608
Hg -15.474890 0.002696 -9.286282
Hg -18.571216 3.099022 -9.286282
Hg -18.571216 0.002696 -6.189956
Hg -15.474890 3.099022 -6.189956
Hg -15.474890 0.002696 -3.093630
Hg -18.571216 3.099022 -3.093630
Hg -18.571216 0.002696 0.002696
Hg -15.474890 3.099022 0.002696
Hg -15.474890 0.002696 3.099022
Hg -18.571216 3.099022 3.099022
Hg -18.571216 0.002696 6.195348
Hg -15.474890 3.099022 6.195348
Hg -15.474890 0.002696 9.291674
Hg -18.571216 3.099022 9.291674
Hg -18.571216 0.002696 12.388000
Hg -15.474890 3.099022 12.388000
Hg -15.474890 0.002696 15.484326
Hg -18.571216 3.099022 15.484326
Hg -15.474890 3.099022 18.580652
Hg -15.474890 6.195348 -15.478934
Hg -18.571216 6.195348 -12.382608
Hg -15.474890 9.291674 -12.382608
Hg -15.474890 6.195348 -9.286282
Hg -18.571216 9.291674 -9.286282
Hg -18.571216 6.195348 -6.189956
Hg -15.474890 9.291674 -6.189956
Hg -15.474890 6.195348 -3.093630
Hg -18.571216 9.291674 -3.093630
Hg -18.571216 6.195348 0.002696
Hg -15.474890 9.291674 0.002696
Hg -15.474890 6.195348 3.099022
Hg -18.571216 9.291674 3.099022
Hg -18.571216 6.195348 6.195348
Hg -15.474890 9.291674 6.195348
Hg -15.474890 6.195348 9.291674
Hg -18.571216 9.291674 9.291674
Hg -18.571216 6.195348 12.388000
Hg -15.474890 9.291674 12.388000
Hg -15.474890 6.195348 15.484326
Hg -15.474890 12.388000 -9.286282
Hg -18.571216 12.388000 -6.189956
Hg -15.474890 15.484326 -6.189956
Hg -15.474890 12.388000 -3.093630
Hg -18.571216 15.484326 -3.093630
Hg -18.571216 12.388000 0.002696
Hg -15.474890 15.484326 0.002696
Hg -15.474890 12.388000 3.099022
Hg -18.571216 15.484326 3.099022
Hg -18.571216 12.388000 6.195348
Hg -15.474890 15.484326 6.195348
Hg -15.474890 12.388000 9.291674
Hg -15.474890 18.580652 -3.093630
Hg -15.474890 18.580652 3.099022
Hg -9.282238 -21.671586 -6.189956
Hg -12.378564 -21.671586 -3.093630
Hg -9.282238 -21.671586 0.002696
Hg -12.378564 -21.671586 3.099022
Hg -9.282238 -21.671586 6.195348
Hg -9.282238 -15.478934 -12.382608
Hg -9.282238 -18.575260 -9.286282
Hg -12.378564 -15.478934 -9.286282
Hg -12.378564 -18.575260 -6.189956
Hg -9.282238 -15.478934 -6.189956
Hg -9.282238 -18.575260 -3.093630
Hg -12.378564 -15.478934 -3.093630
Hg -12.378564 -18.575260 0.002696
Hg -9.282238 -15.478934 0.002696
Hg -9.282238 -18.575260 3.099022
Hg -12.378564 -15.478934 3.099022
Hg -12.378564 -18.575260 6.195348
Hg -9.282238 -15.478934 6.195348
Hg -9.282238 -18.575260 9.291674
Hg -12.378564 -15.478934 9.291674
Hg -9.282238 -15.478934 12.388000
Hg -9.282238 -9.286282 -18.575260
Hg -9.282238 -12.382608 -15.478934
Hg -12.378564 -9.286282 -15.478934
Hg -12.378564 -12.382608 -12.382608
Hg -9.282238 -9.286282 -12.382608
Hg -9.282238 -12.382608 -9.286282
Hg -12.378564 -9.286282 -9.286282
Hg -12.378564 -12.382608 -6.189956
Hg -9.282238 -9.286282 -6.189956
Hg -9.282238 -12.382608 -3.093630
Hg -12.378564 -9.286282 -3.093630
Hg -12.378564 -12.382608 0.002696
Hg -9.282238 -9.286282 0.002696
Hg -9.282238 -12.382608 3.099022
Hg -12.378564 -9.286282 3.099022
Hg -12.378564 -12.382608 6.195348
Hg -9.282238 -9.286282 6.195348
Hg -9.282238 -12.382608 9.291674
Hg -12.378564 -9.286282 9.291674
Hg -12.378564 -12.382608 12.388000
Hg -9.282238 -9.286282 12.388000
Hg -9.282238 -12.382608 15.484326
Hg -12.378564 -9.286282 15.484326
Hg -9.282238 -9.286282 18.580652
Hg -9.282238 -6.189956 -21.671586
Hg -12.378564 -3.093630 -21.671586
Hg -12.378564 -6.189956 -18.575260
Hg -9.282238 -3.093630 -18.575260
Hg -9.282238 -6.189956 -15.478934
Hg -12.378564 -3.093630 -15.478934
Hg -12.378564 -6.189956 -12.382608
Hg -9.282238 -3.093630 -12.382608
Hg -9.282238 -6.189956 -9.286282
Hg -12.378564 -3.093630 -9.286282
Hg -12.378564 -6.189956 -6.189956
Hg -9.282238 -3.093630 -6.189956
Hg -9.282238 -6.189956 -3.093630
Hg -12.378564 -3.093630 -3.093630
Hg -12.378564 -6.189956 0.002696
Hg -9.282238 -3.093630 0.002696
Hg -9.282238 -6.189956 3.099022
Hg -12.378564 -3.093630 3.099022
Hg -12.378564 -6.189956 6.195348
Hg -9.282238 -3.093630 6.195348
Hg -9.282238 -6.189956 9.291674
Hg -12.378564 -3.093630 9.291674
Hg -12.378564 -6.189956 12.388000
Hg -9.282238 -3.093630 12.388000
Hg -9.282238 -6.189956 15.484326
Hg -12.378564 -3.093630 15.484326
Hg -12.378564 -6.189956 18.580652
Hg -9.282238 -3.093630 18.580652
Hg -9.282238 -6.189956 21.676978
Hg -12.378564 -3.093630 21.676978
Hg -9.282238 0.002696 -21.671586
Hg -12.378564 3.099022 -21.671586
Hg -12.378564 0.002696 -18.575260
Hg -9.282238 3.099022 -18.575260
Hg -9.282238 0.002696 -15.478934
Hg -12.378564 3.099022 -15.478934
Hg -12.378564 0.002696 -12.382608
Hg -9.282238 3.099022 -12.382608
Hg -9.282238 0.002696 -9.286282
Hg -12.378564 3.099022 -9.286282
Hg -12.378564 0.002696 -6.189956
Hg -9.282238 3.099022 -6.189956
Hg -9.282238 0.002696 -3.093630
Hg -12.378564 3.099022 -3.093630
Hg -12.378564 0.002696 0.002696
Hg -9.282238 3.099022 0.002696
Hg -9.282238 0.002696 3.099022
Hg -12.378564 3.099022 3.099022
Hg -12.378564 0.002696 6.195348
Hg -9.282238 3.099022 6.195348
Hg -9.282238 0.002696 9.291674
Hg -12.378564 3.099022 9.291674
Hg -12.378564 0.002696 12.388000
Hg -9.282238 3.099022 12.388000
Hg -9.282238 0.002696 15.484326
Hg -12.378564 3.099022 15.484326
Hg -12.378564 0.002696 18.580652
Hg -9.282238 3.099022 18.580652
Hg -9.282238 0.002696 21.676978
Hg -12.378564 3.099022 21.676978
Hg -9.282238 6.195348 -21.671586
Hg -12.378564 6.195348 -18.575260
Hg -9.282238 9.291674 -18.575260
Hg -9.282238 6.195348 -15.478934
Hg -12.378564 9.291674 -15.478934
Hg -12.378564 6.195348 -12.382608
Hg -9.282238 9.291674 -12.382608
Hg -9.282238 6.195348 -9.286282
Hg -12.378564 9.291674 -9.286282
Hg -12.378564 6.195348 -6.189956
Hg -9.282238 9.291674 -6.189956
Hg -9.282238 6.195348 -3.093630
Hg -12.378564 9.291674 -3.093630
Hg -12.378564 6.195348 0.002696
Hg -9.282238 9.291674 0.002696
Hg -9.282238 6.195348 3.099022
Hg -12.378564 9.291674 3.099022
Hg -12.378564 6.195348 6.195348
Hg -9.282238 9.291674 6.195348
Hg -9.282238 6.195348 9.291674
Hg -12.378564 9.291674 9.291674
Hg -12.378564 6.195348 12.388000
Hg -9.282238 9.291674 12.388000
Hg -9.282238 6.195348 15.484326
Hg -12.378564 9.291674 15.484326
Hg -12.378564 6.195348 18.580652
Hg -9.282238 9.291674 18.580652
Hg -9.282238 6.195348 21.676978
Hg -9.282238 12.388000 -15.478934
Hg -12.378564 12.388000 -12.382608
Hg -9.282238 15.484326 -12.382608
Hg -9.282238 12.388000 -9.286282
Hg -12.378564 15.484326 -9.286282
Hg -12.378564 12.388000 -6.189956
Hg -9.282238 15.484326 -6.189956
Hg -9.282238 12.388000 -3.093630
Hg -12.378564 15.484326 -3.093630
Hg -12.378564 12.388000 0.002696
Hg -9.282238 15.484326 0.002696
Hg -9.282238 12.388000 3.099022
Hg -12.378564 15.484326 3.099022
Hg -12.378564 12.388000 6.195348
Hg -9.282238 15.484326 6.195348
Hg -9.282238 12.388000 9.291674
Hg -12.378564 15.484326 9.291674
Hg -12.378564 12.388000 12.388000
Hg -9.282238 15.484326 12.388000
Hg -9.282238 12.388000 15.484326
Hg -9.282238 18.580652 -9.286282
Hg -12.378564 18.580652 -6.189956
Hg -9.282238 21.676978 -6.189956
Hg -9.282238 18.580652 -3.093630
Hg -12.378564 21.676978 -3.093630
Hg -12.378564 18.580652 0.002696
Hg -9.282238 21.676978 0.002696
Hg -9.282238 18.580652 3.099022
Hg -12.378564 21.676978 3.099022
Hg -12.378564 18.580652 6.195348
Hg -9.282238 21.676978 6.195348
Hg -9.282238 18.580652 9.291674
Hg -3.089586 -21.671586 -12.382608
Hg -6.185912 -21.671586 -9.286282
Hg -3.089586 -21.671586 -6.189956
Hg -6.185912 -21.671586 -3.093630
Hg -3.089586 -21.671586 0.002696
Hg -6.185912 -21.671586 3.099022
Hg -3.089586 -21.671586 6.195348
Hg -6.185912 -21.671586 9.291674
Hg -3.089586 -21.671586 12.388000
Hg -3.089586 -15.478934 -18.575260
Hg -3.089586 -18.575260 -15.478934
Hg -6.185912 -15.478934 -15.478934
Hg -6.185912 -18.575260 -12.382608
Hg -3.089586 -15.478934 -12.382608
Hg -3.089586 -18.575260 -9.286282
Hg -6.185912 -15.478934 -9.286282
Hg -6.185912 -18.575260 -6.189956
Hg -3.089586 -15.478934 -6.189956
Hg -3.089586 -18.575260 -3.093630
Hg -6.185912 -15.478934 -3.093630
Hg -6.185912 -18.575260 0.002696
Hg -3.089586 -15.478934 0.002696
Hg -3.089586 -18.575260 3.099022
Hg -6.185912 -15.478934 3.099022
Hg -6.185912 -18.575260 6.195348
Hg -3.089586 -15.478934 6.195348
Hg -3.089586 -18.575260 9.291674
Hg -6.185912 -15.478934 9.291674
Hg -6.185912 -18.575260 12.388000
Hg -3.089586 -15.478934 12.388000
Hg -3.089586 -18.575260 15.484326
Hg -6.185912 -15.478934 15.484326
Hg -3.089586 -15.478934 18.580652
Hg -3.089586 -12.382608 -21.671586
Hg -6.185912 -9.286282 -21.671586
Hg -6.185912 -12.382608 -18.575260
Hg -3.089586 -9.286282 -18.575260
Hg -3.089586 -12.382608 -15.478934
Hg -6.185912 -9.286282 -15.478934
Hg -6.185912 -12.382608 -12.382608
Hg -3.089586 -9.286282 -12.382608
Hg -3.089586 -12.382608 -9.286282
Hg -6.185912 -9.286282 -9.286282
Hg -6.185912 -12.382608 -6.189956
Hg -3.089586 -9.286282 -6.189956
Hg -3.089586 -12.382608 -3.093630
Hg -6.185912 -9.286282 -3.093630
Hg -6.185912 -12.382608 0.002696
Hg -3.089586 -9.286282 0.002696
Hg -3.089586 -12.382608 3.099022
Hg -6.185912 -9.286282 3.099022
Hg -6.185912 -12.382608 6.195348
Hg -3.089586 -9.286282 6.195348
Hg -3.089586 -12.382608 9.291674
Hg -6.185912 -9.286282 9.291674
Hg -6.185912 -12.382608 12.388000
Hg -3.089586 -9.286282 12.388000
Hg -3.089586 -12.382608 15.484326
Hg -6.185912 -9.286282 15.484326
Hg -6.185912 -12.382608 18.580652
Hg -3.089586 -9.286282 18.580652
Hg -3.089586 -12.382608 21.676978
Hg -6.185912 -9.286282 21.676978
Hg -3.089586 -6.189956 -21.671586
Hg -6.185912 -3.093630 -21.671586
Hg -6.185912 -6.189956 -18.575260
Hg -3.089586 -3.093630 -18.575260
Hg -3.089586 -6.189956 -15.478934
Hg -6.185912 -3.093630 -15.478934
Hg -6.185912 -6.189956 -12.382608
Hg -3.089586 -3.093630 -12.382608
Hg -3.089586 -6.189956 -9.286282
Hg -6.185912 -3.093630 -9.286282
Hg -6.185912 -6.189956 -6.189956
Hg -3.089586 -3.093630 -6.189956
Hg -3.089586 -6.189956 -3.093630
Hg -6.185912 -3.093630 -3.093630
Hg -6.185912 -6.189956 0.002696
Hg -3.089586 -3.093630 0.002696
Hg -3.089586 -6.189956 3.099022
Hg -6.185912 -3.093630 3.099022
Hg -6.185912 -6.189956 6.195348
Hg -3.089586 -3.093630 6.195348
Hg -3.089586 -6.189956 9.291674
Hg -6.185912 -3.093630 9.291674
Hg -6.185912 -6.189956 12.388000
Hg -3.089586 -3.093630 12.388000
Hg -3.089586 -6.189956 15.484326
Hg -6.185912 -3.093630 15.484326
Hg -6.185912 -6.189956 18.580652
Hg -3.089586 -3.093630 18.580652
Hg -3.089586 -6.189956 21.676978
Hg -6.185912 -3.093630 21.676978
Hg -3.089586 0.002696 -21.671586
Hg -6.185912 3.099022 -21.671586
Hg -6.185912 0.002696 -18.575260
Hg -3.089586 3.099022 -18.575260
Hg -3.089586 0.002696 -15.478934
Hg -6.185912 3.099022 -15.478934
Hg -6.185912 0.002696 -12.382608
Hg -3.089586 3.099022 -12.382608
Hg -3.089586 0.002696 -9.286282
Hg -6.185912 3.099022 -9.286282
Hg -6.185912 0.002696 -6.189956
Hg -3.089586 3.099022 -6.189956
Hg -3.089586 0.002696 -3.093630
Hg -6.185912 3.099022 -3.093630
Hg -6.185912 0.002696 0.002696
Hg -3.089586 3.099022 0.002696
Hg -3.089586 0.002696 3.099022
Hg -6.185912 3.099022 3.099022
Hg -6.185912 0.002696 6.195348
Hg -3.089586 3.099022 6.195348
Hg -3.089586 0.002696 9.291674
Hg -6.185912 3.099022 9.291674
Hg -6.185912 0.002696 12.388000
Hg -3.089586 3.099022 12.388000
Hg -3.089586 0.002696 15.484326
Hg -6.185912 3.099022 15.484326
Hg -6.185912 0.002696 18.580652
Hg -3.089586 3.099022 18.580652
Hg -3.089586 0.002696 21.676978
Hg -6.185912 3.099022 21.676978
Hg -3.089586 6.195348 -21.671586
Hg -6.185912 9.291674 -21.671586
Hg -6.185912 6.195348 -18.575260
Hg -3.089586 9.291674 -18.575260
Hg -3.089586 6.195348 -15.478934
Hg -6.185912 9.291674 -15.478934
Hg -6.185912 6.195348 -12.382608
Hg -3.089586 9.291674 -12.382608
Hg -3.089586 6.195348 -9.286282
Hg -6.185912 9.291674 -9.286282
Hg -6.185912 6.195348 -6.189956
Hg -3.089586 9.291674 -6.189956
Hg -3.089586 6.195348 -3.093630
Hg -6.185912 9.291674 -3.093630
Hg -6.185912 6.195348 0.002696
Hg -3.089586 9.291674 0.002696
Hg -3.089586 6.195348 3.099022
Hg -6.185912 9.291674 3.099022
Hg -6.185912 6.195348 6.195348
Hg -3.089586 9.291674 6.195348
Hg -3.089586 6.195348 9.291674
Hg -6.185912 9.291674 9.291674
Hg -6.185912 6.195348 12.388000
Hg -3.089586 9.291674 12.388000
Hg -3.089586 6.195348 15.484326
Hg -6.185912 9.291674 15.484326
Hg -6.185912 6.195348 18.580652
Hg -3.089586 9.291674 18.580652
Hg -3.089586 6.195348 21.676978
Hg -6.185912 9.291674 21.676978
Hg -3.089586 12.388000 -21.671586
Hg -6.185912 12.388000 -18.575260
Hg -3.089586 15.484326 -18.575260
Hg -3.089586 12.388000 -15.478934
Hg -6.185912 15.484326 -15.478934
Hg -6.185912 12.388000 -12.382608
Hg -3.089586 15.484326 -12.382608
Hg -3.089586 12.388000 -9.286282
Hg -6.185912 15.484326 -9.286282
Hg -6.185912 12.388000 -6.189956
Hg -3.089586 15.484326 -6.189956
Hg -3.089586 12.388000 -3.093630
Hg -6.185912 15.484326 -3.093630
Hg -6.185912 12.388000 0.002696
Hg -3.089586 15.484326 0.002696
Hg -3.089586 12.388000 3.099022
Hg -6.185912 15.484326 3.099022
Hg -6.185912 12.388000 6.195348
Hg -3.089586 15.484326 6.195348
Hg -3.089586 12.388000 9.291674
Hg -6.185912 15.484326 9.291674
Hg -6.185912 12.388000 12.388000
Hg -3.089586 15.484326 12.388000
Hg -3.089586 12.388000 15.484326
Hg -6.185912 15.484326 15.484326
Hg -6.185912 12.388000 18.580652
Hg -3.089586 15.484326 18.580652
Hg -3.089586 12.388000 21.676978
Hg -3.089586 18.580652 -15.478934
Hg -6.185912 18.580652 -12.382608
Hg -3.089586 21.676978 -12.382608
Hg -3.089586 18.580652 -9.286282
Hg -6.185912 21.676978 -9.286282
Hg -6.185912 18.580652 -6.189956
Hg -3.089586 21.676978 -6.189956
Hg -3.089586 18.580652 -3.093630
Hg -6.185912 21.676978 -3.093630
Hg -6.185912 18.580652 0.002696
Hg -3.089586 21.676978 0.002696
Hg -3.089586 18.580652 3.099022
Hg -6.185912 21.676978 3.099022
Hg -6.185912 18.580652 6.195348
Hg -3.089586 21.676978 6.195348
Hg -3.089586 18.580652 9.291674
Hg -6.185912 21.676978 9.291674
Hg -6.185912 18.580652 12.388000
Hg -3.089586 21.676978 12.388000
Hg -3.089586 18.580652 15.484326
Hg 3.103066 -21.671586 -12.382608
Hg 0.006740 -21.671586 -9.286282
Hg 3.103066 -21.671586 -6.189956
Hg 0.006740 -21.671586 -3.093630
Hg 3.103066 -21.671586 0.002696
Hg 0.006740 -21.671586 3.099022
Hg 3.103066 -21.671586 6.195348
Hg 0.006740 -21.671586 9.291674
Hg 3.103066 -21.671586 12.388000
Hg 3.103066 -15.478934 -18.575260
Hg 3.103066 -18.575260 -15.478934
Hg 0.006740 -15.478934 -15.478934
Hg 0.006740 -18.575260 -12.382608
Hg 3.103066 -15.478934 -12.382608
Hg 3.103066 -18.575260 -9.286282
Hg 0.006740 -15.478934 -9.286282
Hg 0.006740 -18.575260 -6.189956
Hg 3.103066 -15.478934 -6.189956
Hg 3.103066 -18.575260 -3.093630
Hg 0.006740 -15.478934 -3.093630
Hg 0.006740 -18.575260 0.002696
Hg 3.103066 -15.478934 0.002696
Hg 3.103066 -18.575260 3.099022
Hg 0.006740 -15.478934 3.099022
Hg 0.006740 -18.575260 6.195348
Hg 3.103066 -15.478934 6.195348
Hg 3.103066 -18.575260 9.291674
Hg 0.006740 -15.478934 9.291674
Hg 0.006740 -18.575260 12.388000
Hg 3.103066 -15.478934 12.388000
Hg 3.103066 -18.575260 15.484326
Hg 0.006740 -15.478934 15.484326
Hg 3.103066 -15.478934 18.580652
Hg 3.103066 -12.382608 -21.671586
Hg 0.006740 -9.286282 -21.671586
Hg 0.006740 -12.382608 -18.575260
Hg 3.103066 -9.286282 -18.575260
Hg 3.103066 -12.382608 -15.478934
Hg 0.006740 -9.286282 -15.478934
Hg 0.006740 -12.382608 -12.382608
Hg 3.103066 -9.286282 -12.382608
Hg 3.103066 -12.382608 -9.286282
Hg 0.006740 -9.286282 -9.286282
Hg 0.006740 -12.382608 -6.189956
Hg 3.103066 -9.286282 -6.189956
Hg 3.103066 -12.382608 -3.093630
Hg 0.006740 -9.286282 -3.093630
Hg 0.006740 -12.382608 0.002696
Hg 3.103066 -9.286282 0.002696
Hg 3.103066 -12.382608 3.099022
Hg 0.006740 -9.286282 3.099022
Hg 0.006740 -12.382608 6.195348
Hg 3.103066 -9.286282 6.195348
Hg 3.103066 -12.382608 9.291674
Hg 0.006740 -9.286282 9.291674
Hg 0.006740 -12.382608 12.388000
Hg 3.103066 -9.286282 12.388000
Hg 3.103066 -12.382608 15.484326
Hg 0.006740 -9.286282 15.484326
Hg 0.006740 -12.382608 18.580652
Hg 3.103066 -9.286282 18.580652
Hg 3.103066 -12.382608 21.676978
Hg 0.006740 -9.286282 21.676978
Hg 3.103066 -6.189956 -21.671586
Hg 0.006740 -3.093630 -21.671586
Hg 0.006740 -6.189956 -18.575260
Hg 3.103066 -3.093630 -18.575260
Hg 3.103066 -6.189956 -15.478934
Hg 0.006740 -3.093630 -15.478934
Hg 0.006740 -6.189956 -12.382608
Hg 3.103066 -3.093630 -12.382608
Hg 3.103066 -6.189956 -9.286282
Hg 0.006740 -3.093630 -9.286282
Hg 0.006740 -6.189956 -6.189956
Hg 3.103066 -3.093630 -6.189956
Hg 3.103066 -6.189956 -3.093630
Hg 0.006740 -3.093630 -3.093630
Hg 0.006740 -6.189956 0.002696
Hg 3.103066 -3.093630 0.002696
Hg 3.103066 -6.189956 3.099022
Hg 0.006740 -3.093630 3.099022
Hg 0.006740 -6.189956 6.195348
Hg 3.103066 -3.093630 6.195348
Hg 3.103066 -6.189956 9.291674
Hg 0.006740 -3.093630 9.291674
Hg 0.006740 -6.189956 12.388000
Hg 3.103066 -3.093630 12.388000
Hg 3.103066 -6.189956 15.484326
Hg 0.006740 -3.093630 15.484326
Hg 0.006740 -6.189956 18.580652
Hg 3.103066 -3.093630 18.580652
Hg 3.103066 -6.189956 21.676978
Hg 0.006740 -3.093630 21.676978
Hg 3.103066 0.002696 -21.671586
Hg 0.006740 3.099022 -21.671586
Hg 0.006740 0.002696 -18.575260
Hg 3.103066 3.099022 -18.575260
Hg 3.103066 0.002696 -15.478934
Hg 0.006740 3.099022 -15.478934
Hg 0.006740 0.002696 -12.382608
Hg 3.103066 3.099022 -12.382608
Hg 3.103066 0.002696 -9.286282
Hg 0.006740 3.099022 -9.286282
Hg 0.006740 0.002696 -6.189956
Hg 3.103066 3.099022 -6.189956
Hg 3.103066 0.002696 -3.093630
Hg 0.006740 3.099022 -3.093630
Hg 0.006740 0.002696 0.002696
Hg 3.103066 3.099022 0.002696
Hg 3.103066 0.002696 3.099022
Hg 0.006740 3.099022 3.099022
Hg 0.006740 0.002696 6.195348
Hg 3.103066 3.099022 6.195348
Hg 3.103066 0.002696 9.291674
Hg 0.006740 3.099022 9.291674
Hg 0.006740 0.002696 12.388000
Hg 3.103066 3.099022 12.388000
Hg 3.103066 0.002696 15.484326
Hg 0.006740 3.099022 15.484326
Hg 0.006740 0.002696 18.580652
Hg 3.103066 3.099022 18.580652
Hg 3.103066 0.002696 21.676978
Hg 0.006740 3.099022 21.676978
Hg 3.103066 6.195348 -21.671586
Hg 0.006740 9.291674 -21.671586
Hg 0.006740 6.195348 -18.575260
Hg 3.103066 9.291674 -18.575260
Hg 3.103066 6.195348 -15.478934
Hg 0.006740 9.291674 -15.478934
Hg 0.006740 6.195348 -12.382608
Hg 3.103066 9.291674 -12.382608
Hg 3.103066 6.195348 -9.286282
Hg 0.006740 9.291674 -9.286282
Hg 0.006740 6.195348 -6.189956
Hg 3.103066 9.291674 -6.189956
Hg 3.103066 6.195348 -3.093630
Hg 0.006740 9.291674 -3.093630
Hg 0.006740 6.195348 0.002696
Hg 3.103066 9.291674 0.002696
Hg 3.103066 6.195348 3.099022
Hg 0.006740 9.291674 3.099022
Hg 0.006740 6.195348 6.195348
Hg 3.103066 9.291674 6.195348
Hg 3.103066 6.195348 9.291674
Hg 0.006740 9.291674 9.291674
Hg 0.006740 6.195348 12.388000
Hg 3.103066 9.291674 12.388000
Hg 3.103066 6.195348 15.484326
Hg 0.006740 9.291674 15.484326
Hg 0.006740 6.195348 18.580652
Hg 3.103066 9.291674 18.580652
Hg 3.103066 6.195348 21.676978
Hg 0.006740 9.291674 21.676978
Hg 3.103066 12.388000 -21.671586
Hg 0.006740 12.388000 -18.575260
Hg 3.103066 15.484326 -18.575260
Hg 3.103066 12.388000 -15.478934
Hg 0.006740 15.484326 -15.478934
Hg 0.006740 12.388000 -12.382608
Hg 3.103066 15.484326 -12.382608
Hg 3.103066 12.388000 -9.286282
Hg 0.006740 15.484326 -9.286282
Hg 0.006740 12.388000 -6.189956
Hg 3.103066 15.484326 -6.189956
Hg 3.103066 12.388000 -3.093630
Hg 0.006740 15.484326 -3.093630
Hg 0.006740 12.388000 0.002696
Hg 3.103066 15.484326 0.002696
Hg 3.103066 12.388000 3.099022
Hg 0.006740 15.484326 3.099022
Hg 0.006740 12.388000 6.195348
Hg 3.103066 15.484326 6.195348
Hg 3.103066 12.388000 9.291674
Hg 0.006740 15.484326 9.291674
Hg 0.006740 12.388000 12.388000
Hg 3.103066 15.484326 12.388000
Hg 3.103066 12.388000 15.484326
Hg 0.006740 15.484326 15.484326
Hg 0.006740 12.388000 18.580652
Hg 3.103066 15.484326 18.580652
Hg 3.103066 12.388000 21.676978
Hg 3.103066 18.580652 -15.478934
Hg 0.006740 18.580652 -12.382608
Hg 3.103066 21.676978 -12.382608
Hg 3.103066 18.580652 -9.286282
Hg 0.006740 21.676978 -9.286282
Hg 0.006740 18.580652 -6.189956
Hg 3.103066 21.676978 -6.189956
Hg 3.103066 18.580652 -3.093630
Hg 0.006740 21.676978 -3.093630
Hg 0.006740 18.580652 0.002696
Hg 3.103066 21.676978 0.002696
Hg 3.103066 18.580652 3.099022
Hg 0.006740 21.676978 3.099022
Hg 0.006740 18.580652 6.195348
Hg 3.103066 21.676978 6.195348
Hg 3.103066 18.580652 9.291674
Hg 0.006740 21.676978 9.291674
Hg 0.006740 18.580652 12.388000
Hg 3.103066 21.676978 12.388000
Hg 3.103066 18.580652 15.484326
Hg 6.199392 -21.671586 -9.286282
Hg 9.295718 -21.671586 -6.189956
Hg 6.199392 -21.671586 -3.093630
Hg 9.295718 -21.671586 0.002696
Hg 6.199392 -21.671586 3.099022
Hg 9.295718 -21.671586 6.195348
Hg 6.199392 -21.671586 9.291674
Hg 6.199392 -15.478934 -15.478934
Hg 6.199392 -18.575260 -12.382608
Hg 9.295718 -15.478934 -12.382608
Hg 9.295718 -18.575260 -9.286282
Hg 6.199392 -15.478934 -9.286282
Hg 6.199392 -18.575260 -6.189956
Hg 9.295718 -15.478934 -6.189956
Hg 9.295718 -18.575260 -3.093630
Hg 6.199392 -15.478934 -3.093630
Hg 6.199392 -18.575260 0.002696
Hg 9.295718 -15.478934 0.002696
Hg 9.295718 -18.575260 3.099022
Hg 6.199392 -15.478934 3.099022
Hg 6.199392 -18.575260 6.195348
Hg 9.295718 -15.478934 6.195348
Hg 9.295718 -18.575260 9.291674
Hg 6.199392 -15.478934 9.291674
Hg 6.199392 -18.575260 12.388000
Hg 9.295718 -15.478934 12.388000
Hg 6.199392 -15.478934 15.484326
Hg 6.199392 -9.286282 -21.671586
Hg 6.199392 -12.382608 -18.575260
Hg 9.295718 -9.286282 -18.575260
Hg 9.295718 -12.382608 -15.478934
Hg 6.199392 -9.286282 -15.478934
Hg 6.199392 -12.382608 -12.382608
Hg 9.295718 -9.286282 -12.382608
Hg 9.295718 -12.382608 -9.286282
Hg 6.199392 -9.286282 -9.286282
Hg 6.199392 -12.382608 -6.189956
Hg 9.295718 -9.286282 -6.189956
Hg 9.295718 -12.382608 -3.093630
Hg 6.199392 -9.286282 -3.093630
Hg 6.199392 -12.382608 0.002696
Hg 9.295718 -9.286282 0.002696
Hg 9.295718 -12.382608 3.099022
Hg 6.199392 -9.286282 3.099022
Hg 6.199392 -12.382608 6.195348
Hg 9.295718 -9.286282 6.195348
Hg 9.295718 -12.382608 9.291674
Hg 6.199392 -9.286282 9.291674
Hg 6.199392 -12.382608 12.388000
Hg 9.295718 -9.286282 12.388000
Hg 9.295718 -12.382608 15.484326
Hg 6.199392 -9.286282 15.484326
Hg 6.199392 -12.382608 18.580652
Hg 9.295718 -9.286282 18.580652
Hg 6.199392 -9.286282 21.676978
Hg 9.295718 -6.189956 -21.671586
Hg 6.199392 -3.093630 -21.671586
Hg 6.199392 -6.189956 -18.575260
Hg 9.295718 -3.093630 -18.575260
Hg 9.295718 -6.189956 -15.478934
Hg 6.199392 -3.093630 -15.478934
Hg 6.199392 -6.189956 -12.382608
Hg 9.295718 -3.093630 -12.382608
Hg 9.295718 -6.189956 -9.286282
Hg 6.199392 -3.093630 -9.286282
Hg 6.199392 -6.189956 -6.189956
Hg 9.295718 -3.093630 -6.189956
Hg 9.295718 -6.189956 -3.093630
Hg 6.199392 -3.093630 -3.093630
Hg 6.199392 -6.189956 0.002696
Hg 9.295718 -3.093630 0.002696
Hg 9.295718 -6.189956 3.099022
Hg 6.199392 -3.093630 3.099022
Hg 6.199392 -6.189956 6.195348
Hg 9.295718 -3.093630 6.195348
Hg 9.295718 -6.189956 9.291674
Hg 6.199392 -3.093630 9.291674
Hg 6.199392 -6.189956 12.388000
Hg 9.295718 -3.093630 12.388000
Hg 9.295718 -6.189956 15.484326
Hg 6.199392 -3.093630 15.484326
Hg 6.199392 -6.189956 18.580652
Hg 9.295718 -3.093630 18.580652
Hg 9.295718 -6.189956 21.676978
Hg 6.199392 -3.093630 21.676978
Hg 9.295718 0.002696 -21.671586
Hg 6.199392 3.099022 -21.671586
Hg 6.199392 0.002696 -18.575260
Hg 9.295718 3.099022 -18.575260
Hg 9.295718 0.002696 -15.478934
Hg 6.199392 3.099022 -15.478934
Hg 6.199392 0.002696 -12.382608
Hg 9.295718 3.099022 -12.382608
Hg 9.295718 0.002696 -9.286282
Hg 6.199392 3.099022 -9.286282
Hg 6.199392 0.002696 -6.189956
Hg 9.295718 3.099022 -6.189956
Hg 9.295718 0.002696 -3.093630
Hg 6.199392 3.099022 -3.093630
Hg 6.199392 0.002696 0.002696
Hg 9.295718 3.099022 0.002696
Hg 9.295718 0.002696 3.099022
Hg 6.199392 3.099022 3.099022
Hg 6.199392 0.002696 6.195348
Hg 9.295718 3.099022 6.195348
Hg 9.295718 0.002696 9.291674
Hg 6.199392 3.099022 9.291674
Hg 6.199392 0.002696 12.388000
Hg 9.295718 3.099022 12.388000
Hg 9.295718 0.002696 15.484326
Hg 6.199392 3.099022 15.484326
Hg 6.199392 0.002696 18.580652
Hg 9.295718 3.099022 18.580652
Hg 9.295718 0.002696 21.676978
Hg 6.199392 3.099022 21.676978
Hg 9.295718 6.195348 -21.671586
Hg 6.199392 9.291674 -21.671586
Hg 6.199392 6.195348 -18.575260
Hg 9.295718 9.291674 -18.575260
Hg 9.295718 6.195348 -15.478934
Hg 6.199392 9.291674 -15.478934
Hg 6.199392 6.195348 -12.382608
Hg 9.295718 9.291674 -12.382608
Hg 9.295718 6.195348 -9.286282
Hg 6.199392 9.291674 -9.286282
Hg 6.199392 6.195348 -6.189956
Hg 9.295718 9.291674 -6.189956
Hg 9.295718 6.195348 -3.093630
Hg 6.199392 9.291674 -3.093630
Hg 6.199392 6.195348 0.002696
Hg 9.295718 9.291674 0.002696
Hg 9.295718 6.195348 3.099022
Hg 6.199392 9.291674 3.099022
Hg 6.199392 6.195348 6.195348
Hg 9.295718 9.291674 6.195348
Hg 9.295718 6.195348 9.291674
Hg 6.199392 9.291674 9.291674
Hg 6.199392 6.195348 12.388000
Hg 9.295718 9.291674 12.388000
Hg 9.295718 6.195348 15.484326
Hg 6.199392 9.291674 15.484326
Hg 6.199392 6.195348 18.580652
Hg 9.295718 9.291674 18.580652
Hg 9.295718 6.195348 21.676978
Hg 6.199392 9.291674 21.676978
Hg 6.199392 12.388000 -18.575260
Hg 9.295718 12.388000 -15.478934
Hg 6.199392 15.484326 -15.478934
Hg 6.199392 12.388000 -12.382608
Hg 9.295718 15.484326 -12.382608
Hg 9.295718 12.388000 -9.286282
Hg 6.199392 15.484326 -9.286282
Hg 6.199392 12.388000 -6.189956
Hg 9.295718 15.484326 -6.189956
Hg 9.295718 12.388000 -3.093630
Hg 6.199392 15.484326 -3.093630
Hg 6.199392 12.388000 0.002696
Hg 9.295718 15.484326 0.002696
Hg 9.295718 12.388000 3.099022
Hg 6.199392 15.484326 3.099022
Hg 6.199392 12.388000 6.195348
Hg 9.295718 15.484326 6.195348
Hg 9.295718 12.388000 9.291674
Hg 6.199392 15.484326 9.291674
Hg 6.199392 12.388000 12.388000
Hg 9.295718 15.484326 12.388000
Hg 9.295718 12.388000 15.484326
Hg 6.199392 15.484326 15.484326
Hg 6.199392 12.388000 18.580652
Hg 6.199392 18.580652 -12.382608
Hg 9.295718 18.580652 -9.286282
Hg 6.199392 21.676978 -9.286282
Hg 6.199392 18.580652 -6.189956
Hg 9.295718 21.676978 -6.189956
Hg 9.295718 18.580652 -3.093630
Hg 6.199392 21.676978 -3.093630
Hg 6.199392 18.580652 0.002696
Hg 9.295718 21.676978 0.002696
Hg 9.295718 18.580652 3.099022
Hg 6.199392 21.676978 3.099022
Hg 6.199392 18.580652 6.195348
Hg 9.295718 21.676978 6.195348
Hg 9.295718 18.580652 9.291674
Hg 6.199392 21.676978 9.291674
Hg 6.199392 18.580652 12.388000
Hg 12.392044 -21.671586 -3.093630
Hg 12.392044 -21.671586 3.099022
Hg 12.392044 -15.478934 -9.286282
Hg 12.392044 -18.575260 -6.189956
Hg 15.488370 -15.478934 -6.189956
Hg 15.488370 -18.575260 -3.093630
Hg 12.392044 -15.478934 -3.093630
Hg 12.392044 -18.575260 0.002696
Hg 15.488370 -15.478934 0.002696
Hg 15.488370 -18.575260 3.099022
Hg 12.392044 -15.478934 3.099022
Hg 12.392044 -18.575260 6.195348
Hg 15.488370 -15.478934 6.195348
Hg 12.392044 -15.478934 9.291674
Hg 12.392044 -9.286282 -15.478934
Hg 12.392044 -12.382608 -12.382608
Hg 15.488370 -9.286282 -12.382608
Hg 15.488370 -12.382608 -9.286282
Hg 12.392044 -9.286282 -9.286282
Hg 12.392044 -12.382608 -6.189956
Hg 15.488370 -9.286282 -6.189956
Hg 15.488370 -12.382608 -3.093630
Hg 12.392044 -9.286282 -3.093630
Hg 12.392044 -12.382608 0.002696
Hg 15.488370 -9.286282 0.002696
Hg 15.488370 -12.382608 3.099022
Hg 12.392044 -9.286282 3.099022
Hg 12.392044 -12.382608 6.195348
Hg 15.488370 -9.286282 6.195348
Hg 15.488370 -12.382608 9.291674
Hg 12.392044 -9.286282 9.291674
Hg 12.392044 -12.382608 12.388000
Hg 15.488370 -9.286282 12.388000
Hg 12.392044 -9.286282 15.484326
Hg 12.392044 -3.093630 -21.671586
Hg 12.392044 -6.189956 -18.575260
Hg 15.488370 -3.093630 -18.575260
Hg 15.488370 -6.189956 -15.478934
Hg 12.392044 -3.093630 -15.478934
Hg 12.392044 -6.189956 -12.382608
Hg 15.488370 -3.093630 -12.382608
Hg 15.488370 -6.189956 -9.286282
Hg 12.392044 -3.093630 -9.286282
Hg 12.392044 -6.189956 -6.189956
Hg 15.488370 -3.093630 -6.189956
Hg 15.488370 -6.189956 -3.093630
Hg 12.392044 -3.093630 -3.093630
Hg 12.392044 -6.189956 0.002696
Hg 15.488370 -3.093630 0.002696
Hg 15.488370 -6.189956 3.099022
Hg 12.392044 -3.093630 3.099022
Hg 12.392044 -6.189956 6.195348
Hg 15.488370 -3.093630 6.195348
Hg 15.488370 -6.189956 9.291674
Hg 12.392044 -3.093630 9.291674
Hg 12.392044 -6.189956 12.388000
Hg 15.488370 -3.093630 12.388000
Hg 15.488370 -6.189956 15.484326
Hg 12.392044 -3.093630 15.484326
Hg 12.392044 -6.189956 18.580652
Hg 15.488370 -3.093630 18.580652
Hg 12.392044 -3.093630 21.676978
Hg 12.392044 3.099022 -21.671586
Hg 12.392044 0.002696 -18.575260
Hg 15.488370 3.099022 -18.575260
Hg 15.488370 0.002696 -15.478934
Hg 12.392044 3.099022 -15.478934
Hg 12.392044 0.002696 -12.382608
Hg 15.488370 3.099022 -12.382608
Hg 15.488370 0.002696 -9.286282
Hg 12.392044 3.099022 -9.286282
Hg 12.392044 0.002696 -6.189956
Hg 15.488370 3.099022 -6.189956
Hg 15.488370 0.002696 -3.093630
Hg 12.392044 3.099022 -3.093630
Hg 12.392044 0.002696 0.002696
Hg 15.488370 3.099022 0.002696
Hg 15.488370 0.002696 3.099022
Hg 12.392044 3.099022 3.099022
Hg 12.392044 0.002696 6.195348
Hg 15.488370 3.099022 6.195348
Hg 15.488370 0.002696 9.291674
Hg 12.392044 3.099022 9.291674
Hg 12.392044 0.002696 12.388000
Hg 15.488370 3.099022 12.388000
Hg 15.488370 0.002696 15.484326
Hg 12.392044 3.099022 15.484326
Hg 12.392044 0.002696 18.580652
Hg 15.488370 3.099022 18.580652
Hg 12.392044 3.099022 21.676978
Hg 12.392044 6.195348 -18.575260
Hg 15.488370 6.195348 -15.478934
Hg 12.392044 9.291674 -15.478934
Hg 12.392044 6.195348 -12.382608
Hg 15.488370 9.291674 -12.382608
Hg 15.488370 6.195348 -9.286282
Hg 12.392044 9.291674 -9.286282
Hg 12.392044 6.195348 -6.189956
Hg 15.488370 9.291674 -6.189956
Hg 15.488370 6.195348 -3.093630
Hg 12.392044 9.291674 -3.093630
Hg 12.392044 6.195348 0.002696
Hg 15.488370 9.291674 0.002696
Hg 15.488370 6.195348 3.099022
Hg 12.392044 9.291674 3.099022
Hg 12.392044 6.195348 6.195348
Hg 15.488370 9.291674 6.195348
Hg 15.488370 6.195348 9.291674
Hg 12.392044 9.291674 9.291674
Hg 12.392044 6.195348 12.388000
Hg 15.488370 9.291674 12.388000
Hg 15.488370 6.195348 15.484326
Hg 12.392044 9.291674 15.484326
Hg 12.392044 6.195348 18.580652
Hg 12.392044 12.388000 -12.382608
Hg 15.488370 12.388000 -9.286282
Hg 12.392044 15.484326 -9.286282
Hg 12.392044 12.388000 -6.189956
Hg 15.488370 15.484326 -6.189956
Hg 15.488370 12.388000 -3.093630
Hg 12.392044 15.484326 -3.093630
Hg 12.392044 12.388000 0.002696
Hg 15.488370 15.484326 0.002696
Hg 15.488370 12.388000 3.099022
Hg 12.392044 15.484326 3.099022
Hg 12.392044 12.388000 6.195348
Hg 15.488370 15.484326 6.195348
Hg 15.488370 12.388000 9.291674
Hg 12.392044 15.484326 9.291674
Hg 12.392044 12.388000 12.388000
Hg 12.392044 18.580652 -6.189956
Hg 15.488370 18.580652 -3.093630
Hg 12.392044 21.676978 -3.093630
Hg 12.392044 18.580652 0.002696
Hg 15.488370 18.580652 3.099022
Hg 12.392044 21.676978 3.099022
Hg 12.392044 18.580652 6.195348
Hg 18.584696 -15.478934 -3.093630
Hg 18.584696 -15.478934 3.099022
Hg 18.584696 -9.286282 -9.286282
Hg 18.584696 -12.382608 -6.189956
Hg 21.681022 -9.286282 -6.189956
Hg 21.681022 -12.382608 -3.093630
Hg 18.584696 -9.286282 -3.093630
Hg 18.584696 -12.382608 0.002696
Hg 21.681022 -9.286282 0.002696
Hg 21.681022 -12.382608 3.099022
Hg 18.584696 -9.286282 3.099022
Hg 18.584696 -12.382608 6.195348
Hg 21.681022 -9.286282 6.195348
Hg 18.584696 -9.286282 9.291674
Hg 18.584696 -3.093630 -15.478934
Hg 18.584696 -6.189956 -12.382608
Hg 21.681022 -3.093630 -12.382608
Hg 21.681022 -6.189956 -9.286282
Hg 18.584696 -3.093630 -9.286282
Hg 18.584696 -6.189956 -6.189956
Hg 21.681022 -3.093630 -6.189956
Hg 21.681022 -6.189956 -3.093630
Hg 18.584696 -3.093630 -3.093630
Hg 18.584696 -6.189956 0.002696
Hg 21.681022 -3.093630 0.002696
Hg 21.681022 -6.189956 3.099022
Hg 18.584696 -3.093630 3.099022
Hg 18.584696 -6.189956 6.195348
Hg 21.681022 -3.093630 6.195348
Hg 21.681022 -6.189956 9.291674
Hg 18.584696 -3.093630 9.291674
Hg 18.584696 -6.189956 12.388000
Hg 21.681022 -3.093630 12.388000
Hg 18.584696 -3.093630 15.484326
Hg 18.584696 3.099022 -15.478934
Hg 18.584696 0.002696 -12.382608
Hg 21.681022 3.099022 -12.382608
Hg 21.681022 0.002696 -9.286282
Hg 18.584696 3.099022 -9.286282
Hg 18.584696 0.002696 -6.189956
Hg 21.681022 3.099022 -6.189956
Hg 21.681022 0.002696 -3.093630
Hg 18.584696 3.099022 -3.093630
Hg 18.584696 0.002696 0.002696
Hg 21.681022 3.099022 0.002696
Hg 21.681022 0.002696 3.099022
Hg 18.584696 3.099022 3.099022
Hg 18.584696 0.002696 6.195348
Hg 21.681022 3.099022 6.195348
Hg 21.681022 0.002696 9.291674
Hg 18.584696 3.099022 9.291674
Hg 18.584696 0.002696 12.388000
Hg 21.681022 3.099022 12.388000
Hg 18.584696 3.099022 15.484326
Hg 18.584696 6.195348 -12.382608
Hg 21.681022 6.195348 -9.286282
Hg 18.584696 9.291674 -9.286282
Hg 18.584696 6.195348 -6.189956
Hg 21.681022 9.291674 -6.189956
Hg 21.681022 6.195348 -3.093630
Hg 18.584696 9.291674 -3.093630
Hg 18.584696 6.195348 0.002696
Hg 21.681022 9.291674 0.002696
Hg 21.681022 6.195348 3.099022
Hg 18.584696 9.291674 3.099022
Hg 18.584696 6.195348 6.195348
Hg 21.681022 9.291674 6.195348
Hg 21.681022 6.195348 9.291674
Hg 18.584696 9.291674 9.291674
Hg 18.584696 6.195348 12.388000
Hg 18.584696 12.388000 -6.189956
Hg 21.681022 12.388000 -3.093630
Hg 18.584696 15.484326 -3.093630
Hg 18.584696 12.388000 0.002696
Hg 21.681022 12.388000 3.099022
Hg 18.584696 15.484326 3.099022
Hg 18.584696 12.388000 6.195348
Se -20.119379 -13.930771 -1.545467
Se -20.119379 -13.930771 4.647185
Se -20.119379 -7.738119 -7.738119
Se -20.119379 -7.738119 -1.545467
Se -20.119379 -10.834445 -4.641793
Se -20.119379 -7.738119 4.647185
Se -20.119379 -10.834445 1.550859
Se -20.119379 -7.738119 10.839837
Se -20.119379 -10.834445 7.743511
Se -20.119379 -1.545467 -13.930771
Se -20.119379 -1.545467 -7.738119
Se -20.119379 -4.641793 -10.834445
Se -20.119379 -1.545467 -1.545467
Se -20.119379 -4.641793 -4.641793
Se -20.119379 -1.545467 4.647185
Se -20.119379 -4.641793 1.550859
Se -20.119379 -1.545467 10.839837
Se -20.119379 -4.641793 7.743511
Se -20.119379 -4.641793 13.936163
Se -20.119379 4.647185 -13.930771
Se -20.119379 4.647185 -7.738119
Se -20.119379 1.550859 -10.834445
Se -20.119379 4.647185 -1.545467
Se -20.119379 1.550859 -4.641793
Se -20.119379 4.647185 4.647185
Se -20.119379 1.550859 1.550859
Se -20.119379 4.647185 10.839837
Se -20.119379 1.550859 7.743511
Se -20.119379 1.550859 13.936163
Se -20.119379 10.839837 -7.738119
Se -20.119379 7.743511 -10.834445
Se -20.119379 10.839837 -1.545467
Se -20.119379 7.743511 -4.641793
Se -20.119379 10.839837 4.647185
Se -20.119379 7.743511 1.550859
Se -20.119379 7.743511 7.743511
Se -20.119379 13.936163 -4.641793
Se -20.119379 13.936163 1.550859
Se -13.926727 -20.123423 -1.545467
Se -13.926727 -20.123423 4.647185
Se -13.926727 -13.930771 -7.738119
Se -17.023053 -17.027097 -1.545467
Se -17.023053 -13.930771 -4.641793
Se -13.926727 -13.930771 -1.545467
Se -13.926727 -17.027097 -4.641793
Se -17.023053 -17.027097 4.647185
Se -17.023053 -13.930771 1.550859
Se -13.926727 -13.930771 4.647185
Se -13.926727 -17.027097 1.550859
Se -17.023053 -13.930771 7.743511
Se -13.926727 -13.930771 10.839837
Se -13.926727 -17.027097 7.743511
Se -13.926727 -7.738119 -13.930771
Se -17.023053 -10.834445 -7.738119
Se -17.023053 -7.738119 -10.834445
Se -13.926727 -7.738119 -7.738119
Se -13.926727 -10.834445 -10.834445
Se -17.023053 -10.834445 -1.545467
Se -17.023053 -7.738119 -4.641793
Se -13.926727 -7.738119 -1.545467
Se -13.926727 -10.834445 -4.641793
Se -17.023053 -10.834445 4.647185
Se -17.023053 -7.738119 1.550859
Se -13.926727 -7.738119 4.647185
Se -13.926727 -10.834445 1.550859
Se -17.023053 -10.834445 10.839837
Se -17.023053 -7.738119 7.743511
Se -13.926727 -7.738119 10.839837
Se -13.926727 -10.834445 7.743511
Se -17.023053 -7.738119 13.936163
Se -13.926727 -7.738119 17.032489
Se -13.926727 -10.834445 13.936163
Se -13.926727 -1.545467 -20.123423
Se -17.023053 -4.641793 -13.930771
Se -17.023053 -1.545467 -17.027097
Se -13.926727 -1.545467 -13.930771
Se -13.926727 -4.641793 -17.027097
Se -17.023053 -4.641793 -7.738119
Se -17.023053 -1.545467 -10.834445
Se -13.926727 -1.545467 -7.738119
Se -13.926727 -4.641793 -10.834445
Se -17.023053 -4.641793 -1.545467
Se -17.023053 -1.545467 -4.641793
Se -13.926727 -1.545467 -1.545467
Se -13.926727 -4.641793 -4.641793
Se -17.023053 -4.641793 4.647185
Se -17.023053 -1.545467 1.550859
Se -13.926727 -1.545467 4.647185
Se -13.926727 -4.641793 1.550859
Se -17.023053 -4.641793 10.839837
Se -17.023053 -1.545467 7.743511
Se -13.926727 -1.545467 10.839837
Se -13.926727 -4.641793 7.743511
Se -17.023053 -4.641793 17.032489
Se -17.023053 -1.545467 13.936163
Se -13.926727 -1.545467 17.032489
Se -13.926727 -4.641793 13.936163
Se -13.926727 -4.641793 20.128815
Se -13.926727 4.647185 -20.123423
Se -17.023053 1.550859 -13.930771
Se -17.023053 4.647185 -17.027097
Se -13.926727 4.647185 -13.930771
Se -13.926727 1.550859 -17.027097
Se -17.023053 1.550859 -7.738119
Se -17.023053 4.647185 -10.834445
Se -13.926727 4.647185 -7.738119
Se -13.926727 1.550859 -10.834445
Se -17.023053 1.550859 -1.545467
Se -17.023053 4.647185 -4.641793
Se -13.926727 4.647185 -1.545467
Se -13.926727 1.550859 -4.641793
Se -17.023053 1.550859 4.647185
Se -17.023053 4.647185 1.550859
Se -13.926727 4.647185 4.647185
Se -13.926727 1.550859 1.550859
Se -17.023053 1.550859 10.839837
Se -17.023053 4.647185 7.743511
Se -13.926727 4.647185 10.839837
Se -13.926727 1.550859 7.743511
Se -17.023053 1.550859 17.032489
Se -17.023053 4.647185 13.936163
Se -13.926727 4.647185 17.032489
Se -13.926727 1.550859 13.936163
Se -13.926727 1.550859 20.128815
Se -17.023053 7.743511 -13.930771
Se -13.926727 10.839837 -13.930771
Se -13.926727 7.743511 -17.027097
Se -17.023053 7.743511 -7.738119
Se -17.023053 10.839837 -10.834445
Se -13.926727 10.839837 -7.738119
Se -13.926727 7.743511 -10.834445
Se -17.023053 7.743511 -1.545467
Se -17.023053 10.839837 -4.641793
Se -13.926727 10.839837 -1.545467
Se -13.926727 7.743511 -4.641793
Se -17.023053 7.743511 4.647185
Se -17.023053 10.839837 1.550859
Se -13.926727 10.839837 4.647185
Se -13.926727 7.743511 1.550859
Se -17.023053 7.743511 10.839837
Se -17.023053 10.839837 7.743511
Se -13.926727 10.839837 10.839837
Se -13.926727 7.743511 7.743511
Se -13.926727 7.743511 13.936163
Se -17.023053 13.936163 -7.738119
Se -13.926727 17.032489 -7.738119
Se -13.926727 13.936163 -10.834445
Se -17.023053 13.936163 -1.545467
Se -17.023053 17.032489 -4.641793
Se -13.926727 17.032489 -1.545467
Se -13.926727 13.936163 -4.641793
Se -17.023053 13.936163 4.647185
Se -17.023053 17.032489 1.550859
Se -13.926727 17.032489 4.647185
Se -13.926727 13.936163 1.550859
Se -13.926727 13.936163 7.743511
Se -13.926727 20.128815 -4.641793
Se -13.926727 20.128815 1.550859
Se -7.734075 -20.123423 -7.738119
Se -10.830401 -20.123423 -4.641793
Se -7.734075 -20.123423 -1.545467
Se -10.830401 -20.123423 1.550859
Se -7.734075 -20.123423 4.647185
Se -10.830401 -20.123423 7.743511
Se -7.734075 -20.123423 10.839837
Se -7.734075 -13.930771 -13.930771
Se -10.830401 -17.027097 -7.738119
Se -10.830401 -13.930771 -10.834445
Se -7.734075 -13.930771 -7.738119
Se -7.734075 -17.027097 -10.834445
Se -10.830401 -17.027097 -1.545467
Se -10.830401 -13.930771 -4.641793
Se -7.734075 -13.930771 -1.545467
Se -7.734075 -17.027097 -4.641793
Se -10.830401 -17.027097 4.647185
Se -10.830401 -13.930771 1.550859
Se -7.734075 -13.930771 4.647185
Se -7.734075 -17.027097 1.550859
Se -10.830401 -17.027097 10.839837
Se -10.830401 -13.930771 7.743511
Se -7.734075 -13.930771 10.839837
Se -7.734075 -17.027097 7.743511
Se -10.830401 -13.930771 13.936163
Se -7.734075 -13.930771 17.032489
Se -7.734075 -17.027097 13.936163
Se -7.734075 -7.738119 -20.123423
Se -10.830401 -10.834445 -13.930771
Se -10.830401 -7.738119 -17.027097
Se -7.734075 -7.738119 -13.930771
Se -7.734075 -10.834445 -17.027097
Se -10.830401 -10.834445 -7.738119
Se -10.830401 -7.738119 -10.834445
Se -7.734075 -7.738119 -7.738119
Se -7.734075 -10.834445 -10.834445
Se -10.830401 -10.834445 -1.545467
Se -10.830401 -7.738119 -4.641793
Se -7.734075 -7.738119 -1.545467
Se -7.734075 -10.834445 -4.641793
Se -10.830401 -10.834445 4.647185
Se -10.830401 -7.738119 1.550859
Se -7.734075 -7.738119 4.647185
Se -7.734075 -10.834445 1.550859
Se -10.830401 -10.834445 10.839837
Se -10.830401 -7.738119 7.743511
Se -7.734075 -7.738119 10.839837
Se -7.734075 -10.834445 7.743511
Se -10.830401 -10.834445 17.032489
Se -10.830401 -7.738119 13.936163
Se -7.734075 -7.738119 17.032489
Se -7.734075 -10.834445 13.936163
Se -10.830401 -7.738119 20.128815
Se -7.734075 -10.834445 20.128815
Se -10.830401 -4.641793 -20.123423
Se -7.734075 -1.545467 -20.123423
Se -10.830401 -4.641793 -13.930771
Se -10.830401 -1.545467 -17.027097
Se -7.734075 -1.545467 -13.930771
Se -7.734075 -4.641793 -17.027097
Se -10.830401 -4.641793 -7.738119
Se -10.830401 -1.545467 -10.834445
Se -7.734075 -1.545467 -7.738119
Se -7.734075 -4.641793 -10.834445
Se -10.830401 -4.641793 -1.545467
Se -10.830401 -1.545467 -4.641793
Se -7.734075 -1.545467 -1.545467
Se -7.734075 -4.641793 -4.641793
Se -10.830401 -4.641793 4.647185
Se -10.830401 -1.545467 1.550859
Se -7.734075 -1.545467 4.647185
Se -7.734075 -4.641793 1.550859
Se -10.830401 -4.641793 10.839837
Se -10.830401 -1.545467 7.743511
Se -7.734075 -1.545467 10.839837
Se -7.734075 -4.641793 7.743511
Se -10.830401 -4.641793 17.032489
Se -10.830401 -1.545467 13.936163
Se -7.734075 -1.545467 17.032489
Se -7.734075 -4.641793 13.936163
Se -10.830401 -1.545467 20.128815
Se -7.734075 -4.641793 20.128815
Se -10.830401 1.550859 -20.123423
Se -7.734075 4.647185 -20.123423
Se -10.830401 1.550859 -13.930771
Se -10.830401 4.647185 -17.027097
Se -7.734075 4.647185 -13.930771
Se -7.734075 1.550859 -17.027097
Se -10.830401 1.550859 -7.738119
Se -10.830401 4.647185 -10.834445
Se -7.734075 4.647185 -7.738119
Se -7.734075 1.550859 -10.834445
Se -10.830401 1.550859 -1.545467
Se -10.830401 4.647185 -4.641793
Se -7.734075 4.647185 -1.545467
Se -7.734075 1.550859 -4.641793
Se -10.830401 1.550859 4.647185
Se -10.830401 4.647185 1.550859
Se -7.734075 4.647185 4.647185
Se -7.734075 1.550859 1.550859
Se -10.830401 1.550859 10.839837
Se -10.830401 4.647185 7.743511
Se -7.734075 4.647185 10.839837
Se -7.734075 1.550859 7.743511
Se -10.830401 1.550859 17.032489
Se -10.830401 4.647185 13.936163
Se -7.734075 4.647185 17.032489
Se -7.734075 1.550859 13.936163
Se -10.830401 4.647185 20.128815
Se -7.734075 1.550859 20.128815
Se -10.830401 7.743511 -20.123423
Se -7.734075 10.839837 -20.123423
Se -10.830401 7.743511 -13.930771
Se -10.830401 10.839837 -17.027097
Se -7.734075 10.839837 -13.930771
Se -7.734075 7.743511 -17.027097
Se -10.830401 7.743511 -7.738119
Se -10.830401 10.839837 -10.834445
Se -7.734075 10.839837 -7.738119
Se -7.734075 7.743511 -10.834445
Se -10.830401 7.743511 -1.545467
Se -10.830401 10.839837 -4.641793
Se -7.734075 10.839837 -1.545467
Se -7.734075 7.743511 -4.641793
Se -10.830401 7.743511 4.647185
Se -10.830401 10.839837 1.550859
Se -7.734075 10.839837 4.647185
Se -7.734075 7.743511 1.550859
Se -10.830401 7.743511 10.839837
Se -10.830401 10.839837 7.743511
Se -7.734075 10.839837 10.839837
Se -7.734075 7.743511 7.743511
Se -10.830401 7.743511 17.032489
Se -10.830401 10.839837 13.936163
Se -7.734075 10.839837 17.032489
Se -7.734075 7.743511 13.936163
Se -7.734075 7.743511 20.128815
Se -10.830401 13.936163 -13.930771
Se -7.734075 17.032489 -13.930771
Se -7.734075 13.936163 -17.027097
Se -10.830401 13.936163 -7.738119
Se -10.830401 17.032489 -10.834445
Se -7.734075 17.032489 -7.738119
Se -7.734075 13.936163 -10.834445
Se -10.830401 13.936163 -1.545467
Se -10.830401 17.032489 -4.641793
Se -7.734075 17.032489 -1.545467
Se -7.734075 13.936163 -4.641793
Se -10.830401 13.936163 4.647185
Se -10.830401 17.032489 1.550859
Se -7.734075 17.032489 4.647185
Se -7.734075 13.936163 1.550859
Se -10.830401 13.936163 10.839837
Se -10.830401 17.032489 7.743511
Se -7.734075 17.032489 10.839837
Se -7.734075 13.936163 7.743511
Se -7.734075 13.936163 13.936163
Se -10.830401 20.128815 -7.738119
Se -7.734075 20.128815 -10.834445
Se -10.830401 20.128815 -1.545467
Se -7.734075 20.128815 -4.641793
Se -10.830401 20.128815 4.647185
Se -7.734075 20.128815 1.550859
Se -7.734075 20.128815 7.743511
Se -1.541423 -20.123423 -13.930771
Se -4.637749 -20.123423 -10.834445
Se -1.541423 -20.123423 -7.738119
Se -4.637749 -20.123423 -4.641793
Se -1.541423 -20.123423 -1.545467
Se -4.637749 -20.123423 1.550859
Se -1.541423 -20.123423 4.647185
Se -4.637749 -20.123423 7.743511
Se -1.541423 -20.123423 10.839837
Se -4.637749 -20.123423 13.936163
Se -1.541423 -13.930771 -20.123423
Se -4.637749 -17.027097 -13.930771
Se -4.637749 -13.930771 -17.027097
Se -1.541423 -13.930771 -13.930771
Se -1.541423 -17.027097 -17.027097
Se -4.637749 -17.027097 -7.738119
Se -4.637749 -13.930771 -10.834445
Se -1.541423 -13.930771 -7.738119
Se -1.541423 -17.027097 -10.834445
Se -4.637749 -17.027097 -1.545467
Se -4.637749 -13.930771 -4.641793
Se -1.541423 -13.930771 -1.545467
Se -1.541423 -17.027097 -4.641793
Se -4.637749 -17.027097 4.647185
Se -4.637749 -13.930771 1.550859
Se -1.541423 -13.930771 4.647185
Se -1.541423 -17.027097 1.550859
Se -4.637749 -17.027097 10.839837
Se -4.637749 -13.930771 7.743511
Se -1.541423 -13.930771 10.839837
Se -1.541423 -17.027097 7.743511
Se -4.637749 -17.027097 17.032489
Se -4.637749 -13.930771 13.936163
Se -1.541423 -13.930771 17.032489
Se -1.541423 -17.027097 13.936163
Se -4.637749 -13.930771 20.128815
Se -4.637749 -10.834445 -20.123423
Se -1.541423 -7.738119 -20.123423
Se -4.637749 -10.834445 -13.930771
Se -4.637749 -7.738119 -17.027097
Se -1.541423 -7.738119 -13.930771
Se -1.541423 -10.834445 -17.027097
Se -4.637749 -10.834445 -7.738119
Se -4.637749 -7.738119 -10.834445
Se -1.541423 -7.738119 -7.738119
Se -1.541423 -10.834445 -10.834445
Se -4.637749 -10.834445 -1.545467
Se -4.637749 -7.738119 -4.641793
Se -1.541423 -7.738119 -1.545467
Se -1.541423 -10.834445 -4.641793
Se -4.637749 -10.834445 4.647185
Se -4.637749 -7.738119 1.550859
Se -1.541423 -7.738119 4.647185
Se -1.541423 -10.834445 1.550859
Se -4.637749 -10.834445 10.839837
Se -4.637749 -7.738119 7.743511
Se -1.541423 -7.738119 10.839837
Se -1.541423 -10.834445 7.743511
Se -4.637749 -10.834445 17.032489
Se -4.637749 -7.738119 13.936163
Se -1.541423 -7.738119 17.032489
Se -1.541423 -10.834445 13.936163
Se -4.637749 -7.738119 20.128815
Se -1.541423 -10.834445 20.128815
Se -4.637749 -4.641793 -20.123423
Se -1.541423 -1.545467 -20.123423
Se -4.637749 -4.641793 -13.930771
Se -4.637749 -1.545467 -17.027097
Se -1.541423 -1.545467 -13.930771
Se -1.541423 -4.641793 -17.027097
Se -4.637749 -4.641793 -7.738119
Se -4.637749 -1.545467 -10.834445
Se -1.541423 -1.545467 -7.738119
Se -1.541423 -4.641793 -10.834445
Se -4.637749 -4.641793 -1.545467
Se -4.637749 -1.545467 -4.641793
Se -1.541423 -1.545467 -1.545467
Se -1.541423 -4.641793 -4.641793
Se -4.637749 -4.641793 4.647185
Se -4.637749 -1.545467 1.550859
Se -1.541423 -1.545467 4.647185
Se -1.541423 -4.641793 1.550859
Se -4.637749 -4.641793 10.839837
Se -4.637749 -1.545467 7.743511
Se -1.541423 -1.545467 10.839837
Se -1.541423 -4.641793 7.743511
Se -4.637749 -4.641793 17.032489
Se -4.637749 -1.545467 13.936163
Se -1.541423 -1.545467 17.032489
Se -1.541423 -4.641793 13.936163
Se -4.637749 -1.545467 20.128815
Se -1.541423 -4.641793 20.128815
Se -4.637749 1.550859 -20.123423
Se -1.541423 4.647185 -20.123423
Se -4.637749 1.550859 -13.930771
Se -4.637749 4.647185 -17.027097
Se -1.541423 4.647185 -13.930771
Se -1.541423 1.550859 -17.027097
Se -4.637749 1.550859 -7.738119
Se -4.637749 4.647185 -10.834445
Se -1.541423 4.647185 -7.738119
Se -1.541423 1.550859 -10.834445
Se -4.637749 1.550859 -1.545467
Se -4.637749 4.647185 -4.641793
Se -1.541423 4.647185 -1.545467
Se -1.541423 1.550859 -4.641793
Se -4.637749 1.550859 4.647185
Se -4.637749 4.647185 1.550859
Se -1.541423 4.647185 4.647185
Se -1.541423 1.550859 1.550859
Se -4.637749 1.550859 10.839837
Se -4.637749 4.647185 7.743511
Se -1.541423 4.647185 10.839837
Se -1.541423 1.550859 7.743511
Se -4.637749 1.550859 17.032489
Se -4.637749 4.647185 13.936163
Se -1.541423 4.647185 17.032489
Se -1.541423 1.550859 13.936163
Se -4.637749 4.647185 20.128815
Se -1.541423 1.550859 20.128815
Se -4.637749 7.743511 -20.123423
Se -1.541423 10.839837 -20.123423
Se -4.637749 7.743511 -13.930771
Se -4.637749 10.839837 -17.027097
Se -1.541423 10.839837 -13.930771
Se -1.541423 7.743511 -17.027097
Se -4.637749 7.743511 -7.738119
Se -4.637749 10.839837 -10.834445
Se -1.541423 10.839837 -7.738119
Se -1.541423 7.743511 -10.834445
Se -4.637749 7.743511 -1.545467
Se -4.637749 10.839837 -4.641793
Se -1.541423 10.839837 -1.545467
Se -1.541423 7.743511 -4.641793
Se -4.637749 7.743511 4.647185
Se -4.637749 10.839837 1.550859
Se -1.541423 10.839837 4.647185
Se -1.541423 7.743511 1.550859
Se -4.637749 7.743511 10.839837
Se -4.637749 10.839837 7.743511
Se -1.541423 10.839837 10.839837
Se -1.541423 7.743511 7.743511
Se -4.637749 7.743511 17.032489
Se -4.637749 10.839837 13.936163
Se -1.541423 10.839837 17.032489
Se -1.541423 7.743511 13.936163
Se -4.637749 10.839837 20.128815
Se -1.541423 7.743511 20.128815
Se -4.637749 13.936163 -20.123423
Se -4.637749 13.936163 -13.930771
Se -4.637749 17.032489 -17.027097
Se -1.541423 17.032489 -13.930771
Se -1.541423 13.936163 -17.027097
Se -4.637749 13.936163 -7.738119
Se -4.637749 17.032489 -10.834445
Se -1.541423 17.032489 -7.738119
Se -1.541423 13.936163 -10.834445
Se -4.637749 13.936163 -1.545467
Se -4.637749 17.032489 -4.641793
Se -1.541423 17.032489 -1.545467
Se -1.541423 13.936163 -4.641793
Se -4.637749 13.936163 4.647185
Se -4.637749 17.032489 1.550859
Se -1.541423 17.032489 4.647185
Se -1.541423 13.936163 1.550859
Se -4.637749 13.936163 10.839837
Se -4.637749 17.032489 7.743511
Se -1.541423 17.032489 10.839837
Se -1.541423 13.936163 7.743511
Se -4.637749 13.936163 17.032489
Se -4.637749 17.032489 13.936163
Se -1.541423 17.032489 17.032489
Se -1.541423 13.936163 13.936163
Se -1.541423 13.936163 20.128815
Se -4.637749 20.128815 -13.930771
Se -4.637749 20.128815 -7.738119
Se -1.541423 20.128815 -10.834445
Se -4.637749 20.128815 -1.545467
Se -1.541423 20.128815 -4.641793
Se -4.637749 20.128815 4.647185
Se -1.541423 20.128815 1.550859
Se -4.637749 20.128815 10.839837
Se -1.541423 20.128815 7.743511
Se -1.541423 20.128815 13.936163
Se 4.651229 -20.123423 -13.930771
Se 1.554903 -20.123423 -10.834445
Se 4.651229 -20.123423 -7.738119
Se 1.554903 -20.123423 -4.641793
Se 4.651229 -20.123423 -1.545467
Se 1.554903 -20.123423 1.550859
Se 4.651229 -20.123423 4.647185
Se 1.554903 -20.123423 7.743511
Se 4.651229 -20.123423 10.839837
Se 1.554903 -20.123423 13.936163
Se 4.651229 -13.930771 -20.123423
Se 1.554903 -17.027097 -13.930771
Se 1.554903 -13.930771 -17.027097
Se 4.651229 -13.930771 -13.930771
Se 4.651229 -17.027097 -17.027097
Se 1.554903 -17.027097 -7.738119
Se 1.554903 -13.930771 -10.834445
Se 4.651229 -13.930771 -7.738119
Se 4.651229 -17.027097 -10.834445
Se 1.554903 -17.027097 -1.545467
Se 1.554903 -13.930771 -4.641793
Se 4.651229 -13.930771 -1.545467
Se 4.651229 -17.027097 -4.641793
Se 1.554903 -17.027097 4.647185
Se 1.554903 -13.930771 1.550859
Se 4.651229 -13.930771 4.647185
Se 4.651229 -17.027097 1.550859
Se 1.554903 -17.027097 10.839837
Se 1.554903 -13.930771 7.743511
Se 4.651229 -13.930771 10.839837
Se 4.651229 -17.027097 7.743511
Se 1.554903 -17.027097 17.032489
Se 1.554903 -13.930771 13.936163
Se 4.651229 -13.930771 17.032489
Se 4.651229 -17.027097 13.936163
Se 1.554903 -13.930771 20.128815
Se 1.554903 -10.834445 -20.123423
Se 4.651229 -7.738119 -20.123423
Se 1.554903 -10.834445 -13.930771
Se 1.554903 -7.738119 -17.027097
Se 4.651229 -7.738119 -13.930771
Se 4.651229 -10.834445 -17.027097
Se 1.554903 -10.834445 -7.738119
Se 1.554903 -7.738119 -10.834445
Se 4.651229 -7.738119 -7.738119
Se 4.651229 -10.834445 -10.834445
Se 1.554903 -10.834445 -1.545467
Se 1.554903 -7.738119 -4.641793
Se 4.651229 -7.738119 -1.545467
Se 4.651229 -10.834445 -4.641793
Se 1.554903 -10.834445 4.647185
Se 1.554903 -7.738119 1.550859
Se 4.651229 -7.738119 4.647185
Se 4.651229 -10.834445 1.550859
Se 1.554903 -10.834445 10.839837
Se 1.554903 -7.738119 7.743511
Se 4.651229 -7.738119 10.839837
Se 4.651229 -10.834445 7.743511
Se 1.554903 -10.834445 17.032489
Se 1.554903 -7.738119 13.936163
Se 4.651229 -7.738119 17.032489
Se 4.651229 -10.834445 13.936163
Se 1.554903 -7.738119 20.128815
Se 4.651229 -10.834445 20.128815
Se 1.554903 -4.641793 -20.123423
Se 4.651229 -1.545467 -20.123423
Se 1.554903 -4.641793 -13.930771
Se 1.554903 -1.545467 -17.027097
Se 4.651229 -1.545467 -13.930771
Se 4.651229 -4.641793 -17.027097
Se 1.554903 -4.641793 -7.738119
Se 1.554903 -1.545467 -10.834445
Se 4.651229 -1.545467 -7.738119
Se 4.651229 -4.641793 -10.834445
Se 1.554903 -4.641793 -1.545467
Se 1.554903 -1.545467 -4.641793
Se 4.651229 -1.545467 -1.545467
Se 4.651229 -4.641793 -4.641793
Se 1.554903 -4.641793 4.647185
Se 1.554903 -1.545467 1.550859
Se 4.651229 -1.545467 4.647185
Se 4.651229 -4.641793 1.550859
Se 1.554903 -4.641793 10.839837
Se 1.554903 -1.545467 7.743511
Se 4.651229 -1.545467 10.839837
Se 4.651229 -4.641793 7.743511
Se 1.554903 -4.641793 17.032489
Se 1.554903 -1.545467 13.936163
Se 4.651229 -1.545467 17.032489
Se 4.651229 -4.641793 13.936163
Se 1.554903 -1.545467 20.128815
Se 4.651229 -4.641793 20.128815
Se 1.554903 1.550859 -20.123423
Se 4.651229 4.647185 -20.123423
Se 1.554903 1.550859 -13.930771
Se 1.554903 4.647185 -17.027097
Se 4.651229 4.647185 -13.930771
Se 4.651229 1.550859 -17.027097
Se 1.554903 1.550859 -7.738119
Se 1.554903 4.647185 -10.834445
Se 4.651229 4.647185 -7.738119
Se 4.651229 1.550859 -10.834445
Se 1.554903 1.550859 -1.545467
Se 1.554903 4.647185 -4.641793
Se 4.651229 4.647185 -1.545467
Se 4.651229 1.550859 -4.641793
Se 1.554903 1.550859 4.647185
Se 1.554903 4.647185 1.550859
Se 4.651229 4.647185 4.647185
Se 4.651229 1.550859 1.550859
Se 1.554903 1.550859 10.839837
Se 1.554903 4.647185 7.743511
Se 4.651229 4.647185 10.839837
Se 4.651229 1.550859 7.743511
Se 1.554903 1.550859 17.032489
Se 1.554903 4.647185 13.936163
Se 4.651229 4.647185 17.032489
Se 4.651229 1.550859 13.936163
Se 1.554903 4.647185 20.128815
Se 4.651229 1.550859 20.128815
Se 1.554903 7.743511 -20.123423
Se 4.651229 10.839837 -20.123423
Se 1.554903 7.743511 -13.930771
Se 1.554903 10.839837 -17.027097
Se 4.651229 10.839837 -13.930771
Se 4.651229 7.743511 -17.027097
Se 1.554903 7.743511 -7.738119
Se 1.554903 10.839837 -10.834445
Se 4.651229 10.839837 -7.738119
Se 4.651229 7.743511 -10.834445
Se 1.554903 7.743511 -1.545467
Se 1.554903 10.839837 -4.641793
Se 4.651229 10.839837 -1.545467
Se 4.651229 7.743511 -4.641793
Se 1.554903 7.743511 4.647185
Se 1.554903 10.839837 1.550859
Se 4.651229 10.839837 4.647185
Se 4.651229 7.743511 1.550859
Se 1.554903 7.743511 10.839837
Se 1.554903 10.839837 7.743511
Se 4.651229 10.839837 10.839837
Se 4.651229 7.743511 7.743511
Se 1.554903 7.743511 17.032489
Se 1.554903 10.839837 13.936163
Se 4.651229 10.839837 17.032489
Se 4.651229 7.743511 13.936163
Se 1.554903 10.839837 20.128815
Se 4.651229 7.743511 20.128815
Se 1.554903 13.936163 -20.123423
Se 1.554903 13.936163 -13.930771
Se 1.554903 17.032489 -17.027097
Se 4.651229 17.032489 -13.930771
Se 4.651229 13.936163 -17.027097
Se 1.554903 13.936163 -7.738119
Se 1.554903 17.032489 -10.834445
Se 4.651229 17.032489 -7.738119
Se 4.651229 13.936163 -10.834445
Se 1.554903 13.936163 -1.545467
Se 1.554903 17.032489 -4.641793
Se 4.651229 17.032489 -1.545467
Se 4.651229 13.936163 -4.641793
Se 1.554903 13.936163 4.647185
Se 1.554903 17.032489 1.550859
Se 4.651229 17.032489 4.647185
Se 4.651229 13.936163 1.550859
Se 1.554903 13.936163 10.839837
Se 1.554903 17.032489 7.743511
Se 4.651229 17.032489 10.839837
Se 4.651229 13.936163 7.743511
Se 1.554903 13.936163 17.032489
Se 1.554903 17.032489 13.936163
Se 4.651229 17.032489 17.032489
Se 4.651229 13.936163 13.936163
Se 4.651229 13.936163 20.128815
Se 1.554903 20.128815 -13.930771
Se 1.554903 20.128815 -7.738119
Se 4.651229 20.128815 -10.834445
Se 1.554903 20.128815 -1.545467
Se 4.651229 20.128815 -4.641793
Se 1.554903 20.128815 4.647185
Se 4.651229 20.128815 1.550859
Se 1.554903 20.128815 10.839837
Se 4.651229 20.128815 7.743511
Se 4.651229 20.128815 13.936163
Se 7.747555 -20.123423 -10.834445
Se 10.843881 -20.123423 -7.738119
Se 7.747555 -20.123423 -4.641793
Se 10.843881 -20.123423 -1.545467
Se 7.747555 -20.123423 1.550859
Se 10.843881 -20.123423 4.647185
Se 7.747555 -20.123423 7.743511
Se 7.747555 -17.027097 -13.930771
Se 7.747555 -13.930771 -17.027097
Se 10.843881 -13.930771 -13.930771
Se 7.747555 -17.027097 -7.738119
Se 7.747555 -13.930771 -10.834445
Se 10.843881 -13.930771 -7.738119
Se 10.843881 -17.027097 -10.834445
Se 7.747555 -17.027097 -1.545467
Se 7.747555 -13.930771 -4.641793
Se 10.843881 -13.930771 -1.545467
Se 10.843881 -17.027097 -4.641793
Se 7.747555 -17.027097 4.647185
Se 7.747555 -13.930771 1.550859
Se 10.843881 -13.930771 4.647185
Se 10.843881 -17.027097 1.550859
Se 7.747555 -17.027097 10.839837
Se 7.747555 -13.930771 7.743511
Se 10.843881 -13.930771 10.839837
Se 10.843881 -17.027097 7.743511
Se 7.747555 -13.930771 13.936163
Se 7.747555 -10.834445 -20.123423
Se 10.843881 -7.738119 -20.123423
Se 7.747555 -10.834445 -13.930771
Se 7.747555 -7.738119 -17.027097
Se 10.843881 -7.738119 -13.930771
Se 10.843881 -10.834445 -17.027097
Se 7.747555 -10.834445 -7.738119
Se 7.747555 -7.738119 -10.834445
Se 10.843881 -7.738119 -7.738119
Se 10.843881 -10.834445 -10.834445
Se 7.747555 -10.834445 -1.545467
Se 7.747555 -7.738119 -4.641793
Se 10.843881 -7.738119 -1.545467
Se 10.843881 -10.834445 -4.641793
Se 7.747555 -10.834445 4.647185
Se 7.747555 -7.738119 1.550859
Se 10.843881 -7.738119 4.647185
Se 10.843881 -10.834445 1.550859
Se 7.747555 -10.834445 10.839837
Se 7.747555 -7.738119 7.743511
Se 10.843881 -7.738119 10.839837
Se 10.843881 -10.834445 7.743511
Se 7.747555 -10.834445 17.032489
Se 7.747555 -7.738119 13.936163
Se 10.843881 -7.738119 17.032489
Se 10.843881 -10.834445 13.936163
Se 7.747555 -7.738119 20.128815
Se 7.747555 -4.641793 -20.123423
Se 10.843881 -1.545467 -20.123423
Se 7.747555 -4.641793 -13.930771
Se 7.747555 -1.545467 -17.027097
Se 10.843881 -1.545467 -13.930771
Se 10.843881 -4.641793 -17.027097
Se 7.747555 -4.641793 -7.738119
Se 7.747555 -1.545467 -10.834445
Se 10.843881 -1.545467 -7.738119
Se 10.843881 -4.641793 -10.834445
Se 7.747555 -4.641793 -1.545467
Se 7.747555 -1.545467 -4.641793
Se 10.843881 -1.545467 -1.545467
Se 10.843881 -4.641793 -4.641793
Se 7.747555 -4.641793 4.647185
Se 7.747555 -1.545467 1.550859
Se 10.843881 -1.545467 4.647185
Se 10.843881 -4.641793 1.550859
Se 7.747555 -4.641793 10.839837
Se 7.747555 -1.545467 7.743511
Se 10.843881 -1.545467 10.839837
Se 10.843881 -4.641793 7.743511
Se 7.747555 -4.641793 17.032489
Se 7.747555 -1.545467 13.936163
Se 10.843881 -1.545467 17.032489
Se 10.843881 -4.641793 13.936163
Se 7.747555 -1.545467 20.128815
Se 10.843881 -4.641793 20.128815
Se 7.747555 1.550859 -20.123423
Se 10.843881 4.647185 -20.123423
Se 7.747555 1.550859 -13.930771
Se 7.747555 4.647185 -17.027097
Se 10.843881 4.647185 -13.930771
Se 10.843881 1.550859 -17.027097
Se 7.747555 1.550859 -7.738119
Se 7.747555 4.647185 -10.834445
Se 10.843881 4.647185 -7.738119
Se 10.843881 1.550859 -10.834445
Se 7.747555 1.550859 -1.545467
Se 7.747555 4.647185 -4.641793
Se 10.843881 4.647185 -1.545467
Se 10.843881 1.550859 -4.641793
Se 7.747555 1.550859 4.647185
Se 7.747555 4.647185 1.550859
Se 10.843881 4.647185 4.647185
Se 10.843881 1.550859 1.550859
Se 7.747555 1.550859 10.839837
Se 7.747555 4.647185 7.743511
Se 10.843881 4.647185 10.839837
Se 10.843881 1.550859 7.743511
Se 7.747555 1.550859 17.032489
Se 7.747555 4.647185 13.936163
Se 10.843881 4.647185 17.032489
Se 10.843881 1.550859 13.936163
Se 7.747555 4.647185 20.128815
Se 10.843881 1.550859 20.128815
Se 7.747555 7.743511 -20.123423
Se 7.747555 7.743511 -13.930771
Se 7.747555 10.839837 -17.027097
Se 10.843881 10.839837 -13.930771
Se 10.843881 7.743511 -17.027097
Se 7.747555 7.743511 -7.738119
Se 7.747555 10.839837 -10.834445
Se 10.843881 10.839837 -7.738119
Se 10.843881 7.743511 -10.834445
Se 7.747555 7.743511 -1.545467
Se 7.747555 10.839837 -4.641793
Se 10.843881 10.839837 -1.545467
Se 10.843881 7.743511 -4.641793
Se 7.747555 7.743511 4.647185
Se 7.747555 10.839837 1.550859
Se 10.843881 10.839837 4.647185
Se 10.843881 7.743511 1.550859
Se 7.747555 7.743511 10.839837
Se 7.747555 10.839837 7.743511
Se 10.843881 10.839837 10.839837
Se 10.843881 7.743511 7.743511
Se 7.747555 7.743511 17.032489
Se 7.747555 10.839837 13.936163
Se 10.843881 10.839837 17.032489
Se 10.843881 7.743511 13.936163
Se 7.747555 10.839837 20.128815
Se 10.843881 7.743511 20.128815
Se 7.747555 13.936163 -13.930771
Se 7.747555 13.936163 -7.738119
Se 7.747555 17.032489 -10.834445
Se 10.843881 17.032489 -7.738119
Se 10.843881 13.936163 -10.834445
Se 7.747555 13.936163 -1.545467
Se 7.747555 17.032489 -4.641793
Se 10.843881 17.032489 -1.545467
Se 10.843881 13.936163 -4.641793
Se 7.747555 13.936163 4.647185
Se 7.747555 17.032489 1.550859
Se 10.843881 17.032489 4.647185
Se 10.843881 13.936163 1.550859
Se 7.747555 13.936163 10.839837
Se 7.747555 17.032489 7.743511
Se 10.843881 17.032489 10.839837
Se 10.843881 13.936163 7.743511
Se 7.747555 13.936163 17.032489
Se 7.747555 17.032489 13.936163
Se 10.843881 13.936163 13.936163
Se 7.747555 20.128815 -7.738119
Se 7.747555 20.128815 -1.545467
Se 10.843881 20.128815 -4.641793
Se 7.747555 20.128815 4.647185
Se 10.843881 20.128815 1.550859
Se 7.747555 20.128815 10.839837
Se 10.843881 20.128815 7.743511
Se 13.940207 -20.123423 -4.641793
Se 13.940207 -20.123423 1.550859
Se 13.940207 -17.027097 -7.738119
Se 13.940207 -13.930771 -10.834445
Se 17.036533 -13.930771 -7.738119
Se 13.940207 -17.027097 -1.545467
Se 13.940207 -13.930771 -4.641793
Se 17.036533 -13.930771 -1.545467
Se 17.036533 -17.027097 -4.641793
Se 13.940207 -17.027097 4.647185
Se 13.940207 -13.930771 1.550859
Se 17.036533 -13.930771 4.647185
Se 17.036533 -17.027097 1.550859
Se 13.940207 -13.930771 7.743511
Se 13.940207 -10.834445 -13.930771
Se 13.940207 -7.738119 -17.027097
Se 17.036533 -7.738119 -13.930771
Se 13.940207 -10.834445 -7.738119
Se 13.940207 -7.738119 -10.834445
Se 17.036533 -7.738119 -7.738119
Se 17.036533 -10.834445 -10.834445
Se 13.940207 -10.834445 -1.545467
Se 13.940207 -7.738119 -4.641793
Se 17.036533 -7.738119 -1.545467
Se 17.036533 -10.834445 -4.641793
Se 13.940207 -10.834445 4.647185
Se 13.940207 -7.738119 1.550859
Se 17.036533 -7.738119 4.647185
Se 17.036533 -10.834445 1.550859
Se 13.940207 -10.834445 10.839837
Se 13.940207 -7.738119 7.743511
Se 17.036533 -7.738119 10.839837
Se 17.036533 -10.834445 7.743511
Se 13.940207 -7.738119 13.936163
Se 13.940207 -4.641793 -20.123423
Se 13.940207 -4.641793 -13.930771
Se 13.940207 -1.545467 -17.027097
Se 17.036533 -1.545467 -13.930771
Se 17.036533 -4.641793 -17.027097
Se 13.940207 -4.641793 -7.738119
Se 13.940207 -1.545467 -10.834445
Se 17.036533 -1.545467 -7.738119
Se 17.036533 -4.641793 -10.834445
Se 13.940207 -4.641793 -1.545467
Se 13.940207 -1.545467 -4.641793
Se 17.036533 -1.545467 -1.545467
Se 17.036533 -4.641793 -4.641793
Se 13.940207 -4.641793 4.647185
Se 13.940207 -1.545467 1.550859
Se 17.036533 -1.545467 4.647185
Se 17.036533 -4.641793 1.550859
Se 13.940207 -4.641793 10.839837
Se 13.940207 -1.545467 7.743511
Se 17.036533 -1.545467 10.839837
Se 17.036533 -4.641793 7.743511
Se 13.940207 -4.641793 17.032489
Se 13.940207 -1.545467 13.936163
Se 17.036533 -1.545467 17.032489
Se 17.036533 -4.641793 13.936163
Se 13.940207 -1.545467 20.128815
Se 13.940207 1.550859 -20.123423
Se 13.940207 1.550859 -13.930771
Se 13.940207 4.647185 -17.027097
Se 17.036533 4.647185 -13.930771
Se 17.036533 1.550859 -17.027097
Se 13.940207 1.550859 -7.738119
Se 13.940207 4.647185 -10.834445
Se 17.036533 4.647185 -7.738119
Se 17.036533 1.550859 -10.834445
Se 13.940207 1.550859 -1.545467
Se 13.940207 4.647185 -4.641793
Se 17.036533 4.647185 -1.545467
Se 17.036533 1.550859 -4.641793
Se 13.940207 1.550859 4.647185
Se 13.940207 4.647185 1.550859
Se 17.036533 4.647185 4.647185
Se 17.036533 1.550859 1.550859
Se 13.940207 1.550859 10.839837
Se 13.940207 4.647185 7.743511
Se 17.036533 4.647185 10.839837
Se 17.036533 1.550859 7.743511
Se 13.940207 1.550859 17.032489
Se 13.940207 4.647185 13.936163
Se 17.036533 4.647185 17.032489
Se 17.036533 1.550859 13.936163
Se 13.940207 4.647185 20.128815
Se 13.940207 7.743511 -13.930771
Se 13.940207 7.743511 -7.738119
Se 13.940207 10.839837 -10.834445
Se 17.036533 10.839837 -7.738119
Se 17.036533 7.743511 -10.834445
Se 13.940207 7.743511 -1.545467
Se 13.940207 10.839837 -4.641793
Se 17.036533 10.839837 -1.545467
Se 17.036533 7.743511 -4.641793
Se 13.940207 7.743511 4.647185
Se 13.940207 10.839837 1.550859
Se 17.036533 10.839837 4.647185
Se 17.036533 7.743511 1.550859
Se 13.940207 7.743511 10.839837
Se 13.940207 10.839837 7.743511
Se 17.036533 10.839837 10.839837
Se 17.036533 7.743511 7.743511
Se 13.940207 7.743511 17.032489
Se 13.940207 10.839837 13.936163
Se 17.036533 7.743511 13.936163
Se 13.940207 13.936163 -7.738119
Se 13.940207 13.936163 -1.545467
Se 13.940207 17.032489 -4.641793
Se 17.036533 17.032489 -1.545467
Se 17.036533 13.936163 -4.641793
Se 13.940207 13.936163 4.647185
Se 13.940207 17.032489 1.550859
Se 17.036533 17.032489 4.647185
Se 17.036533 13.936163 1.550859
Se 13.940207 13.936163 10.839837
Se 13.940207 17.032489 7.743511
Se 17.036533 13.936163 7.743511
Se 13.940207 20.128815 -1.545467
Se 13.940207 20.128815 4.647185
Se 20.132859 -13.930771 -4.641793
Se 20.132859 -13.930771 1.550859
Se 20.132859 -10.834445 -7.738119
Se 20.132859 -7.738119 -10.834445
Se 20.132859 -10.834445 -1.545467
Se 20.132859 -7.738119 -4.641793
Se 20.132859 -10.834445 4.647185
Se 20.132859 -7.738119 1.550859
Se 20.132859 -7.738119 7.743511
Se 20.132859 -4.641793 -13.930771
Se 20.132859 -4.641793 -7.738119
Se 20.132859 -1.545467 -10.834445
Se 20.132859 -4.641793 -1.545467
Se 20.132859 -1.545467 -4.641793
Se 20.132859 -4.641793 4.647185
Se 20.132859 -1.545467 1.550859
Se 20.132859 -4.641793 10.839837
Se 20.132859 -1.545467 7.743511
Se 20.132859 -1.545467 13.936163
Se 20.132859 1.550859 -13.930771
Se 20.132859 1.550859 -7.738119
Se 20.132859 4.647185 -10.834445
Se 20.132859 1.550859 -1.545467
Se 20.132859 4.647185 -4.641793
Se 20.132859 1.550859 4.647185
Se 20.132859 4.647185 1.550859
Se 20.132859 1.550859 10.839837
Se 20.132859 4.647185 7.743511
Se 20.132859 4.647185 13.936163
Se 20.132859 7.743511 -7.738119
Se 20.132859 7.743511 -1.545467
Se 20.132859 10.839837 -4.641793
Se 20.132859 7.743511 4.647185
Se 20.132859 10.839837 1.550859
Se 20.132859 7.743511 10.839837
Se 20.132859 10.839837 7.743511
Se 20.132859 13.936163 -1.545467
Se 20.132859 13.936163 4.647185
Cl -23.215705 -10.834445 -1.545467
Cl -23.215705 -7.738119 -4.641793
Cl -23.215705 -10.834445 4.647185
Cl -23.215705 -7.738119 1.550859
Cl -23.215705 -7.738119 7.743511
Cl -23.215705 -4.641793 -7.738119
Cl -23.215705 -1.545467 -10.834445
Cl -23.215705 -4.641793 -1.545467
Cl -23.215705 -1.545467 -4.641793
Cl -23.215705 -4.641793 4.647185
Cl -23.215705 -1.545467 1.550859
Cl -23.215705 -4.641793 10.839837
Cl -23.215705 -1.545467 7.743511
Cl -23.215705 1.550859 -7.738119
Cl -23.215705 4.647185 -10.834445
Cl -23.215705 1.550859 -1.545467
Cl -23.215705 4.647185 -4.641793
Cl -23.215705 1.550859 4.647185
Cl -23.215705 4.647185 1.550859
Cl -23.215705 1.550859 10.839837
Cl -23.215705 4.647185 7.743511
Cl -23.215705 7.743511 -7.738119
Cl -23.215705 7.743511 -1.545467
Cl -23.215705 10.839837 -4.641793
Cl -23.215705 7.743511 4.647185
Cl -23.215705 10.839837 1.550859
Cl -10.830401 -23.219749 -1.545467
Cl -7.734075 -23.219749 -4.641793
Cl -10.830401 -23.219749 4.647185
Cl -7.734075 -23.219749 1.550859
Cl -7.734075 -23.219749 7.743511
Cl -7.734075 -7.738119 23.225141
Cl -10.830401 -1.545467 -23.219749
Cl -7.734075 -4.641793 -23.219749
Cl -10.830401 -4.641793 23.225141
Cl -7.734075 -1.545467 23.225141
Cl -10.830401 4.647185 -23.219749
Cl -7.734075 1.550859 -23.219749
Cl -10.830401 1.550859 23.225141
Cl -7.734075 4.647185 23.225141
Cl -7.734075 7.743511 -23.219749
Cl -7.734075 23.225141 -7.738119
Cl -10.830401 23.225141 -4.641793
Cl -7.734075 23.225141 -1.545467
Cl -10.830401 23.225141 1.550859
Cl -7.734075 23.225141 4.647185
Cl -4.637749 -23.219749 -7.738119
Cl -1.541423 -23.219749 -10.834445
Cl -4.637749 -23.219749 -1.545467
Cl -1.541423 -23.219749 -4.641793
Cl -4.637749 -23.219749 4.647185
Cl -1.541423 -23.219749 1.550859
Cl -4.637749 -23.219749 10.839837
Cl -1.541423 -23.219749 7.743511
Cl -4.637749 -7.738119 -23.219749
Cl -1.541423 -10.834445 -23.219749
Cl -4.637749 -10.834445 23.225141
Cl -1.541423 -7.738119 23.225141
Cl -4.637749 -1.545467 -23.219749
Cl -1.541423 -4.641793 -23.219749
Cl -4.637749 -4.641793 23.225141
Cl -1.541423 -1.545467 23.225141
Cl -4.637749 4.647185 -23.219749
Cl -1.541423 1.550859 -23.219749
Cl -4.637749 1.550859 23.225141
Cl -1.541423 4.647185 23.225141
Cl -4.637749 10.839837 -23.219749
Cl -1.541423 7.743511 -23.219749
Cl -4.637749 7.743511 23.225141
Cl -1.541423 10.839837 23.225141
Cl -4.637749 23.225141 -10.834445
Cl -1.541423 23.225141 -7.738119
Cl -4.637749 23.225141 -4.641793
Cl -1.541423 23.225141 -1.545467
Cl -4.637749 23.225141 1.550859
Cl -1.541423 23.225141 4.647185
Cl -4.637749 23.225141 7.743511
Cl -1.541423 23.225141 10.839837
Cl 1.554903 -23.219749 -7.738119
Cl 4.651229 -23.219749 -10.834445
Cl 1.554903 -23.219749 -1.545467
Cl 4.651229 -23.219749 -4.641793
Cl 1.554903 -23.219749 4.647185
Cl 4.651229 -23.219749 1.550859
Cl 1.554903 -23.219749 10.839837
Cl 4.651229 -23.219749 7.743511
Cl 1.554903 -7.738119 -23.219749
Cl 4.651229 -10.834445 -23.219749
Cl 1.554903 -10.834445 23.225141
Cl 4.651229 -7.738119 23.225141
Cl 1.554903 -1.545467 -23.219749
Cl 4.651229 -4.641793 -23.219749
Cl 1.554903 -4.641793 23.225141
Cl 4.651229 -1.545467 23.225141
Cl 1.554903 4.647185 -23.219749
Cl 4.651229 1.550859 -23.219749
Cl 1.554903 1.550859 23.225141
Cl 4.651229 4.647185 23.225141
Cl 1.554903 10.839837 -23.219749
Cl 4.651229 7.743511 -23.219749
Cl 1.554903 7.743511 23.225141
Cl 4.651229 10.839837 23.225141
Cl 1.554903 23.225141 -10.834445
Cl 4.651229 23.225141 -7.738119
Cl 1.554903 23.225141 -4.641793
Cl 4.651229 23.225141 -1.545467
Cl 1.554903 23.225141 1.550859
Cl 4.651229 23.225141 4.647185
Cl 1.554903 23.225141 7.743511
Cl 4.651229 23.225141 10.839837
Cl 7.747555 -23.219749 -7.738119
Cl 7.747555 -23.219749 -1.545467
Cl 10.843881 -23.219749 -4.641793
Cl 7.747555 -23.219749 4.647185
Cl 10.843881 -23.219749 1.550859
Cl 7.747555 -7.738119 -23.219749
Cl 7.747555 -1.545467 -23.219749
Cl 10.843881 -4.641793 -23.219749
Cl 7.747555 -4.641793 23.225141
Cl 10.843881 -1.545467 23.225141
Cl 7.747555 4.647185 -23.219749
Cl 10.843881 1.550859 -23.219749
Cl 7.747555 1.550859 23.225141
Cl 10.843881 4.647185 23.225141
Cl 7.747555 7.743511 23.225141
Cl 7.747555 23.225141 -4.641793
Cl 10.843881 23.225141 -1.545467
Cl 7.747555 23.225141 1.550859
Cl 10.843881 23.225141 4.647185
Cl 7.747555 23.225141 7.743511
Cl 23.229185 -7.738119 -7.738119
Cl 23.229185 -7.738119 -1.545467
Cl 23.229185 -10.834445 -4.641793
Cl 23.229185 -7.738119 4.647185
Cl 23.229185 -10.834445 1.550859
Cl 23.229185 -1.545467 -7.738119
Cl 23.229185 -4.641793 -10.834445
Cl 23.229185 -1.545467 -1.545467
Cl 23.229185 -4.641793 -4.641793
Cl 23.229185 -1.545467 4.647185
Cl 23.229185 -4.641793 1.550859
Cl 23.229185 -1.545467 10.839837
Cl 23.229185 -4.641793 7.743511
Cl 23.229185 4.647185 -7.738119
Cl 23.229185 1.550859 -10.834445
Cl 23.229185 4.647185 -1.545467
Cl 23.229185 1.550859 -4.641793
Cl 23.229185 4.647185 4.647185
Cl 23.229185 1.550859 1.550859
Cl 23.229185 4.647185 10.839837
Cl 23.229185 1.550859 7.743511
Cl 23.229185 10.839837 -1.545467
Cl 23.229185 7.743511 -4.641793
Cl 23.229185 10.839837 4.647185
Cl 23.229185 7.743511 1.550859
Cl 23.229185 7.743511 7.743511
Cl -13.926727 -10.834445 -13.930771
Cl -13.926727 10.839837 13.936163
Cl 10.843881 -13.930771 13.936163
Cl 10.843881 13.936163 -13.930771
Cl -13.926727 -20.123423 -4.641793
Cl -13.926727 20.128815 4.647185
Cl 20.132859 -13.930771 4.647185
Cl 20.132859 4.647185 -13.930771
Cl -4.637749 -20.123423 -13.930771
Cl -4.637749 20.128815 13.936163
Cl 20.132859 -4.641793 13.936163
Cl 20.132859 13.936163 -4.641793
Cl -20.119379 -4.641793 -13.930771
Cl -20.119379 4.647185 13.936163
Cl 4.651229 -20.123423 13.936163
Cl 4.651229 13.936163 -20.123423
Cl -4.637749 -13.930771 -20.123423
Cl -4.637749 13.936163 20.128815
Cl 13.940207 -4.641793 20.128815
Cl 13.940207 20.128815 -4.641793
Cl -20.119379 -13.930771 -4.641793
Cl -20.119379 13.936163 4.647185
Cl 13.940207 -20.123423 4.647185
Cl 13.940207 4.647185 -20.123423
Cl -13.926727 -4.641793 -20.123423
Cl -13.926727 4.647185 20.128815
