1990
GaSb-Ga-Ga929Sb863Cl198-clean
Ga -21.470207 -15.332998 -18.401603
Ga -21.470207 -18.401603 -15.332998
Ga -24.538811 -15.332998 -15.332998
Ga -21.470207 -15.332998 -12.264394
Ga -21.470207 -12.264394 -15.332998
Ga -24.538811 -12.264394 -12.264394
Ga -21.470207 -9.195790 -12.264394
Ga -21.470207 -12.264394 -9.195790
Ga -24.538811 -9.195790 -9.195790
Ga -21.470207 -9.195790 -6.127186
Ga -21.470207 -6.127186 -9.195790
Ga -24.538811 -6.127186 -6.127186
Ga -21.470207 -3.058581 -6.127186
Ga -21.470207 -6.127186 -3.058581
Ga -24.538811 -3.058581 -3.058581
Ga -21.470207 -3.058581 0.010023
Ga -21.470207 0.010023 -3.058581
Ga -24.538811 0.010023 0.010023
Ga -21.470207 3.078627 0.010023
Ga -21.470207 0.010023 3.078627
Ga -24.538811 3.078627 3.078627
Ga -21.470207 3.078627 6.147232
Ga -21.470207 6.147232 3.078627
Ga -24.538811 6.147232 6.147232
Ga -21.470207 9.215836 6.147232
Ga -21.470207 6.147232 9.215836
Ga -24.538811 9.215836 9.215836
Ga -21.470207 9.215836 12.284440
Ga -21.470207 12.284440 9.215836
Ga -24.538811 12.284440 12.284440
Ga -21.470207 15.353045 12.284440
Ga -21.470207 12.284440 15.353045
Ga -24.538811 15.353045 15.353045
Ga -21.470207 15.353045 18.421649
Ga -21.470207 18.421649 15.353045
Ga -15.332998 -21.470207 -18.401603
Ga -15.332998 -24.538811 -15.332998
Ga -18.401603 -21.470207 -15.332998
Ga -15.332998 -21.470207 -12.264394
Ga -15.332998 -15.332998 -24.538811
Ga -15.332998 -18.401603 -21.470207
Ga -18.401603 -15.332998 -21.470207
Ga -18.401603 -18.401603 -18.401603
Ga -15.332998 -15.332998 -18.401603
Ga -15.332998 -18.401603 -15.332998
Ga -18.401603 -15.332998 -15.332998
Ga -18.401603 -18.401603 -12.264394
Ga -15.332998 -15.332998 -12.264394
Ga -15.332998 -18.401603 -9.195790
Ga -18.401603 -15.332998 -9.195790
Ga -15.332998 -15.332998 -6.127186
Ga -15.332998 -12.264394 -21.470207
Ga -18.401603 -12.264394 -18.401603
Ga -15.332998 -9.195790 -18.401603
Ga -15.332998 -12.264394 -15.332998
Ga -18.401603 -9.195790 -15.332998
Ga -18.401603 -12.264394 -12.264394
Ga -15.332998 -9.195790 -12.264394
Ga -15.332998 -12.264394 -9.195790
Ga -18.401603 -9.195790 -9.195790
Ga -18.401603 -12.264394 -6.127186
Ga -15.332998 -9.195790 -6.127186
Ga -15.332998 -12.264394 -3.058581
Ga -18.401603 -9.195790 -3.058581
Ga -15.332998 -9.195790 0.010023
Ga -15.332998 -6.127186 -15.332998
Ga -18.401603 -6.127186 -12.264394
Ga -15.332998 -3.058581 -12.264394
Ga -15.332998 -6.127186 -9.195790
Ga -18.401603 -3.058581 -9.195790
Ga -18.401603 -6.127186 -6.127186
Ga -15.332998 -3.058581 -6.127186
Ga -15.332998 -6.127186 -3.058581
Ga -18.401603 -3.058581 -3.058581
Ga -18.401603 -6.127186 0.010023
Ga -15.332998 -3.058581 0.010023
Ga -15.332998 -6.127186 3.078627
Ga -18.401603 -3.058581 3.078627
Ga -15.332998 -3.058581 6.147232
Ga -15.332998 0.010023 -9.195790
Ga -18.401603 0.010023 -6.127186
Ga -15.332998 3.078627 -6.127186
Ga -15.332998 0.010023 -3.058581
Ga -18.401603 3.078627 -3.058581
Ga -18.401603 0.010023 0.010023
Ga -15.332998 3.078627 0.010023
Ga -15.332998 0.010023 3.078627
Ga -18.401603 3.078627 3.078627
Ga -18.401603 0.010023 6.147232
Ga -15.332998 3.078627 6.147232
Ga -15.332998 0.010023 9.215836
Ga -18.401603 3.078627 9.215836
Ga -15.332998 3.078627 12.284440
Ga -15.332998 6.147232 -3.058581
Ga -18.401603 6.147232 0.010023
Ga -15.332998 9.215836 0.010023
Ga -15.332998 6.147232 3.078627
Ga -18.401603 9.215836 3.078627
Ga -18.401603 6.147232 6.147232
Ga -15.332998 9.215836 6.147232
Ga -15.332998 6.147232 9.215836
Ga -18.401603 9.215836 9.215836
Ga -18.401603 6.147232 12.284440
Ga -15.332998 9.215836 12.284440
Ga -15.332998 6.147232 15.353045
Ga -18.401603 9.215836 15.353045
Ga -15.332998 9.215836 18.421649
Ga -15.332998 12.284440 3.078627
Ga -18.401603 12.284440 6.147232
Ga -15.332998 15.353045 6.147232
Ga -15.332998 12.284440 9.215836
Ga -18.401603 15.353045 9.215836
Ga -18.401603 12.284440 12.284440
Ga -15.332998 15.353045 12.284440
Ga -15.332998 12.284440 15.353045
Ga -18.401603 15.353045 15.353045
Ga -18.401603 12.284440 18.421649
Ga -15.332998 15.353045 18.421649
Ga -15.332998 12.284440 21.490253
Ga -18.401603 15.353045 21.490253
Ga -15.332998 15.353045 24.558858
Ga -15.332998 18.421649 9.215836
Ga -18.401603 18.421649 12.284440
Ga -15.332998 21.490253 12.284440
Ga -15.332998 18.421649 15.353045
Ga -18.401603 21.490253 15.353045
Ga -18.401603 18.421649 18.421649
Ga -15.332998 21.490253 18.421649
Ga -15.332998 18.421649 21.490253
Ga -15.332998 24.558858 15.353045
Ga -12.264394 -21.470207 -15.332998
Ga -12.264394 -24.538811 -12.264394
Ga -9.195790 -21.470207 -12.264394
Ga -9.195790 -24.538811 -9.195790
Ga -12.264394 -21.470207 -9.195790
Ga -9.195790 -21.470207 -6.127186
Ga -12.264394 -15.332998 -21.470207
Ga -12.264394 -18.401603 -18.401603
Ga -9.195790 -15.332998 -18.401603
Ga -9.195790 -18.401603 -15.332998
Ga -12.264394 -15.332998 -15.332998
Ga -12.264394 -18.401603 -12.264394
Ga -9.195790 -15.332998 -12.264394
Ga -9.195790 -18.401603 -9.195790
Ga -12.264394 -15.332998 -9.195790
Ga -12.264394 -18.401603 -6.127186
Ga -9.195790 -15.332998 -6.127186
Ga -9.195790 -18.401603 -3.058581
Ga -12.264394 -15.332998 -3.058581
Ga -9.195790 -15.332998 0.010023
Ga -12.264394 -12.264394 -24.538811
Ga -9.195790 -9.195790 -24.538811
Ga -9.195790 -12.264394 -21.470207
Ga -12.264394 -9.195790 -21.470207
Ga -12.264394 -12.264394 -18.401603
Ga -9.195790 -9.195790 -18.401603
Ga -9.195790 -12.264394 -15.332998
Ga -12.264394 -9.195790 -15.332998
Ga -12.264394 -12.264394 -12.264394
Ga -9.195790 -9.195790 -12.264394
Ga -9.195790 -12.264394 -9.195790
Ga -12.264394 -9.195790 -9.195790
Ga -12.264394 -12.264394 -6.127186
Ga -9.195790 -9.195790 -6.127186
Ga -9.195790 -12.264394 -3.058581
Ga -12.264394 -9.195790 -3.058581
Ga -12.264394 -12.264394 0.010023
Ga -9.195790 -9.195790 0.010023
Ga -9.195790 -12.264394 3.078627
Ga -12.264394 -9.195790 3.078627
Ga -9.195790 -9.195790 6.147232
Ga -9.195790 -6.127186 -21.470207
Ga -12.264394 -6.127186 -18.401603
Ga -9.195790 -3.058581 -18.401603
Ga -9.195790 -6.127186 -15.332998
Ga -12.264394 -3.058581 -15.332998
Ga -12.264394 -6.127186 -12.264394
Ga -9.195790 -3.058581 -12.264394
Ga -9.195790 -6.127186 -9.195790
Ga -12.264394 -3.058581 -9.195790
Ga -12.264394 -6.127186 -6.127186
Ga -9.195790 -3.058581 -6.127186
Ga -9.195790 -6.127186 -3.058581
Ga -12.264394 -3.058581 -3.058581
Ga -12.264394 -6.127186 0.010023
Ga -9.195790 -3.058581 0.010023
Ga -9.195790 -6.127186 3.078627
Ga -12.264394 -3.058581 3.078627
Ga -12.264394 -6.127186 6.147232
Ga -9.195790 -3.058581 6.147232
Ga -9.195790 -6.127186 9.215836
Ga -12.264394 -3.058581 9.215836
Ga -9.195790 -3.058581 12.284440
Ga -9.195790 0.010023 -15.332998
Ga -12.264394 0.010023 -12.264394
Ga -9.195790 3.078627 -12.264394
Ga -9.195790 0.010023 -9.195790
Ga -12.264394 3.078627 -9.195790
Ga -12.264394 0.010023 -6.127186
Ga -9.195790 3.078627 -6.127186
Ga -9.195790 0.010023 -3.058581
Ga -12.264394 3.078627 -3.058581
Ga -12.264394 0.010023 0.010023
Ga -9.195790 3.078627 0.010023
Ga -9.195790 0.010023 3.078627
Ga -12.264394 3.078627 3.078627
Ga -12.264394 0.010023 6.147232
Ga -9.195790 3.078627 6.147232
Ga -9.195790 0.010023 9.215836
Ga -12.264394 3.078627 9.215836
Ga -12.264394 0.010023 12.284440
Ga -9.195790 3.078627 12.284440
Ga -9.195790 0.010023 15.353045
Ga -12.264394 3.078627 15.353045
Ga -9.195790 3.078627 18.421649
Ga -9.195790 6.147232 -9.195790
Ga -12.264394 6.147232 -6.127186
Ga -9.195790 9.215836 -6.127186
Ga -9.195790 6.147232 -3.058581
Ga -12.264394 9.215836 -3.058581
Ga -12.264394 6.147232 0.010023
Ga -9.195790 9.215836 0.010023
Ga -9.195790 6.147232 3.078627
Ga -12.264394 9.215836 3.078627
Ga -12.264394 6.147232 6.147232
Ga -9.195790 9.215836 6.147232
Ga -9.195790 6.147232 9.215836
Ga -12.264394 9.215836 9.215836
Ga -12.264394 6.147232 12.284440
Ga -9.195790 9.215836 12.284440
Ga -9.195790 6.147232 15.353045
Ga -12.264394 9.215836 15.353045
Ga -12.264394 6.147232 18.421649
Ga -9.195790 9.215836 18.421649
Ga -9.195790 6.147232 21.490253
Ga -12.264394 9.215836 21.490253
Ga -9.195790 9.215836 24.558858
Ga -9.195790 12.284440 -3.058581
Ga -12.264394 12.284440 0.010023
Ga -9.195790 15.353045 0.010023
Ga -9.195790 12.284440 3.078627
Ga -12.264394 15.353045 3.078627
Ga -12.264394 12.284440 6.147232
Ga -9.195790 15.353045 6.147232
Ga -9.195790 12.284440 9.215836
Ga -12.264394 15.353045 9.215836
Ga -12.264394 12.284440 12.284440
Ga -9.195790 15.353045 12.284440
Ga -9.195790 12.284440 15.353045
Ga -12.264394 15.353045 15.353045
Ga -12.264394 12.284440 18.421649
Ga -9.195790 15.353045 18.421649
Ga -9.195790 12.284440 21.490253
Ga -12.264394 15.353045 21.490253
Ga -12.264394 12.284440 24.558858
Ga -9.195790 18.421649 3.078627
Ga -12.264394 18.421649 6.147232
Ga -9.195790 21.490253 6.147232
Ga -9.195790 18.421649 9.215836
Ga -12.264394 21.490253 9.215836
Ga -12.264394 18.421649 12.284440
Ga -9.195790 21.490253 12.284440
Ga -9.195790 18.421649 15.353045
Ga -12.264394 21.490253 15.353045
Ga -12.264394 18.421649 18.421649
Ga -9.195790 24.558858 9.215836
Ga -12.264394 24.558858 12.284440
Ga -6.127186 -21.470207 -9.195790
Ga -6.127186 -24.538811 -6.127186
Ga -3.058581 -21.470207 -6.127186
Ga -3.058581 -24.538811 -3.058581
Ga -6.127186 -21.470207 -3.058581
Ga -3.058581 -21.470207 0.010023
Ga -6.127186 -15.332998 -15.332998
Ga -6.127186 -18.401603 -12.264394
Ga -3.058581 -15.332998 -12.264394
Ga -3.058581 -18.401603 -9.195790
Ga -6.127186 -15.332998 -9.195790
Ga -6.127186 -18.401603 -6.127186
Ga -3.058581 -15.332998 -6.127186
Ga -3.058581 -18.401603 -3.058581
Ga -6.127186 -15.332998 -3.058581
Ga -6.127186 -18.401603 0.010023
Ga -3.058581 -15.332998 0.010023
Ga -3.058581 -18.401603 3.078627
Ga -6.127186 -15.332998 3.078627
Ga -3.058581 -15.332998 6.147232
Ga -6.127186 -9.195790 -21.470207
Ga -6.127186 -12.264394 -18.401603
Ga -3.058581 -9.195790 -18.401603
Ga -3.058581 -12.264394 -15.332998
Ga -6.127186 -9.195790 -15.332998
Ga -6.127186 -12.264394 -12.264394
Ga -3.058581 -9.195790 -12.264394
Ga -3.058581 -12.264394 -9.195790
Ga -6.127186 -9.195790 -9.195790
Ga -6.127186 -12.264394 -6.127186
Ga -3.058581 -9.195790 -6.127186
Ga -3.058581 -12.264394 -3.058581
Ga -6.127186 -9.195790 -3.058581
Ga -6.127186 -12.264394 0.010023
Ga -3.058581 -9.195790 0.010023
Ga -3.058581 -12.264394 3.078627
Ga -6.127186 -9.195790 3.078627
Ga -6.127186 -12.264394 6.147232
Ga -3.058581 -9.195790 6.147232
Ga -3.058581 -12.264394 9.215836
Ga -6.127186 -9.195790 9.215836
Ga -3.058581 -9.195790 12.284440
Ga -6.127186 -6.127186 -24.538811
Ga -3.058581 -3.058581 -24.538811
Ga -3.058581 -6.127186 -21.470207
Ga -6.127186 -3.058581 -21.470207
Ga -6.127186 -6.127186 -18.401603
Ga -3.058581 -3.058581 -18.401603
Ga -3.058581 -6.127186 -15.332998
Ga -6.127186 -3.058581 -15.332998
Ga -6.127186 -6.127186 -12.264394
Ga -3.058581 -3.058581 -12.264394
Ga -3.058581 -6.127186 -9.195790
Ga -6.127186 -3.058581 -9.195790
Ga -6.127186 -6.127186 -6.127186
Ga -3.058581 -3.058581 -6.127186
Ga -3.058581 -6.127186 -3.058581
Ga -6.127186 -3.058581 -3.058581
Ga -6.127186 -6.127186 0.010023
Ga -3.058581 -3.058581 0.010023
Ga -3.058581 -6.127186 3.078627
Ga -6.127186 -3.058581 3.078627
Ga -6.127186 -6.127186 6.147232
Ga -3.058581 -3.058581 6.147232
Ga -3.058581 -6.127186 9.215836
Ga -6.127186 -3.058581 9.215836
Ga -6.127186 -6.127186 12.284440
Ga -3.058581 -3.058581 12.284440
Ga -3.058581 -6.127186 15.353045
Ga -6.127186 -3.058581 15.353045
Ga -3.058581 -3.058581 18.421649
Ga -3.058581 0.010023 -21.470207
Ga -6.127186 0.010023 -18.401603
Ga -3.058581 3.078627 -18.401603
Ga -3.058581 0.010023 -15.332998
Ga -6.127186 3.078627 -15.332998
Ga -6.127186 0.010023 -12.264394
Ga -3.058581 3.078627 -12.264394
Ga -3.058581 0.010023 -9.195790
Ga -6.127186 3.078627 -9.195790
Ga -6.127186 0.010023 -6.127186
Ga -3.058581 3.078627 -6.127186
Ga -3.058581 0.010023 -3.058581
Ga -6.127186 3.078627 -3.058581
Ga -6.127186 0.010023 0.010023
Ga -3.058581 3.078627 0.010023
Ga -3.058581 0.010023 3.078627
Ga -6.127186 3.078627 3.078627
Ga -6.127186 0.010023 6.147232
Ga -3.058581 3.078627 6.147232
Ga -3.058581 0.010023 9.215836
Ga -6.127186 3.078627 9.215836
Ga -6.127186 0.010023 12.284440
Ga -3.058581 3.078627 12.284440
Ga -3.058581 0.010023 15.353045
Ga -6.127186 3.078627 15.353045
Ga -6.127186 0.010023 18.421649
Ga -3.058581 3.078627 18.421649
Ga -3.058581 0.010023 21.490253
Ga -6.127186 3.078627 21.490253
Ga -3.058581 3.078627 24.558858
Ga -3.058581 6.147232 -15.332998
Ga -6.127186 6.147232 -12.264394
Ga -3.058581 9.215836 -12.264394
Ga -3.058581 6.147232 -9.195790
Ga -6.127186 9.215836 -9.195790
Ga -6.127186 6.147232 -6.127186
Ga -3.058581 9.215836 -6.127186
Ga -3.058581 6.147232 -3.058581
Ga -6.127186 9.215836 -3.058581
Ga -6.127186 6.147232 0.010023
Ga -3.058581 9.215836 0.010023
Ga -3.058581 6.147232 3.078627
Ga -6.127186 9.215836 3.078627
Ga -6.127186 6.147232 6.147232
Ga -3.058581 9.215836 6.147232
Ga -3.058581 6.147232 9.215836
Ga -6.127186 9.215836 9.215836
Ga -6.127186 6.147232 12.284440
Ga -3.058581 9.215836 12.284440
Ga -3.058581 6.147232 15.353045
Ga -6.127186 9.215836 15.353045
Ga -6.127186 6.147232 18.421649
Ga -3.058581 9.215836 18.421649
Ga -3.058581 6.147232 21.490253
Ga -6.127186 9.215836 21.490253
Ga -6.127186 6.147232 24.558858
Ga -3.058581 12.284440 -9.195790
Ga -6.127186 12.284440 -6.127186
Ga -3.058581 15.353045 -6.127186
Ga -3.058581 12.284440 -3.058581
Ga -6.127186 15.353045 -3.058581
Ga -6.127186 12.284440 0.010023
Ga -3.058581 15.353045 0.010023
Ga -3.058581 12.284440 3.078627
Ga -6.127186 15.353045 3.078627
Ga -6.127186 12.284440 6.147232
Ga -3.058581 15.353045 6.147232
Ga -3.058581 12.284440 9.215836
Ga -6.127186 15.353045 9.215836
Ga -6.127186 12.284440 12.284440
Ga -3.058581 15.353045 12.284440
Ga -3.058581 12.284440 15.353045
Ga -6.127186 15.353045 15.353045
Ga -6.127186 12.284440 18.421649
Ga -3.058581 18.421649 -3.058581
Ga -6.127186 18.421649 0.010023
Ga -3.058581 21.490253 0.010023
Ga -3.058581 18.421649 3.078627
Ga -6.127186 21.490253 3.078627
Ga -6.127186 18.421649 6.147232
Ga -3.058581 21.490253 6.147232
Ga -3.058581 18.421649 9.215836
Ga -6.127186 21.490253 9.215836
Ga -6.127186 18.421649 12.284440
Ga -3.058581 24.558858 3.078627
Ga -6.127186 24.558858 6.147232
Ga 0.010023 -21.470207 -3.058581
Ga 0.010023 -24.538811 0.010023
Ga 3.078627 -21.470207 0.010023
Ga 3.078627 -24.538811 3.078627
Ga 0.010023 -21.470207 3.078627
Ga 3.078627 -21.470207 6.147232
Ga 0.010023 -15.332998 -9.195790
Ga 0.010023 -18.401603 -6.127186
Ga 3.078627 -15.332998 -6.127186
Ga 3.078627 -18.401603 -3.058581
Ga 0.010023 -15.332998 -3.058581
Ga 0.010023 -18.401603 0.010023
Ga 3.078627 -15.332998 0.010023
Ga 3.078627 -18.401603 3.078627
Ga 0.010023 -15.332998 3.078627
Ga 0.010023 -18.401603 6.147232
Ga 3.078627 -15.332998 6.147232
Ga 3.078627 -18.401603 9.215836
Ga 0.010023 -15.332998 9.215836
Ga 3.078627 -15.332998 12.284440
Ga 0.010023 -9.195790 -15.332998
Ga 0.010023 -12.264394 -12.264394
Ga 3.078627 -9.195790 -12.264394
Ga 3.078627 -12.264394 -9.195790
Ga 0.010023 -9.195790 -9.195790
Ga 0.010023 -12.264394 -6.127186
Ga 3.078627 -9.195790 -6.127186
Ga 3.078627 -12.264394 -3.058581
Ga 0.010023 -9.195790 -3.058581
Ga 0.010023 -12.264394 0.010023
Ga 3.078627 -9.195790 0.010023
Ga 3.078627 -12.264394 3.078627
Ga 0.010023 -9.195790 3.078627
Ga 0.010023 -12.264394 6.147232
Ga 3.078627 -9.195790 6.147232
Ga 3.078627 -12.264394 9.215836
Ga 0.010023 -9.195790 9.215836
Ga 0.010023 -12.264394 12.284440
Ga 3.078627 -9.195790 12.284440
Ga 3.078627 -12.264394 15.353045
Ga 0.010023 -9.195790 15.353045
Ga 3.078627 -9.195790 18.421649
Ga 0.010023 -3.058581 -21.470207
Ga 0.010023 -6.127186 -18.401603
Ga 3.078627 -3.058581 -18.401603
Ga 3.078627 -6.127186 -15.332998
Ga 0.010023 -3.058581 -15.332998
Ga 0.010023 -6.127186 -12.264394
Ga 3.078627 -3.058581 -12.264394
Ga 3.078627 -6.127186 -9.195790
Ga 0.010023 -3.058581 -9.195790
Ga 0.010023 -6.127186 -6.127186
Ga 3.078627 -3.058581 -6.127186
Ga 3.078627 -6.127186 -3.058581
Ga 0.010023 -3.058581 -3.058581
Ga 0.010023 -6.127186 0.010023
Ga 3.078627 -3.058581 0.010023
Ga 3.078627 -6.127186 3.078627
Ga 0.010023 -3.058581 3.078627
Ga 0.010023 -6.127186 6.147232
Ga 3.078627 -3.058581 6.147232
Ga 3.078627 -6.127186 9.215836
Ga 0.010023 -3.058581 9.215836
Ga 0.010023 -6.127186 12.284440
Ga 3.078627 -3.058581 12.284440
Ga 3.078627 -6.127186 15.353045
Ga 0.010023 -3.058581 15.353045
Ga 0.010023 -6.127186 18.421649
Ga 3.078627 -3.058581 18.421649
Ga 3.078627 -6.127186 21.490253
Ga 0.010023 -3.058581 21.490253
Ga 3.078627 -3.058581 24.558858
Ga 0.010023 0.010023 -24.538811
Ga 3.078627 3.078627 -24.538811
Ga 3.078627 0.010023 -21.470207
Ga 0.010023 3.078627 -21.470207
Ga 0.010023 0.010023 -18.401603
Ga 3.078627 3.078627 -18.401603
Ga 3.078627 0.010023 -15.332998
Ga 0.010023 3.078627 -15.332998
Ga 0.010023 0.010023 -12.264394
Ga 3.078627 3.078627 -12.264394
Ga 3.078627 0.010023 -9.195790
Ga 0.010023 3.078627 -9.195790
Ga 0.010023 0.010023 -6.127186
Ga 3.078627 3.078627 -6.127186
Ga 3.078627 0.010023 -3.058581
Ga 0.010023 3.078627 -3.058581
Ga 0.010023 0.010023 0.010023
Ga 3.078627 3.078627 0.010023
Ga 3.078627 0.010023 3.078627
Ga 0.010023 3.078627 3.078627
Ga 0.010023 0.010023 6.147232
Ga 3.078627 3.078627 6.147232
Ga 3.078627 0.010023 9.215836
Ga 0.010023 3.078627 9.215836
Ga 0.010023 0.010023 12.284440
Ga 3.078627 3.078627 12.284440
Ga 3.078627 0.010023 15.353045
Ga 0.010023 3.078627 15.353045
Ga 0.010023 0.010023 18.421649
Ga 3.078627 3.078627 18.421649
Ga 3.078627 0.010023 21.490253
Ga 0.010023 3.078627 21.490253
Ga 0.010023 0.010023 24.558858
Ga 3.078627 6.147232 -21.470207
Ga 0.010023 6.147232 -18.401603
Ga 3.078627 9.215836 -18.401603
Ga 3.078627 6.147232 -15.332998
Ga 0.010023 9.215836 -15.332998
Ga 0.010023 6.147232 -12.264394
Ga 3.078627 9.215836 -12.264394
Ga 3.078627 6.147232 -9.195790
Ga 0.010023 9.215836 -9.195790
Ga 0.010023 6.147232 -6.127186
Ga 3.078627 9.215836 -6.127186
Ga 3.078627 6.147232 -3.058581
Ga 0.010023 9.215836 -3.058581
Ga 0.010023 6.147232 0.010023
Ga 3.078627 9.215836 0.010023
Ga 3.078627 6.147232 3.078627
Ga 0.010023 9.215836 3.078627
Ga 0.010023 6.147232 6.147232
Ga 3.078627 9.215836 6.147232
Ga 3.078627 6.147232 9.215836
Ga 0.010023 9.215836 9.215836
Ga 0.010023 6.147232 12.284440
Ga 3.078627 9.215836 12.284440
Ga 3.078627 6.147232 15.353045
Ga 0.010023 9.215836 15.353045
Ga 0.010023 6.147232 18.421649
Ga 3.078627 12.284440 -15.332998
Ga 0.010023 12.284440 -12.264394
Ga 3.078627 15.353045 -12.264394
Ga 3.078627 12.284440 -9.195790
Ga 0.010023 15.353045 -9.195790
Ga 0.010023 12.284440 -6.127186
Ga 3.078627 15.353045 -6.127186
Ga 3.078627 12.284440 -3.058581
Ga 0.010023 15.353045 -3.058581
Ga 0.010023 12.284440 0.010023
Ga 3.078627 15.353045 0.010023
Ga 3.078627 12.284440 3.078627
Ga 0.010023 15.353045 3.078627
Ga 0.010023 12.284440 6.147232
Ga 3.078627 15.353045 6.147232
Ga 3.078627 12.284440 9.215836
Ga 0.010023 15.353045 9.215836
Ga 0.010023 12.284440 12.284440
Ga 3.078627 18.421649 -9.195790
Ga 0.010023 18.421649 -6.127186
Ga 3.078627 21.490253 -6.127186
Ga 3.078627 18.421649 -3.058581
Ga 0.010023 21.490253 -3.058581
Ga 0.010023 18.421649 0.010023
Ga 3.078627 21.490253 0.010023
Ga 3.078627 18.421649 3.078627
Ga 0.010023 21.490253 3.078627
Ga 0.010023 18.421649 6.147232
Ga 3.078627 24.558858 -3.058581
Ga 0.010023 24.558858 0.010023
Ga 6.147232 -21.470207 3.078627
Ga 6.147232 -24.538811 6.147232
Ga 9.215836 -21.470207 6.147232
Ga 9.215836 -24.538811 9.215836
Ga 6.147232 -21.470207 9.215836
Ga 9.215836 -21.470207 12.284440
Ga 6.147232 -15.332998 -3.058581
Ga 6.147232 -18.401603 0.010023
Ga 9.215836 -15.332998 0.010023
Ga 9.215836 -18.401603 3.078627
Ga 6.147232 -15.332998 3.078627
Ga 6.147232 -18.401603 6.147232
Ga 9.215836 -15.332998 6.147232
Ga 9.215836 -18.401603 9.215836
Ga 6.147232 -15.332998 9.215836
Ga 6.147232 -18.401603 12.284440
Ga 9.215836 -15.332998 12.284440
Ga 9.215836 -18.401603 15.353045
Ga 6.147232 -15.332998 15.353045
Ga 9.215836 -15.332998 18.421649
Ga 6.147232 -9.195790 -9.195790
Ga 6.147232 -12.264394 -6.127186
Ga 9.215836 -9.195790 -6.127186
Ga 9.215836 -12.264394 -3.058581
Ga 6.147232 -9.195790 -3.058581
Ga 6.147232 -12.264394 0.010023
Ga 9.215836 -9.195790 0.010023
Ga 9.215836 -12.264394 3.078627
Ga 6.147232 -9.195790 3.078627
Ga 6.147232 -12.264394 6.147232
Ga 9.215836 -9.195790 6.147232
Ga 9.215836 -12.264394 9.215836
Ga 6.147232 -9.195790 9.215836
Ga 6.147232 -12.264394 12.284440
Ga 9.215836 -9.195790 12.284440
Ga 9.215836 -12.264394 15.353045
Ga 6.147232 -9.195790 15.353045
Ga 6.147232 -12.264394 18.421649
Ga 9.215836 -9.195790 18.421649
Ga 9.215836 -12.264394 21.490253
Ga 6.147232 -9.195790 21.490253
Ga 9.215836 -9.195790 24.558858
Ga 6.147232 -3.058581 -15.332998
Ga 6.147232 -6.127186 -12.264394
Ga 9.215836 -3.058581 -12.264394
Ga 9.215836 -6.127186 -9.195790
Ga 6.147232 -3.058581 -9.195790
Ga 6.147232 -6.127186 -6.127186
Ga 9.215836 -3.058581 -6.127186
Ga 9.215836 -6.127186 -3.058581
Ga 6.147232 -3.058581 -3.058581
Ga 6.147232 -6.127186 0.010023
Ga 9.215836 -3.058581 0.010023
Ga 9.215836 -6.127186 3.078627
Ga 6.147232 -3.058581 3.078627
Ga 6.147232 -6.127186 6.147232
Ga 9.215836 -3.058581 6.147232
Ga 9.215836 -6.127186 9.215836
Ga 6.147232 -3.058581 9.215836
Ga 6.147232 -6.127186 12.284440
Ga 9.215836 -3.058581 12.284440
Ga 9.215836 -6.127186 15.353045
Ga 6.147232 -3.058581 15.353045
Ga 6.147232 -6.127186 18.421649
Ga 9.215836 -3.058581 18.421649
Ga 9.215836 -6.127186 21.490253
Ga 6.147232 -3.058581 21.490253
Ga 6.147232 -6.127186 24.558858
Ga 6.147232 3.078627 -21.470207
Ga 6.147232 0.010023 -18.401603
Ga 9.215836 3.078627 -18.401603
Ga 9.215836 0.010023 -15.332998
Ga 6.147232 3.078627 -15.332998
Ga 6.147232 0.010023 -12.264394
Ga 9.215836 3.078627 -12.264394
Ga 9.215836 0.010023 -9.195790
Ga 6.147232 3.078627 -9.195790
Ga 6.147232 0.010023 -6.127186
Ga 9.215836 3.078627 -6.127186
Ga 9.215836 0.010023 -3.058581
Ga 6.147232 3.078627 -3.058581
Ga 6.147232 0.010023 0.010023
Ga 9.215836 3.078627 0.010023
Ga 9.215836 0.010023 3.078627
Ga 6.147232 3.078627 3.078627
Ga 6.147232 0.010023 6.147232
Ga 9.215836 3.078627 6.147232
Ga 9.215836 0.010023 9.215836
Ga 6.147232 3.078627 9.215836
Ga 6.147232 0.010023 12.284440
Ga 9.215836 3.078627 12.284440
Ga 9.215836 0.010023 15.353045
Ga 6.147232 3.078627 15.353045
Ga 6.147232 0.010023 18.421649
Ga 6.147232 6.147232 -24.538811
Ga 9.215836 9.215836 -24.538811
Ga 9.215836 6.147232 -21.470207
Ga 6.147232 9.215836 -21.470207
Ga 6.147232 6.147232 -18.401603
Ga 9.215836 9.215836 -18.401603
Ga 9.215836 6.147232 -15.332998
Ga 6.147232 9.215836 -15.332998
Ga 6.147232 6.147232 -12.264394
Ga 9.215836 9.215836 -12.264394
Ga 9.215836 6.147232 -9.195790
Ga 6.147232 9.215836 -9.195790
Ga 6.147232 6.147232 -6.127186
Ga 9.215836 9.215836 -6.127186
Ga 9.215836 6.147232 -3.058581
Ga 6.147232 9.215836 -3.058581
Ga 6.147232 6.147232 0.010023
Ga 9.215836 9.215836 0.010023
Ga 9.215836 6.147232 3.078627
Ga 6.147232 9.215836 3.078627
Ga 6.147232 6.147232 6.147232
Ga 9.215836 9.215836 6.147232
Ga 9.215836 6.147232 9.215836
Ga 6.147232 9.215836 9.215836
Ga 6.147232 6.147232 12.284440
Ga 9.215836 12.284440 -21.470207
Ga 6.147232 12.284440 -18.401603
Ga 9.215836 15.353045 -18.401603
Ga 9.215836 12.284440 -15.332998
Ga 6.147232 15.353045 -15.332998
Ga 6.147232 12.284440 -12.264394
Ga 9.215836 15.353045 -12.264394
Ga 9.215836 12.284440 -9.195790
Ga 6.147232 15.353045 -9.195790
Ga 6.147232 12.284440 -6.127186
Ga 9.215836 15.353045 -6.127186
Ga 9.215836 12.284440 -3.058581
Ga 6.147232 15.353045 -3.058581
Ga 6.147232 12.284440 0.010023
Ga 9.215836 15.353045 0.010023
Ga 9.215836 12.284440 3.078627
Ga 6.147232 15.353045 3.078627
Ga 6.147232 12.284440 6.147232
Ga 9.215836 18.421649 -15.332998
Ga 6.147232 18.421649 -12.264394
Ga 9.215836 21.490253 -12.264394
Ga 9.215836 18.421649 -9.195790
Ga 6.147232 21.490253 -9.195790
Ga 6.147232 18.421649 -6.127186
Ga 9.215836 21.490253 -6.127186
Ga 9.215836 18.421649 -3.058581
Ga 6.147232 21.490253 -3.058581
Ga 6.147232 18.421649 0.010023
Ga 9.215836 24.558858 -9.195790
Ga 6.147232 24.558858 -6.127186
Ga 12.284440 -21.470207 9.215836
Ga 12.284440 -24.538811 12.284440
Ga 15.353045 -21.470207 12.284440
Ga 15.353045 -24.538811 15.353045
Ga 12.284440 -21.470207 15.353045
Ga 15.353045 -21.470207 18.421649
Ga 12.284440 -15.332998 3.078627
Ga 12.284440 -18.401603 6.147232
Ga 15.353045 -15.332998 6.147232
Ga 15.353045 -18.401603 9.215836
Ga 12.284440 -15.332998 9.215836
Ga 12.284440 -18.401603 12.284440
Ga 15.353045 -15.332998 12.284440
Ga 15.353045 -18.401603 15.353045
Ga 12.284440 -15.332998 15.353045
Ga 12.284440 -18.401603 18.421649
Ga 15.353045 -15.332998 18.421649
Ga 15.353045 -18.401603 21.490253
Ga 12.284440 -15.332998 21.490253
Ga 15.353045 -15.332998 24.558858
Ga 12.284440 -9.195790 -3.058581
Ga 12.284440 -12.264394 0.010023
Ga 15.353045 -9.195790 0.010023
Ga 15.353045 -12.264394 3.078627
Ga 12.284440 -9.195790 3.078627
Ga 12.284440 -12.264394 6.147232
Ga 15.353045 -9.195790 6.147232
Ga 15.353045 -12.264394 9.215836
Ga 12.284440 -9.195790 9.215836
Ga 12.284440 -12.264394 12.284440
Ga 15.353045 -9.195790 12.284440
Ga 15.353045 -12.264394 15.353045
Ga 12.284440 -9.195790 15.353045
Ga 12.284440 -12.264394 18.421649
Ga 15.353045 -9.195790 18.421649
Ga 15.353045 -12.264394 21.490253
Ga 12.284440 -9.195790 21.490253
Ga 12.284440 -12.264394 24.558858
Ga 12.284440 -3.058581 -9.195790
Ga 12.284440 -6.127186 -6.127186
Ga 15.353045 -3.058581 -6.127186
Ga 15.353045 -6.127186 -3.058581
Ga 12.284440 -3.058581 -3.058581
Ga 12.284440 -6.127186 0.010023
Ga 15.353045 -3.058581 0.010023
Ga 15.353045 -6.127186 3.078627
Ga 12.284440 -3.058581 3.078627
Ga 12.284440 -6.127186 6.147232
Ga 15.353045 -3.058581 6.147232
Ga 15.353045 -6.127186 9.215836
Ga 12.284440 -3.058581 9.215836
Ga 12.284440 -6.127186 12.284440
Ga 15.353045 -3.058581 12.284440
Ga 15.353045 -6.127186 15.353045
Ga 12.284440 -3.058581 15.353045
Ga 12.284440 -6.127186 18.421649
Ga 12.284440 3.078627 -15.332998
Ga 12.284440 0.010023 -12.264394
Ga 15.353045 3.078627 -12.264394
Ga 15.353045 0.010023 -9.195790
Ga 12.284440 3.078627 -9.195790
Ga 12.284440 0.010023 -6.127186
Ga 15.353045 3.078627 -6.127186
Ga 15.353045 0.010023 -3.058581
Ga 12.284440 3.078627 -3.058581
Ga 12.284440 0.010023 0.010023
Ga 15.353045 3.078627 0.010023
Ga 15.353045 0.010023 3.078627
Ga 12.284440 3.078627 3.078627
Ga 12.284440 0.010023 6.147232
Ga 15.353045 3.078627 6.147232
Ga 15.353045 0.010023 9.215836
Ga 12.284440 3.078627 9.215836
Ga 12.284440 0.010023 12.284440
Ga 12.284440 9.215836 -21.470207
Ga 12.284440 6.147232 -18.401603
Ga 15.353045 9.215836 -18.401603
Ga 15.353045 6.147232 -15.332998
Ga 12.284440 9.215836 -15.332998
Ga 12.284440 6.147232 -12.264394
Ga 15.353045 9.215836 -12.264394
Ga 15.353045 6.147232 -9.195790
Ga 12.284440 9.215836 -9.195790
Ga 12.284440 6.147232 -6.127186
Ga 15.353045 9.215836 -6.127186
Ga 15.353045 6.147232 -3.058581
Ga 12.284440 9.215836 -3.058581
Ga 12.284440 6.147232 0.010023
Ga 15.353045 9.215836 0.010023
Ga 15.353045 6.147232 3.078627
Ga 12.284440 9.215836 3.078627
Ga 12.284440 6.147232 6.147232
Ga 12.284440 12.284440 -24.538811
Ga 15.353045 15.353045 -24.538811
Ga 15.353045 12.284440 -21.470207
Ga 12.284440 15.353045 -21.470207
Ga 12.284440 12.284440 -18.401603
Ga 15.353045 15.353045 -18.401603
Ga 15.353045 12.284440 -15.332998
Ga 12.284440 15.353045 -15.332998
Ga 12.284440 12.284440 -12.264394
Ga 15.353045 15.353045 -12.264394
Ga 15.353045 12.284440 -9.195790
Ga 12.284440 15.353045 -9.195790
Ga 12.284440 12.284440 -6.127186
Ga 15.353045 15.353045 -6.127186
Ga 15.353045 12.284440 -3.058581
Ga 12.284440 15.353045 -3.058581
Ga 12.284440 12.284440 0.010023
Ga 15.353045 18.421649 -21.470207
Ga 12.284440 18.421649 -18.401603
Ga 15.353045 21.490253 -18.401603
Ga 15.353045 18.421649 -15.332998
Ga 12.284440 21.490253 -15.332998
Ga 12.284440 18.421649 -12.264394
Ga 15.353045 21.490253 -12.264394
Ga 15.353045 18.421649 -9.195790
Ga 12.284440 21.490253 -9.195790
Ga 12.284440 18.421649 -6.127186
Ga 15.353045 24.558858 -15.332998
Ga 12.284440 24.558858 -12.264394
Ga 18.421649 -21.470207 15.353045
Ga 18.421649 -15.332998 9.215836
Ga 18.421649 -18.401603 12.284440
Ga 21.490253 -15.332998 12.284440
Ga 21.490253 -18.401603 15.353045
Ga 18.421649 -15.332998 15.353045
Ga 18.421649 -18.401603 18.421649
Ga 21.490253 -15.332998 18.421649
Ga 18.421649 -15.332998 21.490253
Ga 18.421649 -9.195790 3.078627
Ga 18.421649 -12.264394 6.147232
Ga 21.490253 -9.195790 6.147232
Ga 21.490253 -12.264394 9.215836
Ga 18.421649 -9.195790 9.215836
Ga 18.421649 -12.264394 12.284440
Ga 21.490253 -9.195790 12.284440
Ga 21.490253 -12.264394 15.353045
Ga 18.421649 -9.195790 15.353045
Ga 18.421649 -12.264394 18.421649
Ga 18.421649 -3.058581 -3.058581
Ga 18.421649 -6.127186 0.010023
Ga 21.490253 -3.058581 0.010023
Ga 21.490253 -6.127186 3.078627
Ga 18.421649 -3.058581 3.078627
Ga 18.421649 -6.127186 6.147232
Ga 21.490253 -3.058581 6.147232
Ga 21.490253 -6.127186 9.215836
Ga 18.421649 -3.058581 9.215836
Ga 18.421649 -6.127186 12.284440
Ga 18.421649 3.078627 -9.195790
Ga 18.421649 0.010023 -6.127186
Ga 21.490253 3.078627 -6.127186
Ga 21.490253 0.010023 -3.058581
Ga 18.421649 3.078627 -3.058581
Ga 18.421649 0.010023 0.010023
Ga 21.490253 3.078627 0.010023
Ga 21.490253 0.010023 3.078627
Ga 18.421649 3.078627 3.078627
Ga 18.421649 0.010023 6.147232
Ga 18.421649 9.215836 -15.332998
Ga 18.421649 6.147232 -12.264394
Ga 21.490253 9.215836 -12.264394
Ga 21.490253 6.147232 -9.195790
Ga 18.421649 9.215836 -9.195790
Ga 18.421649 6.147232 -6.127186
Ga 21.490253 9.215836 -6.127186
Ga 21.490253 6.147232 -3.058581
Ga 18.421649 9.215836 -3.058581
Ga 18.421649 6.147232 0.010023
Ga 18.421649 15.353045 -21.470207
Ga 18.421649 12.284440 -18.401603
Ga 21.490253 15.353045 -18.401603
Ga 21.490253 12.284440 -15.332998
Ga 18.421649 15.353045 -15.332998
Ga 18.421649 12.284440 -12.264394
Ga 21.490253 15.353045 -12.264394
Ga 21.490253 12.284440 -9.195790
Ga 18.421649 15.353045 -9.195790
Ga 18.421649 12.284440 -6.127186
Ga 18.421649 18.421649 -18.401603
Ga 21.490253 18.421649 -15.332998
Ga 18.421649 21.490253 -15.332998
Ga 18.421649 18.421649 -12.264394
Ga 24.558858 -15.332998 15.353045
Ga 24.558858 -9.195790 9.215836
Ga 24.558858 -12.264394 12.284440
Ga 24.558858 -3.058581 3.078627
Ga 24.558858 -6.127186 6.147232
Ga 24.558858 3.078627 -3.058581
Ga 24.558858 0.010023 0.010023
Ga 24.558858 9.215836 -9.195790
Ga 24.558858 6.147232 -6.127186
Ga 24.558858 15.353045 -15.332998
Ga 24.558858 12.284440 -12.264394
Sb -19.935905 -13.798696 -13.798696
Sb -19.935905 -16.867301 -16.867301
Sb -23.004509 -13.798696 -10.730092
Sb -19.935905 -16.867301 -10.730092
Sb -23.004509 -10.730092 -13.798696
Sb -19.935905 -10.730092 -16.867301
Sb -23.004509 -10.730092 -7.661488
Sb -23.004509 -7.661488 -10.730092
Sb -19.935905 -7.661488 -7.661488
Sb -19.935905 -10.730092 -10.730092
Sb -19.935905 -7.661488 -1.524279
Sb -19.935905 -10.730092 -4.592883
Sb -23.004509 -4.592883 -7.661488
Sb -19.935905 -4.592883 -10.730092
Sb -23.004509 -4.592883 -1.524279
Sb -23.004509 -1.524279 -4.592883
Sb -19.935905 -1.524279 -1.524279
Sb -19.935905 -4.592883 -4.592883
Sb -23.004509 -1.524279 1.544325
Sb -19.935905 -1.524279 4.612930
Sb -19.935905 4.612930 -1.524279
Sb -19.935905 1.544325 -4.592883
Sb -23.004509 1.544325 4.612930
Sb -23.004509 4.612930 1.544325
Sb -19.935905 4.612930 4.612930
Sb -19.935905 1.544325 1.544325
Sb -23.004509 4.612930 7.681534
Sb -19.935905 4.612930 10.750138
Sb -19.935905 10.750138 4.612930
Sb -19.935905 7.681534 1.544325
Sb -23.004509 7.681534 10.750138
Sb -23.004509 10.750138 7.681534
Sb -19.935905 10.750138 10.750138
Sb -19.935905 7.681534 7.681534
Sb -23.004509 10.750138 13.818742
Sb -19.935905 10.750138 16.887347
Sb -23.004509 13.818742 10.750138
Sb -19.935905 16.887347 10.750138
Sb -19.935905 16.887347 16.887347
Sb -19.935905 13.818742 13.818742
Sb -16.867301 -19.935905 -16.867301
Sb -13.798696 -19.935905 -13.798696
Sb -16.867301 -19.935905 -10.730092
Sb -13.798696 -23.004509 -10.730092
Sb -16.867301 -16.867301 -19.935905
Sb -13.798696 -13.798696 -19.935905
Sb -16.867301 -16.867301 -13.798696
Sb -16.867301 -13.798696 -16.867301
Sb -13.798696 -13.798696 -13.798696
Sb -13.798696 -16.867301 -16.867301
Sb -16.867301 -16.867301 -7.661488
Sb -16.867301 -13.798696 -10.730092
Sb -13.798696 -13.798696 -7.661488
Sb -13.798696 -16.867301 -10.730092
Sb -16.867301 -13.798696 -4.592883
Sb -13.798696 -16.867301 -4.592883
Sb -16.867301 -10.730092 -19.935905
Sb -13.798696 -7.661488 -19.935905
Sb -13.798696 -10.730092 -23.004509
Sb -16.867301 -10.730092 -13.798696
Sb -13.798696 -7.661488 -13.798696
Sb -13.798696 -10.730092 -16.867301
Sb -16.867301 -10.730092 -7.661488
Sb -16.867301 -7.661488 -10.730092
Sb -13.798696 -7.661488 -7.661488
Sb -13.798696 -10.730092 -10.730092
Sb -16.867301 -7.661488 -4.592883
Sb -13.798696 -7.661488 -1.524279
Sb -13.798696 -10.730092 -4.592883
Sb -16.867301 -7.661488 1.544325
Sb -13.798696 -7.661488 4.612930
Sb -13.798696 -10.730092 1.544325
Sb -16.867301 -4.592883 -13.798696
Sb -13.798696 -1.524279 -13.798696
Sb -13.798696 -4.592883 -16.867301
Sb -16.867301 -4.592883 -7.661488
Sb -13.798696 -1.524279 -7.661488
Sb -13.798696 -4.592883 -10.730092
Sb -16.867301 -4.592883 -1.524279
Sb -16.867301 -1.524279 -4.592883
Sb -13.798696 -1.524279 -1.524279
Sb -13.798696 -4.592883 -4.592883
Sb -16.867301 -1.524279 1.544325
Sb -13.798696 -1.524279 4.612930
Sb -13.798696 -4.592883 1.544325
Sb -16.867301 -1.524279 7.681534
Sb -13.798696 -1.524279 10.750138
Sb -13.798696 -4.592883 7.681534
Sb -16.867301 1.544325 -7.661488
Sb -13.798696 4.612930 -7.661488
Sb -13.798696 1.544325 -10.730092
Sb -16.867301 1.544325 -1.524279
Sb -13.798696 4.612930 -1.524279
Sb -13.798696 1.544325 -4.592883
Sb -16.867301 1.544325 4.612930
Sb -16.867301 4.612930 1.544325
Sb -13.798696 4.612930 4.612930
Sb -13.798696 1.544325 1.544325
Sb -16.867301 4.612930 7.681534
Sb -13.798696 4.612930 10.750138
Sb -13.798696 1.544325 7.681534
Sb -16.867301 4.612930 13.818742
Sb -13.798696 4.612930 16.887347
Sb -13.798696 1.544325 13.818742
Sb -16.867301 7.681534 -1.524279
Sb -13.798696 10.750138 -1.524279
Sb -13.798696 7.681534 -4.592883
Sb -16.867301 7.681534 4.612930
Sb -13.798696 10.750138 4.612930
Sb -13.798696 7.681534 1.544325
Sb -16.867301 7.681534 10.750138
Sb -16.867301 10.750138 7.681534
Sb -13.798696 10.750138 10.750138
Sb -13.798696 7.681534 7.681534
Sb -16.867301 7.681534 16.887347
Sb -16.867301 10.750138 13.818742
Sb -13.798696 10.750138 16.887347
Sb -13.798696 7.681534 13.818742
Sb -16.867301 10.750138 19.955951
Sb -13.798696 10.750138 23.024555
Sb -16.867301 13.818742 4.612930
Sb -13.798696 16.887347 4.612930
Sb -16.867301 13.818742 10.750138
Sb -16.867301 16.887347 7.681534
Sb -13.798696 16.887347 10.750138
Sb -13.798696 13.818742 7.681534
Sb -16.867301 13.818742 16.887347
Sb -16.867301 16.887347 13.818742
Sb -13.798696 16.887347 16.887347
Sb -13.798696 13.818742 13.818742
Sb -16.867301 16.887347 19.955951
Sb -13.798696 13.818742 19.955951
Sb -16.867301 19.955951 10.750138
Sb -13.798696 23.024555 10.750138
Sb -13.798696 19.955951 7.681534
Sb -16.867301 19.955951 16.887347
Sb -13.798696 19.955951 13.818742
Sb -10.730092 -23.004509 -13.798696
Sb -10.730092 -19.935905 -16.867301
Sb -7.661488 -19.935905 -13.798696
Sb -10.730092 -23.004509 -7.661488
Sb -10.730092 -19.935905 -10.730092
Sb -7.661488 -19.935905 -7.661488
Sb -7.661488 -23.004509 -10.730092
Sb -7.661488 -19.935905 -1.524279
Sb -7.661488 -23.004509 -4.592883
Sb -10.730092 -13.798696 -23.004509
Sb -7.661488 -13.798696 -19.935905
Sb -10.730092 -16.867301 -13.798696
Sb -10.730092 -13.798696 -16.867301
Sb -7.661488 -13.798696 -13.798696
Sb -10.730092 -16.867301 -7.661488
Sb -10.730092 -13.798696 -10.730092
Sb -7.661488 -13.798696 -7.661488
Sb -7.661488 -16.867301 -10.730092
Sb -10.730092 -16.867301 -1.524279
Sb -10.730092 -13.798696 -4.592883
Sb -7.661488 -13.798696 -1.524279
Sb -7.661488 -16.867301 -4.592883
Sb -7.661488 -13.798696 4.612930
Sb -10.730092 -10.730092 -19.935905
Sb -10.730092 -7.661488 -23.004509
Sb -7.661488 -7.661488 -19.935905
Sb -7.661488 -10.730092 -23.004509
Sb -10.730092 -10.730092 -13.798696
Sb -10.730092 -7.661488 -16.867301
Sb -7.661488 -7.661488 -13.798696
Sb -7.661488 -10.730092 -16.867301
Sb -10.730092 -10.730092 -7.661488
Sb -10.730092 -7.661488 -10.730092
Sb -7.661488 -7.661488 -7.661488
Sb -7.661488 -10.730092 -10.730092
Sb -10.730092 -10.730092 -1.524279
Sb -10.730092 -7.661488 -4.592883
Sb -7.661488 -7.661488 -1.524279
Sb -7.661488 -10.730092 -4.592883
Sb -10.730092 -10.730092 4.612930
Sb -10.730092 -7.661488 1.544325
Sb -7.661488 -7.661488 4.612930
Sb -7.661488 -10.730092 1.544325
Sb -7.661488 -10.730092 7.681534
Sb -7.661488 -1.524279 -19.935905
Sb -7.661488 -4.592883 -23.004509
Sb -10.730092 -4.592883 -13.798696
Sb -10.730092 -1.524279 -16.867301
Sb -7.661488 -1.524279 -13.798696
Sb -7.661488 -4.592883 -16.867301
Sb -10.730092 -4.592883 -7.661488
Sb -10.730092 -1.524279 -10.730092
Sb -7.661488 -1.524279 -7.661488
Sb -7.661488 -4.592883 -10.730092
Sb -10.730092 -4.592883 -1.524279
Sb -10.730092 -1.524279 -4.592883
Sb -7.661488 -1.524279 -1.524279
Sb -7.661488 -4.592883 -4.592883
Sb -10.730092 -4.592883 4.612930
Sb -10.730092 -1.524279 1.544325
Sb -7.661488 -1.524279 4.612930
Sb -7.661488 -4.592883 1.544325
Sb -10.730092 -4.592883 10.750138
Sb -10.730092 -1.524279 7.681534
Sb -7.661488 -1.524279 10.750138
Sb -7.661488 -4.592883 7.681534
Sb -10.730092 -1.524279 13.818742
Sb -7.661488 -1.524279 16.887347
Sb -7.661488 -4.592883 13.818742
Sb -10.730092 1.544325 -13.798696
Sb -7.661488 4.612930 -13.798696
Sb -10.730092 1.544325 -7.661488
Sb -10.730092 4.612930 -10.730092
Sb -7.661488 4.612930 -7.661488
Sb -7.661488 1.544325 -10.730092
Sb -10.730092 1.544325 -1.524279
Sb -10.730092 4.612930 -4.592883
Sb -7.661488 4.612930 -1.524279
Sb -7.661488 1.544325 -4.592883
Sb -10.730092 1.544325 4.612930
Sb -10.730092 4.612930 1.544325
Sb -7.661488 4.612930 4.612930
Sb -7.661488 1.544325 1.544325
Sb -10.730092 1.544325 10.750138
Sb -10.730092 4.612930 7.681534
Sb -7.661488 4.612930 10.750138
Sb -7.661488 1.544325 7.681534
Sb -10.730092 4.612930 13.818742
Sb -7.661488 4.612930 16.887347
Sb -7.661488 1.544325 13.818742
Sb -10.730092 4.612930 19.955951
Sb -7.661488 4.612930 23.024555
Sb -7.661488 1.544325 19.955951
Sb -7.661488 10.750138 -7.661488
Sb -7.661488 7.681534 -10.730092
Sb -10.730092 7.681534 -1.524279
Sb -10.730092 10.750138 -4.592883
Sb -7.661488 10.750138 -1.524279
Sb -7.661488 7.681534 -4.592883
Sb -10.730092 7.681534 4.612930
Sb -10.730092 10.750138 1.544325
Sb -7.661488 10.750138 4.612930
Sb -7.661488 7.681534 1.544325
Sb -10.730092 7.681534 10.750138
Sb -10.730092 10.750138 7.681534
Sb -7.661488 10.750138 10.750138
Sb -7.661488 7.681534 7.681534
Sb -10.730092 7.681534 16.887347
Sb -10.730092 10.750138 13.818742
Sb -7.661488 10.750138 16.887347
Sb -7.661488 7.681534 13.818742
Sb -10.730092 7.681534 23.024555
Sb -10.730092 10.750138 19.955951
Sb -7.661488 10.750138 23.024555
Sb -7.661488 7.681534 19.955951
Sb -10.730092 13.818742 -1.524279
Sb -7.661488 13.818742 -4.592883
Sb -10.730092 13.818742 4.612930
Sb -10.730092 16.887347 1.544325
Sb -7.661488 16.887347 4.612930
Sb -7.661488 13.818742 1.544325
Sb -10.730092 13.818742 10.750138
Sb -10.730092 16.887347 7.681534
Sb -7.661488 16.887347 10.750138
Sb -7.661488 13.818742 7.681534
Sb -10.730092 13.818742 16.887347
Sb -10.730092 16.887347 13.818742
Sb -7.661488 13.818742 13.818742
Sb -10.730092 13.818742 23.024555
Sb -10.730092 16.887347 19.955951
Sb -7.661488 13.818742 19.955951
Sb -7.661488 23.024555 4.612930
Sb -7.661488 19.955951 1.544325
Sb -10.730092 19.955951 10.750138
Sb -10.730092 23.024555 7.681534
Sb -7.661488 23.024555 10.750138
Sb -7.661488 19.955951 7.681534
Sb -10.730092 19.955951 16.887347
Sb -10.730092 23.024555 13.818742
Sb -7.661488 19.955951 13.818742
Sb -4.592883 -23.004509 -7.661488
Sb -4.592883 -23.004509 -1.524279
Sb -4.592883 -19.935905 -4.592883
Sb -1.524279 -19.935905 -1.524279
Sb -1.524279 -23.004509 -4.592883
Sb -4.592883 -19.935905 1.544325
Sb -1.524279 -23.004509 1.544325
Sb -4.592883 -16.867301 -13.798696
Sb -4.592883 -13.798696 -16.867301
Sb -4.592883 -16.867301 -7.661488
Sb -4.592883 -13.798696 -10.730092
Sb -1.524279 -13.798696 -7.661488
Sb -1.524279 -16.867301 -10.730092
Sb -4.592883 -16.867301 -1.524279
Sb -4.592883 -13.798696 -4.592883
Sb -1.524279 -13.798696 -1.524279
Sb -1.524279 -16.867301 -4.592883
Sb -4.592883 -16.867301 4.612930
Sb -4.592883 -13.798696 1.544325
Sb -1.524279 -13.798696 4.612930
Sb -1.524279 -16.867301 1.544325
Sb -4.592883 -13.798696 7.681534
Sb -1.524279 -13.798696 10.750138
Sb -1.524279 -16.867301 7.681534
Sb -4.592883 -7.661488 -23.004509
Sb -4.592883 -10.730092 -13.798696
Sb -4.592883 -7.661488 -16.867301
Sb -1.524279 -7.661488 -13.798696
Sb -1.524279 -10.730092 -16.867301
Sb -4.592883 -10.730092 -7.661488
Sb -4.592883 -7.661488 -10.730092
Sb -1.524279 -7.661488 -7.661488
Sb -1.524279 -10.730092 -10.730092
Sb -4.592883 -10.730092 -1.524279
Sb -4.592883 -7.661488 -4.592883
Sb -1.524279 -7.661488 -1.524279
Sb -1.524279 -10.730092 -4.592883
Sb -4.592883 -10.730092 4.612930
Sb -4.592883 -7.661488 1.544325
Sb -1.524279 -7.661488 4.612930
Sb -1.524279 -10.730092 1.544325
Sb -4.592883 -7.661488 7.681534
Sb -1.524279 -7.661488 10.750138
Sb -1.524279 -10.730092 7.681534
Sb -4.592883 -7.661488 13.818742
Sb -1.524279 -10.730092 13.818742
Sb -4.592883 -4.592883 -19.935905
Sb -4.592883 -1.524279 -23.004509
Sb -1.524279 -1.524279 -19.935905
Sb -1.524279 -4.592883 -23.004509
Sb -4.592883 -4.592883 -13.798696
Sb -4.592883 -1.524279 -16.867301
Sb -1.524279 -1.524279 -13.798696
Sb -1.524279 -4.592883 -16.867301
Sb -4.592883 -4.592883 -7.661488
Sb -4.592883 -1.524279 -10.730092
Sb -1.524279 -1.524279 -7.661488
Sb -1.524279 -4.592883 -10.730092
Sb -4.592883 -4.592883 -1.524279
Sb -4.592883 -1.524279 -4.592883
Sb -1.524279 -1.524279 -1.524279
Sb -1.524279 -4.592883 -4.592883
Sb -4.592883 -4.592883 4.612930
Sb -4.592883 -1.524279 1.544325
Sb -1.524279 -1.524279 4.612930
Sb -1.524279 -4.592883 1.544325
Sb -4.592883 -4.592883 10.750138
Sb -4.592883 -1.524279 7.681534
Sb -1.524279 -1.524279 10.750138
Sb -1.524279 -4.592883 7.681534
Sb -4.592883 -1.524279 13.818742
Sb -1.524279 -1.524279 16.887347
Sb -1.524279 -4.592883 13.818742
Sb -4.592883 -1.524279 19.955951
Sb -1.524279 -1.524279 23.024555
Sb -1.524279 -4.592883 19.955951
Sb -4.592883 1.544325 -19.935905
Sb -1.524279 1.544325 -23.004509
Sb -4.592883 1.544325 -13.798696
Sb -4.592883 4.612930 -16.867301
Sb -1.524279 4.612930 -13.798696
Sb -1.524279 1.544325 -16.867301
Sb -4.592883 1.544325 -7.661488
Sb -4.592883 4.612930 -10.730092
Sb -1.524279 4.612930 -7.661488
Sb -1.524279 1.544325 -10.730092
Sb -4.592883 1.544325 -1.524279
Sb -4.592883 4.612930 -4.592883
Sb -1.524279 4.612930 -1.524279
Sb -1.524279 1.544325 -4.592883
Sb -4.592883 1.544325 4.612930
Sb -4.592883 4.612930 1.544325
Sb -1.524279 4.612930 4.612930
Sb -1.524279 1.544325 1.544325
Sb -4.592883 1.544325 10.750138
Sb -4.592883 4.612930 7.681534
Sb -1.524279 4.612930 10.750138
Sb -1.524279 1.544325 7.681534
Sb -4.592883 1.544325 16.887347
Sb -4.592883 4.612930 13.818742
Sb -1.524279 4.612930 16.887347
Sb -1.524279 1.544325 13.818742
Sb -4.592883 1.544325 23.024555
Sb -4.592883 4.612930 19.955951
Sb -1.524279 4.612930 23.024555
Sb -1.524279 1.544325 19.955951
Sb -4.592883 7.681534 -13.798696
Sb -1.524279 10.750138 -13.798696
Sb -1.524279 7.681534 -16.867301
Sb -4.592883 7.681534 -7.661488
Sb -1.524279 10.750138 -7.661488
Sb -1.524279 7.681534 -10.730092
Sb -4.592883 7.681534 -1.524279
Sb -4.592883 10.750138 -4.592883
Sb -1.524279 10.750138 -1.524279
Sb -1.524279 7.681534 -4.592883
Sb -4.592883 7.681534 4.612930
Sb -4.592883 10.750138 1.544325
Sb -1.524279 10.750138 4.612930
Sb -1.524279 7.681534 1.544325
Sb -4.592883 7.681534 10.750138
Sb -4.592883 10.750138 7.681534
Sb -1.524279 10.750138 10.750138
Sb -1.524279 7.681534 7.681534
Sb -4.592883 7.681534 16.887347
Sb -4.592883 10.750138 13.818742
Sb -1.524279 10.750138 16.887347
Sb -1.524279 7.681534 13.818742
Sb -4.592883 7.681534 23.024555
Sb -1.524279 7.681534 19.955951
Sb -4.592883 13.818742 -7.661488
Sb -1.524279 16.887347 -7.661488
Sb -4.592883 13.818742 -1.524279
Sb -4.592883 16.887347 -4.592883
Sb -1.524279 16.887347 -1.524279
Sb -1.524279 13.818742 -4.592883
Sb -4.592883 13.818742 4.612930
Sb -4.592883 16.887347 1.544325
Sb -1.524279 16.887347 4.612930
Sb -1.524279 13.818742 1.544325
Sb -4.592883 13.818742 10.750138
Sb -4.592883 16.887347 7.681534
Sb -1.524279 16.887347 10.750138
Sb -1.524279 13.818742 7.681534
Sb -4.592883 13.818742 16.887347
Sb -4.592883 16.887347 13.818742
Sb -4.592883 19.955951 -1.524279
Sb -1.524279 23.024555 -1.524279
Sb -4.592883 19.955951 4.612930
Sb -4.592883 23.024555 1.544325
Sb -1.524279 23.024555 4.612930
Sb -1.524279 19.955951 1.544325
Sb -4.592883 23.024555 7.681534
Sb 1.544325 -23.004509 -1.524279
Sb 1.544325 -19.935905 -4.592883
Sb 4.612930 -19.935905 -1.524279
Sb 1.544325 -23.004509 4.612930
Sb 1.544325 -19.935905 1.544325
Sb 4.612930 -19.935905 4.612930
Sb 4.612930 -23.004509 1.544325
Sb 1.544325 -19.935905 7.681534
Sb 4.612930 -23.004509 7.681534
Sb 1.544325 -16.867301 -7.661488
Sb 1.544325 -13.798696 -10.730092
Sb 4.612930 -13.798696 -7.661488
Sb 1.544325 -16.867301 -1.524279
Sb 1.544325 -13.798696 -4.592883
Sb 4.612930 -13.798696 -1.524279
Sb 1.544325 -16.867301 4.612930
Sb 1.544325 -13.798696 1.544325
Sb 4.612930 -13.798696 4.612930
Sb 4.612930 -16.867301 1.544325
Sb 1.544325 -16.867301 10.750138
Sb 1.544325 -13.798696 7.681534
Sb 4.612930 -13.798696 10.750138
Sb 4.612930 -16.867301 7.681534
Sb 4.612930 -13.798696 16.887347
Sb 4.612930 -16.867301 13.818742
Sb 1.544325 -7.661488 -16.867301
Sb 4.612930 -7.661488 -13.798696
Sb 1.544325 -10.730092 -7.661488
Sb 1.544325 -7.661488 -10.730092
Sb 4.612930 -7.661488 -7.661488
Sb 1.544325 -10.730092 -1.524279
Sb 1.544325 -7.661488 -4.592883
Sb 4.612930 -7.661488 -1.524279
Sb 4.612930 -10.730092 -4.592883
Sb 1.544325 -10.730092 4.612930
Sb 1.544325 -7.661488 1.544325
Sb 4.612930 -7.661488 4.612930
Sb 4.612930 -10.730092 1.544325
Sb 1.544325 -10.730092 10.750138
Sb 1.544325 -7.661488 7.681534
Sb 4.612930 -7.661488 10.750138
Sb 4.612930 -10.730092 7.681534
Sb 1.544325 -10.730092 16.887347
Sb 1.544325 -7.661488 13.818742
Sb 4.612930 -7.661488 16.887347
Sb 4.612930 -10.730092 13.818742
Sb 4.612930 -7.661488 23.024555
Sb 4.612930 -10.730092 19.955951
Sb 1.544325 -4.592883 -19.935905
Sb 1.544325 -1.524279 -23.004509
Sb 4.612930 -1.524279 -19.935905
Sb 1.544325 -4.592883 -13.798696
Sb 1.544325 -1.524279 -16.867301
Sb 4.612930 -1.524279 -13.798696
Sb 1.544325 -4.592883 -7.661488
Sb 1.544325 -1.524279 -10.730092
Sb 4.612930 -1.524279 -7.661488
Sb 4.612930 -4.592883 -10.730092
Sb 1.544325 -4.592883 -1.524279
Sb 1.544325 -1.524279 -4.592883
Sb 4.612930 -1.524279 -1.524279
Sb 4.612930 -4.592883 -4.592883
Sb 1.544325 -4.592883 4.612930
Sb 1.544325 -1.524279 1.544325
Sb 4.612930 -1.524279 4.612930
Sb 4.612930 -4.592883 1.544325
Sb 1.544325 -4.592883 10.750138
Sb 1.544325 -1.524279 7.681534
Sb 4.612930 -1.524279 10.750138
Sb 4.612930 -4.592883 7.681534
Sb 1.544325 -4.592883 16.887347
Sb 1.544325 -1.524279 13.818742
Sb 4.612930 -1.524279 16.887347
Sb 4.612930 -4.592883 13.818742
Sb 1.544325 -4.592883 23.024555
Sb 1.544325 -1.524279 19.955951
Sb 4.612930 -1.524279 23.024555
Sb 4.612930 -4.592883 19.955951
Sb 1.544325 1.544325 -19.935905
Sb 1.544325 4.612930 -23.004509
Sb 4.612930 4.612930 -19.935905
Sb 4.612930 1.544325 -23.004509
Sb 1.544325 1.544325 -13.798696
Sb 1.544325 4.612930 -16.867301
Sb 4.612930 4.612930 -13.798696
Sb 4.612930 1.544325 -16.867301
Sb 1.544325 1.544325 -7.661488
Sb 1.544325 4.612930 -10.730092
Sb 4.612930 4.612930 -7.661488
Sb 4.612930 1.544325 -10.730092
Sb 1.544325 1.544325 -1.524279
Sb 1.544325 4.612930 -4.592883
Sb 4.612930 4.612930 -1.524279
Sb 4.612930 1.544325 -4.592883
Sb 1.544325 1.544325 4.612930
Sb 1.544325 4.612930 1.544325
Sb 4.612930 4.612930 4.612930
Sb 4.612930 1.544325 1.544325
Sb 1.544325 1.544325 10.750138
Sb 1.544325 4.612930 7.681534
Sb 4.612930 4.612930 10.750138
Sb 4.612930 1.544325 7.681534
Sb 1.544325 1.544325 16.887347
Sb 1.544325 4.612930 13.818742
Sb 4.612930 4.612930 16.887347
Sb 4.612930 1.544325 13.818742
Sb 1.544325 1.544325 23.024555
Sb 1.544325 4.612930 19.955951
Sb 1.544325 7.681534 -19.935905
Sb 4.612930 7.681534 -23.004509
Sb 1.544325 7.681534 -13.798696
Sb 1.544325 10.750138 -16.867301
Sb 4.612930 10.750138 -13.798696
Sb 4.612930 7.681534 -16.867301
Sb 1.544325 7.681534 -7.661488
Sb 1.544325 10.750138 -10.730092
Sb 4.612930 10.750138 -7.661488
Sb 4.612930 7.681534 -10.730092
Sb 1.544325 7.681534 -1.524279
Sb 1.544325 10.750138 -4.592883
Sb 4.612930 10.750138 -1.524279
Sb 4.612930 7.681534 -4.592883
Sb 1.544325 7.681534 4.612930
Sb 1.544325 10.750138 1.544325
Sb 4.612930 10.750138 4.612930
Sb 4.612930 7.681534 1.544325
Sb 1.544325 7.681534 10.750138
Sb 1.544325 10.750138 7.681534
Sb 4.612930 7.681534 7.681534
Sb 1.544325 10.750138 13.818742
Sb 4.612930 7.681534 13.818742
Sb 4.612930 16.887347 -13.798696
Sb 4.612930 13.818742 -16.867301
Sb 1.544325 13.818742 -7.661488
Sb 1.544325 16.887347 -10.730092
Sb 4.612930 16.887347 -7.661488
Sb 4.612930 13.818742 -10.730092
Sb 1.544325 13.818742 -1.524279
Sb 1.544325 16.887347 -4.592883
Sb 4.612930 16.887347 -1.524279
Sb 4.612930 13.818742 -4.592883
Sb 1.544325 13.818742 4.612930
Sb 1.544325 16.887347 1.544325
Sb 4.612930 13.818742 1.544325
Sb 1.544325 13.818742 10.750138
Sb 1.544325 16.887347 7.681534
Sb 4.612930 13.818742 7.681534
Sb 1.544325 19.955951 -7.661488
Sb 4.612930 23.024555 -7.661488
Sb 1.544325 19.955951 -1.524279
Sb 1.544325 23.024555 -4.592883
Sb 4.612930 23.024555 -1.524279
Sb 4.612930 19.955951 -4.592883
Sb 1.544325 23.024555 1.544325
Sb 4.612930 19.955951 1.544325
Sb 7.681534 -23.004509 4.612930
Sb 7.681534 -19.935905 1.544325
Sb 10.750138 -19.935905 4.612930
Sb 7.681534 -23.004509 10.750138
Sb 7.681534 -19.935905 7.681534
Sb 10.750138 -19.935905 10.750138
Sb 10.750138 -23.004509 7.681534
Sb 7.681534 -19.935905 13.818742
Sb 10.750138 -19.935905 16.887347
Sb 10.750138 -23.004509 13.818742
Sb 7.681534 -16.867301 -1.524279
Sb 10.750138 -13.798696 -1.524279
Sb 7.681534 -16.867301 4.612930
Sb 7.681534 -13.798696 1.544325
Sb 10.750138 -13.798696 4.612930
Sb 7.681534 -16.867301 10.750138
Sb 7.681534 -13.798696 7.681534
Sb 10.750138 -13.798696 10.750138
Sb 10.750138 -16.867301 7.681534
Sb 7.681534 -13.798696 13.818742
Sb 10.750138 -13.798696 16.887347
Sb 10.750138 -16.867301 13.818742
Sb 7.681534 -13.798696 19.955951
Sb 10.750138 -13.798696 23.024555
Sb 10.750138 -16.867301 19.955951
Sb 7.681534 -10.730092 -7.661488
Sb 7.681534 -7.661488 -10.730092
Sb 7.681534 -10.730092 -1.524279
Sb 7.681534 -7.661488 -4.592883
Sb 10.750138 -7.661488 -1.524279
Sb 10.750138 -10.730092 -4.592883
Sb 7.681534 -10.730092 4.612930
Sb 7.681534 -7.661488 1.544325
Sb 10.750138 -7.661488 4.612930
Sb 10.750138 -10.730092 1.544325
Sb 7.681534 -10.730092 10.750138
Sb 7.681534 -7.661488 7.681534
Sb 10.750138 -7.661488 10.750138
Sb 10.750138 -10.730092 7.681534
Sb 7.681534 -10.730092 16.887347
Sb 7.681534 -7.661488 13.818742
Sb 10.750138 -7.661488 16.887347
Sb 10.750138 -10.730092 13.818742
Sb 7.681534 -10.730092 23.024555
Sb 7.681534 -7.661488 19.955951
Sb 10.750138 -7.661488 23.024555
Sb 10.750138 -10.730092 19.955951
Sb 7.681534 -4.592883 -13.798696
Sb 7.681534 -1.524279 -16.867301
Sb 10.750138 -1.524279 -13.798696
Sb 7.681534 -4.592883 -7.661488
Sb 7.681534 -1.524279 -10.730092
Sb 10.750138 -1.524279 -7.661488
Sb 10.750138 -4.592883 -10.730092
Sb 7.681534 -4.592883 -1.524279
Sb 7.681534 -1.524279 -4.592883
Sb 10.750138 -1.524279 -1.524279
Sb 10.750138 -4.592883 -4.592883
Sb 7.681534 -4.592883 4.612930
Sb 7.681534 -1.524279 1.544325
Sb 10.750138 -1.524279 4.612930
Sb 10.750138 -4.592883 1.544325
Sb 7.681534 -4.592883 10.750138
Sb 7.681534 -1.524279 7.681534
Sb 10.750138 -1.524279 10.750138
Sb 10.750138 -4.592883 7.681534
Sb 7.681534 -4.592883 16.887347
Sb 7.681534 -1.524279 13.818742
Sb 10.750138 -1.524279 16.887347
Sb 10.750138 -4.592883 13.818742
Sb 7.681534 -4.592883 23.024555
Sb 7.681534 -1.524279 19.955951
Sb 7.681534 4.612930 -23.004509
Sb 10.750138 4.612930 -19.935905
Sb 7.681534 1.544325 -13.798696
Sb 7.681534 4.612930 -16.867301
Sb 10.750138 4.612930 -13.798696
Sb 7.681534 1.544325 -7.661488
Sb 7.681534 4.612930 -10.730092
Sb 10.750138 4.612930 -7.661488
Sb 10.750138 1.544325 -10.730092
Sb 7.681534 1.544325 -1.524279
Sb 7.681534 4.612930 -4.592883
Sb 10.750138 4.612930 -1.524279
Sb 10.750138 1.544325 -4.592883
Sb 7.681534 1.544325 4.612930
Sb 7.681534 4.612930 1.544325
Sb 10.750138 4.612930 4.612930
Sb 10.750138 1.544325 1.544325
Sb 7.681534 1.544325 10.750138
Sb 7.681534 4.612930 7.681534
Sb 10.750138 4.612930 10.750138
Sb 10.750138 1.544325 7.681534
Sb 7.681534 4.612930 13.818742
Sb 10.750138 1.544325 13.818742
Sb 7.681534 7.681534 -19.935905
Sb 7.681534 10.750138 -23.004509
Sb 10.750138 10.750138 -19.935905
Sb 10.750138 7.681534 -23.004509
Sb 7.681534 7.681534 -13.798696
Sb 7.681534 10.750138 -16.867301
Sb 10.750138 10.750138 -13.798696
Sb 10.750138 7.681534 -16.867301
Sb 7.681534 7.681534 -7.661488
Sb 7.681534 10.750138 -10.730092
Sb 10.750138 10.750138 -7.661488
Sb 10.750138 7.681534 -10.730092
Sb 7.681534 7.681534 -1.524279
Sb 7.681534 10.750138 -4.592883
Sb 10.750138 10.750138 -1.524279
Sb 10.750138 7.681534 -4.592883
Sb 7.681534 7.681534 4.612930
Sb 7.681534 10.750138 1.544325
Sb 10.750138 10.750138 4.612930
Sb 10.750138 7.681534 1.544325
Sb 7.681534 7.681534 10.750138
Sb 7.681534 10.750138 7.681534
Sb 7.681534 13.818742 -19.935905
Sb 10.750138 16.887347 -19.935905
Sb 10.750138 13.818742 -23.004509
Sb 7.681534 13.818742 -13.798696
Sb 10.750138 16.887347 -13.798696
Sb 10.750138 13.818742 -16.867301
Sb 7.681534 13.818742 -7.661488
Sb 7.681534 16.887347 -10.730092
Sb 10.750138 16.887347 -7.661488
Sb 10.750138 13.818742 -10.730092
Sb 7.681534 13.818742 -1.524279
Sb 7.681534 16.887347 -4.592883
Sb 10.750138 13.818742 -4.592883
Sb 7.681534 13.818742 4.612930
Sb 7.681534 16.887347 1.544325
Sb 10.750138 13.818742 1.544325
Sb 7.681534 19.955951 -13.798696
Sb 10.750138 23.024555 -13.798696
Sb 10.750138 19.955951 -16.867301
Sb 7.681534 19.955951 -7.661488
Sb 7.681534 23.024555 -10.730092
Sb 10.750138 23.024555 -7.661488
Sb 10.750138 19.955951 -10.730092
Sb 7.681534 23.024555 -4.592883
Sb 10.750138 19.955951 -4.592883
Sb 13.818742 -23.004509 10.750138
Sb 16.887347 -19.935905 10.750138
Sb 13.818742 -19.935905 13.818742
Sb 16.887347 -19.935905 16.887347
Sb 13.818742 -16.867301 4.612930
Sb 16.887347 -13.798696 4.612930
Sb 13.818742 -16.867301 10.750138
Sb 13.818742 -13.798696 7.681534
Sb 16.887347 -13.798696 10.750138
Sb 16.887347 -16.867301 7.681534
Sb 13.818742 -16.867301 16.887347
Sb 13.818742 -13.798696 13.818742
Sb 16.887347 -13.798696 16.887347
Sb 16.887347 -16.867301 13.818742
Sb 13.818742 -13.798696 19.955951
Sb 16.887347 -16.867301 19.955951
Sb 13.818742 -10.730092 -1.524279
Sb 13.818742 -7.661488 -4.592883
Sb 16.887347 -7.661488 -1.524279
Sb 13.818742 -10.730092 4.612930
Sb 13.818742 -7.661488 1.544325
Sb 16.887347 -7.661488 4.612930
Sb 13.818742 -10.730092 10.750138
Sb 13.818742 -7.661488 7.681534
Sb 16.887347 -7.661488 10.750138
Sb 16.887347 -10.730092 7.681534
Sb 13.818742 -10.730092 16.887347
Sb 13.818742 -7.661488 13.818742
Sb 16.887347 -10.730092 13.818742
Sb 13.818742 -10.730092 23.024555
Sb 13.818742 -7.661488 19.955951
Sb 16.887347 -10.730092 19.955951
Sb 13.818742 -4.592883 -7.661488
Sb 13.818742 -1.524279 -10.730092
Sb 16.887347 -1.524279 -7.661488
Sb 13.818742 -4.592883 -1.524279
Sb 13.818742 -1.524279 -4.592883
Sb 16.887347 -1.524279 -1.524279
Sb 13.818742 -4.592883 4.612930
Sb 13.818742 -1.524279 1.544325
Sb 16.887347 -1.524279 4.612930
Sb 16.887347 -4.592883 1.544325
Sb 13.818742 -4.592883 10.750138
Sb 13.818742 -1.524279 7.681534
Sb 16.887347 -4.592883 7.681534
Sb 13.818742 -4.592883 16.887347
Sb 13.818742 -1.524279 13.818742
Sb 16.887347 -4.592883 13.818742
Sb 13.818742 4.612930 -16.867301
Sb 16.887347 4.612930 -13.798696
Sb 13.818742 1.544325 -7.661488
Sb 13.818742 4.612930 -10.730092
Sb 16.887347 4.612930 -7.661488
Sb 13.818742 1.544325 -1.524279
Sb 13.818742 4.612930 -4.592883
Sb 16.887347 4.612930 -1.524279
Sb 16.887347 1.544325 -4.592883
Sb 13.818742 1.544325 4.612930
Sb 13.818742 4.612930 1.544325
Sb 16.887347 1.544325 1.544325
Sb 13.818742 1.544325 10.750138
Sb 13.818742 4.612930 7.681534
Sb 16.887347 1.544325 7.681534
Sb 13.818742 7.681534 -19.935905
Sb 13.818742 10.750138 -23.004509
Sb 16.887347 10.750138 -19.935905
Sb 13.818742 7.681534 -13.798696
Sb 13.818742 10.750138 -16.867301
Sb 16.887347 10.750138 -13.798696
Sb 13.818742 7.681534 -7.661488
Sb 13.818742 10.750138 -10.730092
Sb 16.887347 10.750138 -7.661488
Sb 16.887347 7.681534 -10.730092
Sb 13.818742 7.681534 -1.524279
Sb 13.818742 10.750138 -4.592883
Sb 16.887347 7.681534 -4.592883
Sb 13.818742 7.681534 4.612930
Sb 16.887347 7.681534 1.544325
Sb 13.818742 13.818742 -19.935905
Sb 16.887347 16.887347 -19.935905
Sb 13.818742 13.818742 -13.798696
Sb 13.818742 16.887347 -16.867301
Sb 16.887347 16.887347 -13.798696
Sb 16.887347 13.818742 -16.867301
Sb 13.818742 13.818742 -7.661488
Sb 13.818742 16.887347 -10.730092
Sb 16.887347 13.818742 -10.730092
Sb 13.818742 13.818742 -1.524279
Sb 13.818742 16.887347 -4.592883
Sb 16.887347 13.818742 -4.592883
Sb 13.818742 19.955951 -13.798696
Sb 16.887347 19.955951 -16.867301
Sb 13.818742 23.024555 -10.730092
Sb 16.887347 19.955951 -10.730092
Sb 19.955951 -16.867301 10.750138
Sb 23.024555 -13.798696 10.750138
Sb 19.955951 -16.867301 16.887347
Sb 19.955951 -13.798696 13.818742
Sb 19.955951 -10.730092 4.612930
Sb 19.955951 -7.661488 1.544325
Sb 19.955951 -10.730092 10.750138
Sb 19.955951 -7.661488 7.681534
Sb 23.024555 -7.661488 10.750138
Sb 23.024555 -10.730092 7.681534
Sb 19.955951 -10.730092 16.887347
Sb 23.024555 -10.730092 13.818742
Sb 19.955951 -1.524279 -4.592883
Sb 23.024555 -1.524279 -1.524279
Sb 19.955951 -4.592883 4.612930
Sb 19.955951 -1.524279 1.544325
Sb 23.024555 -4.592883 1.544325
Sb 19.955951 -4.592883 10.750138
Sb 19.955951 -1.524279 7.681534
Sb 23.024555 -4.592883 7.681534
Sb 19.955951 4.612930 -10.730092
Sb 23.024555 4.612930 -7.661488
Sb 19.955951 1.544325 -1.524279
Sb 19.955951 4.612930 -4.592883
Sb 23.024555 1.544325 -4.592883
Sb 19.955951 1.544325 4.612930
Sb 19.955951 4.612930 1.544325
Sb 23.024555 1.544325 1.544325
Sb 19.955951 7.681534 -13.798696
Sb 19.955951 10.750138 -16.867301
Sb 23.024555 10.750138 -13.798696
Sb 19.955951 7.681534 -7.661488
Sb 19.955951 10.750138 -10.730092
Sb 23.024555 7.681534 -10.730092
Sb 19.955951 7.681534 -1.524279
Sb 19.955951 10.750138 -4.592883
Sb 23.024555 7.681534 -4.592883
Sb 19.955951 13.818742 -13.798696
Sb 19.955951 16.887347 -16.867301
Sb 19.955951 13.818742 -7.661488
Sb 19.955951 16.887347 -10.730092
Sb 23.024555 13.818742 -10.730092
Cl -26.073114 -13.798696 -13.798696
Cl -26.073114 -7.661488 -7.661488
Cl -26.073114 -10.730092 -10.730092
Cl -26.073114 -1.524279 -1.524279
Cl -26.073114 -4.592883 -4.592883
Cl -26.073114 4.612930 4.612930
Cl -26.073114 1.544325 1.544325
Cl -26.073114 10.750138 10.750138
Cl -26.073114 7.681534 7.681534
Cl -26.073114 13.818742 13.818742
Cl -19.935905 -19.935905 -13.798696
Cl -19.935905 -13.798696 -19.935905
Cl -23.004509 -16.867301 -13.798696
Cl -23.004509 -13.798696 -16.867301
Cl -19.935905 -13.798696 -7.661488
Cl -19.935905 -7.661488 -13.798696
Cl -23.004509 -7.661488 -4.592883
Cl -19.935905 -1.524279 -7.661488
Cl -19.935905 -4.592883 1.544325
Cl -23.004509 1.544325 -1.524279
Cl -19.935905 1.544325 7.681534
Cl -23.004509 7.681534 4.612930
Cl -19.935905 7.681534 13.818742
Cl -19.935905 13.818742 7.681534
Cl -23.004509 13.818742 16.887347
Cl -23.004509 16.887347 13.818742
Cl -19.935905 13.818742 19.955951
Cl -19.935905 19.955951 13.818742
Cl -13.798696 -26.073114 -13.798696
Cl -13.798696 -19.935905 -19.935905
Cl -16.867301 -23.004509 -13.798696
Cl -13.798696 -23.004509 -16.867301
Cl -13.798696 -19.935905 -7.661488
Cl -13.798696 -13.798696 -26.073114
Cl -16.867301 -13.798696 -23.004509
Cl -13.798696 -16.867301 -23.004509
Cl -13.798696 -13.798696 -1.524279
Cl -16.867301 -7.661488 -16.867301
Cl -16.867301 -10.730092 -1.524279
Cl -16.867301 -1.524279 -10.730092
Cl -16.867301 -4.592883 4.612930
Cl -16.867301 4.612930 -4.592883
Cl -16.867301 1.544325 10.750138
Cl -16.867301 10.750138 1.544325
Cl -13.798696 7.681534 19.955951
Cl -13.798696 13.818742 1.544325
Cl -16.867301 13.818742 23.024555
Cl -13.798696 16.887347 23.024555
Cl -13.798696 13.818742 26.093160
Cl -16.867301 23.024555 13.818742
Cl -13.798696 23.024555 16.887347
Cl -13.798696 19.955951 19.955951
Cl -13.798696 26.093160 13.818742
Cl -10.730092 -26.073114 -10.730092
Cl -7.661488 -26.073114 -7.661488
Cl -10.730092 -19.935905 -4.592883
Cl -10.730092 -16.867301 -19.935905
Cl -7.661488 -16.867301 -16.867301
Cl -10.730092 -13.798696 1.544325
Cl -7.661488 -16.867301 1.544325
Cl -10.730092 -10.730092 -26.073114
Cl -7.661488 -7.661488 -26.073114
Cl -10.730092 -7.661488 7.681534
Cl -7.661488 -7.661488 10.750138
Cl -10.730092 -4.592883 -19.935905
Cl -7.661488 1.544325 -16.867301
Cl -10.730092 1.544325 16.887347
Cl -10.730092 7.681534 -7.661488
Cl -10.730092 10.750138 26.093160
Cl -7.661488 7.681534 26.093160
Cl -7.661488 16.887347 -1.524279
Cl -7.661488 16.887347 16.887347
Cl -10.730092 19.955951 4.612930
Cl -10.730092 26.093160 10.750138
Cl -7.661488 26.093160 7.681534
Cl -4.592883 -26.073114 -4.592883
Cl -1.524279 -26.073114 -1.524279
Cl -4.592883 -19.935905 -10.730092
Cl -1.524279 -19.935905 -7.661488
Cl -1.524279 -19.935905 4.612930
Cl -1.524279 -13.798696 -13.798696
Cl -4.592883 -10.730092 -19.935905
Cl -1.524279 -7.661488 -19.935905
Cl -4.592883 -10.730092 10.750138
Cl -1.524279 -7.661488 16.887347
Cl -4.592883 -4.592883 -26.073114
Cl -1.524279 -1.524279 -26.073114
Cl -4.592883 -4.592883 16.887347
Cl -1.524279 4.612930 -19.935905
Cl -4.592883 4.612930 26.093160
Cl -1.524279 1.544325 26.093160
Cl -4.592883 10.750138 -10.730092
Cl -4.592883 10.750138 19.955951
Cl -1.524279 13.818742 -10.730092
Cl -1.524279 13.818742 13.818742
Cl -1.524279 19.955951 -4.592883
Cl -4.592883 19.955951 10.750138
Cl -1.524279 19.955951 7.681534
Cl -4.592883 26.093160 4.612930
Cl -1.524279 26.093160 1.544325
Cl 1.544325 -26.073114 1.544325
Cl 4.612930 -26.073114 4.612930
Cl 4.612930 -19.935905 10.750138
Cl 4.612930 -16.867301 -4.592883
Cl 1.544325 -13.798696 13.818742
Cl 1.544325 -10.730092 -13.798696
Cl 4.612930 -10.730092 -10.730092
Cl 1.544325 -7.661488 19.955951
Cl 4.612930 -4.592883 -16.867301
Cl 1.544325 -1.524279 26.093160
Cl 4.612930 -4.592883 26.093160
Cl 1.544325 1.544325 -26.073114
Cl 4.612930 4.612930 -26.073114
Cl 4.612930 1.544325 19.955951
Cl 4.612930 10.750138 -19.935905
Cl 4.612930 10.750138 10.750138
Cl 1.544325 7.681534 16.887347
Cl 1.544325 13.818742 -13.798696
Cl 4.612930 16.887347 4.612930
Cl 4.612930 19.955951 -10.730092
Cl 1.544325 19.955951 4.612930
Cl 1.544325 26.093160 -1.524279
Cl 4.612930 26.093160 -4.592883
Cl 7.681534 -26.073114 7.681534
Cl 10.750138 -26.073114 10.750138
Cl 7.681534 -13.798696 -4.592883
Cl 10.750138 -16.867301 1.544325
Cl 7.681534 -16.867301 16.887347
Cl 10.750138 -7.661488 -7.661488
Cl 7.681534 -7.661488 26.093160
Cl 10.750138 -10.730092 26.093160
Cl 10.750138 -4.592883 19.955951
Cl 7.681534 1.544325 -19.935905
Cl 10.750138 1.544325 -16.867301
Cl 7.681534 1.544325 16.887347
Cl 7.681534 7.681534 -26.073114
Cl 10.750138 10.750138 -26.073114
Cl 10.750138 7.681534 7.681534
Cl 7.681534 16.887347 -16.867301
Cl 10.750138 16.887347 -1.524279
Cl 7.681534 19.955951 -1.524279
Cl 7.681534 26.093160 -7.661488
Cl 10.750138 26.093160 -10.730092
Cl 13.818742 -26.073114 13.818742
Cl 13.818742 -19.935905 7.681534
Cl 13.818742 -23.004509 16.887347
Cl 16.887347 -23.004509 13.818742
Cl 13.818742 -19.935905 19.955951
Cl 13.818742 -13.798696 1.544325
Cl 13.818742 -16.867301 23.024555
Cl 16.887347 -13.798696 23.024555
Cl 13.818742 -13.798696 26.093160
Cl 16.887347 -10.730092 1.544325
Cl 16.887347 -7.661488 16.887347
Cl 16.887347 -4.592883 -4.592883
Cl 16.887347 -1.524279 10.750138
Cl 13.818742 1.544325 -13.798696
Cl 16.887347 1.544325 -10.730092
Cl 16.887347 4.612930 4.612930
Cl 16.887347 7.681534 -16.867301
Cl 16.887347 10.750138 -1.524279
Cl 13.818742 10.750138 1.544325
Cl 13.818742 13.818742 -26.073114
Cl 13.818742 16.887347 -23.004509
Cl 16.887347 13.818742 -23.004509
Cl 16.887347 16.887347 -7.661488
Cl 13.818742 19.955951 -19.935905
Cl 13.818742 23.024555 -16.867301
Cl 16.887347 23.024555 -13.798696
Cl 13.818742 19.955951 -7.661488
Cl 13.818742 26.093160 -13.798696
Cl 19.955951 -19.935905 13.818742
Cl 19.955951 -13.798696 7.681534
Cl 23.024555 -13.798696 16.887347
Cl 23.024555 -16.867301 13.818742
Cl 19.955951 -13.798696 19.955951
Cl 23.024555 -7.661488 4.612930
Cl 19.955951 -7.661488 13.818742
Cl 19.955951 -4.592883 -1.524279
Cl 23.024555 -1.524279 4.612930
Cl 19.955951 1.544325 -7.661488
Cl 23.024555 4.612930 -1.524279
Cl 23.024555 10.750138 -7.661488
Cl 19.955951 13.818742 -19.935905
Cl 23.024555 16.887347 -13.798696
Cl 23.024555 13.818742 -16.867301
Cl 19.955951 19.955951 -13.798696
Cl 26.093160 -13.798696 13.818742
Cl 26.093160 -10.730092 10.750138
Cl 26.093160 -7.661488 7.681534
Cl 26.093160 -4.592883 4.612930
Cl 26.093160 -1.524279 1.544325
Cl 26.093160 1.544325 -1.524279
Cl 26.093160 4.612930 -4.592883
Cl 26.093160 7.681534 -7.661488
Cl 26.093160 10.750138 -10.730092
Cl 26.093160 13.818742 -13.798696
Cl -19.935905 -19.935905 -19.935905
