2401
HgTe-Te-Hg1168Te1103Cl130-clean
Hg -24.669401 -11.512204 -1.642252
Hg -24.669401 -11.512204 4.937717
Hg -24.669401 -4.932236 -8.222220
Hg -24.669401 -8.222220 -4.932236
Hg -24.669401 -4.932236 -1.642252
Hg -24.669401 -8.222220 1.647733
Hg -24.669401 -4.932236 4.937717
Hg -24.669401 -8.222220 8.227701
Hg -24.669401 -4.932236 11.517685
Hg -24.669401 -1.642252 -11.512204
Hg -24.669401 1.647733 -8.222220
Hg -24.669401 -1.642252 -4.932236
Hg -24.669401 1.647733 -1.642252
Hg -24.669401 -1.642252 1.647733
Hg -24.669401 1.647733 4.937717
Hg -24.669401 -1.642252 8.227701
Hg -24.669401 1.647733 11.517685
Hg -24.669401 4.937717 -11.512204
Hg -24.669401 8.227701 -8.222220
Hg -24.669401 4.937717 -4.932236
Hg -24.669401 8.227701 -1.642252
Hg -24.669401 4.937717 1.647733
Hg -24.669401 8.227701 4.937717
Hg -24.669401 4.937717 8.227701
Hg -24.669401 11.517685 -4.932236
Hg -24.669401 11.517685 1.647733
Hg -18.089432 -18.092173 -1.642252
Hg -18.089432 -18.092173 4.937717
Hg -18.089432 -11.512204 -8.222220
Hg -18.089432 -14.802188 -4.932236
Hg -21.379416 -11.512204 -4.932236
Hg -21.379416 -14.802188 -1.642252
Hg -18.089432 -11.512204 -1.642252
Hg -18.089432 -14.802188 1.647733
Hg -21.379416 -11.512204 1.647733
Hg -21.379416 -14.802188 4.937717
Hg -18.089432 -11.512204 4.937717
Hg -18.089432 -14.802188 8.227701
Hg -21.379416 -11.512204 8.227701
Hg -18.089432 -11.512204 11.517685
Hg -18.089432 -4.932236 -14.802188
Hg -18.089432 -8.222220 -11.512204
Hg -21.379416 -4.932236 -11.512204
Hg -21.379416 -8.222220 -8.222220
Hg -18.089432 -4.932236 -8.222220
Hg -18.089432 -8.222220 -4.932236
Hg -21.379416 -4.932236 -4.932236
Hg -21.379416 -8.222220 -1.642252
Hg -18.089432 -4.932236 -1.642252
Hg -18.089432 -8.222220 1.647733
Hg -21.379416 -4.932236 1.647733
Hg -21.379416 -8.222220 4.937717
Hg -18.089432 -4.932236 4.937717
Hg -18.089432 -8.222220 8.227701
Hg -21.379416 -4.932236 8.227701
Hg -21.379416 -8.222220 11.517685
Hg -18.089432 -4.932236 11.517685
Hg -18.089432 -8.222220 14.807669
Hg -21.379416 -4.932236 14.807669
Hg -18.089432 -4.932236 18.097654
Hg -18.089432 -1.642252 -18.092173
Hg -21.379416 -1.642252 -14.802188
Hg -18.089432 1.647733 -14.802188
Hg -18.089432 -1.642252 -11.512204
Hg -21.379416 1.647733 -11.512204
Hg -21.379416 -1.642252 -8.222220
Hg -18.089432 1.647733 -8.222220
Hg -18.089432 -1.642252 -4.932236
Hg -21.379416 1.647733 -4.932236
Hg -21.379416 -1.642252 -1.642252
Hg -18.089432 1.647733 -1.642252
Hg -18.089432 -1.642252 1.647733
Hg -21.379416 1.647733 1.647733
Hg -21.379416 -1.642252 4.937717
Hg -18.089432 1.647733 4.937717
Hg -18.089432 -1.642252 8.227701
Hg -21.379416 1.647733 8.227701
Hg -21.379416 -1.642252 11.517685
Hg -18.089432 1.647733 11.517685
Hg -18.089432 -1.642252 14.807669
Hg -21.379416 1.647733 14.807669
Hg -18.089432 1.647733 18.097654
Hg -18.089432 4.937717 -18.092173
Hg -21.379416 4.937717 -14.802188
Hg -18.089432 8.227701 -14.802188
Hg -18.089432 4.937717 -11.512204
Hg -21.379416 8.227701 -11.512204
Hg -21.379416 4.937717 -8.222220
Hg -18.089432 8.227701 -8.222220
Hg -18.089432 4.937717 -4.932236
Hg -21.379416 8.227701 -4.932236
Hg -21.379416 4.937717 -1.642252
Hg -18.089432 8.227701 -1.642252
Hg -18.089432 4.937717 1.647733
Hg -21.379416 8.227701 1.647733
Hg -21.379416 4.937717 4.937717
Hg -18.089432 8.227701 4.937717
Hg -18.089432 4.937717 8.227701
Hg -21.379416 8.227701 8.227701
Hg -21.379416 4.937717 11.517685
Hg -18.089432 8.227701 11.517685
Hg -18.089432 4.937717 14.807669
Hg -18.089432 11.517685 -11.512204
Hg -21.379416 11.517685 -8.222220
Hg -18.089432 14.807669 -8.222220
Hg -18.089432 11.517685 -4.932236
Hg -21.379416 14.807669 -4.932236
Hg -21.379416 11.517685 -1.642252
Hg -18.089432 14.807669 -1.642252
Hg -18.089432 11.517685 1.647733
Hg -21.379416 14.807669 1.647733
Hg -21.379416 11.517685 4.937717
Hg -18.089432 14.807669 4.937717
Hg -18.089432 11.517685 8.227701
Hg -18.089432 18.097654 -4.932236
Hg -18.089432 18.097654 1.647733
Hg -11.509464 -24.672141 -1.642252
Hg -11.509464 -24.672141 4.937717
Hg -11.509464 -18.092173 -8.222220
Hg -11.509464 -21.382157 -4.932236
Hg -14.799448 -18.092173 -4.932236
Hg -14.799448 -21.382157 -1.642252
Hg -11.509464 -18.092173 -1.642252
Hg -11.509464 -21.382157 1.647733
Hg -14.799448 -18.092173 1.647733
Hg -14.799448 -21.382157 4.937717
Hg -11.509464 -18.092173 4.937717
Hg -11.509464 -21.382157 8.227701
Hg -14.799448 -18.092173 8.227701
Hg -11.509464 -18.092173 11.517685
Hg -11.509464 -11.512204 -14.802188
Hg -11.509464 -14.802188 -11.512204
Hg -14.799448 -11.512204 -11.512204
Hg -14.799448 -14.802188 -8.222220
Hg -11.509464 -11.512204 -8.222220
Hg -11.509464 -14.802188 -4.932236
Hg -14.799448 -11.512204 -4.932236
Hg -14.799448 -14.802188 -1.642252
Hg -11.509464 -11.512204 -1.642252
Hg -11.509464 -14.802188 1.647733
Hg -14.799448 -11.512204 1.647733
Hg -14.799448 -14.802188 4.937717
Hg -11.509464 -11.512204 4.937717
Hg -11.509464 -14.802188 8.227701
Hg -14.799448 -11.512204 8.227701
Hg -14.799448 -14.802188 11.517685
Hg -11.509464 -11.512204 11.517685
Hg -11.509464 -14.802188 14.807669
Hg -14.799448 -11.512204 14.807669
Hg -11.509464 -11.512204 18.097654
Hg -11.509464 -4.932236 -21.382157
Hg -11.509464 -8.222220 -18.092173
Hg -14.799448 -4.932236 -18.092173
Hg -14.799448 -8.222220 -14.802188
Hg -11.509464 -4.932236 -14.802188
Hg -11.509464 -8.222220 -11.512204
Hg -14.799448 -4.932236 -11.512204
Hg -14.799448 -8.222220 -8.222220
Hg -11.509464 -4.932236 -8.222220
Hg -11.509464 -8.222220 -4.932236
Hg -14.799448 -4.932236 -4.932236
Hg -14.799448 -8.222220 -1.642252
Hg -11.509464 -4.932236 -1.642252
Hg -11.509464 -8.222220 1.647733
Hg -14.799448 -4.932236 1.647733
Hg -14.799448 -8.222220 4.937717
Hg -11.509464 -4.932236 4.937717
Hg -11.509464 -8.222220 8.227701
Hg -14.799448 -4.932236 8.227701
Hg -14.799448 -8.222220 11.517685
Hg -11.509464 -4.932236 11.517685
Hg -11.509464 -8.222220 14.807669
Hg -14.799448 -4.932236 14.807669
Hg -14.799448 -8.222220 18.097654
Hg -11.509464 -4.932236 18.097654
Hg -11.509464 -8.222220 21.387638
Hg -14.799448 -4.932236 21.387638
Hg -11.509464 -4.932236 24.677622
Hg -11.509464 -1.642252 -24.672141
Hg -14.799448 -1.642252 -21.382157
Hg -11.509464 1.647733 -21.382157
Hg -11.509464 -1.642252 -18.092173
Hg -14.799448 1.647733 -18.092173
Hg -14.799448 -1.642252 -14.802188
Hg -11.509464 1.647733 -14.802188
Hg -11.509464 -1.642252 -11.512204
Hg -14.799448 1.647733 -11.512204
Hg -14.799448 -1.642252 -8.222220
Hg -11.509464 1.647733 -8.222220
Hg -11.509464 -1.642252 -4.932236
Hg -14.799448 1.647733 -4.932236
Hg -14.799448 -1.642252 -1.642252
Hg -11.509464 1.647733 -1.642252
Hg -11.509464 -1.642252 1.647733
Hg -14.799448 1.647733 1.647733
Hg -14.799448 -1.642252 4.937717
Hg -11.509464 1.647733 4.937717
Hg -11.509464 -1.642252 8.227701
Hg -14.799448 1.647733 8.227701
Hg -14.799448 -1.642252 11.517685
Hg -11.509464 1.647733 11.517685
Hg -11.509464 -1.642252 14.807669
Hg -14.799448 1.647733 14.807669
Hg -14.799448 -1.642252 18.097654
Hg -11.509464 1.647733 18.097654
Hg -11.509464 -1.642252 21.387638
Hg -14.799448 1.647733 21.387638
Hg -11.509464 1.647733 24.677622
Hg -11.509464 4.937717 -24.672141
Hg -14.799448 4.937717 -21.382157
Hg -11.509464 8.227701 -21.382157
Hg -11.509464 4.937717 -18.092173
Hg -14.799448 8.227701 -18.092173
Hg -14.799448 4.937717 -14.802188
Hg -11.509464 8.227701 -14.802188
Hg -11.509464 4.937717 -11.512204
Hg -14.799448 8.227701 -11.512204
Hg -14.799448 4.937717 -8.222220
Hg -11.509464 8.227701 -8.222220
Hg -11.509464 4.937717 -4.932236
Hg -14.799448 8.227701 -4.932236
Hg -14.799448 4.937717 -1.642252
Hg -11.509464 8.227701 -1.642252
Hg -11.509464 4.937717 1.647733
Hg -14.799448 8.227701 1.647733
Hg -14.799448 4.937717 4.937717
Hg -11.509464 8.227701 4.937717
Hg -11.509464 4.937717 8.227701
Hg -14.799448 8.227701 8.227701
Hg -14.799448 4.937717 11.517685
Hg -11.509464 8.227701 11.517685
Hg -11.509464 4.937717 14.807669
Hg -14.799448 8.227701 14.807669
Hg -14.799448 4.937717 18.097654
Hg -11.509464 8.227701 18.097654
Hg -11.509464 4.937717 21.387638
Hg -11.509464 11.517685 -18.092173
Hg -14.799448 11.517685 -14.802188
Hg -11.509464 14.807669 -14.802188
Hg -11.509464 11.517685 -11.512204
Hg -14.799448 14.807669 -11.512204
Hg -14.799448 11.517685 -8.222220
Hg -11.509464 14.807669 -8.222220
Hg -11.509464 11.517685 -4.932236
Hg -14.799448 14.807669 -4.932236
Hg -14.799448 11.517685 -1.642252
Hg -11.509464 14.807669 -1.642252
Hg -11.509464 11.517685 1.647733
Hg -14.799448 14.807669 1.647733
Hg -14.799448 11.517685 4.937717
Hg -11.509464 14.807669 4.937717
Hg -11.509464 11.517685 8.227701
Hg -14.799448 14.807669 8.227701
Hg -14.799448 11.517685 11.517685
Hg -11.509464 14.807669 11.517685
Hg -11.509464 11.517685 14.807669
Hg -11.509464 18.097654 -11.512204
Hg -14.799448 18.097654 -8.222220
Hg -11.509464 21.387638 -8.222220
Hg -11.509464 18.097654 -4.932236
Hg -14.799448 21.387638 -4.932236
Hg -14.799448 18.097654 -1.642252
Hg -11.509464 21.387638 -1.642252
Hg -11.509464 18.097654 1.647733
Hg -14.799448 21.387638 1.647733
Hg -14.799448 18.097654 4.937717
Hg -11.509464 21.387638 4.937717
Hg -11.509464 18.097654 8.227701
Hg -11.509464 24.677622 -4.932236
Hg -11.509464 24.677622 1.647733
Hg -4.929495 -24.672141 -8.222220
Hg -8.219479 -24.672141 -4.932236
Hg -4.929495 -24.672141 -1.642252
Hg -8.219479 -24.672141 1.647733
Hg -4.929495 -24.672141 4.937717
Hg -8.219479 -24.672141 8.227701
Hg -4.929495 -24.672141 11.517685
Hg -4.929495 -18.092173 -14.802188
Hg -4.929495 -21.382157 -11.512204
Hg -8.219479 -18.092173 -11.512204
Hg -8.219479 -21.382157 -8.222220
Hg -4.929495 -18.092173 -8.222220
Hg -4.929495 -21.382157 -4.932236
Hg -8.219479 -18.092173 -4.932236
Hg -8.219479 -21.382157 -1.642252
Hg -4.929495 -18.092173 -1.642252
Hg -4.929495 -21.382157 1.647733
Hg -8.219479 -18.092173 1.647733
Hg -8.219479 -21.382157 4.937717
Hg -4.929495 -18.092173 4.937717
Hg -4.929495 -21.382157 8.227701
Hg -8.219479 -18.092173 8.227701
Hg -8.219479 -21.382157 11.517685
Hg -4.929495 -18.092173 11.517685
Hg -4.929495 -21.382157 14.807669
Hg -8.219479 -18.092173 14.807669
Hg -4.929495 -18.092173 18.097654
Hg -4.929495 -11.512204 -21.382157
Hg -4.929495 -14.802188 -18.092173
Hg -8.219479 -11.512204 -18.092173
Hg -8.219479 -14.802188 -14.802188
Hg -4.929495 -11.512204 -14.802188
Hg -4.929495 -14.802188 -11.512204
Hg -8.219479 -11.512204 -11.512204
Hg -8.219479 -14.802188 -8.222220
Hg -4.929495 -11.512204 -8.222220
Hg -4.929495 -14.802188 -4.932236
Hg -8.219479 -11.512204 -4.932236
Hg -8.219479 -14.802188 -1.642252
Hg -4.929495 -11.512204 -1.642252
Hg -4.929495 -14.802188 1.647733
Hg -8.219479 -11.512204 1.647733
Hg -8.219479 -14.802188 4.937717
Hg -4.929495 -11.512204 4.937717
Hg -4.929495 -14.802188 8.227701
Hg -8.219479 -11.512204 8.227701
Hg -8.219479 -14.802188 11.517685
Hg -4.929495 -11.512204 11.517685
Hg -4.929495 -14.802188 14.807669
Hg -8.219479 -11.512204 14.807669
Hg -8.219479 -14.802188 18.097654
Hg -4.929495 -11.512204 18.097654
Hg -4.929495 -14.802188 21.387638
Hg -8.219479 -11.512204 21.387638
Hg -4.929495 -11.512204 24.677622
Hg -4.929495 -8.222220 -24.672141
Hg -8.219479 -4.932236 -24.672141
Hg -8.219479 -8.222220 -21.382157
Hg -4.929495 -4.932236 -21.382157
Hg -4.929495 -8.222220 -18.092173
Hg -8.219479 -4.932236 -18.092173
Hg -8.219479 -8.222220 -14.802188
Hg -4.929495 -4.932236 -14.802188
Hg -4.929495 -8.222220 -11.512204
Hg -8.219479 -4.932236 -11.512204
Hg -8.219479 -8.222220 -8.222220
Hg -4.929495 -4.932236 -8.222220
Hg -4.929495 -8.222220 -4.932236
Hg -8.219479 -4.932236 -4.932236
Hg -8.219479 -8.222220 -1.642252
Hg -4.929495 -4.932236 -1.642252
Hg -4.929495 -8.222220 1.647733
Hg -8.219479 -4.932236 1.647733
Hg -8.219479 -8.222220 4.937717
Hg -4.929495 -4.932236 4.937717
Hg -4.929495 -8.222220 8.227701
Hg -8.219479 -4.932236 8.227701
Hg -8.219479 -8.222220 11.517685
Hg -4.929495 -4.932236 11.517685
Hg -4.929495 -8.222220 14.807669
Hg -8.219479 -4.932236 14.807669
Hg -8.219479 -8.222220 18.097654
Hg -4.929495 -4.932236 18.097654
Hg -4.929495 -8.222220 21.387638
Hg -8.219479 -4.932236 21.387638
Hg -8.219479 -8.222220 24.677622
Hg -4.929495 -4.932236 24.677622
Hg -4.929495 -1.642252 -24.672141
Hg -8.219479 1.647733 -24.672141
Hg -8.219479 -1.642252 -21.382157
Hg -4.929495 1.647733 -21.382157
Hg -4.929495 -1.642252 -18.092173
Hg -8.219479 1.647733 -18.092173
Hg -8.219479 -1.642252 -14.802188
Hg -4.929495 1.647733 -14.802188
Hg -4.929495 -1.642252 -11.512204
Hg -8.219479 1.647733 -11.512204
Hg -8.219479 -1.642252 -8.222220
Hg -4.929495 1.647733 -8.222220
Hg -4.929495 -1.642252 -4.932236
Hg -8.219479 1.647733 -4.932236
Hg -8.219479 -1.642252 -1.642252
Hg -4.929495 1.647733 -1.642252
Hg -4.929495 -1.642252 1.647733
Hg -8.219479 1.647733 1.647733
Hg -8.219479 -1.642252 4.937717
Hg -4.929495 1.647733 4.937717
Hg -4.929495 -1.642252 8.227701
Hg -8.219479 1.647733 8.227701
Hg -8.219479 -1.642252 11.517685
Hg -4.929495 1.647733 11.517685
Hg -4.929495 -1.642252 14.807669
Hg -8.219479 1.647733 14.807669
Hg -8.219479 -1.642252 18.097654
Hg -4.929495 1.647733 18.097654
Hg -4.929495 -1.642252 21.387638
Hg -8.219479 1.647733 21.387638
Hg -8.219479 -1.642252 24.677622
Hg -4.929495 1.647733 24.677622
Hg -4.929495 4.937717 -24.672141
Hg -8.219479 8.227701 -24.672141
Hg -8.219479 4.937717 -21.382157
Hg -4.929495 8.227701 -21.382157
Hg -4.929495 4.937717 -18.092173
Hg -8.219479 8.227701 -18.092173
Hg -8.219479 4.937717 -14.802188
Hg -4.929495 8.227701 -14.802188
Hg -4.929495 4.937717 -11.512204
Hg -8.219479 8.227701 -11.512204
Hg -8.219479 4.937717 -8.222220
Hg -4.929495 8.227701 -8.222220
Hg -4.929495 4.937717 -4.932236
Hg -8.219479 8.227701 -4.932236
Hg -8.219479 4.937717 -1.642252
Hg -4.929495 8.227701 -1.642252
Hg -4.929495 4.937717 1.647733
Hg -8.219479 8.227701 1.647733
Hg -8.219479 4.937717 4.937717
Hg -4.929495 8.227701 4.937717
Hg -4.929495 4.937717 8.227701
Hg -8.219479 8.227701 8.227701
Hg -8.219479 4.937717 11.517685
Hg -4.929495 8.227701 11.517685
Hg -4.929495 4.937717 14.807669
Hg -8.219479 8.227701 14.807669
Hg -8.219479 4.937717 18.097654
Hg -4.929495 8.227701 18.097654
Hg -4.929495 4.937717 21.387638
Hg -8.219479 8.227701 21.387638
Hg -8.219479 4.937717 24.677622
Hg -4.929495 8.227701 24.677622
Hg -4.929495 11.517685 -24.672141
Hg -8.219479 11.517685 -21.382157
Hg -4.929495 14.807669 -21.382157
Hg -4.929495 11.517685 -18.092173
Hg -8.219479 14.807669 -18.092173
Hg -8.219479 11.517685 -14.802188
Hg -4.929495 14.807669 -14.802188
Hg -4.929495 11.517685 -11.512204
Hg -8.219479 14.807669 -11.512204
Hg -8.219479 11.517685 -8.222220
Hg -4.929495 14.807669 -8.222220
Hg -4.929495 11.517685 -4.932236
Hg -8.219479 14.807669 -4.932236
Hg -8.219479 11.517685 -1.642252
Hg -4.929495 14.807669 -1.642252
Hg -4.929495 11.517685 1.647733
Hg -8.219479 14.807669 1.647733
Hg -8.219479 11.517685 4.937717
Hg -4.929495 14.807669 4.937717
Hg -4.929495 11.517685 8.227701
Hg -8.219479 14.807669 8.227701
Hg -8.219479 11.517685 11.517685
Hg -4.929495 14.807669 11.517685
Hg -4.929495 11.517685 14.807669
Hg -8.219479 14.807669 14.807669
Hg -8.219479 11.517685 18.097654
Hg -4.929495 14.807669 18.097654
Hg -4.929495 11.517685 21.387638
Hg -4.929495 18.097654 -18.092173
Hg -8.219479 18.097654 -14.802188
Hg -4.929495 21.387638 -14.802188
Hg -4.929495 18.097654 -11.512204
Hg -8.219479 21.387638 -11.512204
Hg -8.219479 18.097654 -8.222220
Hg -4.929495 21.387638 -8.222220
Hg -4.929495 18.097654 -4.932236
Hg -8.219479 21.387638 -4.932236
Hg -8.219479 18.097654 -1.642252
Hg -4.929495 21.387638 -1.642252
Hg -4.929495 18.097654 1.647733
Hg -8.219479 21.387638 1.647733
Hg -8.219479 18.097654 4.937717
Hg -4.929495 21.387638 4.937717
Hg -4.929495 18.097654 8.227701
Hg -8.219479 21.387638 8.227701
Hg -8.219479 18.097654 11.517685
Hg -4.929495 21.387638 11.517685
Hg -4.929495 18.097654 14.807669
Hg -4.929495 24.677622 -11.512204
Hg -8.219479 24.677622 -8.222220
Hg -4.929495 24.677622 -4.932236
Hg -8.219479 24.677622 -1.642252
Hg -4.929495 24.677622 1.647733
Hg -8.219479 24.677622 4.937717
Hg -4.929495 24.677622 8.227701
Hg -1.639511 -24.672141 -11.512204
Hg 1.650473 -24.672141 -8.222220
Hg -1.639511 -24.672141 -4.932236
Hg 1.650473 -24.672141 -1.642252
Hg -1.639511 -24.672141 1.647733
Hg 1.650473 -24.672141 4.937717
Hg -1.639511 -24.672141 8.227701
Hg 1.650473 -24.672141 11.517685
Hg -1.639511 -18.092173 -18.092173
Hg -1.639511 -21.382157 -14.802188
Hg 1.650473 -18.092173 -14.802188
Hg 1.650473 -21.382157 -11.512204
Hg -1.639511 -18.092173 -11.512204
Hg -1.639511 -21.382157 -8.222220
Hg 1.650473 -18.092173 -8.222220
Hg 1.650473 -21.382157 -4.932236
Hg -1.639511 -18.092173 -4.932236
Hg -1.639511 -21.382157 -1.642252
Hg 1.650473 -18.092173 -1.642252
Hg 1.650473 -21.382157 1.647733
Hg -1.639511 -18.092173 1.647733
Hg -1.639511 -21.382157 4.937717
Hg 1.650473 -18.092173 4.937717
Hg 1.650473 -21.382157 8.227701
Hg -1.639511 -18.092173 8.227701
Hg -1.639511 -21.382157 11.517685
Hg 1.650473 -18.092173 11.517685
Hg 1.650473 -21.382157 14.807669
Hg -1.639511 -18.092173 14.807669
Hg 1.650473 -18.092173 18.097654
Hg -1.639511 -11.512204 -24.672141
Hg -1.639511 -14.802188 -21.382157
Hg 1.650473 -11.512204 -21.382157
Hg 1.650473 -14.802188 -18.092173
Hg -1.639511 -11.512204 -18.092173
Hg -1.639511 -14.802188 -14.802188
Hg 1.650473 -11.512204 -14.802188
Hg 1.650473 -14.802188 -11.512204
Hg -1.639511 -11.512204 -11.512204
Hg -1.639511 -14.802188 -8.222220
Hg 1.650473 -11.512204 -8.222220
Hg 1.650473 -14.802188 -4.932236
Hg -1.639511 -11.512204 -4.932236
Hg -1.639511 -14.802188 -1.642252
Hg 1.650473 -11.512204 -1.642252
Hg 1.650473 -14.802188 1.647733
Hg -1.639511 -11.512204 1.647733
Hg -1.639511 -14.802188 4.937717
Hg 1.650473 -11.512204 4.937717
Hg 1.650473 -14.802188 8.227701
Hg -1.639511 -11.512204 8.227701
Hg -1.639511 -14.802188 11.517685
Hg 1.650473 -11.512204 11.517685
Hg 1.650473 -14.802188 14.807669
Hg -1.639511 -11.512204 14.807669
Hg -1.639511 -14.802188 18.097654
Hg 1.650473 -11.512204 18.097654
Hg 1.650473 -14.802188 21.387638
Hg -1.639511 -11.512204 21.387638
Hg 1.650473 -11.512204 24.677622
Hg 1.650473 -8.222220 -24.672141
Hg -1.639511 -4.932236 -24.672141
Hg -1.639511 -8.222220 -21.382157
Hg 1.650473 -4.932236 -21.382157
Hg 1.650473 -8.222220 -18.092173
Hg -1.639511 -4.932236 -18.092173
Hg -1.639511 -8.222220 -14.802188
Hg 1.650473 -4.932236 -14.802188
Hg 1.650473 -8.222220 -11.512204
Hg -1.639511 -4.932236 -11.512204
Hg -1.639511 -8.222220 -8.222220
Hg 1.650473 -4.932236 -8.222220
Hg 1.650473 -8.222220 -4.932236
Hg -1.639511 -4.932236 -4.932236
Hg -1.639511 -8.222220 -1.642252
Hg 1.650473 -4.932236 -1.642252
Hg 1.650473 -8.222220 1.647733
Hg -1.639511 -4.932236 1.647733
Hg -1.639511 -8.222220 4.937717
Hg 1.650473 -4.932236 4.937717
Hg 1.650473 -8.222220 8.227701
Hg -1.639511 -4.932236 8.227701
Hg -1.639511 -8.222220 11.517685
Hg 1.650473 -4.932236 11.517685
Hg 1.650473 -8.222220 14.807669
Hg -1.639511 -4.932236 14.807669
Hg -1.639511 -8.222220 18.097654
Hg 1.650473 -4.932236 18.097654
Hg 1.650473 -8.222220 21.387638
Hg -1.639511 -4.932236 21.387638
Hg -1.639511 -8.222220 24.677622
Hg 1.650473 -4.932236 24.677622
Hg 1.650473 -1.642252 -24.672141
Hg -1.639511 1.647733 -24.672141
Hg -1.639511 -1.642252 -21.382157
Hg 1.650473 1.647733 -21.382157
Hg 1.650473 -1.642252 -18.092173
Hg -1.639511 1.647733 -18.092173
Hg -1.639511 -1.642252 -14.802188
Hg 1.650473 1.647733 -14.802188
Hg 1.650473 -1.642252 -11.512204
Hg -1.639511 1.647733 -11.512204
Hg -1.639511 -1.642252 -8.222220
Hg 1.650473 1.647733 -8.222220
Hg 1.650473 -1.642252 -4.932236
Hg -1.639511 1.647733 -4.932236
Hg -1.639511 -1.642252 -1.642252
Hg 1.650473 1.647733 -1.642252
Hg 1.650473 -1.642252 1.647733
Hg -1.639511 1.647733 1.647733
Hg -1.639511 -1.642252 4.937717
Hg 1.650473 1.647733 4.937717
Hg 1.650473 -1.642252 8.227701
Hg -1.639511 1.647733 8.227701
Hg -1.639511 -1.642252 11.517685
Hg 1.650473 1.647733 11.517685
Hg 1.650473 -1.642252 14.807669
Hg -1.639511 1.647733 14.807669
Hg -1.639511 -1.642252 18.097654
Hg 1.650473 1.647733 18.097654
Hg 1.650473 -1.642252 21.387638
Hg -1.639511 1.647733 21.387638
Hg -1.639511 -1.642252 24.677622
Hg 1.650473 1.647733 24.677622
Hg 1.650473 4.937717 -24.672141
Hg -1.639511 8.227701 -24.672141
Hg -1.639511 4.937717 -21.382157
Hg 1.650473 8.227701 -21.382157
Hg 1.650473 4.937717 -18.092173
Hg -1.639511 8.227701 -18.092173
Hg -1.639511 4.937717 -14.802188
Hg 1.650473 8.227701 -14.802188
Hg 1.650473 4.937717 -11.512204
Hg -1.639511 8.227701 -11.512204
Hg -1.639511 4.937717 -8.222220
Hg 1.650473 8.227701 -8.222220
Hg 1.650473 4.937717 -4.932236
Hg -1.639511 8.227701 -4.932236
Hg -1.639511 4.937717 -1.642252
Hg 1.650473 8.227701 -1.642252
Hg 1.650473 4.937717 1.647733
Hg -1.639511 8.227701 1.647733
Hg -1.639511 4.937717 4.937717
Hg 1.650473 8.227701 4.937717
Hg 1.650473 4.937717 8.227701
Hg -1.639511 8.227701 8.227701
Hg -1.639511 4.937717 11.517685
Hg 1.650473 8.227701 11.517685
Hg 1.650473 4.937717 14.807669
Hg -1.639511 8.227701 14.807669
Hg -1.639511 4.937717 18.097654
Hg 1.650473 8.227701 18.097654
Hg 1.650473 4.937717 21.387638
Hg -1.639511 8.227701 21.387638
Hg -1.639511 4.937717 24.677622
Hg 1.650473 8.227701 24.677622
Hg 1.650473 11.517685 -24.672141
Hg -1.639511 11.517685 -21.382157
Hg 1.650473 14.807669 -21.382157
Hg 1.650473 11.517685 -18.092173
Hg -1.639511 14.807669 -18.092173
Hg -1.639511 11.517685 -14.802188
Hg 1.650473 14.807669 -14.802188
Hg 1.650473 11.517685 -11.512204
Hg -1.639511 14.807669 -11.512204
Hg -1.639511 11.517685 -8.222220
Hg 1.650473 14.807669 -8.222220
Hg 1.650473 11.517685 -4.932236
Hg -1.639511 14.807669 -4.932236
Hg -1.639511 11.517685 -1.642252
Hg 1.650473 14.807669 -1.642252
Hg 1.650473 11.517685 1.647733
Hg -1.639511 14.807669 1.647733
Hg -1.639511 11.517685 4.937717
Hg 1.650473 14.807669 4.937717
Hg 1.650473 11.517685 8.227701
Hg -1.639511 14.807669 8.227701
Hg -1.639511 11.517685 11.517685
Hg 1.650473 14.807669 11.517685
Hg 1.650473 11.517685 14.807669
Hg -1.639511 14.807669 14.807669
Hg -1.639511 11.517685 18.097654
Hg 1.650473 14.807669 18.097654
Hg 1.650473 11.517685 21.387638
Hg -1.639511 14.807669 21.387638
Hg -1.639511 11.517685 24.677622
Hg 1.650473 18.097654 -18.092173
Hg -1.639511 18.097654 -14.802188
Hg 1.650473 21.387638 -14.802188
Hg 1.650473 18.097654 -11.512204
Hg -1.639511 21.387638 -11.512204
Hg -1.639511 18.097654 -8.222220
Hg 1.650473 21.387638 -8.222220
Hg 1.650473 18.097654 -4.932236
Hg -1.639511 21.387638 -4.932236
Hg -1.639511 18.097654 -1.642252
Hg 1.650473 21.387638 -1.642252
Hg 1.650473 18.097654 1.647733
Hg -1.639511 21.387638 1.647733
Hg -1.639511 18.097654 4.937717
Hg 1.650473 21.387638 4.937717
Hg 1.650473 18.097654 8.227701
Hg -1.639511 21.387638 8.227701
Hg -1.639511 18.097654 11.517685
Hg 1.650473 21.387638 11.517685
Hg 1.650473 18.097654 14.807669
Hg -1.639511 21.387638 14.807669
Hg -1.639511 18.097654 18.097654
Hg 1.650473 24.677622 -11.512204
Hg -1.639511 24.677622 -8.222220
Hg 1.650473 24.677622 -4.932236
Hg -1.639511 24.677622 -1.642252
Hg 1.650473 24.677622 1.647733
Hg -1.639511 24.677622 4.937717
Hg 1.650473 24.677622 8.227701
Hg -1.639511 24.677622 11.517685
Hg 4.940457 -24.672141 -11.512204
Hg 8.230442 -24.672141 -8.222220
Hg 4.940457 -24.672141 -4.932236
Hg 8.230442 -24.672141 -1.642252
Hg 4.940457 -24.672141 1.647733
Hg 8.230442 -24.672141 4.937717
Hg 4.940457 -24.672141 8.227701
Hg 4.940457 -18.092173 -18.092173
Hg 4.940457 -21.382157 -14.802188
Hg 8.230442 -18.092173 -14.802188
Hg 8.230442 -21.382157 -11.512204
Hg 4.940457 -18.092173 -11.512204
Hg 4.940457 -21.382157 -8.222220
Hg 8.230442 -18.092173 -8.222220
Hg 8.230442 -21.382157 -4.932236
Hg 4.940457 -18.092173 -4.932236
Hg 4.940457 -21.382157 -1.642252
Hg 8.230442 -18.092173 -1.642252
Hg 8.230442 -21.382157 1.647733
Hg 4.940457 -18.092173 1.647733
Hg 4.940457 -21.382157 4.937717
Hg 8.230442 -18.092173 4.937717
Hg 8.230442 -21.382157 8.227701
Hg 4.940457 -18.092173 8.227701
Hg 4.940457 -21.382157 11.517685
Hg 8.230442 -18.092173 11.517685
Hg 4.940457 -18.092173 14.807669
Hg 4.940457 -11.512204 -24.672141
Hg 4.940457 -14.802188 -21.382157
Hg 8.230442 -11.512204 -21.382157
Hg 8.230442 -14.802188 -18.092173
Hg 4.940457 -11.512204 -18.092173
Hg 4.940457 -14.802188 -14.802188
Hg 8.230442 -11.512204 -14.802188
Hg 8.230442 -14.802188 -11.512204
Hg 4.940457 -11.512204 -11.512204
Hg 4.940457 -14.802188 -8.222220
Hg 8.230442 -11.512204 -8.222220
Hg 8.230442 -14.802188 -4.932236
Hg 4.940457 -11.512204 -4.932236
Hg 4.940457 -14.802188 -1.642252
Hg 8.230442 -11.512204 -1.642252
Hg 8.230442 -14.802188 1.647733
Hg 4.940457 -11.512204 1.647733
Hg 4.940457 -14.802188 4.937717
Hg 8.230442 -11.512204 4.937717
Hg 8.230442 -14.802188 8.227701
Hg 4.940457 -11.512204 8.227701
Hg 4.940457 -14.802188 11.517685
Hg 8.230442 -11.512204 11.517685
Hg 8.230442 -14.802188 14.807669
Hg 4.940457 -11.512204 14.807669
Hg 4.940457 -14.802188 18.097654
Hg 8.230442 -11.512204 18.097654
Hg 4.940457 -11.512204 21.387638
Hg 8.230442 -8.222220 -24.672141
Hg 4.940457 -4.932236 -24.672141
Hg 4.940457 -8.222220 -21.382157
Hg 8.230442 -4.932236 -21.382157
Hg 8.230442 -8.222220 -18.092173
Hg 4.940457 -4.932236 -18.092173
Hg 4.940457 -8.222220 -14.802188
Hg 8.230442 -4.932236 -14.802188
Hg 8.230442 -8.222220 -11.512204
Hg 4.940457 -4.932236 -11.512204
Hg 4.940457 -8.222220 -8.222220
Hg 8.230442 -4.932236 -8.222220
Hg 8.230442 -8.222220 -4.932236
Hg 4.940457 -4.932236 -4.932236
Hg 4.940457 -8.222220 -1.642252
Hg 8.230442 -4.932236 -1.642252
Hg 8.230442 -8.222220 1.647733
Hg 4.940457 -4.932236 1.647733
Hg 4.940457 -8.222220 4.937717
Hg 8.230442 -4.932236 4.937717
Hg 8.230442 -8.222220 8.227701
Hg 4.940457 -4.932236 8.227701
Hg 4.940457 -8.222220 11.517685
Hg 8.230442 -4.932236 11.517685
Hg 8.230442 -8.222220 14.807669
Hg 4.940457 -4.932236 14.807669
Hg 4.940457 -8.222220 18.097654
Hg 8.230442 -4.932236 18.097654
Hg 8.230442 -8.222220 21.387638
Hg 4.940457 -4.932236 21.387638
Hg 4.940457 -8.222220 24.677622
Hg 8.230442 -4.932236 24.677622
Hg 8.230442 -1.642252 -24.672141
Hg 4.940457 1.647733 -24.672141
Hg 4.940457 -1.642252 -21.382157
Hg 8.230442 1.647733 -21.382157
Hg 8.230442 -1.642252 -18.092173
Hg 4.940457 1.647733 -18.092173
Hg 4.940457 -1.642252 -14.802188
Hg 8.230442 1.647733 -14.802188
Hg 8.230442 -1.642252 -11.512204
Hg 4.940457 1.647733 -11.512204
Hg 4.940457 -1.642252 -8.222220
Hg 8.230442 1.647733 -8.222220
Hg 8.230442 -1.642252 -4.932236
Hg 4.940457 1.647733 -4.932236
Hg 4.940457 -1.642252 -1.642252
Hg 8.230442 1.647733 -1.642252
Hg 8.230442 -1.642252 1.647733
Hg 4.940457 1.647733 1.647733
Hg 4.940457 -1.642252 4.937717
Hg 8.230442 1.647733 4.937717
Hg 8.230442 -1.642252 8.227701
Hg 4.940457 1.647733 8.227701
Hg 4.940457 -1.642252 11.517685
Hg 8.230442 1.647733 11.517685
Hg 8.230442 -1.642252 14.807669
Hg 4.940457 1.647733 14.807669
Hg 4.940457 -1.642252 18.097654
Hg 8.230442 1.647733 18.097654
Hg 8.230442 -1.642252 21.387638
Hg 4.940457 1.647733 21.387638
Hg 4.940457 -1.642252 24.677622
Hg 8.230442 1.647733 24.677622
Hg 8.230442 4.937717 -24.672141
Hg 4.940457 8.227701 -24.672141
Hg 4.940457 4.937717 -21.382157
Hg 8.230442 8.227701 -21.382157
Hg 8.230442 4.937717 -18.092173
Hg 4.940457 8.227701 -18.092173
Hg 4.940457 4.937717 -14.802188
Hg 8.230442 8.227701 -14.802188
Hg 8.230442 4.937717 -11.512204
Hg 4.940457 8.227701 -11.512204
Hg 4.940457 4.937717 -8.222220
Hg 8.230442 8.227701 -8.222220
Hg 8.230442 4.937717 -4.932236
Hg 4.940457 8.227701 -4.932236
Hg 4.940457 4.937717 -1.642252
Hg 8.230442 8.227701 -1.642252
Hg 8.230442 4.937717 1.647733
Hg 4.940457 8.227701 1.647733
Hg 4.940457 4.937717 4.937717
Hg 8.230442 8.227701 4.937717
Hg 8.230442 4.937717 8.227701
Hg 4.940457 8.227701 8.227701
Hg 4.940457 4.937717 11.517685
Hg 8.230442 8.227701 11.517685
Hg 8.230442 4.937717 14.807669
Hg 4.940457 8.227701 14.807669
Hg 4.940457 4.937717 18.097654
Hg 8.230442 8.227701 18.097654
Hg 8.230442 4.937717 21.387638
Hg 4.940457 8.227701 21.387638
Hg 4.940457 4.937717 24.677622
Hg 8.230442 8.227701 24.677622
Hg 4.940457 11.517685 -21.382157
Hg 8.230442 11.517685 -18.092173
Hg 4.940457 14.807669 -18.092173
Hg 4.940457 11.517685 -14.802188
Hg 8.230442 14.807669 -14.802188
Hg 8.230442 11.517685 -11.512204
Hg 4.940457 14.807669 -11.512204
Hg 4.940457 11.517685 -8.222220
Hg 8.230442 14.807669 -8.222220
Hg 8.230442 11.517685 -4.932236
Hg 4.940457 14.807669 -4.932236
Hg 4.940457 11.517685 -1.642252
Hg 8.230442 14.807669 -1.642252
Hg 8.230442 11.517685 1.647733
Hg 4.940457 14.807669 1.647733
Hg 4.940457 11.517685 4.937717
Hg 8.230442 14.807669 4.937717
Hg 8.230442 11.517685 8.227701
Hg 4.940457 14.807669 8.227701
Hg 4.940457 11.517685 11.517685
Hg 8.230442 14.807669 11.517685
Hg 8.230442 11.517685 14.807669
Hg 4.940457 14.807669 14.807669
Hg 4.940457 11.517685 18.097654
Hg 8.230442 14.807669 18.097654
Hg 8.230442 11.517685 21.387638
Hg 4.940457 14.807669 21.387638
Hg 4.940457 11.517685 24.677622
Hg 4.940457 18.097654 -14.802188
Hg 8.230442 18.097654 -11.512204
Hg 4.940457 21.387638 -11.512204
Hg 4.940457 18.097654 -8.222220
Hg 8.230442 21.387638 -8.222220
Hg 8.230442 18.097654 -4.932236
Hg 4.940457 21.387638 -4.932236
Hg 4.940457 18.097654 -1.642252
Hg 8.230442 21.387638 -1.642252
Hg 8.230442 18.097654 1.647733
Hg 4.940457 21.387638 1.647733
Hg 4.940457 18.097654 4.937717
Hg 8.230442 21.387638 4.937717
Hg 8.230442 18.097654 8.227701
Hg 4.940457 21.387638 8.227701
Hg 4.940457 18.097654 11.517685
Hg 8.230442 21.387638 11.517685
Hg 8.230442 18.097654 14.807669
Hg 4.940457 21.387638 14.807669
Hg 4.940457 18.097654 18.097654
Hg 4.940457 24.677622 -8.222220
Hg 8.230442 24.677622 -4.932236
Hg 4.940457 24.677622 -1.642252
Hg 8.230442 24.677622 1.647733
Hg 4.940457 24.677622 4.937717
Hg 8.230442 24.677622 8.227701
Hg 4.940457 24.677622 11.517685
Hg 11.520426 -24.672141 -4.932236
Hg 11.520426 -24.672141 1.647733
Hg 11.520426 -18.092173 -11.512204
Hg 11.520426 -21.382157 -8.222220
Hg 14.810410 -18.092173 -8.222220
Hg 14.810410 -21.382157 -4.932236
Hg 11.520426 -18.092173 -4.932236
Hg 11.520426 -21.382157 -1.642252
Hg 14.810410 -18.092173 -1.642252
Hg 14.810410 -21.382157 1.647733
Hg 11.520426 -18.092173 1.647733
Hg 11.520426 -21.382157 4.937717
Hg 14.810410 -18.092173 4.937717
Hg 11.520426 -18.092173 8.227701
Hg 11.520426 -11.512204 -18.092173
Hg 11.520426 -14.802188 -14.802188
Hg 14.810410 -11.512204 -14.802188
Hg 14.810410 -14.802188 -11.512204
Hg 11.520426 -11.512204 -11.512204
Hg 11.520426 -14.802188 -8.222220
Hg 14.810410 -11.512204 -8.222220
Hg 14.810410 -14.802188 -4.932236
Hg 11.520426 -11.512204 -4.932236
Hg 11.520426 -14.802188 -1.642252
Hg 14.810410 -11.512204 -1.642252
Hg 14.810410 -14.802188 1.647733
Hg 11.520426 -11.512204 1.647733
Hg 11.520426 -14.802188 4.937717
Hg 14.810410 -11.512204 4.937717
Hg 14.810410 -14.802188 8.227701
Hg 11.520426 -11.512204 8.227701
Hg 11.520426 -14.802188 11.517685
Hg 14.810410 -11.512204 11.517685
Hg 11.520426 -11.512204 14.807669
Hg 11.520426 -4.932236 -24.672141
Hg 11.520426 -8.222220 -21.382157
Hg 14.810410 -4.932236 -21.382157
Hg 14.810410 -8.222220 -18.092173
Hg 11.520426 -4.932236 -18.092173
Hg 11.520426 -8.222220 -14.802188
Hg 14.810410 -4.932236 -14.802188
Hg 14.810410 -8.222220 -11.512204
Hg 11.520426 -4.932236 -11.512204
Hg 11.520426 -8.222220 -8.222220
Hg 14.810410 -4.932236 -8.222220
Hg 14.810410 -8.222220 -4.932236
Hg 11.520426 -4.932236 -4.932236
Hg 11.520426 -8.222220 -1.642252
Hg 14.810410 -4.932236 -1.642252
Hg 14.810410 -8.222220 1.647733
Hg 11.520426 -4.932236 1.647733
Hg 11.520426 -8.222220 4.937717
Hg 14.810410 -4.932236 4.937717
Hg 14.810410 -8.222220 8.227701
Hg 11.520426 -4.932236 8.227701
Hg 11.520426 -8.222220 11.517685
Hg 14.810410 -4.932236 11.517685
Hg 14.810410 -8.222220 14.807669
Hg 11.520426 -4.932236 14.807669
Hg 11.520426 -8.222220 18.097654
Hg 14.810410 -4.932236 18.097654
Hg 11.520426 -4.932236 21.387638
Hg 11.520426 1.647733 -24.672141
Hg 11.520426 -1.642252 -21.382157
Hg 14.810410 1.647733 -21.382157
Hg 14.810410 -1.642252 -18.092173
Hg 11.520426 1.647733 -18.092173
Hg 11.520426 -1.642252 -14.802188
Hg 14.810410 1.647733 -14.802188
Hg 14.810410 -1.642252 -11.512204
Hg 11.520426 1.647733 -11.512204
Hg 11.520426 -1.642252 -8.222220
Hg 14.810410 1.647733 -8.222220
Hg 14.810410 -1.642252 -4.932236
Hg 11.520426 1.647733 -4.932236
Hg 11.520426 -1.642252 -1.642252
Hg 14.810410 1.647733 -1.642252
Hg 14.810410 -1.642252 1.647733
Hg 11.520426 1.647733 1.647733
Hg 11.520426 -1.642252 4.937717
Hg 14.810410 1.647733 4.937717
Hg 14.810410 -1.642252 8.227701
Hg 11.520426 1.647733 8.227701
Hg 11.520426 -1.642252 11.517685
Hg 14.810410 1.647733 11.517685
Hg 14.810410 -1.642252 14.807669
Hg 11.520426 1.647733 14.807669
Hg 11.520426 -1.642252 18.097654
Hg 14.810410 1.647733 18.097654
Hg 14.810410 -1.642252 21.387638
Hg 11.520426 1.647733 21.387638
Hg 11.520426 -1.642252 24.677622
Hg 11.520426 4.937717 -21.382157
Hg 14.810410 4.937717 -18.092173
Hg 11.520426 8.227701 -18.092173
Hg 11.520426 4.937717 -14.802188
Hg 14.810410 8.227701 -14.802188
Hg 14.810410 4.937717 -11.512204
Hg 11.520426 8.227701 -11.512204
Hg 11.520426 4.937717 -8.222220
Hg 14.810410 8.227701 -8.222220
Hg 14.810410 4.937717 -4.932236
Hg 11.520426 8.227701 -4.932236
Hg 11.520426 4.937717 -1.642252
Hg 14.810410 8.227701 -1.642252
Hg 14.810410 4.937717 1.647733
Hg 11.520426 8.227701 1.647733
Hg 11.520426 4.937717 4.937717
Hg 14.810410 8.227701 4.937717
Hg 14.810410 4.937717 8.227701
Hg 11.520426 8.227701 8.227701
Hg 11.520426 4.937717 11.517685
Hg 14.810410 8.227701 11.517685
Hg 14.810410 4.937717 14.807669
Hg 11.520426 8.227701 14.807669
Hg 11.520426 4.937717 18.097654
Hg 14.810410 8.227701 18.097654
Hg 14.810410 4.937717 21.387638
Hg 11.520426 8.227701 21.387638
Hg 11.520426 4.937717 24.677622
Hg 11.520426 11.517685 -14.802188
Hg 14.810410 11.517685 -11.512204
Hg 11.520426 14.807669 -11.512204
Hg 11.520426 11.517685 -8.222220
Hg 14.810410 14.807669 -8.222220
Hg 14.810410 11.517685 -4.932236
Hg 11.520426 14.807669 -4.932236
Hg 11.520426 11.517685 -1.642252
Hg 14.810410 14.807669 -1.642252
Hg 14.810410 11.517685 1.647733
Hg 11.520426 14.807669 1.647733
Hg 11.520426 11.517685 4.937717
Hg 14.810410 14.807669 4.937717
Hg 14.810410 11.517685 8.227701
Hg 11.520426 14.807669 8.227701
Hg 11.520426 11.517685 11.517685
Hg 14.810410 14.807669 11.517685
Hg 14.810410 11.517685 14.807669
Hg 11.520426 14.807669 14.807669
Hg 11.520426 11.517685 18.097654
Hg 11.520426 18.097654 -8.222220
Hg 14.810410 18.097654 -4.932236
Hg 11.520426 21.387638 -4.932236
Hg 11.520426 18.097654 -1.642252
Hg 14.810410 21.387638 -1.642252
Hg 14.810410 18.097654 1.647733
Hg 11.520426 21.387638 1.647733
Hg 11.520426 18.097654 4.937717
Hg 14.810410 21.387638 4.937717
Hg 14.810410 18.097654 8.227701
Hg 11.520426 21.387638 8.227701
Hg 11.520426 18.097654 11.517685
Hg 11.520426 24.677622 -1.642252
Hg 11.520426 24.677622 4.937717
Hg 18.100394 -18.092173 -4.932236
Hg 18.100394 -18.092173 1.647733
Hg 18.100394 -11.512204 -11.512204
Hg 18.100394 -14.802188 -8.222220
Hg 21.390378 -11.512204 -8.222220
Hg 21.390378 -14.802188 -4.932236
Hg 18.100394 -11.512204 -4.932236
Hg 18.100394 -14.802188 -1.642252
Hg 21.390378 -11.512204 -1.642252
Hg 21.390378 -14.802188 1.647733
Hg 18.100394 -11.512204 1.647733
Hg 18.100394 -14.802188 4.937717
Hg 21.390378 -11.512204 4.937717
Hg 18.100394 -11.512204 8.227701
Hg 18.100394 -4.932236 -18.092173
Hg 18.100394 -8.222220 -14.802188
Hg 21.390378 -4.932236 -14.802188
Hg 21.390378 -8.222220 -11.512204
Hg 18.100394 -4.932236 -11.512204
Hg 18.100394 -8.222220 -8.222220
Hg 21.390378 -4.932236 -8.222220
Hg 21.390378 -8.222220 -4.932236
Hg 18.100394 -4.932236 -4.932236
Hg 18.100394 -8.222220 -1.642252
Hg 21.390378 -4.932236 -1.642252
Hg 21.390378 -8.222220 1.647733
Hg 18.100394 -4.932236 1.647733
Hg 18.100394 -8.222220 4.937717
Hg 21.390378 -4.932236 4.937717
Hg 21.390378 -8.222220 8.227701
Hg 18.100394 -4.932236 8.227701
Hg 18.100394 -8.222220 11.517685
Hg 21.390378 -4.932236 11.517685
Hg 18.100394 -4.932236 14.807669
Hg 18.100394 1.647733 -18.092173
Hg 18.100394 -1.642252 -14.802188
Hg 21.390378 1.647733 -14.802188
Hg 21.390378 -1.642252 -11.512204
Hg 18.100394 1.647733 -11.512204
Hg 18.100394 -1.642252 -8.222220
Hg 21.390378 1.647733 -8.222220
Hg 21.390378 -1.642252 -4.932236
Hg 18.100394 1.647733 -4.932236
Hg 18.100394 -1.642252 -1.642252
Hg 21.390378 1.647733 -1.642252
Hg 21.390378 -1.642252 1.647733
Hg 18.100394 1.647733 1.647733
Hg 18.100394 -1.642252 4.937717
Hg 21.390378 1.647733 4.937717
Hg 21.390378 -1.642252 8.227701
Hg 18.100394 1.647733 8.227701
Hg 18.100394 -1.642252 11.517685
Hg 21.390378 1.647733 11.517685
Hg 21.390378 -1.642252 14.807669
Hg 18.100394 1.647733 14.807669
Hg 18.100394 -1.642252 18.097654
Hg 18.100394 4.937717 -14.802188
Hg 21.390378 4.937717 -11.512204
Hg 18.100394 8.227701 -11.512204
Hg 18.100394 4.937717 -8.222220
Hg 21.390378 8.227701 -8.222220
Hg 21.390378 4.937717 -4.932236
Hg 18.100394 8.227701 -4.932236
Hg 18.100394 4.937717 -1.642252
Hg 21.390378 8.227701 -1.642252
Hg 21.390378 4.937717 1.647733
Hg 18.100394 8.227701 1.647733
Hg 18.100394 4.937717 4.937717
Hg 21.390378 8.227701 4.937717
Hg 21.390378 4.937717 8.227701
Hg 18.100394 8.227701 8.227701
Hg 18.100394 4.937717 11.517685
Hg 21.390378 8.227701 11.517685
Hg 21.390378 4.937717 14.807669
Hg 18.100394 8.227701 14.807669
Hg 18.100394 4.937717 18.097654
Hg 18.100394 11.517685 -8.222220
Hg 21.390378 11.517685 -4.932236
Hg 18.100394 14.807669 -4.932236
Hg 18.100394 11.517685 -1.642252
Hg 21.390378 14.807669 -1.642252
Hg 21.390378 11.517685 1.647733
Hg 18.100394 14.807669 1.647733
Hg 18.100394 11.517685 4.937717
Hg 21.390378 14.807669 4.937717
Hg 21.390378 11.517685 8.227701
Hg 18.100394 14.807669 8.227701
Hg 18.100394 11.517685 11.517685
Hg 18.100394 18.097654 -1.642252
Hg 18.100394 18.097654 4.937717
Hg 24.680363 -11.512204 -4.932236
Hg 24.680363 -11.512204 1.647733
Hg 24.680363 -4.932236 -11.512204
Hg 24.680363 -8.222220 -8.222220
Hg 24.680363 -4.932236 -4.932236
Hg 24.680363 -8.222220 -1.642252
Hg 24.680363 -4.932236 1.647733
Hg 24.680363 -8.222220 4.937717
Hg 24.680363 -4.932236 8.227701
Hg 24.680363 1.647733 -11.512204
Hg 24.680363 -1.642252 -8.222220
Hg 24.680363 1.647733 -4.932236
Hg 24.680363 -1.642252 -1.642252
Hg 24.680363 1.647733 1.647733
Hg 24.680363 -1.642252 4.937717
Hg 24.680363 1.647733 8.227701
Hg 24.680363 -1.642252 11.517685
Hg 24.680363 4.937717 -8.222220
Hg 24.680363 8.227701 -4.932236
Hg 24.680363 4.937717 -1.642252
Hg 24.680363 8.227701 1.647733
Hg 24.680363 4.937717 4.937717
Hg 24.680363 8.227701 8.227701
Hg 24.680363 4.937717 11.517685
Hg 24.680363 11.517685 -1.642252
Hg 24.680363 11.517685 4.937717
Te -23.024408 -9.867212 -6.577228
Te -23.024408 -13.157196 -3.287244
Te -23.024408 -9.867212 0.002741
Te -23.024408 -13.157196 3.292725
Te -23.024408 -9.867212 6.582709
Te -23.024408 -3.287244 -13.157196
Te -23.024408 -6.577228 -9.867212
Te -23.024408 -3.287244 -6.577228
Te -23.024408 -6.577228 -3.287244
Te -23.024408 -3.287244 0.002741
Te -23.024408 -6.577228 3.292725
Te -23.024408 -3.287244 6.582709
Te -23.024408 -6.577228 9.872693
Te -23.024408 -3.287244 13.162677
Te -23.024408 3.292725 -13.157196
Te -23.024408 0.002741 -9.867212
Te -23.024408 3.292725 -6.577228
Te -23.024408 0.002741 -3.287244
Te -23.024408 3.292725 0.002741
Te -23.024408 0.002741 3.292725
Te -23.024408 3.292725 6.582709
Te -23.024408 0.002741 9.872693
Te -23.024408 3.292725 13.162677
Te -23.024408 6.582709 -9.867212
Te -23.024408 9.872693 -6.577228
Te -23.024408 6.582709 -3.287244
Te -23.024408 9.872693 0.002741
Te -23.024408 6.582709 3.292725
Te -23.024408 9.872693 6.582709
Te -23.024408 6.582709 9.872693
Te -23.024408 13.162677 -3.287244
Te -23.024408 13.162677 3.292725
Te -19.734424 -16.447181 -3.287244
Te -16.444440 -16.447181 -6.577228
Te -16.444440 -19.737165 -3.287244
Te -19.734424 -16.447181 3.292725
Te -16.444440 -16.447181 0.002741
Te -16.444440 -19.737165 3.292725
Te -16.444440 -16.447181 6.582709
Te -19.734424 -9.867212 -9.867212
Te -16.444440 -9.867212 -13.157196
Te -16.444440 -13.157196 -9.867212
Te -19.734424 -13.157196 -6.577228
Te -19.734424 -9.867212 -3.287244
Te -16.444440 -9.867212 -6.577228
Te -16.444440 -13.157196 -3.287244
Te -19.734424 -13.157196 0.002741
Te -19.734424 -9.867212 3.292725
Te -16.444440 -9.867212 0.002741
Te -16.444440 -13.157196 3.292725
Te -19.734424 -13.157196 6.582709
Te -19.734424 -9.867212 9.872693
Te -16.444440 -9.867212 6.582709
Te -16.444440 -13.157196 9.872693
Te -16.444440 -9.867212 13.162677
Te -19.734424 -3.287244 -16.447181
Te -16.444440 -3.287244 -19.737165
Te -16.444440 -6.577228 -16.447181
Te -19.734424 -6.577228 -13.157196
Te -19.734424 -3.287244 -9.867212
Te -16.444440 -3.287244 -13.157196
Te -16.444440 -6.577228 -9.867212
Te -19.734424 -6.577228 -6.577228
Te -19.734424 -3.287244 -3.287244
Te -16.444440 -3.287244 -6.577228
Te -16.444440 -6.577228 -3.287244
Te -19.734424 -6.577228 0.002741
Te -19.734424 -3.287244 3.292725
Te -16.444440 -3.287244 0.002741
Te -16.444440 -6.577228 3.292725
Te -19.734424 -6.577228 6.582709
Te -19.734424 -3.287244 9.872693
Te -16.444440 -3.287244 6.582709
Te -16.444440 -6.577228 9.872693
Te -19.734424 -6.577228 13.162677
Te -19.734424 -3.287244 16.452662
Te -16.444440 -3.287244 13.162677
Te -16.444440 -6.577228 16.452662
Te -16.444440 -3.287244 19.742646
Te -19.734424 3.292725 -16.447181
Te -16.444440 3.292725 -19.737165
Te -16.444440 0.002741 -16.447181
Te -19.734424 0.002741 -13.157196
Te -19.734424 3.292725 -9.867212
Te -16.444440 3.292725 -13.157196
Te -16.444440 0.002741 -9.867212
Te -19.734424 0.002741 -6.577228
Te -19.734424 3.292725 -3.287244
Te -16.444440 3.292725 -6.577228
Te -16.444440 0.002741 -3.287244
Te -19.734424 0.002741 0.002741
Te -19.734424 3.292725 3.292725
Te -16.444440 3.292725 0.002741
Te -16.444440 0.002741 3.292725
Te -19.734424 0.002741 6.582709
Te -19.734424 3.292725 9.872693
Te -16.444440 3.292725 6.582709
Te -16.444440 0.002741 9.872693
Te -19.734424 0.002741 13.162677
Te -19.734424 3.292725 16.452662
Te -16.444440 3.292725 13.162677
Te -16.444440 0.002741 16.452662
Te -16.444440 3.292725 19.742646
Te -16.444440 6.582709 -16.447181
Te -19.734424 6.582709 -13.157196
Te -19.734424 9.872693 -9.867212
Te -16.444440 9.872693 -13.157196
Te -16.444440 6.582709 -9.867212
Te -19.734424 6.582709 -6.577228
Te -19.734424 9.872693 -3.287244
Te -16.444440 9.872693 -6.577228
Te -16.444440 6.582709 -3.287244
Te -19.734424 6.582709 0.002741
Te -19.734424 9.872693 3.292725
Te -16.444440 9.872693 0.002741
Te -16.444440 6.582709 3.292725
Te -19.734424 6.582709 6.582709
Te -19.734424 9.872693 9.872693
Te -16.444440 9.872693 6.582709
Te -16.444440 6.582709 9.872693
Te -19.734424 6.582709 13.162677
Te -16.444440 9.872693 13.162677
Te -16.444440 6.582709 16.452662
Te -16.444440 13.162677 -9.867212
Te -19.734424 13.162677 -6.577228
Te -19.734424 16.452662 -3.287244
Te -16.444440 16.452662 -6.577228
Te -16.444440 13.162677 -3.287244
Te -19.734424 13.162677 0.002741
Te -19.734424 16.452662 3.292725
Te -16.444440 16.452662 0.002741
Te -16.444440 13.162677 3.292725
Te -19.734424 13.162677 6.582709
Te -16.444440 16.452662 6.582709
Te -16.444440 13.162677 9.872693
Te -16.444440 19.742646 -3.287244
Te -16.444440 19.742646 3.292725
Te -13.154456 -23.027149 -3.287244
Te -9.864472 -23.027149 -6.577228
Te -13.154456 -23.027149 3.292725
Te -9.864472 -23.027149 0.002741
Te -9.864472 -23.027149 6.582709
Te -13.154456 -16.447181 -9.867212
Te -9.864472 -16.447181 -13.157196
Te -9.864472 -19.737165 -9.867212
Te -13.154456 -19.737165 -6.577228
Te -13.154456 -16.447181 -3.287244
Te -9.864472 -16.447181 -6.577228
Te -9.864472 -19.737165 -3.287244
Te -13.154456 -19.737165 0.002741
Te -13.154456 -16.447181 3.292725
Te -9.864472 -16.447181 0.002741
Te -9.864472 -19.737165 3.292725
Te -13.154456 -19.737165 6.582709
Te -13.154456 -16.447181 9.872693
Te -9.864472 -16.447181 6.582709
Te -9.864472 -19.737165 9.872693
Te -9.864472 -16.447181 13.162677
Te -13.154456 -9.867212 -16.447181
Te -9.864472 -9.867212 -19.737165
Te -9.864472 -13.157196 -16.447181
Te -13.154456 -13.157196 -13.157196
Te -13.154456 -9.867212 -9.867212
Te -9.864472 -9.867212 -13.157196
Te -9.864472 -13.157196 -9.867212
Te -13.154456 -13.157196 -6.577228
Te -13.154456 -9.867212 -3.287244
Te -9.864472 -9.867212 -6.577228
Te -9.864472 -13.157196 -3.287244
Te -13.154456 -13.157196 0.002741
Te -13.154456 -9.867212 3.292725
Te -9.864472 -9.867212 0.002741
Te -9.864472 -13.157196 3.292725
Te -13.154456 -13.157196 6.582709
Te -13.154456 -9.867212 9.872693
Te -9.864472 -9.867212 6.582709
Te -9.864472 -13.157196 9.872693
Te -13.154456 -13.157196 13.162677
Te -13.154456 -9.867212 16.452662
Te -9.864472 -9.867212 13.162677
Te -9.864472 -13.157196 16.452662
Te -9.864472 -9.867212 19.742646
Te -13.154456 -3.287244 -23.027149
Te -9.864472 -6.577228 -23.027149
Te -13.154456 -6.577228 -19.737165
Te -13.154456 -3.287244 -16.447181
Te -9.864472 -3.287244 -19.737165
Te -9.864472 -6.577228 -16.447181
Te -13.154456 -6.577228 -13.157196
Te -13.154456 -3.287244 -9.867212
Te -9.864472 -3.287244 -13.157196
Te -9.864472 -6.577228 -9.867212
Te -13.154456 -6.577228 -6.577228
Te -13.154456 -3.287244 -3.287244
Te -9.864472 -3.287244 -6.577228
Te -9.864472 -6.577228 -3.287244
Te -13.154456 -6.577228 0.002741
Te -13.154456 -3.287244 3.292725
Te -9.864472 -3.287244 0.002741
Te -9.864472 -6.577228 3.292725
Te -13.154456 -6.577228 6.582709
Te -13.154456 -3.287244 9.872693
Te -9.864472 -3.287244 6.582709
Te -9.864472 -6.577228 9.872693
Te -13.154456 -6.577228 13.162677
Te -13.154456 -3.287244 16.452662
Te -9.864472 -3.287244 13.162677
Te -9.864472 -6.577228 16.452662
Te -13.154456 -6.577228 19.742646
Te -13.154456 -3.287244 23.032630
Te -9.864472 -3.287244 19.742646
Te -9.864472 -6.577228 23.032630
Te -13.154456 3.292725 -23.027149
Te -9.864472 0.002741 -23.027149
Te -13.154456 0.002741 -19.737165
Te -13.154456 3.292725 -16.447181
Te -9.864472 3.292725 -19.737165
Te -9.864472 0.002741 -16.447181
Te -13.154456 0.002741 -13.157196
Te -13.154456 3.292725 -9.867212
Te -9.864472 3.292725 -13.157196
Te -9.864472 0.002741 -9.867212
Te -13.154456 0.002741 -6.577228
Te -13.154456 3.292725 -3.287244
Te -9.864472 3.292725 -6.577228
Te -9.864472 0.002741 -3.287244
Te -13.154456 0.002741 0.002741
Te -13.154456 3.292725 3.292725
Te -9.864472 3.292725 0.002741
Te -9.864472 0.002741 3.292725
Te -13.154456 0.002741 6.582709
Te -13.154456 3.292725 9.872693
Te -9.864472 3.292725 6.582709
Te -9.864472 0.002741 9.872693
Te -13.154456 0.002741 13.162677
Te -13.154456 3.292725 16.452662
Te -9.864472 3.292725 13.162677
Te -9.864472 0.002741 16.452662
Te -13.154456 0.002741 19.742646
Te -13.154456 3.292725 23.032630
Te -9.864472 3.292725 19.742646
Te -9.864472 0.002741 23.032630
Te -9.864472 6.582709 -23.027149
Te -13.154456 6.582709 -19.737165
Te -13.154456 9.872693 -16.447181
Te -9.864472 9.872693 -19.737165
Te -9.864472 6.582709 -16.447181
Te -13.154456 6.582709 -13.157196
Te -13.154456 9.872693 -9.867212
Te -9.864472 9.872693 -13.157196
Te -9.864472 6.582709 -9.867212
Te -13.154456 6.582709 -6.577228
Te -13.154456 9.872693 -3.287244
Te -9.864472 9.872693 -6.577228
Te -9.864472 6.582709 -3.287244
Te -13.154456 6.582709 0.002741
Te -13.154456 9.872693 3.292725
Te -9.864472 9.872693 0.002741
Te -9.864472 6.582709 3.292725
Te -13.154456 6.582709 6.582709
Te -13.154456 9.872693 9.872693
Te -9.864472 9.872693 6.582709
Te -9.864472 6.582709 9.872693
Te -13.154456 6.582709 13.162677
Te -13.154456 9.872693 16.452662
Te -9.864472 9.872693 13.162677
Te -9.864472 6.582709 16.452662
Te -13.154456 6.582709 19.742646
Te -9.864472 9.872693 19.742646
Te -9.864472 6.582709 23.032630
Te -9.864472 13.162677 -16.447181
Te -13.154456 13.162677 -13.157196
Te -13.154456 16.452662 -9.867212
Te -9.864472 16.452662 -13.157196
Te -9.864472 13.162677 -9.867212
Te -13.154456 13.162677 -6.577228
Te -13.154456 16.452662 -3.287244
Te -9.864472 16.452662 -6.577228
Te -9.864472 13.162677 -3.287244
Te -13.154456 13.162677 0.002741
Te -13.154456 16.452662 3.292725
Te -9.864472 16.452662 0.002741
Te -9.864472 13.162677 3.292725
Te -13.154456 13.162677 6.582709
Te -13.154456 16.452662 9.872693
Te -9.864472 16.452662 6.582709
Te -9.864472 13.162677 9.872693
Te -13.154456 13.162677 13.162677
Te -9.864472 16.452662 13.162677
Te -9.864472 13.162677 16.452662
Te -9.864472 19.742646 -9.867212
Te -13.154456 19.742646 -6.577228
Te -13.154456 23.032630 -3.287244
Te -9.864472 23.032630 -6.577228
Te -9.864472 19.742646 -3.287244
Te -13.154456 19.742646 0.002741
Te -13.154456 23.032630 3.292725
Te -9.864472 23.032630 0.002741
Te -9.864472 19.742646 3.292725
Te -13.154456 19.742646 6.582709
Te -9.864472 23.032630 6.582709
Te -9.864472 19.742646 9.872693
Te -6.574487 -23.027149 -9.867212
Te -3.284503 -23.027149 -13.157196
Te -6.574487 -23.027149 -3.287244
Te -3.284503 -23.027149 -6.577228
Te -6.574487 -23.027149 3.292725
Te -3.284503 -23.027149 0.002741
Te -6.574487 -23.027149 9.872693
Te -3.284503 -23.027149 6.582709
Te -3.284503 -23.027149 13.162677
Te -6.574487 -16.447181 -16.447181
Te -3.284503 -16.447181 -19.737165
Te -3.284503 -19.737165 -16.447181
Te -6.574487 -19.737165 -13.157196
Te -6.574487 -16.447181 -9.867212
Te -3.284503 -16.447181 -13.157196
Te -3.284503 -19.737165 -9.867212
Te -6.574487 -19.737165 -6.577228
Te -6.574487 -16.447181 -3.287244
Te -3.284503 -16.447181 -6.577228
Te -3.284503 -19.737165 -3.287244
Te -6.574487 -19.737165 0.002741
Te -6.574487 -16.447181 3.292725
Te -3.284503 -16.447181 0.002741
Te -3.284503 -19.737165 3.292725
Te -6.574487 -19.737165 6.582709
Te -6.574487 -16.447181 9.872693
Te -3.284503 -16.447181 6.582709
Te -3.284503 -19.737165 9.872693
Te -6.574487 -19.737165 13.162677
Te -6.574487 -16.447181 16.452662
Te -3.284503 -16.447181 13.162677
Te -3.284503 -19.737165 16.452662
Te -3.284503 -16.447181 19.742646
Te -6.574487 -9.867212 -23.027149
Te -3.284503 -13.157196 -23.027149
Te -6.574487 -13.157196 -19.737165
Te -6.574487 -9.867212 -16.447181
Te -3.284503 -9.867212 -19.737165
Te -3.284503 -13.157196 -16.447181
Te -6.574487 -13.157196 -13.157196
Te -6.574487 -9.867212 -9.867212
Te -3.284503 -9.867212 -13.157196
Te -3.284503 -13.157196 -9.867212
Te -6.574487 -13.157196 -6.577228
Te -6.574487 -9.867212 -3.287244
Te -3.284503 -9.867212 -6.577228
Te -3.284503 -13.157196 -3.287244
Te -6.574487 -13.157196 0.002741
Te -6.574487 -9.867212 3.292725
Te -3.284503 -9.867212 0.002741
Te -3.284503 -13.157196 3.292725
Te -6.574487 -13.157196 6.582709
Te -6.574487 -9.867212 9.872693
Te -3.284503 -9.867212 6.582709
Te -3.284503 -13.157196 9.872693
Te -6.574487 -13.157196 13.162677
Te -6.574487 -9.867212 16.452662
Te -3.284503 -9.867212 13.162677
Te -3.284503 -13.157196 16.452662
Te -6.574487 -13.157196 19.742646
Te -6.574487 -9.867212 23.032630
Te -3.284503 -9.867212 19.742646
Te -3.284503 -13.157196 23.032630
Te -6.574487 -3.287244 -23.027149
Te -3.284503 -6.577228 -23.027149
Te -6.574487 -6.577228 -19.737165
Te -6.574487 -3.287244 -16.447181
Te -3.284503 -3.287244 -19.737165
Te -3.284503 -6.577228 -16.447181
Te -6.574487 -6.577228 -13.157196
Te -6.574487 -3.287244 -9.867212
Te -3.284503 -3.287244 -13.157196
Te -3.284503 -6.577228 -9.867212
Te -6.574487 -6.577228 -6.577228
Te -6.574487 -3.287244 -3.287244
Te -3.284503 -3.287244 -6.577228
Te -3.284503 -6.577228 -3.287244
Te -6.574487 -6.577228 0.002741
Te -6.574487 -3.287244 3.292725
Te -3.284503 -3.287244 0.002741
Te -3.284503 -6.577228 3.292725
Te -6.574487 -6.577228 6.582709
Te -6.574487 -3.287244 9.872693
Te -3.284503 -3.287244 6.582709
Te -3.284503 -6.577228 9.872693
Te -6.574487 -6.577228 13.162677
Te -6.574487 -3.287244 16.452662
Te -3.284503 -3.287244 13.162677
Te -3.284503 -6.577228 16.452662
Te -6.574487 -6.577228 19.742646
Te -6.574487 -3.287244 23.032630
Te -3.284503 -3.287244 19.742646
Te -3.284503 -6.577228 23.032630
Te -6.574487 3.292725 -23.027149
Te -3.284503 0.002741 -23.027149
Te -6.574487 0.002741 -19.737165
Te -6.574487 3.292725 -16.447181
Te -3.284503 3.292725 -19.737165
Te -3.284503 0.002741 -16.447181
Te -6.574487 0.002741 -13.157196
Te -6.574487 3.292725 -9.867212
Te -3.284503 3.292725 -13.157196
Te -3.284503 0.002741 -9.867212
Te -6.574487 0.002741 -6.577228
Te -6.574487 3.292725 -3.287244
Te -3.284503 3.292725 -6.577228
Te -3.284503 0.002741 -3.287244
Te -6.574487 0.002741 0.002741
Te -6.574487 3.292725 3.292725
Te -3.284503 3.292725 0.002741
Te -3.284503 0.002741 3.292725
Te -6.574487 0.002741 6.582709
Te -6.574487 3.292725 9.872693
Te -3.284503 3.292725 6.582709
Te -3.284503 0.002741 9.872693
Te -6.574487 0.002741 13.162677
Te -6.574487 3.292725 16.452662
Te -3.284503 3.292725 13.162677
Te -3.284503 0.002741 16.452662
Te -6.574487 0.002741 19.742646
Te -6.574487 3.292725 23.032630
Te -3.284503 3.292725 19.742646
Te -3.284503 0.002741 23.032630
Te -6.574487 9.872693 -23.027149
Te -3.284503 6.582709 -23.027149
Te -6.574487 6.582709 -19.737165
Te -6.574487 9.872693 -16.447181
Te -3.284503 9.872693 -19.737165
Te -3.284503 6.582709 -16.447181
Te -6.574487 6.582709 -13.157196
Te -6.574487 9.872693 -9.867212
Te -3.284503 9.872693 -13.157196
Te -3.284503 6.582709 -9.867212
Te -6.574487 6.582709 -6.577228
Te -6.574487 9.872693 -3.287244
Te -3.284503 9.872693 -6.577228
Te -3.284503 6.582709 -3.287244
Te -6.574487 6.582709 0.002741
Te -6.574487 9.872693 3.292725
Te -3.284503 9.872693 0.002741
Te -3.284503 6.582709 3.292725
Te -6.574487 6.582709 6.582709
Te -6.574487 9.872693 9.872693
Te -3.284503 9.872693 6.582709
Te -3.284503 6.582709 9.872693
Te -6.574487 6.582709 13.162677
Te -6.574487 9.872693 16.452662
Te -3.284503 9.872693 13.162677
Te -3.284503 6.582709 16.452662
Te -6.574487 6.582709 19.742646
Te -6.574487 9.872693 23.032630
Te -3.284503 9.872693 19.742646
Te -3.284503 6.582709 23.032630
Te -3.284503 13.162677 -23.027149
Te -6.574487 13.162677 -19.737165
Te -6.574487 16.452662 -16.447181
Te -3.284503 16.452662 -19.737165
Te -3.284503 13.162677 -16.447181
Te -6.574487 13.162677 -13.157196
Te -6.574487 16.452662 -9.867212
Te -3.284503 16.452662 -13.157196
Te -3.284503 13.162677 -9.867212
Te -6.574487 13.162677 -6.577228
Te -6.574487 16.452662 -3.287244
Te -3.284503 16.452662 -6.577228
Te -3.284503 13.162677 -3.287244
Te -6.574487 13.162677 0.002741
Te -6.574487 16.452662 3.292725
Te -3.284503 16.452662 0.002741
Te -3.284503 13.162677 3.292725
Te -6.574487 13.162677 6.582709
Te -6.574487 16.452662 9.872693
Te -3.284503 16.452662 6.582709
Te -3.284503 13.162677 9.872693
Te -6.574487 13.162677 13.162677
Te -6.574487 16.452662 16.452662
Te -3.284503 16.452662 13.162677
Te -3.284503 13.162677 16.452662
Te -6.574487 13.162677 19.742646
Te -3.284503 16.452662 19.742646
Te -3.284503 13.162677 23.032630
Te -3.284503 19.742646 -16.447181
Te -6.574487 19.742646 -13.157196
Te -6.574487 23.032630 -9.867212
Te -3.284503 23.032630 -13.157196
Te -3.284503 19.742646 -9.867212
Te -6.574487 19.742646 -6.577228
Te -6.574487 23.032630 -3.287244
Te -3.284503 23.032630 -6.577228
Te -3.284503 19.742646 -3.287244
Te -6.574487 19.742646 0.002741
Te -6.574487 23.032630 3.292725
Te -3.284503 23.032630 0.002741
Te -3.284503 19.742646 3.292725
Te -6.574487 19.742646 6.582709
Te -6.574487 23.032630 9.872693
Te -3.284503 23.032630 6.582709
Te -3.284503 19.742646 9.872693
Te -6.574487 19.742646 13.162677
Te -3.284503 23.032630 13.162677
Te -3.284503 19.742646 16.452662
Te 0.005481 -23.027149 -9.867212
Te 3.295465 -23.027149 -13.157196
Te 0.005481 -23.027149 -3.287244
Te 3.295465 -23.027149 -6.577228
Te 0.005481 -23.027149 3.292725
Te 3.295465 -23.027149 0.002741
Te 0.005481 -23.027149 9.872693
Te 3.295465 -23.027149 6.582709
Te 3.295465 -23.027149 13.162677
Te 0.005481 -16.447181 -16.447181
Te 3.295465 -16.447181 -19.737165
Te 3.295465 -19.737165 -16.447181
Te 0.005481 -19.737165 -13.157196
Te 0.005481 -16.447181 -9.867212
Te 3.295465 -16.447181 -13.157196
Te 3.295465 -19.737165 -9.867212
Te 0.005481 -19.737165 -6.577228
Te 0.005481 -16.447181 -3.287244
Te 3.295465 -16.447181 -6.577228
Te 3.295465 -19.737165 -3.287244
Te 0.005481 -19.737165 0.002741
Te 0.005481 -16.447181 3.292725
Te 3.295465 -16.447181 0.002741
Te 3.295465 -19.737165 3.292725
Te 0.005481 -19.737165 6.582709
Te 0.005481 -16.447181 9.872693
Te 3.295465 -16.447181 6.582709
Te 3.295465 -19.737165 9.872693
Te 0.005481 -19.737165 13.162677
Te 0.005481 -16.447181 16.452662
Te 3.295465 -16.447181 13.162677
Te 3.295465 -19.737165 16.452662
Te 3.295465 -16.447181 19.742646
Te 0.005481 -9.867212 -23.027149
Te 3.295465 -13.157196 -23.027149
Te 0.005481 -13.157196 -19.737165
Te 0.005481 -9.867212 -16.447181
Te 3.295465 -9.867212 -19.737165
Te 3.295465 -13.157196 -16.447181
Te 0.005481 -13.157196 -13.157196
Te 0.005481 -9.867212 -9.867212
Te 3.295465 -9.867212 -13.157196
Te 3.295465 -13.157196 -9.867212
Te 0.005481 -13.157196 -6.577228
Te 0.005481 -9.867212 -3.287244
Te 3.295465 -9.867212 -6.577228
Te 3.295465 -13.157196 -3.287244
Te 0.005481 -13.157196 0.002741
Te 0.005481 -9.867212 3.292725
Te 3.295465 -9.867212 0.002741
Te 3.295465 -13.157196 3.292725
Te 0.005481 -13.157196 6.582709
Te 0.005481 -9.867212 9.872693
Te 3.295465 -9.867212 6.582709
Te 3.295465 -13.157196 9.872693
Te 0.005481 -13.157196 13.162677
Te 0.005481 -9.867212 16.452662
Te 3.295465 -9.867212 13.162677
Te 3.295465 -13.157196 16.452662
Te 0.005481 -13.157196 19.742646
Te 0.005481 -9.867212 23.032630
Te 3.295465 -9.867212 19.742646
Te 3.295465 -13.157196 23.032630
Te 0.005481 -3.287244 -23.027149
Te 3.295465 -6.577228 -23.027149
Te 0.005481 -6.577228 -19.737165
Te 0.005481 -3.287244 -16.447181
Te 3.295465 -3.287244 -19.737165
Te 3.295465 -6.577228 -16.447181
Te 0.005481 -6.577228 -13.157196
Te 0.005481 -3.287244 -9.867212
Te 3.295465 -3.287244 -13.157196
Te 3.295465 -6.577228 -9.867212
Te 0.005481 -6.577228 -6.577228
Te 0.005481 -3.287244 -3.287244
Te 3.295465 -3.287244 -6.577228
Te 3.295465 -6.577228 -3.287244
Te 0.005481 -6.577228 0.002741
Te 0.005481 -3.287244 3.292725
Te 3.295465 -3.287244 0.002741
Te 3.295465 -6.577228 3.292725
Te 0.005481 -6.577228 6.582709
Te 0.005481 -3.287244 9.872693
Te 3.295465 -3.287244 6.582709
Te 3.295465 -6.577228 9.872693
Te 0.005481 -6.577228 13.162677
Te 0.005481 -3.287244 16.452662
Te 3.295465 -3.287244 13.162677
Te 3.295465 -6.577228 16.452662
Te 0.005481 -6.577228 19.742646
Te 0.005481 -3.287244 23.032630
Te 3.295465 -3.287244 19.742646
Te 3.295465 -6.577228 23.032630
Te 0.005481 3.292725 -23.027149
Te 3.295465 0.002741 -23.027149
Te 0.005481 0.002741 -19.737165
Te 0.005481 3.292725 -16.447181
Te 3.295465 3.292725 -19.737165
Te 3.295465 0.002741 -16.447181
Te 0.005481 0.002741 -13.157196
Te 0.005481 3.292725 -9.867212
Te 3.295465 3.292725 -13.157196
Te 3.295465 0.002741 -9.867212
Te 0.005481 0.002741 -6.577228
Te 0.005481 3.292725 -3.287244
Te 3.295465 3.292725 -6.577228
Te 3.295465 0.002741 -3.287244
Te 0.005481 0.002741 0.002741
Te 0.005481 3.292725 3.292725
Te 3.295465 3.292725 0.002741
Te 3.295465 0.002741 3.292725
Te 0.005481 0.002741 6.582709
Te 0.005481 3.292725 9.872693
Te 3.295465 3.292725 6.582709
Te 3.295465 0.002741 9.872693
Te 0.005481 0.002741 13.162677
Te 0.005481 3.292725 16.452662
Te 3.295465 3.292725 13.162677
Te 3.295465 0.002741 16.452662
Te 0.005481 0.002741 19.742646
Te 0.005481 3.292725 23.032630
Te 3.295465 3.292725 19.742646
Te 3.295465 0.002741 23.032630
Te 0.005481 9.872693 -23.027149
Te 3.295465 6.582709 -23.027149
Te 0.005481 6.582709 -19.737165
Te 0.005481 9.872693 -16.447181
Te 3.295465 9.872693 -19.737165
Te 3.295465 6.582709 -16.447181
Te 0.005481 6.582709 -13.157196
Te 0.005481 9.872693 -9.867212
Te 3.295465 9.872693 -13.157196
Te 3.295465 6.582709 -9.867212
Te 0.005481 6.582709 -6.577228
Te 0.005481 9.872693 -3.287244
Te 3.295465 9.872693 -6.577228
Te 3.295465 6.582709 -3.287244
Te 0.005481 6.582709 0.002741
Te 0.005481 9.872693 3.292725
Te 3.295465 9.872693 0.002741
Te 3.295465 6.582709 3.292725
Te 0.005481 6.582709 6.582709
Te 0.005481 9.872693 9.872693
Te 3.295465 9.872693 6.582709
Te 3.295465 6.582709 9.872693
Te 0.005481 6.582709 13.162677
Te 0.005481 9.872693 16.452662
Te 3.295465 9.872693 13.162677
Te 3.295465 6.582709 16.452662
Te 0.005481 6.582709 19.742646
Te 0.005481 9.872693 23.032630
Te 3.295465 9.872693 19.742646
Te 3.295465 6.582709 23.032630
Te 3.295465 13.162677 -23.027149
Te 0.005481 13.162677 -19.737165
Te 0.005481 16.452662 -16.447181
Te 3.295465 16.452662 -19.737165
Te 3.295465 13.162677 -16.447181
Te 0.005481 13.162677 -13.157196
Te 0.005481 16.452662 -9.867212
Te 3.295465 16.452662 -13.157196
Te 3.295465 13.162677 -9.867212
Te 0.005481 13.162677 -6.577228
Te 0.005481 16.452662 -3.287244
Te 3.295465 16.452662 -6.577228
Te 3.295465 13.162677 -3.287244
Te 0.005481 13.162677 0.002741
Te 0.005481 16.452662 3.292725
Te 3.295465 16.452662 0.002741
Te 3.295465 13.162677 3.292725
Te 0.005481 13.162677 6.582709
Te 0.005481 16.452662 9.872693
Te 3.295465 16.452662 6.582709
Te 3.295465 13.162677 9.872693
Te 0.005481 13.162677 13.162677
Te 0.005481 16.452662 16.452662
Te 3.295465 16.452662 13.162677
Te 3.295465 13.162677 16.452662
Te 0.005481 13.162677 19.742646
Te 3.295465 16.452662 19.742646
Te 3.295465 13.162677 23.032630
Te 3.295465 19.742646 -16.447181
Te 0.005481 19.742646 -13.157196
Te 0.005481 23.032630 -9.867212
Te 3.295465 23.032630 -13.157196
Te 3.295465 19.742646 -9.867212
Te 0.005481 19.742646 -6.577228
Te 0.005481 23.032630 -3.287244
Te 3.295465 23.032630 -6.577228
Te 3.295465 19.742646 -3.287244
Te 0.005481 19.742646 0.002741
Te 0.005481 23.032630 3.292725
Te 3.295465 23.032630 0.002741
Te 3.295465 19.742646 3.292725
Te 0.005481 19.742646 6.582709
Te 0.005481 23.032630 9.872693
Te 3.295465 23.032630 6.582709
Te 3.295465 19.742646 9.872693
Te 0.005481 19.742646 13.162677
Te 3.295465 23.032630 13.162677
Te 3.295465 19.742646 16.452662
Te 6.585449 -23.027149 -9.867212
Te 6.585449 -23.027149 -3.287244
Te 9.875434 -23.027149 -6.577228
Te 6.585449 -23.027149 3.292725
Te 9.875434 -23.027149 0.002741
Te 6.585449 -23.027149 9.872693
Te 9.875434 -23.027149 6.582709
Te 6.585449 -16.447181 -16.447181
Te 6.585449 -19.737165 -13.157196
Te 6.585449 -16.447181 -9.867212
Te 9.875434 -16.447181 -13.157196
Te 9.875434 -19.737165 -9.867212
Te 6.585449 -19.737165 -6.577228
Te 6.585449 -16.447181 -3.287244
Te 9.875434 -16.447181 -6.577228
Te 9.875434 -19.737165 -3.287244
Te 6.585449 -19.737165 0.002741
Te 6.585449 -16.447181 3.292725
Te 9.875434 -16.447181 0.002741
Te 9.875434 -19.737165 3.292725
Te 6.585449 -19.737165 6.582709
Te 6.585449 -16.447181 9.872693
Te 9.875434 -16.447181 6.582709
Te 9.875434 -19.737165 9.872693
Te 6.585449 -19.737165 13.162677
Te 6.585449 -16.447181 16.452662
Te 9.875434 -16.447181 13.162677
Te 6.585449 -9.867212 -23.027149
Te 6.585449 -13.157196 -19.737165
Te 6.585449 -9.867212 -16.447181
Te 9.875434 -9.867212 -19.737165
Te 9.875434 -13.157196 -16.447181
Te 6.585449 -13.157196 -13.157196
Te 6.585449 -9.867212 -9.867212
Te 9.875434 -9.867212 -13.157196
Te 9.875434 -13.157196 -9.867212
Te 6.585449 -13.157196 -6.577228
Te 6.585449 -9.867212 -3.287244
Te 9.875434 -9.867212 -6.577228
Te 9.875434 -13.157196 -3.287244
Te 6.585449 -13.157196 0.002741
Te 6.585449 -9.867212 3.292725
Te 9.875434 -9.867212 0.002741
Te 9.875434 -13.157196 3.292725
Te 6.585449 -13.157196 6.582709
Te 6.585449 -9.867212 9.872693
Te 9.875434 -9.867212 6.582709
Te 9.875434 -13.157196 9.872693
Te 6.585449 -13.157196 13.162677
Te 6.585449 -9.867212 16.452662
Te 9.875434 -9.867212 13.162677
Te 9.875434 -13.157196 16.452662
Te 6.585449 -13.157196 19.742646
Te 6.585449 -9.867212 23.032630
Te 9.875434 -9.867212 19.742646
Te 6.585449 -3.287244 -23.027149
Te 9.875434 -6.577228 -23.027149
Te 6.585449 -6.577228 -19.737165
Te 6.585449 -3.287244 -16.447181
Te 9.875434 -3.287244 -19.737165
Te 9.875434 -6.577228 -16.447181
Te 6.585449 -6.577228 -13.157196
Te 6.585449 -3.287244 -9.867212
Te 9.875434 -3.287244 -13.157196
Te 9.875434 -6.577228 -9.867212
Te 6.585449 -6.577228 -6.577228
Te 6.585449 -3.287244 -3.287244
Te 9.875434 -3.287244 -6.577228
Te 9.875434 -6.577228 -3.287244
Te 6.585449 -6.577228 0.002741
Te 6.585449 -3.287244 3.292725
Te 9.875434 -3.287244 0.002741
Te 9.875434 -6.577228 3.292725
Te 6.585449 -6.577228 6.582709
Te 6.585449 -3.287244 9.872693
Te 9.875434 -3.287244 6.582709
Te 9.875434 -6.577228 9.872693
Te 6.585449 -6.577228 13.162677
Te 6.585449 -3.287244 16.452662
Te 9.875434 -3.287244 13.162677
Te 9.875434 -6.577228 16.452662
Te 6.585449 -6.577228 19.742646
Te 6.585449 -3.287244 23.032630
Te 9.875434 -3.287244 19.742646
Te 9.875434 -6.577228 23.032630
Te 6.585449 3.292725 -23.027149
Te 9.875434 0.002741 -23.027149
Te 6.585449 0.002741 -19.737165
Te 6.585449 3.292725 -16.447181
Te 9.875434 3.292725 -19.737165
Te 9.875434 0.002741 -16.447181
Te 6.585449 0.002741 -13.157196
Te 6.585449 3.292725 -9.867212
Te 9.875434 3.292725 -13.157196
Te 9.875434 0.002741 -9.867212
Te 6.585449 0.002741 -6.577228
Te 6.585449 3.292725 -3.287244
Te 9.875434 3.292725 -6.577228
Te 9.875434 0.002741 -3.287244
Te 6.585449 0.002741 0.002741
Te 6.585449 3.292725 3.292725
Te 9.875434 3.292725 0.002741
Te 9.875434 0.002741 3.292725
Te 6.585449 0.002741 6.582709
Te 6.585449 3.292725 9.872693
Te 9.875434 3.292725 6.582709
Te 9.875434 0.002741 9.872693
Te 6.585449 0.002741 13.162677
Te 6.585449 3.292725 16.452662
Te 9.875434 3.292725 13.162677
Te 9.875434 0.002741 16.452662
Te 6.585449 0.002741 19.742646
Te 6.585449 3.292725 23.032630
Te 9.875434 3.292725 19.742646
Te 9.875434 0.002741 23.032630
Te 6.585449 9.872693 -23.027149
Te 9.875434 6.582709 -23.027149
Te 6.585449 6.582709 -19.737165
Te 6.585449 9.872693 -16.447181
Te 9.875434 9.872693 -19.737165
Te 9.875434 6.582709 -16.447181
Te 6.585449 6.582709 -13.157196
Te 6.585449 9.872693 -9.867212
Te 9.875434 9.872693 -13.157196
Te 9.875434 6.582709 -9.867212
Te 6.585449 6.582709 -6.577228
Te 6.585449 9.872693 -3.287244
Te 9.875434 9.872693 -6.577228
Te 9.875434 6.582709 -3.287244
Te 6.585449 6.582709 0.002741
Te 6.585449 9.872693 3.292725
Te 9.875434 9.872693 0.002741
Te 9.875434 6.582709 3.292725
Te 6.585449 6.582709 6.582709
Te 6.585449 9.872693 9.872693
Te 9.875434 9.872693 6.582709
Te 9.875434 6.582709 9.872693
Te 6.585449 6.582709 13.162677
Te 6.585449 9.872693 16.452662
Te 9.875434 9.872693 13.162677
Te 9.875434 6.582709 16.452662
Te 6.585449 6.582709 19.742646
Te 6.585449 9.872693 23.032630
Te 9.875434 9.872693 19.742646
Te 9.875434 6.582709 23.032630
Te 6.585449 13.162677 -19.737165
Te 6.585449 16.452662 -16.447181
Te 9.875434 13.162677 -16.447181
Te 6.585449 13.162677 -13.157196
Te 6.585449 16.452662 -9.867212
Te 9.875434 16.452662 -13.157196
Te 9.875434 13.162677 -9.867212
Te 6.585449 13.162677 -6.577228
Te 6.585449 16.452662 -3.287244
Te 9.875434 16.452662 -6.577228
Te 9.875434 13.162677 -3.287244
Te 6.585449 13.162677 0.002741
Te 6.585449 16.452662 3.292725
Te 9.875434 16.452662 0.002741
Te 9.875434 13.162677 3.292725
Te 6.585449 13.162677 6.582709
Te 6.585449 16.452662 9.872693
Te 9.875434 16.452662 6.582709
Te 9.875434 13.162677 9.872693
Te 6.585449 13.162677 13.162677
Te 6.585449 16.452662 16.452662
Te 9.875434 16.452662 13.162677
Te 9.875434 13.162677 16.452662
Te 6.585449 13.162677 19.742646
Te 6.585449 19.742646 -13.157196
Te 6.585449 23.032630 -9.867212
Te 9.875434 19.742646 -9.867212
Te 6.585449 19.742646 -6.577228
Te 6.585449 23.032630 -3.287244
Te 9.875434 23.032630 -6.577228
Te 9.875434 19.742646 -3.287244
Te 6.585449 19.742646 0.002741
Te 6.585449 23.032630 3.292725
Te 9.875434 23.032630 0.002741
Te 9.875434 19.742646 3.292725
Te 6.585449 19.742646 6.582709
Te 6.585449 23.032630 9.872693
Te 9.875434 23.032630 6.582709
Te 9.875434 19.742646 9.872693
Te 6.585449 19.742646 13.162677
Te 13.165418 -23.027149 -3.287244
Te 13.165418 -23.027149 3.292725
Te 13.165418 -16.447181 -9.867212
Te 13.165418 -19.737165 -6.577228
Te 13.165418 -16.447181 -3.287244
Te 16.455402 -16.447181 -6.577228
Te 16.455402 -19.737165 -3.287244
Te 13.165418 -19.737165 0.002741
Te 13.165418 -16.447181 3.292725
Te 16.455402 -16.447181 0.002741
Te 16.455402 -19.737165 3.292725
Te 13.165418 -19.737165 6.582709
Te 13.165418 -16.447181 9.872693
Te 16.455402 -16.447181 6.582709
Te 13.165418 -9.867212 -16.447181
Te 13.165418 -13.157196 -13.157196
Te 13.165418 -9.867212 -9.867212
Te 16.455402 -9.867212 -13.157196
Te 16.455402 -13.157196 -9.867212
Te 13.165418 -13.157196 -6.577228
Te 13.165418 -9.867212 -3.287244
Te 16.455402 -9.867212 -6.577228
Te 16.455402 -13.157196 -3.287244
Te 13.165418 -13.157196 0.002741
Te 13.165418 -9.867212 3.292725
Te 16.455402 -9.867212 0.002741
Te 16.455402 -13.157196 3.292725
Te 13.165418 -13.157196 6.582709
Te 13.165418 -9.867212 9.872693
Te 16.455402 -9.867212 6.582709
Te 16.455402 -13.157196 9.872693
Te 13.165418 -13.157196 13.162677
Te 13.165418 -9.867212 16.452662
Te 16.455402 -9.867212 13.162677
Te 13.165418 -3.287244 -23.027149
Te 13.165418 -6.577228 -19.737165
Te 13.165418 -3.287244 -16.447181
Te 16.455402 -3.287244 -19.737165
Te 16.455402 -6.577228 -16.447181
Te 13.165418 -6.577228 -13.157196
Te 13.165418 -3.287244 -9.867212
Te 16.455402 -3.287244 -13.157196
Te 16.455402 -6.577228 -9.867212
Te 13.165418 -6.577228 -6.577228
Te 13.165418 -3.287244 -3.287244
Te 16.455402 -3.287244 -6.577228
Te 16.455402 -6.577228 -3.287244
Te 13.165418 -6.577228 0.002741
Te 13.165418 -3.287244 3.292725
Te 16.455402 -3.287244 0.002741
Te 16.455402 -6.577228 3.292725
Te 13.165418 -6.577228 6.582709
Te 13.165418 -3.287244 9.872693
Te 16.455402 -3.287244 6.582709
Te 16.455402 -6.577228 9.872693
Te 13.165418 -6.577228 13.162677
Te 13.165418 -3.287244 16.452662
Te 16.455402 -3.287244 13.162677
Te 16.455402 -6.577228 16.452662
Te 13.165418 -6.577228 19.742646
Te 13.165418 -3.287244 23.032630
Te 16.455402 -3.287244 19.742646
Te 13.165418 3.292725 -23.027149
Te 13.165418 0.002741 -19.737165
Te 13.165418 3.292725 -16.447181
Te 16.455402 3.292725 -19.737165
Te 16.455402 0.002741 -16.447181
Te 13.165418 0.002741 -13.157196
Te 13.165418 3.292725 -9.867212
Te 16.455402 3.292725 -13.157196
Te 16.455402 0.002741 -9.867212
Te 13.165418 0.002741 -6.577228
Te 13.165418 3.292725 -3.287244
Te 16.455402 3.292725 -6.577228
Te 16.455402 0.002741 -3.287244
Te 13.165418 0.002741 0.002741
Te 13.165418 3.292725 3.292725
Te 16.455402 3.292725 0.002741
Te 16.455402 0.002741 3.292725
Te 13.165418 0.002741 6.582709
Te 13.165418 3.292725 9.872693
Te 16.455402 3.292725 6.582709
Te 16.455402 0.002741 9.872693
Te 13.165418 0.002741 13.162677
Te 13.165418 3.292725 16.452662
Te 16.455402 3.292725 13.162677
Te 16.455402 0.002741 16.452662
Te 13.165418 0.002741 19.742646
Te 13.165418 3.292725 23.032630
Te 16.455402 3.292725 19.742646
Te 13.165418 6.582709 -19.737165
Te 13.165418 9.872693 -16.447181
Te 16.455402 6.582709 -16.447181
Te 13.165418 6.582709 -13.157196
Te 13.165418 9.872693 -9.867212
Te 16.455402 9.872693 -13.157196
Te 16.455402 6.582709 -9.867212
Te 13.165418 6.582709 -6.577228
Te 13.165418 9.872693 -3.287244
Te 16.455402 9.872693 -6.577228
Te 16.455402 6.582709 -3.287244
Te 13.165418 6.582709 0.002741
Te 13.165418 9.872693 3.292725
Te 16.455402 9.872693 0.002741
Te 16.455402 6.582709 3.292725
Te 13.165418 6.582709 6.582709
Te 13.165418 9.872693 9.872693
Te 16.455402 9.872693 6.582709
Te 16.455402 6.582709 9.872693
Te 13.165418 6.582709 13.162677
Te 13.165418 9.872693 16.452662
Te 16.455402 9.872693 13.162677
Te 16.455402 6.582709 16.452662
Te 13.165418 6.582709 19.742646
Te 13.165418 13.162677 -13.157196
Te 13.165418 16.452662 -9.867212
Te 16.455402 13.162677 -9.867212
Te 13.165418 13.162677 -6.577228
Te 13.165418 16.452662 -3.287244
Te 16.455402 16.452662 -6.577228
Te 16.455402 13.162677 -3.287244
Te 13.165418 13.162677 0.002741
Te 13.165418 16.452662 3.292725
Te 16.455402 16.452662 0.002741
Te 16.455402 13.162677 3.292725
Te 13.165418 13.162677 6.582709
Te 13.165418 16.452662 9.872693
Te 16.455402 16.452662 6.582709
Te 16.455402 13.162677 9.872693
Te 13.165418 13.162677 13.162677
Te 13.165418 19.742646 -6.577228
Te 13.165418 23.032630 -3.287244
Te 16.455402 19.742646 -3.287244
Te 13.165418 19.742646 0.002741
Te 13.165418 23.032630 3.292725
Te 16.455402 19.742646 3.292725
Te 13.165418 19.742646 6.582709
Te 19.745386 -16.447181 -3.287244
Te 19.745386 -16.447181 3.292725
Te 19.745386 -9.867212 -9.867212
Te 19.745386 -13.157196 -6.577228
Te 19.745386 -9.867212 -3.287244
Te 23.035370 -9.867212 -6.577228
Te 23.035370 -13.157196 -3.287244
Te 19.745386 -13.157196 0.002741
Te 19.745386 -9.867212 3.292725
Te 23.035370 -9.867212 0.002741
Te 23.035370 -13.157196 3.292725
Te 19.745386 -13.157196 6.582709
Te 19.745386 -9.867212 9.872693
Te 23.035370 -9.867212 6.582709
Te 19.745386 -3.287244 -16.447181
Te 19.745386 -6.577228 -13.157196
Te 19.745386 -3.287244 -9.867212
Te 23.035370 -3.287244 -13.157196
Te 23.035370 -6.577228 -9.867212
Te 19.745386 -6.577228 -6.577228
Te 19.745386 -3.287244 -3.287244
Te 23.035370 -3.287244 -6.577228
Te 23.035370 -6.577228 -3.287244
Te 19.745386 -6.577228 0.002741
Te 19.745386 -3.287244 3.292725
Te 23.035370 -3.287244 0.002741
Te 23.035370 -6.577228 3.292725
Te 19.745386 -6.577228 6.582709
Te 19.745386 -3.287244 9.872693
Te 23.035370 -3.287244 6.582709
Te 23.035370 -6.577228 9.872693
Te 19.745386 -6.577228 13.162677
Te 19.745386 -3.287244 16.452662
Te 23.035370 -3.287244 13.162677
Te 19.745386 3.292725 -16.447181
Te 19.745386 0.002741 -13.157196
Te 19.745386 3.292725 -9.867212
Te 23.035370 3.292725 -13.157196
Te 23.035370 0.002741 -9.867212
Te 19.745386 0.002741 -6.577228
Te 19.745386 3.292725 -3.287244
Te 23.035370 3.292725 -6.577228
Te 23.035370 0.002741 -3.287244
Te 19.745386 0.002741 0.002741
Te 19.745386 3.292725 3.292725
Te 23.035370 3.292725 0.002741
Te 23.035370 0.002741 3.292725
Te 19.745386 0.002741 6.582709
Te 19.745386 3.292725 9.872693
Te 23.035370 3.292725 6.582709
Te 23.035370 0.002741 9.872693
Te 19.745386 0.002741 13.162677
Te 19.745386 3.292725 16.452662
Te 23.035370 3.292725 13.162677
Te 19.745386 6.582709 -13.157196
Te 19.745386 9.872693 -9.867212
Te 23.035370 6.582709 -9.867212
Te 19.745386 6.582709 -6.577228
Te 19.745386 9.872693 -3.287244
Te 23.035370 9.872693 -6.577228
Te 23.035370 6.582709 -3.287244
Te 19.745386 6.582709 0.002741
Te 19.745386 9.872693 3.292725
Te 23.035370 9.872693 0.002741
Te 23.035370 6.582709 3.292725
Te 19.745386 6.582709 6.582709
Te 19.745386 9.872693 9.872693
Te 23.035370 9.872693 6.582709
Te 23.035370 6.582709 9.872693
Te 19.745386 6.582709 13.162677
Te 19.745386 13.162677 -6.577228
Te 19.745386 16.452662 -3.287244
Te 23.035370 13.162677 -3.287244
Te 19.745386 13.162677 0.002741
Te 19.745386 16.452662 3.292725
Te 23.035370 13.162677 3.292725
Te 19.745386 13.162677 6.582709
Cl -26.314393 -9.867212 -3.287244
Cl -26.314393 -9.867212 3.292725
Cl -26.314393 -3.287244 -9.867212
Cl -26.314393 -6.577228 -6.577228
Cl -26.314393 -3.287244 -3.287244
Cl -26.314393 -6.577228 0.002741
Cl -26.314393 -3.287244 3.292725
Cl -26.314393 -6.577228 6.582709
Cl -26.314393 -3.287244 9.872693
Cl -26.314393 3.292725 -9.867212
Cl -26.314393 0.002741 -6.577228
Cl -26.314393 3.292725 -3.287244
Cl -26.314393 0.002741 0.002741
Cl -26.314393 3.292725 3.292725
Cl -26.314393 0.002741 6.582709
Cl -26.314393 3.292725 9.872693
Cl -26.314393 6.582709 -6.577228
Cl -26.314393 9.872693 -3.287244
Cl -26.314393 6.582709 0.002741
Cl -26.314393 9.872693 3.292725
Cl -26.314393 6.582709 6.582709
Cl -9.864472 -26.317133 -3.287244
Cl -9.864472 -26.317133 3.292725
Cl -9.864472 -3.287244 -26.317133
Cl -9.864472 -3.287244 26.322614
Cl -9.864472 3.292725 -26.317133
Cl -9.864472 3.292725 26.322614
Cl -9.864472 26.322614 -3.287244
Cl -9.864472 26.322614 3.292725
Cl -3.284503 -26.317133 -9.867212
Cl -6.574487 -26.317133 -6.577228
Cl -3.284503 -26.317133 -3.287244
Cl -6.574487 -26.317133 0.002741
Cl -3.284503 -26.317133 3.292725
Cl -6.574487 -26.317133 6.582709
Cl -3.284503 -26.317133 9.872693
Cl -3.284503 -9.867212 -26.317133
Cl -3.284503 -9.867212 26.322614
Cl -6.574487 -6.577228 -26.317133
Cl -3.284503 -3.287244 -26.317133
Cl -6.574487 -6.577228 26.322614
Cl -3.284503 -3.287244 26.322614
Cl -6.574487 0.002741 -26.317133
Cl -3.284503 3.292725 -26.317133
Cl -6.574487 0.002741 26.322614
Cl -3.284503 3.292725 26.322614
Cl -6.574487 6.582709 -26.317133
Cl -3.284503 9.872693 -26.317133
Cl -6.574487 6.582709 26.322614
Cl -3.284503 9.872693 26.322614
Cl -3.284503 26.322614 -9.867212
Cl -6.574487 26.322614 -6.577228
Cl -3.284503 26.322614 -3.287244
Cl -6.574487 26.322614 0.002741
Cl -3.284503 26.322614 3.292725
Cl -6.574487 26.322614 6.582709
Cl -3.284503 26.322614 9.872693
Cl 3.295465 -26.317133 -9.867212
Cl 0.005481 -26.317133 -6.577228
Cl 3.295465 -26.317133 -3.287244
Cl 0.005481 -26.317133 0.002741
Cl 3.295465 -26.317133 3.292725
Cl 0.005481 -26.317133 6.582709
Cl 3.295465 -26.317133 9.872693
Cl 3.295465 -9.867212 -26.317133
Cl 3.295465 -9.867212 26.322614
Cl 0.005481 -6.577228 -26.317133
Cl 3.295465 -3.287244 -26.317133
Cl 0.005481 -6.577228 26.322614
Cl 3.295465 -3.287244 26.322614
Cl 0.005481 0.002741 -26.317133
Cl 3.295465 3.292725 -26.317133
Cl 0.005481 0.002741 26.322614
Cl 3.295465 3.292725 26.322614
Cl 0.005481 6.582709 -26.317133
Cl 3.295465 9.872693 -26.317133
Cl 0.005481 6.582709 26.322614
Cl 3.295465 9.872693 26.322614
Cl 3.295465 26.322614 -9.867212
Cl 0.005481 26.322614 -6.577228
Cl 3.295465 26.322614 -3.287244
Cl 0.005481 26.322614 0.002741
Cl 3.295465 26.322614 3.292725
Cl 0.005481 26.322614 6.582709
Cl 3.295465 26.322614 9.872693
Cl 6.585449 -26.317133 -6.577228
Cl 9.875434 -26.317133 -3.287244
Cl 6.585449 -26.317133 0.002741
Cl 9.875434 -26.317133 3.292725
Cl 6.585449 -26.317133 6.582709
Cl 6.585449 -6.577228 -26.317133
Cl 9.875434 -3.287244 -26.317133
Cl 6.585449 -6.577228 26.322614
Cl 9.875434 -3.287244 26.322614
Cl 6.585449 0.002741 -26.317133
Cl 9.875434 3.292725 -26.317133
Cl 6.585449 0.002741 26.322614
Cl 9.875434 3.292725 26.322614
Cl 6.585449 6.582709 -26.317133
Cl 6.585449 6.582709 26.322614
Cl 6.585449 26.322614 -6.577228
Cl 9.875434 26.322614 -3.287244
Cl 6.585449 26.322614 0.002741
Cl 9.875434 26.322614 3.292725
Cl 6.585449 26.322614 6.582709
Cl 26.325355 -9.867212 -3.287244
Cl 26.325355 -9.867212 3.292725
Cl 26.325355 -3.287244 -9.867212
Cl 26.325355 -6.577228 -6.577228
Cl 26.325355 -3.287244 -3.287244
Cl 26.325355 -6.577228 0.002741
Cl 26.325355 -3.287244 3.292725
Cl 26.325355 -6.577228 6.582709
Cl 26.325355 -3.287244 9.872693
Cl 26.325355 3.292725 -9.867212
Cl 26.325355 0.002741 -6.577228
Cl 26.325355 3.292725 -3.287244
Cl 26.325355 0.002741 0.002741
Cl 26.325355 3.292725 3.292725
Cl 26.325355 0.002741 6.582709
Cl 26.325355 3.292725 9.872693
Cl 26.325355 6.582709 -6.577228
Cl 26.325355 9.872693 -3.287244
Cl 26.325355 6.582709 0.002741
Cl 26.325355 9.872693 3.292725
Cl 26.325355 6.582709 6.582709
Cl -16.444440 -16.447181 9.872693
Cl -16.444440 9.872693 -16.447181
Cl 9.875434 -16.447181 -16.447181
Cl 9.875434 16.452662 16.452662
