3907
HgSe-Se-Hg1868Se1697Cl342-reconstructed
Hg -23.212144 -17.021891 -4.654815
Hg -23.212144 -17.021891 1.537837
Hg -23.212144 -17.021891 7.730489
Hg -23.212144 -13.925565 -7.751141
Hg -26.308470 -10.829239 -7.751141
Hg -26.308470 -13.925565 -4.654815
Hg -23.212144 -10.829239 -4.654815
Hg -23.212144 -13.925565 -1.558489
Hg -26.308470 -10.829239 -1.558489
Hg -26.308470 -13.925565 1.537837
Hg -23.212144 -10.829239 1.537837
Hg -23.212144 -13.925565 4.634163
Hg -26.308470 -10.829239 4.634163
Hg -26.308470 -13.925565 7.730489
Hg -23.212144 -10.829239 7.730489
Hg -26.308470 -10.829239 10.826815
Hg -23.212144 -10.829239 13.923141
Hg -23.212144 -4.636587 -17.040119
Hg -23.212144 -7.732913 -13.943793
Hg -26.308470 -4.636587 -13.943793
Hg -26.308470 -7.732913 -10.847467
Hg -23.212144 -4.636587 -10.847467
Hg -23.212144 -7.732913 -7.751141
Hg -26.308470 -4.636587 -7.751141
Hg -26.308470 -7.732913 -4.654815
Hg -23.212144 -4.636587 -4.654815
Hg -23.212144 -7.732913 -1.558489
Hg -26.308470 -4.636587 -1.558489
Hg -26.308470 -7.732913 1.537837
Hg -23.212144 -4.636587 1.537837
Hg -23.212144 -7.732913 4.634163
Hg -26.308470 -4.636587 4.634163
Hg -26.308470 -7.732913 7.730489
Hg -23.212144 -4.636587 7.730489
Hg -23.212144 -7.732913 10.826815
Hg -26.308470 -4.636587 10.826815
Hg -26.308470 -7.732913 13.923141
Hg -23.212144 -4.636587 13.923141
Hg -23.212144 -7.732913 17.019467
Hg -23.212144 1.556065 -17.040119
Hg -23.212144 -1.540261 -13.943793
Hg -26.308470 1.556065 -13.943793
Hg -26.308470 -1.540261 -10.847467
Hg -23.212144 1.556065 -10.847467
Hg -23.212144 -1.540261 -7.751141
Hg -26.308470 1.556065 -7.751141
Hg -26.308470 -1.540261 -4.654815
Hg -23.212144 1.556065 -4.654815
Hg -23.212144 -1.540261 -1.558489
Hg -26.308470 1.556065 -1.558489
Hg -26.308470 -1.540261 1.537837
Hg -23.212144 1.556065 1.537837
Hg -23.212144 -1.540261 4.634163
Hg -26.308470 1.556065 4.634163
Hg -26.308470 -1.540261 7.730489
Hg -23.212144 1.556065 7.730489
Hg -23.212144 -1.540261 10.826815
Hg -26.308470 1.556065 10.826815
Hg -26.308470 -1.540261 13.923141
Hg -23.212144 1.556065 13.923141
Hg -23.212144 -1.540261 17.019467
Hg -23.212144 7.748717 -17.040119
Hg -23.212144 4.652391 -13.943793
Hg -26.308470 7.748717 -13.943793
Hg -26.308470 4.652391 -10.847467
Hg -23.212144 7.748717 -10.847467
Hg -23.212144 4.652391 -7.751141
Hg -26.308470 7.748717 -7.751141
Hg -26.308470 4.652391 -4.654815
Hg -23.212144 7.748717 -4.654815
Hg -23.212144 4.652391 -1.558489
Hg -26.308470 7.748717 -1.558489
Hg -26.308470 4.652391 1.537837
Hg -23.212144 7.748717 1.537837
Hg -23.212144 4.652391 4.634163
Hg -26.308470 7.748717 4.634163
Hg -26.308470 4.652391 7.730489
Hg -23.212144 7.748717 7.730489
Hg -23.212144 4.652391 10.826815
Hg -26.308470 7.748717 10.826815
Hg -26.308470 4.652391 13.923141
Hg -23.212144 7.748717 13.923141
Hg -23.212144 4.652391 17.019467
Hg -23.212144 10.845043 -13.943793
Hg -26.308470 10.845043 -10.847467
Hg -23.212144 10.845043 -7.751141
Hg -26.308470 13.941369 -7.751141
Hg -26.308470 10.845043 -4.654815
Hg -23.212144 13.941369 -4.654815
Hg -23.212144 10.845043 -1.558489
Hg -26.308470 13.941369 -1.558489
Hg -26.308470 10.845043 1.537837
Hg -23.212144 13.941369 1.537837
Hg -23.212144 10.845043 4.634163
Hg -26.308470 13.941369 4.634163
Hg -26.308470 10.845043 7.730489
Hg -23.212144 13.941369 7.730489
Hg -23.212144 17.037695 -7.751141
Hg -23.212144 17.037695 -1.558489
Hg -23.212144 17.037695 4.634163
Hg -17.019492 -23.214543 -4.654815
Hg -17.019492 -23.214543 1.537837
Hg -17.019492 -23.214543 7.730489
Hg -17.019492 -17.021891 -10.847467
Hg -17.019492 -20.118217 -7.751141
Hg -20.115818 -20.118217 -4.654815
Hg -17.019492 -17.021891 -4.654815
Hg -17.019492 -20.118217 -1.558489
Hg -20.115818 -17.021891 -1.558489
Hg -20.115818 -20.118217 1.537837
Hg -17.019492 -17.021891 1.537837
Hg -17.019492 -20.118217 4.634163
Hg -20.115818 -17.021891 4.634163
Hg -20.115818 -20.118217 7.730489
Hg -17.019492 -17.021891 7.730489
Hg -17.019492 -20.118217 10.826815
Hg -20.115818 -17.021891 10.826815
Hg -17.019492 -10.829239 -17.040119
Hg -17.019492 -13.925565 -13.943793
Hg -20.115818 -10.829239 -13.943793
Hg -20.115818 -13.925565 -10.847467
Hg -17.019492 -10.829239 -10.847467
Hg -17.019492 -13.925565 -7.751141
Hg -20.115818 -10.829239 -7.751141
Hg -20.115818 -13.925565 -4.654815
Hg -17.019492 -10.829239 -4.654815
Hg -17.019492 -13.925565 -1.558489
Hg -20.115818 -10.829239 -1.558489
Hg -20.115818 -13.925565 1.537837
Hg -17.019492 -10.829239 1.537837
Hg -17.019492 -13.925565 4.634163
Hg -20.115818 -10.829239 4.634163
Hg -20.115818 -13.925565 7.730489
Hg -17.019492 -10.829239 7.730489
Hg -17.019492 -13.925565 10.826815
Hg -20.115818 -10.829239 10.826815
Hg -20.115818 -13.925565 13.923141
Hg -17.019492 -10.829239 13.923141
Hg -17.019492 -13.925565 17.019467
Hg -17.019492 -10.829239 20.115793
Hg -17.019492 -4.636587 -23.232771
Hg -17.019492 -7.732913 -20.136445
Hg -20.115818 -4.636587 -20.136445
Hg -17.019492 -4.636587 -17.040119
Hg -17.019492 -7.732913 -13.943793
Hg -20.115818 -4.636587 -13.943793
Hg -20.115818 -7.732913 -10.847467
Hg -17.019492 -4.636587 -10.847467
Hg -17.019492 -7.732913 -7.751141
Hg -20.115818 -4.636587 -7.751141
Hg -20.115818 -7.732913 -4.654815
Hg -17.019492 -4.636587 -4.654815
Hg -17.019492 -7.732913 -1.558489
Hg -20.115818 -4.636587 -1.558489
Hg -20.115818 -7.732913 1.537837
Hg -17.019492 -4.636587 1.537837
Hg -17.019492 -7.732913 4.634163
Hg -20.115818 -4.636587 4.634163
Hg -20.115818 -7.732913 7.730489
Hg -17.019492 -4.636587 7.730489
Hg -17.019492 -7.732913 10.826815
Hg -20.115818 -4.636587 10.826815
Hg -20.115818 -7.732913 13.923141
Hg -17.019492 -4.636587 13.923141
Hg -17.019492 -7.732913 17.019467
Hg -20.115818 -4.636587 17.019467
Hg -20.115818 -7.732913 20.115793
Hg -17.019492 -4.636587 20.115793
Hg -17.019492 -7.732913 23.212119
Hg -17.019492 1.556065 -23.232771
Hg -17.019492 -1.540261 -20.136445
Hg -20.115818 1.556065 -20.136445
Hg -20.115818 -1.540261 -17.040119
Hg -17.019492 1.556065 -17.040119
Hg -17.019492 -1.540261 -13.943793
Hg -20.115818 1.556065 -13.943793
Hg -20.115818 -1.540261 -10.847467
Hg -17.019492 1.556065 -10.847467
Hg -17.019492 -1.540261 -7.751141
Hg -20.115818 1.556065 -7.751141
Hg -20.115818 -1.540261 -4.654815
Hg -17.019492 1.556065 -4.654815
Hg -17.019492 -1.540261 -1.558489
Hg -20.115818 1.556065 -1.558489
Hg -20.115818 -1.540261 1.537837
Hg -17.019492 1.556065 1.537837
Hg -17.019492 -1.540261 4.634163
Hg -20.115818 1.556065 4.634163
Hg -20.115818 -1.540261 7.730489
Hg -17.019492 1.556065 7.730489
Hg -17.019492 -1.540261 10.826815
Hg -20.115818 1.556065 10.826815
Hg -20.115818 -1.540261 13.923141
Hg -17.019492 1.556065 13.923141
Hg -17.019492 -1.540261 17.019467
Hg -20.115818 1.556065 17.019467
Hg -20.115818 -1.540261 20.115793
Hg -17.019492 1.556065 20.115793
Hg -17.019492 -1.540261 23.212119
Hg -17.019492 7.748717 -23.232771
Hg -17.019492 4.652391 -20.136445
Hg -20.115818 7.748717 -20.136445
Hg -20.115818 4.652391 -17.040119
Hg -17.019492 7.748717 -17.040119
Hg -17.019492 4.652391 -13.943793
Hg -20.115818 7.748717 -13.943793
Hg -20.115818 4.652391 -10.847467
Hg -17.019492 7.748717 -10.847467
Hg -17.019492 4.652391 -7.751141
Hg -20.115818 7.748717 -7.751141
Hg -20.115818 4.652391 -4.654815
Hg -17.019492 7.748717 -4.654815
Hg -17.019492 4.652391 -1.558489
Hg -20.115818 7.748717 -1.558489
Hg -20.115818 4.652391 1.537837
Hg -17.019492 7.748717 1.537837
Hg -17.019492 4.652391 4.634163
Hg -20.115818 7.748717 4.634163
Hg -20.115818 4.652391 7.730489
Hg -17.019492 7.748717 7.730489
Hg -17.019492 4.652391 10.826815
Hg -20.115818 7.748717 10.826815
Hg -20.115818 4.652391 13.923141
Hg -17.019492 7.748717 13.923141
Hg -17.019492 4.652391 17.019467
Hg -20.115818 4.652391 20.115793
Hg -17.019492 7.748717 20.115793
Hg -17.019492 4.652391 23.212119
Hg -17.019492 10.845043 -20.136445
Hg -17.019492 13.941369 -17.040119
Hg -17.019492 10.845043 -13.943793
Hg -20.115818 13.941369 -13.943793
Hg -20.115818 10.845043 -10.847467
Hg -17.019492 13.941369 -10.847467
Hg -17.019492 10.845043 -7.751141
Hg -20.115818 13.941369 -7.751141
Hg -20.115818 10.845043 -4.654815
Hg -17.019492 13.941369 -4.654815
Hg -17.019492 10.845043 -1.558489
Hg -20.115818 13.941369 -1.558489
Hg -20.115818 10.845043 1.537837
Hg -17.019492 13.941369 1.537837
Hg -17.019492 10.845043 4.634163
Hg -20.115818 13.941369 4.634163
Hg -20.115818 10.845043 7.730489
Hg -17.019492 13.941369 7.730489
Hg -17.019492 10.845043 10.826815
Hg -20.115818 13.941369 10.826815
Hg -20.115818 10.845043 13.923141
Hg -17.019492 13.941369 13.923141
Hg -17.019492 10.845043 17.019467
Hg -20.115818 17.037695 -10.847467
Hg -17.019492 20.134021 -10.847467
Hg -17.019492 17.037695 -7.751141
Hg -20.115818 20.134021 -7.751141
Hg -20.115818 17.037695 -4.654815
Hg -17.019492 20.134021 -4.654815
Hg -17.019492 17.037695 -1.558489
Hg -20.115818 20.134021 -1.558489
Hg -20.115818 17.037695 1.537837
Hg -17.019492 20.134021 1.537837
Hg -17.019492 17.037695 4.634163
Hg -20.115818 20.134021 4.634163
Hg -17.019492 20.134021 7.730489
Hg -17.019492 17.037695 10.826815
Hg -17.019492 23.230347 -7.751141
Hg -17.019492 23.230347 -1.558489
Hg -17.019492 23.230347 4.634163
Hg -10.826840 -23.214543 -10.847467
Hg -10.826840 -26.310869 -7.751141
Hg -13.923166 -23.214543 -7.751141
Hg -13.923166 -26.310869 -4.654815
Hg -10.826840 -23.214543 -4.654815
Hg -10.826840 -26.310869 -1.558489
Hg -13.923166 -23.214543 -1.558489
Hg -13.923166 -26.310869 1.537837
Hg -10.826840 -23.214543 1.537837
Hg -10.826840 -26.310869 4.634163
Hg -13.923166 -23.214543 4.634163
Hg -13.923166 -26.310869 7.730489
Hg -10.826840 -23.214543 7.730489
Hg -10.826840 -26.310869 10.826815
Hg -10.826840 -23.214543 13.923141
Hg -10.826840 -17.021891 -17.040119
Hg -10.826840 -20.118217 -13.943793
Hg -13.923166 -17.021891 -13.943793
Hg -13.923166 -20.118217 -10.847467
Hg -10.826840 -17.021891 -10.847467
Hg -10.826840 -20.118217 -7.751141
Hg -13.923166 -17.021891 -7.751141
Hg -13.923166 -20.118217 -4.654815
Hg -10.826840 -17.021891 -4.654815
Hg -10.826840 -20.118217 -1.558489
Hg -13.923166 -17.021891 -1.558489
Hg -13.923166 -20.118217 1.537837
Hg -10.826840 -17.021891 1.537837
Hg -10.826840 -20.118217 4.634163
Hg -13.923166 -17.021891 4.634163
Hg -13.923166 -20.118217 7.730489
Hg -10.826840 -17.021891 7.730489
Hg -10.826840 -20.118217 10.826815
Hg -13.923166 -17.021891 10.826815
Hg -13.923166 -20.118217 13.923141
Hg -10.826840 -17.021891 13.923141
Hg -13.923166 -17.021891 17.019467
Hg -10.826840 -17.021891 20.115793
Hg -10.826840 -10.829239 -23.232771
Hg -10.826840 -13.925565 -20.136445
Hg -13.923166 -13.925565 -17.040119
Hg -10.826840 -10.829239 -17.040119
Hg -10.826840 -13.925565 -13.943793
Hg -13.923166 -10.829239 -13.943793
Hg -13.923166 -13.925565 -10.847467
Hg -10.826840 -10.829239 -10.847467
Hg -10.826840 -13.925565 -7.751141
Hg -13.923166 -10.829239 -7.751141
Hg -13.923166 -13.925565 -4.654815
Hg -10.826840 -10.829239 -4.654815
Hg -10.826840 -13.925565 -1.558489
Hg -13.923166 -10.829239 -1.558489
Hg -13.923166 -13.925565 1.537837
Hg -10.826840 -10.829239 1.537837
Hg -10.826840 -13.925565 4.634163
Hg -13.923166 -10.829239 4.634163
Hg -13.923166 -13.925565 7.730489
Hg -10.826840 -10.829239 7.730489
Hg -10.826840 -13.925565 10.826815
Hg -13.923166 -10.829239 10.826815
Hg -13.923166 -13.925565 13.923141
Hg -10.826840 -10.829239 13.923141
Hg -10.826840 -13.925565 17.019467
Hg -13.923166 -10.829239 17.019467
Hg -10.826840 -10.829239 20.115793
Hg -10.826840 -13.925565 23.212119
Hg -13.923166 -10.829239 23.212119
Hg -10.826840 -10.829239 26.308445
Hg -10.826840 -7.732913 -26.329097
Hg -13.923166 -4.636587 -26.329097
Hg -13.923166 -7.732913 -23.232771
Hg -10.826840 -4.636587 -23.232771
Hg -10.826840 -7.732913 -20.136445
Hg -13.923166 -4.636587 -20.136445
Hg -13.923166 -7.732913 -17.040119
Hg -10.826840 -4.636587 -17.040119
Hg -10.826840 -7.732913 -13.943793
Hg -13.923166 -4.636587 -13.943793
Hg -13.923166 -7.732913 -10.847467
Hg -10.826840 -4.636587 -10.847467
Hg -10.826840 -7.732913 -7.751141
Hg -13.923166 -4.636587 -7.751141
Hg -13.923166 -7.732913 -4.654815
Hg -10.826840 -4.636587 -4.654815
Hg -10.826840 -7.732913 -1.558489
Hg -13.923166 -4.636587 -1.558489
Hg -13.923166 -7.732913 1.537837
Hg -10.826840 -4.636587 1.537837
Hg -10.826840 -7.732913 4.634163
Hg -13.923166 -4.636587 4.634163
Hg -13.923166 -7.732913 7.730489
Hg -10.826840 -4.636587 7.730489
Hg -10.826840 -7.732913 10.826815
Hg -13.923166 -4.636587 10.826815
Hg -13.923166 -7.732913 13.923141
Hg -10.826840 -4.636587 13.923141
Hg -10.826840 -7.732913 17.019467
Hg -13.923166 -4.636587 17.019467
Hg -13.923166 -7.732913 20.115793
Hg -10.826840 -4.636587 20.115793
Hg -10.826840 -7.732913 23.212119
Hg -13.923166 -4.636587 23.212119
Hg -13.923166 -7.732913 26.308445
Hg -10.826840 -4.636587 26.308445
Hg -10.826840 -1.540261 -26.329097
Hg -13.923166 1.556065 -26.329097
Hg -13.923166 -1.540261 -23.232771
Hg -10.826840 1.556065 -23.232771
Hg -10.826840 -1.540261 -20.136445
Hg -13.923166 1.556065 -20.136445
Hg -13.923166 -1.540261 -17.040119
Hg -10.826840 1.556065 -17.040119
Hg -10.826840 -1.540261 -13.943793
Hg -13.923166 1.556065 -13.943793
Hg -13.923166 -1.540261 -10.847467
Hg -10.826840 1.556065 -10.847467
Hg -10.826840 -1.540261 -7.751141
Hg -13.923166 1.556065 -7.751141
Hg -13.923166 -1.540261 -4.654815
Hg -10.826840 1.556065 -4.654815
Hg -10.826840 -1.540261 -1.558489
Hg -13.923166 1.556065 -1.558489
Hg -13.923166 -1.540261 1.537837
Hg -10.826840 1.556065 1.537837
Hg -10.826840 -1.540261 4.634163
Hg -13.923166 1.556065 4.634163
Hg -13.923166 -1.540261 7.730489
Hg -10.826840 1.556065 7.730489
Hg -10.826840 -1.540261 10.826815
Hg -13.923166 1.556065 10.826815
Hg -13.923166 -1.540261 13.923141
Hg -10.826840 1.556065 13.923141
Hg -10.826840 -1.540261 17.019467
Hg -13.923166 1.556065 17.019467
Hg -13.923166 -1.540261 20.115793
Hg -10.826840 1.556065 20.115793
Hg -10.826840 -1.540261 23.212119
Hg -13.923166 1.556065 23.212119
Hg -13.923166 -1.540261 26.308445
Hg -10.826840 1.556065 26.308445
Hg -10.826840 4.652391 -26.329097
Hg -13.923166 7.748717 -26.329097
Hg -13.923166 4.652391 -23.232771
Hg -10.826840 7.748717 -23.232771
Hg -10.826840 4.652391 -20.136445
Hg -13.923166 7.748717 -20.136445
Hg -13.923166 4.652391 -17.040119
Hg -10.826840 7.748717 -17.040119
Hg -10.826840 4.652391 -13.943793
Hg -13.923166 7.748717 -13.943793
Hg -13.923166 4.652391 -10.847467
Hg -10.826840 7.748717 -10.847467
Hg -10.826840 4.652391 -7.751141
Hg -13.923166 7.748717 -7.751141
Hg -13.923166 4.652391 -4.654815
Hg -10.826840 7.748717 -4.654815
Hg -10.826840 4.652391 -1.558489
Hg -13.923166 7.748717 -1.558489
Hg -13.923166 4.652391 1.537837
Hg -10.826840 7.748717 1.537837
Hg -10.826840 4.652391 4.634163
Hg -13.923166 7.748717 4.634163
Hg -13.923166 4.652391 7.730489
Hg -10.826840 7.748717 7.730489
Hg -10.826840 4.652391 10.826815
Hg -13.923166 7.748717 10.826815
Hg -13.923166 4.652391 13.923141
Hg -10.826840 7.748717 13.923141
Hg -10.826840 4.652391 17.019467
Hg -13.923166 7.748717 17.019467
Hg -13.923166 4.652391 20.115793
Hg -10.826840 7.748717 20.115793
Hg -10.826840 4.652391 23.212119
Hg -13.923166 7.748717 23.212119
Hg -13.923166 4.652391 26.308445
Hg -10.826840 7.748717 26.308445
Hg -10.826840 10.845043 -26.329097
Hg -13.923166 10.845043 -23.232771
Hg -10.826840 13.941369 -23.232771
Hg -10.826840 10.845043 -20.136445
Hg -13.923166 10.845043 -17.040119
Hg -10.826840 13.941369 -17.040119
Hg -10.826840 10.845043 -13.943793
Hg -13.923166 13.941369 -13.943793
Hg -13.923166 10.845043 -10.847467
Hg -10.826840 13.941369 -10.847467
Hg -10.826840 10.845043 -7.751141
Hg -13.923166 13.941369 -7.751141
Hg -13.923166 10.845043 -4.654815
Hg -10.826840 13.941369 -4.654815
Hg -10.826840 10.845043 -1.558489
Hg -13.923166 13.941369 -1.558489
Hg -13.923166 10.845043 1.537837
Hg -10.826840 13.941369 1.537837
Hg -10.826840 10.845043 4.634163
Hg -13.923166 13.941369 4.634163
Hg -13.923166 10.845043 7.730489
Hg -10.826840 13.941369 7.730489
Hg -10.826840 10.845043 10.826815
Hg -13.923166 13.941369 10.826815
Hg -13.923166 10.845043 13.923141
Hg -10.826840 13.941369 13.923141
Hg -10.826840 10.845043 17.019467
Hg -13.923166 13.941369 17.019467
Hg -10.826840 13.941369 20.115793
Hg -10.826840 10.845043 23.212119
Hg -10.826840 17.037695 -20.136445
Hg -13.923166 17.037695 -17.040119
Hg -10.826840 17.037695 -13.943793
Hg -13.923166 20.134021 -13.943793
Hg -13.923166 17.037695 -10.847467
Hg -10.826840 20.134021 -10.847467
Hg -10.826840 17.037695 -7.751141
Hg -13.923166 20.134021 -7.751141
Hg -13.923166 17.037695 -4.654815
Hg -10.826840 20.134021 -4.654815
Hg -10.826840 17.037695 -1.558489
Hg -13.923166 20.134021 -1.558489
Hg -13.923166 17.037695 1.537837
Hg -10.826840 20.134021 1.537837
Hg -10.826840 17.037695 4.634163
Hg -13.923166 20.134021 4.634163
Hg -13.923166 17.037695 7.730489
Hg -10.826840 20.134021 7.730489
Hg -10.826840 17.037695 10.826815
Hg -13.923166 20.134021 10.826815
Hg -13.923166 17.037695 13.923141
Hg -10.826840 20.134021 13.923141
Hg -10.826840 17.037695 17.019467
Hg -10.826840 23.230347 -13.943793
Hg -10.826840 26.326673 -10.847467
Hg -10.826840 23.230347 -7.751141
Hg -13.923166 26.326673 -7.751141
Hg -13.923166 23.230347 -4.654815
Hg -10.826840 26.326673 -4.654815
Hg -10.826840 23.230347 -1.558489
Hg -13.923166 26.326673 -1.558489
Hg -13.923166 23.230347 1.537837
Hg -10.826840 26.326673 1.537837
Hg -10.826840 23.230347 4.634163
Hg -13.923166 26.326673 4.634163
Hg -13.923166 23.230347 7.730489
Hg -10.826840 26.326673 7.730489
Hg -10.826840 23.230347 10.826815
Hg -4.634188 -23.214543 -17.040119
Hg -4.634188 -26.310869 -13.943793
Hg -7.730514 -26.310869 -10.847467
Hg -4.634188 -23.214543 -10.847467
Hg -4.634188 -26.310869 -7.751141
Hg -7.730514 -23.214543 -7.751141
Hg -7.730514 -26.310869 -4.654815
Hg -4.634188 -23.214543 -4.654815
Hg -4.634188 -26.310869 -1.558489
Hg -7.730514 -23.214543 -1.558489
Hg -7.730514 -26.310869 1.537837
Hg -4.634188 -23.214543 1.537837
Hg -4.634188 -26.310869 4.634163
Hg -7.730514 -23.214543 4.634163
Hg -7.730514 -26.310869 7.730489
Hg -4.634188 -23.214543 7.730489
Hg -4.634188 -26.310869 10.826815
Hg -7.730514 -23.214543 10.826815
Hg -7.730514 -26.310869 13.923141
Hg -4.634188 -23.214543 13.923141
Hg -7.730514 -23.214543 17.019467
Hg -4.634188 -17.021891 -23.232771
Hg -4.634188 -20.118217 -20.136445
Hg -7.730514 -17.021891 -20.136445
Hg -7.730514 -20.118217 -17.040119
Hg -4.634188 -17.021891 -17.040119
Hg -4.634188 -20.118217 -13.943793
Hg -7.730514 -17.021891 -13.943793
Hg -7.730514 -20.118217 -10.847467
Hg -4.634188 -17.021891 -10.847467
Hg -4.634188 -20.118217 -7.751141
Hg -7.730514 -17.021891 -7.751141
Hg -7.730514 -20.118217 -4.654815
Hg -4.634188 -17.021891 -4.654815
Hg -4.634188 -20.118217 -1.558489
Hg -7.730514 -17.021891 -1.558489
Hg -7.730514 -20.118217 1.537837
Hg -4.634188 -17.021891 1.537837
Hg -4.634188 -20.118217 4.634163
Hg -7.730514 -17.021891 4.634163
Hg -7.730514 -20.118217 7.730489
Hg -4.634188 -17.021891 7.730489
Hg -4.634188 -20.118217 10.826815
Hg -7.730514 -17.021891 10.826815
Hg -7.730514 -20.118217 13.923141
Hg -4.634188 -17.021891 13.923141
Hg -4.634188 -20.118217 17.019467
Hg -7.730514 -17.021891 17.019467
Hg -7.730514 -20.118217 20.115793
Hg -4.634188 -17.021891 20.115793
Hg -7.730514 -17.021891 23.212119
Hg -4.634188 -13.925565 -26.329097
Hg -7.730514 -10.829239 -26.329097
Hg -4.634188 -10.829239 -23.232771
Hg -4.634188 -13.925565 -20.136445
Hg -7.730514 -10.829239 -20.136445
Hg -7.730514 -13.925565 -17.040119
Hg -4.634188 -10.829239 -17.040119
Hg -4.634188 -13.925565 -13.943793
Hg -7.730514 -10.829239 -13.943793
Hg -7.730514 -13.925565 -10.847467
Hg -4.634188 -10.829239 -10.847467
Hg -4.634188 -13.925565 -7.751141
Hg -7.730514 -10.829239 -7.751141
Hg -7.730514 -13.925565 -4.654815
Hg -4.634188 -10.829239 -4.654815
Hg -4.634188 -13.925565 -1.558489
Hg -7.730514 -10.829239 -1.558489
Hg -7.730514 -13.925565 1.537837
Hg -4.634188 -10.829239 1.537837
Hg -4.634188 -13.925565 4.634163
Hg -7.730514 -10.829239 4.634163
Hg -7.730514 -13.925565 7.730489
Hg -4.634188 -10.829239 7.730489
Hg -4.634188 -13.925565 10.826815
Hg -7.730514 -10.829239 10.826815
Hg -7.730514 -13.925565 13.923141
Hg -4.634188 -10.829239 13.923141
Hg -4.634188 -13.925565 17.019467
Hg -7.730514 -10.829239 17.019467
Hg -7.730514 -13.925565 20.115793
Hg -4.634188 -10.829239 20.115793
Hg -4.634188 -13.925565 23.212119
Hg -7.730514 -10.829239 23.212119
Hg -7.730514 -13.925565 26.308445
Hg -4.634188 -10.829239 26.308445
Hg -4.634188 -7.732913 -26.329097
Hg -7.730514 -4.636587 -26.329097
Hg -7.730514 -7.732913 -23.232771
Hg -4.634188 -4.636587 -23.232771
Hg -4.634188 -7.732913 -20.136445
Hg -7.730514 -4.636587 -20.136445
Hg -7.730514 -7.732913 -17.040119
Hg -4.634188 -4.636587 -17.040119
Hg -4.634188 -7.732913 -13.943793
Hg -7.730514 -4.636587 -13.943793
Hg -7.730514 -7.732913 -10.847467
Hg -4.634188 -4.636587 -10.847467
Hg -4.634188 -7.732913 -7.751141
Hg -7.730514 -4.636587 -7.751141
Hg -7.730514 -7.732913 -4.654815
Hg -4.634188 -4.636587 -4.654815
Hg -4.634188 -7.732913 -1.558489
Hg -7.730514 -4.636587 -1.558489
Hg -7.730514 -7.732913 1.537837
Hg -4.634188 -4.636587 1.537837
Hg -4.634188 -7.732913 4.634163
Hg -7.730514 -4.636587 4.634163
Hg -7.730514 -7.732913 7.730489
Hg -4.634188 -4.636587 7.730489
Hg -4.634188 -7.732913 10.826815
Hg -7.730514 -4.636587 10.826815
Hg -7.730514 -7.732913 13.923141
Hg -4.634188 -4.636587 13.923141
Hg -4.634188 -7.732913 17.019467
Hg -7.730514 -4.636587 17.019467
Hg -7.730514 -7.732913 20.115793
Hg -4.634188 -4.636587 20.115793
Hg -4.634188 -7.732913 23.212119
Hg -7.730514 -4.636587 23.212119
Hg -7.730514 -7.732913 26.308445
Hg -4.634188 -4.636587 26.308445
Hg -4.634188 -1.540261 -26.329097
Hg -7.730514 1.556065 -26.329097
Hg -7.730514 -1.540261 -23.232771
Hg -4.634188 1.556065 -23.232771
Hg -4.634188 -1.540261 -20.136445
Hg -7.730514 1.556065 -20.136445
Hg -7.730514 -1.540261 -17.040119
Hg -4.634188 1.556065 -17.040119
Hg -4.634188 -1.540261 -13.943793
Hg -7.730514 1.556065 -13.943793
Hg -7.730514 -1.540261 -10.847467
Hg -4.634188 1.556065 -10.847467
Hg -4.634188 -1.540261 -7.751141
Hg -7.730514 1.556065 -7.751141
Hg -7.730514 -1.540261 -4.654815
Hg -4.634188 1.556065 -4.654815
Hg -4.634188 -1.540261 -1.558489
Hg -7.730514 1.556065 -1.558489
Hg -7.730514 -1.540261 1.537837
Hg -4.634188 1.556065 1.537837
Hg -4.634188 -1.540261 4.634163
Hg -7.730514 1.556065 4.634163
Hg -7.730514 -1.540261 7.730489
Hg -4.634188 1.556065 7.730489
Hg -4.634188 -1.540261 10.826815
Hg -7.730514 1.556065 10.826815
Hg -7.730514 -1.540261 13.923141
Hg -4.634188 1.556065 13.923141
Hg -4.634188 -1.540261 17.019467
Hg -7.730514 1.556065 17.019467
Hg -7.730514 -1.540261 20.115793
Hg -4.634188 1.556065 20.115793
Hg -4.634188 -1.540261 23.212119
Hg -7.730514 1.556065 23.212119
Hg -7.730514 -1.540261 26.308445
Hg -4.634188 1.556065 26.308445
Hg -4.634188 4.652391 -26.329097
Hg -7.730514 7.748717 -26.329097
Hg -7.730514 4.652391 -23.232771
Hg -4.634188 7.748717 -23.232771
Hg -4.634188 4.652391 -20.136445
Hg -7.730514 7.748717 -20.136445
Hg -7.730514 4.652391 -17.040119
Hg -4.634188 7.748717 -17.040119
Hg -4.634188 4.652391 -13.943793
Hg -7.730514 7.748717 -13.943793
Hg -7.730514 4.652391 -10.847467
Hg -4.634188 7.748717 -10.847467
Hg -4.634188 4.652391 -7.751141
Hg -7.730514 7.748717 -7.751141
Hg -7.730514 4.652391 -4.654815
Hg -4.634188 7.748717 -4.654815
Hg -4.634188 4.652391 -1.558489
Hg -7.730514 7.748717 -1.558489
Hg -7.730514 4.652391 1.537837
Hg -4.634188 7.748717 1.537837
Hg -4.634188 4.652391 4.634163
Hg -7.730514 7.748717 4.634163
Hg -7.730514 4.652391 7.730489
Hg -4.634188 7.748717 7.730489
Hg -4.634188 4.652391 10.826815
Hg -7.730514 7.748717 10.826815
Hg -7.730514 4.652391 13.923141
Hg -4.634188 7.748717 13.923141
Hg -4.634188 4.652391 17.019467
Hg -7.730514 7.748717 17.019467
Hg -7.730514 4.652391 20.115793
Hg -4.634188 7.748717 20.115793
Hg -4.634188 4.652391 23.212119
Hg -7.730514 7.748717 23.212119
Hg -7.730514 4.652391 26.308445
Hg -4.634188 7.748717 26.308445
Hg -4.634188 10.845043 -26.329097
Hg -7.730514 13.941369 -26.329097
Hg -7.730514 10.845043 -23.232771
Hg -4.634188 13.941369 -23.232771
Hg -4.634188 10.845043 -20.136445
Hg -7.730514 13.941369 -20.136445
Hg -7.730514 10.845043 -17.040119
Hg -4.634188 13.941369 -17.040119
Hg -4.634188 10.845043 -13.943793
Hg -7.730514 13.941369 -13.943793
Hg -7.730514 10.845043 -10.847467
Hg -4.634188 13.941369 -10.847467
Hg -4.634188 10.845043 -7.751141
Hg -7.730514 13.941369 -7.751141
Hg -7.730514 10.845043 -4.654815
Hg -4.634188 13.941369 -4.654815
Hg -4.634188 10.845043 -1.558489
Hg -7.730514 13.941369 -1.558489
Hg -7.730514 10.845043 1.537837
Hg -4.634188 13.941369 1.537837
Hg -4.634188 10.845043 4.634163
Hg -7.730514 13.941369 4.634163
Hg -7.730514 10.845043 7.730489
Hg -4.634188 13.941369 7.730489
Hg -4.634188 10.845043 10.826815
Hg -7.730514 13.941369 10.826815
Hg -7.730514 10.845043 13.923141
Hg -4.634188 13.941369 13.923141
Hg -4.634188 10.845043 17.019467
Hg -7.730514 13.941369 17.019467
Hg -7.730514 10.845043 20.115793
Hg -4.634188 13.941369 20.115793
Hg -4.634188 10.845043 23.212119
Hg -7.730514 10.845043 26.308445
Hg -4.634188 13.941369 26.308445
Hg -7.730514 17.037695 -23.232771
Hg -4.634188 17.037695 -20.136445
Hg -7.730514 20.134021 -20.136445
Hg -7.730514 17.037695 -17.040119
Hg -4.634188 20.134021 -17.040119
Hg -4.634188 17.037695 -13.943793
Hg -7.730514 20.134021 -13.943793
Hg -7.730514 17.037695 -10.847467
Hg -4.634188 20.134021 -10.847467
Hg -4.634188 17.037695 -7.751141
Hg -7.730514 20.134021 -7.751141
Hg -7.730514 17.037695 -4.654815
Hg -4.634188 20.134021 -4.654815
Hg -4.634188 17.037695 -1.558489
Hg -7.730514 20.134021 -1.558489
Hg -7.730514 17.037695 1.537837
Hg -4.634188 20.134021 1.537837
Hg -4.634188 17.037695 4.634163
Hg -7.730514 20.134021 4.634163
Hg -7.730514 17.037695 7.730489
Hg -4.634188 20.134021 7.730489
Hg -4.634188 17.037695 10.826815
Hg -7.730514 20.134021 10.826815
Hg -7.730514 17.037695 13.923141
Hg -4.634188 20.134021 13.923141
Hg -4.634188 17.037695 17.019467
Hg -7.730514 20.134021 17.019467
Hg -7.730514 17.037695 20.115793
Hg -4.634188 20.134021 20.115793
Hg -4.634188 17.037695 23.212119
Hg -7.730514 23.230347 -17.040119
Hg -4.634188 23.230347 -13.943793
Hg -7.730514 26.326673 -13.943793
Hg -7.730514 23.230347 -10.847467
Hg -4.634188 26.326673 -10.847467
Hg -4.634188 23.230347 -7.751141
Hg -7.730514 26.326673 -7.751141
Hg -7.730514 23.230347 -4.654815
Hg -4.634188 26.326673 -4.654815
Hg -4.634188 23.230347 -1.558489
Hg -7.730514 26.326673 -1.558489
Hg -7.730514 23.230347 1.537837
Hg -4.634188 26.326673 1.537837
Hg -4.634188 23.230347 4.634163
Hg -7.730514 26.326673 4.634163
Hg -7.730514 23.230347 7.730489
Hg -4.634188 26.326673 7.730489
Hg -4.634188 23.230347 10.826815
Hg -7.730514 26.326673 10.826815
Hg -4.634188 26.326673 13.923141
Hg -4.634188 23.230347 17.019467
Hg 1.558464 -23.214543 -17.040119
Hg 1.558464 -26.310869 -13.943793
Hg -1.537862 -23.214543 -13.943793
Hg -1.537862 -26.310869 -10.847467
Hg 1.558464 -23.214543 -10.847467
Hg 1.558464 -26.310869 -7.751141
Hg -1.537862 -23.214543 -7.751141
Hg -1.537862 -26.310869 -4.654815
Hg 1.558464 -23.214543 -4.654815
Hg 1.558464 -26.310869 -1.558489
Hg -1.537862 -23.214543 -1.558489
Hg -1.537862 -26.310869 1.537837
Hg 1.558464 -23.214543 1.537837
Hg 1.558464 -26.310869 4.634163
Hg -1.537862 -23.214543 4.634163
Hg -1.537862 -26.310869 7.730489
Hg 1.558464 -23.214543 7.730489
Hg 1.558464 -26.310869 10.826815
Hg -1.537862 -23.214543 10.826815
Hg -1.537862 -26.310869 13.923141
Hg 1.558464 -23.214543 13.923141
Hg -1.537862 -23.214543 17.019467
Hg 1.558464 -17.021891 -23.232771
Hg 1.558464 -20.118217 -20.136445
Hg -1.537862 -17.021891 -20.136445
Hg -1.537862 -20.118217 -17.040119
Hg 1.558464 -17.021891 -17.040119
Hg 1.558464 -20.118217 -13.943793
Hg -1.537862 -17.021891 -13.943793
Hg -1.537862 -20.118217 -10.847467
Hg 1.558464 -17.021891 -10.847467
Hg 1.558464 -20.118217 -7.751141
Hg -1.537862 -17.021891 -7.751141
Hg -1.537862 -20.118217 -4.654815
Hg 1.558464 -17.021891 -4.654815
Hg 1.558464 -20.118217 -1.558489
Hg -1.537862 -17.021891 -1.558489
Hg -1.537862 -20.118217 1.537837
Hg 1.558464 -17.021891 1.537837
Hg 1.558464 -20.118217 4.634163
Hg -1.537862 -17.021891 4.634163
Hg -1.537862 -20.118217 7.730489
Hg 1.558464 -17.021891 7.730489
Hg 1.558464 -20.118217 10.826815
Hg -1.537862 -17.021891 10.826815
Hg -1.537862 -20.118217 13.923141
Hg 1.558464 -17.021891 13.923141
Hg 1.558464 -20.118217 17.019467
Hg -1.537862 -17.021891 17.019467
Hg -1.537862 -20.118217 20.115793
Hg 1.558464 -17.021891 20.115793
Hg -1.537862 -17.021891 23.212119
Hg 1.558464 -13.925565 -26.329097
Hg -1.537862 -10.829239 -26.329097
Hg -1.537862 -13.925565 -23.232771
Hg 1.558464 -10.829239 -23.232771
Hg 1.558464 -13.925565 -20.136445
Hg -1.537862 -10.829239 -20.136445
Hg -1.537862 -13.925565 -17.040119
Hg 1.558464 -10.829239 -17.040119
Hg 1.558464 -13.925565 -13.943793
Hg -1.537862 -10.829239 -13.943793
Hg -1.537862 -13.925565 -10.847467
Hg 1.558464 -10.829239 -10.847467
Hg 1.558464 -13.925565 -7.751141
Hg -1.537862 -10.829239 -7.751141
Hg -1.537862 -13.925565 -4.654815
Hg 1.558464 -10.829239 -4.654815
Hg 1.558464 -13.925565 -1.558489
Hg -1.537862 -10.829239 -1.558489
Hg -1.537862 -13.925565 1.537837
Hg 1.558464 -10.829239 1.537837
Hg 1.558464 -13.925565 4.634163
Hg -1.537862 -10.829239 4.634163
Hg -1.537862 -13.925565 7.730489
Hg 1.558464 -10.829239 7.730489
Hg 1.558464 -13.925565 10.826815
Hg -1.537862 -10.829239 10.826815
Hg -1.537862 -13.925565 13.923141
Hg 1.558464 -10.829239 13.923141
Hg 1.558464 -13.925565 17.019467
Hg -1.537862 -10.829239 17.019467
Hg -1.537862 -13.925565 20.115793
Hg 1.558464 -10.829239 20.115793
Hg 1.558464 -13.925565 23.212119
Hg -1.537862 -10.829239 23.212119
Hg -1.537862 -13.925565 26.308445
Hg 1.558464 -10.829239 26.308445
Hg 1.558464 -7.732913 -26.329097
Hg -1.537862 -4.636587 -26.329097
Hg -1.537862 -7.732913 -23.232771
Hg 1.558464 -4.636587 -23.232771
Hg 1.558464 -7.732913 -20.136445
Hg -1.537862 -4.636587 -20.136445
Hg -1.537862 -7.732913 -17.040119
Hg 1.558464 -4.636587 -17.040119
Hg 1.558464 -7.732913 -13.943793
Hg -1.537862 -4.636587 -13.943793
Hg -1.537862 -7.732913 -10.847467
Hg 1.558464 -4.636587 -10.847467
Hg 1.558464 -7.732913 -7.751141
Hg -1.537862 -4.636587 -7.751141
Hg -1.537862 -7.732913 -4.654815
Hg 1.558464 -4.636587 -4.654815
Hg 1.558464 -7.732913 -1.558489
Hg -1.537862 -4.636587 -1.558489
Hg -1.537862 -7.732913 1.537837
Hg 1.558464 -4.636587 1.537837
Hg 1.558464 -7.732913 4.634163
Hg -1.537862 -4.636587 4.634163
Hg -1.537862 -7.732913 7.730489
Hg 1.558464 -4.636587 7.730489
Hg 1.558464 -7.732913 10.826815
Hg -1.537862 -4.636587 10.826815
Hg -1.537862 -7.732913 13.923141
Hg 1.558464 -4.636587 13.923141
Hg 1.558464 -7.732913 17.019467
Hg -1.537862 -4.636587 17.019467
Hg -1.537862 -7.732913 20.115793
Hg 1.558464 -4.636587 20.115793
Hg 1.558464 -7.732913 23.212119
Hg -1.537862 -4.636587 23.212119
Hg -1.537862 -7.732913 26.308445
Hg 1.558464 -4.636587 26.308445
Hg 1.558464 -1.540261 -26.329097
Hg -1.537862 1.556065 -26.329097
Hg -1.537862 -1.540261 -23.232771
Hg 1.558464 1.556065 -23.232771
Hg 1.558464 -1.540261 -20.136445
Hg -1.537862 1.556065 -20.136445
Hg -1.537862 -1.540261 -17.040119
Hg 1.558464 1.556065 -17.040119
Hg 1.558464 -1.540261 -13.943793
Hg -1.537862 1.556065 -13.943793
Hg -1.537862 -1.540261 -10.847467
Hg 1.558464 1.556065 -10.847467
Hg 1.558464 -1.540261 -7.751141
Hg -1.537862 1.556065 -7.751141
Hg -1.537862 -1.540261 -4.654815
Hg 1.558464 1.556065 -4.654815
Hg 1.558464 -1.540261 -1.558489
Hg -1.537862 1.556065 -1.558489
Hg -1.537862 -1.540261 1.537837
Hg 1.558464 1.556065 1.537837
Hg 1.558464 -1.540261 4.634163
Hg -1.537862 1.556065 4.634163
Hg -1.537862 -1.540261 7.730489
Hg 1.558464 1.556065 7.730489
Hg 1.558464 -1.540261 10.826815
Hg -1.537862 1.556065 10.826815
Hg -1.537862 -1.540261 13.923141
Hg 1.558464 1.556065 13.923141
Hg 1.558464 -1.540261 17.019467
Hg -1.537862 1.556065 17.019467
Hg -1.537862 -1.540261 20.115793
Hg 1.558464 1.556065 20.115793
Hg 1.558464 -1.540261 23.212119
Hg -1.537862 1.556065 23.212119
Hg -1.537862 -1.540261 26.308445
Hg 1.558464 1.556065 26.308445
Hg 1.558464 4.652391 -26.329097
Hg -1.537862 7.748717 -26.329097
Hg -1.537862 4.652391 -23.232771
Hg 1.558464 7.748717 -23.232771
Hg 1.558464 4.652391 -20.136445
Hg -1.537862 7.748717 -20.136445
Hg -1.537862 4.652391 -17.040119
Hg 1.558464 7.748717 -17.040119
Hg 1.558464 4.652391 -13.943793
Hg -1.537862 7.748717 -13.943793
Hg -1.537862 4.652391 -10.847467
Hg 1.558464 7.748717 -10.847467
Hg 1.558464 4.652391 -7.751141
Hg -1.537862 7.748717 -7.751141
Hg -1.537862 4.652391 -4.654815
Hg 1.558464 7.748717 -4.654815
Hg 1.558464 4.652391 -1.558489
Hg -1.537862 7.748717 -1.558489
Hg -1.537862 4.652391 1.537837
Hg 1.558464 7.748717 1.537837
Hg 1.558464 4.652391 4.634163
Hg -1.537862 7.748717 4.634163
Hg -1.537862 4.652391 7.730489
Hg 1.558464 7.748717 7.730489
Hg 1.558464 4.652391 10.826815
Hg -1.537862 7.748717 10.826815
Hg -1.537862 4.652391 13.923141
Hg 1.558464 7.748717 13.923141
Hg 1.558464 4.652391 17.019467
Hg -1.537862 7.748717 17.019467
Hg -1.537862 4.652391 20.115793
Hg 1.558464 7.748717 20.115793
Hg 1.558464 4.652391 23.212119
Hg -1.537862 7.748717 23.212119
Hg -1.537862 4.652391 26.308445
Hg 1.558464 7.748717 26.308445
Hg 1.558464 10.845043 -26.329097
Hg -1.537862 13.941369 -26.329097
Hg -1.537862 10.845043 -23.232771
Hg 1.558464 13.941369 -23.232771
Hg 1.558464 10.845043 -20.136445
Hg -1.537862 13.941369 -20.136445
Hg -1.537862 10.845043 -17.040119
Hg 1.558464 13.941369 -17.040119
Hg 1.558464 10.845043 -13.943793
Hg -1.537862 13.941369 -13.943793
Hg -1.537862 10.845043 -10.847467
Hg 1.558464 13.941369 -10.847467
Hg 1.558464 10.845043 -7.751141
Hg -1.537862 13.941369 -7.751141
Hg -1.537862 10.845043 -4.654815
Hg 1.558464 13.941369 -4.654815
Hg 1.558464 10.845043 -1.558489
Hg -1.537862 13.941369 -1.558489
Hg -1.537862 10.845043 1.537837
Hg 1.558464 13.941369 1.537837
Hg 1.558464 10.845043 4.634163
Hg -1.537862 13.941369 4.634163
Hg -1.537862 10.845043 7.730489
Hg 1.558464 13.941369 7.730489
Hg 1.558464 10.845043 10.826815
Hg -1.537862 13.941369 10.826815
Hg -1.537862 10.845043 13.923141
Hg 1.558464 13.941369 13.923141
Hg 1.558464 10.845043 17.019467
Hg -1.537862 13.941369 17.019467
Hg -1.537862 10.845043 20.115793
Hg 1.558464 13.941369 20.115793
Hg 1.558464 10.845043 23.212119
Hg -1.537862 13.941369 23.212119
Hg -1.537862 10.845043 26.308445
Hg 1.558464 13.941369 26.308445
Hg -1.537862 17.037695 -23.232771
Hg 1.558464 17.037695 -20.136445
Hg -1.537862 20.134021 -20.136445
Hg -1.537862 17.037695 -17.040119
Hg 1.558464 20.134021 -17.040119
Hg 1.558464 17.037695 -13.943793
Hg -1.537862 20.134021 -13.943793
Hg -1.537862 17.037695 -10.847467
Hg 1.558464 20.134021 -10.847467
Hg 1.558464 17.037695 -7.751141
Hg -1.537862 20.134021 -7.751141
Hg -1.537862 17.037695 -4.654815
Hg 1.558464 20.134021 -4.654815
Hg 1.558464 17.037695 -1.558489
Hg -1.537862 20.134021 -1.558489
Hg -1.537862 17.037695 1.537837
Hg 1.558464 20.134021 1.537837
Hg 1.558464 17.037695 4.634163
Hg -1.537862 20.134021 4.634163
Hg -1.537862 17.037695 7.730489
Hg 1.558464 20.134021 7.730489
Hg 1.558464 17.037695 10.826815
Hg -1.537862 20.134021 10.826815
Hg -1.537862 17.037695 13.923141
Hg 1.558464 20.134021 13.923141
Hg 1.558464 17.037695 17.019467
Hg -1.537862 20.134021 17.019467
Hg -1.537862 17.037695 20.115793
Hg 1.558464 20.134021 20.115793
Hg 1.558464 17.037695 23.212119
Hg -1.537862 23.230347 -17.040119
Hg 1.558464 23.230347 -13.943793
Hg -1.537862 26.326673 -13.943793
Hg -1.537862 23.230347 -10.847467
Hg 1.558464 26.326673 -10.847467
Hg 1.558464 23.230347 -7.751141
Hg -1.537862 26.326673 -7.751141
Hg -1.537862 23.230347 -4.654815
Hg 1.558464 26.326673 -4.654815
Hg 1.558464 23.230347 -1.558489
Hg -1.537862 26.326673 -1.558489
Hg -1.537862 23.230347 1.537837
Hg 1.558464 26.326673 1.537837
Hg 1.558464 23.230347 4.634163
Hg -1.537862 26.326673 4.634163
Hg -1.537862 23.230347 7.730489
Hg 1.558464 26.326673 7.730489
Hg 1.558464 23.230347 10.826815
Hg -1.537862 26.326673 10.826815
Hg -1.537862 23.230347 13.923141
Hg 1.558464 26.326673 13.923141
Hg 1.558464 23.230347 17.019467
Hg 7.751116 -23.214543 -17.040119
Hg 7.751116 -26.310869 -13.943793
Hg 4.654790 -23.214543 -13.943793
Hg 4.654790 -26.310869 -10.847467
Hg 7.751116 -23.214543 -10.847467
Hg 7.751116 -26.310869 -7.751141
Hg 4.654790 -23.214543 -7.751141
Hg 4.654790 -26.310869 -4.654815
Hg 7.751116 -23.214543 -4.654815
Hg 7.751116 -26.310869 -1.558489
Hg 4.654790 -23.214543 -1.558489
Hg 4.654790 -26.310869 1.537837
Hg 7.751116 -23.214543 1.537837
Hg 7.751116 -26.310869 4.634163
Hg 4.654790 -23.214543 4.634163
Hg 4.654790 -26.310869 7.730489
Hg 7.751116 -23.214543 7.730489
Hg 7.751116 -26.310869 10.826815
Hg 4.654790 -23.214543 10.826815
Hg 4.654790 -26.310869 13.923141
Hg 4.654790 -23.214543 17.019467
Hg 7.751116 -17.021891 -23.232771
Hg 7.751116 -20.118217 -20.136445
Hg 4.654790 -17.021891 -20.136445
Hg 4.654790 -20.118217 -17.040119
Hg 7.751116 -17.021891 -17.040119
Hg 7.751116 -20.118217 -13.943793
Hg 4.654790 -17.021891 -13.943793
Hg 4.654790 -20.118217 -10.847467
Hg 7.751116 -17.021891 -10.847467
Hg 7.751116 -20.118217 -7.751141
Hg 4.654790 -17.021891 -7.751141
Hg 4.654790 -20.118217 -4.654815
Hg 7.751116 -17.021891 -4.654815
Hg 7.751116 -20.118217 -1.558489
Hg 4.654790 -17.021891 -1.558489
Hg 4.654790 -20.118217 1.537837
Hg 7.751116 -17.021891 1.537837
Hg 7.751116 -20.118217 4.634163
Hg 4.654790 -17.021891 4.634163
Hg 4.654790 -20.118217 7.730489
Hg 7.751116 -17.021891 7.730489
Hg 7.751116 -20.118217 10.826815
Hg 4.654790 -17.021891 10.826815
Hg 4.654790 -20.118217 13.923141
Hg 7.751116 -17.021891 13.923141
Hg 7.751116 -20.118217 17.019467
Hg 4.654790 -17.021891 17.019467
Hg 4.654790 -20.118217 20.115793
Hg 7.751116 -17.021891 20.115793
Hg 4.654790 -17.021891 23.212119
Hg 7.751116 -13.925565 -26.329097
Hg 4.654790 -10.829239 -26.329097
Hg 4.654790 -13.925565 -23.232771
Hg 7.751116 -10.829239 -23.232771
Hg 7.751116 -13.925565 -20.136445
Hg 4.654790 -10.829239 -20.136445
Hg 4.654790 -13.925565 -17.040119
Hg 7.751116 -10.829239 -17.040119
Hg 7.751116 -13.925565 -13.943793
Hg 4.654790 -10.829239 -13.943793
Hg 4.654790 -13.925565 -10.847467
Hg 7.751116 -10.829239 -10.847467
Hg 7.751116 -13.925565 -7.751141
Hg 4.654790 -10.829239 -7.751141
Hg 4.654790 -13.925565 -4.654815
Hg 7.751116 -10.829239 -4.654815
Hg 7.751116 -13.925565 -1.558489
Hg 4.654790 -10.829239 -1.558489
Hg 4.654790 -13.925565 1.537837
Hg 7.751116 -10.829239 1.537837
Hg 7.751116 -13.925565 4.634163
Hg 4.654790 -10.829239 4.634163
Hg 4.654790 -13.925565 7.730489
Hg 7.751116 -10.829239 7.730489
Hg 7.751116 -13.925565 10.826815
Hg 4.654790 -10.829239 10.826815
Hg 4.654790 -13.925565 13.923141
Hg 7.751116 -10.829239 13.923141
Hg 7.751116 -13.925565 17.019467
Hg 4.654790 -10.829239 17.019467
Hg 4.654790 -13.925565 20.115793
Hg 7.751116 -10.829239 20.115793
Hg 4.654790 -10.829239 23.212119
Hg 4.654790 -13.925565 26.308445
Hg 7.751116 -10.829239 26.308445
Hg 7.751116 -7.732913 -26.329097
Hg 4.654790 -4.636587 -26.329097
Hg 4.654790 -7.732913 -23.232771
Hg 7.751116 -4.636587 -23.232771
Hg 7.751116 -7.732913 -20.136445
Hg 4.654790 -4.636587 -20.136445
Hg 4.654790 -7.732913 -17.040119
Hg 7.751116 -4.636587 -17.040119
Hg 7.751116 -7.732913 -13.943793
Hg 4.654790 -4.636587 -13.943793
Hg 4.654790 -7.732913 -10.847467
Hg 7.751116 -4.636587 -10.847467
Hg 7.751116 -7.732913 -7.751141
Hg 4.654790 -4.636587 -7.751141
Hg 4.654790 -7.732913 -4.654815
Hg 7.751116 -4.636587 -4.654815
Hg 7.751116 -7.732913 -1.558489
Hg 4.654790 -4.636587 -1.558489
Hg 4.654790 -7.732913 1.537837
Hg 7.751116 -4.636587 1.537837
Hg 7.751116 -7.732913 4.634163
Hg 4.654790 -4.636587 4.634163
Hg 4.654790 -7.732913 7.730489
Hg 7.751116 -4.636587 7.730489
Hg 7.751116 -7.732913 10.826815
Hg 4.654790 -4.636587 10.826815
Hg 4.654790 -7.732913 13.923141
Hg 7.751116 -4.636587 13.923141
Hg 7.751116 -7.732913 17.019467
Hg 4.654790 -4.636587 17.019467
Hg 4.654790 -7.732913 20.115793
Hg 7.751116 -4.636587 20.115793
Hg 7.751116 -7.732913 23.212119
Hg 4.654790 -4.636587 23.212119
Hg 4.654790 -7.732913 26.308445
Hg 7.751116 -4.636587 26.308445
Hg 7.751116 -1.540261 -26.329097
Hg 4.654790 1.556065 -26.329097
Hg 4.654790 -1.540261 -23.232771
Hg 7.751116 1.556065 -23.232771
Hg 7.751116 -1.540261 -20.136445
Hg 4.654790 1.556065 -20.136445
Hg 4.654790 -1.540261 -17.040119
Hg 7.751116 1.556065 -17.040119
Hg 7.751116 -1.540261 -13.943793
Hg 4.654790 1.556065 -13.943793
Hg 4.654790 -1.540261 -10.847467
Hg 7.751116 1.556065 -10.847467
Hg 7.751116 -1.540261 -7.751141
Hg 4.654790 1.556065 -7.751141
Hg 4.654790 -1.540261 -4.654815
Hg 7.751116 1.556065 -4.654815
Hg 7.751116 -1.540261 -1.558489
Hg 4.654790 1.556065 -1.558489
Hg 4.654790 -1.540261 1.537837
Hg 7.751116 1.556065 1.537837
Hg 7.751116 -1.540261 4.634163
Hg 4.654790 1.556065 4.634163
Hg 4.654790 -1.540261 7.730489
Hg 7.751116 1.556065 7.730489
Hg 7.751116 -1.540261 10.826815
Hg 4.654790 1.556065 10.826815
Hg 4.654790 -1.540261 13.923141
Hg 7.751116 1.556065 13.923141
Hg 7.751116 -1.540261 17.019467
Hg 4.654790 1.556065 17.019467
Hg 4.654790 -1.540261 20.115793
Hg 7.751116 1.556065 20.115793
Hg 7.751116 -1.540261 23.212119
Hg 4.654790 1.556065 23.212119
Hg 4.654790 -1.540261 26.308445
Hg 7.751116 1.556065 26.308445
Hg 7.751116 4.652391 -26.329097
Hg 4.654790 7.748717 -26.329097
Hg 4.654790 4.652391 -23.232771
Hg 7.751116 7.748717 -23.232771
Hg 7.751116 4.652391 -20.136445
Hg 4.654790 7.748717 -20.136445
Hg 4.654790 4.652391 -17.040119
Hg 7.751116 7.748717 -17.040119
Hg 7.751116 4.652391 -13.943793
Hg 4.654790 7.748717 -13.943793
Hg 4.654790 4.652391 -10.847467
Hg 7.751116 7.748717 -10.847467
Hg 7.751116 4.652391 -7.751141
Hg 4.654790 7.748717 -7.751141
Hg 4.654790 4.652391 -4.654815
Hg 7.751116 7.748717 -4.654815
Hg 7.751116 4.652391 -1.558489
Hg 4.654790 7.748717 -1.558489
Hg 4.654790 4.652391 1.537837
Hg 7.751116 7.748717 1.537837
Hg 7.751116 4.652391 4.634163
Hg 4.654790 7.748717 4.634163
Hg 4.654790 4.652391 7.730489
Hg 7.751116 7.748717 7.730489
Hg 7.751116 4.652391 10.826815
Hg 4.654790 7.748717 10.826815
Hg 4.654790 4.652391 13.923141
Hg 7.751116 7.748717 13.923141
Hg 7.751116 4.652391 17.019467
Hg 4.654790 7.748717 17.019467
Hg 4.654790 4.652391 20.115793
Hg 7.751116 7.748717 20.115793
Hg 7.751116 4.652391 23.212119
Hg 4.654790 7.748717 23.212119
Hg 4.654790 4.652391 26.308445
Hg 7.751116 7.748717 26.308445
Hg 7.751116 10.845043 -26.329097
Hg 4.654790 13.941369 -26.329097
Hg 4.654790 10.845043 -23.232771
Hg 7.751116 10.845043 -20.136445
Hg 4.654790 13.941369 -20.136445
Hg 4.654790 10.845043 -17.040119
Hg 7.751116 13.941369 -17.040119
Hg 7.751116 10.845043 -13.943793
Hg 4.654790 13.941369 -13.943793
Hg 4.654790 10.845043 -10.847467
Hg 7.751116 13.941369 -10.847467
Hg 7.751116 10.845043 -7.751141
Hg 4.654790 13.941369 -7.751141
Hg 4.654790 10.845043 -4.654815
Hg 7.751116 13.941369 -4.654815
Hg 7.751116 10.845043 -1.558489
Hg 4.654790 13.941369 -1.558489
Hg 4.654790 10.845043 1.537837
Hg 7.751116 13.941369 1.537837
Hg 7.751116 10.845043 4.634163
Hg 4.654790 13.941369 4.634163
Hg 4.654790 10.845043 7.730489
Hg 7.751116 13.941369 7.730489
Hg 7.751116 10.845043 10.826815
Hg 4.654790 13.941369 10.826815
Hg 4.654790 10.845043 13.923141
Hg 7.751116 13.941369 13.923141
Hg 7.751116 10.845043 17.019467
Hg 4.654790 13.941369 17.019467
Hg 4.654790 10.845043 20.115793
Hg 7.751116 13.941369 20.115793
Hg 7.751116 10.845043 23.212119
Hg 4.654790 13.941369 23.212119
Hg 4.654790 10.845043 26.308445
Hg 7.751116 13.941369 26.308445
Hg 4.654790 17.037695 -23.232771
Hg 7.751116 17.037695 -20.136445
Hg 4.654790 20.134021 -20.136445
Hg 4.654790 17.037695 -17.040119
Hg 7.751116 20.134021 -17.040119
Hg 7.751116 17.037695 -13.943793
Hg 4.654790 20.134021 -13.943793
Hg 4.654790 17.037695 -10.847467
Hg 7.751116 20.134021 -10.847467
Hg 7.751116 17.037695 -7.751141
Hg 4.654790 20.134021 -7.751141
Hg 4.654790 17.037695 -4.654815
Hg 7.751116 20.134021 -4.654815
Hg 7.751116 17.037695 -1.558489
Hg 4.654790 20.134021 -1.558489
Hg 4.654790 17.037695 1.537837
Hg 7.751116 20.134021 1.537837
Hg 7.751116 17.037695 4.634163
Hg 4.654790 20.134021 4.634163
Hg 4.654790 17.037695 7.730489
Hg 7.751116 20.134021 7.730489
Hg 7.751116 17.037695 10.826815
Hg 4.654790 20.134021 10.826815
Hg 4.654790 17.037695 13.923141
Hg 7.751116 20.134021 13.923141
Hg 7.751116 17.037695 17.019467
Hg 4.654790 20.134021 17.019467
Hg 4.654790 17.037695 20.115793
Hg 7.751116 20.134021 20.115793
Hg 7.751116 17.037695 23.212119
Hg 4.654790 23.230347 -17.040119
Hg 4.654790 26.326673 -13.943793
Hg 4.654790 23.230347 -10.847467
Hg 7.751116 26.326673 -10.847467
Hg 7.751116 23.230347 -7.751141
Hg 4.654790 26.326673 -7.751141
Hg 4.654790 23.230347 -4.654815
Hg 7.751116 26.326673 -4.654815
Hg 7.751116 23.230347 -1.558489
Hg 4.654790 26.326673 -1.558489
Hg 4.654790 23.230347 1.537837
Hg 7.751116 26.326673 1.537837
Hg 7.751116 23.230347 4.634163
Hg 4.654790 26.326673 4.634163
Hg 4.654790 23.230347 7.730489
Hg 7.751116 26.326673 7.730489
Hg 7.751116 23.230347 10.826815
Hg 4.654790 26.326673 10.826815
Hg 4.654790 23.230347 13.923141
Hg 7.751116 26.326673 13.923141
Hg 7.751116 23.230347 17.019467
Hg 10.847442 -23.214543 -13.943793
Hg 10.847442 -26.310869 -10.847467
Hg 13.943768 -26.310869 -7.751141
Hg 10.847442 -23.214543 -7.751141
Hg 10.847442 -26.310869 -4.654815
Hg 13.943768 -23.214543 -4.654815
Hg 13.943768 -26.310869 -1.558489
Hg 10.847442 -23.214543 -1.558489
Hg 10.847442 -26.310869 1.537837
Hg 13.943768 -23.214543 1.537837
Hg 13.943768 -26.310869 4.634163
Hg 10.847442 -23.214543 4.634163
Hg 10.847442 -26.310869 7.730489
Hg 13.943768 -23.214543 7.730489
Hg 10.847442 -23.214543 10.826815
Hg 10.847442 -17.021891 -20.136445
Hg 13.943768 -17.021891 -17.040119
Hg 13.943768 -20.118217 -13.943793
Hg 10.847442 -17.021891 -13.943793
Hg 10.847442 -20.118217 -10.847467
Hg 13.943768 -17.021891 -10.847467
Hg 13.943768 -20.118217 -7.751141
Hg 10.847442 -17.021891 -7.751141
Hg 10.847442 -20.118217 -4.654815
Hg 13.943768 -17.021891 -4.654815
Hg 13.943768 -20.118217 -1.558489
Hg 10.847442 -17.021891 -1.558489
Hg 10.847442 -20.118217 1.537837
Hg 13.943768 -17.021891 1.537837
Hg 13.943768 -20.118217 4.634163
Hg 10.847442 -17.021891 4.634163
Hg 10.847442 -20.118217 7.730489
Hg 13.943768 -17.021891 7.730489
Hg 13.943768 -20.118217 10.826815
Hg 10.847442 -17.021891 10.826815
Hg 10.847442 -20.118217 13.923141
Hg 13.943768 -17.021891 13.923141
Hg 10.847442 -17.021891 17.019467
Hg 10.847442 -10.829239 -26.329097
Hg 10.847442 -13.925565 -23.232771
Hg 13.943768 -10.829239 -23.232771
Hg 10.847442 -10.829239 -20.136445
Hg 10.847442 -13.925565 -17.040119
Hg 13.943768 -10.829239 -17.040119
Hg 13.943768 -13.925565 -13.943793
Hg 10.847442 -10.829239 -13.943793
Hg 10.847442 -13.925565 -10.847467
Hg 13.943768 -10.829239 -10.847467
Hg 13.943768 -13.925565 -7.751141
Hg 10.847442 -10.829239 -7.751141
Hg 10.847442 -13.925565 -4.654815
Hg 13.943768 -10.829239 -4.654815
Hg 13.943768 -13.925565 -1.558489
Hg 10.847442 -10.829239 -1.558489
Hg 10.847442 -13.925565 1.537837
Hg 13.943768 -10.829239 1.537837
Hg 13.943768 -13.925565 4.634163
Hg 10.847442 -10.829239 4.634163
Hg 10.847442 -13.925565 7.730489
Hg 13.943768 -10.829239 7.730489
Hg 13.943768 -13.925565 10.826815
Hg 10.847442 -10.829239 10.826815
Hg 10.847442 -13.925565 13.923141
Hg 13.943768 -10.829239 13.923141
Hg 13.943768 -13.925565 17.019467
Hg 10.847442 -10.829239 17.019467
Hg 10.847442 -13.925565 20.115793
Hg 10.847442 -10.829239 23.212119
Hg 13.943768 -7.732913 -26.329097
Hg 10.847442 -4.636587 -26.329097
Hg 10.847442 -7.732913 -23.232771
Hg 13.943768 -4.636587 -23.232771
Hg 13.943768 -7.732913 -20.136445
Hg 10.847442 -4.636587 -20.136445
Hg 10.847442 -7.732913 -17.040119
Hg 13.943768 -4.636587 -17.040119
Hg 13.943768 -7.732913 -13.943793
Hg 10.847442 -4.636587 -13.943793
Hg 10.847442 -7.732913 -10.847467
Hg 13.943768 -4.636587 -10.847467
Hg 13.943768 -7.732913 -7.751141
Hg 10.847442 -4.636587 -7.751141
Hg 10.847442 -7.732913 -4.654815
Hg 13.943768 -4.636587 -4.654815
Hg 13.943768 -7.732913 -1.558489
Hg 10.847442 -4.636587 -1.558489
Hg 10.847442 -7.732913 1.537837
Hg 13.943768 -4.636587 1.537837
Hg 13.943768 -7.732913 4.634163
Hg 10.847442 -4.636587 4.634163
Hg 10.847442 -7.732913 7.730489
Hg 13.943768 -4.636587 7.730489
Hg 13.943768 -7.732913 10.826815
Hg 10.847442 -4.636587 10.826815
Hg 10.847442 -7.732913 13.923141
Hg 13.943768 -4.636587 13.923141
Hg 13.943768 -7.732913 17.019467
Hg 10.847442 -4.636587 17.019467
Hg 10.847442 -7.732913 20.115793
Hg 13.943768 -4.636587 20.115793
Hg 13.943768 -7.732913 23.212119
Hg 10.847442 -4.636587 23.212119
Hg 10.847442 -7.732913 26.308445
Hg 13.943768 -4.636587 26.308445
Hg 13.943768 -1.540261 -26.329097
Hg 10.847442 1.556065 -26.329097
Hg 10.847442 -1.540261 -23.232771
Hg 13.943768 1.556065 -23.232771
Hg 13.943768 -1.540261 -20.136445
Hg 10.847442 1.556065 -20.136445
Hg 10.847442 -1.540261 -17.040119
Hg 13.943768 1.556065 -17.040119
Hg 13.943768 -1.540261 -13.943793
Hg 10.847442 1.556065 -13.943793
Hg 10.847442 -1.540261 -10.847467
Hg 13.943768 1.556065 -10.847467
Hg 13.943768 -1.540261 -7.751141
Hg 10.847442 1.556065 -7.751141
Hg 10.847442 -1.540261 -4.654815
Hg 13.943768 1.556065 -4.654815
Hg 13.943768 -1.540261 -1.558489
Hg 10.847442 1.556065 -1.558489
Hg 10.847442 -1.540261 1.537837
Hg 13.943768 1.556065 1.537837
Hg 13.943768 -1.540261 4.634163
Hg 10.847442 1.556065 4.634163
Hg 10.847442 -1.540261 7.730489
Hg 13.943768 1.556065 7.730489
Hg 13.943768 -1.540261 10.826815
Hg 10.847442 1.556065 10.826815
Hg 10.847442 -1.540261 13.923141
Hg 13.943768 1.556065 13.923141
Hg 13.943768 -1.540261 17.019467
Hg 10.847442 1.556065 17.019467
Hg 10.847442 -1.540261 20.115793
Hg 13.943768 1.556065 20.115793
Hg 13.943768 -1.540261 23.212119
Hg 10.847442 1.556065 23.212119
Hg 10.847442 -1.540261 26.308445
Hg 13.943768 1.556065 26.308445
Hg 13.943768 4.652391 -26.329097
Hg 10.847442 7.748717 -26.329097
Hg 10.847442 4.652391 -23.232771
Hg 13.943768 7.748717 -23.232771
Hg 13.943768 4.652391 -20.136445
Hg 10.847442 7.748717 -20.136445
Hg 10.847442 4.652391 -17.040119
Hg 13.943768 7.748717 -17.040119
Hg 13.943768 4.652391 -13.943793
Hg 10.847442 7.748717 -13.943793
Hg 10.847442 4.652391 -10.847467
Hg 13.943768 7.748717 -10.847467
Hg 13.943768 4.652391 -7.751141
Hg 10.847442 7.748717 -7.751141
Hg 10.847442 4.652391 -4.654815
Hg 13.943768 7.748717 -4.654815
Hg 13.943768 4.652391 -1.558489
Hg 10.847442 7.748717 -1.558489
Hg 10.847442 4.652391 1.537837
Hg 13.943768 7.748717 1.537837
Hg 13.943768 4.652391 4.634163
Hg 10.847442 7.748717 4.634163
Hg 10.847442 4.652391 7.730489
Hg 13.943768 7.748717 7.730489
Hg 13.943768 4.652391 10.826815
Hg 10.847442 7.748717 10.826815
Hg 10.847442 4.652391 13.923141
Hg 13.943768 7.748717 13.923141
Hg 13.943768 4.652391 17.019467
Hg 10.847442 7.748717 17.019467
Hg 10.847442 4.652391 20.115793
Hg 13.943768 7.748717 20.115793
Hg 13.943768 4.652391 23.212119
Hg 10.847442 7.748717 23.212119
Hg 10.847442 4.652391 26.308445
Hg 13.943768 7.748717 26.308445
Hg 10.847442 10.845043 -23.232771
Hg 10.847442 13.941369 -20.136445
Hg 10.847442 10.845043 -17.040119
Hg 13.943768 13.941369 -17.040119
Hg 13.943768 10.845043 -13.943793
Hg 10.847442 13.941369 -13.943793
Hg 10.847442 10.845043 -10.847467
Hg 13.943768 13.941369 -10.847467
Hg 13.943768 10.845043 -7.751141
Hg 10.847442 13.941369 -7.751141
Hg 10.847442 10.845043 -4.654815
Hg 13.943768 13.941369 -4.654815
Hg 13.943768 10.845043 -1.558489
Hg 10.847442 13.941369 -1.558489
Hg 10.847442 10.845043 1.537837
Hg 13.943768 13.941369 1.537837
Hg 13.943768 10.845043 4.634163
Hg 10.847442 13.941369 4.634163
Hg 10.847442 10.845043 7.730489
Hg 13.943768 13.941369 7.730489
Hg 13.943768 10.845043 10.826815
Hg 10.847442 13.941369 10.826815
Hg 10.847442 10.845043 13.923141
Hg 13.943768 13.941369 13.923141
Hg 13.943768 10.845043 17.019467
Hg 10.847442 13.941369 17.019467
Hg 10.847442 10.845043 20.115793
Hg 13.943768 10.845043 23.212119
Hg 10.847442 13.941369 23.212119
Hg 10.847442 10.845043 26.308445
Hg 10.847442 17.037695 -17.040119
Hg 13.943768 17.037695 -13.943793
Hg 10.847442 20.134021 -13.943793
Hg 10.847442 17.037695 -10.847467
Hg 13.943768 20.134021 -10.847467
Hg 13.943768 17.037695 -7.751141
Hg 10.847442 20.134021 -7.751141
Hg 10.847442 17.037695 -4.654815
Hg 13.943768 20.134021 -4.654815
Hg 13.943768 17.037695 -1.558489
Hg 10.847442 20.134021 -1.558489
Hg 10.847442 17.037695 1.537837
Hg 13.943768 20.134021 1.537837
Hg 13.943768 17.037695 4.634163
Hg 10.847442 20.134021 4.634163
Hg 10.847442 17.037695 7.730489
Hg 13.943768 20.134021 7.730489
Hg 13.943768 17.037695 10.826815
Hg 10.847442 20.134021 10.826815
Hg 10.847442 17.037695 13.923141
Hg 13.943768 20.134021 13.923141
Hg 13.943768 17.037695 17.019467
Hg 10.847442 17.037695 20.115793
Hg 10.847442 23.230347 -10.847467
Hg 13.943768 23.230347 -7.751141
Hg 10.847442 26.326673 -7.751141
Hg 10.847442 23.230347 -4.654815
Hg 13.943768 26.326673 -4.654815
Hg 13.943768 23.230347 -1.558489
Hg 10.847442 26.326673 -1.558489
Hg 10.847442 23.230347 1.537837
Hg 13.943768 26.326673 1.537837
Hg 13.943768 23.230347 4.634163
Hg 10.847442 26.326673 4.634163
Hg 10.847442 23.230347 7.730489
Hg 13.943768 26.326673 7.730489
Hg 10.847442 26.326673 10.826815
Hg 10.847442 23.230347 13.923141
Hg 17.040094 -23.214543 -7.751141
Hg 17.040094 -23.214543 -1.558489
Hg 17.040094 -23.214543 4.634163
Hg 17.040094 -20.118217 -10.847467
Hg 20.136420 -17.021891 -10.847467
Hg 20.136420 -20.118217 -7.751141
Hg 17.040094 -17.021891 -7.751141
Hg 17.040094 -20.118217 -4.654815
Hg 20.136420 -17.021891 -4.654815
Hg 20.136420 -20.118217 -1.558489
Hg 17.040094 -17.021891 -1.558489
Hg 17.040094 -20.118217 1.537837
Hg 20.136420 -17.021891 1.537837
Hg 20.136420 -20.118217 4.634163
Hg 17.040094 -17.021891 4.634163
Hg 17.040094 -20.118217 7.730489
Hg 17.040094 -17.021891 10.826815
Hg 17.040094 -10.829239 -20.136445
Hg 17.040094 -13.925565 -17.040119
Hg 20.136420 -13.925565 -13.943793
Hg 17.040094 -10.829239 -13.943793
Hg 17.040094 -13.925565 -10.847467
Hg 20.136420 -10.829239 -10.847467
Hg 20.136420 -13.925565 -7.751141
Hg 17.040094 -10.829239 -7.751141
Hg 17.040094 -13.925565 -4.654815
Hg 20.136420 -10.829239 -4.654815
Hg 20.136420 -13.925565 -1.558489
Hg 17.040094 -10.829239 -1.558489
Hg 17.040094 -13.925565 1.537837
Hg 20.136420 -10.829239 1.537837
Hg 20.136420 -13.925565 4.634163
Hg 17.040094 -10.829239 4.634163
Hg 17.040094 -13.925565 7.730489
Hg 20.136420 -10.829239 7.730489
Hg 20.136420 -13.925565 10.826815
Hg 17.040094 -10.829239 10.826815
Hg 17.040094 -13.925565 13.923141
Hg 20.136420 -10.829239 13.923141
Hg 17.040094 -10.829239 17.019467
Hg 17.040094 -7.732913 -23.232771
Hg 20.136420 -7.732913 -20.136445
Hg 17.040094 -4.636587 -20.136445
Hg 17.040094 -7.732913 -17.040119
Hg 20.136420 -4.636587 -17.040119
Hg 20.136420 -7.732913 -13.943793
Hg 17.040094 -4.636587 -13.943793
Hg 17.040094 -7.732913 -10.847467
Hg 20.136420 -4.636587 -10.847467
Hg 20.136420 -7.732913 -7.751141
Hg 17.040094 -4.636587 -7.751141
Hg 17.040094 -7.732913 -4.654815
Hg 20.136420 -4.636587 -4.654815
Hg 20.136420 -7.732913 -1.558489
Hg 17.040094 -4.636587 -1.558489
Hg 17.040094 -7.732913 1.537837
Hg 20.136420 -4.636587 1.537837
Hg 20.136420 -7.732913 4.634163
Hg 17.040094 -4.636587 4.634163
Hg 17.040094 -7.732913 7.730489
Hg 20.136420 -4.636587 7.730489
Hg 20.136420 -7.732913 10.826815
Hg 17.040094 -4.636587 10.826815
Hg 17.040094 -7.732913 13.923141
Hg 20.136420 -4.636587 13.923141
Hg 17.040094 -4.636587 17.019467
Hg 17.040094 -7.732913 20.115793
Hg 20.136420 -4.636587 20.115793
Hg 17.040094 -4.636587 23.212119
Hg 17.040094 -1.540261 -23.232771
Hg 20.136420 -1.540261 -20.136445
Hg 17.040094 1.556065 -20.136445
Hg 17.040094 -1.540261 -17.040119
Hg 20.136420 1.556065 -17.040119
Hg 20.136420 -1.540261 -13.943793
Hg 17.040094 1.556065 -13.943793
Hg 17.040094 -1.540261 -10.847467
Hg 20.136420 1.556065 -10.847467
Hg 20.136420 -1.540261 -7.751141
Hg 17.040094 1.556065 -7.751141
Hg 17.040094 -1.540261 -4.654815
Hg 20.136420 1.556065 -4.654815
Hg 20.136420 -1.540261 -1.558489
Hg 17.040094 1.556065 -1.558489
Hg 17.040094 -1.540261 1.537837
Hg 20.136420 1.556065 1.537837
Hg 20.136420 -1.540261 4.634163
Hg 17.040094 1.556065 4.634163
Hg 17.040094 -1.540261 7.730489
Hg 20.136420 1.556065 7.730489
Hg 20.136420 -1.540261 10.826815
Hg 17.040094 1.556065 10.826815
Hg 17.040094 -1.540261 13.923141
Hg 20.136420 1.556065 13.923141
Hg 20.136420 -1.540261 17.019467
Hg 17.040094 1.556065 17.019467
Hg 17.040094 -1.540261 20.115793
Hg 20.136420 1.556065 20.115793
Hg 17.040094 1.556065 23.212119
Hg 17.040094 4.652391 -23.232771
Hg 20.136420 4.652391 -20.136445
Hg 17.040094 7.748717 -20.136445
Hg 17.040094 4.652391 -17.040119
Hg 20.136420 4.652391 -13.943793
Hg 17.040094 7.748717 -13.943793
Hg 17.040094 4.652391 -10.847467
Hg 20.136420 7.748717 -10.847467
Hg 20.136420 4.652391 -7.751141
Hg 17.040094 7.748717 -7.751141
Hg 17.040094 4.652391 -4.654815
Hg 20.136420 7.748717 -4.654815
Hg 20.136420 4.652391 -1.558489
Hg 17.040094 7.748717 -1.558489
Hg 17.040094 4.652391 1.537837
Hg 20.136420 7.748717 1.537837
Hg 20.136420 4.652391 4.634163
Hg 17.040094 7.748717 4.634163
Hg 17.040094 4.652391 7.730489
Hg 20.136420 7.748717 7.730489
Hg 20.136420 4.652391 10.826815
Hg 17.040094 7.748717 10.826815
Hg 17.040094 4.652391 13.923141
Hg 20.136420 7.748717 13.923141
Hg 20.136420 4.652391 17.019467
Hg 17.040094 7.748717 17.019467
Hg 17.040094 4.652391 20.115793
Hg 20.136420 7.748717 20.115793
Hg 17.040094 7.748717 23.212119
Hg 17.040094 10.845043 -17.040119
Hg 20.136420 10.845043 -13.943793
Hg 17.040094 13.941369 -13.943793
Hg 17.040094 10.845043 -10.847467
Hg 20.136420 13.941369 -10.847467
Hg 20.136420 10.845043 -7.751141
Hg 17.040094 13.941369 -7.751141
Hg 17.040094 10.845043 -4.654815
Hg 20.136420 13.941369 -4.654815
Hg 20.136420 10.845043 -1.558489
Hg 17.040094 13.941369 -1.558489
Hg 17.040094 10.845043 1.537837
Hg 20.136420 13.941369 1.537837
Hg 20.136420 10.845043 4.634163
Hg 17.040094 13.941369 4.634163
Hg 17.040094 10.845043 7.730489
Hg 20.136420 13.941369 7.730489
Hg 20.136420 10.845043 10.826815
Hg 17.040094 13.941369 10.826815
Hg 17.040094 10.845043 13.923141
Hg 20.136420 13.941369 13.923141
Hg 17.040094 13.941369 17.019467
Hg 17.040094 10.845043 20.115793
Hg 17.040094 17.037695 -10.847467
Hg 17.040094 20.134021 -7.751141
Hg 17.040094 17.037695 -4.654815
Hg 20.136420 20.134021 -4.654815
Hg 20.136420 17.037695 -1.558489
Hg 17.040094 20.134021 -1.558489
Hg 17.040094 17.037695 1.537837
Hg 20.136420 20.134021 1.537837
Hg 20.136420 17.037695 4.634163
Hg 17.040094 20.134021 4.634163
Hg 17.040094 17.037695 7.730489
Hg 20.136420 20.134021 7.730489
Hg 20.136420 17.037695 10.826815
Hg 17.040094 20.134021 10.826815
Hg 17.040094 23.230347 -4.654815
Hg 17.040094 23.230347 1.537837
Hg 17.040094 23.230347 7.730489
Hg 23.232746 -17.021891 -7.751141
Hg 23.232746 -17.021891 -1.558489
Hg 23.232746 -17.021891 4.634163
Hg 23.232746 -10.829239 -13.943793
Hg 26.329072 -10.829239 -10.847467
Hg 26.329072 -13.925565 -7.751141
Hg 23.232746 -10.829239 -7.751141
Hg 23.232746 -13.925565 -4.654815
Hg 26.329072 -10.829239 -4.654815
Hg 26.329072 -13.925565 -1.558489
Hg 23.232746 -10.829239 -1.558489
Hg 23.232746 -13.925565 1.537837
Hg 26.329072 -10.829239 1.537837
Hg 26.329072 -13.925565 4.634163
Hg 23.232746 -10.829239 4.634163
Hg 23.232746 -13.925565 7.730489
Hg 26.329072 -10.829239 7.730489
Hg 23.232746 -7.732913 -17.040119
Hg 26.329072 -7.732913 -13.943793
Hg 23.232746 -4.636587 -13.943793
Hg 23.232746 -7.732913 -10.847467
Hg 26.329072 -4.636587 -10.847467
Hg 26.329072 -7.732913 -7.751141
Hg 23.232746 -4.636587 -7.751141
Hg 23.232746 -7.732913 -4.654815
Hg 26.329072 -4.636587 -4.654815
Hg 26.329072 -7.732913 -1.558489
Hg 23.232746 -4.636587 -1.558489
Hg 23.232746 -7.732913 1.537837
Hg 26.329072 -4.636587 1.537837
Hg 26.329072 -7.732913 4.634163
Hg 23.232746 -4.636587 4.634163
Hg 23.232746 -7.732913 7.730489
Hg 26.329072 -4.636587 7.730489
Hg 26.329072 -7.732913 10.826815
Hg 23.232746 -4.636587 10.826815
Hg 23.232746 -7.732913 13.923141
Hg 26.329072 -4.636587 13.923141
Hg 23.232746 -4.636587 17.019467
Hg 23.232746 -1.540261 -17.040119
Hg 26.329072 -1.540261 -13.943793
Hg 23.232746 1.556065 -13.943793
Hg 23.232746 -1.540261 -10.847467
Hg 26.329072 1.556065 -10.847467
Hg 26.329072 -1.540261 -7.751141
Hg 23.232746 1.556065 -7.751141
Hg 23.232746 -1.540261 -4.654815
Hg 26.329072 1.556065 -4.654815
Hg 26.329072 -1.540261 -1.558489
Hg 23.232746 1.556065 -1.558489
Hg 23.232746 -1.540261 1.537837
Hg 26.329072 1.556065 1.537837
Hg 26.329072 -1.540261 4.634163
Hg 23.232746 1.556065 4.634163
Hg 23.232746 -1.540261 7.730489
Hg 26.329072 1.556065 7.730489
Hg 26.329072 -1.540261 10.826815
Hg 23.232746 1.556065 10.826815
Hg 23.232746 -1.540261 13.923141
Hg 26.329072 1.556065 13.923141
Hg 23.232746 1.556065 17.019467
Hg 23.232746 4.652391 -17.040119
Hg 26.329072 4.652391 -13.943793
Hg 23.232746 7.748717 -13.943793
Hg 23.232746 4.652391 -10.847467
Hg 26.329072 7.748717 -10.847467
Hg 26.329072 4.652391 -7.751141
Hg 23.232746 7.748717 -7.751141
Hg 23.232746 4.652391 -4.654815
Hg 26.329072 7.748717 -4.654815
Hg 26.329072 4.652391 -1.558489
Hg 23.232746 7.748717 -1.558489
Hg 23.232746 4.652391 1.537837
Hg 26.329072 7.748717 1.537837
Hg 26.329072 4.652391 4.634163
Hg 23.232746 7.748717 4.634163
Hg 23.232746 4.652391 7.730489
Hg 26.329072 7.748717 7.730489
Hg 26.329072 4.652391 10.826815
Hg 23.232746 7.748717 10.826815
Hg 23.232746 4.652391 13.923141
Hg 26.329072 7.748717 13.923141
Hg 23.232746 7.748717 17.019467
Hg 26.329072 10.845043 -7.751141
Hg 23.232746 13.941369 -7.751141
Hg 23.232746 10.845043 -4.654815
Hg 26.329072 13.941369 -4.654815
Hg 26.329072 10.845043 -1.558489
Hg 23.232746 13.941369 -1.558489
Hg 23.232746 10.845043 1.537837
Hg 26.329072 13.941369 1.537837
Hg 26.329072 10.845043 4.634163
Hg 23.232746 13.941369 4.634163
Hg 23.232746 10.845043 7.730489
Hg 26.329072 13.941369 7.730489
Hg 26.329072 10.845043 10.826815
Hg 23.232746 10.845043 13.923141
Hg 23.232746 17.037695 -4.654815
Hg 23.232746 17.037695 1.537837
Hg 23.232746 17.037695 7.730489
Se -21.663981 -15.473728 -6.202978
Se -24.760307 -15.473728 -3.106652
Se -21.663981 -15.473728 -0.010326
Se -21.663981 -18.570054 -3.106652
Se -24.760307 -15.473728 3.086000
Se -21.663981 -15.473728 6.182326
Se -21.663981 -18.570054 3.086000
Se -21.663981 -18.570054 9.278652
Se -21.663981 -9.281076 -12.395630
Se -24.760307 -12.377402 -6.202978
Se -24.760307 -9.281076 -9.299304
Se -21.663981 -9.281076 -6.202978
Se -21.663981 -12.377402 -9.299304
Se -24.760307 -12.377402 -0.010326
Se -24.760307 -9.281076 -3.106652
Se -21.663981 -9.281076 -0.010326
Se -21.663981 -12.377402 -3.106652
Se -24.760307 -12.377402 6.182326
Se -24.760307 -9.281076 3.086000
Se -21.663981 -9.281076 6.182326
Se -21.663981 -12.377402 3.086000
Se -24.760307 -9.281076 9.278652
Se -21.663981 -9.281076 12.374978
Se -21.663981 -12.377402 9.278652
Se -24.760307 -9.281076 15.471304
Se -21.663981 -3.088424 -18.588282
Se -24.760307 -6.184750 -12.395630
Se -24.760307 -3.088424 -15.491956
Se -21.663981 -3.088424 -12.395630
Se -21.663981 -6.184750 -15.491956
Se -24.760307 -6.184750 -6.202978
Se -24.760307 -3.088424 -9.299304
Se -21.663981 -3.088424 -6.202978
Se -21.663981 -6.184750 -9.299304
Se -24.760307 -6.184750 -0.010326
Se -24.760307 -3.088424 -3.106652
Se -21.663981 -3.088424 -0.010326
Se -21.663981 -6.184750 -3.106652
Se -24.760307 -6.184750 6.182326
Se -24.760307 -3.088424 3.086000
Se -21.663981 -3.088424 6.182326
Se -21.663981 -6.184750 3.086000
Se -24.760307 -6.184750 12.374978
Se -24.760307 -3.088424 9.278652
Se -21.663981 -3.088424 12.374978
Se -21.663981 -6.184750 9.278652
Se -24.760307 -3.088424 15.471304
Se -21.663981 -3.088424 18.567630
Se -21.663981 -6.184750 15.471304
Se -21.663981 3.104228 -18.588282
Se -24.760307 0.007902 -12.395630
Se -24.760307 3.104228 -15.491956
Se -21.663981 3.104228 -12.395630
Se -21.663981 0.007902 -15.491956
Se -24.760307 0.007902 -6.202978
Se -24.760307 3.104228 -9.299304
Se -21.663981 3.104228 -6.202978
Se -21.663981 0.007902 -9.299304
Se -24.760307 0.007902 -0.010326
Se -24.760307 3.104228 -3.106652
Se -21.663981 3.104228 -0.010326
Se -21.663981 0.007902 -3.106652
Se -24.760307 0.007902 6.182326
Se -24.760307 3.104228 3.086000
Se -21.663981 3.104228 6.182326
Se -21.663981 0.007902 3.086000
Se -24.760307 0.007902 12.374978
Se -24.760307 3.104228 9.278652
Se -21.663981 3.104228 12.374978
Se -21.663981 0.007902 9.278652
Se -24.760307 3.104228 15.471304
Se -21.663981 3.104228 18.567630
Se -21.663981 0.007902 15.471304
Se -24.760307 6.200554 -12.395630
Se -24.760307 9.296880 -15.491956
Se -21.663981 9.296880 -12.395630
Se -21.663981 6.200554 -15.491956
Se -24.760307 6.200554 -6.202978
Se -24.760307 9.296880 -9.299304
Se -21.663981 9.296880 -6.202978
Se -21.663981 6.200554 -9.299304
Se -24.760307 6.200554 -0.010326
Se -24.760307 9.296880 -3.106652
Se -21.663981 9.296880 -0.010326
Se -21.663981 6.200554 -3.106652
Se -24.760307 6.200554 6.182326
Se -24.760307 9.296880 3.086000
Se -21.663981 9.296880 6.182326
Se -21.663981 6.200554 3.086000
Se -24.760307 6.200554 12.374978
Se -24.760307 9.296880 9.278652
Se -21.663981 9.296880 12.374978
Se -21.663981 6.200554 9.278652
Se -21.663981 6.200554 15.471304
Se -24.760307 12.393206 -6.202978
Se -21.663981 15.489532 -6.202978
Se -21.663981 12.393206 -9.299304
Se -24.760307 12.393206 -0.010326
Se -24.760307 15.489532 -3.106652
Se -21.663981 15.489532 -0.010326
Se -21.663981 12.393206 -3.106652
Se -24.760307 12.393206 6.182326
Se -24.760307 15.489532 3.086000
Se -21.663981 15.489532 6.182326
Se -21.663981 12.393206 3.086000
Se -21.663981 12.393206 9.278652
Se -21.663981 18.585858 -9.299304
Se -21.663981 18.585858 -3.106652
Se -21.663981 18.585858 3.086000
Se -15.471329 -21.666380 -6.202978
Se -18.567655 -21.666380 -3.106652
Se -15.471329 -21.666380 -0.010326
Se -15.471329 -24.762706 -3.106652
Se -18.567655 -21.666380 3.086000
Se -15.471329 -21.666380 6.182326
Se -15.471329 -24.762706 3.086000
Se -15.471329 -15.473728 -12.395630
Se -18.567655 -18.570054 -6.202978
Se -18.567655 -15.473728 -9.299304
Se -15.471329 -15.473728 -6.202978
Se -15.471329 -18.570054 -9.299304
Se -18.567655 -18.570054 -0.010326
Se -18.567655 -15.473728 -3.106652
Se -15.471329 -15.473728 -0.010326
Se -15.471329 -18.570054 -3.106652
Se -18.567655 -18.570054 6.182326
Se -18.567655 -15.473728 3.086000
Se -15.471329 -15.473728 6.182326
Se -15.471329 -18.570054 3.086000
Se -18.567655 -15.473728 9.278652
Se -15.471329 -15.473728 12.374978
Se -15.471329 -18.570054 9.278652
Se -15.471329 -9.281076 -18.588282
Se -18.567655 -12.377402 -12.395630
Se -18.567655 -9.281076 -15.491956
Se -15.471329 -9.281076 -12.395630
Se -15.471329 -12.377402 -15.491956
Se -18.567655 -12.377402 -6.202978
Se -18.567655 -9.281076 -9.299304
Se -15.471329 -9.281076 -6.202978
Se -15.471329 -12.377402 -9.299304
Se -18.567655 -12.377402 -0.010326
Se -18.567655 -9.281076 -3.106652
Se -15.471329 -9.281076 -0.010326
Se -15.471329 -12.377402 -3.106652
Se -18.567655 -12.377402 6.182326
Se -18.567655 -9.281076 3.086000
Se -15.471329 -9.281076 6.182326
Se -15.471329 -12.377402 3.086000
Se -18.567655 -12.377402 12.374978
Se -18.567655 -9.281076 9.278652
Se -15.471329 -9.281076 12.374978
Se -15.471329 -12.377402 9.278652
Se -18.567655 -9.281076 15.471304
Se -15.471329 -9.281076 18.567630
Se -15.471329 -12.377402 15.471304
Se -18.567655 -9.281076 21.663956
Se -15.471329 -3.088424 -24.780934
Se -18.567655 -6.184750 -18.588282
Se -18.567655 -3.088424 -21.684608
Se -15.471329 -3.088424 -18.588282
Se -15.471329 -6.184750 -21.684608
Se -18.567655 -6.184750 -12.395630
Se -18.567655 -3.088424 -15.491956
Se -15.471329 -3.088424 -12.395630
Se -15.471329 -6.184750 -15.491956
Se -18.567655 -6.184750 -6.202978
Se -18.567655 -3.088424 -9.299304
Se -15.471329 -3.088424 -6.202978
Se -15.471329 -6.184750 -9.299304
Se -18.567655 -6.184750 -0.010326
Se -18.567655 -3.088424 -3.106652
Se -15.471329 -3.088424 -0.010326
Se -15.471329 -6.184750 -3.106652
Se -18.567655 -6.184750 6.182326
Se -18.567655 -3.088424 3.086000
Se -15.471329 -3.088424 6.182326
Se -15.471329 -6.184750 3.086000
Se -18.567655 -6.184750 12.374978
Se -18.567655 -3.088424 9.278652
Se -15.471329 -3.088424 12.374978
Se -15.471329 -6.184750 9.278652
Se -18.567655 -6.184750 18.567630
Se -18.567655 -3.088424 15.471304
Se -15.471329 -3.088424 18.567630
Se -15.471329 -6.184750 15.471304
Se -18.567655 -3.088424 21.663956
Se -15.471329 -3.088424 24.760282
Se -15.471329 -6.184750 21.663956
Se -15.471329 3.104228 -24.780934
Se -18.567655 0.007902 -18.588282
Se -18.567655 3.104228 -21.684608
Se -15.471329 3.104228 -18.588282
Se -15.471329 0.007902 -21.684608
Se -18.567655 0.007902 -12.395630
Se -18.567655 3.104228 -15.491956
Se -15.471329 3.104228 -12.395630
Se -15.471329 0.007902 -15.491956
Se -18.567655 0.007902 -6.202978
Se -18.567655 3.104228 -9.299304
Se -15.471329 3.104228 -6.202978
Se -15.471329 0.007902 -9.299304
Se -18.567655 0.007902 -0.010326
Se -18.567655 3.104228 -3.106652
Se -15.471329 3.104228 -0.010326
Se -15.471329 0.007902 -3.106652
Se -18.567655 0.007902 6.182326
Se -18.567655 3.104228 3.086000
Se -15.471329 3.104228 6.182326
Se -15.471329 0.007902 3.086000
Se -18.567655 0.007902 12.374978
Se -18.567655 3.104228 9.278652
Se -15.471329 3.104228 12.374978
Se -15.471329 0.007902 9.278652
Se -18.567655 0.007902 18.567630
Se -18.567655 3.104228 15.471304
Se -15.471329 3.104228 18.567630
Se -15.471329 0.007902 15.471304
Se -18.567655 3.104228 21.663956
Se -15.471329 3.104228 24.760282
Se -15.471329 0.007902 21.663956
Se -18.567655 6.200554 -18.588282
Se -18.567655 9.296880 -21.684608
Se -15.471329 9.296880 -18.588282
Se -15.471329 6.200554 -21.684608
Se -18.567655 6.200554 -12.395630
Se -18.567655 9.296880 -15.491956
Se -15.471329 9.296880 -12.395630
Se -15.471329 6.200554 -15.491956
Se -18.567655 6.200554 -6.202978
Se -18.567655 9.296880 -9.299304
Se -15.471329 9.296880 -6.202978
Se -15.471329 6.200554 -9.299304
Se -18.567655 6.200554 -0.010326
Se -18.567655 9.296880 -3.106652
Se -15.471329 9.296880 -0.010326
Se -15.471329 6.200554 -3.106652
Se -18.567655 6.200554 6.182326
Se -18.567655 9.296880 3.086000
Se -15.471329 9.296880 6.182326
Se -15.471329 6.200554 3.086000
Se -18.567655 6.200554 12.374978
Se -18.567655 9.296880 9.278652
Se -15.471329 9.296880 12.374978
Se -15.471329 6.200554 9.278652
Se -18.567655 6.200554 18.567630
Se -18.567655 9.296880 15.471304
Se -15.471329 9.296880 18.567630
Se -15.471329 6.200554 15.471304
Se -15.471329 6.200554 21.663956
Se -18.567655 12.393206 -12.395630
Se -15.471329 15.489532 -12.395630
Se -15.471329 12.393206 -15.491956
Se -18.567655 12.393206 -6.202978
Se -18.567655 15.489532 -9.299304
Se -15.471329 15.489532 -6.202978
Se -15.471329 12.393206 -9.299304
Se -18.567655 12.393206 -0.010326
Se -18.567655 15.489532 -3.106652
Se -15.471329 15.489532 -0.010326
Se -15.471329 12.393206 -3.106652
Se -18.567655 12.393206 6.182326
Se -18.567655 15.489532 3.086000
Se -15.471329 15.489532 6.182326
Se -15.471329 12.393206 3.086000
Se -18.567655 12.393206 12.374978
Se -18.567655 15.489532 9.278652
Se -15.471329 15.489532 12.374978
Se -15.471329 12.393206 9.278652
Se -15.471329 12.393206 15.471304
Se -18.567655 18.585858 -6.202978
Se -15.471329 21.682184 -6.202978
Se -15.471329 18.585858 -9.299304
Se -18.567655 18.585858 -0.010326
Se -18.567655 21.682184 -3.106652
Se -15.471329 21.682184 -0.010326
Se -15.471329 18.585858 -3.106652
Se -18.567655 18.585858 6.182326
Se -18.567655 21.682184 3.086000
Se -15.471329 21.682184 6.182326
Se -15.471329 18.585858 3.086000
Se -15.471329 18.585858 9.278652
Se -15.471329 24.778510 -3.106652
Se -15.471329 24.778510 3.086000
Se -9.278677 -21.666380 -12.395630
Se -12.375003 -24.762706 -6.202978
Se -12.375003 -21.666380 -9.299304
Se -9.278677 -21.666380 -6.202978
Se -9.278677 -24.762706 -9.299304
Se -12.375003 -24.762706 -0.010326
Se -12.375003 -21.666380 -3.106652
Se -9.278677 -21.666380 -0.010326
Se -9.278677 -24.762706 -3.106652
Se -12.375003 -24.762706 6.182326
Se -12.375003 -21.666380 3.086000
Se -9.278677 -21.666380 6.182326
Se -9.278677 -24.762706 3.086000
Se -12.375003 -21.666380 9.278652
Se -9.278677 -21.666380 12.374978
Se -9.278677 -24.762706 9.278652
Se -9.278677 -24.762706 15.471304
Se -9.278677 -15.473728 -18.588282
Se -12.375003 -18.570054 -12.395630
Se -12.375003 -15.473728 -15.491956
Se -9.278677 -15.473728 -12.395630
Se -9.278677 -18.570054 -15.491956
Se -12.375003 -18.570054 -6.202978
Se -12.375003 -15.473728 -9.299304
Se -9.278677 -15.473728 -6.202978
Se -9.278677 -18.570054 -9.299304
Se -12.375003 -18.570054 -0.010326
Se -12.375003 -15.473728 -3.106652
Se -9.278677 -15.473728 -0.010326
Se -9.278677 -18.570054 -3.106652
Se -12.375003 -18.570054 6.182326
Se -12.375003 -15.473728 3.086000
Se -9.278677 -15.473728 6.182326
Se -9.278677 -18.570054 3.086000
Se -12.375003 -18.570054 12.374978
Se -12.375003 -15.473728 9.278652
Se -9.278677 -15.473728 12.374978
Se -9.278677 -18.570054 9.278652
Se -12.375003 -15.473728 15.471304
Se -9.278677 -15.473728 18.567630
Se -9.278677 -18.570054 15.471304
Se -9.278677 -18.570054 21.663956
Se -9.278677 -9.281076 -24.780934
Se -12.375003 -12.377402 -18.588282
Se -12.375003 -9.281076 -21.684608
Se -9.278677 -9.281076 -18.588282
Se -9.278677 -12.377402 -21.684608
Se -12.375003 -12.377402 -12.395630
Se -12.375003 -9.281076 -15.491956
Se -9.278677 -9.281076 -12.395630
Se -9.278677 -12.377402 -15.491956
Se -12.375003 -12.377402 -6.202978
Se -12.375003 -9.281076 -9.299304
Se -9.278677 -9.281076 -6.202978
Se -9.278677 -12.377402 -9.299304
Se -12.375003 -12.377402 -0.010326
Se -12.375003 -9.281076 -3.106652
Se -9.278677 -9.281076 -0.010326
Se -9.278677 -12.377402 -3.106652
Se -12.375003 -12.377402 6.182326
Se -12.375003 -9.281076 3.086000
Se -9.278677 -9.281076 6.182326
Se -9.278677 -12.377402 3.086000
Se -12.375003 -12.377402 12.374978
Se -12.375003 -9.281076 9.278652
Se -9.278677 -9.281076 12.374978
Se -9.278677 -12.377402 9.278652
Se -12.375003 -12.377402 18.567630
Se -12.375003 -9.281076 15.471304
Se -9.278677 -9.281076 18.567630
Se -9.278677 -12.377402 15.471304
Se -12.375003 -12.377402 24.760282
Se -12.375003 -9.281076 21.663956
Se -9.278677 -9.281076 24.760282
Se -9.278677 -12.377402 21.663956
Se -12.375003 -6.184750 -24.780934
Se -9.278677 -3.088424 -24.780934
Se -12.375003 -6.184750 -18.588282
Se -12.375003 -3.088424 -21.684608
Se -9.278677 -3.088424 -18.588282
Se -9.278677 -6.184750 -21.684608
Se -12.375003 -6.184750 -12.395630
Se -12.375003 -3.088424 -15.491956
Se -9.278677 -3.088424 -12.395630
Se -9.278677 -6.184750 -15.491956
Se -12.375003 -6.184750 -6.202978
Se -12.375003 -3.088424 -9.299304
Se -9.278677 -3.088424 -6.202978
Se -9.278677 -6.184750 -9.299304
Se -12.375003 -6.184750 -0.010326
Se -12.375003 -3.088424 -3.106652
Se -9.278677 -3.088424 -0.010326
Se -9.278677 -6.184750 -3.106652
Se -12.375003 -6.184750 6.182326
Se -12.375003 -3.088424 3.086000
Se -9.278677 -3.088424 6.182326
Se -9.278677 -6.184750 3.086000
Se -12.375003 -6.184750 12.374978
Se -12.375003 -3.088424 9.278652
Se -9.278677 -3.088424 12.374978
Se -9.278677 -6.184750 9.278652
Se -12.375003 -6.184750 18.567630
Se -12.375003 -3.088424 15.471304
Se -9.278677 -3.088424 18.567630
Se -9.278677 -6.184750 15.471304
Se -12.375003 -6.184750 24.760282
Se -12.375003 -3.088424 21.663956
Se -9.278677 -3.088424 24.760282
Se -9.278677 -6.184750 21.663956
Se -12.375003 0.007902 -24.780934
Se -9.278677 3.104228 -24.780934
Se -12.375003 0.007902 -18.588282
Se -12.375003 3.104228 -21.684608
Se -9.278677 3.104228 -18.588282
Se -9.278677 0.007902 -21.684608
Se -12.375003 0.007902 -12.395630
Se -12.375003 3.104228 -15.491956
Se -9.278677 3.104228 -12.395630
Se -9.278677 0.007902 -15.491956
Se -12.375003 0.007902 -6.202978
Se -12.375003 3.104228 -9.299304
Se -9.278677 3.104228 -6.202978
Se -9.278677 0.007902 -9.299304
Se -12.375003 0.007902 -0.010326
Se -12.375003 3.104228 -3.106652
Se -9.278677 3.104228 -0.010326
Se -9.278677 0.007902 -3.106652
Se -12.375003 0.007902 6.182326
Se -12.375003 3.104228 3.086000
Se -9.278677 3.104228 6.182326
Se -9.278677 0.007902 3.086000
Se -12.375003 0.007902 12.374978
Se -12.375003 3.104228 9.278652
Se -9.278677 3.104228 12.374978
Se -9.278677 0.007902 9.278652
Se -12.375003 0.007902 18.567630
Se -12.375003 3.104228 15.471304
Se -9.278677 3.104228 18.567630
Se -9.278677 0.007902 15.471304
Se -12.375003 0.007902 24.760282
Se -12.375003 3.104228 21.663956
Se -9.278677 3.104228 24.760282
Se -9.278677 0.007902 21.663956
Se -12.375003 6.200554 -24.780934
Se -9.278677 9.296880 -24.780934
Se -12.375003 6.200554 -18.588282
Se -12.375003 9.296880 -21.684608
Se -9.278677 9.296880 -18.588282
Se -9.278677 6.200554 -21.684608
Se -12.375003 6.200554 -12.395630
Se -12.375003 9.296880 -15.491956
Se -9.278677 9.296880 -12.395630
Se -9.278677 6.200554 -15.491956
Se -12.375003 6.200554 -6.202978
Se -12.375003 9.296880 -9.299304
Se -9.278677 9.296880 -6.202978
Se -9.278677 6.200554 -9.299304
Se -12.375003 6.200554 -0.010326
Se -12.375003 9.296880 -3.106652
Se -9.278677 9.296880 -0.010326
Se -9.278677 6.200554 -3.106652
Se -12.375003 6.200554 6.182326
Se -12.375003 9.296880 3.086000
Se -9.278677 9.296880 6.182326
Se -9.278677 6.200554 3.086000
Se -12.375003 6.200554 12.374978
Se -12.375003 9.296880 9.278652
Se -9.278677 9.296880 12.374978
Se -9.278677 6.200554 9.278652
Se -12.375003 6.200554 18.567630
Se -12.375003 9.296880 15.471304
Se -9.278677 9.296880 18.567630
Se -9.278677 6.200554 15.471304
Se -12.375003 6.200554 24.760282
Se -12.375003 9.296880 21.663956
Se -9.278677 9.296880 24.760282
Se -9.278677 6.200554 21.663956
Se -12.375003 12.393206 -24.780934
Se -12.375003 12.393206 -18.588282
Se -9.278677 15.489532 -18.588282
Se -9.278677 12.393206 -21.684608
Se -12.375003 12.393206 -12.395630
Se -12.375003 15.489532 -15.491956
Se -9.278677 15.489532 -12.395630
Se -9.278677 12.393206 -15.491956
Se -12.375003 12.393206 -6.202978
Se -12.375003 15.489532 -9.299304
Se -9.278677 15.489532 -6.202978
Se -9.278677 12.393206 -9.299304
Se -12.375003 12.393206 -0.010326
Se -12.375003 15.489532 -3.106652
Se -9.278677 15.489532 -0.010326
Se -9.278677 12.393206 -3.106652
Se -12.375003 12.393206 6.182326
Se -12.375003 15.489532 3.086000
Se -9.278677 15.489532 6.182326
Se -9.278677 12.393206 3.086000
Se -12.375003 12.393206 12.374978
Se -12.375003 15.489532 9.278652
Se -9.278677 15.489532 12.374978
Se -9.278677 12.393206 9.278652
Se -12.375003 12.393206 18.567630
Se -12.375003 15.489532 15.471304
Se -9.278677 15.489532 18.567630
Se -9.278677 12.393206 15.471304
Se -9.278677 12.393206 21.663956
Se -9.278677 18.585858 -21.684608
Se -12.375003 18.585858 -12.395630
Se -9.278677 21.682184 -12.395630
Se -9.278677 18.585858 -15.491956
Se -12.375003 18.585858 -6.202978
Se -12.375003 21.682184 -9.299304
Se -9.278677 21.682184 -6.202978
Se -9.278677 18.585858 -9.299304
Se -12.375003 18.585858 -0.010326
Se -12.375003 21.682184 -3.106652
Se -9.278677 21.682184 -0.010326
Se -9.278677 18.585858 -3.106652
Se -12.375003 18.585858 6.182326
Se -12.375003 21.682184 3.086000
Se -9.278677 21.682184 6.182326
Se -9.278677 18.585858 3.086000
Se -12.375003 18.585858 12.374978
Se -12.375003 21.682184 9.278652
Se -9.278677 21.682184 12.374978
Se -9.278677 18.585858 9.278652
Se -9.278677 18.585858 15.471304
Se -9.278677 24.778510 -15.491956
Se -12.375003 24.778510 -6.202978
Se -9.278677 24.778510 -9.299304
Se -12.375003 24.778510 -0.010326
Se -9.278677 24.778510 -3.106652
Se -12.375003 24.778510 6.182326
Se -9.278677 24.778510 3.086000
Se -9.278677 24.778510 9.278652
Se -3.086025 -21.666380 -18.588282
Se -6.182351 -24.762706 -12.395630
Se -6.182351 -21.666380 -15.491956
Se -3.086025 -21.666380 -12.395630
Se -3.086025 -24.762706 -15.491956
Se -6.182351 -24.762706 -6.202978
Se -6.182351 -21.666380 -9.299304
Se -3.086025 -21.666380 -6.202978
Se -3.086025 -24.762706 -9.299304
Se -6.182351 -24.762706 -0.010326
Se -6.182351 -21.666380 -3.106652
Se -3.086025 -21.666380 -0.010326
Se -3.086025 -24.762706 -3.106652
Se -6.182351 -24.762706 6.182326
Se -6.182351 -21.666380 3.086000
Se -3.086025 -21.666380 6.182326
Se -3.086025 -24.762706 3.086000
Se -6.182351 -24.762706 12.374978
Se -6.182351 -21.666380 9.278652
Se -3.086025 -21.666380 12.374978
Se -3.086025 -24.762706 9.278652
Se -6.182351 -21.666380 15.471304
Se -3.086025 -21.666380 18.567630
Se -3.086025 -24.762706 15.471304
Se -3.086025 -15.473728 -24.780934
Se -6.182351 -18.570054 -18.588282
Se -6.182351 -15.473728 -21.684608
Se -3.086025 -15.473728 -18.588282
Se -3.086025 -18.570054 -21.684608
Se -6.182351 -18.570054 -12.395630
Se -6.182351 -15.473728 -15.491956
Se -3.086025 -15.473728 -12.395630
Se -3.086025 -18.570054 -15.491956
Se -6.182351 -18.570054 -6.202978
Se -6.182351 -15.473728 -9.299304
Se -3.086025 -15.473728 -6.202978
Se -3.086025 -18.570054 -9.299304
Se -6.182351 -18.570054 -0.010326
Se -6.182351 -15.473728 -3.106652
Se -3.086025 -15.473728 -0.010326
Se -3.086025 -18.570054 -3.106652
Se -6.182351 -18.570054 6.182326
Se -6.182351 -15.473728 3.086000
Se -3.086025 -15.473728 6.182326
Se -3.086025 -18.570054 3.086000
Se -6.182351 -18.570054 12.374978
Se -6.182351 -15.473728 9.278652
Se -3.086025 -15.473728 12.374978
Se -3.086025 -18.570054 9.278652
Se -6.182351 -18.570054 18.567630
Se -6.182351 -15.473728 15.471304
Se -3.086025 -15.473728 18.567630
Se -3.086025 -18.570054 15.471304
Se -6.182351 -15.473728 21.663956
Se -3.086025 -15.473728 24.760282
Se -3.086025 -18.570054 21.663956
Se -6.182351 -12.377402 -24.780934
Se -3.086025 -9.281076 -24.780934
Se -6.182351 -12.377402 -18.588282
Se -6.182351 -9.281076 -21.684608
Se -3.086025 -9.281076 -18.588282
Se -3.086025 -12.377402 -21.684608
Se -6.182351 -12.377402 -12.395630
Se -6.182351 -9.281076 -15.491956
Se -3.086025 -9.281076 -12.395630
Se -3.086025 -12.377402 -15.491956
Se -6.182351 -12.377402 -6.202978
Se -6.182351 -9.281076 -9.299304
Se -3.086025 -9.281076 -6.202978
Se -3.086025 -12.377402 -9.299304
Se -6.182351 -12.377402 -0.010326
Se -6.182351 -9.281076 -3.106652
Se -3.086025 -9.281076 -0.010326
Se -3.086025 -12.377402 -3.106652
Se -6.182351 -12.377402 6.182326
Se -6.182351 -9.281076 3.086000
Se -3.086025 -9.281076 6.182326
Se -3.086025 -12.377402 3.086000
Se -6.182351 -12.377402 12.374978
Se -6.182351 -9.281076 9.278652
Se -3.086025 -9.281076 12.374978
Se -3.086025 -12.377402 9.278652
Se -6.182351 -12.377402 18.567630
Se -6.182351 -9.281076 15.471304
Se -3.086025 -9.281076 18.567630
Se -3.086025 -12.377402 15.471304
Se -6.182351 -12.377402 24.760282
Se -6.182351 -9.281076 21.663956
Se -3.086025 -9.281076 24.760282
Se -3.086025 -12.377402 21.663956
Se -6.182351 -6.184750 -24.780934
Se -3.086025 -3.088424 -24.780934
Se -6.182351 -6.184750 -18.588282
Se -6.182351 -3.088424 -21.684608
Se -3.086025 -3.088424 -18.588282
Se -3.086025 -6.184750 -21.684608
Se -6.182351 -6.184750 -12.395630
Se -6.182351 -3.088424 -15.491956
Se -3.086025 -3.088424 -12.395630
Se -3.086025 -6.184750 -15.491956
Se -6.182351 -6.184750 -6.202978
Se -6.182351 -3.088424 -9.299304
Se -3.086025 -3.088424 -6.202978
Se -3.086025 -6.184750 -9.299304
Se -6.182351 -6.184750 -0.010326
Se -6.182351 -3.088424 -3.106652
Se -3.086025 -3.088424 -0.010326
Se -3.086025 -6.184750 -3.106652
Se -6.182351 -6.184750 6.182326
Se -6.182351 -3.088424 3.086000
Se -3.086025 -3.088424 6.182326
Se -3.086025 -6.184750 3.086000
Se -6.182351 -6.184750 12.374978
Se -6.182351 -3.088424 9.278652
Se -3.086025 -3.088424 12.374978
Se -3.086025 -6.184750 9.278652
Se -6.182351 -6.184750 18.567630
Se -6.182351 -3.088424 15.471304
Se -3.086025 -3.088424 18.567630
Se -3.086025 -6.184750 15.471304
Se -6.182351 -6.184750 24.760282
Se -6.182351 -3.088424 21.663956
Se -3.086025 -3.088424 24.760282
Se -3.086025 -6.184750 21.663956
Se -6.182351 0.007902 -24.780934
Se -3.086025 3.104228 -24.780934
Se -6.182351 0.007902 -18.588282
Se -6.182351 3.104228 -21.684608
Se -3.086025 3.104228 -18.588282
Se -3.086025 0.007902 -21.684608
Se -6.182351 0.007902 -12.395630
Se -6.182351 3.104228 -15.491956
Se -3.086025 3.104228 -12.395630
Se -3.086025 0.007902 -15.491956
Se -6.182351 0.007902 -6.202978
Se -6.182351 3.104228 -9.299304
Se -3.086025 3.104228 -6.202978
Se -3.086025 0.007902 -9.299304
Se -6.182351 0.007902 -0.010326
Se -6.182351 3.104228 -3.106652
Se -3.086025 3.104228 -0.010326
Se -3.086025 0.007902 -3.106652
Se -6.182351 0.007902 6.182326
Se -6.182351 3.104228 3.086000
Se -3.086025 3.104228 6.182326
Se -3.086025 0.007902 3.086000
Se -6.182351 0.007902 12.374978
Se -6.182351 3.104228 9.278652
Se -3.086025 3.104228 12.374978
Se -3.086025 0.007902 9.278652
Se -6.182351 0.007902 18.567630
Se -6.182351 3.104228 15.471304
Se -3.086025 3.104228 18.567630
Se -3.086025 0.007902 15.471304
Se -6.182351 0.007902 24.760282
Se -6.182351 3.104228 21.663956
Se -3.086025 3.104228 24.760282
Se -3.086025 0.007902 21.663956
Se -6.182351 6.200554 -24.780934
Se -3.086025 9.296880 -24.780934
Se -6.182351 6.200554 -18.588282
Se -6.182351 9.296880 -21.684608
Se -3.086025 9.296880 -18.588282
Se -3.086025 6.200554 -21.684608
Se -6.182351 6.200554 -12.395630
Se -6.182351 9.296880 -15.491956
Se -3.086025 9.296880 -12.395630
Se -3.086025 6.200554 -15.491956
Se -6.182351 6.200554 -6.202978
Se -6.182351 9.296880 -9.299304
Se -3.086025 9.296880 -6.202978
Se -3.086025 6.200554 -9.299304
Se -6.182351 6.200554 -0.010326
Se -6.182351 9.296880 -3.106652
Se -3.086025 9.296880 -0.010326
Se -3.086025 6.200554 -3.106652
Se -6.182351 6.200554 6.182326
Se -6.182351 9.296880 3.086000
Se -3.086025 9.296880 6.182326
Se -3.086025 6.200554 3.086000
Se -6.182351 6.200554 12.374978
Se -6.182351 9.296880 9.278652
Se -3.086025 9.296880 12.374978
Se -3.086025 6.200554 9.278652
Se -6.182351 6.200554 18.567630
Se -6.182351 9.296880 15.471304
Se -3.086025 9.296880 18.567630
Se -3.086025 6.200554 15.471304
Se -6.182351 6.200554 24.760282
Se -6.182351 9.296880 21.663956
Se -3.086025 9.296880 24.760282
Se -3.086025 6.200554 21.663956
Se -6.182351 12.393206 -24.780934
Se -3.086025 15.489532 -24.780934
Se -6.182351 12.393206 -18.588282
Se -6.182351 15.489532 -21.684608
Se -3.086025 15.489532 -18.588282
Se -3.086025 12.393206 -21.684608
Se -6.182351 12.393206 -12.395630
Se -6.182351 15.489532 -15.491956
Se -3.086025 15.489532 -12.395630
Se -3.086025 12.393206 -15.491956
Se -6.182351 12.393206 -6.202978
Se -6.182351 15.489532 -9.299304
Se -3.086025 15.489532 -6.202978
Se -3.086025 12.393206 -9.299304
Se -6.182351 12.393206 -0.010326
Se -6.182351 15.489532 -3.106652
Se -3.086025 15.489532 -0.010326
Se -3.086025 12.393206 -3.106652
Se -6.182351 12.393206 6.182326
Se -6.182351 15.489532 3.086000
Se -3.086025 15.489532 6.182326
Se -3.086025 12.393206 3.086000
Se -6.182351 12.393206 12.374978
Se -6.182351 15.489532 9.278652
Se -3.086025 15.489532 12.374978
Se -3.086025 12.393206 9.278652
Se -6.182351 12.393206 18.567630
Se -6.182351 15.489532 15.471304
Se -3.086025 15.489532 18.567630
Se -3.086025 12.393206 15.471304
Se -6.182351 12.393206 24.760282
Se -6.182351 15.489532 21.663956
Se -3.086025 15.489532 24.760282
Se -3.086025 12.393206 21.663956
Se -6.182351 18.585858 -18.588282
Se -3.086025 21.682184 -18.588282
Se -3.086025 18.585858 -21.684608
Se -6.182351 18.585858 -12.395630
Se -6.182351 21.682184 -15.491956
Se -3.086025 21.682184 -12.395630
Se -3.086025 18.585858 -15.491956
Se -6.182351 18.585858 -6.202978
Se -6.182351 21.682184 -9.299304
Se -3.086025 21.682184 -6.202978
Se -3.086025 18.585858 -9.299304
Se -6.182351 18.585858 -0.010326
Se -6.182351 21.682184 -3.106652
Se -3.086025 21.682184 -0.010326
Se -3.086025 18.585858 -3.106652
Se -6.182351 18.585858 6.182326
Se -6.182351 21.682184 3.086000
Se -3.086025 21.682184 6.182326
Se -3.086025 18.585858 3.086000
Se -6.182351 18.585858 12.374978
Se -6.182351 21.682184 9.278652
Se -3.086025 21.682184 12.374978
Se -3.086025 18.585858 9.278652
Se -6.182351 18.585858 18.567630
Se -6.182351 21.682184 15.471304
Se -3.086025 21.682184 18.567630
Se -3.086025 18.585858 15.471304
Se -3.086025 18.585858 21.663956
Se -6.182351 24.778510 -12.395630
Se -3.086025 24.778510 -15.491956
Se -6.182351 24.778510 -6.202978
Se -3.086025 24.778510 -9.299304
Se -6.182351 24.778510 -0.010326
Se -3.086025 24.778510 -3.106652
Se -6.182351 24.778510 6.182326
Se -3.086025 24.778510 3.086000
Se -6.182351 24.778510 12.374978
Se -3.086025 24.778510 9.278652
Se -3.086025 24.778510 15.471304
Se 3.106627 -21.666380 -18.588282
Se 0.010301 -24.762706 -12.395630
Se 0.010301 -21.666380 -15.491956
Se 3.106627 -21.666380 -12.395630
Se 3.106627 -24.762706 -15.491956
Se 0.010301 -24.762706 -6.202978
Se 0.010301 -21.666380 -9.299304
Se 3.106627 -21.666380 -6.202978
Se 3.106627 -24.762706 -9.299304
Se 0.010301 -24.762706 -0.010326
Se 0.010301 -21.666380 -3.106652
Se 3.106627 -21.666380 -0.010326
Se 3.106627 -24.762706 -3.106652
Se 0.010301 -24.762706 6.182326
Se 0.010301 -21.666380 3.086000
Se 3.106627 -21.666380 6.182326
Se 3.106627 -24.762706 3.086000
Se 0.010301 -24.762706 12.374978
Se 0.010301 -21.666380 9.278652
Se 3.106627 -21.666380 12.374978
Se 3.106627 -24.762706 9.278652
Se 0.010301 -21.666380 15.471304
Se 3.106627 -21.666380 18.567630
Se 3.106627 -24.762706 15.471304
Se 3.106627 -15.473728 -24.780934
Se 0.010301 -18.570054 -18.588282
Se 0.010301 -15.473728 -21.684608
Se 3.106627 -15.473728 -18.588282
Se 3.106627 -18.570054 -21.684608
Se 0.010301 -18.570054 -12.395630
Se 0.010301 -15.473728 -15.491956
Se 3.106627 -15.473728 -12.395630
Se 3.106627 -18.570054 -15.491956
Se 0.010301 -18.570054 -6.202978
Se 0.010301 -15.473728 -9.299304
Se 3.106627 -15.473728 -6.202978
Se 3.106627 -18.570054 -9.299304
Se 0.010301 -18.570054 -0.010326
Se 0.010301 -15.473728 -3.106652
Se 3.106627 -15.473728 -0.010326
Se 3.106627 -18.570054 -3.106652
Se 0.010301 -18.570054 6.182326
Se 0.010301 -15.473728 3.086000
Se 3.106627 -15.473728 6.182326
Se 3.106627 -18.570054 3.086000
Se 0.010301 -18.570054 12.374978
Se 0.010301 -15.473728 9.278652
Se 3.106627 -15.473728 12.374978
Se 3.106627 -18.570054 9.278652
Se 0.010301 -18.570054 18.567630
Se 0.010301 -15.473728 15.471304
Se 3.106627 -15.473728 18.567630
Se 3.106627 -18.570054 15.471304
Se 0.010301 -15.473728 21.663956
Se 3.106627 -15.473728 24.760282
Se 3.106627 -18.570054 21.663956
Se 0.010301 -12.377402 -24.780934
Se 3.106627 -9.281076 -24.780934
Se 0.010301 -12.377402 -18.588282
Se 0.010301 -9.281076 -21.684608
Se 3.106627 -9.281076 -18.588282
Se 3.106627 -12.377402 -21.684608
Se 0.010301 -12.377402 -12.395630
Se 0.010301 -9.281076 -15.491956
Se 3.106627 -9.281076 -12.395630
Se 3.106627 -12.377402 -15.491956
Se 0.010301 -12.377402 -6.202978
Se 0.010301 -9.281076 -9.299304
Se 3.106627 -9.281076 -6.202978
Se 3.106627 -12.377402 -9.299304
Se 0.010301 -12.377402 -0.010326
Se 0.010301 -9.281076 -3.106652
Se 3.106627 -9.281076 -0.010326
Se 3.106627 -12.377402 -3.106652
Se 0.010301 -12.377402 6.182326
Se 0.010301 -9.281076 3.086000
Se 3.106627 -9.281076 6.182326
Se 3.106627 -12.377402 3.086000
Se 0.010301 -12.377402 12.374978
Se 0.010301 -9.281076 9.278652
Se 3.106627 -9.281076 12.374978
Se 3.106627 -12.377402 9.278652
Se 0.010301 -12.377402 18.567630
Se 0.010301 -9.281076 15.471304
Se 3.106627 -9.281076 18.567630
Se 3.106627 -12.377402 15.471304
Se 0.010301 -12.377402 24.760282
Se 0.010301 -9.281076 21.663956
Se 3.106627 -9.281076 24.760282
Se 3.106627 -12.377402 21.663956
Se 0.010301 -6.184750 -24.780934
Se 3.106627 -3.088424 -24.780934
Se 0.010301 -6.184750 -18.588282
Se 0.010301 -3.088424 -21.684608
Se 3.106627 -3.088424 -18.588282
Se 3.106627 -6.184750 -21.684608
Se 0.010301 -6.184750 -12.395630
Se 0.010301 -3.088424 -15.491956
Se 3.106627 -3.088424 -12.395630
Se 3.106627 -6.184750 -15.491956
Se 0.010301 -6.184750 -6.202978
Se 0.010301 -3.088424 -9.299304
Se 3.106627 -3.088424 -6.202978
Se 3.106627 -6.184750 -9.299304
Se 0.010301 -6.184750 -0.010326
Se 0.010301 -3.088424 -3.106652
Se 3.106627 -3.088424 -0.010326
Se 3.106627 -6.184750 -3.106652
Se 0.010301 -6.184750 6.182326
Se 0.010301 -3.088424 3.086000
Se 3.106627 -3.088424 6.182326
Se 3.106627 -6.184750 3.086000
Se 0.010301 -6.184750 12.374978
Se 0.010301 -3.088424 9.278652
Se 3.106627 -3.088424 12.374978
Se 3.106627 -6.184750 9.278652
Se 0.010301 -6.184750 18.567630
Se 0.010301 -3.088424 15.471304
Se 3.106627 -3.088424 18.567630
Se 3.106627 -6.184750 15.471304
Se 0.010301 -6.184750 24.760282
Se 0.010301 -3.088424 21.663956
Se 3.106627 -3.088424 24.760282
Se 3.106627 -6.184750 21.663956
Se 0.010301 0.007902 -24.780934
Se 3.106627 3.104228 -24.780934
Se 0.010301 0.007902 -18.588282
Se 0.010301 3.104228 -21.684608
Se 3.106627 3.104228 -18.588282
Se 3.106627 0.007902 -21.684608
Se 0.010301 0.007902 -12.395630
Se 0.010301 3.104228 -15.491956
Se 3.106627 3.104228 -12.395630
Se 3.106627 0.007902 -15.491956
Se 0.010301 0.007902 -6.202978
Se 0.010301 3.104228 -9.299304
Se 3.106627 3.104228 -6.202978
Se 3.106627 0.007902 -9.299304
Se 0.010301 0.007902 -0.010326
Se 0.010301 3.104228 -3.106652
Se 3.106627 3.104228 -0.010326
Se 3.106627 0.007902 -3.106652
Se 0.010301 0.007902 6.182326
Se 0.010301 3.104228 3.086000
Se 3.106627 3.104228 6.182326
Se 3.106627 0.007902 3.086000
Se 0.010301 0.007902 12.374978
Se 0.010301 3.104228 9.278652
Se 3.106627 3.104228 12.374978
Se 3.106627 0.007902 9.278652
Se 0.010301 0.007902 18.567630
Se 0.010301 3.104228 15.471304
Se 3.106627 3.104228 18.567630
Se 3.106627 0.007902 15.471304
Se 0.010301 0.007902 24.760282
Se 0.010301 3.104228 21.663956
Se 3.106627 3.104228 24.760282
Se 3.106627 0.007902 21.663956
Se 0.010301 6.200554 -24.780934
Se 3.106627 9.296880 -24.780934
Se 0.010301 6.200554 -18.588282
Se 0.010301 9.296880 -21.684608
Se 3.106627 9.296880 -18.588282
Se 3.106627 6.200554 -21.684608
Se 0.010301 6.200554 -12.395630
Se 0.010301 9.296880 -15.491956
Se 3.106627 9.296880 -12.395630
Se 3.106627 6.200554 -15.491956
Se 0.010301 6.200554 -6.202978
Se 0.010301 9.296880 -9.299304
Se 3.106627 9.296880 -6.202978
Se 3.106627 6.200554 -9.299304
Se 0.010301 6.200554 -0.010326
Se 0.010301 9.296880 -3.106652
Se 3.106627 9.296880 -0.010326
Se 3.106627 6.200554 -3.106652
Se 0.010301 6.200554 6.182326
Se 0.010301 9.296880 3.086000
Se 3.106627 9.296880 6.182326
Se 3.106627 6.200554 3.086000
Se 0.010301 6.200554 12.374978
Se 0.010301 9.296880 9.278652
Se 3.106627 9.296880 12.374978
Se 3.106627 6.200554 9.278652
Se 0.010301 6.200554 18.567630
Se 0.010301 9.296880 15.471304
Se 3.106627 9.296880 18.567630
Se 3.106627 6.200554 15.471304
Se 0.010301 6.200554 24.760282
Se 0.010301 9.296880 21.663956
Se 3.106627 9.296880 24.760282
Se 3.106627 6.200554 21.663956
Se 0.010301 12.393206 -24.780934
Se 3.106627 15.489532 -24.780934
Se 0.010301 12.393206 -18.588282
Se 0.010301 15.489532 -21.684608
Se 3.106627 15.489532 -18.588282
Se 3.106627 12.393206 -21.684608
Se 0.010301 12.393206 -12.395630
Se 0.010301 15.489532 -15.491956
Se 3.106627 15.489532 -12.395630
Se 3.106627 12.393206 -15.491956
Se 0.010301 12.393206 -6.202978
Se 0.010301 15.489532 -9.299304
Se 3.106627 15.489532 -6.202978
Se 3.106627 12.393206 -9.299304
Se 0.010301 12.393206 -0.010326
Se 0.010301 15.489532 -3.106652
Se 3.106627 15.489532 -0.010326
Se 3.106627 12.393206 -3.106652
Se 0.010301 12.393206 6.182326
Se 0.010301 15.489532 3.086000
Se 3.106627 15.489532 6.182326
Se 3.106627 12.393206 3.086000
Se 0.010301 12.393206 12.374978
Se 0.010301 15.489532 9.278652
Se 3.106627 15.489532 12.374978
Se 3.106627 12.393206 9.278652
Se 0.010301 12.393206 18.567630
Se 0.010301 15.489532 15.471304
Se 3.106627 15.489532 18.567630
Se 3.106627 12.393206 15.471304
Se 0.010301 12.393206 24.760282
Se 0.010301 15.489532 21.663956
Se 3.106627 15.489532 24.760282
Se 3.106627 12.393206 21.663956
Se 0.010301 18.585858 -18.588282
Se 3.106627 21.682184 -18.588282
Se 3.106627 18.585858 -21.684608
Se 0.010301 18.585858 -12.395630
Se 0.010301 21.682184 -15.491956
Se 3.106627 21.682184 -12.395630
Se 3.106627 18.585858 -15.491956
Se 0.010301 18.585858 -6.202978
Se 0.010301 21.682184 -9.299304
Se 3.106627 21.682184 -6.202978
Se 3.106627 18.585858 -9.299304
Se 0.010301 18.585858 -0.010326
Se 0.010301 21.682184 -3.106652
Se 3.106627 21.682184 -0.010326
Se 3.106627 18.585858 -3.106652
Se 0.010301 18.585858 6.182326
Se 0.010301 21.682184 3.086000
Se 3.106627 21.682184 6.182326
Se 3.106627 18.585858 3.086000
Se 0.010301 18.585858 12.374978
Se 0.010301 21.682184 9.278652
Se 3.106627 21.682184 12.374978
Se 3.106627 18.585858 9.278652
Se 0.010301 18.585858 18.567630
Se 0.010301 21.682184 15.471304
Se 3.106627 21.682184 18.567630
Se 3.106627 18.585858 15.471304
Se 3.106627 18.585858 21.663956
Se 0.010301 24.778510 -12.395630
Se 3.106627 24.778510 -15.491956
Se 0.010301 24.778510 -6.202978
Se 3.106627 24.778510 -9.299304
Se 0.010301 24.778510 -0.010326
Se 3.106627 24.778510 -3.106652
Se 0.010301 24.778510 6.182326
Se 3.106627 24.778510 3.086000
Se 0.010301 24.778510 12.374978
Se 3.106627 24.778510 9.278652
Se 3.106627 24.778510 15.471304
Se 6.202953 -24.762706 -12.395630
Se 6.202953 -21.666380 -15.491956
Se 9.299279 -21.666380 -12.395630
Se 9.299279 -24.762706 -15.491956
Se 6.202953 -24.762706 -6.202978
Se 6.202953 -21.666380 -9.299304
Se 9.299279 -21.666380 -6.202978
Se 9.299279 -24.762706 -9.299304
Se 6.202953 -24.762706 -0.010326
Se 6.202953 -21.666380 -3.106652
Se 9.299279 -21.666380 -0.010326
Se 9.299279 -24.762706 -3.106652
Se 6.202953 -24.762706 6.182326
Se 6.202953 -21.666380 3.086000
Se 9.299279 -21.666380 6.182326
Se 9.299279 -24.762706 3.086000
Se 6.202953 -24.762706 12.374978
Se 6.202953 -21.666380 9.278652
Se 9.299279 -21.666380 12.374978
Se 9.299279 -24.762706 9.278652
Se 6.202953 -21.666380 15.471304
Se 6.202953 -18.570054 -18.588282
Se 6.202953 -15.473728 -21.684608
Se 9.299279 -15.473728 -18.588282
Se 9.299279 -18.570054 -21.684608
Se 6.202953 -18.570054 -12.395630
Se 6.202953 -15.473728 -15.491956
Se 9.299279 -15.473728 -12.395630
Se 9.299279 -18.570054 -15.491956
Se 6.202953 -18.570054 -6.202978
Se 6.202953 -15.473728 -9.299304
Se 9.299279 -15.473728 -6.202978
Se 9.299279 -18.570054 -9.299304
Se 6.202953 -18.570054 -0.010326
Se 6.202953 -15.473728 -3.106652
Se 9.299279 -15.473728 -0.010326
Se 9.299279 -18.570054 -3.106652
Se 6.202953 -18.570054 6.182326
Se 6.202953 -15.473728 3.086000
Se 9.299279 -15.473728 6.182326
Se 9.299279 -18.570054 3.086000
Se 6.202953 -18.570054 12.374978
Se 6.202953 -15.473728 9.278652
Se 9.299279 -15.473728 12.374978
Se 9.299279 -18.570054 9.278652
Se 6.202953 -18.570054 18.567630
Se 6.202953 -15.473728 15.471304
Se 9.299279 -15.473728 18.567630
Se 9.299279 -18.570054 15.471304
Se 6.202953 -15.473728 21.663956
Se 6.202953 -12.377402 -24.780934
Se 9.299279 -9.281076 -24.780934
Se 6.202953 -12.377402 -18.588282
Se 6.202953 -9.281076 -21.684608
Se 9.299279 -9.281076 -18.588282
Se 9.299279 -12.377402 -21.684608
Se 6.202953 -12.377402 -12.395630
Se 6.202953 -9.281076 -15.491956
Se 9.299279 -9.281076 -12.395630
Se 9.299279 -12.377402 -15.491956
Se 6.202953 -12.377402 -6.202978
Se 6.202953 -9.281076 -9.299304
Se 9.299279 -9.281076 -6.202978
Se 9.299279 -12.377402 -9.299304
Se 6.202953 -12.377402 -0.010326
Se 6.202953 -9.281076 -3.106652
Se 9.299279 -9.281076 -0.010326
Se 9.299279 -12.377402 -3.106652
Se 6.202953 -12.377402 6.182326
Se 6.202953 -9.281076 3.086000
Se 9.299279 -9.281076 6.182326
Se 9.299279 -12.377402 3.086000
Se 6.202953 -12.377402 12.374978
Se 6.202953 -9.281076 9.278652
Se 9.299279 -9.281076 12.374978
Se 9.299279 -12.377402 9.278652
Se 6.202953 -12.377402 18.567630
Se 6.202953 -9.281076 15.471304
Se 9.299279 -9.281076 18.567630
Se 9.299279 -12.377402 15.471304
Se 6.202953 -12.377402 24.760282
Se 6.202953 -9.281076 21.663956
Se 9.299279 -9.281076 24.760282
Se 9.299279 -12.377402 21.663956
Se 6.202953 -6.184750 -24.780934
Se 9.299279 -3.088424 -24.780934
Se 6.202953 -6.184750 -18.588282
Se 6.202953 -3.088424 -21.684608
Se 9.299279 -3.088424 -18.588282
Se 9.299279 -6.184750 -21.684608
Se 6.202953 -6.184750 -12.395630
Se 6.202953 -3.088424 -15.491956
Se 9.299279 -3.088424 -12.395630
Se 9.299279 -6.184750 -15.491956
Se 6.202953 -6.184750 -6.202978
Se 6.202953 -3.088424 -9.299304
Se 9.299279 -3.088424 -6.202978
Se 9.299279 -6.184750 -9.299304
Se 6.202953 -6.184750 -0.010326
Se 6.202953 -3.088424 -3.106652
Se 9.299279 -3.088424 -0.010326
Se 9.299279 -6.184750 -3.106652
Se 6.202953 -6.184750 6.182326
Se 6.202953 -3.088424 3.086000
Se 9.299279 -3.088424 6.182326
Se 9.299279 -6.184750 3.086000
Se 6.202953 -6.184750 12.374978
Se 6.202953 -3.088424 9.278652
Se 9.299279 -3.088424 12.374978
Se 9.299279 -6.184750 9.278652
Se 6.202953 -6.184750 18.567630
Se 6.202953 -3.088424 15.471304
Se 9.299279 -3.088424 18.567630
Se 9.299279 -6.184750 15.471304
Se 6.202953 -6.184750 24.760282
Se 6.202953 -3.088424 21.663956
Se 9.299279 -3.088424 24.760282
Se 9.299279 -6.184750 21.663956
Se 6.202953 0.007902 -24.780934
Se 9.299279 3.104228 -24.780934
Se 6.202953 0.007902 -18.588282
Se 6.202953 3.104228 -21.684608
Se 9.299279 3.104228 -18.588282
Se 9.299279 0.007902 -21.684608
Se 6.202953 0.007902 -12.395630
Se 6.202953 3.104228 -15.491956
Se 9.299279 3.104228 -12.395630
Se 9.299279 0.007902 -15.491956
Se 6.202953 0.007902 -6.202978
Se 6.202953 3.104228 -9.299304
Se 9.299279 3.104228 -6.202978
Se 9.299279 0.007902 -9.299304
Se 6.202953 0.007902 -0.010326
Se 6.202953 3.104228 -3.106652
Se 9.299279 3.104228 -0.010326
Se 9.299279 0.007902 -3.106652
Se 6.202953 0.007902 6.182326
Se 6.202953 3.104228 3.086000
Se 9.299279 3.104228 6.182326
Se 9.299279 0.007902 3.086000
Se 6.202953 0.007902 12.374978
Se 6.202953 3.104228 9.278652
Se 9.299279 3.104228 12.374978
Se 9.299279 0.007902 9.278652
Se 6.202953 0.007902 18.567630
Se 6.202953 3.104228 15.471304
Se 9.299279 3.104228 18.567630
Se 9.299279 0.007902 15.471304
Se 6.202953 0.007902 24.760282
Se 6.202953 3.104228 21.663956
Se 9.299279 3.104228 24.760282
Se 9.299279 0.007902 21.663956
Se 6.202953 6.200554 -24.780934
Se 9.299279 9.296880 -24.780934
Se 6.202953 6.200554 -18.588282
Se 6.202953 9.296880 -21.684608
Se 9.299279 9.296880 -18.588282
Se 9.299279 6.200554 -21.684608
Se 6.202953 6.200554 -12.395630
Se 6.202953 9.296880 -15.491956
Se 9.299279 9.296880 -12.395630
Se 9.299279 6.200554 -15.491956
Se 6.202953 6.200554 -6.202978
Se 6.202953 9.296880 -9.299304
Se 9.299279 9.296880 -6.202978
Se 9.299279 6.200554 -9.299304
Se 6.202953 6.200554 -0.010326
Se 6.202953 9.296880 -3.106652
Se 9.299279 9.296880 -0.010326
Se 9.299279 6.200554 -3.106652
Se 6.202953 6.200554 6.182326
Se 6.202953 9.296880 3.086000
Se 9.299279 9.296880 6.182326
Se 9.299279 6.200554 3.086000
Se 6.202953 6.200554 12.374978
Se 6.202953 9.296880 9.278652
Se 9.299279 9.296880 12.374978
Se 9.299279 6.200554 9.278652
Se 6.202953 6.200554 18.567630
Se 6.202953 9.296880 15.471304
Se 9.299279 9.296880 18.567630
Se 9.299279 6.200554 15.471304
Se 6.202953 6.200554 24.760282
Se 6.202953 9.296880 21.663956
Se 9.299279 9.296880 24.760282
Se 9.299279 6.200554 21.663956
Se 6.202953 12.393206 -24.780934
Se 6.202953 12.393206 -18.588282
Se 6.202953 15.489532 -21.684608
Se 9.299279 15.489532 -18.588282
Se 9.299279 12.393206 -21.684608
Se 6.202953 12.393206 -12.395630
Se 6.202953 15.489532 -15.491956
Se 9.299279 15.489532 -12.395630
Se 9.299279 12.393206 -15.491956
Se 6.202953 12.393206 -6.202978
Se 6.202953 15.489532 -9.299304
Se 9.299279 15.489532 -6.202978
Se 9.299279 12.393206 -9.299304
Se 6.202953 12.393206 -0.010326
Se 6.202953 15.489532 -3.106652
Se 9.299279 15.489532 -0.010326
Se 9.299279 12.393206 -3.106652
Se 6.202953 12.393206 6.182326
Se 6.202953 15.489532 3.086000
Se 9.299279 15.489532 6.182326
Se 9.299279 12.393206 3.086000
Se 6.202953 12.393206 12.374978
Se 6.202953 15.489532 9.278652
Se 9.299279 15.489532 12.374978
Se 9.299279 12.393206 9.278652
Se 6.202953 12.393206 18.567630
Se 6.202953 15.489532 15.471304
Se 9.299279 15.489532 18.567630
Se 9.299279 12.393206 15.471304
Se 6.202953 12.393206 24.760282
Se 6.202953 15.489532 21.663956
Se 9.299279 12.393206 21.663956
Se 6.202953 18.585858 -18.588282
Se 6.202953 18.585858 -12.395630
Se 6.202953 21.682184 -15.491956
Se 9.299279 21.682184 -12.395630
Se 9.299279 18.585858 -15.491956
Se 6.202953 18.585858 -6.202978
Se 6.202953 21.682184 -9.299304
Se 9.299279 21.682184 -6.202978
Se 9.299279 18.585858 -9.299304
Se 6.202953 18.585858 -0.010326
Se 6.202953 21.682184 -3.106652
Se 9.299279 21.682184 -0.010326
Se 9.299279 18.585858 -3.106652
Se 6.202953 18.585858 6.182326
Se 6.202953 21.682184 3.086000
Se 9.299279 21.682184 6.182326
Se 9.299279 18.585858 3.086000
Se 6.202953 18.585858 12.374978
Se 6.202953 21.682184 9.278652
Se 9.299279 21.682184 12.374978
Se 9.299279 18.585858 9.278652
Se 6.202953 18.585858 18.567630
Se 6.202953 21.682184 15.471304
Se 9.299279 18.585858 15.471304
Se 9.299279 18.585858 21.663956
Se 6.202953 24.778510 -12.395630
Se 6.202953 24.778510 -6.202978
Se 9.299279 24.778510 -9.299304
Se 6.202953 24.778510 -0.010326
Se 9.299279 24.778510 -3.106652
Se 6.202953 24.778510 6.182326
Se 9.299279 24.778510 3.086000
Se 6.202953 24.778510 12.374978
Se 9.299279 24.778510 9.278652
Se 9.299279 24.778510 15.471304
Se 12.395605 -24.762706 -6.202978
Se 12.395605 -21.666380 -9.299304
Se 15.491931 -21.666380 -6.202978
Se 12.395605 -24.762706 -0.010326
Se 12.395605 -21.666380 -3.106652
Se 15.491931 -21.666380 -0.010326
Se 15.491931 -24.762706 -3.106652
Se 12.395605 -24.762706 6.182326
Se 12.395605 -21.666380 3.086000
Se 15.491931 -21.666380 6.182326
Se 15.491931 -24.762706 3.086000
Se 12.395605 -21.666380 9.278652
Se 12.395605 -18.570054 -12.395630
Se 12.395605 -15.473728 -15.491956
Se 15.491931 -15.473728 -12.395630
Se 12.395605 -18.570054 -6.202978
Se 12.395605 -15.473728 -9.299304
Se 15.491931 -15.473728 -6.202978
Se 15.491931 -18.570054 -9.299304
Se 12.395605 -18.570054 -0.010326
Se 12.395605 -15.473728 -3.106652
Se 15.491931 -15.473728 -0.010326
Se 15.491931 -18.570054 -3.106652
Se 12.395605 -18.570054 6.182326
Se 12.395605 -15.473728 3.086000
Se 15.491931 -15.473728 6.182326
Se 15.491931 -18.570054 3.086000
Se 12.395605 -18.570054 12.374978
Se 12.395605 -15.473728 9.278652
Se 15.491931 -15.473728 12.374978
Se 15.491931 -18.570054 9.278652
Se 12.395605 -15.473728 15.471304
Se 12.395605 -12.377402 -24.780934
Se 12.395605 -12.377402 -18.588282
Se 12.395605 -9.281076 -21.684608
Se 15.491931 -9.281076 -18.588282
Se 12.395605 -12.377402 -12.395630
Se 12.395605 -9.281076 -15.491956
Se 15.491931 -9.281076 -12.395630
Se 15.491931 -12.377402 -15.491956
Se 12.395605 -12.377402 -6.202978
Se 12.395605 -9.281076 -9.299304
Se 15.491931 -9.281076 -6.202978
Se 15.491931 -12.377402 -9.299304
Se 12.395605 -12.377402 -0.010326
Se 12.395605 -9.281076 -3.106652
Se 15.491931 -9.281076 -0.010326
Se 15.491931 -12.377402 -3.106652
Se 12.395605 -12.377402 6.182326
Se 12.395605 -9.281076 3.086000
Se 15.491931 -9.281076 6.182326
Se 15.491931 -12.377402 3.086000
Se 12.395605 -12.377402 12.374978
Se 12.395605 -9.281076 9.278652
Se 15.491931 -9.281076 12.374978
Se 15.491931 -12.377402 9.278652
Se 12.395605 -12.377402 18.567630
Se 12.395605 -9.281076 15.471304
Se 15.491931 -9.281076 18.567630
Se 15.491931 -12.377402 15.471304
Se 12.395605 -9.281076 21.663956
Se 12.395605 -6.184750 -24.780934
Se 15.491931 -3.088424 -24.780934
Se 12.395605 -6.184750 -18.588282
Se 12.395605 -3.088424 -21.684608
Se 15.491931 -3.088424 -18.588282
Se 15.491931 -6.184750 -21.684608
Se 12.395605 -6.184750 -12.395630
Se 12.395605 -3.088424 -15.491956
Se 15.491931 -3.088424 -12.395630
Se 15.491931 -6.184750 -15.491956
Se 12.395605 -6.184750 -6.202978
Se 12.395605 -3.088424 -9.299304
Se 15.491931 -3.088424 -6.202978
Se 15.491931 -6.184750 -9.299304
Se 12.395605 -6.184750 -0.010326
Se 12.395605 -3.088424 -3.106652
Se 15.491931 -3.088424 -0.010326
Se 15.491931 -6.184750 -3.106652
Se 12.395605 -6.184750 6.182326
Se 12.395605 -3.088424 3.086000
Se 15.491931 -3.088424 6.182326
Se 15.491931 -6.184750 3.086000
Se 12.395605 -6.184750 12.374978
Se 12.395605 -3.088424 9.278652
Se 15.491931 -3.088424 12.374978
Se 15.491931 -6.184750 9.278652
Se 12.395605 -6.184750 18.567630
Se 12.395605 -3.088424 15.471304
Se 15.491931 -3.088424 18.567630
Se 15.491931 -6.184750 15.471304
Se 12.395605 -6.184750 24.760282
Se 12.395605 -3.088424 21.663956
Se 15.491931 -3.088424 24.760282
Se 15.491931 -6.184750 21.663956
Se 12.395605 0.007902 -24.780934
Se 15.491931 3.104228 -24.780934
Se 12.395605 0.007902 -18.588282
Se 12.395605 3.104228 -21.684608
Se 15.491931 3.104228 -18.588282
Se 15.491931 0.007902 -21.684608
Se 12.395605 0.007902 -12.395630
Se 12.395605 3.104228 -15.491956
Se 15.491931 3.104228 -12.395630
Se 15.491931 0.007902 -15.491956
Se 12.395605 0.007902 -6.202978
Se 12.395605 3.104228 -9.299304
Se 15.491931 3.104228 -6.202978
Se 15.491931 0.007902 -9.299304
Se 12.395605 0.007902 -0.010326
Se 12.395605 3.104228 -3.106652
Se 15.491931 3.104228 -0.010326
Se 15.491931 0.007902 -3.106652
Se 12.395605 0.007902 6.182326
Se 12.395605 3.104228 3.086000
Se 15.491931 3.104228 6.182326
Se 15.491931 0.007902 3.086000
Se 12.395605 0.007902 12.374978
Se 12.395605 3.104228 9.278652
Se 15.491931 3.104228 12.374978
Se 15.491931 0.007902 9.278652
Se 12.395605 0.007902 18.567630
Se 12.395605 3.104228 15.471304
Se 15.491931 3.104228 18.567630
Se 15.491931 0.007902 15.471304
Se 12.395605 0.007902 24.760282
Se 12.395605 3.104228 21.663956
Se 15.491931 3.104228 24.760282
Se 15.491931 0.007902 21.663956
Se 12.395605 6.200554 -24.780934
Se 12.395605 6.200554 -18.588282
Se 12.395605 9.296880 -21.684608
Se 15.491931 9.296880 -18.588282
Se 15.491931 6.200554 -21.684608
Se 12.395605 6.200554 -12.395630
Se 12.395605 9.296880 -15.491956
Se 15.491931 9.296880 -12.395630
Se 15.491931 6.200554 -15.491956
Se 12.395605 6.200554 -6.202978
Se 12.395605 9.296880 -9.299304
Se 15.491931 9.296880 -6.202978
Se 15.491931 6.200554 -9.299304
Se 12.395605 6.200554 -0.010326
Se 12.395605 9.296880 -3.106652
Se 15.491931 9.296880 -0.010326
Se 15.491931 6.200554 -3.106652
Se 12.395605 6.200554 6.182326
Se 12.395605 9.296880 3.086000
Se 15.491931 9.296880 6.182326
Se 15.491931 6.200554 3.086000
Se 12.395605 6.200554 12.374978
Se 12.395605 9.296880 9.278652
Se 15.491931 9.296880 12.374978
Se 15.491931 6.200554 9.278652
Se 12.395605 6.200554 18.567630
Se 12.395605 9.296880 15.471304
Se 15.491931 9.296880 18.567630
Se 15.491931 6.200554 15.471304
Se 12.395605 6.200554 24.760282
Se 12.395605 9.296880 21.663956
Se 15.491931 6.200554 21.663956
Se 12.395605 12.393206 -18.588282
Se 12.395605 12.393206 -12.395630
Se 12.395605 15.489532 -15.491956
Se 15.491931 15.489532 -12.395630
Se 15.491931 12.393206 -15.491956
Se 12.395605 12.393206 -6.202978
Se 12.395605 15.489532 -9.299304
Se 15.491931 15.489532 -6.202978
Se 15.491931 12.393206 -9.299304
Se 12.395605 12.393206 -0.010326
Se 12.395605 15.489532 -3.106652
Se 15.491931 15.489532 -0.010326
Se 15.491931 12.393206 -3.106652
Se 12.395605 12.393206 6.182326
Se 12.395605 15.489532 3.086000
Se 15.491931 15.489532 6.182326
Se 15.491931 12.393206 3.086000
Se 12.395605 12.393206 12.374978
Se 12.395605 15.489532 9.278652
Se 15.491931 15.489532 12.374978
Se 15.491931 12.393206 9.278652
Se 12.395605 12.393206 18.567630
Se 12.395605 15.489532 15.471304
Se 15.491931 12.393206 15.471304
Se 12.395605 12.393206 24.760282
Se 12.395605 18.585858 -12.395630
Se 12.395605 18.585858 -6.202978
Se 12.395605 21.682184 -9.299304
Se 15.491931 21.682184 -6.202978
Se 15.491931 18.585858 -9.299304
Se 12.395605 18.585858 -0.010326
Se 12.395605 21.682184 -3.106652
Se 15.491931 21.682184 -0.010326
Se 15.491931 18.585858 -3.106652
Se 12.395605 18.585858 6.182326
Se 12.395605 21.682184 3.086000
Se 15.491931 21.682184 6.182326
Se 15.491931 18.585858 3.086000
Se 12.395605 18.585858 12.374978
Se 12.395605 21.682184 9.278652
Se 15.491931 18.585858 9.278652
Se 12.395605 24.778510 -6.202978
Se 12.395605 24.778510 -0.010326
Se 15.491931 24.778510 -3.106652
Se 12.395605 24.778510 6.182326
Se 15.491931 24.778510 3.086000
Se 18.588257 -21.666380 -3.106652
Se 18.588257 -21.666380 3.086000
Se 18.588257 -18.570054 -6.202978
Se 18.588257 -15.473728 -9.299304
Se 21.684583 -15.473728 -6.202978
Se 21.684583 -18.570054 -9.299304
Se 18.588257 -18.570054 -0.010326
Se 18.588257 -15.473728 -3.106652
Se 21.684583 -15.473728 -0.010326
Se 21.684583 -18.570054 -3.106652
Se 18.588257 -18.570054 6.182326
Se 18.588257 -15.473728 3.086000
Se 21.684583 -15.473728 6.182326
Se 21.684583 -18.570054 3.086000
Se 18.588257 -15.473728 9.278652
Se 18.588257 -9.281076 -21.684608
Se 18.588257 -12.377402 -12.395630
Se 18.588257 -9.281076 -15.491956
Se 21.684583 -9.281076 -12.395630
Se 18.588257 -12.377402 -6.202978
Se 18.588257 -9.281076 -9.299304
Se 21.684583 -9.281076 -6.202978
Se 21.684583 -12.377402 -9.299304
Se 18.588257 -12.377402 -0.010326
Se 18.588257 -9.281076 -3.106652
Se 21.684583 -9.281076 -0.010326
Se 21.684583 -12.377402 -3.106652
Se 18.588257 -12.377402 6.182326
Se 18.588257 -9.281076 3.086000
Se 21.684583 -9.281076 6.182326
Se 21.684583 -12.377402 3.086000
Se 18.588257 -12.377402 12.374978
Se 18.588257 -9.281076 9.278652
Se 21.684583 -9.281076 12.374978
Se 21.684583 -12.377402 9.278652
Se 18.588257 -9.281076 15.471304
Se 18.588257 -6.184750 -18.588282
Se 18.588257 -3.088424 -21.684608
Se 21.684583 -3.088424 -18.588282
Se 18.588257 -6.184750 -12.395630
Se 18.588257 -3.088424 -15.491956
Se 21.684583 -3.088424 -12.395630
Se 21.684583 -6.184750 -15.491956
Se 18.588257 -6.184750 -6.202978
Se 18.588257 -3.088424 -9.299304
Se 21.684583 -3.088424 -6.202978
Se 21.684583 -6.184750 -9.299304
Se 18.588257 -6.184750 -0.010326
Se 18.588257 -3.088424 -3.106652
Se 21.684583 -3.088424 -0.010326
Se 21.684583 -6.184750 -3.106652
Se 18.588257 -6.184750 6.182326
Se 18.588257 -3.088424 3.086000
Se 21.684583 -3.088424 6.182326
Se 21.684583 -6.184750 3.086000
Se 18.588257 -6.184750 12.374978
Se 18.588257 -3.088424 9.278652
Se 21.684583 -3.088424 12.374978
Se 21.684583 -6.184750 9.278652
Se 18.588257 -6.184750 18.567630
Se 18.588257 -3.088424 15.471304
Se 21.684583 -3.088424 18.567630
Se 21.684583 -6.184750 15.471304
Se 18.588257 -3.088424 21.663956
Se 18.588257 0.007902 -18.588282
Se 18.588257 3.104228 -21.684608
Se 21.684583 3.104228 -18.588282
Se 18.588257 0.007902 -12.395630
Se 18.588257 3.104228 -15.491956
Se 21.684583 3.104228 -12.395630
Se 21.684583 0.007902 -15.491956
Se 18.588257 0.007902 -6.202978
Se 18.588257 3.104228 -9.299304
Se 21.684583 3.104228 -6.202978
Se 21.684583 0.007902 -9.299304
Se 18.588257 0.007902 -0.010326
Se 18.588257 3.104228 -3.106652
Se 21.684583 3.104228 -0.010326
Se 21.684583 0.007902 -3.106652
Se 18.588257 0.007902 6.182326
Se 18.588257 3.104228 3.086000
Se 21.684583 3.104228 6.182326
Se 21.684583 0.007902 3.086000
Se 18.588257 0.007902 12.374978
Se 18.588257 3.104228 9.278652
Se 21.684583 3.104228 12.374978
Se 21.684583 0.007902 9.278652
Se 18.588257 0.007902 18.567630
Se 18.588257 3.104228 15.471304
Se 21.684583 3.104228 18.567630
Se 21.684583 0.007902 15.471304
Se 18.588257 3.104228 21.663956
Se 18.588257 6.200554 -18.588282
Se 18.588257 6.200554 -12.395630
Se 18.588257 9.296880 -15.491956
Se 21.684583 9.296880 -12.395630
Se 21.684583 6.200554 -15.491956
Se 18.588257 6.200554 -6.202978
Se 18.588257 9.296880 -9.299304
Se 21.684583 9.296880 -6.202978
Se 21.684583 6.200554 -9.299304
Se 18.588257 6.200554 -0.010326
Se 18.588257 9.296880 -3.106652
Se 21.684583 9.296880 -0.010326
Se 21.684583 6.200554 -3.106652
Se 18.588257 6.200554 6.182326
Se 18.588257 9.296880 3.086000
Se 21.684583 9.296880 6.182326
Se 21.684583 6.200554 3.086000
Se 18.588257 6.200554 12.374978
Se 18.588257 9.296880 9.278652
Se 21.684583 9.296880 12.374978
Se 21.684583 6.200554 9.278652
Se 18.588257 6.200554 18.567630
Se 18.588257 9.296880 15.471304
Se 21.684583 6.200554 15.471304
Se 18.588257 9.296880 21.663956
Se 18.588257 12.393206 -12.395630
Se 18.588257 12.393206 -6.202978
Se 18.588257 15.489532 -9.299304
Se 21.684583 15.489532 -6.202978
Se 21.684583 12.393206 -9.299304
Se 18.588257 12.393206 -0.010326
Se 18.588257 15.489532 -3.106652
Se 21.684583 15.489532 -0.010326
Se 21.684583 12.393206 -3.106652
Se 18.588257 12.393206 6.182326
Se 18.588257 15.489532 3.086000
Se 21.684583 15.489532 6.182326
Se 21.684583 12.393206 3.086000
Se 18.588257 12.393206 12.374978
Se 18.588257 15.489532 9.278652
Se 21.684583 12.393206 9.278652
Se 18.588257 18.585858 -6.202978
Se 18.588257 18.585858 -0.010326
Se 18.588257 21.682184 -3.106652
Se 21.684583 18.585858 -3.106652
Se 18.588257 18.585858 6.182326
Se 18.588257 21.682184 3.086000
Se 21.684583 18.585858 3.086000
Se 21.684583 18.585858 9.278652
Se 24.780909 -15.473728 -3.106652
Se 24.780909 -15.473728 3.086000
Se 24.780909 -9.281076 -15.491956
Se 24.780909 -12.377402 -6.202978
Se 24.780909 -9.281076 -9.299304
Se 24.780909 -12.377402 -0.010326
Se 24.780909 -9.281076 -3.106652
Se 24.780909 -12.377402 6.182326
Se 24.780909 -9.281076 3.086000
Se 24.780909 -9.281076 9.278652
Se 24.780909 -6.184750 -12.395630
Se 24.780909 -3.088424 -15.491956
Se 24.780909 -6.184750 -6.202978
Se 24.780909 -3.088424 -9.299304
Se 24.780909 -6.184750 -0.010326
Se 24.780909 -3.088424 -3.106652
Se 24.780909 -6.184750 6.182326
Se 24.780909 -3.088424 3.086000
Se 24.780909 -6.184750 12.374978
Se 24.780909 -3.088424 9.278652
Se 24.780909 -3.088424 15.471304
Se 24.780909 0.007902 -12.395630
Se 24.780909 3.104228 -15.491956
Se 24.780909 0.007902 -6.202978
Se 24.780909 3.104228 -9.299304
Se 24.780909 0.007902 -0.010326
Se 24.780909 3.104228 -3.106652
Se 24.780909 0.007902 6.182326
Se 24.780909 3.104228 3.086000
Se 24.780909 0.007902 12.374978
Se 24.780909 3.104228 9.278652
Se 24.780909 3.104228 15.471304
Se 24.780909 6.200554 -12.395630
Se 24.780909 6.200554 -6.202978
Se 24.780909 9.296880 -9.299304
Se 24.780909 6.200554 -0.010326
Se 24.780909 9.296880 -3.106652
Se 24.780909 6.200554 6.182326
Se 24.780909 9.296880 3.086000
Se 24.780909 6.200554 12.374978
Se 24.780909 9.296880 9.278652
Se 24.780909 9.296880 15.471304
Se 24.780909 12.393206 -6.202978
Se 24.780909 12.393206 -0.010326
Se 24.780909 15.489532 -3.106652
Se 24.780909 12.393206 6.182326
Se 24.780909 15.489532 3.086000
Cl -27.856633 -9.281076 -6.202978
Cl -27.856633 -9.281076 -0.010326
Cl -27.856633 -12.377402 -3.106652
Cl -27.856633 -9.281076 6.182326
Cl -27.856633 -12.377402 3.086000
Cl -27.856633 -9.281076 12.374978
Cl -27.856633 -12.377402 9.278652
Cl -27.856633 -3.088424 -12.395630
Cl -27.856633 -3.088424 -6.202978
Cl -27.856633 -6.184750 -9.299304
Cl -27.856633 -3.088424 -0.010326
Cl -27.856633 -6.184750 -3.106652
Cl -27.856633 -3.088424 6.182326
Cl -27.856633 -6.184750 3.086000
Cl -27.856633 -3.088424 12.374978
Cl -27.856633 -6.184750 9.278652
Cl -27.856633 3.104228 -12.395630
Cl -27.856633 3.104228 -6.202978
Cl -27.856633 0.007902 -9.299304
Cl -27.856633 3.104228 -0.010326
Cl -27.856633 0.007902 -3.106652
Cl -27.856633 3.104228 6.182326
Cl -27.856633 0.007902 3.086000
Cl -27.856633 3.104228 12.374978
Cl -27.856633 0.007902 9.278652
Cl -27.856633 9.296880 -12.395630
Cl -27.856633 9.296880 -6.202978
Cl -27.856633 6.200554 -9.299304
Cl -27.856633 9.296880 -0.010326
Cl -27.856633 6.200554 -3.106652
Cl -27.856633 9.296880 6.182326
Cl -27.856633 6.200554 3.086000
Cl -27.856633 6.200554 9.278652
Cl -27.856633 12.393206 -9.299304
Cl -27.856633 12.393206 -3.106652
Cl -27.856633 12.393206 3.086000
Cl -24.760307 -15.473728 9.278652
Cl -21.663981 -15.473728 12.374978
Cl -24.760307 -12.377402 12.374978
Cl -21.663981 -9.281076 18.567630
Cl -21.663981 -12.377402 15.471304
Cl -21.663981 9.296880 -18.588282
Cl -24.760307 12.393206 -12.395630
Cl -21.663981 15.489532 -12.395630
Cl -21.663981 12.393206 -15.491956
Cl -24.760307 15.489532 -9.299304
Cl -18.567655 -21.666380 9.278652
Cl -15.471329 -21.666380 12.374978
Cl -15.471329 -24.762706 9.278652
Cl -18.567655 -18.570054 12.374978
Cl -18.567655 -15.473728 15.471304
Cl -15.471329 -15.473728 18.567630
Cl -15.471329 -18.570054 15.471304
Cl -18.567655 -12.377402 18.567630
Cl -15.471329 -9.281076 24.760282
Cl -15.471329 -12.377402 21.663956
Cl -15.471329 9.296880 -24.780934
Cl -18.567655 12.393206 -18.588282
Cl -15.471329 15.489532 -18.588282
Cl -15.471329 12.393206 -21.684608
Cl -18.567655 15.489532 -15.491956
Cl -18.567655 18.585858 -12.395630
Cl -15.471329 21.682184 -12.395630
Cl -15.471329 18.585858 -15.491956
Cl -18.567655 21.682184 -9.299304
Cl -15.471329 24.778510 -9.299304
Cl -9.278677 -27.859032 -6.202978
Cl -12.375003 -27.859032 -3.106652
Cl -9.278677 -27.859032 -0.010326
Cl -12.375003 -27.859032 3.086000
Cl -9.278677 -27.859032 6.182326
Cl -12.375003 -27.859032 9.278652
Cl -9.278677 -27.859032 12.374978
Cl -12.375003 -24.762706 12.374978
Cl -12.375003 -21.666380 15.471304
Cl -9.278677 -21.666380 18.567630
Cl -12.375003 -18.570054 18.567630
Cl -12.375003 -15.473728 21.663956
Cl -9.278677 -15.473728 24.760282
Cl -12.375003 -9.281076 27.856608
Cl -9.278677 -12.377402 27.856608
Cl -12.375003 -3.088424 -27.877260
Cl -9.278677 -6.184750 -27.877260
Cl -12.375003 -3.088424 27.856608
Cl -9.278677 -6.184750 27.856608
Cl -12.375003 3.104228 -27.877260
Cl -9.278677 0.007902 -27.877260
Cl -12.375003 3.104228 27.856608
Cl -9.278677 0.007902 27.856608
Cl -12.375003 9.296880 -27.877260
Cl -9.278677 6.200554 -27.877260
Cl -9.278677 6.200554 27.856608
Cl -9.278677 15.489532 -24.780934
Cl -9.278677 12.393206 -27.877260
Cl -12.375003 15.489532 -21.684608
Cl -12.375003 18.585858 -18.588282
Cl -9.278677 21.682184 -18.588282
Cl -12.375003 21.682184 -15.491956
Cl -12.375003 24.778510 -12.395630
Cl -9.278677 27.874836 -12.395630
Cl -12.375003 27.874836 -9.299304
Cl -9.278677 27.874836 -6.202978
Cl -12.375003 27.874836 -3.106652
Cl -9.278677 27.874836 -0.010326
Cl -12.375003 27.874836 3.086000
Cl -9.278677 27.874836 6.182326
Cl -3.086025 -27.859032 -12.395630
Cl -6.182351 -27.859032 -9.299304
Cl -3.086025 -27.859032 -6.202978
Cl -6.182351 -27.859032 -3.106652
Cl -3.086025 -27.859032 -0.010326
Cl -6.182351 -27.859032 3.086000
Cl -3.086025 -27.859032 6.182326
Cl -6.182351 -27.859032 9.278652
Cl -3.086025 -27.859032 12.374978
Cl -6.182351 -9.281076 -27.877260
Cl -3.086025 -12.377402 -27.877260
Cl -6.182351 -9.281076 27.856608
Cl -3.086025 -12.377402 27.856608
Cl -6.182351 -3.088424 -27.877260
Cl -3.086025 -6.184750 -27.877260
Cl -6.182351 -3.088424 27.856608
Cl -3.086025 -6.184750 27.856608
Cl -6.182351 3.104228 -27.877260
Cl -3.086025 0.007902 -27.877260
Cl -6.182351 3.104228 27.856608
Cl -3.086025 0.007902 27.856608
Cl -6.182351 9.296880 -27.877260
Cl -3.086025 6.200554 -27.877260
Cl -6.182351 9.296880 27.856608
Cl -3.086025 6.200554 27.856608
Cl -3.086025 12.393206 -27.877260
Cl -3.086025 12.393206 27.856608
Cl -3.086025 27.874836 -12.395630
Cl -6.182351 27.874836 -9.299304
Cl -3.086025 27.874836 -6.202978
Cl -6.182351 27.874836 -3.106652
Cl -3.086025 27.874836 -0.010326
Cl -6.182351 27.874836 3.086000
Cl -3.086025 27.874836 6.182326
Cl -6.182351 27.874836 9.278652
Cl -3.086025 27.874836 12.374978
Cl 3.106627 -27.859032 -12.395630
Cl 0.010301 -27.859032 -9.299304
Cl 3.106627 -27.859032 -6.202978
Cl 0.010301 -27.859032 -3.106652
Cl 3.106627 -27.859032 -0.010326
Cl 0.010301 -27.859032 3.086000
Cl 3.106627 -27.859032 6.182326
Cl 0.010301 -27.859032 9.278652
Cl 3.106627 -27.859032 12.374978
Cl 0.010301 -9.281076 -27.877260
Cl 3.106627 -12.377402 -27.877260
Cl 0.010301 -9.281076 27.856608
Cl 3.106627 -12.377402 27.856608
Cl 0.010301 -3.088424 -27.877260
Cl 3.106627 -6.184750 -27.877260
Cl 0.010301 -3.088424 27.856608
Cl 3.106627 -6.184750 27.856608
Cl 0.010301 3.104228 -27.877260
Cl 3.106627 0.007902 -27.877260
Cl 0.010301 3.104228 27.856608
Cl 3.106627 0.007902 27.856608
Cl 0.010301 9.296880 -27.877260
Cl 3.106627 6.200554 -27.877260
Cl 0.010301 9.296880 27.856608
Cl 3.106627 6.200554 27.856608
Cl 3.106627 12.393206 -27.877260
Cl 3.106627 12.393206 27.856608
Cl 3.106627 27.874836 -12.395630
Cl 0.010301 27.874836 -9.299304
Cl 3.106627 27.874836 -6.202978
Cl 0.010301 27.874836 -3.106652
Cl 3.106627 27.874836 -0.010326
Cl 0.010301 27.874836 3.086000
Cl 3.106627 27.874836 6.182326
Cl 0.010301 27.874836 9.278652
Cl 3.106627 27.874836 12.374978
Cl 9.299279 -27.859032 -12.395630
Cl 6.202953 -27.859032 -9.299304
Cl 9.299279 -27.859032 -6.202978
Cl 6.202953 -27.859032 -3.106652
Cl 9.299279 -27.859032 -0.010326
Cl 6.202953 -27.859032 3.086000
Cl 9.299279 -27.859032 6.182326
Cl 6.202953 -27.859032 9.278652
Cl 9.299279 -21.666380 -18.588282
Cl 9.299279 -15.473728 -24.780934
Cl 6.202953 -9.281076 -27.877260
Cl 9.299279 -12.377402 -27.877260
Cl 6.202953 -9.281076 27.856608
Cl 6.202953 -3.088424 -27.877260
Cl 9.299279 -6.184750 -27.877260
Cl 6.202953 -3.088424 27.856608
Cl 9.299279 -6.184750 27.856608
Cl 6.202953 3.104228 -27.877260
Cl 9.299279 0.007902 -27.877260
Cl 6.202953 3.104228 27.856608
Cl 9.299279 0.007902 27.856608
Cl 6.202953 9.296880 -27.877260
Cl 9.299279 6.200554 -27.877260
Cl 6.202953 9.296880 27.856608
Cl 9.299279 6.200554 27.856608
Cl 9.299279 15.489532 24.760282
Cl 9.299279 12.393206 27.856608
Cl 9.299279 21.682184 18.567630
Cl 6.202953 27.874836 -9.299304
Cl 9.299279 27.874836 -6.202978
Cl 6.202953 27.874836 -3.106652
Cl 9.299279 27.874836 -0.010326
Cl 6.202953 27.874836 3.086000
Cl 9.299279 27.874836 6.182326
Cl 6.202953 27.874836 9.278652
Cl 9.299279 27.874836 12.374978
Cl 12.395605 -27.859032 -9.299304
Cl 12.395605 -27.859032 -3.106652
Cl 12.395605 -27.859032 3.086000
Cl 12.395605 -24.762706 -12.395630
Cl 12.395605 -21.666380 -15.491956
Cl 15.491931 -21.666380 -12.395630
Cl 15.491931 -24.762706 -9.299304
Cl 12.395605 -18.570054 -18.588282
Cl 12.395605 -15.473728 -21.684608
Cl 15.491931 -15.473728 -18.588282
Cl 15.491931 -18.570054 -15.491956
Cl 12.395605 -9.281076 -27.877260
Cl 15.491931 -9.281076 -24.780934
Cl 15.491931 -12.377402 -21.684608
Cl 12.395605 -3.088424 -27.877260
Cl 12.395605 -3.088424 27.856608
Cl 12.395605 3.104228 -27.877260
Cl 12.395605 3.104228 27.856608
Cl 15.491931 9.296880 24.760282
Cl 12.395605 9.296880 27.856608
Cl 15.491931 15.489532 18.567630
Cl 12.395605 15.489532 21.663956
Cl 15.491931 12.393206 21.663956
Cl 15.491931 21.682184 12.374978
Cl 12.395605 18.585858 18.567630
Cl 12.395605 21.682184 15.471304
Cl 15.491931 18.585858 15.471304
Cl 12.395605 27.874836 -3.106652
Cl 12.395605 27.874836 3.086000
Cl 12.395605 24.778510 12.374978
Cl 12.395605 27.874836 9.278652
Cl 15.491931 24.778510 9.278652
Cl 18.588257 -21.666380 -9.299304
Cl 18.588257 -18.570054 -12.395630
Cl 18.588257 -15.473728 -15.491956
Cl 21.684583 -15.473728 -12.395630
Cl 18.588257 -12.377402 -18.588282
Cl 21.684583 -9.281076 -18.588282
Cl 21.684583 -12.377402 -15.491956
Cl 21.684583 9.296880 18.567630
Cl 21.684583 15.489532 12.374978
Cl 18.588257 12.393206 18.567630
Cl 18.588257 15.489532 15.471304
Cl 21.684583 12.393206 15.471304
Cl 18.588257 18.585858 12.374978
Cl 18.588257 21.682184 9.278652
Cl 24.780909 -15.473728 -9.299304
Cl 24.780909 -12.377402 -12.395630
Cl 27.877235 -9.281076 -12.395630
Cl 27.877235 -9.281076 -6.202978
Cl 27.877235 -12.377402 -9.299304
Cl 27.877235 -9.281076 -0.010326
Cl 27.877235 -12.377402 -3.106652
Cl 27.877235 -9.281076 6.182326
Cl 27.877235 -12.377402 3.086000
Cl 27.877235 -3.088424 -12.395630
Cl 27.877235 -3.088424 -6.202978
Cl 27.877235 -6.184750 -9.299304
Cl 27.877235 -3.088424 -0.010326
Cl 27.877235 -6.184750 -3.106652
Cl 27.877235 -3.088424 6.182326
Cl 27.877235 -6.184750 3.086000
Cl 27.877235 -3.088424 12.374978
Cl 27.877235 -6.184750 9.278652
Cl 27.877235 3.104228 -12.395630
Cl 27.877235 3.104228 -6.202978
Cl 27.877235 0.007902 -9.299304
Cl 27.877235 3.104228 -0.010326
Cl 27.877235 0.007902 -3.106652
Cl 27.877235 3.104228 6.182326
Cl 27.877235 0.007902 3.086000
Cl 27.877235 3.104228 12.374978
Cl 27.877235 0.007902 9.278652
Cl 27.877235 9.296880 -6.202978
Cl 27.877235 6.200554 -9.299304
Cl 27.877235 9.296880 -0.010326
Cl 27.877235 6.200554 -3.106652
Cl 27.877235 9.296880 6.182326
Cl 27.877235 6.200554 3.086000
Cl 27.877235 9.296880 12.374978
Cl 27.877235 6.200554 9.278652
Cl 27.877235 12.393206 -3.106652
Cl 27.877235 12.393206 3.086000
Cl 24.780909 12.393206 12.374978
Cl 24.780909 15.489532 9.278652
Cl 27.877235 12.393206 9.278652
Cl -21.663981 -21.666380 6.182326
Cl -21.663981 -6.184750 21.663956
Cl -15.471329 -18.570054 -12.395630
Cl -15.471329 15.489532 15.471304
Cl 9.299279 -18.570054 18.567630
Cl 9.299279 18.585858 -18.588282
Cl 24.780909 -15.473728 6.182326
Cl 24.780909 6.200554 -15.491956
Cl -15.471329 -6.184750 -24.780934
Cl -15.471329 6.200554 24.760282
Cl 18.588257 -6.184750 21.663956
Cl 18.588257 21.682184 -6.202978
Cl -15.471329 24.778510 6.182326
Cl -24.760307 -6.184750 -15.491956
Cl -6.182351 -18.570054 -21.684608
Cl 15.491931 -24.762706 6.182326
Cl 15.491931 6.200554 -24.780934
Cl -24.760307 6.200554 15.471304
Cl -24.760307 15.489532 6.182326
Cl -24.760307 -15.473728 -6.202978
Cl 24.780909 -6.184750 15.471304
Cl 24.780909 15.489532 -6.202978
Cl -6.182351 21.682184 18.567630
Cl -15.471329 -24.762706 -6.202978
Cl 18.588257 -15.473728 12.374978
Cl 18.588257 12.393206 -15.491956
Cl 12.395605 24.778510 -9.299304
Cl 12.395605 -9.281076 24.760282
Cl -18.567655 -12.377402 -15.491956
Cl -12.375003 21.682184 12.374978
Cl 12.395605 -21.666380 12.374978
Cl -12.375003 -15.473728 -18.588282
Cl 15.491931 18.585858 -12.395630
Cl -6.177066 15.579910 24.850660
Cl -6.177066 -24.853084 -15.582333
Cl 9.389657 12.387921 -24.871311
Cl 6.197668 -15.564106 24.850660
Cl -12.369718 12.483584 21.754334
Cl 6.197668 24.868888 -15.582333
Cl 6.197668 -24.853084 15.561682
Cl -9.369054 -12.372117 -24.871311
Cl -18.562370 9.387257 18.658008
