1908
GaAs-Ga-Ga835As716Cl357-clean
Ga -20.117350 -14.377716 -11.487556
Ga -20.117350 -11.502624 -14.362647
Ga -20.117350 -8.627533 -11.487556
Ga -20.117350 -11.502624 -8.612465
Ga -20.117350 -8.627533 -5.737374
Ga -20.117350 -5.752442 -8.612465
Ga -20.117350 -2.877351 -5.737374
Ga -20.117350 -5.752442 -2.862283
Ga -20.117350 -2.877351 0.012808
Ga -20.117350 -0.002260 -2.862283
Ga -20.117350 2.872831 0.012808
Ga -20.117350 -0.002260 2.887899
Ga -20.117350 2.872831 5.762990
Ga -20.117350 5.747922 2.887899
Ga -20.117350 8.623013 5.762990
Ga -20.117350 5.747922 8.638081
Ga -20.117350 8.623013 11.513173
Ga -20.117350 11.498104 8.638081
Ga -20.117350 14.373195 11.513173
Ga -20.117350 11.498104 14.388264
Ga -14.367168 -20.127898 -11.487556
Ga -14.367168 -14.377716 -17.237738
Ga -14.367168 -17.252807 -14.362647
Ga -17.242259 -14.377716 -14.362647
Ga -17.242259 -17.252807 -11.487556
Ga -14.367168 -14.377716 -11.487556
Ga -14.367168 -17.252807 -8.612465
Ga -17.242259 -14.377716 -8.612465
Ga -14.367168 -14.377716 -5.737374
Ga -14.367168 -11.502624 -20.112829
Ga -17.242259 -11.502624 -17.237738
Ga -14.367168 -8.627533 -17.237738
Ga -14.367168 -11.502624 -14.362647
Ga -17.242259 -8.627533 -14.362647
Ga -17.242259 -11.502624 -11.487556
Ga -14.367168 -8.627533 -11.487556
Ga -14.367168 -11.502624 -8.612465
Ga -17.242259 -8.627533 -8.612465
Ga -17.242259 -11.502624 -5.737374
Ga -14.367168 -8.627533 -5.737374
Ga -14.367168 -11.502624 -2.862283
Ga -17.242259 -8.627533 -2.862283
Ga -14.367168 -8.627533 0.012808
Ga -14.367168 -5.752442 -14.362647
Ga -17.242259 -5.752442 -11.487556
Ga -14.367168 -2.877351 -11.487556
Ga -14.367168 -5.752442 -8.612465
Ga -17.242259 -2.877351 -8.612465
Ga -17.242259 -5.752442 -5.737374
Ga -14.367168 -2.877351 -5.737374
Ga -14.367168 -5.752442 -2.862283
Ga -17.242259 -2.877351 -2.862283
Ga -17.242259 -5.752442 0.012808
Ga -14.367168 -2.877351 0.012808
Ga -14.367168 -5.752442 2.887899
Ga -17.242259 -2.877351 2.887899
Ga -14.367168 -2.877351 5.762990
Ga -14.367168 -0.002260 -8.612465
Ga -17.242259 -0.002260 -5.737374
Ga -14.367168 2.872831 -5.737374
Ga -14.367168 -0.002260 -2.862283
Ga -17.242259 2.872831 -2.862283
Ga -17.242259 -0.002260 0.012808
Ga -14.367168 2.872831 0.012808
Ga -14.367168 -0.002260 2.887899
Ga -17.242259 2.872831 2.887899
Ga -17.242259 -0.002260 5.762990
Ga -14.367168 2.872831 5.762990
Ga -14.367168 -0.002260 8.638081
Ga -17.242259 2.872831 8.638081
Ga -14.367168 2.872831 11.513173
Ga -14.367168 5.747922 -2.862283
Ga -17.242259 5.747922 0.012808
Ga -14.367168 8.623013 0.012808
Ga -14.367168 5.747922 2.887899
Ga -17.242259 8.623013 2.887899
Ga -17.242259 5.747922 5.762990
Ga -14.367168 8.623013 5.762990
Ga -14.367168 5.747922 8.638081
Ga -17.242259 8.623013 8.638081
Ga -17.242259 5.747922 11.513173
Ga -14.367168 8.623013 11.513173
Ga -14.367168 5.747922 14.388264
Ga -17.242259 8.623013 14.388264
Ga -14.367168 8.623013 17.263355
Ga -14.367168 11.498104 2.887899
Ga -17.242259 11.498104 5.762990
Ga -14.367168 14.373195 5.762990
Ga -14.367168 11.498104 8.638081
Ga -17.242259 14.373195 8.638081
Ga -17.242259 11.498104 11.513173
Ga -14.367168 14.373195 11.513173
Ga -14.367168 11.498104 14.388264
Ga -17.242259 14.373195 14.388264
Ga -17.242259 11.498104 17.263355
Ga -14.367168 14.373195 17.263355
Ga -14.367168 11.498104 20.138446
Ga -14.367168 17.248286 8.638081
Ga -17.242259 17.248286 11.513173
Ga -14.367168 20.123377 11.513173
Ga -14.367168 17.248286 14.388264
Ga -11.492076 -20.127898 -14.362647
Ga -8.616985 -20.127898 -11.487556
Ga -11.492076 -20.127898 -8.612465
Ga -8.616985 -20.127898 -5.737374
Ga -11.492076 -14.377716 -20.112829
Ga -11.492076 -17.252807 -17.237738
Ga -8.616985 -14.377716 -17.237738
Ga -8.616985 -17.252807 -14.362647
Ga -11.492076 -14.377716 -14.362647
Ga -11.492076 -17.252807 -11.487556
Ga -8.616985 -14.377716 -11.487556
Ga -8.616985 -17.252807 -8.612465
Ga -11.492076 -14.377716 -8.612465
Ga -11.492076 -17.252807 -5.737374
Ga -8.616985 -14.377716 -5.737374
Ga -8.616985 -17.252807 -2.862283
Ga -11.492076 -14.377716 -2.862283
Ga -8.616985 -14.377716 0.012808
Ga -8.616985 -11.502624 -20.112829
Ga -11.492076 -8.627533 -20.112829
Ga -11.492076 -11.502624 -17.237738
Ga -8.616985 -8.627533 -17.237738
Ga -8.616985 -11.502624 -14.362647
Ga -11.492076 -8.627533 -14.362647
Ga -11.492076 -11.502624 -11.487556
Ga -8.616985 -8.627533 -11.487556
Ga -8.616985 -11.502624 -8.612465
Ga -11.492076 -8.627533 -8.612465
Ga -11.492076 -11.502624 -5.737374
Ga -8.616985 -8.627533 -5.737374
Ga -8.616985 -11.502624 -2.862283
Ga -11.492076 -8.627533 -2.862283
Ga -11.492076 -11.502624 0.012808
Ga -8.616985 -8.627533 0.012808
Ga -8.616985 -11.502624 2.887899
Ga -11.492076 -8.627533 2.887899
Ga -8.616985 -8.627533 5.762990
Ga -8.616985 -5.752442 -20.112829
Ga -11.492076 -5.752442 -17.237738
Ga -8.616985 -2.877351 -17.237738
Ga -8.616985 -5.752442 -14.362647
Ga -11.492076 -2.877351 -14.362647
Ga -11.492076 -5.752442 -11.487556
Ga -8.616985 -2.877351 -11.487556
Ga -8.616985 -5.752442 -8.612465
Ga -11.492076 -2.877351 -8.612465
Ga -11.492076 -5.752442 -5.737374
Ga -8.616985 -2.877351 -5.737374
Ga -8.616985 -5.752442 -2.862283
Ga -11.492076 -2.877351 -2.862283
Ga -11.492076 -5.752442 0.012808
Ga -8.616985 -2.877351 0.012808
Ga -8.616985 -5.752442 2.887899
Ga -11.492076 -2.877351 2.887899
Ga -11.492076 -5.752442 5.762990
Ga -8.616985 -2.877351 5.762990
Ga -8.616985 -5.752442 8.638081
Ga -11.492076 -2.877351 8.638081
Ga -8.616985 -2.877351 11.513173
Ga -8.616985 -0.002260 -14.362647
Ga -11.492076 -0.002260 -11.487556
Ga -8.616985 2.872831 -11.487556
Ga -8.616985 -0.002260 -8.612465
Ga -11.492076 2.872831 -8.612465
Ga -11.492076 -0.002260 -5.737374
Ga -8.616985 2.872831 -5.737374
Ga -8.616985 -0.002260 -2.862283
Ga -11.492076 2.872831 -2.862283
Ga -11.492076 -0.002260 0.012808
Ga -8.616985 2.872831 0.012808
Ga -8.616985 -0.002260 2.887899
Ga -11.492076 2.872831 2.887899
Ga -11.492076 -0.002260 5.762990
Ga -8.616985 2.872831 5.762990
Ga -8.616985 -0.002260 8.638081
Ga -11.492076 2.872831 8.638081
Ga -11.492076 -0.002260 11.513173
Ga -8.616985 2.872831 11.513173
Ga -8.616985 -0.002260 14.388264
Ga -11.492076 2.872831 14.388264
Ga -8.616985 2.872831 17.263355
Ga -8.616985 5.747922 -8.612465
Ga -11.492076 5.747922 -5.737374
Ga -8.616985 8.623013 -5.737374
Ga -8.616985 5.747922 -2.862283
Ga -11.492076 8.623013 -2.862283
Ga -11.492076 5.747922 0.012808
Ga -8.616985 8.623013 0.012808
Ga -8.616985 5.747922 2.887899
Ga -11.492076 8.623013 2.887899
Ga -11.492076 5.747922 5.762990
Ga -8.616985 8.623013 5.762990
Ga -8.616985 5.747922 8.638081
Ga -11.492076 8.623013 8.638081
Ga -11.492076 5.747922 11.513173
Ga -8.616985 8.623013 11.513173
Ga -8.616985 5.747922 14.388264
Ga -11.492076 8.623013 14.388264
Ga -11.492076 5.747922 17.263355
Ga -8.616985 8.623013 17.263355
Ga -8.616985 5.747922 20.138446
Ga -11.492076 8.623013 20.138446
Ga -8.616985 11.498104 -2.862283
Ga -11.492076 11.498104 0.012808
Ga -8.616985 14.373195 0.012808
Ga -8.616985 11.498104 2.887899
Ga -11.492076 14.373195 2.887899
Ga -11.492076 11.498104 5.762990
Ga -8.616985 14.373195 5.762990
Ga -8.616985 11.498104 8.638081
Ga -11.492076 14.373195 8.638081
Ga -11.492076 11.498104 11.513173
Ga -8.616985 14.373195 11.513173
Ga -8.616985 11.498104 14.388264
Ga -11.492076 14.373195 14.388264
Ga -11.492076 11.498104 17.263355
Ga -8.616985 14.373195 17.263355
Ga -8.616985 11.498104 20.138446
Ga -11.492076 14.373195 20.138446
Ga -8.616985 17.248286 2.887899
Ga -11.492076 17.248286 5.762990
Ga -8.616985 20.123377 5.762990
Ga -8.616985 17.248286 8.638081
Ga -11.492076 20.123377 8.638081
Ga -11.492076 17.248286 11.513173
Ga -8.616985 20.123377 11.513173
Ga -8.616985 17.248286 14.388264
Ga -11.492076 20.123377 14.388264
Ga -11.492076 17.248286 17.263355
Ga -5.741894 -20.127898 -8.612465
Ga -2.866803 -20.127898 -5.737374
Ga -5.741894 -20.127898 -2.862283
Ga -2.866803 -20.127898 0.012808
Ga -5.741894 -14.377716 -14.362647
Ga -5.741894 -17.252807 -11.487556
Ga -2.866803 -14.377716 -11.487556
Ga -2.866803 -17.252807 -8.612465
Ga -5.741894 -14.377716 -8.612465
Ga -5.741894 -17.252807 -5.737374
Ga -2.866803 -14.377716 -5.737374
Ga -2.866803 -17.252807 -2.862283
Ga -5.741894 -14.377716 -2.862283
Ga -5.741894 -17.252807 0.012808
Ga -2.866803 -14.377716 0.012808
Ga -2.866803 -17.252807 2.887899
Ga -5.741894 -14.377716 2.887899
Ga -2.866803 -14.377716 5.762990
Ga -5.741894 -8.627533 -20.112829
Ga -5.741894 -11.502624 -17.237738
Ga -2.866803 -8.627533 -17.237738
Ga -2.866803 -11.502624 -14.362647
Ga -5.741894 -8.627533 -14.362647
Ga -5.741894 -11.502624 -11.487556
Ga -2.866803 -8.627533 -11.487556
Ga -2.866803 -11.502624 -8.612465
Ga -5.741894 -8.627533 -8.612465
Ga -5.741894 -11.502624 -5.737374
Ga -2.866803 -8.627533 -5.737374
Ga -2.866803 -11.502624 -2.862283
Ga -5.741894 -8.627533 -2.862283
Ga -5.741894 -11.502624 0.012808
Ga -2.866803 -8.627533 0.012808
Ga -2.866803 -11.502624 2.887899
Ga -5.741894 -8.627533 2.887899
Ga -5.741894 -11.502624 5.762990
Ga -2.866803 -8.627533 5.762990
Ga -2.866803 -11.502624 8.638081
Ga -5.741894 -8.627533 8.638081
Ga -2.866803 -8.627533 11.513173
Ga -2.866803 -5.752442 -20.112829
Ga -5.741894 -2.877351 -20.112829
Ga -5.741894 -5.752442 -17.237738
Ga -2.866803 -2.877351 -17.237738
Ga -2.866803 -5.752442 -14.362647
Ga -5.741894 -2.877351 -14.362647
Ga -5.741894 -5.752442 -11.487556
Ga -2.866803 -2.877351 -11.487556
Ga -2.866803 -5.752442 -8.612465
Ga -5.741894 -2.877351 -8.612465
Ga -5.741894 -5.752442 -5.737374
Ga -2.866803 -2.877351 -5.737374
Ga -2.866803 -5.752442 -2.862283
Ga -5.741894 -2.877351 -2.862283
Ga -5.741894 -5.752442 0.012808
Ga -2.866803 -2.877351 0.012808
Ga -2.866803 -5.752442 2.887899
Ga -5.741894 -2.877351 2.887899
Ga -5.741894 -5.752442 5.762990
Ga -2.866803 -2.877351 5.762990
Ga -2.866803 -5.752442 8.638081
Ga -5.741894 -2.877351 8.638081
Ga -5.741894 -5.752442 11.513173
Ga -2.866803 -2.877351 11.513173
Ga -2.866803 -5.752442 14.388264
Ga -5.741894 -2.877351 14.388264
Ga -2.866803 -2.877351 17.263355
Ga -2.866803 -0.002260 -20.112829
Ga -5.741894 -0.002260 -17.237738
Ga -2.866803 2.872831 -17.237738
Ga -2.866803 -0.002260 -14.362647
Ga -5.741894 2.872831 -14.362647
Ga -5.741894 -0.002260 -11.487556
Ga -2.866803 2.872831 -11.487556
Ga -2.866803 -0.002260 -8.612465
Ga -5.741894 2.872831 -8.612465
Ga -5.741894 -0.002260 -5.737374
Ga -2.866803 2.872831 -5.737374
Ga -2.866803 -0.002260 -2.862283
Ga -5.741894 2.872831 -2.862283
Ga -5.741894 -0.002260 0.012808
Ga -2.866803 2.872831 0.012808
Ga -2.866803 -0.002260 2.887899
Ga -5.741894 2.872831 2.887899
Ga -5.741894 -0.002260 5.762990
Ga -2.866803 2.872831 5.762990
Ga -2.866803 -0.002260 8.638081
Ga -5.741894 2.872831 8.638081
Ga -5.741894 -0.002260 11.513173
Ga -2.866803 2.872831 11.513173
Ga -2.866803 -0.002260 14.388264
Ga -5.741894 2.872831 14.388264
Ga -5.741894 -0.002260 17.263355
Ga -2.866803 2.872831 17.263355
Ga -2.866803 -0.002260 20.138446
Ga -5.741894 2.872831 20.138446
Ga -2.866803 5.747922 -14.362647
Ga -5.741894 5.747922 -11.487556
Ga -2.866803 8.623013 -11.487556
Ga -2.866803 5.747922 -8.612465
Ga -5.741894 8.623013 -8.612465
Ga -5.741894 5.747922 -5.737374
Ga -2.866803 8.623013 -5.737374
Ga -2.866803 5.747922 -2.862283
Ga -5.741894 8.623013 -2.862283
Ga -5.741894 5.747922 0.012808
Ga -2.866803 8.623013 0.012808
Ga -2.866803 5.747922 2.887899
Ga -5.741894 8.623013 2.887899
Ga -5.741894 5.747922 5.762990
Ga -2.866803 8.623013 5.762990
Ga -2.866803 5.747922 8.638081
Ga -5.741894 8.623013 8.638081
Ga -5.741894 5.747922 11.513173
Ga -2.866803 8.623013 11.513173
Ga -2.866803 5.747922 14.388264
Ga -5.741894 8.623013 14.388264
Ga -5.741894 5.747922 17.263355
Ga -2.866803 8.623013 17.263355
Ga -2.866803 5.747922 20.138446
Ga -5.741894 8.623013 20.138446
Ga -2.866803 11.498104 -8.612465
Ga -5.741894 11.498104 -5.737374
Ga -2.866803 14.373195 -5.737374
Ga -2.866803 11.498104 -2.862283
Ga -5.741894 14.373195 -2.862283
Ga -5.741894 11.498104 0.012808
Ga -2.866803 14.373195 0.012808
Ga -2.866803 11.498104 2.887899
Ga -5.741894 14.373195 2.887899
Ga -5.741894 11.498104 5.762990
Ga -2.866803 14.373195 5.762990
Ga -2.866803 11.498104 8.638081
Ga -5.741894 14.373195 8.638081
Ga -5.741894 11.498104 11.513173
Ga -2.866803 14.373195 11.513173
Ga -2.866803 11.498104 14.388264
Ga -5.741894 14.373195 14.388264
Ga -5.741894 11.498104 17.263355
Ga -2.866803 17.248286 -2.862283
Ga -5.741894 17.248286 0.012808
Ga -2.866803 20.123377 0.012808
Ga -2.866803 17.248286 2.887899
Ga -5.741894 20.123377 2.887899
Ga -5.741894 17.248286 5.762990
Ga -2.866803 20.123377 5.762990
Ga -2.866803 17.248286 8.638081
Ga -5.741894 20.123377 8.638081
Ga -5.741894 17.248286 11.513173
Ga 0.008288 -20.127898 -2.862283
Ga 2.883379 -20.127898 0.012808
Ga 0.008288 -20.127898 2.887899
Ga 2.883379 -20.127898 5.762990
Ga 0.008288 -14.377716 -8.612465
Ga 0.008288 -17.252807 -5.737374
Ga 2.883379 -14.377716 -5.737374
Ga 2.883379 -17.252807 -2.862283
Ga 0.008288 -14.377716 -2.862283
Ga 0.008288 -17.252807 0.012808
Ga 2.883379 -14.377716 0.012808
Ga 2.883379 -17.252807 2.887899
Ga 0.008288 -14.377716 2.887899
Ga 0.008288 -17.252807 5.762990
Ga 2.883379 -14.377716 5.762990
Ga 2.883379 -17.252807 8.638081
Ga 0.008288 -14.377716 8.638081
Ga 2.883379 -14.377716 11.513173
Ga 0.008288 -8.627533 -14.362647
Ga 0.008288 -11.502624 -11.487556
Ga 2.883379 -8.627533 -11.487556
Ga 2.883379 -11.502624 -8.612465
Ga 0.008288 -8.627533 -8.612465
Ga 0.008288 -11.502624 -5.737374
Ga 2.883379 -8.627533 -5.737374
Ga 2.883379 -11.502624 -2.862283
Ga 0.008288 -8.627533 -2.862283
Ga 0.008288 -11.502624 0.012808
Ga 2.883379 -8.627533 0.012808
Ga 2.883379 -11.502624 2.887899
Ga 0.008288 -8.627533 2.887899
Ga 0.008288 -11.502624 5.762990
Ga 2.883379 -8.627533 5.762990
Ga 2.883379 -11.502624 8.638081
Ga 0.008288 -8.627533 8.638081
Ga 0.008288 -11.502624 11.513173
Ga 2.883379 -8.627533 11.513173
Ga 2.883379 -11.502624 14.388264
Ga 0.008288 -8.627533 14.388264
Ga 2.883379 -8.627533 17.263355
Ga 0.008288 -2.877351 -20.112829
Ga 0.008288 -5.752442 -17.237738
Ga 2.883379 -2.877351 -17.237738
Ga 2.883379 -5.752442 -14.362647
Ga 0.008288 -2.877351 -14.362647
Ga 0.008288 -5.752442 -11.487556
Ga 2.883379 -2.877351 -11.487556
Ga 2.883379 -5.752442 -8.612465
Ga 0.008288 -2.877351 -8.612465
Ga 0.008288 -5.752442 -5.737374
Ga 2.883379 -2.877351 -5.737374
Ga 2.883379 -5.752442 -2.862283
Ga 0.008288 -2.877351 -2.862283
Ga 0.008288 -5.752442 0.012808
Ga 2.883379 -2.877351 0.012808
Ga 2.883379 -5.752442 2.887899
Ga 0.008288 -2.877351 2.887899
Ga 0.008288 -5.752442 5.762990
Ga 2.883379 -2.877351 5.762990
Ga 2.883379 -5.752442 8.638081
Ga 0.008288 -2.877351 8.638081
Ga 0.008288 -5.752442 11.513173
Ga 2.883379 -2.877351 11.513173
Ga 2.883379 -5.752442 14.388264
Ga 0.008288 -2.877351 14.388264
Ga 0.008288 -5.752442 17.263355
Ga 2.883379 -2.877351 17.263355
Ga 2.883379 -5.752442 20.138446
Ga 0.008288 -2.877351 20.138446
Ga 2.883379 -0.002260 -20.112829
Ga 0.008288 2.872831 -20.112829
Ga 0.008288 -0.002260 -17.237738
Ga 2.883379 2.872831 -17.237738
Ga 2.883379 -0.002260 -14.362647
Ga 0.008288 2.872831 -14.362647
Ga 0.008288 -0.002260 -11.487556
Ga 2.883379 2.872831 -11.487556
Ga 2.883379 -0.002260 -8.612465
Ga 0.008288 2.872831 -8.612465
Ga 0.008288 -0.002260 -5.737374
Ga 2.883379 2.872831 -5.737374
Ga 2.883379 -0.002260 -2.862283
Ga 0.008288 2.872831 -2.862283
Ga 0.008288 -0.002260 0.012808
Ga 2.883379 2.872831 0.012808
Ga 2.883379 -0.002260 2.887899
Ga 0.008288 2.872831 2.887899
Ga 0.008288 -0.002260 5.762990
Ga 2.883379 2.872831 5.762990
Ga 2.883379 -0.002260 8.638081
Ga 0.008288 2.872831 8.638081
Ga 0.008288 -0.002260 11.513173
Ga 2.883379 2.872831 11.513173
Ga 2.883379 -0.002260 14.388264
Ga 0.008288 2.872831 14.388264
Ga 0.008288 -0.002260 17.263355
Ga 2.883379 2.872831 17.263355
Ga 2.883379 -0.002260 20.138446
Ga 0.008288 2.872831 20.138446
Ga 2.883379 5.747922 -20.112829
Ga 0.008288 5.747922 -17.237738
Ga 2.883379 8.623013 -17.237738
Ga 2.883379 5.747922 -14.362647
Ga 0.008288 8.623013 -14.362647
Ga 0.008288 5.747922 -11.487556
Ga 2.883379 8.623013 -11.487556
Ga 2.883379 5.747922 -8.612465
Ga 0.008288 8.623013 -8.612465
Ga 0.008288 5.747922 -5.737374
Ga 2.883379 8.623013 -5.737374
Ga 2.883379 5.747922 -2.862283
Ga 0.008288 8.623013 -2.862283
Ga 0.008288 5.747922 0.012808
Ga 2.883379 8.623013 0.012808
Ga 2.883379 5.747922 2.887899
Ga 0.008288 8.623013 2.887899
Ga 0.008288 5.747922 5.762990
Ga 2.883379 8.623013 5.762990
Ga 2.883379 5.747922 8.638081
Ga 0.008288 8.623013 8.638081
Ga 0.008288 5.747922 11.513173
Ga 2.883379 8.623013 11.513173
Ga 2.883379 5.747922 14.388264
Ga 0.008288 8.623013 14.388264
Ga 0.008288 5.747922 17.263355
Ga 2.883379 11.498104 -14.362647
Ga 0.008288 11.498104 -11.487556
Ga 2.883379 14.373195 -11.487556
Ga 2.883379 11.498104 -8.612465
Ga 0.008288 14.373195 -8.612465
Ga 0.008288 11.498104 -5.737374
Ga 2.883379 14.373195 -5.737374
Ga 2.883379 11.498104 -2.862283
Ga 0.008288 14.373195 -2.862283
Ga 0.008288 11.498104 0.012808
Ga 2.883379 14.373195 0.012808
Ga 2.883379 11.498104 2.887899
Ga 0.008288 14.373195 2.887899
Ga 0.008288 11.498104 5.762990
Ga 2.883379 14.373195 5.762990
Ga 2.883379 11.498104 8.638081
Ga 0.008288 14.373195 8.638081
Ga 0.008288 11.498104 11.513173
Ga 2.883379 17.248286 -8.612465
Ga 0.008288 17.248286 -5.737374
Ga 2.883379 20.123377 -5.737374
Ga 2.883379 17.248286 -2.862283
Ga 0.008288 20.123377 -2.862283
Ga 0.008288 17.248286 0.012808
Ga 2.883379 20.123377 0.012808
Ga 2.883379 17.248286 2.887899
Ga 0.008288 20.123377 2.887899
Ga 0.008288 17.248286 5.762990
Ga 5.758470 -20.127898 2.887899
Ga 8.633561 -20.127898 5.762990
Ga 5.758470 -20.127898 8.638081
Ga 8.633561 -20.127898 11.513173
Ga 5.758470 -14.377716 -2.862283
Ga 5.758470 -17.252807 0.012808
Ga 8.633561 -14.377716 0.012808
Ga 8.633561 -17.252807 2.887899
Ga 5.758470 -14.377716 2.887899
Ga 5.758470 -17.252807 5.762990
Ga 8.633561 -14.377716 5.762990
Ga 8.633561 -17.252807 8.638081
Ga 5.758470 -14.377716 8.638081
Ga 5.758470 -17.252807 11.513173
Ga 8.633561 -14.377716 11.513173
Ga 8.633561 -17.252807 14.388264
Ga 5.758470 -14.377716 14.388264
Ga 8.633561 -14.377716 17.263355
Ga 5.758470 -8.627533 -8.612465
Ga 5.758470 -11.502624 -5.737374
Ga 8.633561 -8.627533 -5.737374
Ga 8.633561 -11.502624 -2.862283
Ga 5.758470 -8.627533 -2.862283
Ga 5.758470 -11.502624 0.012808
Ga 8.633561 -8.627533 0.012808
Ga 8.633561 -11.502624 2.887899
Ga 5.758470 -8.627533 2.887899
Ga 5.758470 -11.502624 5.762990
Ga 8.633561 -8.627533 5.762990
Ga 8.633561 -11.502624 8.638081
Ga 5.758470 -8.627533 8.638081
Ga 5.758470 -11.502624 11.513173
Ga 8.633561 -8.627533 11.513173
Ga 8.633561 -11.502624 14.388264
Ga 5.758470 -8.627533 14.388264
Ga 5.758470 -11.502624 17.263355
Ga 8.633561 -8.627533 17.263355
Ga 8.633561 -11.502624 20.138446
Ga 5.758470 -8.627533 20.138446
Ga 5.758470 -2.877351 -14.362647
Ga 5.758470 -5.752442 -11.487556
Ga 8.633561 -2.877351 -11.487556
Ga 8.633561 -5.752442 -8.612465
Ga 5.758470 -2.877351 -8.612465
Ga 5.758470 -5.752442 -5.737374
Ga 8.633561 -2.877351 -5.737374
Ga 8.633561 -5.752442 -2.862283
Ga 5.758470 -2.877351 -2.862283
Ga 5.758470 -5.752442 0.012808
Ga 8.633561 -2.877351 0.012808
Ga 8.633561 -5.752442 2.887899
Ga 5.758470 -2.877351 2.887899
Ga 5.758470 -5.752442 5.762990
Ga 8.633561 -2.877351 5.762990
Ga 8.633561 -5.752442 8.638081
Ga 5.758470 -2.877351 8.638081
Ga 5.758470 -5.752442 11.513173
Ga 8.633561 -2.877351 11.513173
Ga 8.633561 -5.752442 14.388264
Ga 5.758470 -2.877351 14.388264
Ga 5.758470 -5.752442 17.263355
Ga 8.633561 -2.877351 17.263355
Ga 8.633561 -5.752442 20.138446
Ga 5.758470 -2.877351 20.138446
Ga 5.758470 2.872831 -20.112829
Ga 5.758470 -0.002260 -17.237738
Ga 8.633561 2.872831 -17.237738
Ga 8.633561 -0.002260 -14.362647
Ga 5.758470 2.872831 -14.362647
Ga 5.758470 -0.002260 -11.487556
Ga 8.633561 2.872831 -11.487556
Ga 8.633561 -0.002260 -8.612465
Ga 5.758470 2.872831 -8.612465
Ga 5.758470 -0.002260 -5.737374
Ga 8.633561 2.872831 -5.737374
Ga 8.633561 -0.002260 -2.862283
Ga 5.758470 2.872831 -2.862283
Ga 5.758470 -0.002260 0.012808
Ga 8.633561 2.872831 0.012808
Ga 8.633561 -0.002260 2.887899
Ga 5.758470 2.872831 2.887899
Ga 5.758470 -0.002260 5.762990
Ga 8.633561 2.872831 5.762990
Ga 8.633561 -0.002260 8.638081
Ga 5.758470 2.872831 8.638081
Ga 5.758470 -0.002260 11.513173
Ga 8.633561 2.872831 11.513173
Ga 8.633561 -0.002260 14.388264
Ga 5.758470 2.872831 14.388264
Ga 5.758470 -0.002260 17.263355
Ga 8.633561 5.747922 -20.112829
Ga 5.758470 8.623013 -20.112829
Ga 5.758470 5.747922 -17.237738
Ga 8.633561 8.623013 -17.237738
Ga 8.633561 5.747922 -14.362647
Ga 5.758470 8.623013 -14.362647
Ga 5.758470 5.747922 -11.487556
Ga 8.633561 8.623013 -11.487556
Ga 8.633561 5.747922 -8.612465
Ga 5.758470 8.623013 -8.612465
Ga 5.758470 5.747922 -5.737374
Ga 8.633561 8.623013 -5.737374
Ga 8.633561 5.747922 -2.862283
Ga 5.758470 8.623013 -2.862283
Ga 5.758470 5.747922 0.012808
Ga 8.633561 8.623013 0.012808
Ga 8.633561 5.747922 2.887899
Ga 5.758470 8.623013 2.887899
Ga 5.758470 5.747922 5.762990
Ga 8.633561 8.623013 5.762990
Ga 8.633561 5.747922 8.638081
Ga 5.758470 8.623013 8.638081
Ga 5.758470 5.747922 11.513173
Ga 8.633561 11.498104 -20.112829
Ga 5.758470 11.498104 -17.237738
Ga 8.633561 14.373195 -17.237738
Ga 8.633561 11.498104 -14.362647
Ga 5.758470 14.373195 -14.362647
Ga 5.758470 11.498104 -11.487556
Ga 8.633561 14.373195 -11.487556
Ga 8.633561 11.498104 -8.612465
Ga 5.758470 14.373195 -8.612465
Ga 5.758470 11.498104 -5.737374
Ga 8.633561 14.373195 -5.737374
Ga 8.633561 11.498104 -2.862283
Ga 5.758470 14.373195 -2.862283
Ga 5.758470 11.498104 0.012808
Ga 8.633561 14.373195 0.012808
Ga 8.633561 11.498104 2.887899
Ga 5.758470 14.373195 2.887899
Ga 5.758470 11.498104 5.762990
Ga 8.633561 17.248286 -14.362647
Ga 5.758470 17.248286 -11.487556
Ga 8.633561 20.123377 -11.487556
Ga 8.633561 17.248286 -8.612465
Ga 5.758470 20.123377 -8.612465
Ga 5.758470 17.248286 -5.737374
Ga 8.633561 20.123377 -5.737374
Ga 8.633561 17.248286 -2.862283
Ga 5.758470 20.123377 -2.862283
Ga 5.758470 17.248286 0.012808
Ga 11.508652 -20.127898 8.638081
Ga 14.383743 -20.127898 11.513173
Ga 11.508652 -20.127898 14.388264
Ga 11.508652 -14.377716 2.887899
Ga 11.508652 -17.252807 5.762990
Ga 14.383743 -14.377716 5.762990
Ga 14.383743 -17.252807 8.638081
Ga 11.508652 -14.377716 8.638081
Ga 11.508652 -17.252807 11.513173
Ga 14.383743 -14.377716 11.513173
Ga 14.383743 -17.252807 14.388264
Ga 11.508652 -14.377716 14.388264
Ga 11.508652 -17.252807 17.263355
Ga 14.383743 -14.377716 17.263355
Ga 11.508652 -14.377716 20.138446
Ga 11.508652 -8.627533 -2.862283
Ga 11.508652 -11.502624 0.012808
Ga 14.383743 -8.627533 0.012808
Ga 14.383743 -11.502624 2.887899
Ga 11.508652 -8.627533 2.887899
Ga 11.508652 -11.502624 5.762990
Ga 14.383743 -8.627533 5.762990
Ga 14.383743 -11.502624 8.638081
Ga 11.508652 -8.627533 8.638081
Ga 11.508652 -11.502624 11.513173
Ga 14.383743 -8.627533 11.513173
Ga 14.383743 -11.502624 14.388264
Ga 11.508652 -8.627533 14.388264
Ga 11.508652 -11.502624 17.263355
Ga 14.383743 -8.627533 17.263355
Ga 14.383743 -11.502624 20.138446
Ga 11.508652 -8.627533 20.138446
Ga 11.508652 -2.877351 -8.612465
Ga 11.508652 -5.752442 -5.737374
Ga 14.383743 -2.877351 -5.737374
Ga 14.383743 -5.752442 -2.862283
Ga 11.508652 -2.877351 -2.862283
Ga 11.508652 -5.752442 0.012808
Ga 14.383743 -2.877351 0.012808
Ga 14.383743 -5.752442 2.887899
Ga 11.508652 -2.877351 2.887899
Ga 11.508652 -5.752442 5.762990
Ga 14.383743 -2.877351 5.762990
Ga 14.383743 -5.752442 8.638081
Ga 11.508652 -2.877351 8.638081
Ga 11.508652 -5.752442 11.513173
Ga 14.383743 -2.877351 11.513173
Ga 14.383743 -5.752442 14.388264
Ga 11.508652 -2.877351 14.388264
Ga 11.508652 -5.752442 17.263355
Ga 11.508652 2.872831 -14.362647
Ga 11.508652 -0.002260 -11.487556
Ga 14.383743 2.872831 -11.487556
Ga 14.383743 -0.002260 -8.612465
Ga 11.508652 2.872831 -8.612465
Ga 11.508652 -0.002260 -5.737374
Ga 14.383743 2.872831 -5.737374
Ga 14.383743 -0.002260 -2.862283
Ga 11.508652 2.872831 -2.862283
Ga 11.508652 -0.002260 0.012808
Ga 14.383743 2.872831 0.012808
Ga 14.383743 -0.002260 2.887899
Ga 11.508652 2.872831 2.887899
Ga 11.508652 -0.002260 5.762990
Ga 14.383743 2.872831 5.762990
Ga 14.383743 -0.002260 8.638081
Ga 11.508652 2.872831 8.638081
Ga 11.508652 -0.002260 11.513173
Ga 11.508652 8.623013 -20.112829
Ga 11.508652 5.747922 -17.237738
Ga 14.383743 8.623013 -17.237738
Ga 14.383743 5.747922 -14.362647
Ga 11.508652 8.623013 -14.362647
Ga 11.508652 5.747922 -11.487556
Ga 14.383743 8.623013 -11.487556
Ga 14.383743 5.747922 -8.612465
Ga 11.508652 8.623013 -8.612465
Ga 11.508652 5.747922 -5.737374
Ga 14.383743 8.623013 -5.737374
Ga 14.383743 5.747922 -2.862283
Ga 11.508652 8.623013 -2.862283
Ga 11.508652 5.747922 0.012808
Ga 14.383743 8.623013 0.012808
Ga 14.383743 5.747922 2.887899
Ga 11.508652 8.623013 2.887899
Ga 11.508652 5.747922 5.762990
Ga 14.383743 11.498104 -20.112829
Ga 11.508652 14.373195 -20.112829
Ga 11.508652 11.498104 -17.237738
Ga 14.383743 14.373195 -17.237738
Ga 14.383743 11.498104 -14.362647
Ga 11.508652 14.373195 -14.362647
Ga 11.508652 11.498104 -11.487556
Ga 14.383743 14.373195 -11.487556
Ga 14.383743 11.498104 -8.612465
Ga 11.508652 14.373195 -8.612465
Ga 11.508652 11.498104 -5.737374
Ga 14.383743 14.373195 -5.737374
Ga 14.383743 11.498104 -2.862283
Ga 11.508652 14.373195 -2.862283
Ga 11.508652 11.498104 0.012808
Ga 11.508652 17.248286 -17.237738
Ga 14.383743 17.248286 -14.362647
Ga 11.508652 20.123377 -14.362647
Ga 11.508652 17.248286 -11.487556
Ga 14.383743 20.123377 -11.487556
Ga 14.383743 17.248286 -8.612465
Ga 11.508652 20.123377 -8.612465
Ga 11.508652 17.248286 -5.737374
Ga 17.258834 -14.377716 8.638081
Ga 17.258834 -17.252807 11.513173
Ga 20.133925 -14.377716 11.513173
Ga 17.258834 -14.377716 14.388264
Ga 17.258834 -8.627533 2.887899
Ga 17.258834 -11.502624 5.762990
Ga 20.133925 -8.627533 5.762990
Ga 20.133925 -11.502624 8.638081
Ga 17.258834 -8.627533 8.638081
Ga 17.258834 -11.502624 11.513173
Ga 20.133925 -8.627533 11.513173
Ga 20.133925 -11.502624 14.388264
Ga 17.258834 -8.627533 14.388264
Ga 17.258834 -11.502624 17.263355
Ga 17.258834 -2.877351 -2.862283
Ga 17.258834 -5.752442 0.012808
Ga 20.133925 -2.877351 0.012808
Ga 20.133925 -5.752442 2.887899
Ga 17.258834 -2.877351 2.887899
Ga 17.258834 -5.752442 5.762990
Ga 20.133925 -2.877351 5.762990
Ga 20.133925 -5.752442 8.638081
Ga 17.258834 -2.877351 8.638081
Ga 17.258834 -5.752442 11.513173
Ga 17.258834 2.872831 -8.612465
Ga 17.258834 -0.002260 -5.737374
Ga 20.133925 2.872831 -5.737374
Ga 20.133925 -0.002260 -2.862283
Ga 17.258834 2.872831 -2.862283
Ga 17.258834 -0.002260 0.012808
Ga 20.133925 2.872831 0.012808
Ga 20.133925 -0.002260 2.887899
Ga 17.258834 2.872831 2.887899
Ga 17.258834 -0.002260 5.762990
Ga 17.258834 8.623013 -14.362647
Ga 17.258834 5.747922 -11.487556
Ga 20.133925 8.623013 -11.487556
Ga 20.133925 5.747922 -8.612465
Ga 17.258834 8.623013 -8.612465
Ga 17.258834 5.747922 -5.737374
Ga 20.133925 8.623013 -5.737374
Ga 20.133925 5.747922 -2.862283
Ga 17.258834 8.623013 -2.862283
Ga 17.258834 5.747922 0.012808
Ga 17.258834 11.498104 -17.237738
Ga 20.133925 11.498104 -14.362647
Ga 17.258834 14.373195 -14.362647
Ga 17.258834 11.498104 -11.487556
Ga 20.133925 14.373195 -11.487556
Ga 20.133925 11.498104 -8.612465
Ga 17.258834 14.373195 -8.612465
Ga 17.258834 11.498104 -5.737374
Ga 17.258834 17.248286 -11.487556
As -18.679804 -12.940170 -15.800192
As -18.679804 -15.815261 -12.925101
As -18.679804 -12.940170 -10.050010
As -18.679804 -10.065079 -12.925101
As -18.679804 -7.189988 -10.050010
As -18.679804 -10.065079 -7.174919
As -18.679804 -7.189988 -4.299828
As -18.679804 -4.314897 -7.174919
As -18.679804 -1.439806 -4.299828
As -18.679804 -4.314897 -1.424737
As -18.679804 -1.439806 1.450354
As -18.679804 1.435285 -1.424737
As -18.679804 4.310376 1.450354
As -18.679804 1.435285 4.325445
As -18.679804 4.310376 7.200536
As -18.679804 7.185467 4.325445
As -18.679804 10.060558 7.200536
As -18.679804 7.185467 10.075627
As -18.679804 10.060558 12.950718
As -18.679804 12.935649 10.075627
As -18.679804 15.810740 12.950718
As -18.679804 12.935649 15.825809
As -15.804713 -18.690352 -12.925101
As -12.929622 -18.690352 -15.800192
As -12.929622 -18.690352 -10.050010
As -15.804713 -12.940170 -18.675284
As -12.929622 -15.815261 -18.675284
As -15.804713 -15.815261 -15.800192
As -15.804713 -12.940170 -12.925101
As -12.929622 -12.940170 -15.800192
As -12.929622 -15.815261 -12.925101
As -15.804713 -15.815261 -10.050010
As -15.804713 -12.940170 -7.174919
As -12.929622 -12.940170 -10.050010
As -12.929622 -15.815261 -7.174919
As -12.929622 -12.940170 -4.299828
As -12.929622 -10.065079 -18.675284
As -15.804713 -10.065079 -15.800192
As -15.804713 -7.189988 -12.925101
As -12.929622 -7.189988 -15.800192
As -12.929622 -10.065079 -12.925101
As -15.804713 -10.065079 -10.050010
As -15.804713 -7.189988 -7.174919
As -12.929622 -7.189988 -10.050010
As -12.929622 -10.065079 -7.174919
As -15.804713 -10.065079 -4.299828
As -15.804713 -7.189988 -1.424737
As -12.929622 -7.189988 -4.299828
As -12.929622 -10.065079 -1.424737
As -12.929622 -7.189988 1.450354
As -12.929622 -4.314897 -12.925101
As -15.804713 -4.314897 -10.050010
As -15.804713 -1.439806 -7.174919
As -12.929622 -1.439806 -10.050010
As -12.929622 -4.314897 -7.174919
As -15.804713 -4.314897 -4.299828
As -15.804713 -1.439806 -1.424737
As -12.929622 -1.439806 -4.299828
As -12.929622 -4.314897 -1.424737
As -15.804713 -4.314897 1.450354
As -15.804713 -1.439806 4.325445
As -12.929622 -1.439806 1.450354
As -12.929622 -4.314897 4.325445
As -12.929622 -1.439806 7.200536
As -12.929622 1.435285 -7.174919
As -15.804713 1.435285 -4.299828
As -15.804713 4.310376 -1.424737
As -12.929622 4.310376 -4.299828
As -12.929622 1.435285 -1.424737
As -15.804713 1.435285 1.450354
As -15.804713 4.310376 4.325445
As -12.929622 4.310376 1.450354
As -12.929622 1.435285 4.325445
As -15.804713 1.435285 7.200536
As -15.804713 4.310376 10.075627
As -12.929622 4.310376 7.200536
As -12.929622 1.435285 10.075627
As -12.929622 4.310376 12.950718
As -12.929622 7.185467 -1.424737
As -15.804713 7.185467 1.450354
As -15.804713 10.060558 4.325445
As -12.929622 10.060558 1.450354
As -12.929622 7.185467 4.325445
As -15.804713 7.185467 7.200536
As -15.804713 10.060558 10.075627
As -12.929622 10.060558 7.200536
As -12.929622 7.185467 10.075627
As -15.804713 7.185467 12.950718
As -15.804713 10.060558 15.825809
As -12.929622 10.060558 12.950718
As -12.929622 7.185467 15.825809
As -12.929622 10.060558 18.700900
As -12.929622 12.935649 4.325445
As -15.804713 12.935649 7.200536
As -15.804713 15.810740 10.075627
As -12.929622 15.810740 7.200536
As -12.929622 12.935649 10.075627
As -15.804713 12.935649 12.950718
As -15.804713 15.810740 15.825809
As -12.929622 15.810740 12.950718
As -12.929622 12.935649 15.825809
As -15.804713 12.935649 18.700900
As -12.929622 15.810740 18.700900
As -12.929622 18.685832 10.075627
As -15.804713 18.685832 12.950718
As -12.929622 18.685832 15.825809
As -10.054531 -18.690352 -12.925101
As -10.054531 -18.690352 -7.174919
As -7.179440 -18.690352 -10.050010
As -7.179440 -18.690352 -4.299828
As -10.054531 -12.940170 -18.675284
As -10.054531 -15.815261 -15.800192
As -10.054531 -12.940170 -12.925101
As -7.179440 -12.940170 -15.800192
As -7.179440 -15.815261 -12.925101
As -10.054531 -15.815261 -10.050010
As -10.054531 -12.940170 -7.174919
As -7.179440 -12.940170 -10.050010
As -7.179440 -15.815261 -7.174919
As -10.054531 -15.815261 -4.299828
As -10.054531 -12.940170 -1.424737
As -7.179440 -12.940170 -4.299828
As -7.179440 -15.815261 -1.424737
As -7.179440 -12.940170 1.450354
As -10.054531 -7.189988 -18.675284
As -7.179440 -10.065079 -18.675284
As -10.054531 -10.065079 -15.800192
As -10.054531 -7.189988 -12.925101
As -7.179440 -7.189988 -15.800192
As -7.179440 -10.065079 -12.925101
As -10.054531 -10.065079 -10.050010
As -10.054531 -7.189988 -7.174919
As -7.179440 -7.189988 -10.050010
As -7.179440 -10.065079 -7.174919
As -10.054531 -10.065079 -4.299828
As -10.054531 -7.189988 -1.424737
As -7.179440 -7.189988 -4.299828
As -7.179440 -10.065079 -1.424737
As -10.054531 -10.065079 1.450354
As -10.054531 -7.189988 4.325445
As -7.179440 -7.189988 1.450354
As -7.179440 -10.065079 4.325445
As -7.179440 -7.189988 7.200536
As -7.179440 -4.314897 -18.675284
As -10.054531 -4.314897 -15.800192
As -10.054531 -1.439806 -12.925101
As -7.179440 -1.439806 -15.800192
As -7.179440 -4.314897 -12.925101
As -10.054531 -4.314897 -10.050010
As -10.054531 -1.439806 -7.174919
As -7.179440 -1.439806 -10.050010
As -7.179440 -4.314897 -7.174919
As -10.054531 -4.314897 -4.299828
As -10.054531 -1.439806 -1.424737
As -7.179440 -1.439806 -4.299828
As -7.179440 -4.314897 -1.424737
As -10.054531 -4.314897 1.450354
As -10.054531 -1.439806 4.325445
As -7.179440 -1.439806 1.450354
As -7.179440 -4.314897 4.325445
As -10.054531 -4.314897 7.200536
As -10.054531 -1.439806 10.075627
As -7.179440 -1.439806 7.200536
As -7.179440 -4.314897 10.075627
As -7.179440 -1.439806 12.950718
As -7.179440 1.435285 -12.925101
As -10.054531 1.435285 -10.050010
As -10.054531 4.310376 -7.174919
As -7.179440 4.310376 -10.050010
As -7.179440 1.435285 -7.174919
As -10.054531 1.435285 -4.299828
As -10.054531 4.310376 -1.424737
As -7.179440 4.310376 -4.299828
As -7.179440 1.435285 -1.424737
As -10.054531 1.435285 1.450354
As -10.054531 4.310376 4.325445
As -7.179440 4.310376 1.450354
As -7.179440 1.435285 4.325445
As -10.054531 1.435285 7.200536
As -10.054531 4.310376 10.075627
As -7.179440 4.310376 7.200536
As -7.179440 1.435285 10.075627
As -10.054531 1.435285 12.950718
As -10.054531 4.310376 15.825809
As -7.179440 4.310376 12.950718
As -7.179440 1.435285 15.825809
As -7.179440 4.310376 18.700900
As -7.179440 7.185467 -7.174919
As -10.054531 7.185467 -4.299828
As -10.054531 10.060558 -1.424737
As -7.179440 10.060558 -4.299828
As -7.179440 7.185467 -1.424737
As -10.054531 7.185467 1.450354
As -10.054531 10.060558 4.325445
As -7.179440 10.060558 1.450354
As -7.179440 7.185467 4.325445
As -10.054531 7.185467 7.200536
As -10.054531 10.060558 10.075627
As -7.179440 10.060558 7.200536
As -7.179440 7.185467 10.075627
As -10.054531 7.185467 12.950718
As -10.054531 10.060558 15.825809
As -7.179440 10.060558 12.950718
As -7.179440 7.185467 15.825809
As -10.054531 7.185467 18.700900
As -7.179440 10.060558 18.700900
As -7.179440 12.935649 -1.424737
As -10.054531 12.935649 1.450354
As -10.054531 15.810740 4.325445
As -7.179440 15.810740 1.450354
As -7.179440 12.935649 4.325445
As -10.054531 12.935649 7.200536
As -10.054531 15.810740 10.075627
As -7.179440 15.810740 7.200536
As -7.179440 12.935649 10.075627
As -10.054531 12.935649 12.950718
As -10.054531 15.810740 15.825809
As -7.179440 15.810740 12.950718
As -7.179440 12.935649 15.825809
As -10.054531 12.935649 18.700900
As -7.179440 18.685832 4.325445
As -10.054531 18.685832 7.200536
As -7.179440 18.685832 10.075627
As -10.054531 18.685832 12.950718
As -4.304349 -18.690352 -7.174919
As -4.304349 -18.690352 -1.424737
As -1.429258 -18.690352 -4.299828
As -1.429258 -18.690352 1.450354
As -4.304349 -12.940170 -12.925101
As -4.304349 -15.815261 -10.050010
As -4.304349 -12.940170 -7.174919
As -1.429258 -12.940170 -10.050010
As -1.429258 -15.815261 -7.174919
As -4.304349 -15.815261 -4.299828
As -4.304349 -12.940170 -1.424737
As -1.429258 -12.940170 -4.299828
As -1.429258 -15.815261 -1.424737
As -4.304349 -15.815261 1.450354
As -4.304349 -12.940170 4.325445
As -1.429258 -12.940170 1.450354
As -1.429258 -15.815261 4.325445
As -1.429258 -12.940170 7.200536
As -4.304349 -7.189988 -18.675284
As -4.304349 -10.065079 -15.800192
As -4.304349 -7.189988 -12.925101
As -1.429258 -7.189988 -15.800192
As -1.429258 -10.065079 -12.925101
As -4.304349 -10.065079 -10.050010
As -4.304349 -7.189988 -7.174919
As -1.429258 -7.189988 -10.050010
As -1.429258 -10.065079 -7.174919
As -4.304349 -10.065079 -4.299828
As -4.304349 -7.189988 -1.424737
As -1.429258 -7.189988 -4.299828
As -1.429258 -10.065079 -1.424737
As -4.304349 -10.065079 1.450354
As -4.304349 -7.189988 4.325445
As -1.429258 -7.189988 1.450354
As -1.429258 -10.065079 4.325445
As -4.304349 -10.065079 7.200536
As -4.304349 -7.189988 10.075627
As -1.429258 -7.189988 7.200536
As -1.429258 -10.065079 10.075627
As -1.429258 -7.189988 12.950718
As -4.304349 -1.439806 -18.675284
As -1.429258 -4.314897 -18.675284
As -4.304349 -4.314897 -15.800192
As -4.304349 -1.439806 -12.925101
As -1.429258 -1.439806 -15.800192
As -1.429258 -4.314897 -12.925101
As -4.304349 -4.314897 -10.050010
As -4.304349 -1.439806 -7.174919
As -1.429258 -1.439806 -10.050010
As -1.429258 -4.314897 -7.174919
As -4.304349 -4.314897 -4.299828
As -4.304349 -1.439806 -1.424737
As -1.429258 -1.439806 -4.299828
As -1.429258 -4.314897 -1.424737
As -4.304349 -4.314897 1.450354
As -4.304349 -1.439806 4.325445
As -1.429258 -1.439806 1.450354
As -1.429258 -4.314897 4.325445
As -4.304349 -4.314897 7.200536
As -4.304349 -1.439806 10.075627
As -1.429258 -1.439806 7.200536
As -1.429258 -4.314897 10.075627
As -4.304349 -4.314897 12.950718
As -4.304349 -1.439806 15.825809
As -1.429258 -1.439806 12.950718
As -1.429258 -4.314897 15.825809
As -1.429258 -1.439806 18.700900
As -1.429258 1.435285 -18.675284
As -4.304349 1.435285 -15.800192
As -4.304349 4.310376 -12.925101
As -1.429258 4.310376 -15.800192
As -1.429258 1.435285 -12.925101
As -4.304349 1.435285 -10.050010
As -4.304349 4.310376 -7.174919
As -1.429258 4.310376 -10.050010
As -1.429258 1.435285 -7.174919
As -4.304349 1.435285 -4.299828
As -4.304349 4.310376 -1.424737
As -1.429258 4.310376 -4.299828
As -1.429258 1.435285 -1.424737
As -4.304349 1.435285 1.450354
As -4.304349 4.310376 4.325445
As -1.429258 4.310376 1.450354
As -1.429258 1.435285 4.325445
As -4.304349 1.435285 7.200536
As -4.304349 4.310376 10.075627
As -1.429258 4.310376 7.200536
As -1.429258 1.435285 10.075627
As -4.304349 1.435285 12.950718
As -4.304349 4.310376 15.825809
As -1.429258 4.310376 12.950718
As -1.429258 1.435285 15.825809
As -4.304349 1.435285 18.700900
As -1.429258 4.310376 18.700900
As -1.429258 7.185467 -12.925101
As -4.304349 7.185467 -10.050010
As -4.304349 10.060558 -7.174919
As -1.429258 10.060558 -10.050010
As -1.429258 7.185467 -7.174919
As -4.304349 7.185467 -4.299828
As -4.304349 10.060558 -1.424737
As -1.429258 10.060558 -4.299828
As -1.429258 7.185467 -1.424737
As -4.304349 7.185467 1.450354
As -4.304349 10.060558 4.325445
As -1.429258 10.060558 1.450354
As -1.429258 7.185467 4.325445
As -4.304349 7.185467 7.200536
As -4.304349 10.060558 10.075627
As -1.429258 10.060558 7.200536
As -1.429258 7.185467 10.075627
As -4.304349 7.185467 12.950718
As -4.304349 10.060558 15.825809
As -1.429258 10.060558 12.950718
As -1.429258 7.185467 15.825809
As -4.304349 7.185467 18.700900
As -1.429258 12.935649 -7.174919
As -4.304349 12.935649 -4.299828
As -4.304349 15.810740 -1.424737
As -1.429258 15.810740 -4.299828
As -1.429258 12.935649 -1.424737
As -4.304349 12.935649 1.450354
As -4.304349 15.810740 4.325445
As -1.429258 15.810740 1.450354
As -1.429258 12.935649 4.325445
As -4.304349 12.935649 7.200536
As -4.304349 15.810740 10.075627
As -1.429258 15.810740 7.200536
As -1.429258 12.935649 10.075627
As -4.304349 12.935649 12.950718
As -1.429258 18.685832 -1.424737
As -4.304349 18.685832 1.450354
As -1.429258 18.685832 4.325445
As -4.304349 18.685832 7.200536
As 1.445833 -18.690352 -1.424737
As 1.445833 -18.690352 4.325445
As 4.320924 -18.690352 1.450354
As 4.320924 -18.690352 7.200536
As 1.445833 -12.940170 -7.174919
As 1.445833 -15.815261 -4.299828
As 1.445833 -12.940170 -1.424737
As 4.320924 -12.940170 -4.299828
As 4.320924 -15.815261 -1.424737
As 1.445833 -15.815261 1.450354
As 1.445833 -12.940170 4.325445
As 4.320924 -12.940170 1.450354
As 4.320924 -15.815261 4.325445
As 1.445833 -15.815261 7.200536
As 1.445833 -12.940170 10.075627
As 4.320924 -12.940170 7.200536
As 4.320924 -15.815261 10.075627
As 4.320924 -12.940170 12.950718
As 1.445833 -7.189988 -12.925101
As 1.445833 -10.065079 -10.050010
As 1.445833 -7.189988 -7.174919
As 4.320924 -7.189988 -10.050010
As 4.320924 -10.065079 -7.174919
As 1.445833 -10.065079 -4.299828
As 1.445833 -7.189988 -1.424737
As 4.320924 -7.189988 -4.299828
As 4.320924 -10.065079 -1.424737
As 1.445833 -10.065079 1.450354
As 1.445833 -7.189988 4.325445
As 4.320924 -7.189988 1.450354
As 4.320924 -10.065079 4.325445
As 1.445833 -10.065079 7.200536
As 1.445833 -7.189988 10.075627
As 4.320924 -7.189988 7.200536
As 4.320924 -10.065079 10.075627
As 1.445833 -10.065079 12.950718
As 1.445833 -7.189988 15.825809
As 4.320924 -7.189988 12.950718
As 4.320924 -10.065079 15.825809
As 4.320924 -7.189988 18.700900
As 1.445833 -1.439806 -18.675284
As 1.445833 -4.314897 -15.800192
As 1.445833 -1.439806 -12.925101
As 4.320924 -1.439806 -15.800192
As 4.320924 -4.314897 -12.925101
As 1.445833 -4.314897 -10.050010
As 1.445833 -1.439806 -7.174919
As 4.320924 -1.439806 -10.050010
As 4.320924 -4.314897 -7.174919
As 1.445833 -4.314897 -4.299828
As 1.445833 -1.439806 -1.424737
As 4.320924 -1.439806 -4.299828
As 4.320924 -4.314897 -1.424737
As 1.445833 -4.314897 1.450354
As 1.445833 -1.439806 4.325445
As 4.320924 -1.439806 1.450354
As 4.320924 -4.314897 4.325445
As 1.445833 -4.314897 7.200536
As 1.445833 -1.439806 10.075627
As 4.320924 -1.439806 7.200536
As 4.320924 -4.314897 10.075627
As 1.445833 -4.314897 12.950718
As 1.445833 -1.439806 15.825809
As 4.320924 -1.439806 12.950718
As 4.320924 -4.314897 15.825809
As 1.445833 -4.314897 18.700900
As 4.320924 -1.439806 18.700900
As 1.445833 4.310376 -18.675284
As 4.320924 1.435285 -18.675284
As 1.445833 1.435285 -15.800192
As 1.445833 4.310376 -12.925101
As 4.320924 4.310376 -15.800192
As 4.320924 1.435285 -12.925101
As 1.445833 1.435285 -10.050010
As 1.445833 4.310376 -7.174919
As 4.320924 4.310376 -10.050010
As 4.320924 1.435285 -7.174919
As 1.445833 1.435285 -4.299828
As 1.445833 4.310376 -1.424737
As 4.320924 4.310376 -4.299828
As 4.320924 1.435285 -1.424737
As 1.445833 1.435285 1.450354
As 1.445833 4.310376 4.325445
As 4.320924 4.310376 1.450354
As 4.320924 1.435285 4.325445
As 1.445833 1.435285 7.200536
As 1.445833 4.310376 10.075627
As 4.320924 4.310376 7.200536
As 4.320924 1.435285 10.075627
As 1.445833 1.435285 12.950718
As 1.445833 4.310376 15.825809
As 4.320924 4.310376 12.950718
As 4.320924 1.435285 15.825809
As 1.445833 1.435285 18.700900
As 4.320924 7.185467 -18.675284
As 1.445833 7.185467 -15.800192
As 1.445833 10.060558 -12.925101
As 4.320924 10.060558 -15.800192
As 4.320924 7.185467 -12.925101
As 1.445833 7.185467 -10.050010
As 1.445833 10.060558 -7.174919
As 4.320924 10.060558 -10.050010
As 4.320924 7.185467 -7.174919
As 1.445833 7.185467 -4.299828
As 1.445833 10.060558 -1.424737
As 4.320924 10.060558 -4.299828
As 4.320924 7.185467 -1.424737
As 1.445833 7.185467 1.450354
As 1.445833 10.060558 4.325445
As 4.320924 10.060558 1.450354
As 4.320924 7.185467 4.325445
As 1.445833 7.185467 7.200536
As 1.445833 10.060558 10.075627
As 4.320924 10.060558 7.200536
As 4.320924 7.185467 10.075627
As 1.445833 7.185467 12.950718
As 4.320924 12.935649 -12.925101
As 1.445833 12.935649 -10.050010
As 1.445833 15.810740 -7.174919
As 4.320924 15.810740 -10.050010
As 4.320924 12.935649 -7.174919
As 1.445833 12.935649 -4.299828
As 1.445833 15.810740 -1.424737
As 4.320924 15.810740 -4.299828
As 4.320924 12.935649 -1.424737
As 1.445833 12.935649 1.450354
As 1.445833 15.810740 4.325445
As 4.320924 15.810740 1.450354
As 4.320924 12.935649 4.325445
As 1.445833 12.935649 7.200536
As 4.320924 18.685832 -7.174919
As 1.445833 18.685832 -4.299828
As 4.320924 18.685832 -1.424737
As 1.445833 18.685832 1.450354
As 7.196015 -18.690352 4.325445
As 7.196015 -18.690352 10.075627
As 10.071106 -18.690352 7.200536
As 10.071106 -18.690352 12.950718
As 7.196015 -12.940170 -1.424737
As 7.196015 -15.815261 1.450354
As 7.196015 -12.940170 4.325445
As 10.071106 -12.940170 1.450354
As 10.071106 -15.815261 4.325445
As 7.196015 -15.815261 7.200536
As 7.196015 -12.940170 10.075627
As 10.071106 -12.940170 7.200536
As 10.071106 -15.815261 10.075627
As 7.196015 -15.815261 12.950718
As 7.196015 -12.940170 15.825809
As 10.071106 -12.940170 12.950718
As 10.071106 -15.815261 15.825809
As 10.071106 -12.940170 18.700900
As 7.196015 -7.189988 -7.174919
As 7.196015 -10.065079 -4.299828
As 7.196015 -7.189988 -1.424737
As 10.071106 -7.189988 -4.299828
As 10.071106 -10.065079 -1.424737
As 7.196015 -10.065079 1.450354
As 7.196015 -7.189988 4.325445
As 10.071106 -7.189988 1.450354
As 10.071106 -10.065079 4.325445
As 7.196015 -10.065079 7.200536
As 7.196015 -7.189988 10.075627
As 10.071106 -7.189988 7.200536
As 10.071106 -10.065079 10.075627
As 7.196015 -10.065079 12.950718
As 7.196015 -7.189988 15.825809
As 10.071106 -7.189988 12.950718
As 10.071106 -10.065079 15.825809
As 7.196015 -10.065079 18.700900
As 10.071106 -7.189988 18.700900
As 7.196015 -1.439806 -12.925101
As 7.196015 -4.314897 -10.050010
As 7.196015 -1.439806 -7.174919
As 10.071106 -1.439806 -10.050010
As 10.071106 -4.314897 -7.174919
As 7.196015 -4.314897 -4.299828
As 7.196015 -1.439806 -1.424737
As 10.071106 -1.439806 -4.299828
As 10.071106 -4.314897 -1.424737
As 7.196015 -4.314897 1.450354
As 7.196015 -1.439806 4.325445
As 10.071106 -1.439806 1.450354
As 10.071106 -4.314897 4.325445
As 7.196015 -4.314897 7.200536
As 7.196015 -1.439806 10.075627
As 10.071106 -1.439806 7.200536
As 10.071106 -4.314897 10.075627
As 7.196015 -4.314897 12.950718
As 7.196015 -1.439806 15.825809
As 10.071106 -1.439806 12.950718
As 10.071106 -4.314897 15.825809
As 7.196015 -4.314897 18.700900
As 7.196015 4.310376 -18.675284
As 7.196015 1.435285 -15.800192
As 7.196015 4.310376 -12.925101
As 10.071106 4.310376 -15.800192
As 10.071106 1.435285 -12.925101
As 7.196015 1.435285 -10.050010
As 7.196015 4.310376 -7.174919
As 10.071106 4.310376 -10.050010
As 10.071106 1.435285 -7.174919
As 7.196015 1.435285 -4.299828
As 7.196015 4.310376 -1.424737
As 10.071106 4.310376 -4.299828
As 10.071106 1.435285 -1.424737
As 7.196015 1.435285 1.450354
As 7.196015 4.310376 4.325445
As 10.071106 4.310376 1.450354
As 10.071106 1.435285 4.325445
As 7.196015 1.435285 7.200536
As 7.196015 4.310376 10.075627
As 10.071106 4.310376 7.200536
As 10.071106 1.435285 10.075627
As 7.196015 1.435285 12.950718
As 7.196015 10.060558 -18.675284
As 10.071106 7.185467 -18.675284
As 7.196015 7.185467 -15.800192
As 7.196015 10.060558 -12.925101
As 10.071106 10.060558 -15.800192
As 10.071106 7.185467 -12.925101
As 7.196015 7.185467 -10.050010
As 7.196015 10.060558 -7.174919
As 10.071106 10.060558 -10.050010
As 10.071106 7.185467 -7.174919
As 7.196015 7.185467 -4.299828
As 7.196015 10.060558 -1.424737
As 10.071106 10.060558 -4.299828
As 10.071106 7.185467 -1.424737
As 7.196015 7.185467 1.450354
As 7.196015 10.060558 4.325445
As 10.071106 10.060558 1.450354
As 10.071106 7.185467 4.325445
As 7.196015 7.185467 7.200536
As 10.071106 12.935649 -18.675284
As 7.196015 12.935649 -15.800192
As 7.196015 15.810740 -12.925101
As 10.071106 15.810740 -15.800192
As 10.071106 12.935649 -12.925101
As 7.196015 12.935649 -10.050010
As 7.196015 15.810740 -7.174919
As 10.071106 15.810740 -10.050010
As 10.071106 12.935649 -7.174919
As 7.196015 12.935649 -4.299828
As 7.196015 15.810740 -1.424737
As 10.071106 15.810740 -4.299828
As 10.071106 12.935649 -1.424737
As 7.196015 12.935649 1.450354
As 10.071106 18.685832 -12.925101
As 7.196015 18.685832 -10.050010
As 10.071106 18.685832 -7.174919
As 7.196015 18.685832 -4.299828
As 12.946197 -18.690352 10.075627
As 12.946197 -18.690352 15.825809
As 15.821289 -18.690352 12.950718
As 12.946197 -12.940170 4.325445
As 12.946197 -15.815261 7.200536
As 12.946197 -12.940170 10.075627
As 15.821289 -12.940170 7.200536
As 15.821289 -15.815261 10.075627
As 12.946197 -15.815261 12.950718
As 12.946197 -12.940170 15.825809
As 15.821289 -12.940170 12.950718
As 15.821289 -15.815261 15.825809
As 12.946197 -15.815261 18.700900
As 15.821289 -12.940170 18.700900
As 12.946197 -7.189988 -1.424737
As 12.946197 -10.065079 1.450354
As 12.946197 -7.189988 4.325445
As 15.821289 -7.189988 1.450354
As 15.821289 -10.065079 4.325445
As 12.946197 -10.065079 7.200536
As 12.946197 -7.189988 10.075627
As 15.821289 -7.189988 7.200536
As 15.821289 -10.065079 10.075627
As 12.946197 -10.065079 12.950718
As 12.946197 -7.189988 15.825809
As 15.821289 -7.189988 12.950718
As 15.821289 -10.065079 15.825809
As 12.946197 -10.065079 18.700900
As 12.946197 -1.439806 -7.174919
As 12.946197 -4.314897 -4.299828
As 12.946197 -1.439806 -1.424737
As 15.821289 -1.439806 -4.299828
As 15.821289 -4.314897 -1.424737
As 12.946197 -4.314897 1.450354
As 12.946197 -1.439806 4.325445
As 15.821289 -1.439806 1.450354
As 15.821289 -4.314897 4.325445
As 12.946197 -4.314897 7.200536
As 12.946197 -1.439806 10.075627
As 15.821289 -1.439806 7.200536
As 15.821289 -4.314897 10.075627
As 12.946197 -4.314897 12.950718
As 12.946197 4.310376 -12.925101
As 12.946197 1.435285 -10.050010
As 12.946197 4.310376 -7.174919
As 15.821289 4.310376 -10.050010
As 15.821289 1.435285 -7.174919
As 12.946197 1.435285 -4.299828
As 12.946197 4.310376 -1.424737
As 15.821289 4.310376 -4.299828
As 15.821289 1.435285 -1.424737
As 12.946197 1.435285 1.450354
As 12.946197 4.310376 4.325445
As 15.821289 4.310376 1.450354
As 15.821289 1.435285 4.325445
As 12.946197 1.435285 7.200536
As 12.946197 10.060558 -18.675284
As 12.946197 7.185467 -15.800192
As 12.946197 10.060558 -12.925101
As 15.821289 10.060558 -15.800192
As 15.821289 7.185467 -12.925101
As 12.946197 7.185467 -10.050010
As 12.946197 10.060558 -7.174919
As 15.821289 10.060558 -10.050010
As 15.821289 7.185467 -7.174919
As 12.946197 7.185467 -4.299828
As 12.946197 10.060558 -1.424737
As 15.821289 10.060558 -4.299828
As 15.821289 7.185467 -1.424737
As 12.946197 7.185467 1.450354
As 12.946197 15.810740 -18.675284
As 15.821289 12.935649 -18.675284
As 12.946197 12.935649 -15.800192
As 12.946197 15.810740 -12.925101
As 15.821289 15.810740 -15.800192
As 15.821289 12.935649 -12.925101
As 12.946197 12.935649 -10.050010
As 12.946197 15.810740 -7.174919
As 15.821289 15.810740 -10.050010
As 15.821289 12.935649 -7.174919
As 12.946197 12.935649 -4.299828
As 12.946197 18.685832 -15.800192
As 15.821289 18.685832 -12.925101
As 12.946197 18.685832 -10.050010
As 18.696380 -12.940170 10.075627
As 18.696380 -15.815261 12.950718
As 18.696380 -12.940170 15.825809
As 18.696380 -7.189988 4.325445
As 18.696380 -10.065079 7.200536
As 18.696380 -7.189988 10.075627
As 18.696380 -10.065079 12.950718
As 18.696380 -1.439806 -1.424737
As 18.696380 -4.314897 1.450354
As 18.696380 -1.439806 4.325445
As 18.696380 -4.314897 7.200536
As 18.696380 4.310376 -7.174919
As 18.696380 1.435285 -4.299828
As 18.696380 4.310376 -1.424737
As 18.696380 1.435285 1.450354
As 18.696380 10.060558 -12.925101
As 18.696380 7.185467 -10.050010
As 18.696380 10.060558 -7.174919
As 18.696380 7.185467 -4.299828
As 18.696380 12.935649 -15.800192
As 18.696380 15.810740 -12.925101
As 18.696380 12.935649 -10.050010
Cl -21.554895 -12.940170 -12.925101
Cl -21.554895 -10.065079 -10.050010
Cl -21.554895 -7.189988 -7.174919
Cl -21.554895 -4.314897 -4.299828
Cl -21.554895 -1.439806 -1.424737
Cl -21.554895 1.435285 1.450354
Cl -21.554895 4.310376 4.325445
Cl -21.554895 7.185467 7.200536
Cl -21.554895 10.060558 10.075627
Cl -21.554895 12.935649 12.950718
Cl -12.929622 -21.565443 -12.925101
Cl -12.929622 -12.940170 -21.550375
Cl -12.929622 12.935649 21.575991
Cl -12.929622 21.560923 12.950718
Cl -10.054531 -21.565443 -10.050010
Cl -7.179440 -21.565443 -7.174919
Cl -10.054531 -10.065079 -21.550375
Cl -7.179440 -7.189988 -21.550375
Cl -10.054531 10.060558 21.575991
Cl -7.179440 7.185467 21.575991
Cl -10.054531 21.560923 10.075627
Cl -7.179440 21.560923 7.200536
Cl -4.304349 -21.565443 -4.299828
Cl -1.429258 -21.565443 -1.424737
Cl -4.304349 -4.314897 -21.550375
Cl -1.429258 -1.439806 -21.550375
Cl -4.304349 4.310376 21.575991
Cl -1.429258 1.435285 21.575991
Cl -4.304349 21.560923 4.325445
Cl -1.429258 21.560923 1.450354
Cl 1.445833 -21.565443 1.450354
Cl 4.320924 -21.565443 4.325445
Cl 1.445833 -1.439806 21.575991
Cl 4.320924 -4.314897 21.575991
Cl 1.445833 1.435285 -21.550375
Cl 4.320924 4.310376 -21.550375
Cl 1.445833 21.560923 -1.424737
Cl 4.320924 21.560923 -4.299828
Cl 7.196015 -21.565443 7.200536
Cl 10.071106 -21.565443 10.075627
Cl 7.196015 -7.189988 21.575991
Cl 10.071106 -10.065079 21.575991
Cl 7.196015 7.185467 -21.550375
Cl 10.071106 10.060558 -21.550375
Cl 7.196015 21.560923 -7.174919
Cl 10.071106 21.560923 -10.050010
Cl 12.946197 -21.565443 12.950718
Cl 12.946197 -12.940170 21.575991
Cl 12.946197 12.935649 -21.550375
Cl 12.946197 21.560923 -12.925101
Cl 21.571471 -12.940170 12.950718
Cl 21.571471 -7.189988 7.200536
Cl 21.571471 -10.065079 10.075627
Cl 21.571471 -1.439806 1.450354
Cl 21.571471 -4.314897 4.325445
Cl 21.571471 4.310376 -4.299828
Cl 21.571471 1.435285 -1.424737
Cl 21.571471 10.060558 -10.050010
Cl 21.571471 7.185467 -7.174919
Cl 21.571471 12.935649 -12.925101
Cl -10.054531 -10.065079 7.200536
Cl -10.054531 7.185467 -10.050010
Cl 7.196015 -10.065079 -10.050010
Cl 10.071106 10.060558 7.200536
Cl -15.804713 10.060558 21.575991
Cl -15.804713 21.560923 10.075627
Cl -10.054531 15.810740 21.575991
Cl 21.571471 -15.815261 10.075627
Cl 10.071106 -15.815261 21.575991
Cl 15.821289 -10.065079 21.575991
Cl 10.071106 21.560923 -15.800192
Cl 21.571471 10.060558 -15.800192
Cl -21.554895 -15.815261 -10.050010
Cl -21.554895 -10.065079 -15.800192
Cl -10.054531 -21.565443 -15.800192
Cl 15.821289 21.560923 -10.050010
Cl 1.445833 -21.565443 7.200536
Cl 1.445833 7.185467 -21.550375
Cl 7.196015 1.435285 -21.550375
Cl 21.571471 -1.439806 7.200536
Cl -21.554895 1.435285 7.200536
Cl -21.554895 7.185467 1.450354
Cl -1.429258 21.560923 7.200536
Cl 7.196015 -21.565443 1.450354
Cl -4.304349 -1.439806 21.575991
Cl -4.304349 21.560923 -1.424737
Cl 4.320924 1.435285 21.575991
Cl 21.571471 -4.314897 -1.424737
Cl -10.054531 -21.565443 -4.299828
Cl -10.054531 -4.314897 -21.550375
Cl -4.304349 -10.065079 -21.550375
Cl 21.571471 10.060558 -4.299828
Cl 7.196015 21.560923 -1.424737
Cl -21.554895 -1.439806 -7.174919
Cl -21.554895 -7.189988 -1.424737
Cl -1.429258 -21.565443 -7.174919
Cl 1.445833 -12.940170 15.825809
Cl 1.445833 15.810740 -12.925101
Cl 15.821289 1.435285 -12.925101
Cl -1.429258 12.935649 15.825809
Cl 12.946197 -1.439806 15.825809
Cl -12.929622 1.435285 15.825809
Cl -12.929622 15.810740 1.450354
Cl 15.821289 -12.940170 1.450354
Cl 10.071106 -21.565443 15.825809
Cl 15.821289 10.060558 -21.550375
Cl 10.071106 15.810740 -21.550375
Cl -10.054531 21.560923 15.825809
Cl 21.571471 -10.065079 15.825809
Cl -21.554895 15.810740 10.075627
Cl -21.554895 10.060558 15.825809
Cl 15.821289 -21.565443 10.075627
Cl -15.804713 -21.565443 -10.050010
Cl -15.804713 -10.065079 -21.550375
Cl -10.054531 -15.815261 -21.550375
Cl 21.571471 15.810740 -10.050010
Cl -4.304349 -21.565443 1.450354
Cl -4.304349 1.435285 -21.550375
Cl 1.445833 -4.314897 -21.550375
Cl 21.571471 4.310376 1.450354
Cl -1.429258 7.185467 21.575991
Cl 1.445833 -7.189988 21.575991
Cl 1.445833 21.560923 -7.174919
Cl 21.571471 1.435285 -7.174919
Cl -15.804713 -12.940170 -1.424737
Cl -15.804713 -1.439806 -12.925101
Cl -1.429258 -15.815261 -12.925101
Cl 12.946197 15.810740 -1.424737
Cl -15.804713 -4.314897 7.200536
Cl -15.804713 7.185467 -4.299828
Cl 7.196015 -15.815261 -4.299828
Cl 4.320924 15.810740 7.200536
Cl 15.821289 4.310376 7.200536
Cl -4.304349 -15.815261 7.200536
Cl -4.304349 7.185467 -15.800192
Cl 7.196015 -4.314897 -15.800192
Cl 4.320924 7.185467 15.825809
Cl -4.304349 -7.189988 15.825809
Cl -4.304349 15.810740 -7.174919
Cl 15.821289 -4.314897 -7.174919
Cl -10.054531 4.310376 21.575991
Cl -10.054531 21.560923 4.325445
Cl 21.571471 -10.065079 4.325445
Cl 10.071106 -4.314897 21.575991
Cl -4.304349 18.685832 12.950718
Cl -18.679804 4.310376 12.950718
Cl -18.679804 12.935649 4.325445
Cl 12.946197 -18.690352 4.325445
Cl 4.320924 -18.690352 12.950718
Cl 4.320924 12.935649 -18.675284
Cl 12.946197 4.310376 -18.675284
Cl 18.696380 -4.314897 12.950718
Cl 15.821289 10.060558 1.450354
Cl -10.054531 -15.815261 1.450354
Cl -10.054531 1.435285 -15.800192
Cl 1.445833 -10.065079 -15.800192
Cl -10.054531 -4.314897 12.950718
Cl -10.054531 12.935649 -4.299828
Cl 12.946197 -10.065079 -4.299828
Cl 10.071106 4.310376 12.950718
Cl 12.946197 21.560923 -7.174919
Cl -21.554895 -7.189988 -12.925101
Cl -21.554895 -12.940170 -7.174919
Cl -7.179440 -21.565443 -12.925101
Cl -7.179440 12.935649 21.575991
Cl 7.196015 -12.940170 21.575991
Cl 7.196015 21.560923 -12.925101
Cl 21.571471 7.185467 -12.925101
Cl 4.320924 21.560923 1.450354
Cl -21.554895 -4.314897 1.450354
Cl -21.554895 1.435285 -4.299828
Cl 1.445833 -21.565443 -4.299828
Cl -15.804713 -18.690352 -7.174919
Cl -15.804713 -7.189988 -18.675284
Cl -7.179440 -15.815261 -18.675284
Cl 18.696380 15.810740 -7.174919
Cl 4.320924 12.935649 10.075627
Cl -4.304349 -12.940170 10.075627
Cl -4.304349 10.060558 -12.925101
Cl 10.071106 -4.314897 -12.925101
Cl 15.821289 -7.189988 18.700900
Cl -15.804713 7.185467 18.700900
Cl -15.804713 18.685832 7.200536
Cl 18.696380 -15.815261 7.200536
Cl -15.804713 -10.065079 1.450354
Cl -15.804713 1.435285 -10.050010
Cl 1.445833 -15.815261 -10.050010
Cl 10.071106 15.810740 1.450354
Cl 7.196015 1.435285 18.700900
Cl -7.179440 -1.439806 18.700900
Cl -7.179440 18.685832 -1.424737
Cl 18.696380 -7.189988 -1.424737
Cl 15.821289 1.435285 10.075627
Cl -15.804713 -1.439806 10.075627
Cl -15.804713 10.060558 -1.424737
Cl 10.071106 -15.815261 -1.424737
Cl 7.196015 -21.565443 12.950718
Cl 7.196015 12.935649 -21.550375
Cl 12.946197 7.185467 -21.550375
Cl -7.179440 21.560923 12.950718
Cl 21.571471 -7.189988 12.950718
Cl -21.554895 7.185467 12.950718
Cl -21.554895 12.935649 7.200536
Cl 12.946197 -21.565443 7.200536
Cl -7.179440 -21.565443 -1.424737
Cl -1.429258 -7.189988 -21.550375
Cl -7.179440 -1.439806 -21.550375
Cl 21.571471 7.185467 -1.424737
Cl -4.304349 10.060558 21.575991
Cl 4.320924 -10.065079 21.575991
Cl 4.320924 21.560923 -10.050010
Cl 21.571471 4.310376 -10.050010
Cl 1.445833 21.560923 4.325445
Cl -1.429258 -21.565443 4.325445
Cl 4.320924 -1.439806 -21.550375
Cl -1.429258 4.310376 -21.550375
Cl -10.054531 18.685832 18.700900
Cl 10.071106 -18.690352 18.700900
Cl 10.071106 18.685832 -18.675284
Cl 18.696380 10.060558 -18.675284
Cl -21.554895 4.310376 -1.424737
Cl -21.554895 -1.439806 4.325445
Cl 4.320924 -21.565443 -1.424737
Cl 21.571471 1.435285 4.325445
Cl 10.071106 21.560923 -4.299828
Cl -21.554895 -10.065079 -4.299828
Cl -21.554895 -4.314897 -10.050010
Cl -4.304349 -21.565443 -10.050010
Cl -1.429258 -4.314897 21.575991
Cl -1.429258 21.560923 -4.299828
Cl 21.571471 -1.439806 -4.299828
Cl 1.445833 4.310376 21.575991
Cl 1.445833 -15.815261 12.950718
Cl 1.445833 12.935649 -15.800192
Cl 12.946197 1.435285 -15.800192
Cl -1.429258 15.810740 12.950718
Cl 18.696380 12.935649 -4.299828
Cl -12.929622 -18.690352 -4.299828
Cl -12.929622 -4.314897 -18.675284
Cl -4.304349 -12.940170 -18.675284
Cl 10.071106 7.185467 10.075627
Cl -10.054531 -7.189988 10.075627
Cl -10.054531 10.060558 -7.174919
Cl 10.071106 -10.065079 -7.174919
Cl -10.054531 -12.940170 4.325445
Cl -10.054531 4.310376 -12.925101
Cl 4.320924 -10.065079 -12.925101
Cl 12.946197 10.060558 4.325445
Cl 1.445833 10.060558 15.825809
Cl -1.429258 -10.065079 15.825809
Cl -1.429258 15.810740 -10.050010
Cl 15.821289 -1.439806 -10.050010
Cl -12.929622 7.185467 21.575991
Cl -12.929622 21.560923 7.200536
Cl 21.571471 -12.940170 7.200536
Cl 12.946197 -7.189988 21.575991
Cl -18.679804 -18.690352 -10.050010
Cl -18.679804 -10.065079 -18.675284
Cl -10.054531 -18.690352 -18.675284
Cl 18.696380 18.685832 -10.050010
Cl 7.196015 15.810740 4.325445
Cl -15.804713 -7.189988 4.325445
Cl -15.804713 4.310376 -7.174919
Cl 4.320924 -15.815261 -7.174919
Cl 18.696380 -10.065079 18.700900
Cl -18.679804 10.060558 18.700900
Cl -18.679804 18.685832 10.075627
Cl 18.696380 -18.690352 10.075627
Cl 21.571471 -4.314897 10.075627
Cl -21.554895 10.060558 4.325445
Cl -21.554895 4.310376 10.075627
Cl 10.071106 -21.565443 4.325445
Cl 7.196015 -1.439806 21.575991
Cl -7.179440 1.435285 21.575991
Cl -7.179440 21.560923 1.450354
Cl 21.571471 -7.189988 1.450354
Cl 4.320924 -21.565443 10.075627
Cl 10.071106 4.310376 -21.550375
Cl 4.320924 10.060558 -21.550375
Cl -4.304349 21.560923 10.075627
Cl 7.196015 -15.815261 18.700900
Cl 7.196015 18.685832 -15.800192
Cl 18.696380 7.185467 -15.800192
Cl -7.179440 15.810740 18.700900
Cl -4.304349 -18.690352 4.325445
Cl -4.304349 4.310376 -18.675284
Cl 4.320924 -4.314897 -18.675284
Cl 18.696380 7.185467 1.450354
Cl -18.679804 -12.940170 -4.299828
Cl -18.679804 -4.314897 -12.925101
Cl -4.304349 -18.690352 -12.925101
Cl 12.946197 1.435285 12.950718
Cl -10.054531 -1.439806 15.825809
Cl -10.054531 15.810740 -1.424737
Cl 15.821289 -10.065079 -1.424737
Cl 12.946197 18.685832 -4.299828
Cl 4.320924 10.060558 12.950718
Cl -15.804713 1.435285 12.950718
Cl -15.804713 12.935649 1.450354
Cl 12.946197 -15.815261 1.450354
Cl -4.304349 -10.065079 12.950718
Cl -4.304349 12.935649 -10.050010
Cl 12.946197 -4.314897 -10.050010
Cl 1.445833 18.685832 7.200536
Cl -12.929622 -21.565443 -7.174919
Cl -7.179440 -12.940170 -21.550375
Cl -12.929622 -7.189988 -21.550375
Cl 21.571471 12.935649 -7.174919
Cl 15.821289 -4.314897 15.825809
Cl -12.929622 -15.815261 -1.424737
Cl -12.929622 -1.439806 -15.800192
Cl -1.429258 -12.940170 -15.800192
Cl 7.196015 4.310376 15.825809
Cl -1.429258 -15.815261 10.075627
Cl -1.429258 10.060558 -15.800192
Cl 10.071106 -1.439806 -15.800192
Cl 15.821289 12.935649 -1.424737
Cl -18.679804 -4.314897 4.325445
Cl -18.679804 4.310376 -4.299828
Cl 4.320924 -18.690352 -4.299828
Cl 18.696380 1.435285 7.200536
Cl 1.445833 -10.065079 18.700900
Cl 1.445833 18.685832 -10.050010
Cl 18.696380 1.435285 -10.050010
Cl -4.304349 12.935649 18.700900
Cl -12.929622 4.310376 18.700900
Cl -12.929622 18.685832 4.325445
Cl 18.696380 -12.940170 4.325445
Cl 7.196015 18.685832 1.450354
Cl -7.179440 -18.690352 1.450354
Cl -7.179440 1.435285 -18.675284
Cl 1.445833 -7.189988 -18.675284
Cl -4.304349 -4.314897 18.700900
Cl -4.304349 18.685832 -4.299828
Cl 18.696380 -4.314897 -4.299828
Cl 10.071106 -1.439806 18.700900
Cl 1.445833 7.185467 18.700900
Cl 4.320924 -15.815261 15.825809
Cl 4.320924 15.810740 -15.800192
Cl 15.821289 4.310376 -15.800192
Cl 12.946197 7.185467 7.200536
Cl -12.929622 -10.065079 4.325445
Cl -12.929622 4.310376 -10.050010
Cl 4.320924 -12.940170 -10.050010
Cl 1.445833 15.810740 10.075627
Cl -12.929622 -4.314897 10.075627
Cl -12.929622 10.060558 -4.299828
Cl 10.071106 -12.940170 -4.299828
Cl 10.071106 12.935649 4.325445
Cl -7.179440 -10.065079 10.075627
Cl -7.179440 10.060558 -10.050010
Cl 10.071106 -7.189988 -10.050010
Cl -18.679804 -15.815261 -7.174919
Cl -18.679804 -7.189988 -15.800192
Cl -7.179440 -18.690352 -15.800192
Cl 15.821289 18.685832 -7.174919
Cl -18.679804 7.185467 15.825809
