88
InP-In-In35P26Cl27-clean
In -2.868113 -2.868113 -0.083863
In -2.868113 -5.820090 2.868113
In -5.820090 -2.868113 2.868113
In -5.820090 -5.820090 5.820090
In -2.868113 -2.868113 5.820090
In -2.868113 3.035839 -5.987816
In -2.868113 0.083863 -3.035839
In -5.820090 3.035839 -3.035839
In -5.820090 0.083863 -0.083863
In -2.868113 3.035839 -0.083863
In -2.868113 0.083863 2.868113
In -5.820090 5.987816 -5.987816
In -2.868113 5.987816 -3.035839
In 3.035839 -2.868113 -5.987816
In 3.035839 -5.820090 -3.035839
In 0.083863 -2.868113 -3.035839
In 0.083863 -5.820090 -0.083863
In 3.035839 -2.868113 -0.083863
In 0.083863 -2.868113 2.868113
In 0.083863 0.083863 -5.987816
In 3.035839 0.083863 -3.035839
In 0.083863 3.035839 -3.035839
In 0.083863 0.083863 -0.083863
In 3.035839 3.035839 -0.083863
In 3.035839 0.083863 2.868113
In 0.083863 3.035839 2.868113
In 0.083863 0.083863 5.820090
In 3.035839 3.035839 5.820090
In 0.083863 5.987816 -0.083863
In 3.035839 5.987816 2.868113
In 5.987816 -5.820090 -5.987816
In 5.987816 -2.868113 -3.035839
In 5.987816 0.083863 -0.083863
In 5.987816 3.035839 2.868113
In 5.987816 5.987816 5.820090
P -1.392125 -1.392125 -4.511828
P -1.392125 -4.344102 -1.559851
P -4.344102 -4.344102 1.392125
P -4.344102 -1.392125 4.344102
P -1.392125 -1.392125 1.392125
P -1.392125 -4.344102 4.344102
P -4.344102 1.559851 -4.511828
P -4.344102 4.511828 -1.559851
P -1.392125 4.511828 -4.511828
P -1.392125 1.559851 -1.559851
P -1.392125 4.511828 1.392125
P -1.392125 1.559851 4.344102
P 1.559851 -4.344102 -4.511828
P 1.559851 -1.392125 -1.559851
P 4.511828 -1.392125 -4.511828
P 4.511828 -4.344102 -1.559851
P 1.559851 -4.344102 1.392125
P 1.559851 -1.392125 4.344102
P 4.511828 -1.392125 1.392125
P 1.559851 1.559851 -4.511828
P 1.559851 4.511828 -1.559851
P 4.511828 1.559851 -1.559851
P 1.559851 1.559851 1.392125
P 1.559851 4.511828 4.344102
P 4.511828 4.511828 1.392125
P 4.511828 1.559851 4.344102
Cl -7.296078 -1.392125 1.392125
Cl -7.296078 -4.344102 4.344102
Cl -7.296078 4.511828 -4.511828
Cl -7.296078 1.559851 -1.559851
Cl -4.344102 -7.296078 4.344102
Cl -1.392125 -7.296078 1.392125
Cl -4.344102 -1.392125 -1.559851
Cl -4.344102 -4.344102 7.296078
Cl -1.392125 -1.392125 7.296078
Cl -4.344102 4.511828 -7.463804
Cl -1.392125 1.559851 -7.463804
Cl -4.344102 1.559851 1.392125
Cl -4.344102 7.463804 -4.511828
Cl -1.392125 7.463804 -1.559851
Cl 1.559851 -7.296078 -1.559851
Cl 4.511828 -7.296078 -4.511828
Cl 1.559851 -1.392125 -7.463804
Cl 4.511828 -4.344102 -7.463804
Cl 1.559851 1.559851 7.296078
Cl 4.511828 4.511828 7.296078
Cl 1.559851 7.463804 1.392125
Cl 4.511828 7.463804 4.344102
Cl 7.463804 -4.344102 -4.511828
Cl 7.463804 -1.392125 -1.559851
Cl 7.463804 1.559851 1.392125
Cl 7.463804 4.511828 4.344102
Cl -7.296078 -7.296078 7.296078
