2954
GaP-P-Ga1388P1299Cl267-clean
Ga -20.436212 -20.437134 14.985509
Ga -20.436212 -14.985509 9.533884
Ga -20.436212 -17.711322 12.259697
Ga -23.162024 -14.985509 12.259697
Ga -23.162024 -17.711322 14.985509
Ga -20.436212 -14.985509 14.985509
Ga -20.436212 -17.711322 17.711322
Ga -23.162024 -14.985509 17.711322
Ga -20.436212 -14.985509 20.437134
Ga -20.436212 -9.533884 4.082259
Ga -20.436212 -12.259697 6.808072
Ga -23.162024 -9.533884 6.808072
Ga -23.162024 -12.259697 9.533884
Ga -20.436212 -9.533884 9.533884
Ga -20.436212 -12.259697 12.259697
Ga -23.162024 -9.533884 12.259697
Ga -23.162024 -12.259697 14.985509
Ga -20.436212 -9.533884 14.985509
Ga -20.436212 -12.259697 17.711322
Ga -20.436212 -4.082259 -1.369366
Ga -20.436212 -6.808072 1.356447
Ga -23.162024 -4.082259 1.356447
Ga -23.162024 -6.808072 4.082259
Ga -20.436212 -4.082259 4.082259
Ga -20.436212 -6.808072 6.808072
Ga -23.162024 -4.082259 6.808072
Ga -23.162024 -6.808072 9.533884
Ga -20.436212 -4.082259 9.533884
Ga -20.436212 -6.808072 12.259697
Ga -20.436212 1.369366 -6.820991
Ga -20.436212 -1.356447 -4.095178
Ga -23.162024 1.369366 -4.095178
Ga -23.162024 -1.356447 -1.369366
Ga -20.436212 1.369366 -1.369366
Ga -20.436212 -1.356447 1.356447
Ga -23.162024 1.369366 1.356447
Ga -23.162024 -1.356447 4.082259
Ga -20.436212 1.369366 4.082259
Ga -20.436212 -1.356447 6.808072
Ga -20.436212 6.820991 -12.272615
Ga -20.436212 4.095178 -9.546803
Ga -23.162024 6.820991 -9.546803
Ga -23.162024 4.095178 -6.820991
Ga -20.436212 6.820991 -6.820991
Ga -20.436212 4.095178 -4.095178
Ga -23.162024 6.820991 -4.095178
Ga -23.162024 4.095178 -1.369366
Ga -20.436212 6.820991 -1.369366
Ga -20.436212 4.095178 1.356447
Ga -20.436212 12.272615 -17.724240
Ga -20.436212 9.546803 -14.998428
Ga -23.162024 12.272615 -14.998428
Ga -23.162024 9.546803 -12.272615
Ga -20.436212 12.272615 -12.272615
Ga -20.436212 9.546803 -9.546803
Ga -23.162024 12.272615 -9.546803
Ga -23.162024 9.546803 -6.820991
Ga -20.436212 12.272615 -6.820991
Ga -20.436212 9.546803 -4.095178
Ga -20.436212 14.998428 -20.450053
Ga -23.162024 14.998428 -17.724240
Ga -20.436212 17.724240 -17.724240
Ga -20.436212 14.998428 -14.998428
Ga -23.162024 17.724240 -14.998428
Ga -23.162024 14.998428 -12.272615
Ga -20.436212 17.724240 -12.272615
Ga -20.436212 14.998428 -9.546803
Ga -20.436212 20.450053 -14.998428
Ga -14.984587 -20.437134 9.533884
Ga -14.984587 -23.162947 12.259697
Ga -17.710399 -20.437134 12.259697
Ga -17.710399 -23.162947 14.985509
Ga -14.984587 -20.437134 14.985509
Ga -14.984587 -23.162947 17.711322
Ga -17.710399 -20.437134 17.711322
Ga -14.984587 -20.437134 20.437134
Ga -14.984587 -14.985509 4.082259
Ga -14.984587 -17.711322 6.808072
Ga -17.710399 -14.985509 6.808072
Ga -17.710399 -17.711322 9.533884
Ga -14.984587 -14.985509 9.533884
Ga -14.984587 -17.711322 12.259697
Ga -17.710399 -14.985509 12.259697
Ga -17.710399 -17.711322 14.985509
Ga -14.984587 -14.985509 14.985509
Ga -14.984587 -17.711322 17.711322
Ga -17.710399 -14.985509 17.711322
Ga -17.710399 -17.711322 20.437134
Ga -14.984587 -14.985509 20.437134
Ga -14.984587 -17.711322 23.162947
Ga -17.710399 -14.985509 23.162947
Ga -14.984587 -9.533884 -1.369366
Ga -14.984587 -12.259697 1.356447
Ga -17.710399 -9.533884 1.356447
Ga -17.710399 -12.259697 4.082259
Ga -14.984587 -9.533884 4.082259
Ga -14.984587 -12.259697 6.808072
Ga -17.710399 -9.533884 6.808072
Ga -17.710399 -12.259697 9.533884
Ga -14.984587 -9.533884 9.533884
Ga -14.984587 -12.259697 12.259697
Ga -17.710399 -9.533884 12.259697
Ga -17.710399 -12.259697 14.985509
Ga -14.984587 -9.533884 14.985509
Ga -14.984587 -12.259697 17.711322
Ga -17.710399 -9.533884 17.711322
Ga -17.710399 -12.259697 20.437134
Ga -14.984587 -9.533884 20.437134
Ga -14.984587 -12.259697 23.162947
Ga -14.984587 -4.082259 -6.820991
Ga -14.984587 -6.808072 -4.095178
Ga -17.710399 -4.082259 -4.095178
Ga -17.710399 -6.808072 -1.369366
Ga -14.984587 -4.082259 -1.369366
Ga -14.984587 -6.808072 1.356447
Ga -17.710399 -4.082259 1.356447
Ga -17.710399 -6.808072 4.082259
Ga -14.984587 -4.082259 4.082259
Ga -14.984587 -6.808072 6.808072
Ga -17.710399 -4.082259 6.808072
Ga -17.710399 -6.808072 9.533884
Ga -14.984587 -4.082259 9.533884
Ga -14.984587 -6.808072 12.259697
Ga -17.710399 -4.082259 12.259697
Ga -17.710399 -6.808072 14.985509
Ga -14.984587 -4.082259 14.985509
Ga -14.984587 -6.808072 17.711322
Ga -14.984587 1.369366 -12.272615
Ga -14.984587 -1.356447 -9.546803
Ga -17.710399 1.369366 -9.546803
Ga -17.710399 -1.356447 -6.820991
Ga -14.984587 1.369366 -6.820991
Ga -14.984587 -1.356447 -4.095178
Ga -17.710399 1.369366 -4.095178
Ga -17.710399 -1.356447 -1.369366
Ga -14.984587 1.369366 -1.369366
Ga -14.984587 -1.356447 1.356447
Ga -17.710399 1.369366 1.356447
Ga -17.710399 -1.356447 4.082259
Ga -14.984587 1.369366 4.082259
Ga -14.984587 -1.356447 6.808072
Ga -17.710399 1.369366 6.808072
Ga -17.710399 -1.356447 9.533884
Ga -14.984587 1.369366 9.533884
Ga -14.984587 -1.356447 12.259697
Ga -14.984587 6.820991 -17.724240
Ga -14.984587 4.095178 -14.998428
Ga -17.710399 6.820991 -14.998428
Ga -17.710399 4.095178 -12.272615
Ga -14.984587 6.820991 -12.272615
Ga -14.984587 4.095178 -9.546803
Ga -17.710399 6.820991 -9.546803
Ga -17.710399 4.095178 -6.820991
Ga -14.984587 6.820991 -6.820991
Ga -14.984587 4.095178 -4.095178
Ga -17.710399 6.820991 -4.095178
Ga -17.710399 4.095178 -1.369366
Ga -14.984587 6.820991 -1.369366
Ga -14.984587 4.095178 1.356447
Ga -17.710399 6.820991 1.356447
Ga -17.710399 4.095178 4.082259
Ga -14.984587 6.820991 4.082259
Ga -14.984587 4.095178 6.808072
Ga -14.984587 12.272615 -23.175865
Ga -14.984587 9.546803 -20.450053
Ga -17.710399 12.272615 -20.450053
Ga -17.710399 9.546803 -17.724240
Ga -14.984587 12.272615 -17.724240
Ga -14.984587 9.546803 -14.998428
Ga -17.710399 12.272615 -14.998428
Ga -17.710399 9.546803 -12.272615
Ga -14.984587 12.272615 -12.272615
Ga -14.984587 9.546803 -9.546803
Ga -17.710399 12.272615 -9.546803
Ga -17.710399 9.546803 -6.820991
Ga -14.984587 12.272615 -6.820991
Ga -14.984587 9.546803 -4.095178
Ga -17.710399 12.272615 -4.095178
Ga -17.710399 9.546803 -1.369366
Ga -14.984587 12.272615 -1.369366
Ga -14.984587 9.546803 1.356447
Ga -17.710399 14.998428 -23.175865
Ga -14.984587 17.724240 -23.175865
Ga -14.984587 14.998428 -20.450053
Ga -17.710399 17.724240 -20.450053
Ga -17.710399 14.998428 -17.724240
Ga -14.984587 17.724240 -17.724240
Ga -14.984587 14.998428 -14.998428
Ga -17.710399 17.724240 -14.998428
Ga -17.710399 14.998428 -12.272615
Ga -14.984587 17.724240 -12.272615
Ga -14.984587 14.998428 -9.546803
Ga -17.710399 17.724240 -9.546803
Ga -17.710399 14.998428 -6.820991
Ga -14.984587 17.724240 -6.820991
Ga -14.984587 14.998428 -4.095178
Ga -14.984587 20.450053 -20.450053
Ga -17.710399 20.450053 -17.724240
Ga -14.984587 23.175865 -17.724240
Ga -14.984587 20.450053 -14.998428
Ga -17.710399 23.175865 -14.998428
Ga -17.710399 20.450053 -12.272615
Ga -14.984587 23.175865 -12.272615
Ga -14.984587 20.450053 -9.546803
Ga -9.532962 -20.437134 4.082259
Ga -9.532962 -23.162947 6.808072
Ga -12.258774 -20.437134 6.808072
Ga -12.258774 -23.162947 9.533884
Ga -9.532962 -20.437134 9.533884
Ga -9.532962 -23.162947 12.259697
Ga -12.258774 -20.437134 12.259697
Ga -12.258774 -23.162947 14.985509
Ga -9.532962 -20.437134 14.985509
Ga -12.258774 -20.437134 17.711322
Ga -9.532962 -14.985509 -1.369366
Ga -9.532962 -17.711322 1.356447
Ga -12.258774 -14.985509 1.356447
Ga -12.258774 -17.711322 4.082259
Ga -9.532962 -14.985509 4.082259
Ga -9.532962 -17.711322 6.808072
Ga -12.258774 -14.985509 6.808072
Ga -12.258774 -17.711322 9.533884
Ga -9.532962 -14.985509 9.533884
Ga -9.532962 -17.711322 12.259697
Ga -12.258774 -14.985509 12.259697
Ga -12.258774 -17.711322 14.985509
Ga -9.532962 -14.985509 14.985509
Ga -9.532962 -17.711322 17.711322
Ga -12.258774 -14.985509 17.711322
Ga -12.258774 -17.711322 20.437134
Ga -9.532962 -14.985509 20.437134
Ga -12.258774 -14.985509 23.162947
Ga -9.532962 -9.533884 -6.820991
Ga -9.532962 -12.259697 -4.095178
Ga -12.258774 -9.533884 -4.095178
Ga -12.258774 -12.259697 -1.369366
Ga -9.532962 -9.533884 -1.369366
Ga -9.532962 -12.259697 1.356447
Ga -12.258774 -9.533884 1.356447
Ga -12.258774 -12.259697 4.082259
Ga -9.532962 -9.533884 4.082259
Ga -9.532962 -12.259697 6.808072
Ga -12.258774 -9.533884 6.808072
Ga -12.258774 -12.259697 9.533884
Ga -9.532962 -9.533884 9.533884
Ga -9.532962 -12.259697 12.259697
Ga -12.258774 -9.533884 12.259697
Ga -12.258774 -12.259697 14.985509
Ga -9.532962 -9.533884 14.985509
Ga -9.532962 -12.259697 17.711322
Ga -12.258774 -9.533884 17.711322
Ga -12.258774 -12.259697 20.437134
Ga -9.532962 -9.533884 20.437134
Ga -9.532962 -12.259697 23.162947
Ga -12.258774 -9.533884 23.162947
Ga -9.532962 -4.082259 -12.272615
Ga -9.532962 -6.808072 -9.546803
Ga -12.258774 -4.082259 -9.546803
Ga -12.258774 -6.808072 -6.820991
Ga -9.532962 -4.082259 -6.820991
Ga -9.532962 -6.808072 -4.095178
Ga -12.258774 -4.082259 -4.095178
Ga -12.258774 -6.808072 -1.369366
Ga -9.532962 -4.082259 -1.369366
Ga -9.532962 -6.808072 1.356447
Ga -12.258774 -4.082259 1.356447
Ga -12.258774 -6.808072 4.082259
Ga -9.532962 -4.082259 4.082259
Ga -9.532962 -6.808072 6.808072
Ga -12.258774 -4.082259 6.808072
Ga -12.258774 -6.808072 9.533884
Ga -9.532962 -4.082259 9.533884
Ga -9.532962 -6.808072 12.259697
Ga -12.258774 -4.082259 12.259697
Ga -12.258774 -6.808072 14.985509
Ga -9.532962 -4.082259 14.985509
Ga -9.532962 -6.808072 17.711322
Ga -12.258774 -4.082259 17.711322
Ga -12.258774 -6.808072 20.437134
Ga -9.532962 -4.082259 20.437134
Ga -9.532962 -6.808072 23.162947
Ga -9.532962 1.369366 -17.724240
Ga -9.532962 -1.356447 -14.998428
Ga -12.258774 1.369366 -14.998428
Ga -12.258774 -1.356447 -12.272615
Ga -9.532962 1.369366 -12.272615
Ga -9.532962 -1.356447 -9.546803
Ga -12.258774 1.369366 -9.546803
Ga -12.258774 -1.356447 -6.820991
Ga -9.532962 1.369366 -6.820991
Ga -9.532962 -1.356447 -4.095178
Ga -12.258774 1.369366 -4.095178
Ga -12.258774 -1.356447 -1.369366
Ga -9.532962 1.369366 -1.369366
Ga -9.532962 -1.356447 1.356447
Ga -12.258774 1.369366 1.356447
Ga -12.258774 -1.356447 4.082259
Ga -9.532962 1.369366 4.082259
Ga -9.532962 -1.356447 6.808072
Ga -12.258774 1.369366 6.808072
Ga -12.258774 -1.356447 9.533884
Ga -9.532962 1.369366 9.533884
Ga -9.532962 -1.356447 12.259697
Ga -12.258774 1.369366 12.259697
Ga -12.258774 -1.356447 14.985509
Ga -9.532962 1.369366 14.985509
Ga -9.532962 -1.356447 17.711322
Ga -9.532962 6.820991 -23.175865
Ga -9.532962 4.095178 -20.450053
Ga -12.258774 6.820991 -20.450053
Ga -12.258774 4.095178 -17.724240
Ga -9.532962 6.820991 -17.724240
Ga -9.532962 4.095178 -14.998428
Ga -12.258774 6.820991 -14.998428
Ga -12.258774 4.095178 -12.272615
Ga -9.532962 6.820991 -12.272615
Ga -9.532962 4.095178 -9.546803
Ga -12.258774 6.820991 -9.546803
Ga -12.258774 4.095178 -6.820991
Ga -9.532962 6.820991 -6.820991
Ga -9.532962 4.095178 -4.095178
Ga -12.258774 6.820991 -4.095178
Ga -12.258774 4.095178 -1.369366
Ga -9.532962 6.820991 -1.369366
Ga -9.532962 4.095178 1.356447
Ga -12.258774 6.820991 1.356447
Ga -12.258774 4.095178 4.082259
Ga -9.532962 6.820991 4.082259
Ga -9.532962 4.095178 6.808072
Ga -12.258774 6.820991 6.808072
Ga -12.258774 4.095178 9.533884
Ga -9.532962 6.820991 9.533884
Ga -9.532962 4.095178 12.259697
Ga -12.258774 9.546803 -23.175865
Ga -9.532962 12.272615 -23.175865
Ga -9.532962 9.546803 -20.450053
Ga -12.258774 12.272615 -20.450053
Ga -12.258774 9.546803 -17.724240
Ga -9.532962 12.272615 -17.724240
Ga -9.532962 9.546803 -14.998428
Ga -12.258774 12.272615 -14.998428
Ga -12.258774 9.546803 -12.272615
Ga -9.532962 12.272615 -12.272615
Ga -9.532962 9.546803 -9.546803
Ga -12.258774 12.272615 -9.546803
Ga -12.258774 9.546803 -6.820991
Ga -9.532962 12.272615 -6.820991
Ga -9.532962 9.546803 -4.095178
Ga -12.258774 12.272615 -4.095178
Ga -12.258774 9.546803 -1.369366
Ga -9.532962 12.272615 -1.369366
Ga -9.532962 9.546803 1.356447
Ga -12.258774 12.272615 1.356447
Ga -12.258774 9.546803 4.082259
Ga -9.532962 12.272615 4.082259
Ga -9.532962 9.546803 6.808072
Ga -12.258774 14.998428 -23.175865
Ga -9.532962 14.998428 -20.450053
Ga -12.258774 17.724240 -20.450053
Ga -12.258774 14.998428 -17.724240
Ga -9.532962 17.724240 -17.724240
Ga -9.532962 14.998428 -14.998428
Ga -12.258774 17.724240 -14.998428
Ga -12.258774 14.998428 -12.272615
Ga -9.532962 17.724240 -12.272615
Ga -9.532962 14.998428 -9.546803
Ga -12.258774 17.724240 -9.546803
Ga -12.258774 14.998428 -6.820991
Ga -9.532962 17.724240 -6.820991
Ga -9.532962 14.998428 -4.095178
Ga -12.258774 17.724240 -4.095178
Ga -12.258774 14.998428 -1.369366
Ga -9.532962 17.724240 -1.369366
Ga -9.532962 14.998428 1.356447
Ga -12.258774 20.450053 -17.724240
Ga -9.532962 20.450053 -14.998428
Ga -12.258774 23.175865 -14.998428
Ga -12.258774 20.450053 -12.272615
Ga -9.532962 23.175865 -12.272615
Ga -9.532962 20.450053 -9.546803
Ga -12.258774 23.175865 -9.546803
Ga -12.258774 20.450053 -6.820991
Ga -9.532962 23.175865 -6.820991
Ga -9.532962 20.450053 -4.095178
Ga -4.081337 -20.437134 -1.369366
Ga -4.081337 -23.162947 1.356447
Ga -6.807149 -20.437134 1.356447
Ga -6.807149 -23.162947 4.082259
Ga -4.081337 -20.437134 4.082259
Ga -4.081337 -23.162947 6.808072
Ga -6.807149 -20.437134 6.808072
Ga -6.807149 -23.162947 9.533884
Ga -4.081337 -20.437134 9.533884
Ga -6.807149 -20.437134 12.259697
Ga -4.081337 -14.985509 -6.820991
Ga -4.081337 -17.711322 -4.095178
Ga -6.807149 -14.985509 -4.095178
Ga -6.807149 -17.711322 -1.369366
Ga -4.081337 -14.985509 -1.369366
Ga -4.081337 -17.711322 1.356447
Ga -6.807149 -14.985509 1.356447
Ga -6.807149 -17.711322 4.082259
Ga -4.081337 -14.985509 4.082259
Ga -4.081337 -17.711322 6.808072
Ga -6.807149 -14.985509 6.808072
Ga -6.807149 -17.711322 9.533884
Ga -4.081337 -14.985509 9.533884
Ga -4.081337 -17.711322 12.259697
Ga -6.807149 -14.985509 12.259697
Ga -6.807149 -17.711322 14.985509
Ga -4.081337 -14.985509 14.985509
Ga -6.807149 -14.985509 17.711322
Ga -4.081337 -9.533884 -12.272615
Ga -4.081337 -12.259697 -9.546803
Ga -6.807149 -9.533884 -9.546803
Ga -6.807149 -12.259697 -6.820991
Ga -4.081337 -9.533884 -6.820991
Ga -4.081337 -12.259697 -4.095178
Ga -6.807149 -9.533884 -4.095178
Ga -6.807149 -12.259697 -1.369366
Ga -4.081337 -9.533884 -1.369366
Ga -4.081337 -12.259697 1.356447
Ga -6.807149 -9.533884 1.356447
Ga -6.807149 -12.259697 4.082259
Ga -4.081337 -9.533884 4.082259
Ga -4.081337 -12.259697 6.808072
Ga -6.807149 -9.533884 6.808072
Ga -6.807149 -12.259697 9.533884
Ga -4.081337 -9.533884 9.533884
Ga -4.081337 -12.259697 12.259697
Ga -6.807149 -9.533884 12.259697
Ga -6.807149 -12.259697 14.985509
Ga -4.081337 -9.533884 14.985509
Ga -4.081337 -12.259697 17.711322
Ga -6.807149 -9.533884 17.711322
Ga -6.807149 -12.259697 20.437134
Ga -4.081337 -9.533884 20.437134
Ga -6.807149 -9.533884 23.162947
Ga -4.081337 -4.082259 -17.724240
Ga -4.081337 -6.808072 -14.998428
Ga -6.807149 -4.082259 -14.998428
Ga -6.807149 -6.808072 -12.272615
Ga -4.081337 -4.082259 -12.272615
Ga -4.081337 -6.808072 -9.546803
Ga -6.807149 -4.082259 -9.546803
Ga -6.807149 -6.808072 -6.820991
Ga -4.081337 -4.082259 -6.820991
Ga -4.081337 -6.808072 -4.095178
Ga -6.807149 -4.082259 -4.095178
Ga -6.807149 -6.808072 -1.369366
Ga -4.081337 -4.082259 -1.369366
Ga -4.081337 -6.808072 1.356447
Ga -6.807149 -4.082259 1.356447
Ga -6.807149 -6.808072 4.082259
Ga -4.081337 -4.082259 4.082259
Ga -4.081337 -6.808072 6.808072
Ga -6.807149 -4.082259 6.808072
Ga -6.807149 -6.808072 9.533884
Ga -4.081337 -4.082259 9.533884
Ga -4.081337 -6.808072 12.259697
Ga -6.807149 -4.082259 12.259697
Ga -6.807149 -6.808072 14.985509
Ga -4.081337 -4.082259 14.985509
Ga -4.081337 -6.808072 17.711322
Ga -6.807149 -4.082259 17.711322
Ga -6.807149 -6.808072 20.437134
Ga -4.081337 -4.082259 20.437134
Ga -4.081337 -6.808072 23.162947
Ga -6.807149 -4.082259 23.162947
Ga -4.081337 1.369366 -23.175865
Ga -4.081337 -1.356447 -20.450053
Ga -6.807149 1.369366 -20.450053
Ga -6.807149 -1.356447 -17.724240
Ga -4.081337 1.369366 -17.724240
Ga -4.081337 -1.356447 -14.998428
Ga -6.807149 1.369366 -14.998428
Ga -6.807149 -1.356447 -12.272615
Ga -4.081337 1.369366 -12.272615
Ga -4.081337 -1.356447 -9.546803
Ga -6.807149 1.369366 -9.546803
Ga -6.807149 -1.356447 -6.820991
Ga -4.081337 1.369366 -6.820991
Ga -4.081337 -1.356447 -4.095178
Ga -6.807149 1.369366 -4.095178
Ga -6.807149 -1.356447 -1.369366
Ga -4.081337 1.369366 -1.369366
Ga -4.081337 -1.356447 1.356447
Ga -6.807149 1.369366 1.356447
Ga -6.807149 -1.356447 4.082259
Ga -4.081337 1.369366 4.082259
Ga -4.081337 -1.356447 6.808072
Ga -6.807149 1.369366 6.808072
Ga -6.807149 -1.356447 9.533884
Ga -4.081337 1.369366 9.533884
Ga -4.081337 -1.356447 12.259697
Ga -6.807149 1.369366 12.259697
Ga -6.807149 -1.356447 14.985509
Ga -4.081337 1.369366 14.985509
Ga -4.081337 -1.356447 17.711322
Ga -6.807149 1.369366 17.711322
Ga -6.807149 -1.356447 20.437134
Ga -4.081337 1.369366 20.437134
Ga -4.081337 -1.356447 23.162947
Ga -6.807149 4.095178 -23.175865
Ga -4.081337 6.820991 -23.175865
Ga -4.081337 4.095178 -20.450053
Ga -6.807149 6.820991 -20.450053
Ga -6.807149 4.095178 -17.724240
Ga -4.081337 6.820991 -17.724240
Ga -4.081337 4.095178 -14.998428
Ga -6.807149 6.820991 -14.998428
Ga -6.807149 4.095178 -12.272615
Ga -4.081337 6.820991 -12.272615
Ga -4.081337 4.095178 -9.546803
Ga -6.807149 6.820991 -9.546803
Ga -6.807149 4.095178 -6.820991
Ga -4.081337 6.820991 -6.820991
Ga -4.081337 4.095178 -4.095178
Ga -6.807149 6.820991 -4.095178
Ga -6.807149 4.095178 -1.369366
Ga -4.081337 6.820991 -1.369366
Ga -4.081337 4.095178 1.356447
Ga -6.807149 6.820991 1.356447
Ga -6.807149 4.095178 4.082259
Ga -4.081337 6.820991 4.082259
Ga -4.081337 4.095178 6.808072
Ga -6.807149 6.820991 6.808072
Ga -6.807149 4.095178 9.533884
Ga -4.081337 6.820991 9.533884
Ga -4.081337 4.095178 12.259697
Ga -6.807149 6.820991 12.259697
Ga -6.807149 4.095178 14.985509
Ga -4.081337 6.820991 14.985509
Ga -4.081337 4.095178 17.711322
Ga -6.807149 9.546803 -23.175865
Ga -4.081337 9.546803 -20.450053
Ga -6.807149 12.272615 -20.450053
Ga -6.807149 9.546803 -17.724240
Ga -4.081337 12.272615 -17.724240
Ga -4.081337 9.546803 -14.998428
Ga -6.807149 12.272615 -14.998428
Ga -6.807149 9.546803 -12.272615
Ga -4.081337 12.272615 -12.272615
Ga -4.081337 9.546803 -9.546803
Ga -6.807149 12.272615 -9.546803
Ga -6.807149 9.546803 -6.820991
Ga -4.081337 12.272615 -6.820991
Ga -4.081337 9.546803 -4.095178
Ga -6.807149 12.272615 -4.095178
Ga -6.807149 9.546803 -1.369366
Ga -4.081337 12.272615 -1.369366
Ga -4.081337 9.546803 1.356447
Ga -6.807149 12.272615 1.356447
Ga -6.807149 9.546803 4.082259
Ga -4.081337 12.272615 4.082259
Ga -4.081337 9.546803 6.808072
Ga -6.807149 12.272615 6.808072
Ga -6.807149 9.546803 9.533884
Ga -4.081337 12.272615 9.533884
Ga -4.081337 9.546803 12.259697
Ga -6.807149 14.998428 -17.724240
Ga -4.081337 14.998428 -14.998428
Ga -6.807149 17.724240 -14.998428
Ga -6.807149 14.998428 -12.272615
Ga -4.081337 17.724240 -12.272615
Ga -4.081337 14.998428 -9.546803
Ga -6.807149 17.724240 -9.546803
Ga -6.807149 14.998428 -6.820991
Ga -4.081337 17.724240 -6.820991
Ga -4.081337 14.998428 -4.095178
Ga -6.807149 17.724240 -4.095178
Ga -6.807149 14.998428 -1.369366
Ga -4.081337 17.724240 -1.369366
Ga -4.081337 14.998428 1.356447
Ga -6.807149 17.724240 1.356447
Ga -6.807149 14.998428 4.082259
Ga -4.081337 17.724240 4.082259
Ga -4.081337 14.998428 6.808072
Ga -6.807149 20.450053 -12.272615
Ga -4.081337 20.450053 -9.546803
Ga -6.807149 23.175865 -9.546803
Ga -6.807149 20.450053 -6.820991
Ga -4.081337 23.175865 -6.820991
Ga -4.081337 20.450053 -4.095178
Ga -6.807149 23.175865 -4.095178
Ga -6.807149 20.450053 -1.369366
Ga -4.081337 23.175865 -1.369366
Ga -4.081337 20.450053 1.356447
Ga 1.370288 -20.437134 -6.820991
Ga 1.370288 -23.162947 -4.095178
Ga -1.355524 -20.437134 -4.095178
Ga -1.355524 -23.162947 -1.369366
Ga 1.370288 -20.437134 -1.369366
Ga 1.370288 -23.162947 1.356447
Ga -1.355524 -20.437134 1.356447
Ga -1.355524 -23.162947 4.082259
Ga 1.370288 -20.437134 4.082259
Ga -1.355524 -20.437134 6.808072
Ga 1.370288 -14.985509 -12.272615
Ga 1.370288 -17.711322 -9.546803
Ga -1.355524 -14.985509 -9.546803
Ga -1.355524 -17.711322 -6.820991
Ga 1.370288 -14.985509 -6.820991
Ga 1.370288 -17.711322 -4.095178
Ga -1.355524 -14.985509 -4.095178
Ga -1.355524 -17.711322 -1.369366
Ga 1.370288 -14.985509 -1.369366
Ga 1.370288 -17.711322 1.356447
Ga -1.355524 -14.985509 1.356447
Ga -1.355524 -17.711322 4.082259
Ga 1.370288 -14.985509 4.082259
Ga 1.370288 -17.711322 6.808072
Ga -1.355524 -14.985509 6.808072
Ga -1.355524 -17.711322 9.533884
Ga 1.370288 -14.985509 9.533884
Ga -1.355524 -14.985509 12.259697
Ga 1.370288 -9.533884 -17.724240
Ga 1.370288 -12.259697 -14.998428
Ga -1.355524 -9.533884 -14.998428
Ga -1.355524 -12.259697 -12.272615
Ga 1.370288 -9.533884 -12.272615
Ga 1.370288 -12.259697 -9.546803
Ga -1.355524 -9.533884 -9.546803
Ga -1.355524 -12.259697 -6.820991
Ga 1.370288 -9.533884 -6.820991
Ga 1.370288 -12.259697 -4.095178
Ga -1.355524 -9.533884 -4.095178
Ga -1.355524 -12.259697 -1.369366
Ga 1.370288 -9.533884 -1.369366
Ga 1.370288 -12.259697 1.356447
Ga -1.355524 -9.533884 1.356447
Ga -1.355524 -12.259697 4.082259
Ga 1.370288 -9.533884 4.082259
Ga 1.370288 -12.259697 6.808072
Ga -1.355524 -9.533884 6.808072
Ga -1.355524 -12.259697 9.533884
Ga 1.370288 -9.533884 9.533884
Ga 1.370288 -12.259697 12.259697
Ga -1.355524 -9.533884 12.259697
Ga -1.355524 -12.259697 14.985509
Ga 1.370288 -9.533884 14.985509
Ga -1.355524 -9.533884 17.711322
Ga 1.370288 -4.082259 -23.175865
Ga 1.370288 -6.808072 -20.450053
Ga -1.355524 -4.082259 -20.450053
Ga -1.355524 -6.808072 -17.724240
Ga 1.370288 -4.082259 -17.724240
Ga 1.370288 -6.808072 -14.998428
Ga -1.355524 -4.082259 -14.998428
Ga -1.355524 -6.808072 -12.272615
Ga 1.370288 -4.082259 -12.272615
Ga 1.370288 -6.808072 -9.546803
Ga -1.355524 -4.082259 -9.546803
Ga -1.355524 -6.808072 -6.820991
Ga 1.370288 -4.082259 -6.820991
Ga 1.370288 -6.808072 -4.095178
Ga -1.355524 -4.082259 -4.095178
Ga -1.355524 -6.808072 -1.369366
Ga 1.370288 -4.082259 -1.369366
Ga 1.370288 -6.808072 1.356447
Ga -1.355524 -4.082259 1.356447
Ga -1.355524 -6.808072 4.082259
Ga 1.370288 -4.082259 4.082259
Ga 1.370288 -6.808072 6.808072
Ga -1.355524 -4.082259 6.808072
Ga -1.355524 -6.808072 9.533884
Ga 1.370288 -4.082259 9.533884
Ga 1.370288 -6.808072 12.259697
Ga -1.355524 -4.082259 12.259697
Ga -1.355524 -6.808072 14.985509
Ga 1.370288 -4.082259 14.985509
Ga 1.370288 -6.808072 17.711322
Ga -1.355524 -4.082259 17.711322
Ga -1.355524 -6.808072 20.437134
Ga 1.370288 -4.082259 20.437134
Ga -1.355524 -4.082259 23.162947
Ga -1.355524 -1.356447 -23.175865
Ga 1.370288 1.369366 -23.175865
Ga 1.370288 -1.356447 -20.450053
Ga -1.355524 1.369366 -20.450053
Ga -1.355524 -1.356447 -17.724240
Ga 1.370288 1.369366 -17.724240
Ga 1.370288 -1.356447 -14.998428
Ga -1.355524 1.369366 -14.998428
Ga -1.355524 -1.356447 -12.272615
Ga 1.370288 1.369366 -12.272615
Ga 1.370288 -1.356447 -9.546803
Ga -1.355524 1.369366 -9.546803
Ga -1.355524 -1.356447 -6.820991
Ga 1.370288 1.369366 -6.820991
Ga 1.370288 -1.356447 -4.095178
Ga -1.355524 1.369366 -4.095178
Ga -1.355524 -1.356447 -1.369366
Ga 1.370288 1.369366 -1.369366
Ga 1.370288 -1.356447 1.356447
Ga -1.355524 1.369366 1.356447
Ga -1.355524 -1.356447 4.082259
Ga 1.370288 1.369366 4.082259
Ga 1.370288 -1.356447 6.808072
Ga -1.355524 1.369366 6.808072
Ga -1.355524 -1.356447 9.533884
Ga 1.370288 1.369366 9.533884
Ga 1.370288 -1.356447 12.259697
Ga -1.355524 1.369366 12.259697
Ga -1.355524 -1.356447 14.985509
Ga 1.370288 1.369366 14.985509
Ga 1.370288 -1.356447 17.711322
Ga -1.355524 1.369366 17.711322
Ga -1.355524 -1.356447 20.437134
Ga 1.370288 1.369366 20.437134
Ga 1.370288 -1.356447 23.162947
Ga -1.355524 1.369366 23.162947
Ga -1.355524 4.095178 -23.175865
Ga 1.370288 4.095178 -20.450053
Ga -1.355524 6.820991 -20.450053
Ga -1.355524 4.095178 -17.724240
Ga 1.370288 6.820991 -17.724240
Ga 1.370288 4.095178 -14.998428
Ga -1.355524 6.820991 -14.998428
Ga -1.355524 4.095178 -12.272615
Ga 1.370288 6.820991 -12.272615
Ga 1.370288 4.095178 -9.546803
Ga -1.355524 6.820991 -9.546803
Ga -1.355524 4.095178 -6.820991
Ga 1.370288 6.820991 -6.820991
Ga 1.370288 4.095178 -4.095178
Ga -1.355524 6.820991 -4.095178
Ga -1.355524 4.095178 -1.369366
Ga 1.370288 6.820991 -1.369366
Ga 1.370288 4.095178 1.356447
Ga -1.355524 6.820991 1.356447
Ga -1.355524 4.095178 4.082259
Ga 1.370288 6.820991 4.082259
Ga 1.370288 4.095178 6.808072
Ga -1.355524 6.820991 6.808072
Ga -1.355524 4.095178 9.533884
Ga 1.370288 6.820991 9.533884
Ga 1.370288 4.095178 12.259697
Ga -1.355524 6.820991 12.259697
Ga -1.355524 4.095178 14.985509
Ga 1.370288 6.820991 14.985509
Ga 1.370288 4.095178 17.711322
Ga -1.355524 6.820991 17.711322
Ga -1.355524 4.095178 20.437134
Ga 1.370288 6.820991 20.437134
Ga 1.370288 4.095178 23.162947
Ga -1.355524 9.546803 -17.724240
Ga 1.370288 9.546803 -14.998428
Ga -1.355524 12.272615 -14.998428
Ga -1.355524 9.546803 -12.272615
Ga 1.370288 12.272615 -12.272615
Ga 1.370288 9.546803 -9.546803
Ga -1.355524 12.272615 -9.546803
Ga -1.355524 9.546803 -6.820991
Ga 1.370288 12.272615 -6.820991
Ga 1.370288 9.546803 -4.095178
Ga -1.355524 12.272615 -4.095178
Ga -1.355524 9.546803 -1.369366
Ga 1.370288 12.272615 -1.369366
Ga 1.370288 9.546803 1.356447
Ga -1.355524 12.272615 1.356447
Ga -1.355524 9.546803 4.082259
Ga 1.370288 12.272615 4.082259
Ga 1.370288 9.546803 6.808072
Ga -1.355524 12.272615 6.808072
Ga -1.355524 9.546803 9.533884
Ga 1.370288 12.272615 9.533884
Ga 1.370288 9.546803 12.259697
Ga -1.355524 12.272615 12.259697
Ga -1.355524 9.546803 14.985509
Ga 1.370288 12.272615 14.985509
Ga 1.370288 9.546803 17.711322
Ga -1.355524 14.998428 -12.272615
Ga 1.370288 14.998428 -9.546803
Ga -1.355524 17.724240 -9.546803
Ga -1.355524 14.998428 -6.820991
Ga 1.370288 17.724240 -6.820991
Ga 1.370288 14.998428 -4.095178
Ga -1.355524 17.724240 -4.095178
Ga -1.355524 14.998428 -1.369366
Ga 1.370288 17.724240 -1.369366
Ga 1.370288 14.998428 1.356447
Ga -1.355524 17.724240 1.356447
Ga -1.355524 14.998428 4.082259
Ga 1.370288 17.724240 4.082259
Ga 1.370288 14.998428 6.808072
Ga -1.355524 17.724240 6.808072
Ga -1.355524 14.998428 9.533884
Ga 1.370288 17.724240 9.533884
Ga 1.370288 14.998428 12.259697
Ga -1.355524 20.450053 -6.820991
Ga 1.370288 20.450053 -4.095178
Ga -1.355524 23.175865 -4.095178
Ga -1.355524 20.450053 -1.369366
Ga 1.370288 23.175865 -1.369366
Ga 1.370288 20.450053 1.356447
Ga -1.355524 23.175865 1.356447
Ga -1.355524 20.450053 4.082259
Ga 1.370288 23.175865 4.082259
Ga 1.370288 20.450053 6.808072
Ga 6.821913 -20.437134 -12.272615
Ga 6.821913 -23.162947 -9.546803
Ga 4.096101 -20.437134 -9.546803
Ga 4.096101 -23.162947 -6.820991
Ga 6.821913 -20.437134 -6.820991
Ga 6.821913 -23.162947 -4.095178
Ga 4.096101 -20.437134 -4.095178
Ga 4.096101 -23.162947 -1.369366
Ga 6.821913 -20.437134 -1.369366
Ga 4.096101 -20.437134 1.356447
Ga 6.821913 -14.985509 -17.724240
Ga 6.821913 -17.711322 -14.998428
Ga 4.096101 -14.985509 -14.998428
Ga 4.096101 -17.711322 -12.272615
Ga 6.821913 -14.985509 -12.272615
Ga 6.821913 -17.711322 -9.546803
Ga 4.096101 -14.985509 -9.546803
Ga 4.096101 -17.711322 -6.820991
Ga 6.821913 -14.985509 -6.820991
Ga 6.821913 -17.711322 -4.095178
Ga 4.096101 -14.985509 -4.095178
Ga 4.096101 -17.711322 -1.369366
Ga 6.821913 -14.985509 -1.369366
Ga 6.821913 -17.711322 1.356447
Ga 4.096101 -14.985509 1.356447
Ga 4.096101 -17.711322 4.082259
Ga 6.821913 -14.985509 4.082259
Ga 4.096101 -14.985509 6.808072
Ga 6.821913 -9.533884 -23.175865
Ga 6.821913 -12.259697 -20.450053
Ga 4.096101 -9.533884 -20.450053
Ga 4.096101 -12.259697 -17.724240
Ga 6.821913 -9.533884 -17.724240
Ga 6.821913 -12.259697 -14.998428
Ga 4.096101 -9.533884 -14.998428
Ga 4.096101 -12.259697 -12.272615
Ga 6.821913 -9.533884 -12.272615
Ga 6.821913 -12.259697 -9.546803
Ga 4.096101 -9.533884 -9.546803
Ga 4.096101 -12.259697 -6.820991
Ga 6.821913 -9.533884 -6.820991
Ga 6.821913 -12.259697 -4.095178
Ga 4.096101 -9.533884 -4.095178
Ga 4.096101 -12.259697 -1.369366
Ga 6.821913 -9.533884 -1.369366
Ga 6.821913 -12.259697 1.356447
Ga 4.096101 -9.533884 1.356447
Ga 4.096101 -12.259697 4.082259
Ga 6.821913 -9.533884 4.082259
Ga 6.821913 -12.259697 6.808072
Ga 4.096101 -9.533884 6.808072
Ga 4.096101 -12.259697 9.533884
Ga 6.821913 -9.533884 9.533884
Ga 4.096101 -9.533884 12.259697
Ga 4.096101 -6.808072 -23.175865
Ga 6.821913 -4.082259 -23.175865
Ga 6.821913 -6.808072 -20.450053
Ga 4.096101 -4.082259 -20.450053
Ga 4.096101 -6.808072 -17.724240
Ga 6.821913 -4.082259 -17.724240
Ga 6.821913 -6.808072 -14.998428
Ga 4.096101 -4.082259 -14.998428
Ga 4.096101 -6.808072 -12.272615
Ga 6.821913 -4.082259 -12.272615
Ga 6.821913 -6.808072 -9.546803
Ga 4.096101 -4.082259 -9.546803
Ga 4.096101 -6.808072 -6.820991
Ga 6.821913 -4.082259 -6.820991
Ga 6.821913 -6.808072 -4.095178
Ga 4.096101 -4.082259 -4.095178
Ga 4.096101 -6.808072 -1.369366
Ga 6.821913 -4.082259 -1.369366
Ga 6.821913 -6.808072 1.356447
Ga 4.096101 -4.082259 1.356447
Ga 4.096101 -6.808072 4.082259
Ga 6.821913 -4.082259 4.082259
Ga 6.821913 -6.808072 6.808072
Ga 4.096101 -4.082259 6.808072
Ga 4.096101 -6.808072 9.533884
Ga 6.821913 -4.082259 9.533884
Ga 6.821913 -6.808072 12.259697
Ga 4.096101 -4.082259 12.259697
Ga 4.096101 -6.808072 14.985509
Ga 6.821913 -4.082259 14.985509
Ga 4.096101 -4.082259 17.711322
Ga 4.096101 -1.356447 -23.175865
Ga 6.821913 -1.356447 -20.450053
Ga 4.096101 1.369366 -20.450053
Ga 4.096101 -1.356447 -17.724240
Ga 6.821913 1.369366 -17.724240
Ga 6.821913 -1.356447 -14.998428
Ga 4.096101 1.369366 -14.998428
Ga 4.096101 -1.356447 -12.272615
Ga 6.821913 1.369366 -12.272615
Ga 6.821913 -1.356447 -9.546803
Ga 4.096101 1.369366 -9.546803
Ga 4.096101 -1.356447 -6.820991
Ga 6.821913 1.369366 -6.820991
Ga 6.821913 -1.356447 -4.095178
Ga 4.096101 1.369366 -4.095178
Ga 4.096101 -1.356447 -1.369366
Ga 6.821913 1.369366 -1.369366
Ga 6.821913 -1.356447 1.356447
Ga 4.096101 1.369366 1.356447
Ga 4.096101 -1.356447 4.082259
Ga 6.821913 1.369366 4.082259
Ga 6.821913 -1.356447 6.808072
Ga 4.096101 1.369366 6.808072
Ga 4.096101 -1.356447 9.533884
Ga 6.821913 1.369366 9.533884
Ga 6.821913 -1.356447 12.259697
Ga 4.096101 1.369366 12.259697
Ga 4.096101 -1.356447 14.985509
Ga 6.821913 1.369366 14.985509
Ga 6.821913 -1.356447 17.711322
Ga 4.096101 1.369366 17.711322
Ga 4.096101 -1.356447 20.437134
Ga 6.821913 1.369366 20.437134
Ga 4.096101 1.369366 23.162947
Ga 4.096101 4.095178 -17.724240
Ga 6.821913 4.095178 -14.998428
Ga 4.096101 6.820991 -14.998428
Ga 4.096101 4.095178 -12.272615
Ga 6.821913 6.820991 -12.272615
Ga 6.821913 4.095178 -9.546803
Ga 4.096101 6.820991 -9.546803
Ga 4.096101 4.095178 -6.820991
Ga 6.821913 6.820991 -6.820991
Ga 6.821913 4.095178 -4.095178
Ga 4.096101 6.820991 -4.095178
Ga 4.096101 4.095178 -1.369366
Ga 6.821913 6.820991 -1.369366
Ga 6.821913 4.095178 1.356447
Ga 4.096101 6.820991 1.356447
Ga 4.096101 4.095178 4.082259
Ga 6.821913 6.820991 4.082259
Ga 6.821913 4.095178 6.808072
Ga 4.096101 6.820991 6.808072
Ga 4.096101 4.095178 9.533884
Ga 6.821913 6.820991 9.533884
Ga 6.821913 4.095178 12.259697
Ga 4.096101 6.820991 12.259697
Ga 4.096101 4.095178 14.985509
Ga 6.821913 6.820991 14.985509
Ga 6.821913 4.095178 17.711322
Ga 4.096101 6.820991 17.711322
Ga 4.096101 4.095178 20.437134
Ga 6.821913 6.820991 20.437134
Ga 6.821913 4.095178 23.162947
Ga 4.096101 6.820991 23.162947
Ga 4.096101 9.546803 -12.272615
Ga 6.821913 9.546803 -9.546803
Ga 4.096101 12.272615 -9.546803
Ga 4.096101 9.546803 -6.820991
Ga 6.821913 12.272615 -6.820991
Ga 6.821913 9.546803 -4.095178
Ga 4.096101 12.272615 -4.095178
Ga 4.096101 9.546803 -1.369366
Ga 6.821913 12.272615 -1.369366
Ga 6.821913 9.546803 1.356447
Ga 4.096101 12.272615 1.356447
Ga 4.096101 9.546803 4.082259
Ga 6.821913 12.272615 4.082259
Ga 6.821913 9.546803 6.808072
Ga 4.096101 12.272615 6.808072
Ga 4.096101 9.546803 9.533884
Ga 6.821913 12.272615 9.533884
Ga 6.821913 9.546803 12.259697
Ga 4.096101 12.272615 12.259697
Ga 4.096101 9.546803 14.985509
Ga 6.821913 12.272615 14.985509
Ga 6.821913 9.546803 17.711322
Ga 4.096101 12.272615 17.711322
Ga 4.096101 9.546803 20.437134
Ga 6.821913 12.272615 20.437134
Ga 6.821913 9.546803 23.162947
Ga 4.096101 14.998428 -6.820991
Ga 6.821913 14.998428 -4.095178
Ga 4.096101 17.724240 -4.095178
Ga 4.096101 14.998428 -1.369366
Ga 6.821913 17.724240 -1.369366
Ga 6.821913 14.998428 1.356447
Ga 4.096101 17.724240 1.356447
Ga 4.096101 14.998428 4.082259
Ga 6.821913 17.724240 4.082259
Ga 6.821913 14.998428 6.808072
Ga 4.096101 17.724240 6.808072
Ga 4.096101 14.998428 9.533884
Ga 6.821913 17.724240 9.533884
Ga 6.821913 14.998428 12.259697
Ga 4.096101 17.724240 12.259697
Ga 4.096101 14.998428 14.985509
Ga 6.821913 17.724240 14.985509
Ga 6.821913 14.998428 17.711322
Ga 4.096101 20.450053 -1.369366
Ga 6.821913 20.450053 1.356447
Ga 4.096101 23.175865 1.356447
Ga 4.096101 20.450053 4.082259
Ga 6.821913 23.175865 4.082259
Ga 6.821913 20.450053 6.808072
Ga 4.096101 23.175865 6.808072
Ga 4.096101 20.450053 9.533884
Ga 6.821913 23.175865 9.533884
Ga 6.821913 20.450053 12.259697
Ga 12.273538 -20.437134 -17.724240
Ga 12.273538 -23.162947 -14.998428
Ga 9.547726 -20.437134 -14.998428
Ga 9.547726 -23.162947 -12.272615
Ga 12.273538 -20.437134 -12.272615
Ga 12.273538 -23.162947 -9.546803
Ga 9.547726 -20.437134 -9.546803
Ga 9.547726 -23.162947 -6.820991
Ga 12.273538 -20.437134 -6.820991
Ga 9.547726 -20.437134 -4.095178
Ga 12.273538 -14.985509 -23.175865
Ga 12.273538 -17.711322 -20.450053
Ga 9.547726 -14.985509 -20.450053
Ga 9.547726 -17.711322 -17.724240
Ga 12.273538 -14.985509 -17.724240
Ga 12.273538 -17.711322 -14.998428
Ga 9.547726 -14.985509 -14.998428
Ga 9.547726 -17.711322 -12.272615
Ga 12.273538 -14.985509 -12.272615
Ga 12.273538 -17.711322 -9.546803
Ga 9.547726 -14.985509 -9.546803
Ga 9.547726 -17.711322 -6.820991
Ga 12.273538 -14.985509 -6.820991
Ga 12.273538 -17.711322 -4.095178
Ga 9.547726 -14.985509 -4.095178
Ga 9.547726 -17.711322 -1.369366
Ga 12.273538 -14.985509 -1.369366
Ga 9.547726 -14.985509 1.356447
Ga 9.547726 -12.259697 -23.175865
Ga 12.273538 -9.533884 -23.175865
Ga 12.273538 -12.259697 -20.450053
Ga 9.547726 -9.533884 -20.450053
Ga 9.547726 -12.259697 -17.724240
Ga 12.273538 -9.533884 -17.724240
Ga 12.273538 -12.259697 -14.998428
Ga 9.547726 -9.533884 -14.998428
Ga 9.547726 -12.259697 -12.272615
Ga 12.273538 -9.533884 -12.272615
Ga 12.273538 -12.259697 -9.546803
Ga 9.547726 -9.533884 -9.546803
Ga 9.547726 -12.259697 -6.820991
Ga 12.273538 -9.533884 -6.820991
Ga 12.273538 -12.259697 -4.095178
Ga 9.547726 -9.533884 -4.095178
Ga 9.547726 -12.259697 -1.369366
Ga 12.273538 -9.533884 -1.369366
Ga 12.273538 -12.259697 1.356447
Ga 9.547726 -9.533884 1.356447
Ga 9.547726 -12.259697 4.082259
Ga 12.273538 -9.533884 4.082259
Ga 9.547726 -9.533884 6.808072
Ga 9.547726 -6.808072 -23.175865
Ga 12.273538 -6.808072 -20.450053
Ga 9.547726 -4.082259 -20.450053
Ga 9.547726 -6.808072 -17.724240
Ga 12.273538 -4.082259 -17.724240
Ga 12.273538 -6.808072 -14.998428
Ga 9.547726 -4.082259 -14.998428
Ga 9.547726 -6.808072 -12.272615
Ga 12.273538 -4.082259 -12.272615
Ga 12.273538 -6.808072 -9.546803
Ga 9.547726 -4.082259 -9.546803
Ga 9.547726 -6.808072 -6.820991
Ga 12.273538 -4.082259 -6.820991
Ga 12.273538 -6.808072 -4.095178
Ga 9.547726 -4.082259 -4.095178
Ga 9.547726 -6.808072 -1.369366
Ga 12.273538 -4.082259 -1.369366
Ga 12.273538 -6.808072 1.356447
Ga 9.547726 -4.082259 1.356447
Ga 9.547726 -6.808072 4.082259
Ga 12.273538 -4.082259 4.082259
Ga 12.273538 -6.808072 6.808072
Ga 9.547726 -4.082259 6.808072
Ga 9.547726 -6.808072 9.533884
Ga 12.273538 -4.082259 9.533884
Ga 9.547726 -4.082259 12.259697
Ga 9.547726 -1.356447 -17.724240
Ga 12.273538 -1.356447 -14.998428
Ga 9.547726 1.369366 -14.998428
Ga 9.547726 -1.356447 -12.272615
Ga 12.273538 1.369366 -12.272615
Ga 12.273538 -1.356447 -9.546803
Ga 9.547726 1.369366 -9.546803
Ga 9.547726 -1.356447 -6.820991
Ga 12.273538 1.369366 -6.820991
Ga 12.273538 -1.356447 -4.095178
Ga 9.547726 1.369366 -4.095178
Ga 9.547726 -1.356447 -1.369366
Ga 12.273538 1.369366 -1.369366
Ga 12.273538 -1.356447 1.356447
Ga 9.547726 1.369366 1.356447
Ga 9.547726 -1.356447 4.082259
Ga 12.273538 1.369366 4.082259
Ga 12.273538 -1.356447 6.808072
Ga 9.547726 1.369366 6.808072
Ga 9.547726 -1.356447 9.533884
Ga 12.273538 1.369366 9.533884
Ga 12.273538 -1.356447 12.259697
Ga 9.547726 1.369366 12.259697
Ga 9.547726 -1.356447 14.985509
Ga 12.273538 1.369366 14.985509
Ga 9.547726 1.369366 17.711322
Ga 9.547726 4.095178 -12.272615
Ga 12.273538 4.095178 -9.546803
Ga 9.547726 6.820991 -9.546803
Ga 9.547726 4.095178 -6.820991
Ga 12.273538 6.820991 -6.820991
Ga 12.273538 4.095178 -4.095178
Ga 9.547726 6.820991 -4.095178
Ga 9.547726 4.095178 -1.369366
Ga 12.273538 6.820991 -1.369366
Ga 12.273538 4.095178 1.356447
Ga 9.547726 6.820991 1.356447
Ga 9.547726 4.095178 4.082259
Ga 12.273538 6.820991 4.082259
Ga 12.273538 4.095178 6.808072
Ga 9.547726 6.820991 6.808072
Ga 9.547726 4.095178 9.533884
Ga 12.273538 6.820991 9.533884
Ga 12.273538 4.095178 12.259697
Ga 9.547726 6.820991 12.259697
Ga 9.547726 4.095178 14.985509
Ga 12.273538 6.820991 14.985509
Ga 12.273538 4.095178 17.711322
Ga 9.547726 6.820991 17.711322
Ga 9.547726 4.095178 20.437134
Ga 12.273538 6.820991 20.437134
Ga 9.547726 6.820991 23.162947
Ga 9.547726 9.546803 -6.820991
Ga 12.273538 9.546803 -4.095178
Ga 9.547726 12.272615 -4.095178
Ga 9.547726 9.546803 -1.369366
Ga 12.273538 12.272615 -1.369366
Ga 12.273538 9.546803 1.356447
Ga 9.547726 12.272615 1.356447
Ga 9.547726 9.546803 4.082259
Ga 12.273538 12.272615 4.082259
Ga 12.273538 9.546803 6.808072
Ga 9.547726 12.272615 6.808072
Ga 9.547726 9.546803 9.533884
Ga 12.273538 12.272615 9.533884
Ga 12.273538 9.546803 12.259697
Ga 9.547726 12.272615 12.259697
Ga 9.547726 9.546803 14.985509
Ga 12.273538 12.272615 14.985509
Ga 12.273538 9.546803 17.711322
Ga 9.547726 12.272615 17.711322
Ga 9.547726 9.546803 20.437134
Ga 12.273538 12.272615 20.437134
Ga 12.273538 9.546803 23.162947
Ga 9.547726 12.272615 23.162947
Ga 9.547726 14.998428 -1.369366
Ga 12.273538 14.998428 1.356447
Ga 9.547726 17.724240 1.356447
Ga 9.547726 14.998428 4.082259
Ga 12.273538 17.724240 4.082259
Ga 12.273538 14.998428 6.808072
Ga 9.547726 17.724240 6.808072
Ga 9.547726 14.998428 9.533884
Ga 12.273538 17.724240 9.533884
Ga 12.273538 14.998428 12.259697
Ga 9.547726 17.724240 12.259697
Ga 9.547726 14.998428 14.985509
Ga 12.273538 17.724240 14.985509
Ga 12.273538 14.998428 17.711322
Ga 9.547726 17.724240 17.711322
Ga 9.547726 14.998428 20.437134
Ga 12.273538 17.724240 20.437134
Ga 12.273538 14.998428 23.162947
Ga 9.547726 20.450053 4.082259
Ga 12.273538 20.450053 6.808072
Ga 9.547726 23.175865 6.808072
Ga 9.547726 20.450053 9.533884
Ga 12.273538 23.175865 9.533884
Ga 12.273538 20.450053 12.259697
Ga 9.547726 23.175865 12.259697
Ga 9.547726 20.450053 14.985509
Ga 12.273538 23.175865 14.985509
Ga 12.273538 20.450053 17.711322
Ga 14.999351 -20.437134 -20.450053
Ga 14.999351 -23.162947 -17.724240
Ga 17.725163 -20.437134 -17.724240
Ga 17.725163 -23.162947 -14.998428
Ga 14.999351 -20.437134 -14.998428
Ga 14.999351 -23.162947 -12.272615
Ga 17.725163 -20.437134 -12.272615
Ga 14.999351 -20.437134 -9.546803
Ga 14.999351 -17.711322 -23.175865
Ga 17.725163 -14.985509 -23.175865
Ga 17.725163 -17.711322 -20.450053
Ga 14.999351 -14.985509 -20.450053
Ga 14.999351 -17.711322 -17.724240
Ga 17.725163 -14.985509 -17.724240
Ga 17.725163 -17.711322 -14.998428
Ga 14.999351 -14.985509 -14.998428
Ga 14.999351 -17.711322 -12.272615
Ga 17.725163 -14.985509 -12.272615
Ga 17.725163 -17.711322 -9.546803
Ga 14.999351 -14.985509 -9.546803
Ga 14.999351 -17.711322 -6.820991
Ga 17.725163 -14.985509 -6.820991
Ga 14.999351 -14.985509 -4.095178
Ga 14.999351 -12.259697 -23.175865
Ga 17.725163 -12.259697 -20.450053
Ga 14.999351 -9.533884 -20.450053
Ga 14.999351 -12.259697 -17.724240
Ga 17.725163 -9.533884 -17.724240
Ga 17.725163 -12.259697 -14.998428
Ga 14.999351 -9.533884 -14.998428
Ga 14.999351 -12.259697 -12.272615
Ga 17.725163 -9.533884 -12.272615
Ga 17.725163 -12.259697 -9.546803
Ga 14.999351 -9.533884 -9.546803
Ga 14.999351 -12.259697 -6.820991
Ga 17.725163 -9.533884 -6.820991
Ga 17.725163 -12.259697 -4.095178
Ga 14.999351 -9.533884 -4.095178
Ga 14.999351 -12.259697 -1.369366
Ga 17.725163 -9.533884 -1.369366
Ga 14.999351 -9.533884 1.356447
Ga 14.999351 -6.808072 -17.724240
Ga 17.725163 -6.808072 -14.998428
Ga 14.999351 -4.082259 -14.998428
Ga 14.999351 -6.808072 -12.272615
Ga 17.725163 -4.082259 -12.272615
Ga 17.725163 -6.808072 -9.546803
Ga 14.999351 -4.082259 -9.546803
Ga 14.999351 -6.808072 -6.820991
Ga 17.725163 -4.082259 -6.820991
Ga 17.725163 -6.808072 -4.095178
Ga 14.999351 -4.082259 -4.095178
Ga 14.999351 -6.808072 -1.369366
Ga 17.725163 -4.082259 -1.369366
Ga 17.725163 -6.808072 1.356447
Ga 14.999351 -4.082259 1.356447
Ga 14.999351 -6.808072 4.082259
Ga 17.725163 -4.082259 4.082259
Ga 14.999351 -4.082259 6.808072
Ga 14.999351 -1.356447 -12.272615
Ga 17.725163 -1.356447 -9.546803
Ga 14.999351 1.369366 -9.546803
Ga 14.999351 -1.356447 -6.820991
Ga 17.725163 1.369366 -6.820991
Ga 17.725163 -1.356447 -4.095178
Ga 14.999351 1.369366 -4.095178
Ga 14.999351 -1.356447 -1.369366
Ga 17.725163 1.369366 -1.369366
Ga 17.725163 -1.356447 1.356447
Ga 14.999351 1.369366 1.356447
Ga 14.999351 -1.356447 4.082259
Ga 17.725163 1.369366 4.082259
Ga 17.725163 -1.356447 6.808072
Ga 14.999351 1.369366 6.808072
Ga 14.999351 -1.356447 9.533884
Ga 17.725163 1.369366 9.533884
Ga 14.999351 1.369366 12.259697
Ga 14.999351 4.095178 -6.820991
Ga 17.725163 4.095178 -4.095178
Ga 14.999351 6.820991 -4.095178
Ga 14.999351 4.095178 -1.369366
Ga 17.725163 6.820991 -1.369366
Ga 17.725163 4.095178 1.356447
Ga 14.999351 6.820991 1.356447
Ga 14.999351 4.095178 4.082259
Ga 17.725163 6.820991 4.082259
Ga 17.725163 4.095178 6.808072
Ga 14.999351 6.820991 6.808072
Ga 14.999351 4.095178 9.533884
Ga 17.725163 6.820991 9.533884
Ga 17.725163 4.095178 12.259697
Ga 14.999351 6.820991 12.259697
Ga 14.999351 4.095178 14.985509
Ga 17.725163 6.820991 14.985509
Ga 14.999351 6.820991 17.711322
Ga 14.999351 9.546803 -1.369366
Ga 17.725163 9.546803 1.356447
Ga 14.999351 12.272615 1.356447
Ga 14.999351 9.546803 4.082259
Ga 17.725163 12.272615 4.082259
Ga 17.725163 9.546803 6.808072
Ga 14.999351 12.272615 6.808072
Ga 14.999351 9.546803 9.533884
Ga 17.725163 12.272615 9.533884
Ga 17.725163 9.546803 12.259697
Ga 14.999351 12.272615 12.259697
Ga 14.999351 9.546803 14.985509
Ga 17.725163 12.272615 14.985509
Ga 17.725163 9.546803 17.711322
Ga 14.999351 12.272615 17.711322
Ga 14.999351 9.546803 20.437134
Ga 17.725163 12.272615 20.437134
Ga 14.999351 12.272615 23.162947
Ga 14.999351 14.998428 4.082259
Ga 17.725163 14.998428 6.808072
Ga 14.999351 17.724240 6.808072
Ga 14.999351 14.998428 9.533884
Ga 17.725163 17.724240 9.533884
Ga 17.725163 14.998428 12.259697
Ga 14.999351 17.724240 12.259697
Ga 14.999351 14.998428 14.985509
Ga 17.725163 17.724240 14.985509
Ga 17.725163 14.998428 17.711322
Ga 14.999351 17.724240 17.711322
Ga 14.999351 14.998428 20.437134
Ga 17.725163 17.724240 20.437134
Ga 17.725163 14.998428 23.162947
Ga 14.999351 17.724240 23.162947
Ga 14.999351 20.450053 9.533884
Ga 17.725163 20.450053 12.259697
Ga 14.999351 23.175865 12.259697
Ga 14.999351 20.450053 14.985509
Ga 17.725163 23.175865 14.985509
Ga 17.725163 20.450053 17.711322
Ga 14.999351 23.175865 17.711322
Ga 14.999351 20.450053 20.437134
Ga 20.450976 -20.437134 -14.998428
Ga 20.450976 -14.985509 -20.450053
Ga 20.450976 -17.711322 -17.724240
Ga 23.176788 -14.985509 -17.724240
Ga 23.176788 -17.711322 -14.998428
Ga 20.450976 -14.985509 -14.998428
Ga 20.450976 -17.711322 -12.272615
Ga 23.176788 -14.985509 -12.272615
Ga 20.450976 -14.985509 -9.546803
Ga 20.450976 -12.259697 -17.724240
Ga 23.176788 -12.259697 -14.998428
Ga 20.450976 -9.533884 -14.998428
Ga 20.450976 -12.259697 -12.272615
Ga 23.176788 -9.533884 -12.272615
Ga 23.176788 -12.259697 -9.546803
Ga 20.450976 -9.533884 -9.546803
Ga 20.450976 -12.259697 -6.820991
Ga 23.176788 -9.533884 -6.820991
Ga 20.450976 -9.533884 -4.095178
Ga 20.450976 -6.808072 -12.272615
Ga 23.176788 -6.808072 -9.546803
Ga 20.450976 -4.082259 -9.546803
Ga 20.450976 -6.808072 -6.820991
Ga 23.176788 -4.082259 -6.820991
Ga 23.176788 -6.808072 -4.095178
Ga 20.450976 -4.082259 -4.095178
Ga 20.450976 -6.808072 -1.369366
Ga 23.176788 -4.082259 -1.369366
Ga 20.450976 -4.082259 1.356447
Ga 20.450976 -1.356447 -6.820991
Ga 23.176788 -1.356447 -4.095178
Ga 20.450976 1.369366 -4.095178
Ga 20.450976 -1.356447 -1.369366
Ga 23.176788 1.369366 -1.369366
Ga 23.176788 -1.356447 1.356447
Ga 20.450976 1.369366 1.356447
Ga 20.450976 -1.356447 4.082259
Ga 23.176788 1.369366 4.082259
Ga 20.450976 1.369366 6.808072
Ga 20.450976 4.095178 -1.369366
Ga 23.176788 4.095178 1.356447
Ga 20.450976 6.820991 1.356447
Ga 20.450976 4.095178 4.082259
Ga 23.176788 6.820991 4.082259
Ga 23.176788 4.095178 6.808072
Ga 20.450976 6.820991 6.808072
Ga 20.450976 4.095178 9.533884
Ga 23.176788 6.820991 9.533884
Ga 20.450976 6.820991 12.259697
Ga 20.450976 9.546803 4.082259
Ga 23.176788 9.546803 6.808072
Ga 20.450976 12.272615 6.808072
Ga 20.450976 9.546803 9.533884
Ga 23.176788 12.272615 9.533884
Ga 23.176788 9.546803 12.259697
Ga 20.450976 12.272615 12.259697
Ga 20.450976 9.546803 14.985509
Ga 23.176788 12.272615 14.985509
Ga 20.450976 12.272615 17.711322
Ga 20.450976 14.998428 9.533884
Ga 23.176788 14.998428 12.259697
Ga 20.450976 17.724240 12.259697
Ga 20.450976 14.998428 14.985509
Ga 23.176788 17.724240 14.985509
Ga 23.176788 14.998428 17.711322
Ga 20.450976 17.724240 17.711322
Ga 20.450976 14.998428 20.437134
Ga 20.450976 20.450053 14.985509
P -19.073305 -19.074228 10.896791
P -19.073305 -19.074228 16.348416
P -21.799118 -13.622603 8.170978
P -19.073305 -13.622603 5.445166
P -19.073305 -16.348416 8.170978
P -21.799118 -16.348416 10.896791
P -21.799118 -13.622603 13.622603
P -19.073305 -13.622603 10.896791
P -19.073305 -16.348416 13.622603
P -21.799118 -16.348416 16.348416
P -19.073305 -13.622603 16.348416
P -19.073305 -16.348416 19.074228
P -19.073305 -8.170978 -0.006459
P -21.799118 -10.896791 5.445166
P -21.799118 -8.170978 8.170978
P -19.073305 -8.170978 5.445166
P -19.073305 -10.896791 8.170978
P -21.799118 -10.896791 10.896791
P -21.799118 -8.170978 13.622603
P -19.073305 -8.170978 10.896791
P -19.073305 -10.896791 13.622603
P -21.799118 -10.896791 16.348416
P -19.073305 -10.896791 19.074228
P -21.799118 -2.719353 -2.732272
P -19.073305 -2.719353 -5.458084
P -19.073305 -5.445166 -2.732272
P -21.799118 -5.445166 -0.006459
P -21.799118 -2.719353 2.719353
P -19.073305 -2.719353 -0.006459
P -19.073305 -5.445166 2.719353
P -21.799118 -5.445166 5.445166
P -19.073305 -2.719353 5.445166
P -19.073305 -5.445166 8.170978
P -21.799118 -5.445166 10.896791
P -19.073305 -2.719353 10.896791
P -19.073305 -5.445166 13.622603
P -21.799118 2.732272 -8.183897
P -19.073305 0.006459 -8.183897
P -21.799118 0.006459 -5.458084
P -21.799118 2.732272 -2.732272
P -19.073305 2.732272 -5.458084
P -19.073305 0.006459 -2.732272
P -21.799118 0.006459 -0.006459
P -21.799118 2.732272 2.719353
P -19.073305 2.732272 -0.006459
P -19.073305 0.006459 2.719353
P -21.799118 0.006459 5.445166
P -19.073305 0.006459 8.170978
P -21.799118 8.183897 -13.635522
P -19.073305 5.458084 -13.635522
P -21.799118 5.458084 -10.909709
P -21.799118 8.183897 -8.183897
P -19.073305 8.183897 -10.909709
P -19.073305 5.458084 -8.183897
P -21.799118 5.458084 -5.458084
P -21.799118 8.183897 -2.732272
P -19.073305 8.183897 -5.458084
P -19.073305 5.458084 -2.732272
P -21.799118 5.458084 -0.006459
P -19.073305 8.183897 -0.006459
P -19.073305 5.458084 2.719353
P -19.073305 10.909709 -19.087147
P -21.799118 10.909709 -16.361334
P -21.799118 13.635522 -13.635522
P -19.073305 13.635522 -16.361334
P -19.073305 10.909709 -13.635522
P -21.799118 10.909709 -10.909709
P -21.799118 13.635522 -8.183897
P -19.073305 13.635522 -10.909709
P -19.073305 10.909709 -8.183897
P -21.799118 10.909709 -5.458084
P -19.073305 10.909709 -2.732272
P -19.073305 16.361334 -19.087147
P -21.799118 16.361334 -16.361334
P -19.073305 19.087147 -16.361334
P -19.073305 16.361334 -13.635522
P -21.799118 16.361334 -10.909709
P -19.073305 19.087147 -10.909709
P -19.073305 16.361334 -8.183897
P -13.621680 -19.074228 5.445166
P -13.621680 -21.800041 8.170978
P -16.347493 -21.800041 10.896791
P -16.347493 -19.074228 13.622603
P -13.621680 -19.074228 10.896791
P -13.621680 -21.800041 13.622603
P -16.347493 -21.800041 16.348416
P -16.347493 -19.074228 19.074228
P -13.621680 -19.074228 16.348416
P -13.621680 -13.622603 -0.006459
P -13.621680 -16.348416 2.719353
P -16.347493 -16.348416 5.445166
P -16.347493 -13.622603 8.170978
P -13.621680 -13.622603 5.445166
P -13.621680 -16.348416 8.170978
P -16.347493 -16.348416 10.896791
P -16.347493 -13.622603 13.622603
P -13.621680 -13.622603 10.896791
P -13.621680 -16.348416 13.622603
P -16.347493 -16.348416 16.348416
P -16.347493 -13.622603 19.074228
P -13.621680 -13.622603 16.348416
P -13.621680 -16.348416 19.074228
P -16.347493 -16.348416 21.800041
P -13.621680 -13.622603 21.800041
P -13.621680 -8.170978 -5.458084
P -16.347493 -10.896791 -0.006459
P -16.347493 -8.170978 2.719353
P -13.621680 -8.170978 -0.006459
P -13.621680 -10.896791 2.719353
P -16.347493 -10.896791 5.445166
P -16.347493 -8.170978 8.170978
P -13.621680 -8.170978 5.445166
P -13.621680 -10.896791 8.170978
P -16.347493 -10.896791 10.896791
P -16.347493 -8.170978 13.622603
P -13.621680 -8.170978 10.896791
P -13.621680 -10.896791 13.622603
P -16.347493 -10.896791 16.348416
P -16.347493 -8.170978 19.074228
P -13.621680 -8.170978 16.348416
P -13.621680 -10.896791 19.074228
P -16.347493 -10.896791 21.800041
P -13.621680 -8.170978 21.800041
P -13.621680 -2.719353 -10.909709
P -13.621680 -5.445166 -8.183897
P -16.347493 -5.445166 -5.458084
P -16.347493 -2.719353 -2.732272
P -13.621680 -2.719353 -5.458084
P -13.621680 -5.445166 -2.732272
P -16.347493 -5.445166 -0.006459
P -16.347493 -2.719353 2.719353
P -13.621680 -2.719353 -0.006459
P -13.621680 -5.445166 2.719353
P -16.347493 -5.445166 5.445166
P -16.347493 -2.719353 8.170978
P -13.621680 -2.719353 5.445166
P -13.621680 -5.445166 8.170978
P -16.347493 -5.445166 10.896791
P -13.621680 -2.719353 10.896791
P -13.621680 -5.445166 13.622603
P -16.347493 -5.445166 16.348416
P -13.621680 -2.719353 16.348416
P -13.621680 2.732272 -16.361334
P -16.347493 0.006459 -10.909709
P -16.347493 2.732272 -8.183897
P -13.621680 2.732272 -10.909709
P -13.621680 0.006459 -8.183897
P -16.347493 0.006459 -5.458084
P -16.347493 2.732272 -2.732272
P -13.621680 2.732272 -5.458084
P -13.621680 0.006459 -2.732272
P -16.347493 0.006459 -0.006459
P -16.347493 2.732272 2.719353
P -13.621680 2.732272 -0.006459
P -13.621680 0.006459 2.719353
P -16.347493 0.006459 5.445166
P -13.621680 2.732272 5.445166
P -13.621680 0.006459 8.170978
P -16.347493 0.006459 10.896791
P -13.621680 2.732272 10.896791
P -13.621680 0.006459 13.622603
P -16.347493 8.183897 -19.087147
P -13.621680 8.183897 -21.812959
P -16.347493 5.458084 -16.361334
P -16.347493 8.183897 -13.635522
P -13.621680 8.183897 -16.361334
P -13.621680 5.458084 -13.635522
P -16.347493 5.458084 -10.909709
P -16.347493 8.183897 -8.183897
P -13.621680 8.183897 -10.909709
P -13.621680 5.458084 -8.183897
P -16.347493 5.458084 -5.458084
P -16.347493 8.183897 -2.732272
P -13.621680 8.183897 -5.458084
P -13.621680 5.458084 -2.732272
P -16.347493 5.458084 -0.006459
P -13.621680 8.183897 -0.006459
P -13.621680 5.458084 2.719353
P -16.347493 5.458084 5.445166
P -13.621680 8.183897 5.445166
P -13.621680 5.458084 8.170978
P -16.347493 10.909709 -21.812959
P -16.347493 13.635522 -19.087147
P -13.621680 13.635522 -21.812959
P -13.621680 10.909709 -19.087147
P -16.347493 10.909709 -16.361334
P -16.347493 13.635522 -13.635522
P -13.621680 13.635522 -16.361334
P -13.621680 10.909709 -13.635522
P -16.347493 10.909709 -10.909709
P -16.347493 13.635522 -8.183897
P -13.621680 13.635522 -10.909709
P -13.621680 10.909709 -8.183897
P -16.347493 10.909709 -5.458084
P -13.621680 13.635522 -5.458084
P -13.621680 10.909709 -2.732272
P -16.347493 10.909709 -0.006459
P -13.621680 13.635522 -0.006459
P -13.621680 10.909709 2.719353
P -16.347493 16.361334 -21.812959
P -16.347493 19.087147 -19.087147
P -13.621680 16.361334 -19.087147
P -16.347493 16.361334 -16.361334
P -16.347493 19.087147 -13.635522
P -13.621680 19.087147 -16.361334
P -13.621680 16.361334 -13.635522
P -16.347493 16.361334 -10.909709
P -13.621680 19.087147 -10.909709
P -13.621680 16.361334 -8.183897
P -16.347493 16.361334 -5.458084
P -13.621680 19.087147 -5.458084
P -13.621680 16.361334 -2.732272
P -16.347493 21.812959 -16.361334
P -13.621680 21.812959 -13.635522
P -16.347493 21.812959 -10.909709
P -13.621680 21.812959 -8.183897
P -8.170055 -19.074228 -0.006459
P -8.170055 -21.800041 2.719353
P -10.895868 -21.800041 5.445166
P -10.895868 -19.074228 8.170978
P -8.170055 -19.074228 5.445166
P -8.170055 -21.800041 8.170978
P -10.895868 -21.800041 10.896791
P -10.895868 -19.074228 13.622603
P -8.170055 -19.074228 10.896791
P -8.170055 -21.800041 13.622603
P -10.895868 -21.800041 16.348416
P -10.895868 -19.074228 19.074228
P -8.170055 -19.074228 16.348416
P -10.895868 -13.622603 -2.732272
P -8.170055 -13.622603 -5.458084
P -10.895868 -16.348416 -0.006459
P -10.895868 -13.622603 2.719353
P -8.170055 -13.622603 -0.006459
P -8.170055 -16.348416 2.719353
P -10.895868 -16.348416 5.445166
P -10.895868 -13.622603 8.170978
P -8.170055 -13.622603 5.445166
P -8.170055 -16.348416 8.170978
P -10.895868 -16.348416 10.896791
P -10.895868 -13.622603 13.622603
P -8.170055 -13.622603 10.896791
P -8.170055 -16.348416 13.622603
P -10.895868 -16.348416 16.348416
P -10.895868 -13.622603 19.074228
P -8.170055 -13.622603 16.348416
P -10.895868 -16.348416 21.800041
P -8.170055 -13.622603 21.800041
P -8.170055 -8.170978 -10.909709
P -8.170055 -10.896791 -8.183897
P -10.895868 -10.896791 -5.458084
P -10.895868 -8.170978 -2.732272
P -8.170055 -8.170978 -5.458084
P -8.170055 -10.896791 -2.732272
P -10.895868 -10.896791 -0.006459
P -10.895868 -8.170978 2.719353
P -8.170055 -8.170978 -0.006459
P -8.170055 -10.896791 2.719353
P -10.895868 -10.896791 5.445166
P -10.895868 -8.170978 8.170978
P -8.170055 -8.170978 5.445166
P -8.170055 -10.896791 8.170978
P -10.895868 -10.896791 10.896791
P -10.895868 -8.170978 13.622603
P -8.170055 -8.170978 10.896791
P -8.170055 -10.896791 13.622603
P -10.895868 -10.896791 16.348416
P -10.895868 -8.170978 19.074228
P -8.170055 -8.170978 16.348416
P -8.170055 -10.896791 19.074228
P -10.895868 -10.896791 21.800041
P -8.170055 -8.170978 21.800041
P -10.895868 -2.719353 -13.635522
P -8.170055 -2.719353 -16.361334
P -8.170055 -5.445166 -13.635522
P -10.895868 -5.445166 -10.909709
P -10.895868 -2.719353 -8.183897
P -8.170055 -2.719353 -10.909709
P -8.170055 -5.445166 -8.183897
P -10.895868 -5.445166 -5.458084
P -10.895868 -2.719353 -2.732272
P -8.170055 -2.719353 -5.458084
P -8.170055 -5.445166 -2.732272
P -10.895868 -5.445166 -0.006459
P -10.895868 -2.719353 2.719353
P -8.170055 -2.719353 -0.006459
P -8.170055 -5.445166 2.719353
P -10.895868 -5.445166 5.445166
P -10.895868 -2.719353 8.170978
P -8.170055 -2.719353 5.445166
P -8.170055 -5.445166 8.170978
P -10.895868 -5.445166 10.896791
P -10.895868 -2.719353 13.622603
P -8.170055 -2.719353 10.896791
P -8.170055 -5.445166 13.622603
P -10.895868 -5.445166 16.348416
P -10.895868 -2.719353 19.074228
P -8.170055 -2.719353 16.348416
P -8.170055 -5.445166 19.074228
P -10.895868 -5.445166 21.800041
P -8.170055 -2.719353 21.800041
P -10.895868 2.732272 -19.087147
P -8.170055 2.732272 -21.812959
P -8.170055 0.006459 -19.087147
P -10.895868 2.732272 -13.635522
P -8.170055 2.732272 -16.361334
P -8.170055 0.006459 -13.635522
P -10.895868 0.006459 -10.909709
P -10.895868 2.732272 -8.183897
P -8.170055 2.732272 -10.909709
P -8.170055 0.006459 -8.183897
P -10.895868 0.006459 -5.458084
P -10.895868 2.732272 -2.732272
P -8.170055 2.732272 -5.458084
P -8.170055 0.006459 -2.732272
P -10.895868 0.006459 -0.006459
P -10.895868 2.732272 2.719353
P -8.170055 2.732272 -0.006459
P -8.170055 0.006459 2.719353
P -10.895868 0.006459 5.445166
P -10.895868 2.732272 8.170978
P -8.170055 2.732272 5.445166
P -8.170055 0.006459 8.170978
P -10.895868 0.006459 10.896791
P -8.170055 2.732272 10.896791
P -8.170055 0.006459 13.622603
P -10.895868 0.006459 16.348416
P -8.170055 2.732272 16.348416
P -10.895868 5.458084 -21.812959
P -10.895868 8.183897 -19.087147
P -8.170055 8.183897 -21.812959
P -8.170055 5.458084 -19.087147
P -10.895868 5.458084 -16.361334
P -10.895868 8.183897 -13.635522
P -8.170055 8.183897 -16.361334
P -8.170055 5.458084 -13.635522
P -10.895868 5.458084 -10.909709
P -10.895868 8.183897 -8.183897
P -8.170055 8.183897 -10.909709
P -8.170055 5.458084 -8.183897
P -10.895868 5.458084 -5.458084
P -10.895868 8.183897 -2.732272
P -8.170055 8.183897 -5.458084
P -8.170055 5.458084 -2.732272
P -10.895868 5.458084 -0.006459
P -10.895868 8.183897 2.719353
P -8.170055 8.183897 -0.006459
P -8.170055 5.458084 2.719353
P -10.895868 5.458084 5.445166
P -8.170055 8.183897 5.445166
P -8.170055 5.458084 8.170978
P -10.895868 5.458084 10.896791
P -8.170055 8.183897 10.896791
P -8.170055 5.458084 13.622603
P -10.895868 10.909709 -21.812959
P -10.895868 13.635522 -19.087147
P -8.170055 13.635522 -21.812959
P -8.170055 10.909709 -19.087147
P -10.895868 10.909709 -16.361334
P -10.895868 13.635522 -13.635522
P -8.170055 13.635522 -16.361334
P -8.170055 10.909709 -13.635522
P -10.895868 10.909709 -10.909709
P -10.895868 13.635522 -8.183897
P -8.170055 13.635522 -10.909709
P -8.170055 10.909709 -8.183897
P -10.895868 10.909709 -5.458084
P -10.895868 13.635522 -2.732272
P -8.170055 13.635522 -5.458084
P -8.170055 10.909709 -2.732272
P -10.895868 10.909709 -0.006459
P -10.895868 13.635522 2.719353
P -8.170055 13.635522 -0.006459
P -8.170055 10.909709 2.719353
P -10.895868 10.909709 5.445166
P -8.170055 13.635522 5.445166
P -8.170055 10.909709 8.170978
P -10.895868 16.361334 -21.812959
P -10.895868 19.087147 -19.087147
P -10.895868 16.361334 -16.361334
P -10.895868 19.087147 -13.635522
P -8.170055 19.087147 -16.361334
P -8.170055 16.361334 -13.635522
P -10.895868 16.361334 -10.909709
P -10.895868 19.087147 -8.183897
P -8.170055 19.087147 -10.909709
P -8.170055 16.361334 -8.183897
P -10.895868 16.361334 -5.458084
P -10.895868 19.087147 -2.732272
P -8.170055 19.087147 -5.458084
P -8.170055 16.361334 -2.732272
P -8.170055 19.087147 -0.006459
P -8.170055 16.361334 2.719353
P -10.895868 21.812959 -16.361334
P -8.170055 21.812959 -13.635522
P -10.895868 21.812959 -10.909709
P -8.170055 21.812959 -8.183897
P -10.895868 21.812959 -5.458084
P -8.170055 21.812959 -2.732272
P -5.444243 -19.074228 -2.732272
P -2.718430 -19.074228 -5.458084
P -2.718430 -21.800041 -2.732272
P -5.444243 -21.800041 -0.006459
P -5.444243 -19.074228 2.719353
P -2.718430 -19.074228 -0.006459
P -2.718430 -21.800041 2.719353
P -5.444243 -21.800041 5.445166
P -5.444243 -19.074228 8.170978
P -2.718430 -19.074228 5.445166
P -2.718430 -21.800041 8.170978
P -5.444243 -21.800041 10.896791
P -5.444243 -19.074228 13.622603
P -5.444243 -13.622603 -8.183897
P -2.718430 -13.622603 -10.909709
P -2.718430 -16.348416 -8.183897
P -5.444243 -16.348416 -5.458084
P -5.444243 -13.622603 -2.732272
P -2.718430 -13.622603 -5.458084
P -2.718430 -16.348416 -2.732272
P -5.444243 -16.348416 -0.006459
P -5.444243 -13.622603 2.719353
P -2.718430 -13.622603 -0.006459
P -2.718430 -16.348416 2.719353
P -5.444243 -16.348416 5.445166
P -5.444243 -13.622603 8.170978
P -2.718430 -13.622603 5.445166
P -2.718430 -16.348416 8.170978
P -5.444243 -16.348416 10.896791
P -5.444243 -13.622603 13.622603
P -2.718430 -13.622603 10.896791
P -2.718430 -16.348416 13.622603
P -5.444243 -13.622603 19.074228
P -2.718430 -13.622603 16.348416
P -5.444243 -8.170978 -13.635522
P -2.718430 -8.170978 -16.361334
P -2.718430 -10.896791 -13.635522
P -5.444243 -8.170978 -8.183897
P -2.718430 -8.170978 -10.909709
P -2.718430 -10.896791 -8.183897
P -5.444243 -10.896791 -5.458084
P -5.444243 -8.170978 -2.732272
P -2.718430 -8.170978 -5.458084
P -2.718430 -10.896791 -2.732272
P -5.444243 -10.896791 -0.006459
P -5.444243 -8.170978 2.719353
P -2.718430 -8.170978 -0.006459
P -2.718430 -10.896791 2.719353
P -5.444243 -10.896791 5.445166
P -5.444243 -8.170978 8.170978
P -2.718430 -8.170978 5.445166
P -2.718430 -10.896791 8.170978
P -5.444243 -10.896791 10.896791
P -5.444243 -8.170978 13.622603
P -2.718430 -8.170978 10.896791
P -2.718430 -10.896791 13.622603
P -5.444243 -10.896791 16.348416
P -5.444243 -8.170978 19.074228
P -2.718430 -8.170978 16.348416
P -5.444243 -10.896791 21.800041
P -2.718430 -8.170978 21.800041
P -5.444243 -2.719353 -19.087147
P -2.718430 -2.719353 -21.812959
P -2.718430 -5.445166 -19.087147
P -5.444243 -2.719353 -13.635522
P -2.718430 -2.719353 -16.361334
P -2.718430 -5.445166 -13.635522
P -5.444243 -5.445166 -10.909709
P -5.444243 -2.719353 -8.183897
P -2.718430 -2.719353 -10.909709
P -2.718430 -5.445166 -8.183897
P -5.444243 -5.445166 -5.458084
P -5.444243 -2.719353 -2.732272
P -2.718430 -2.719353 -5.458084
P -2.718430 -5.445166 -2.732272
P -5.444243 -5.445166 -0.006459
P -5.444243 -2.719353 2.719353
P -2.718430 -2.719353 -0.006459
P -2.718430 -5.445166 2.719353
P -5.444243 -5.445166 5.445166
P -5.444243 -2.719353 8.170978
P -2.718430 -2.719353 5.445166
P -2.718430 -5.445166 8.170978
P -5.444243 -5.445166 10.896791
P -5.444243 -2.719353 13.622603
P -2.718430 -2.719353 10.896791
P -2.718430 -5.445166 13.622603
P -5.444243 -5.445166 16.348416
P -5.444243 -2.719353 19.074228
P -2.718430 -2.719353 16.348416
P -2.718430 -5.445166 19.074228
P -5.444243 -5.445166 21.800041
P -2.718430 -2.719353 21.800041
P -5.444243 0.006459 -21.812959
P -5.444243 2.732272 -19.087147
P -2.718430 2.732272 -21.812959
P -2.718430 0.006459 -19.087147
P -5.444243 0.006459 -16.361334
P -5.444243 2.732272 -13.635522
P -2.718430 2.732272 -16.361334
P -2.718430 0.006459 -13.635522
P -5.444243 0.006459 -10.909709
P -5.444243 2.732272 -8.183897
P -2.718430 2.732272 -10.909709
P -2.718430 0.006459 -8.183897
P -5.444243 0.006459 -5.458084
P -5.444243 2.732272 -2.732272
P -2.718430 2.732272 -5.458084
P -2.718430 0.006459 -2.732272
P -5.444243 0.006459 -0.006459
P -5.444243 2.732272 2.719353
P -2.718430 2.732272 -0.006459
P -2.718430 0.006459 2.719353
P -5.444243 0.006459 5.445166
P -5.444243 2.732272 8.170978
P -2.718430 2.732272 5.445166
P -2.718430 0.006459 8.170978
P -5.444243 0.006459 10.896791
P -5.444243 2.732272 13.622603
P -2.718430 2.732272 10.896791
P -2.718430 0.006459 13.622603
P -5.444243 0.006459 16.348416
P -5.444243 2.732272 19.074228
P -2.718430 2.732272 16.348416
P -2.718430 0.006459 19.074228
P -5.444243 0.006459 21.800041
P -2.718430 2.732272 21.800041
P -5.444243 5.458084 -21.812959
P -5.444243 8.183897 -19.087147
P -2.718430 8.183897 -21.812959
P -2.718430 5.458084 -19.087147
P -5.444243 5.458084 -16.361334
P -5.444243 8.183897 -13.635522
P -2.718430 8.183897 -16.361334
P -2.718430 5.458084 -13.635522
P -5.444243 5.458084 -10.909709
P -5.444243 8.183897 -8.183897
P -2.718430 8.183897 -10.909709
P -2.718430 5.458084 -8.183897
P -5.444243 5.458084 -5.458084
P -5.444243 8.183897 -2.732272
P -2.718430 8.183897 -5.458084
P -2.718430 5.458084 -2.732272
P -5.444243 5.458084 -0.006459
P -5.444243 8.183897 2.719353
P -2.718430 8.183897 -0.006459
P -2.718430 5.458084 2.719353
P -5.444243 5.458084 5.445166
P -5.444243 8.183897 8.170978
P -2.718430 8.183897 5.445166
P -2.718430 5.458084 8.170978
P -5.444243 5.458084 10.896791
P -5.444243 8.183897 13.622603
P -2.718430 8.183897 10.896791
P -2.718430 5.458084 13.622603
P -2.718430 8.183897 16.348416
P -2.718430 5.458084 19.074228
P -5.444243 10.909709 -21.812959
P -5.444243 13.635522 -19.087147
P -5.444243 10.909709 -16.361334
P -5.444243 13.635522 -13.635522
P -2.718430 13.635522 -16.361334
P -2.718430 10.909709 -13.635522
P -5.444243 10.909709 -10.909709
P -5.444243 13.635522 -8.183897
P -2.718430 13.635522 -10.909709
P -2.718430 10.909709 -8.183897
P -5.444243 10.909709 -5.458084
P -5.444243 13.635522 -2.732272
P -2.718430 13.635522 -5.458084
P -2.718430 10.909709 -2.732272
P -5.444243 10.909709 -0.006459
P -5.444243 13.635522 2.719353
P -2.718430 13.635522 -0.006459
P -2.718430 10.909709 2.719353
P -5.444243 10.909709 5.445166
P -5.444243 13.635522 8.170978
P -2.718430 13.635522 5.445166
P -2.718430 10.909709 8.170978
P -2.718430 13.635522 10.896791
P -2.718430 10.909709 13.622603
P -5.444243 19.087147 -13.635522
P -2.718430 16.361334 -13.635522
P -5.444243 16.361334 -10.909709
P -5.444243 19.087147 -8.183897
P -2.718430 16.361334 -8.183897
P -5.444243 16.361334 -5.458084
P -5.444243 19.087147 -2.732272
P -2.718430 19.087147 -5.458084
P -2.718430 16.361334 -2.732272
P -5.444243 16.361334 -0.006459
P -5.444243 19.087147 2.719353
P -2.718430 19.087147 -0.006459
P -2.718430 16.361334 2.719353
P -2.718430 19.087147 5.445166
P -2.718430 16.361334 8.170978
P -5.444243 21.812959 -10.909709
P -2.718430 21.812959 -8.183897
P -5.444243 21.812959 -5.458084
P -2.718430 21.812959 -2.732272
P -5.444243 21.812959 -0.006459
P -2.718430 21.812959 2.719353
P 2.733195 -21.800041 -8.183897
P 0.007382 -21.800041 -5.458084
P 0.007382 -19.074228 -2.732272
P 2.733195 -19.074228 -5.458084
P 2.733195 -21.800041 -2.732272
P 0.007382 -21.800041 -0.006459
P 0.007382 -19.074228 2.719353
P 2.733195 -19.074228 -0.006459
P 2.733195 -21.800041 2.719353
P 0.007382 -21.800041 5.445166
P 0.007382 -19.074228 8.170978
P 2.733195 -16.348416 -13.635522
P 0.007382 -16.348416 -10.909709
P 0.007382 -13.622603 -8.183897
P 2.733195 -13.622603 -10.909709
P 2.733195 -16.348416 -8.183897
P 0.007382 -16.348416 -5.458084
P 0.007382 -13.622603 -2.732272
P 2.733195 -13.622603 -5.458084
P 2.733195 -16.348416 -2.732272
P 0.007382 -16.348416 -0.006459
P 0.007382 -13.622603 2.719353
P 2.733195 -13.622603 -0.006459
P 2.733195 -16.348416 2.719353
P 0.007382 -16.348416 5.445166
P 0.007382 -13.622603 8.170978
P 2.733195 -13.622603 5.445166
P 2.733195 -16.348416 8.170978
P 0.007382 -16.348416 10.896791
P 2.733195 -13.622603 10.896791
P 2.733195 -8.170978 -21.812959
P 2.733195 -10.896791 -19.087147
P 0.007382 -10.896791 -16.361334
P 0.007382 -8.170978 -13.635522
P 2.733195 -8.170978 -16.361334
P 2.733195 -10.896791 -13.635522
P 0.007382 -10.896791 -10.909709
P 0.007382 -8.170978 -8.183897
P 2.733195 -8.170978 -10.909709
P 2.733195 -10.896791 -8.183897
P 0.007382 -10.896791 -5.458084
P 0.007382 -8.170978 -2.732272
P 2.733195 -8.170978 -5.458084
P 2.733195 -10.896791 -2.732272
P 0.007382 -10.896791 -0.006459
P 0.007382 -8.170978 2.719353
P 2.733195 -8.170978 -0.006459
P 2.733195 -10.896791 2.719353
P 0.007382 -10.896791 5.445166
P 0.007382 -8.170978 8.170978
P 2.733195 -8.170978 5.445166
P 2.733195 -10.896791 8.170978
P 0.007382 -10.896791 10.896791
P 0.007382 -8.170978 13.622603
P 2.733195 -8.170978 10.896791
P 2.733195 -10.896791 13.622603
P 0.007382 -10.896791 16.348416
P 2.733195 -8.170978 16.348416
P 0.007382 -5.445166 -21.812959
P 0.007382 -2.719353 -19.087147
P 2.733195 -2.719353 -21.812959
P 2.733195 -5.445166 -19.087147
P 0.007382 -5.445166 -16.361334
P 0.007382 -2.719353 -13.635522
P 2.733195 -2.719353 -16.361334
P 2.733195 -5.445166 -13.635522
P 0.007382 -5.445166 -10.909709
P 0.007382 -2.719353 -8.183897
P 2.733195 -2.719353 -10.909709
P 2.733195 -5.445166 -8.183897
P 0.007382 -5.445166 -5.458084
P 0.007382 -2.719353 -2.732272
P 2.733195 -2.719353 -5.458084
P 2.733195 -5.445166 -2.732272
P 0.007382 -5.445166 -0.006459
P 0.007382 -2.719353 2.719353
P 2.733195 -2.719353 -0.006459
P 2.733195 -5.445166 2.719353
P 0.007382 -5.445166 5.445166
P 0.007382 -2.719353 8.170978
P 2.733195 -2.719353 5.445166
P 2.733195 -5.445166 8.170978
P 0.007382 -5.445166 10.896791
P 0.007382 -2.719353 13.622603
P 2.733195 -2.719353 10.896791
P 2.733195 -5.445166 13.622603
P 0.007382 -5.445166 16.348416
P 0.007382 -2.719353 19.074228
P 2.733195 -2.719353 16.348416
P 2.733195 -5.445166 19.074228
P 0.007382 -5.445166 21.800041
P 2.733195 -2.719353 21.800041
P 0.007382 0.006459 -21.812959
P 0.007382 2.732272 -19.087147
P 2.733195 2.732272 -21.812959
P 2.733195 0.006459 -19.087147
P 0.007382 0.006459 -16.361334
P 0.007382 2.732272 -13.635522
P 2.733195 2.732272 -16.361334
P 2.733195 0.006459 -13.635522
P 0.007382 0.006459 -10.909709
P 0.007382 2.732272 -8.183897
P 2.733195 2.732272 -10.909709
P 2.733195 0.006459 -8.183897
P 0.007382 0.006459 -5.458084
P 0.007382 2.732272 -2.732272
P 2.733195 2.732272 -5.458084
P 2.733195 0.006459 -2.732272
P 0.007382 0.006459 -0.006459
P 0.007382 2.732272 2.719353
P 2.733195 2.732272 -0.006459
P 2.733195 0.006459 2.719353
P 0.007382 0.006459 5.445166
P 0.007382 2.732272 8.170978
P 2.733195 2.732272 5.445166
P 2.733195 0.006459 8.170978
P 0.007382 0.006459 10.896791
P 0.007382 2.732272 13.622603
P 2.733195 2.732272 10.896791
P 2.733195 0.006459 13.622603
P 0.007382 0.006459 16.348416
P 0.007382 2.732272 19.074228
P 2.733195 2.732272 16.348416
P 2.733195 0.006459 19.074228
P 0.007382 0.006459 21.800041
P 2.733195 2.732272 21.800041
P 0.007382 5.458084 -21.812959
P 0.007382 8.183897 -19.087147
P 2.733195 5.458084 -19.087147
P 0.007382 5.458084 -16.361334
P 0.007382 8.183897 -13.635522
P 2.733195 5.458084 -13.635522
P 0.007382 5.458084 -10.909709
P 0.007382 8.183897 -8.183897
P 2.733195 8.183897 -10.909709
P 2.733195 5.458084 -8.183897
P 0.007382 5.458084 -5.458084
P 0.007382 8.183897 -2.732272
P 2.733195 8.183897 -5.458084
P 2.733195 5.458084 -2.732272
P 0.007382 5.458084 -0.006459
P 0.007382 8.183897 2.719353
P 2.733195 8.183897 -0.006459
P 2.733195 5.458084 2.719353
P 0.007382 5.458084 5.445166
P 0.007382 8.183897 8.170978
P 2.733195 8.183897 5.445166
P 2.733195 5.458084 8.170978
P 0.007382 5.458084 10.896791
P 0.007382 8.183897 13.622603
P 2.733195 8.183897 10.896791
P 2.733195 5.458084 13.622603
P 0.007382 5.458084 16.348416
P 2.733195 8.183897 16.348416
P 2.733195 5.458084 19.074228
P 0.007382 5.458084 21.800041
P 2.733195 8.183897 21.800041
P 0.007382 10.909709 -16.361334
P 2.733195 10.909709 -13.635522
P 0.007382 10.909709 -10.909709
P 0.007382 13.635522 -8.183897
P 2.733195 10.909709 -8.183897
P 0.007382 10.909709 -5.458084
P 0.007382 13.635522 -2.732272
P 2.733195 13.635522 -5.458084
P 2.733195 10.909709 -2.732272
P 0.007382 10.909709 -0.006459
P 0.007382 13.635522 2.719353
P 2.733195 13.635522 -0.006459
P 2.733195 10.909709 2.719353
P 0.007382 10.909709 5.445166
P 0.007382 13.635522 8.170978
P 2.733195 13.635522 5.445166
P 2.733195 10.909709 8.170978
P 0.007382 10.909709 10.896791
P 2.733195 13.635522 10.896791
P 2.733195 10.909709 13.622603
P 0.007382 10.909709 16.348416
P 2.733195 13.635522 16.348416
P 2.733195 10.909709 19.074228
P 0.007382 16.361334 -10.909709
P 2.733195 16.361334 -8.183897
P 0.007382 16.361334 -5.458084
P 0.007382 19.087147 -2.732272
P 2.733195 19.087147 -5.458084
P 2.733195 16.361334 -2.732272
P 0.007382 16.361334 -0.006459
P 0.007382 19.087147 2.719353
P 2.733195 19.087147 -0.006459
P 2.733195 16.361334 2.719353
P 0.007382 16.361334 5.445166
P 0.007382 19.087147 8.170978
P 2.733195 19.087147 5.445166
P 2.733195 16.361334 8.170978
P 0.007382 16.361334 10.896791
P 2.733195 16.361334 13.622603
P 0.007382 21.812959 -5.458084
P 2.733195 21.812959 -2.732272
P 0.007382 21.812959 -0.006459
P 2.733195 21.812959 2.719353
P 0.007382 21.812959 5.445166
P 2.733195 21.812959 8.170978
P 5.459007 -19.074228 -13.635522
P 8.184820 -19.074228 -16.361334
P 8.184820 -21.800041 -13.635522
P 5.459007 -21.800041 -10.909709
P 5.459007 -19.074228 -8.183897
P 8.184820 -19.074228 -10.909709
P 8.184820 -21.800041 -8.183897
P 5.459007 -21.800041 -5.458084
P 5.459007 -19.074228 -2.732272
P 8.184820 -19.074228 -5.458084
P 8.184820 -21.800041 -2.732272
P 5.459007 -21.800041 -0.006459
P 5.459007 -19.074228 2.719353
P 8.184820 -19.074228 -0.006459
P 5.459007 -13.622603 -19.087147
P 8.184820 -13.622603 -21.812959
P 8.184820 -16.348416 -19.087147
P 5.459007 -13.622603 -13.635522
P 8.184820 -13.622603 -16.361334
P 8.184820 -16.348416 -13.635522
P 5.459007 -16.348416 -10.909709
P 5.459007 -13.622603 -8.183897
P 8.184820 -13.622603 -10.909709
P 8.184820 -16.348416 -8.183897
P 5.459007 -16.348416 -5.458084
P 5.459007 -13.622603 -2.732272
P 8.184820 -13.622603 -5.458084
P 8.184820 -16.348416 -2.732272
P 5.459007 -16.348416 -0.006459
P 5.459007 -13.622603 2.719353
P 8.184820 -13.622603 -0.006459
P 5.459007 -16.348416 5.445166
P 5.459007 -13.622603 8.170978
P 8.184820 -13.622603 5.445166
P 5.459007 -10.896791 -21.812959
P 5.459007 -8.170978 -19.087147
P 8.184820 -8.170978 -21.812959
P 8.184820 -10.896791 -19.087147
P 5.459007 -10.896791 -16.361334
P 5.459007 -8.170978 -13.635522
P 8.184820 -8.170978 -16.361334
P 8.184820 -10.896791 -13.635522
P 5.459007 -10.896791 -10.909709
P 5.459007 -8.170978 -8.183897
P 8.184820 -8.170978 -10.909709
P 8.184820 -10.896791 -8.183897
P 5.459007 -10.896791 -5.458084
P 5.459007 -8.170978 -2.732272
P 8.184820 -8.170978 -5.458084
P 8.184820 -10.896791 -2.732272
P 5.459007 -10.896791 -0.006459
P 5.459007 -8.170978 2.719353
P 8.184820 -8.170978 -0.006459
P 8.184820 -10.896791 2.719353
P 5.459007 -10.896791 5.445166
P 5.459007 -8.170978 8.170978
P 8.184820 -8.170978 5.445166
P 8.184820 -10.896791 8.170978
P 5.459007 -8.170978 13.622603
P 8.184820 -8.170978 10.896791
P 5.459007 -5.445166 -21.812959
P 5.459007 -2.719353 -19.087147
P 8.184820 -2.719353 -21.812959
P 8.184820 -5.445166 -19.087147
P 5.459007 -5.445166 -16.361334
P 5.459007 -2.719353 -13.635522
P 8.184820 -2.719353 -16.361334
P 8.184820 -5.445166 -13.635522
P 5.459007 -5.445166 -10.909709
P 5.459007 -2.719353 -8.183897
P 8.184820 -2.719353 -10.909709
P 8.184820 -5.445166 -8.183897
P 5.459007 -5.445166 -5.458084
P 5.459007 -2.719353 -2.732272
P 8.184820 -2.719353 -5.458084
P 8.184820 -5.445166 -2.732272
P 5.459007 -5.445166 -0.006459
P 5.459007 -2.719353 2.719353
P 8.184820 -2.719353 -0.006459
P 8.184820 -5.445166 2.719353
P 5.459007 -5.445166 5.445166
P 5.459007 -2.719353 8.170978
P 8.184820 -2.719353 5.445166
P 8.184820 -5.445166 8.170978
P 5.459007 -5.445166 10.896791
P 5.459007 -2.719353 13.622603
P 8.184820 -2.719353 10.896791
P 8.184820 -5.445166 13.622603
P 5.459007 -2.719353 19.074228
P 8.184820 -2.719353 16.348416
P 5.459007 0.006459 -21.812959
P 8.184820 0.006459 -19.087147
P 5.459007 0.006459 -16.361334
P 5.459007 2.732272 -13.635522
P 8.184820 0.006459 -13.635522
P 5.459007 0.006459 -10.909709
P 5.459007 2.732272 -8.183897
P 8.184820 2.732272 -10.909709
P 8.184820 0.006459 -8.183897
P 5.459007 0.006459 -5.458084
P 5.459007 2.732272 -2.732272
P 8.184820 2.732272 -5.458084
P 8.184820 0.006459 -2.732272
P 5.459007 0.006459 -0.006459
P 5.459007 2.732272 2.719353
P 8.184820 2.732272 -0.006459
P 8.184820 0.006459 2.719353
P 5.459007 0.006459 5.445166
P 5.459007 2.732272 8.170978
P 8.184820 2.732272 5.445166
P 8.184820 0.006459 8.170978
P 5.459007 0.006459 10.896791
P 5.459007 2.732272 13.622603
P 8.184820 2.732272 10.896791
P 8.184820 0.006459 13.622603
P 5.459007 0.006459 16.348416
P 5.459007 2.732272 19.074228
P 8.184820 2.732272 16.348416
P 5.459007 0.006459 21.800041
P 8.184820 2.732272 21.800041
P 5.459007 5.458084 -16.361334
P 5.459007 8.183897 -13.635522
P 8.184820 5.458084 -13.635522
P 5.459007 5.458084 -10.909709
P 5.459007 8.183897 -8.183897
P 8.184820 5.458084 -8.183897
P 5.459007 5.458084 -5.458084
P 5.459007 8.183897 -2.732272
P 8.184820 8.183897 -5.458084
P 8.184820 5.458084 -2.732272
P 5.459007 5.458084 -0.006459
P 5.459007 8.183897 2.719353
P 8.184820 8.183897 -0.006459
P 8.184820 5.458084 2.719353
P 5.459007 5.458084 5.445166
P 5.459007 8.183897 8.170978
P 8.184820 8.183897 5.445166
P 8.184820 5.458084 8.170978
P 5.459007 5.458084 10.896791
P 5.459007 8.183897 13.622603
P 8.184820 8.183897 10.896791
P 8.184820 5.458084 13.622603
P 5.459007 5.458084 16.348416
P 5.459007 8.183897 19.074228
P 8.184820 8.183897 16.348416
P 8.184820 5.458084 19.074228
P 5.459007 5.458084 21.800041
P 8.184820 8.183897 21.800041
P 5.459007 13.635522 -8.183897
P 8.184820 10.909709 -8.183897
P 5.459007 10.909709 -5.458084
P 5.459007 13.635522 -2.732272
P 8.184820 10.909709 -2.732272
P 5.459007 10.909709 -0.006459
P 5.459007 13.635522 2.719353
P 8.184820 13.635522 -0.006459
P 8.184820 10.909709 2.719353
P 5.459007 10.909709 5.445166
P 5.459007 13.635522 8.170978
P 8.184820 13.635522 5.445166
P 8.184820 10.909709 8.170978
P 5.459007 10.909709 10.896791
P 5.459007 13.635522 13.622603
P 8.184820 13.635522 10.896791
P 8.184820 10.909709 13.622603
P 5.459007 10.909709 16.348416
P 5.459007 13.635522 19.074228
P 8.184820 13.635522 16.348416
P 8.184820 10.909709 19.074228
P 5.459007 10.909709 21.800041
P 8.184820 13.635522 21.800041
P 5.459007 19.087147 -2.732272
P 8.184820 16.361334 -2.732272
P 5.459007 16.361334 -0.006459
P 5.459007 19.087147 2.719353
P 8.184820 19.087147 -0.006459
P 8.184820 16.361334 2.719353
P 5.459007 16.361334 5.445166
P 5.459007 19.087147 8.170978
P 8.184820 19.087147 5.445166
P 8.184820 16.361334 8.170978
P 5.459007 16.361334 10.896791
P 5.459007 19.087147 13.622603
P 8.184820 19.087147 10.896791
P 8.184820 16.361334 13.622603
P 8.184820 16.361334 19.074228
P 5.459007 21.812959 -0.006459
P 8.184820 21.812959 2.719353
P 5.459007 21.812959 5.445166
P 8.184820 21.812959 8.170978
P 5.459007 21.812959 10.896791
P 8.184820 21.812959 13.622603
P 10.910632 -19.074228 -19.087147
P 10.910632 -21.800041 -16.361334
P 10.910632 -19.074228 -13.635522
P 13.636444 -19.074228 -16.361334
P 13.636444 -21.800041 -13.635522
P 10.910632 -21.800041 -10.909709
P 10.910632 -19.074228 -8.183897
P 13.636444 -19.074228 -10.909709
P 13.636444 -21.800041 -8.183897
P 10.910632 -21.800041 -5.458084
P 13.636444 -19.074228 -5.458084
P 10.910632 -16.348416 -21.812959
P 10.910632 -13.622603 -19.087147
P 13.636444 -13.622603 -21.812959
P 13.636444 -16.348416 -19.087147
P 10.910632 -16.348416 -16.361334
P 10.910632 -13.622603 -13.635522
P 13.636444 -13.622603 -16.361334
P 13.636444 -16.348416 -13.635522
P 10.910632 -16.348416 -10.909709
P 10.910632 -13.622603 -8.183897
P 13.636444 -13.622603 -10.909709
P 13.636444 -16.348416 -8.183897
P 10.910632 -16.348416 -5.458084
P 10.910632 -13.622603 -2.732272
P 13.636444 -13.622603 -5.458084
P 13.636444 -16.348416 -2.732272
P 10.910632 -16.348416 -0.006459
P 10.910632 -13.622603 2.719353
P 13.636444 -13.622603 -0.006459
P 10.910632 -10.896791 -21.812959
P 10.910632 -8.170978 -19.087147
P 13.636444 -8.170978 -21.812959
P 13.636444 -10.896791 -19.087147
P 10.910632 -10.896791 -16.361334
P 10.910632 -8.170978 -13.635522
P 13.636444 -8.170978 -16.361334
P 13.636444 -10.896791 -13.635522
P 10.910632 -10.896791 -10.909709
P 10.910632 -8.170978 -8.183897
P 13.636444 -8.170978 -10.909709
P 13.636444 -10.896791 -8.183897
P 10.910632 -10.896791 -5.458084
P 10.910632 -8.170978 -2.732272
P 13.636444 -8.170978 -5.458084
P 13.636444 -10.896791 -2.732272
P 10.910632 -10.896791 -0.006459
P 10.910632 -8.170978 2.719353
P 13.636444 -8.170978 -0.006459
P 10.910632 -10.896791 5.445166
P 13.636444 -8.170978 5.445166
P 10.910632 -5.445166 -21.812959
P 10.910632 -5.445166 -16.361334
P 10.910632 -2.719353 -13.635522
P 13.636444 -2.719353 -16.361334
P 13.636444 -5.445166 -13.635522
P 10.910632 -5.445166 -10.909709
P 10.910632 -2.719353 -8.183897
P 13.636444 -2.719353 -10.909709
P 13.636444 -5.445166 -8.183897
P 10.910632 -5.445166 -5.458084
P 10.910632 -2.719353 -2.732272
P 13.636444 -2.719353 -5.458084
P 13.636444 -5.445166 -2.732272
P 10.910632 -5.445166 -0.006459
P 10.910632 -2.719353 2.719353
P 13.636444 -2.719353 -0.006459
P 13.636444 -5.445166 2.719353
P 10.910632 -5.445166 5.445166
P 10.910632 -2.719353 8.170978
P 13.636444 -2.719353 5.445166
P 13.636444 -5.445166 8.170978
P 10.910632 -5.445166 10.896791
P 13.636444 -2.719353 10.896791
P 10.910632 0.006459 -16.361334
P 10.910632 2.732272 -13.635522
P 13.636444 0.006459 -13.635522
P 10.910632 0.006459 -10.909709
P 10.910632 2.732272 -8.183897
P 13.636444 0.006459 -8.183897
P 10.910632 0.006459 -5.458084
P 10.910632 2.732272 -2.732272
P 13.636444 2.732272 -5.458084
P 13.636444 0.006459 -2.732272
P 10.910632 0.006459 -0.006459
P 10.910632 2.732272 2.719353
P 13.636444 2.732272 -0.006459
P 13.636444 0.006459 2.719353
P 10.910632 0.006459 5.445166
P 10.910632 2.732272 8.170978
P 13.636444 2.732272 5.445166
P 13.636444 0.006459 8.170978
P 10.910632 0.006459 10.896791
P 10.910632 2.732272 13.622603
P 13.636444 2.732272 10.896791
P 13.636444 0.006459 13.622603
P 10.910632 0.006459 16.348416
P 13.636444 2.732272 16.348416
P 10.910632 5.458084 -10.909709
P 13.636444 5.458084 -8.183897
P 10.910632 5.458084 -5.458084
P 10.910632 8.183897 -2.732272
P 13.636444 8.183897 -5.458084
P 13.636444 5.458084 -2.732272
P 10.910632 5.458084 -0.006459
P 10.910632 8.183897 2.719353
P 13.636444 8.183897 -0.006459
P 13.636444 5.458084 2.719353
P 10.910632 5.458084 5.445166
P 10.910632 8.183897 8.170978
P 13.636444 8.183897 5.445166
P 13.636444 5.458084 8.170978
P 10.910632 5.458084 10.896791
P 10.910632 8.183897 13.622603
P 13.636444 8.183897 10.896791
P 13.636444 5.458084 13.622603
P 10.910632 5.458084 16.348416
P 10.910632 8.183897 19.074228
P 13.636444 8.183897 16.348416
P 10.910632 5.458084 21.800041
P 13.636444 8.183897 21.800041
P 10.910632 10.909709 -5.458084
P 10.910632 13.635522 -2.732272
P 13.636444 10.909709 -2.732272
P 10.910632 10.909709 -0.006459
P 10.910632 13.635522 2.719353
P 13.636444 13.635522 -0.006459
P 13.636444 10.909709 2.719353
P 10.910632 10.909709 5.445166
P 10.910632 13.635522 8.170978
P 13.636444 13.635522 5.445166
P 13.636444 10.909709 8.170978
P 10.910632 10.909709 10.896791
P 10.910632 13.635522 13.622603
P 13.636444 13.635522 10.896791
P 13.636444 10.909709 13.622603
P 10.910632 10.909709 16.348416
P 10.910632 13.635522 19.074228
P 13.636444 13.635522 16.348416
P 13.636444 10.909709 19.074228
P 10.910632 10.909709 21.800041
P 13.636444 13.635522 21.800041
P 10.910632 19.087147 2.719353
P 13.636444 16.361334 2.719353
P 10.910632 16.361334 5.445166
P 10.910632 19.087147 8.170978
P 13.636444 16.361334 8.170978
P 10.910632 16.361334 10.896791
P 10.910632 19.087147 13.622603
P 13.636444 19.087147 10.896791
P 13.636444 16.361334 13.622603
P 10.910632 16.361334 16.348416
P 10.910632 19.087147 19.074228
P 13.636444 19.087147 16.348416
P 13.636444 16.361334 19.074228
P 10.910632 16.361334 21.800041
P 10.910632 21.812959 5.445166
P 13.636444 21.812959 8.170978
P 10.910632 21.812959 10.896791
P 13.636444 21.812959 13.622603
P 10.910632 21.812959 16.348416
P 16.362257 -19.074228 -19.087147
P 16.362257 -21.800041 -16.361334
P 16.362257 -19.074228 -13.635522
P 19.088069 -19.074228 -16.361334
P 16.362257 -21.800041 -10.909709
P 19.088069 -19.074228 -10.909709
P 16.362257 -16.348416 -21.812959
P 16.362257 -13.622603 -19.087147
P 19.088069 -16.348416 -19.087147
P 16.362257 -16.348416 -16.361334
P 16.362257 -13.622603 -13.635522
P 19.088069 -13.622603 -16.361334
P 19.088069 -16.348416 -13.635522
P 16.362257 -16.348416 -10.909709
P 16.362257 -13.622603 -8.183897
P 19.088069 -13.622603 -10.909709
P 19.088069 -16.348416 -8.183897
P 16.362257 -16.348416 -5.458084
P 19.088069 -13.622603 -5.458084
P 16.362257 -10.896791 -21.812959
P 16.362257 -8.170978 -19.087147
P 19.088069 -10.896791 -19.087147
P 16.362257 -10.896791 -16.361334
P 16.362257 -8.170978 -13.635522
P 19.088069 -10.896791 -13.635522
P 16.362257 -10.896791 -10.909709
P 16.362257 -8.170978 -8.183897
P 19.088069 -8.170978 -10.909709
P 19.088069 -10.896791 -8.183897
P 16.362257 -10.896791 -5.458084
P 16.362257 -8.170978 -2.732272
P 19.088069 -8.170978 -5.458084
P 16.362257 -10.896791 -0.006459
P 19.088069 -8.170978 -0.006459
P 16.362257 -5.445166 -16.361334
P 19.088069 -5.445166 -13.635522
P 16.362257 -5.445166 -10.909709
P 16.362257 -2.719353 -8.183897
P 19.088069 -2.719353 -10.909709
P 19.088069 -5.445166 -8.183897
P 16.362257 -5.445166 -5.458084
P 16.362257 -2.719353 -2.732272
P 19.088069 -2.719353 -5.458084
P 19.088069 -5.445166 -2.732272
P 16.362257 -5.445166 -0.006459
P 16.362257 -2.719353 2.719353
P 19.088069 -2.719353 -0.006459
P 19.088069 -5.445166 2.719353
P 16.362257 -5.445166 5.445166
P 19.088069 -2.719353 5.445166
P 16.362257 0.006459 -10.909709
P 19.088069 0.006459 -8.183897
P 16.362257 0.006459 -5.458084
P 16.362257 2.732272 -2.732272
P 19.088069 2.732272 -5.458084
P 19.088069 0.006459 -2.732272
P 16.362257 0.006459 -0.006459
P 16.362257 2.732272 2.719353
P 19.088069 2.732272 -0.006459
P 19.088069 0.006459 2.719353
P 16.362257 0.006459 5.445166
P 16.362257 2.732272 8.170978
P 19.088069 2.732272 5.445166
P 19.088069 0.006459 8.170978
P 16.362257 0.006459 10.896791
P 19.088069 2.732272 10.896791
P 16.362257 5.458084 -5.458084
P 16.362257 5.458084 -0.006459
P 16.362257 8.183897 2.719353
P 19.088069 8.183897 -0.006459
P 19.088069 5.458084 2.719353
P 16.362257 5.458084 5.445166
P 16.362257 8.183897 8.170978
P 19.088069 8.183897 5.445166
P 19.088069 5.458084 8.170978
P 16.362257 5.458084 10.896791
P 16.362257 8.183897 13.622603
P 19.088069 8.183897 10.896791
P 19.088069 5.458084 13.622603
P 16.362257 5.458084 16.348416
P 16.362257 8.183897 19.074228
P 16.362257 10.909709 -0.006459
P 16.362257 10.909709 5.445166
P 16.362257 13.635522 8.170978
P 19.088069 13.635522 5.445166
P 19.088069 10.909709 8.170978
P 16.362257 10.909709 10.896791
P 16.362257 13.635522 13.622603
P 19.088069 13.635522 10.896791
P 19.088069 10.909709 13.622603
P 16.362257 10.909709 16.348416
P 16.362257 13.635522 19.074228
P 19.088069 13.635522 16.348416
P 19.088069 10.909709 19.074228
P 16.362257 10.909709 21.800041
P 16.362257 16.361334 5.445166
P 19.088069 16.361334 8.170978
P 16.362257 16.361334 10.896791
P 16.362257 19.087147 13.622603
P 19.088069 19.087147 10.896791
P 19.088069 16.361334 13.622603
P 16.362257 16.361334 16.348416
P 16.362257 19.087147 19.074228
P 19.088069 19.087147 16.348416
P 19.088069 16.361334 19.074228
P 16.362257 16.361334 21.800041
P 16.362257 21.812959 10.896791
P 16.362257 21.812959 16.348416
P 21.813882 -16.348416 -16.361334
P 21.813882 -13.622603 -13.635522
P 21.813882 -16.348416 -10.909709
P 21.813882 -13.622603 -8.183897
P 21.813882 -10.896791 -16.361334
P 21.813882 -8.170978 -13.635522
P 21.813882 -10.896791 -10.909709
P 21.813882 -8.170978 -8.183897
P 21.813882 -10.896791 -5.458084
P 21.813882 -8.170978 -2.732272
P 21.813882 -5.445166 -10.909709
P 21.813882 -2.719353 -8.183897
P 21.813882 -5.445166 -5.458084
P 21.813882 -2.719353 -2.732272
P 21.813882 -5.445166 -0.006459
P 21.813882 -2.719353 2.719353
P 21.813882 0.006459 -5.458084
P 21.813882 2.732272 -2.732272
P 21.813882 0.006459 -0.006459
P 21.813882 2.732272 2.719353
P 21.813882 0.006459 5.445166
P 21.813882 2.732272 8.170978
P 21.813882 5.458084 -0.006459
P 21.813882 8.183897 2.719353
P 21.813882 5.458084 5.445166
P 21.813882 8.183897 8.170978
P 21.813882 5.458084 10.896791
P 21.813882 8.183897 13.622603
P 21.813882 10.909709 5.445166
P 21.813882 13.635522 8.170978
P 21.813882 10.909709 10.896791
P 21.813882 13.635522 13.622603
P 21.813882 10.909709 16.348416
P 21.813882 16.361334 10.896791
P 21.813882 16.361334 16.348416
Cl -24.524930 -13.622603 10.896791
Cl -24.524930 -16.348416 13.622603
Cl -24.524930 -13.622603 16.348416
Cl -24.524930 -8.170978 5.445166
Cl -24.524930 -10.896791 8.170978
Cl -24.524930 -8.170978 10.896791
Cl -24.524930 -10.896791 13.622603
Cl -24.524930 -2.719353 -0.006459
Cl -24.524930 -5.445166 2.719353
Cl -24.524930 -2.719353 5.445166
Cl -24.524930 -5.445166 8.170978
Cl -24.524930 2.732272 -5.458084
Cl -24.524930 0.006459 -2.732272
Cl -24.524930 2.732272 -0.006459
Cl -24.524930 0.006459 2.719353
Cl -24.524930 8.183897 -10.909709
Cl -24.524930 5.458084 -8.183897
Cl -24.524930 8.183897 -5.458084
Cl -24.524930 5.458084 -2.732272
Cl -24.524930 13.635522 -16.361334
Cl -24.524930 10.909709 -13.635522
Cl -24.524930 13.635522 -10.909709
Cl -24.524930 10.909709 -8.183897
Cl -24.524930 16.361334 -13.635522
Cl -21.799118 -19.074228 13.622603
Cl -19.073305 -21.800041 13.622603
Cl -21.799118 -13.622603 19.074228
Cl -19.073305 -13.622603 21.800041
Cl -21.799118 -8.170978 2.719353
Cl -19.073305 -10.896791 2.719353
Cl -19.073305 -8.170978 16.348416
Cl -21.799118 -2.719353 8.170978
Cl -19.073305 2.732272 -10.909709
Cl -19.073305 2.732272 5.445166
Cl -19.073305 8.183897 -16.361334
Cl -21.799118 13.635522 -19.087147
Cl -19.073305 13.635522 -21.812959
Cl -19.073305 13.635522 -5.458084
Cl -21.799118 19.087147 -13.635522
Cl -19.073305 21.812959 -13.635522
Cl -16.347493 -24.525853 13.622603
Cl -13.621680 -24.525853 10.896791
Cl -13.621680 -24.525853 16.348416
Cl -16.347493 -19.074228 8.170978
Cl -13.621680 -21.800041 19.074228
Cl -13.621680 -19.074228 21.800041
Cl -16.347493 -13.622603 2.719353
Cl -16.347493 -13.622603 24.525853
Cl -13.621680 -16.348416 24.525853
Cl -16.347493 -8.170978 -2.732272
Cl -13.621680 -10.896791 -2.732272
Cl -13.621680 -10.896791 24.525853
Cl -16.347493 -2.719353 -8.183897
Cl -16.347493 -2.719353 13.622603
Cl -13.621680 -5.445166 19.074228
Cl -16.347493 2.732272 -13.635522
Cl -13.621680 0.006459 -13.635522
Cl -16.347493 2.732272 8.170978
Cl -13.621680 5.458084 -19.087147
Cl -16.347493 8.183897 2.719353
Cl -16.347493 13.635522 -24.538772
Cl -13.621680 10.909709 -24.538772
Cl -16.347493 13.635522 -2.732272
Cl -13.621680 16.361334 -24.538772
Cl -13.621680 19.087147 -21.812959
Cl -16.347493 19.087147 -8.183897
Cl -13.621680 21.812959 -19.087147
Cl -16.347493 24.538772 -13.635522
Cl -13.621680 24.538772 -16.361334
Cl -13.621680 24.538772 -10.909709
Cl -10.895868 -24.525853 8.170978
Cl -8.170055 -24.525853 5.445166
Cl -10.895868 -24.525853 13.622603
Cl -8.170055 -24.525853 10.896791
Cl -10.895868 -19.074228 2.719353
Cl -8.170055 -16.348416 -2.732272
Cl -8.170055 -16.348416 19.074228
Cl -10.895868 -13.622603 24.525853
Cl -10.895868 -8.170978 -8.183897
Cl -10.895868 -8.170978 24.525853
Cl -8.170055 -10.896791 24.525853
Cl -8.170055 -5.445166 24.525853
Cl -10.895868 0.006459 -16.361334
Cl -10.895868 2.732272 13.622603
Cl -8.170055 0.006459 19.074228
Cl -10.895868 8.183897 -24.538772
Cl -8.170055 5.458084 -24.538772
Cl -10.895868 8.183897 8.170978
Cl -10.895868 13.635522 -24.538772
Cl -8.170055 10.909709 -24.538772
Cl -8.170055 16.361334 -19.087147
Cl -10.895868 16.361334 -0.006459
Cl -10.895868 24.538772 -13.635522
Cl -10.895868 24.538772 -8.183897
Cl -8.170055 24.538772 -10.909709
Cl -8.170055 24.538772 -5.458084
Cl -5.444243 -24.525853 2.719353
Cl -2.718430 -24.525853 -0.006459
Cl -5.444243 -24.525853 8.170978
Cl -2.718430 -24.525853 5.445166
Cl -2.718430 -19.074228 10.896791
Cl -5.444243 -16.348416 16.348416
Cl -5.444243 -10.896791 -10.909709
Cl -2.718430 -10.896791 19.074228
Cl -5.444243 -8.170978 24.525853
Cl -5.444243 -5.445166 -16.361334
Cl -5.444243 -2.719353 24.525853
Cl -2.718430 -5.445166 24.525853
Cl -5.444243 2.732272 -24.538772
Cl -2.718430 0.006459 -24.538772
Cl -2.718430 0.006459 24.525853
Cl -5.444243 8.183897 -24.538772
Cl -2.718430 5.458084 -24.538772
Cl -5.444243 5.458084 16.348416
Cl -2.718430 10.909709 -19.087147
Cl -5.444243 10.909709 10.896791
Cl -5.444243 16.361334 -16.361334
Cl -2.718430 19.087147 -10.909709
Cl -5.444243 16.361334 5.445166
Cl -5.444243 24.538772 -8.183897
Cl -5.444243 24.538772 -2.732272
Cl -2.718430 24.538772 -5.458084
Cl -2.718430 24.538772 -0.006459
Cl 0.007382 -24.525853 -2.732272
Cl 2.733195 -24.525853 -5.458084
Cl 0.007382 -24.525853 2.719353
Cl 2.733195 -24.525853 -0.006459
Cl 0.007382 -19.074228 -8.183897
Cl 2.733195 -19.074228 -10.909709
Cl 2.733195 -19.074228 5.445166
Cl 0.007382 -13.622603 -13.635522
Cl 2.733195 -13.622603 -16.361334
Cl 0.007382 -13.622603 13.622603
Cl 0.007382 -8.170978 -19.087147
Cl 0.007382 -8.170978 19.074228
Cl 0.007382 -2.719353 -24.538772
Cl 2.733195 -5.445166 -24.538772
Cl 0.007382 -2.719353 24.525853
Cl 0.007382 2.732272 -24.538772
Cl 2.733195 0.006459 -24.538772
Cl 0.007382 2.732272 24.525853
Cl 2.733195 0.006459 24.525853
Cl 2.733195 8.183897 -16.361334
Cl 0.007382 8.183897 19.074228
Cl 2.733195 5.458084 24.525853
Cl 0.007382 13.635522 -13.635522
Cl 2.733195 13.635522 -10.909709
Cl 0.007382 13.635522 13.622603
Cl 0.007382 19.087147 -8.183897
Cl 2.733195 19.087147 10.896791
Cl 0.007382 24.538772 -2.732272
Cl 0.007382 24.538772 2.719353
Cl 2.733195 24.538772 -0.006459
Cl 2.733195 24.538772 5.445166
Cl 5.459007 -24.525853 -8.183897
Cl 8.184820 -24.525853 -10.909709
Cl 5.459007 -24.525853 -2.732272
Cl 8.184820 -24.525853 -5.458084
Cl 5.459007 -16.348416 -16.361334
Cl 8.184820 -16.348416 2.719353
Cl 5.459007 -8.170978 -24.538772
Cl 8.184820 -10.896791 -24.538772
Cl 5.459007 -10.896791 10.896791
Cl 5.459007 -2.719353 -24.538772
Cl 8.184820 -5.445166 -24.538772
Cl 5.459007 -5.445166 16.348416
Cl 5.459007 2.732272 -19.087147
Cl 8.184820 2.732272 -16.361334
Cl 8.184820 0.006459 19.074228
Cl 5.459007 2.732272 24.525853
Cl 8.184820 8.183897 -10.909709
Cl 5.459007 8.183897 24.525853
Cl 8.184820 5.458084 24.525853
Cl 5.459007 10.909709 -10.909709
Cl 8.184820 13.635522 -5.458084
Cl 8.184820 10.909709 24.525853
Cl 5.459007 16.361334 -5.458084
Cl 5.459007 16.361334 16.348416
Cl 8.184820 19.087147 16.348416
Cl 5.459007 24.538772 2.719353
Cl 5.459007 24.538772 8.170978
Cl 8.184820 24.538772 5.445166
Cl 8.184820 24.538772 10.896791
Cl 10.910632 -24.525853 -13.635522
Cl 13.636444 -24.525853 -16.361334
Cl 10.910632 -24.525853 -8.183897
Cl 13.636444 -24.525853 -10.909709
Cl 13.636444 -19.074228 -21.812959
Cl 13.636444 -21.800041 -19.087147
Cl 10.910632 -19.074228 -2.732272
Cl 10.910632 -13.622603 -24.538772
Cl 13.636444 -16.348416 -24.538772
Cl 10.910632 -8.170978 -24.538772
Cl 13.636444 -10.896791 -24.538772
Cl 13.636444 -10.896791 2.719353
Cl 10.910632 -8.170978 8.170978
Cl 10.910632 -2.719353 -19.087147
Cl 13.636444 -5.445166 -19.087147
Cl 10.910632 -2.719353 13.622603
Cl 13.636444 2.732272 -10.909709
Cl 10.910632 2.732272 19.074228
Cl 10.910632 8.183897 -8.183897
Cl 13.636444 5.458084 19.074228
Cl 10.910632 8.183897 24.525853
Cl 10.910632 13.635522 24.525853
Cl 13.636444 10.909709 24.525853
Cl 10.910632 16.361334 -0.006459
Cl 13.636444 19.087147 5.445166
Cl 13.636444 19.087147 21.800041
Cl 13.636444 16.361334 24.525853
Cl 10.910632 24.538772 8.170978
Cl 10.910632 24.538772 13.622603
Cl 13.636444 24.538772 10.896791
Cl 13.636444 24.538772 16.348416
Cl 13.636444 21.812959 19.074228
Cl 16.362257 -24.525853 -13.635522
Cl 19.088069 -21.800041 -13.635522
Cl 16.362257 -19.074228 -8.183897
Cl 16.362257 -13.622603 -24.538772
Cl 19.088069 -13.622603 -21.812959
Cl 16.362257 -13.622603 -2.732272
Cl 19.088069 -8.170978 -16.361334
Cl 19.088069 -10.896791 -2.732272
Cl 16.362257 -8.170978 2.719353
Cl 16.362257 -2.719353 -13.635522
Cl 16.362257 -2.719353 8.170978
Cl 16.362257 2.732272 -8.183897
Cl 16.362257 2.732272 13.622603
Cl 16.362257 8.183897 -2.732272
Cl 19.088069 5.458084 -2.732272
Cl 19.088069 8.183897 16.348416
Cl 16.362257 13.635522 2.719353
Cl 19.088069 10.909709 2.719353
Cl 16.362257 13.635522 24.525853
Cl 19.088069 13.635522 21.800041
Cl 16.362257 19.087147 8.170978
Cl 16.362257 24.538772 13.622603
Cl 19.088069 21.812959 13.622603
Cl 21.813882 -19.074228 -13.635522
Cl 21.813882 -13.622603 -19.087147
Cl 24.539694 -13.622603 -16.361334
Cl 24.539694 -16.348416 -13.635522
Cl 24.539694 -13.622603 -10.909709
Cl 24.539694 -10.896791 -13.635522
Cl 24.539694 -8.170978 -10.909709
Cl 24.539694 -10.896791 -8.183897
Cl 24.539694 -8.170978 -5.458084
Cl 24.539694 -5.445166 -8.183897
Cl 24.539694 -2.719353 -5.458084
Cl 24.539694 -5.445166 -2.732272
Cl 24.539694 -2.719353 -0.006459
Cl 24.539694 0.006459 -2.732272
Cl 24.539694 2.732272 -0.006459
Cl 24.539694 0.006459 2.719353
Cl 24.539694 2.732272 5.445166
Cl 24.539694 5.458084 2.719353
Cl 24.539694 8.183897 5.445166
Cl 24.539694 5.458084 8.170978
Cl 24.539694 8.183897 10.896791
Cl 24.539694 10.909709 8.170978
Cl 24.539694 13.635522 10.896791
Cl 24.539694 10.909709 13.622603
Cl 21.813882 13.635522 19.074228
Cl 24.539694 13.635522 16.348416
Cl 21.813882 19.087147 13.622603
Cl 24.539694 16.361334 13.622603
Cl -21.799118 -19.074228 19.074228
