4143
CdTe-Te-Cd1960Te1737Cl446-reconstructed
Cd -24.625358 -24.627735 -1.646602
Cd -24.625358 -21.345621 -4.928716
Cd -27.907472 -18.063508 -4.928716
Cd -27.907472 -21.345621 -1.646602
Cd -24.625358 -18.063508 -1.646602
Cd -27.907472 -18.063508 1.635511
Cd -24.625358 -18.063508 4.917625
Cd -24.625358 -11.499281 -14.775056
Cd -24.625358 -14.781394 -11.492943
Cd -27.907472 -11.499281 -11.492943
Cd -27.907472 -14.781394 -8.210829
Cd -24.625358 -11.499281 -8.210829
Cd -24.625358 -14.781394 -4.928716
Cd -27.907472 -11.499281 -4.928716
Cd -27.907472 -14.781394 -1.646602
Cd -24.625358 -11.499281 -1.646602
Cd -24.625358 -14.781394 1.635511
Cd -27.907472 -11.499281 1.635511
Cd -27.907472 -14.781394 4.917625
Cd -24.625358 -11.499281 4.917625
Cd -24.625358 -14.781394 8.199738
Cd -27.907472 -11.499281 8.199738
Cd -24.625358 -4.935053 -21.339284
Cd -27.907472 -4.935053 -18.057170
Cd -27.907472 -8.217167 -14.775056
Cd -24.625358 -4.935053 -14.775056
Cd -24.625358 -8.217167 -11.492943
Cd -27.907472 -4.935053 -11.492943
Cd -27.907472 -8.217167 -8.210829
Cd -24.625358 -4.935053 -8.210829
Cd -24.625358 -8.217167 -4.928716
Cd -27.907472 -4.935053 -4.928716
Cd -27.907472 -8.217167 -1.646602
Cd -24.625358 -4.935053 -1.646602
Cd -24.625358 -8.217167 1.635511
Cd -27.907472 -4.935053 1.635511
Cd -27.907472 -8.217167 4.917625
Cd -24.625358 -4.935053 4.917625
Cd -24.625358 -8.217167 8.199738
Cd -27.907472 -4.935053 8.199738
Cd -27.907472 -8.217167 11.481852
Cd -24.625358 -4.935053 11.481852
Cd -24.625358 -8.217167 14.763966
Cd -27.907472 -4.935053 14.763966
Cd -24.625358 -4.935053 18.046079
Cd -24.625358 -1.652940 -24.621397
Cd -27.907472 -1.652940 -21.339284
Cd -24.625358 -1.652940 -18.057170
Cd -27.907472 1.629174 -18.057170
Cd -27.907472 -1.652940 -14.775056
Cd -24.625358 1.629174 -14.775056
Cd -24.625358 -1.652940 -11.492943
Cd -27.907472 1.629174 -11.492943
Cd -27.907472 -1.652940 -8.210829
Cd -24.625358 1.629174 -8.210829
Cd -24.625358 -1.652940 -4.928716
Cd -27.907472 1.629174 -4.928716
Cd -27.907472 -1.652940 -1.646602
Cd -24.625358 1.629174 -1.646602
Cd -24.625358 -1.652940 1.635511
Cd -27.907472 1.629174 1.635511
Cd -27.907472 -1.652940 4.917625
Cd -24.625358 1.629174 4.917625
Cd -24.625358 -1.652940 8.199738
Cd -27.907472 1.629174 8.199738
Cd -27.907472 -1.652940 11.481852
Cd -24.625358 1.629174 11.481852
Cd -24.625358 -1.652940 14.763966
Cd -27.907472 1.629174 14.763966
Cd -27.907472 -1.652940 18.046079
Cd -24.625358 1.629174 18.046079
Cd -27.907472 1.629174 21.328193
Cd -24.625358 1.629174 24.610306
Cd -24.625358 4.911287 -18.057170
Cd -27.907472 4.911287 -14.775056
Cd -24.625358 8.193401 -14.775056
Cd -24.625358 4.911287 -11.492943
Cd -27.907472 8.193401 -11.492943
Cd -27.907472 4.911287 -8.210829
Cd -24.625358 8.193401 -8.210829
Cd -24.625358 4.911287 -4.928716
Cd -27.907472 8.193401 -4.928716
Cd -27.907472 4.911287 -1.646602
Cd -24.625358 8.193401 -1.646602
Cd -24.625358 4.911287 1.635511
Cd -27.907472 8.193401 1.635511
Cd -27.907472 4.911287 4.917625
Cd -24.625358 8.193401 4.917625
Cd -24.625358 4.911287 8.199738
Cd -27.907472 8.193401 8.199738
Cd -27.907472 4.911287 11.481852
Cd -24.625358 8.193401 11.481852
Cd -24.625358 4.911287 14.763966
Cd -27.907472 8.193401 14.763966
Cd -27.907472 4.911287 18.046079
Cd -24.625358 4.911287 21.328193
Cd -27.907472 11.475514 -8.210829
Cd -24.625358 14.757628 -8.210829
Cd -24.625358 11.475514 -4.928716
Cd -27.907472 14.757628 -4.928716
Cd -27.907472 11.475514 -1.646602
Cd -24.625358 14.757628 -1.646602
Cd -24.625358 11.475514 1.635511
Cd -27.907472 14.757628 1.635511
Cd -27.907472 11.475514 4.917625
Cd -24.625358 14.757628 4.917625
Cd -24.625358 11.475514 8.199738
Cd -27.907472 14.757628 8.199738
Cd -27.907472 11.475514 11.481852
Cd -24.625358 14.757628 11.481852
Cd -24.625358 11.475514 14.763966
Cd -24.625358 18.039741 -4.928716
Cd -27.907472 18.039741 -1.646602
Cd -24.625358 18.039741 1.635511
Cd -27.907472 21.321855 1.635511
Cd -27.907472 18.039741 4.917625
Cd -24.625358 21.321855 4.917625
Cd -24.625358 24.603969 1.635511
Cd -18.061131 -24.627735 -8.210829
Cd -18.061131 -27.909848 -4.928716
Cd -21.343245 -27.909848 -1.646602
Cd -18.061131 -24.627735 -1.646602
Cd -18.061131 -27.909848 1.635511
Cd -21.343245 -24.627735 1.635511
Cd -18.061131 -18.063508 -14.775056
Cd -21.343245 -18.063508 -11.492943
Cd -21.343245 -21.345621 -8.210829
Cd -18.061131 -18.063508 -8.210829
Cd -18.061131 -21.345621 -4.928716
Cd -21.343245 -18.063508 -4.928716
Cd -21.343245 -21.345621 -1.646602
Cd -18.061131 -18.063508 -1.646602
Cd -18.061131 -21.345621 1.635511
Cd -21.343245 -18.063508 1.635511
Cd -21.343245 -21.345621 4.917625
Cd -18.061131 -18.063508 4.917625
Cd -18.061131 -21.345621 8.199738
Cd -18.061131 -18.063508 11.481852
Cd -18.061131 -14.781394 -18.057170
Cd -21.343245 -11.499281 -18.057170
Cd -18.061131 -11.499281 -14.775056
Cd -18.061131 -14.781394 -11.492943
Cd -21.343245 -11.499281 -11.492943
Cd -21.343245 -14.781394 -8.210829
Cd -18.061131 -11.499281 -8.210829
Cd -18.061131 -14.781394 -4.928716
Cd -21.343245 -11.499281 -4.928716
Cd -21.343245 -14.781394 -1.646602
Cd -18.061131 -11.499281 -1.646602
Cd -18.061131 -14.781394 1.635511
Cd -21.343245 -11.499281 1.635511
Cd -21.343245 -14.781394 4.917625
Cd -18.061131 -11.499281 4.917625
Cd -18.061131 -14.781394 8.199738
Cd -21.343245 -11.499281 8.199738
Cd -21.343245 -14.781394 11.481852
Cd -18.061131 -11.499281 11.481852
Cd -18.061131 -14.781394 14.763966
Cd -21.343245 -11.499281 14.763966
Cd -18.061131 -11.499281 18.046079
Cd -18.061131 -4.935053 -27.903511
Cd -18.061131 -8.217167 -24.621397
Cd -21.343245 -8.217167 -21.339284
Cd -18.061131 -4.935053 -21.339284
Cd -18.061131 -8.217167 -18.057170
Cd -21.343245 -4.935053 -18.057170
Cd -21.343245 -8.217167 -14.775056
Cd -18.061131 -4.935053 -14.775056
Cd -18.061131 -8.217167 -11.492943
Cd -21.343245 -4.935053 -11.492943
Cd -21.343245 -8.217167 -8.210829
Cd -18.061131 -4.935053 -8.210829
Cd -18.061131 -8.217167 -4.928716
Cd -21.343245 -4.935053 -4.928716
Cd -21.343245 -8.217167 -1.646602
Cd -18.061131 -4.935053 -1.646602
Cd -18.061131 -8.217167 1.635511
Cd -21.343245 -4.935053 1.635511
Cd -21.343245 -8.217167 4.917625
Cd -18.061131 -4.935053 4.917625
Cd -18.061131 -8.217167 8.199738
Cd -21.343245 -4.935053 8.199738
Cd -21.343245 -8.217167 11.481852
Cd -18.061131 -4.935053 11.481852
Cd -18.061131 -8.217167 14.763966
Cd -21.343245 -4.935053 14.763966
Cd -18.061131 -4.935053 18.046079
Cd -18.061131 -8.217167 21.328193
Cd -21.343245 -4.935053 21.328193
Cd -21.343245 -1.652940 -27.903511
Cd -18.061131 1.629174 -27.903511
Cd -18.061131 -1.652940 -24.621397
Cd -21.343245 1.629174 -24.621397
Cd -21.343245 -1.652940 -21.339284
Cd -18.061131 1.629174 -21.339284
Cd -18.061131 -1.652940 -18.057170
Cd -21.343245 1.629174 -18.057170
Cd -21.343245 -1.652940 -14.775056
Cd -18.061131 1.629174 -14.775056
Cd -18.061131 -1.652940 -11.492943
Cd -21.343245 1.629174 -11.492943
Cd -21.343245 -1.652940 -8.210829
Cd -18.061131 1.629174 -8.210829
Cd -18.061131 -1.652940 -4.928716
Cd -21.343245 1.629174 -4.928716
Cd -21.343245 -1.652940 -1.646602
Cd -18.061131 1.629174 -1.646602
Cd -18.061131 -1.652940 1.635511
Cd -21.343245 1.629174 1.635511
Cd -21.343245 -1.652940 4.917625
Cd -18.061131 1.629174 4.917625
Cd -18.061131 -1.652940 8.199738
Cd -21.343245 1.629174 8.199738
Cd -21.343245 -1.652940 11.481852
Cd -18.061131 1.629174 11.481852
Cd -18.061131 -1.652940 14.763966
Cd -21.343245 1.629174 14.763966
Cd -21.343245 -1.652940 18.046079
Cd -18.061131 1.629174 18.046079
Cd -18.061131 -1.652940 21.328193
Cd -21.343245 1.629174 21.328193
Cd -21.343245 -1.652940 24.610306
Cd -18.061131 1.629174 24.610306
Cd -18.061131 -1.652940 27.892420
Cd -21.343245 1.629174 27.892420
Cd -21.343245 4.911287 -21.339284
Cd -18.061131 8.193401 -21.339284
Cd -18.061131 4.911287 -18.057170
Cd -21.343245 4.911287 -14.775056
Cd -18.061131 8.193401 -14.775056
Cd -18.061131 4.911287 -11.492943
Cd -21.343245 8.193401 -11.492943
Cd -21.343245 4.911287 -8.210829
Cd -18.061131 8.193401 -8.210829
Cd -18.061131 4.911287 -4.928716
Cd -21.343245 8.193401 -4.928716
Cd -21.343245 4.911287 -1.646602
Cd -18.061131 8.193401 -1.646602
Cd -18.061131 4.911287 1.635511
Cd -21.343245 8.193401 1.635511
Cd -21.343245 4.911287 4.917625
Cd -18.061131 8.193401 4.917625
Cd -18.061131 4.911287 8.199738
Cd -21.343245 8.193401 8.199738
Cd -21.343245 4.911287 11.481852
Cd -18.061131 8.193401 11.481852
Cd -18.061131 4.911287 14.763966
Cd -21.343245 8.193401 14.763966
Cd -21.343245 4.911287 18.046079
Cd -18.061131 8.193401 18.046079
Cd -18.061131 4.911287 21.328193
Cd -21.343245 8.193401 21.328193
Cd -18.061131 8.193401 24.610306
Cd -18.061131 4.911287 27.892420
Cd -18.061131 11.475514 -18.057170
Cd -21.343245 11.475514 -14.775056
Cd -18.061131 14.757628 -14.775056
Cd -18.061131 11.475514 -11.492943
Cd -21.343245 14.757628 -11.492943
Cd -21.343245 11.475514 -8.210829
Cd -18.061131 14.757628 -8.210829
Cd -18.061131 11.475514 -4.928716
Cd -21.343245 14.757628 -4.928716
Cd -21.343245 11.475514 -1.646602
Cd -18.061131 14.757628 -1.646602
Cd -18.061131 11.475514 1.635511
Cd -21.343245 14.757628 1.635511
Cd -21.343245 11.475514 4.917625
Cd -18.061131 14.757628 4.917625
Cd -18.061131 11.475514 8.199738
Cd -21.343245 14.757628 8.199738
Cd -21.343245 11.475514 11.481852
Cd -18.061131 14.757628 11.481852
Cd -18.061131 11.475514 14.763966
Cd -21.343245 11.475514 18.046079
Cd -18.061131 14.757628 18.046079
Cd -18.061131 18.039741 -11.492943
Cd -18.061131 21.321855 -8.210829
Cd -18.061131 18.039741 -4.928716
Cd -21.343245 21.321855 -4.928716
Cd -21.343245 18.039741 -1.646602
Cd -18.061131 21.321855 -1.646602
Cd -18.061131 18.039741 1.635511
Cd -21.343245 21.321855 1.635511
Cd -21.343245 18.039741 4.917625
Cd -18.061131 21.321855 4.917625
Cd -18.061131 18.039741 8.199738
Cd -21.343245 21.321855 8.199738
Cd -21.343245 18.039741 11.481852
Cd -18.061131 18.039741 14.763966
Cd -21.343245 24.603969 -1.646602
Cd -18.061131 27.886082 -1.646602
Cd -18.061131 24.603969 1.635511
Cd -21.343245 27.886082 1.635511
Cd -18.061131 27.886082 4.917625
Cd -18.061131 24.603969 8.199738
Cd -11.496904 -27.909848 -11.492943
Cd -14.779017 -24.627735 -11.492943
Cd -14.779017 -27.909848 -8.210829
Cd -11.496904 -24.627735 -8.210829
Cd -11.496904 -27.909848 -4.928716
Cd -14.779017 -24.627735 -4.928716
Cd -14.779017 -27.909848 -1.646602
Cd -11.496904 -24.627735 -1.646602
Cd -11.496904 -27.909848 1.635511
Cd -14.779017 -24.627735 1.635511
Cd -14.779017 -27.909848 4.917625
Cd -11.496904 -24.627735 4.917625
Cd -11.496904 -27.909848 8.199738
Cd -14.779017 -24.627735 8.199738
Cd -11.496904 -24.627735 11.481852
Cd -11.496904 -18.063508 -21.339284
Cd -11.496904 -21.345621 -18.057170
Cd -14.779017 -21.345621 -14.775056
Cd -11.496904 -18.063508 -14.775056
Cd -11.496904 -21.345621 -11.492943
Cd -14.779017 -18.063508 -11.492943
Cd -14.779017 -21.345621 -8.210829
Cd -11.496904 -18.063508 -8.210829
Cd -11.496904 -21.345621 -4.928716
Cd -14.779017 -18.063508 -4.928716
Cd -14.779017 -21.345621 -1.646602
Cd -11.496904 -18.063508 -1.646602
Cd -11.496904 -21.345621 1.635511
Cd -14.779017 -18.063508 1.635511
Cd -14.779017 -21.345621 4.917625
Cd -11.496904 -18.063508 4.917625
Cd -11.496904 -21.345621 8.199738
Cd -14.779017 -18.063508 8.199738
Cd -11.496904 -18.063508 11.481852
Cd -11.496904 -21.345621 14.763966
Cd -14.779017 -18.063508 14.763966
Cd -11.496904 -18.063508 18.046079
Cd -11.496904 -11.499281 -27.903511
Cd -14.779017 -11.499281 -24.621397
Cd -14.779017 -14.781394 -21.339284
Cd -11.496904 -11.499281 -21.339284
Cd -11.496904 -14.781394 -18.057170
Cd -14.779017 -11.499281 -18.057170
Cd -14.779017 -14.781394 -14.775056
Cd -11.496904 -11.499281 -14.775056
Cd -11.496904 -14.781394 -11.492943
Cd -14.779017 -11.499281 -11.492943
Cd -14.779017 -14.781394 -8.210829
Cd -11.496904 -11.499281 -8.210829
Cd -11.496904 -14.781394 -4.928716
Cd -14.779017 -11.499281 -4.928716
Cd -14.779017 -14.781394 -1.646602
Cd -11.496904 -11.499281 -1.646602
Cd -11.496904 -14.781394 1.635511
Cd -14.779017 -11.499281 1.635511
Cd -14.779017 -14.781394 4.917625
Cd -11.496904 -11.499281 4.917625
Cd -11.496904 -14.781394 8.199738
Cd -14.779017 -11.499281 8.199738
Cd -14.779017 -14.781394 11.481852
Cd -11.496904 -11.499281 11.481852
Cd -11.496904 -14.781394 14.763966
Cd -14.779017 -11.499281 14.763966
Cd -14.779017 -14.781394 18.046079
Cd -11.496904 -11.499281 18.046079
Cd -11.496904 -14.781394 21.328193
Cd -14.779017 -11.499281 21.328193
Cd -11.496904 -11.499281 24.610306
Cd -14.779017 -8.217167 -27.903511
Cd -11.496904 -4.935053 -27.903511
Cd -11.496904 -8.217167 -24.621397
Cd -14.779017 -4.935053 -24.621397
Cd -14.779017 -8.217167 -21.339284
Cd -11.496904 -4.935053 -21.339284
Cd -11.496904 -8.217167 -18.057170
Cd -14.779017 -4.935053 -18.057170
Cd -14.779017 -8.217167 -14.775056
Cd -11.496904 -4.935053 -14.775056
Cd -11.496904 -8.217167 -11.492943
Cd -14.779017 -4.935053 -11.492943
Cd -14.779017 -8.217167 -8.210829
Cd -11.496904 -4.935053 -8.210829
Cd -11.496904 -8.217167 -4.928716
Cd -14.779017 -4.935053 -4.928716
Cd -14.779017 -8.217167 -1.646602
Cd -11.496904 -4.935053 -1.646602
Cd -11.496904 -8.217167 1.635511
Cd -14.779017 -4.935053 1.635511
Cd -14.779017 -8.217167 4.917625
Cd -11.496904 -4.935053 4.917625
Cd -11.496904 -8.217167 8.199738
Cd -14.779017 -4.935053 8.199738
Cd -14.779017 -8.217167 11.481852
Cd -11.496904 -4.935053 11.481852
Cd -11.496904 -8.217167 14.763966
Cd -14.779017 -4.935053 14.763966
Cd -14.779017 -8.217167 18.046079
Cd -11.496904 -4.935053 18.046079
Cd -11.496904 -8.217167 21.328193
Cd -14.779017 -4.935053 21.328193
Cd -14.779017 -8.217167 24.610306
Cd -11.496904 -4.935053 24.610306
Cd -11.496904 -8.217167 27.892420
Cd -14.779017 -4.935053 27.892420
Cd -14.779017 -1.652940 -27.903511
Cd -11.496904 1.629174 -27.903511
Cd -11.496904 -1.652940 -24.621397
Cd -14.779017 1.629174 -24.621397
Cd -14.779017 -1.652940 -21.339284
Cd -11.496904 1.629174 -21.339284
Cd -11.496904 -1.652940 -18.057170
Cd -14.779017 1.629174 -18.057170
Cd -14.779017 -1.652940 -14.775056
Cd -11.496904 1.629174 -14.775056
Cd -11.496904 -1.652940 -11.492943
Cd -14.779017 1.629174 -11.492943
Cd -14.779017 -1.652940 -8.210829
Cd -11.496904 1.629174 -8.210829
Cd -11.496904 -1.652940 -4.928716
Cd -14.779017 1.629174 -4.928716
Cd -14.779017 -1.652940 -1.646602
Cd -11.496904 1.629174 -1.646602
Cd -11.496904 -1.652940 1.635511
Cd -14.779017 1.629174 1.635511
Cd -14.779017 -1.652940 4.917625
Cd -11.496904 1.629174 4.917625
Cd -11.496904 -1.652940 8.199738
Cd -14.779017 1.629174 8.199738
Cd -14.779017 -1.652940 11.481852
Cd -11.496904 1.629174 11.481852
Cd -11.496904 -1.652940 14.763966
Cd -14.779017 1.629174 14.763966
Cd -14.779017 -1.652940 18.046079
Cd -11.496904 1.629174 18.046079
Cd -11.496904 -1.652940 21.328193
Cd -14.779017 1.629174 21.328193
Cd -14.779017 -1.652940 24.610306
Cd -11.496904 1.629174 24.610306
Cd -11.496904 -1.652940 27.892420
Cd -14.779017 1.629174 27.892420
Cd -14.779017 4.911287 -27.903511
Cd -11.496904 8.193401 -27.903511
Cd -11.496904 4.911287 -24.621397
Cd -14.779017 8.193401 -24.621397
Cd -14.779017 4.911287 -21.339284
Cd -11.496904 8.193401 -21.339284
Cd -11.496904 4.911287 -18.057170
Cd -14.779017 8.193401 -18.057170
Cd -14.779017 4.911287 -14.775056
Cd -11.496904 8.193401 -14.775056
Cd -11.496904 4.911287 -11.492943
Cd -14.779017 8.193401 -11.492943
Cd -14.779017 4.911287 -8.210829
Cd -11.496904 8.193401 -8.210829
Cd -11.496904 4.911287 -4.928716
Cd -14.779017 8.193401 -4.928716
Cd -14.779017 4.911287 -1.646602
Cd -11.496904 8.193401 -1.646602
Cd -11.496904 4.911287 1.635511
Cd -14.779017 8.193401 1.635511
Cd -14.779017 4.911287 4.917625
Cd -11.496904 8.193401 4.917625
Cd -11.496904 4.911287 8.199738
Cd -14.779017 8.193401 8.199738
Cd -14.779017 4.911287 11.481852
Cd -11.496904 8.193401 11.481852
Cd -11.496904 4.911287 14.763966
Cd -14.779017 8.193401 14.763966
Cd -14.779017 4.911287 18.046079
Cd -11.496904 8.193401 18.046079
Cd -11.496904 4.911287 21.328193
Cd -14.779017 8.193401 21.328193
Cd -14.779017 4.911287 24.610306
Cd -11.496904 8.193401 24.610306
Cd -11.496904 4.911287 27.892420
Cd -14.779017 8.193401 27.892420
Cd -11.496904 11.475514 -24.621397
Cd -11.496904 14.757628 -21.339284
Cd -11.496904 11.475514 -18.057170
Cd -14.779017 14.757628 -18.057170
Cd -14.779017 11.475514 -14.775056
Cd -11.496904 14.757628 -14.775056
Cd -11.496904 11.475514 -11.492943
Cd -14.779017 14.757628 -11.492943
Cd -14.779017 11.475514 -8.210829
Cd -11.496904 14.757628 -8.210829
Cd -11.496904 11.475514 -4.928716
Cd -14.779017 14.757628 -4.928716
Cd -14.779017 11.475514 -1.646602
Cd -11.496904 14.757628 -1.646602
Cd -11.496904 11.475514 1.635511
Cd -14.779017 14.757628 1.635511
Cd -14.779017 11.475514 4.917625
Cd -11.496904 14.757628 4.917625
Cd -11.496904 11.475514 8.199738
Cd -14.779017 14.757628 8.199738
Cd -14.779017 11.475514 11.481852
Cd -11.496904 14.757628 11.481852
Cd -11.496904 11.475514 14.763966
Cd -14.779017 14.757628 14.763966
Cd -14.779017 11.475514 18.046079
Cd -11.496904 14.757628 18.046079
Cd -11.496904 11.475514 21.328193
Cd -14.779017 14.757628 21.328193
Cd -14.779017 11.475514 24.610306
Cd -11.496904 11.475514 27.892420
Cd -11.496904 18.039741 -18.057170
Cd -14.779017 18.039741 -14.775056
Cd -11.496904 21.321855 -14.775056
Cd -11.496904 18.039741 -11.492943
Cd -14.779017 21.321855 -11.492943
Cd -14.779017 18.039741 -8.210829
Cd -11.496904 21.321855 -8.210829
Cd -11.496904 18.039741 -4.928716
Cd -14.779017 21.321855 -4.928716
Cd -14.779017 18.039741 -1.646602
Cd -11.496904 21.321855 -1.646602
Cd -11.496904 18.039741 1.635511
Cd -14.779017 21.321855 1.635511
Cd -14.779017 18.039741 4.917625
Cd -11.496904 21.321855 4.917625
Cd -11.496904 18.039741 8.199738
Cd -14.779017 21.321855 8.199738
Cd -14.779017 18.039741 11.481852
Cd -11.496904 21.321855 11.481852
Cd -11.496904 18.039741 14.763966
Cd -14.779017 21.321855 14.763966
Cd -11.496904 21.321855 18.046079
Cd -11.496904 18.039741 21.328193
Cd -11.496904 24.603969 -11.492943
Cd -14.779017 24.603969 -8.210829
Cd -11.496904 27.886082 -8.210829
Cd -11.496904 24.603969 -4.928716
Cd -14.779017 27.886082 -4.928716
Cd -14.779017 24.603969 -1.646602
Cd -11.496904 27.886082 -1.646602
Cd -11.496904 24.603969 1.635511
Cd -14.779017 27.886082 1.635511
Cd -14.779017 24.603969 4.917625
Cd -11.496904 27.886082 4.917625
Cd -11.496904 24.603969 8.199738
Cd -14.779017 27.886082 8.199738
Cd -14.779017 24.603969 11.481852
Cd -11.496904 27.886082 11.481852
Cd -4.932677 -24.627735 -21.339284
Cd -4.932677 -27.909848 -18.057170
Cd -8.214790 -24.627735 -18.057170
Cd -8.214790 -27.909848 -14.775056
Cd -4.932677 -24.627735 -14.775056
Cd -4.932677 -27.909848 -11.492943
Cd -8.214790 -24.627735 -11.492943
Cd -8.214790 -27.909848 -8.210829
Cd -4.932677 -24.627735 -8.210829
Cd -4.932677 -27.909848 -4.928716
Cd -8.214790 -24.627735 -4.928716
Cd -8.214790 -27.909848 -1.646602
Cd -4.932677 -24.627735 -1.646602
Cd -4.932677 -27.909848 1.635511
Cd -8.214790 -24.627735 1.635511
Cd -8.214790 -27.909848 4.917625
Cd -4.932677 -24.627735 4.917625
Cd -4.932677 -27.909848 8.199738
Cd -8.214790 -24.627735 8.199738
Cd -8.214790 -27.909848 11.481852
Cd -4.932677 -24.627735 11.481852
Cd -4.932677 -27.909848 14.763966
Cd -4.932677 -24.627735 18.046079
Cd -4.932677 -18.063508 -27.903511
Cd -4.932677 -21.345621 -24.621397
Cd -8.214790 -18.063508 -24.621397
Cd -4.932677 -18.063508 -21.339284
Cd -4.932677 -21.345621 -18.057170
Cd -8.214790 -18.063508 -18.057170
Cd -8.214790 -21.345621 -14.775056
Cd -4.932677 -18.063508 -14.775056
Cd -4.932677 -21.345621 -11.492943
Cd -8.214790 -18.063508 -11.492943
Cd -8.214790 -21.345621 -8.210829
Cd -4.932677 -18.063508 -8.210829
Cd -4.932677 -21.345621 -4.928716
Cd -8.214790 -18.063508 -4.928716
Cd -8.214790 -21.345621 -1.646602
Cd -4.932677 -18.063508 -1.646602
Cd -4.932677 -21.345621 1.635511
Cd -8.214790 -18.063508 1.635511
Cd -8.214790 -21.345621 4.917625
Cd -4.932677 -18.063508 4.917625
Cd -4.932677 -21.345621 8.199738
Cd -8.214790 -18.063508 8.199738
Cd -8.214790 -21.345621 11.481852
Cd -4.932677 -18.063508 11.481852
Cd -4.932677 -21.345621 14.763966
Cd -8.214790 -18.063508 14.763966
Cd -8.214790 -21.345621 18.046079
Cd -4.932677 -18.063508 18.046079
Cd -8.214790 -18.063508 21.328193
Cd -4.932677 -18.063508 24.610306
Cd -8.214790 -14.781394 -27.903511
Cd -4.932677 -11.499281 -27.903511
Cd -4.932677 -14.781394 -24.621397
Cd -8.214790 -11.499281 -24.621397
Cd -8.214790 -14.781394 -21.339284
Cd -4.932677 -11.499281 -21.339284
Cd -4.932677 -14.781394 -18.057170
Cd -8.214790 -11.499281 -18.057170
Cd -8.214790 -14.781394 -14.775056
Cd -4.932677 -11.499281 -14.775056
Cd -4.932677 -14.781394 -11.492943
Cd -8.214790 -11.499281 -11.492943
Cd -8.214790 -14.781394 -8.210829
Cd -4.932677 -11.499281 -8.210829
Cd -4.932677 -14.781394 -4.928716
Cd -8.214790 -11.499281 -4.928716
Cd -8.214790 -14.781394 -1.646602
Cd -4.932677 -11.499281 -1.646602
Cd -4.932677 -14.781394 1.635511
Cd -8.214790 -11.499281 1.635511
Cd -8.214790 -14.781394 4.917625
Cd -4.932677 -11.499281 4.917625
Cd -4.932677 -14.781394 8.199738
Cd -8.214790 -11.499281 8.199738
Cd -8.214790 -14.781394 11.481852
Cd -4.932677 -11.499281 11.481852
Cd -4.932677 -14.781394 14.763966
Cd -8.214790 -11.499281 14.763966
Cd -8.214790 -14.781394 18.046079
Cd -4.932677 -11.499281 18.046079
Cd -4.932677 -14.781394 21.328193
Cd -8.214790 -11.499281 21.328193
Cd -4.932677 -11.499281 24.610306
Cd -4.932677 -14.781394 27.892420
Cd -8.214790 -11.499281 27.892420
Cd -8.214790 -8.217167 -27.903511
Cd -4.932677 -4.935053 -27.903511
Cd -4.932677 -8.217167 -24.621397
Cd -8.214790 -4.935053 -24.621397
Cd -8.214790 -8.217167 -21.339284
Cd -4.932677 -4.935053 -21.339284
Cd -4.932677 -8.217167 -18.057170
Cd -8.214790 -4.935053 -18.057170
Cd -8.214790 -8.217167 -14.775056
Cd -4.932677 -4.935053 -14.775056
Cd -4.932677 -8.217167 -11.492943
Cd -8.214790 -4.935053 -11.492943
Cd -8.214790 -8.217167 -8.210829
Cd -4.932677 -4.935053 -8.210829
Cd -4.932677 -8.217167 -4.928716
Cd -8.214790 -4.935053 -4.928716
Cd -8.214790 -8.217167 -1.646602
Cd -4.932677 -4.935053 -1.646602
Cd -4.932677 -8.217167 1.635511
Cd -8.214790 -4.935053 1.635511
Cd -8.214790 -8.217167 4.917625
Cd -4.932677 -4.935053 4.917625
Cd -4.932677 -8.217167 8.199738
Cd -8.214790 -4.935053 8.199738
Cd -8.214790 -8.217167 11.481852
Cd -4.932677 -4.935053 11.481852
Cd -4.932677 -8.217167 14.763966
Cd -8.214790 -4.935053 14.763966
Cd -8.214790 -8.217167 18.046079
Cd -4.932677 -4.935053 18.046079
Cd -4.932677 -8.217167 21.328193
Cd -8.214790 -4.935053 21.328193
Cd -8.214790 -8.217167 24.610306
Cd -4.932677 -4.935053 24.610306
Cd -4.932677 -8.217167 27.892420
Cd -8.214790 -4.935053 27.892420
Cd -8.214790 -1.652940 -27.903511
Cd -4.932677 1.629174 -27.903511
Cd -4.932677 -1.652940 -24.621397
Cd -8.214790 1.629174 -24.621397
Cd -8.214790 -1.652940 -21.339284
Cd -4.932677 1.629174 -21.339284
Cd -4.932677 -1.652940 -18.057170
Cd -8.214790 1.629174 -18.057170
Cd -8.214790 -1.652940 -14.775056
Cd -4.932677 1.629174 -14.775056
Cd -4.932677 -1.652940 -11.492943
Cd -8.214790 1.629174 -11.492943
Cd -8.214790 -1.652940 -8.210829
Cd -4.932677 1.629174 -8.210829
Cd -4.932677 -1.652940 -4.928716
Cd -8.214790 1.629174 -4.928716
Cd -8.214790 -1.652940 -1.646602
Cd -4.932677 1.629174 -1.646602
Cd -4.932677 -1.652940 1.635511
Cd -8.214790 1.629174 1.635511
Cd -8.214790 -1.652940 4.917625
Cd -4.932677 1.629174 4.917625
Cd -4.932677 -1.652940 8.199738
Cd -8.214790 1.629174 8.199738
Cd -8.214790 -1.652940 11.481852
Cd -4.932677 1.629174 11.481852
Cd -4.932677 -1.652940 14.763966
Cd -8.214790 1.629174 14.763966
Cd -8.214790 -1.652940 18.046079
Cd -4.932677 1.629174 18.046079
Cd -4.932677 -1.652940 21.328193
Cd -8.214790 1.629174 21.328193
Cd -8.214790 -1.652940 24.610306
Cd -4.932677 1.629174 24.610306
Cd -4.932677 -1.652940 27.892420
Cd -8.214790 1.629174 27.892420
Cd -8.214790 4.911287 -27.903511
Cd -4.932677 8.193401 -27.903511
Cd -4.932677 4.911287 -24.621397
Cd -8.214790 8.193401 -24.621397
Cd -8.214790 4.911287 -21.339284
Cd -4.932677 8.193401 -21.339284
Cd -4.932677 4.911287 -18.057170
Cd -8.214790 8.193401 -18.057170
Cd -8.214790 4.911287 -14.775056
Cd -4.932677 8.193401 -14.775056
Cd -4.932677 4.911287 -11.492943
Cd -8.214790 8.193401 -11.492943
Cd -8.214790 4.911287 -8.210829
Cd -4.932677 8.193401 -8.210829
Cd -4.932677 4.911287 -4.928716
Cd -8.214790 8.193401 -4.928716
Cd -8.214790 4.911287 -1.646602
Cd -4.932677 8.193401 -1.646602
Cd -4.932677 4.911287 1.635511
Cd -8.214790 8.193401 1.635511
Cd -8.214790 4.911287 4.917625
Cd -4.932677 8.193401 4.917625
Cd -4.932677 4.911287 8.199738
Cd -8.214790 8.193401 8.199738
Cd -8.214790 4.911287 11.481852
Cd -4.932677 8.193401 11.481852
Cd -4.932677 4.911287 14.763966
Cd -8.214790 8.193401 14.763966
Cd -8.214790 4.911287 18.046079
Cd -4.932677 8.193401 18.046079
Cd -4.932677 4.911287 21.328193
Cd -8.214790 8.193401 21.328193
Cd -8.214790 4.911287 24.610306
Cd -4.932677 8.193401 24.610306
Cd -4.932677 4.911287 27.892420
Cd -8.214790 8.193401 27.892420
Cd -8.214790 11.475514 -27.903511
Cd -4.932677 14.757628 -27.903511
Cd -4.932677 11.475514 -24.621397
Cd -8.214790 11.475514 -21.339284
Cd -4.932677 14.757628 -21.339284
Cd -4.932677 11.475514 -18.057170
Cd -8.214790 14.757628 -18.057170
Cd -8.214790 11.475514 -14.775056
Cd -4.932677 14.757628 -14.775056
Cd -4.932677 11.475514 -11.492943
Cd -8.214790 14.757628 -11.492943
Cd -8.214790 11.475514 -8.210829
Cd -4.932677 14.757628 -8.210829
Cd -4.932677 11.475514 -4.928716
Cd -8.214790 14.757628 -4.928716
Cd -8.214790 11.475514 -1.646602
Cd -4.932677 14.757628 -1.646602
Cd -4.932677 11.475514 1.635511
Cd -8.214790 14.757628 1.635511
Cd -8.214790 11.475514 4.917625
Cd -4.932677 14.757628 4.917625
Cd -4.932677 11.475514 8.199738
Cd -8.214790 14.757628 8.199738
Cd -8.214790 11.475514 11.481852
Cd -4.932677 14.757628 11.481852
Cd -4.932677 11.475514 14.763966
Cd -8.214790 14.757628 14.763966
Cd -8.214790 11.475514 18.046079
Cd -4.932677 14.757628 18.046079
Cd -4.932677 11.475514 21.328193
Cd -8.214790 14.757628 21.328193
Cd -8.214790 11.475514 24.610306
Cd -4.932677 14.757628 24.610306
Cd -4.932677 11.475514 27.892420
Cd -8.214790 14.757628 27.892420
Cd -4.932677 18.039741 -24.621397
Cd -8.214790 18.039741 -21.339284
Cd -4.932677 18.039741 -18.057170
Cd -8.214790 21.321855 -18.057170
Cd -8.214790 18.039741 -14.775056
Cd -4.932677 21.321855 -14.775056
Cd -4.932677 18.039741 -11.492943
Cd -8.214790 21.321855 -11.492943
Cd -8.214790 18.039741 -8.210829
Cd -4.932677 21.321855 -8.210829
Cd -4.932677 18.039741 -4.928716
Cd -8.214790 21.321855 -4.928716
Cd -8.214790 18.039741 -1.646602
Cd -4.932677 21.321855 -1.646602
Cd -4.932677 18.039741 1.635511
Cd -8.214790 21.321855 1.635511
Cd -8.214790 18.039741 4.917625
Cd -4.932677 21.321855 4.917625
Cd -4.932677 18.039741 8.199738
Cd -8.214790 21.321855 8.199738
Cd -8.214790 18.039741 11.481852
Cd -4.932677 21.321855 11.481852
Cd -4.932677 18.039741 14.763966
Cd -8.214790 21.321855 14.763966
Cd -8.214790 18.039741 18.046079
Cd -4.932677 21.321855 18.046079
Cd -4.932677 18.039741 21.328193
Cd -8.214790 18.039741 24.610306
Cd -4.932677 21.321855 24.610306
Cd -4.932677 18.039741 27.892420
Cd -4.932677 24.603969 -18.057170
Cd -4.932677 27.886082 -14.775056
Cd -4.932677 24.603969 -11.492943
Cd -8.214790 27.886082 -11.492943
Cd -8.214790 24.603969 -8.210829
Cd -4.932677 27.886082 -8.210829
Cd -4.932677 24.603969 -4.928716
Cd -8.214790 27.886082 -4.928716
Cd -8.214790 24.603969 -1.646602
Cd -4.932677 27.886082 -1.646602
Cd -4.932677 24.603969 1.635511
Cd -8.214790 27.886082 1.635511
Cd -8.214790 24.603969 4.917625
Cd -4.932677 27.886082 4.917625
Cd -4.932677 24.603969 8.199738
Cd -8.214790 27.886082 8.199738
Cd -8.214790 24.603969 11.481852
Cd -4.932677 27.886082 11.481852
Cd -4.932677 24.603969 14.763966
Cd -8.214790 27.886082 14.763966
Cd -8.214790 24.603969 18.046079
Cd -4.932677 27.886082 18.046079
Cd -4.932677 24.603969 21.328193
Cd -1.650563 -24.627735 -24.621397
Cd -1.650563 -27.909848 -21.339284
Cd 1.631550 -27.909848 -18.057170
Cd -1.650563 -24.627735 -18.057170
Cd -1.650563 -27.909848 -14.775056
Cd 1.631550 -24.627735 -14.775056
Cd 1.631550 -27.909848 -11.492943
Cd -1.650563 -24.627735 -11.492943
Cd -1.650563 -27.909848 -8.210829
Cd 1.631550 -24.627735 -8.210829
Cd 1.631550 -27.909848 -4.928716
Cd -1.650563 -24.627735 -4.928716
Cd -1.650563 -27.909848 -1.646602
Cd 1.631550 -24.627735 -1.646602
Cd 1.631550 -27.909848 1.635511
Cd -1.650563 -24.627735 1.635511
Cd -1.650563 -27.909848 4.917625
Cd 1.631550 -24.627735 4.917625
Cd 1.631550 -27.909848 8.199738
Cd -1.650563 -24.627735 8.199738
Cd -1.650563 -27.909848 11.481852
Cd 1.631550 -24.627735 11.481852
Cd 1.631550 -27.909848 14.763966
Cd -1.650563 -24.627735 14.763966
Cd -1.650563 -27.909848 18.046079
Cd 1.631550 -24.627735 18.046079
Cd 1.631550 -27.909848 21.328193
Cd -1.650563 -24.627735 21.328193
Cd 1.631550 -24.627735 24.610306
Cd -1.650563 -21.345621 -27.903511
Cd 1.631550 -18.063508 -27.903511
Cd 1.631550 -21.345621 -24.621397
Cd -1.650563 -18.063508 -24.621397
Cd -1.650563 -21.345621 -21.339284
Cd 1.631550 -18.063508 -21.339284
Cd 1.631550 -21.345621 -18.057170
Cd -1.650563 -18.063508 -18.057170
Cd -1.650563 -21.345621 -14.775056
Cd 1.631550 -18.063508 -14.775056
Cd 1.631550 -21.345621 -11.492943
Cd -1.650563 -18.063508 -11.492943
Cd -1.650563 -21.345621 -8.210829
Cd 1.631550 -18.063508 -8.210829
Cd 1.631550 -21.345621 -4.928716
Cd -1.650563 -18.063508 -4.928716
Cd -1.650563 -21.345621 -1.646602
Cd 1.631550 -18.063508 -1.646602
Cd 1.631550 -21.345621 1.635511
Cd -1.650563 -18.063508 1.635511
Cd -1.650563 -21.345621 4.917625
Cd 1.631550 -18.063508 4.917625
Cd 1.631550 -21.345621 8.199738
Cd -1.650563 -18.063508 8.199738
Cd -1.650563 -21.345621 11.481852
Cd 1.631550 -18.063508 11.481852
Cd 1.631550 -21.345621 14.763966
Cd -1.650563 -18.063508 14.763966
Cd -1.650563 -21.345621 18.046079
Cd 1.631550 -18.063508 18.046079
Cd 1.631550 -21.345621 21.328193
Cd -1.650563 -18.063508 21.328193
Cd -1.650563 -21.345621 24.610306
Cd 1.631550 -18.063508 24.610306
Cd 1.631550 -21.345621 27.892420
Cd -1.650563 -18.063508 27.892420
Cd -1.650563 -14.781394 -27.903511
Cd 1.631550 -11.499281 -27.903511
Cd 1.631550 -14.781394 -24.621397
Cd -1.650563 -11.499281 -24.621397
Cd -1.650563 -14.781394 -21.339284
Cd 1.631550 -11.499281 -21.339284
Cd 1.631550 -14.781394 -18.057170
Cd -1.650563 -11.499281 -18.057170
Cd -1.650563 -14.781394 -14.775056
Cd 1.631550 -11.499281 -14.775056
Cd 1.631550 -14.781394 -11.492943
Cd -1.650563 -11.499281 -11.492943
Cd -1.650563 -14.781394 -8.210829
Cd 1.631550 -11.499281 -8.210829
Cd 1.631550 -14.781394 -4.928716
Cd -1.650563 -11.499281 -4.928716
Cd -1.650563 -14.781394 -1.646602
Cd 1.631550 -11.499281 -1.646602
Cd 1.631550 -14.781394 1.635511
Cd -1.650563 -11.499281 1.635511
Cd -1.650563 -14.781394 4.917625
Cd 1.631550 -11.499281 4.917625
Cd 1.631550 -14.781394 8.199738
Cd -1.650563 -11.499281 8.199738
Cd -1.650563 -14.781394 11.481852
Cd 1.631550 -11.499281 11.481852
Cd 1.631550 -14.781394 14.763966
Cd -1.650563 -11.499281 14.763966
Cd -1.650563 -14.781394 18.046079
Cd 1.631550 -11.499281 18.046079
Cd 1.631550 -14.781394 21.328193
Cd -1.650563 -11.499281 21.328193
Cd -1.650563 -14.781394 24.610306
Cd 1.631550 -11.499281 24.610306
Cd 1.631550 -14.781394 27.892420
Cd -1.650563 -11.499281 27.892420
Cd -1.650563 -8.217167 -27.903511
Cd 1.631550 -4.935053 -27.903511
Cd 1.631550 -8.217167 -24.621397
Cd -1.650563 -4.935053 -24.621397
Cd -1.650563 -8.217167 -21.339284
Cd 1.631550 -4.935053 -21.339284
Cd 1.631550 -8.217167 -18.057170
Cd -1.650563 -4.935053 -18.057170
Cd -1.650563 -8.217167 -14.775056
Cd 1.631550 -4.935053 -14.775056
Cd 1.631550 -8.217167 -11.492943
Cd -1.650563 -4.935053 -11.492943
Cd -1.650563 -8.217167 -8.210829
Cd 1.631550 -4.935053 -8.210829
Cd 1.631550 -8.217167 -4.928716
Cd -1.650563 -4.935053 -4.928716
Cd -1.650563 -8.217167 -1.646602
Cd 1.631550 -4.935053 -1.646602
Cd 1.631550 -8.217167 1.635511
Cd -1.650563 -4.935053 1.635511
Cd -1.650563 -8.217167 4.917625
Cd 1.631550 -4.935053 4.917625
Cd 1.631550 -8.217167 8.199738
Cd -1.650563 -4.935053 8.199738
Cd -1.650563 -8.217167 11.481852
Cd 1.631550 -4.935053 11.481852
Cd 1.631550 -8.217167 14.763966
Cd -1.650563 -4.935053 14.763966
Cd -1.650563 -8.217167 18.046079
Cd 1.631550 -4.935053 18.046079
Cd 1.631550 -8.217167 21.328193
Cd -1.650563 -4.935053 21.328193
Cd -1.650563 -8.217167 24.610306
Cd 1.631550 -4.935053 24.610306
Cd 1.631550 -8.217167 27.892420
Cd -1.650563 -4.935053 27.892420
Cd -1.650563 -1.652940 -27.903511
Cd 1.631550 1.629174 -27.903511
Cd 1.631550 -1.652940 -24.621397
Cd -1.650563 1.629174 -24.621397
Cd -1.650563 -1.652940 -21.339284
Cd 1.631550 1.629174 -21.339284
Cd 1.631550 -1.652940 -18.057170
Cd -1.650563 1.629174 -18.057170
Cd -1.650563 -1.652940 -14.775056
Cd 1.631550 1.629174 -14.775056
Cd 1.631550 -1.652940 -11.492943
Cd -1.650563 1.629174 -11.492943
Cd -1.650563 -1.652940 -8.210829
Cd 1.631550 1.629174 -8.210829
Cd 1.631550 -1.652940 -4.928716
Cd -1.650563 1.629174 -4.928716
Cd -1.650563 -1.652940 -1.646602
Cd 1.631550 1.629174 -1.646602
Cd 1.631550 -1.652940 1.635511
Cd -1.650563 1.629174 1.635511
Cd -1.650563 -1.652940 4.917625
Cd 1.631550 1.629174 4.917625
Cd 1.631550 -1.652940 8.199738
Cd -1.650563 1.629174 8.199738
Cd -1.650563 -1.652940 11.481852
Cd 1.631550 1.629174 11.481852
Cd 1.631550 -1.652940 14.763966
Cd -1.650563 1.629174 14.763966
Cd -1.650563 -1.652940 18.046079
Cd 1.631550 1.629174 18.046079
Cd 1.631550 -1.652940 21.328193
Cd -1.650563 1.629174 21.328193
Cd -1.650563 -1.652940 24.610306
Cd 1.631550 1.629174 24.610306
Cd 1.631550 -1.652940 27.892420
Cd -1.650563 1.629174 27.892420
Cd -1.650563 4.911287 -27.903511
Cd 1.631550 8.193401 -27.903511
Cd 1.631550 4.911287 -24.621397
Cd -1.650563 8.193401 -24.621397
Cd -1.650563 4.911287 -21.339284
Cd 1.631550 8.193401 -21.339284
Cd 1.631550 4.911287 -18.057170
Cd -1.650563 8.193401 -18.057170
Cd -1.650563 4.911287 -14.775056
Cd 1.631550 8.193401 -14.775056
Cd 1.631550 4.911287 -11.492943
Cd -1.650563 8.193401 -11.492943
Cd -1.650563 4.911287 -8.210829
Cd 1.631550 8.193401 -8.210829
Cd 1.631550 4.911287 -4.928716
Cd -1.650563 8.193401 -4.928716
Cd -1.650563 4.911287 -1.646602
Cd 1.631550 8.193401 -1.646602
Cd 1.631550 4.911287 1.635511
Cd -1.650563 8.193401 1.635511
Cd -1.650563 4.911287 4.917625
Cd 1.631550 8.193401 4.917625
Cd 1.631550 4.911287 8.199738
Cd -1.650563 8.193401 8.199738
Cd -1.650563 4.911287 11.481852
Cd 1.631550 8.193401 11.481852
Cd 1.631550 4.911287 14.763966
Cd -1.650563 8.193401 14.763966
Cd -1.650563 4.911287 18.046079
Cd 1.631550 8.193401 18.046079
Cd 1.631550 4.911287 21.328193
Cd -1.650563 8.193401 21.328193
Cd -1.650563 4.911287 24.610306
Cd 1.631550 8.193401 24.610306
Cd 1.631550 4.911287 27.892420
Cd -1.650563 8.193401 27.892420
Cd -1.650563 11.475514 -27.903511
Cd 1.631550 14.757628 -27.903511
Cd 1.631550 11.475514 -24.621397
Cd -1.650563 14.757628 -24.621397
Cd -1.650563 11.475514 -21.339284
Cd 1.631550 14.757628 -21.339284
Cd 1.631550 11.475514 -18.057170
Cd -1.650563 14.757628 -18.057170
Cd -1.650563 11.475514 -14.775056
Cd 1.631550 14.757628 -14.775056
Cd 1.631550 11.475514 -11.492943
Cd -1.650563 14.757628 -11.492943
Cd -1.650563 11.475514 -8.210829
Cd 1.631550 14.757628 -8.210829
Cd 1.631550 11.475514 -4.928716
Cd -1.650563 14.757628 -4.928716
Cd -1.650563 11.475514 -1.646602
Cd 1.631550 14.757628 -1.646602
Cd 1.631550 11.475514 1.635511
Cd -1.650563 14.757628 1.635511
Cd -1.650563 11.475514 4.917625
Cd 1.631550 14.757628 4.917625
Cd 1.631550 11.475514 8.199738
Cd -1.650563 14.757628 8.199738
Cd -1.650563 11.475514 11.481852
Cd 1.631550 14.757628 11.481852
Cd 1.631550 11.475514 14.763966
Cd -1.650563 14.757628 14.763966
Cd -1.650563 11.475514 18.046079
Cd 1.631550 14.757628 18.046079
Cd 1.631550 11.475514 21.328193
Cd -1.650563 14.757628 21.328193
Cd -1.650563 11.475514 24.610306
Cd 1.631550 14.757628 24.610306
Cd 1.631550 11.475514 27.892420
Cd -1.650563 14.757628 27.892420
Cd -1.650563 18.039741 -27.903511
Cd 1.631550 21.321855 -27.903511
Cd 1.631550 18.039741 -24.621397
Cd -1.650563 21.321855 -24.621397
Cd -1.650563 18.039741 -21.339284
Cd 1.631550 21.321855 -21.339284
Cd 1.631550 18.039741 -18.057170
Cd -1.650563 21.321855 -18.057170
Cd -1.650563 18.039741 -14.775056
Cd 1.631550 21.321855 -14.775056
Cd 1.631550 18.039741 -11.492943
Cd -1.650563 21.321855 -11.492943
Cd -1.650563 18.039741 -8.210829
Cd 1.631550 21.321855 -8.210829
Cd 1.631550 18.039741 -4.928716
Cd -1.650563 21.321855 -4.928716
Cd -1.650563 18.039741 -1.646602
Cd 1.631550 21.321855 -1.646602
Cd 1.631550 18.039741 1.635511
Cd -1.650563 21.321855 1.635511
Cd -1.650563 18.039741 4.917625
Cd 1.631550 21.321855 4.917625
Cd 1.631550 18.039741 8.199738
Cd -1.650563 21.321855 8.199738
Cd -1.650563 18.039741 11.481852
Cd 1.631550 21.321855 11.481852
Cd 1.631550 18.039741 14.763966
Cd -1.650563 21.321855 14.763966
Cd -1.650563 18.039741 18.046079
Cd 1.631550 21.321855 18.046079
Cd 1.631550 18.039741 21.328193
Cd -1.650563 21.321855 21.328193
Cd -1.650563 18.039741 24.610306
Cd 1.631550 18.039741 27.892420
Cd -1.650563 21.321855 27.892420
Cd 1.631550 24.603969 -24.621397
Cd -1.650563 24.603969 -21.339284
Cd 1.631550 27.886082 -21.339284
Cd 1.631550 24.603969 -18.057170
Cd -1.650563 27.886082 -18.057170
Cd -1.650563 24.603969 -14.775056
Cd 1.631550 27.886082 -14.775056
Cd 1.631550 24.603969 -11.492943
Cd -1.650563 27.886082 -11.492943
Cd -1.650563 24.603969 -8.210829
Cd 1.631550 27.886082 -8.210829
Cd 1.631550 24.603969 -4.928716
Cd -1.650563 27.886082 -4.928716
Cd -1.650563 24.603969 -1.646602
Cd 1.631550 27.886082 -1.646602
Cd 1.631550 24.603969 1.635511
Cd -1.650563 27.886082 1.635511
Cd -1.650563 24.603969 4.917625
Cd 1.631550 27.886082 4.917625
Cd 1.631550 24.603969 8.199738
Cd -1.650563 27.886082 8.199738
Cd -1.650563 24.603969 11.481852
Cd 1.631550 27.886082 11.481852
Cd 1.631550 24.603969 14.763966
Cd -1.650563 27.886082 14.763966
Cd -1.650563 24.603969 18.046079
Cd 1.631550 27.886082 18.046079
Cd 1.631550 24.603969 21.328193
Cd -1.650563 27.886082 21.328193
Cd -1.650563 24.603969 24.610306
Cd 4.913664 -24.627735 -18.057170
Cd 4.913664 -27.909848 -14.775056
Cd 8.195777 -24.627735 -14.775056
Cd 8.195777 -27.909848 -11.492943
Cd 4.913664 -24.627735 -11.492943
Cd 4.913664 -27.909848 -8.210829
Cd 8.195777 -24.627735 -8.210829
Cd 8.195777 -27.909848 -4.928716
Cd 4.913664 -24.627735 -4.928716
Cd 4.913664 -27.909848 -1.646602
Cd 8.195777 -24.627735 -1.646602
Cd 8.195777 -27.909848 1.635511
Cd 4.913664 -24.627735 1.635511
Cd 4.913664 -27.909848 4.917625
Cd 8.195777 -24.627735 4.917625
Cd 8.195777 -27.909848 8.199738
Cd 4.913664 -24.627735 8.199738
Cd 4.913664 -27.909848 11.481852
Cd 8.195777 -24.627735 11.481852
Cd 8.195777 -27.909848 14.763966
Cd 4.913664 -24.627735 14.763966
Cd 4.913664 -27.909848 18.046079
Cd 4.913664 -24.627735 21.328193
Cd 4.913664 -21.345621 -21.339284
Cd 8.195777 -18.063508 -21.339284
Cd 4.913664 -18.063508 -18.057170
Cd 4.913664 -21.345621 -14.775056
Cd 8.195777 -18.063508 -14.775056
Cd 8.195777 -21.345621 -11.492943
Cd 4.913664 -18.063508 -11.492943
Cd 4.913664 -21.345621 -8.210829
Cd 8.195777 -18.063508 -8.210829
Cd 8.195777 -21.345621 -4.928716
Cd 4.913664 -18.063508 -4.928716
Cd 4.913664 -21.345621 -1.646602
Cd 8.195777 -18.063508 -1.646602
Cd 8.195777 -21.345621 1.635511
Cd 4.913664 -18.063508 1.635511
Cd 4.913664 -21.345621 4.917625
Cd 8.195777 -18.063508 4.917625
Cd 8.195777 -21.345621 8.199738
Cd 4.913664 -18.063508 8.199738
Cd 4.913664 -21.345621 11.481852
Cd 8.195777 -18.063508 11.481852
Cd 8.195777 -21.345621 14.763966
Cd 4.913664 -18.063508 14.763966
Cd 4.913664 -21.345621 18.046079
Cd 8.195777 -18.063508 18.046079
Cd 8.195777 -21.345621 21.328193
Cd 4.913664 -18.063508 21.328193
Cd 8.195777 -18.063508 24.610306
Cd 4.913664 -18.063508 27.892420
Cd 4.913664 -14.781394 -27.903511
Cd 8.195777 -11.499281 -27.903511
Cd 8.195777 -14.781394 -24.621397
Cd 4.913664 -11.499281 -24.621397
Cd 4.913664 -14.781394 -21.339284
Cd 8.195777 -11.499281 -21.339284
Cd 8.195777 -14.781394 -18.057170
Cd 4.913664 -11.499281 -18.057170
Cd 4.913664 -14.781394 -14.775056
Cd 8.195777 -11.499281 -14.775056
Cd 8.195777 -14.781394 -11.492943
Cd 4.913664 -11.499281 -11.492943
Cd 4.913664 -14.781394 -8.210829
Cd 8.195777 -11.499281 -8.210829
Cd 8.195777 -14.781394 -4.928716
Cd 4.913664 -11.499281 -4.928716
Cd 4.913664 -14.781394 -1.646602
Cd 8.195777 -11.499281 -1.646602
Cd 8.195777 -14.781394 1.635511
Cd 4.913664 -11.499281 1.635511
Cd 4.913664 -14.781394 4.917625
Cd 8.195777 -11.499281 4.917625
Cd 8.195777 -14.781394 8.199738
Cd 4.913664 -11.499281 8.199738
Cd 4.913664 -14.781394 11.481852
Cd 8.195777 -11.499281 11.481852
Cd 8.195777 -14.781394 14.763966
Cd 4.913664 -11.499281 14.763966
Cd 4.913664 -14.781394 18.046079
Cd 8.195777 -11.499281 18.046079
Cd 8.195777 -14.781394 21.328193
Cd 4.913664 -11.499281 21.328193
Cd 4.913664 -14.781394 24.610306
Cd 8.195777 -11.499281 24.610306
Cd 8.195777 -14.781394 27.892420
Cd 4.913664 -11.499281 27.892420
Cd 4.913664 -8.217167 -27.903511
Cd 8.195777 -4.935053 -27.903511
Cd 8.195777 -8.217167 -24.621397
Cd 4.913664 -4.935053 -24.621397
Cd 4.913664 -8.217167 -21.339284
Cd 8.195777 -4.935053 -21.339284
Cd 8.195777 -8.217167 -18.057170
Cd 4.913664 -4.935053 -18.057170
Cd 4.913664 -8.217167 -14.775056
Cd 8.195777 -4.935053 -14.775056
Cd 8.195777 -8.217167 -11.492943
Cd 4.913664 -4.935053 -11.492943
Cd 4.913664 -8.217167 -8.210829
Cd 8.195777 -4.935053 -8.210829
Cd 8.195777 -8.217167 -4.928716
Cd 4.913664 -4.935053 -4.928716
Cd 4.913664 -8.217167 -1.646602
Cd 8.195777 -4.935053 -1.646602
Cd 8.195777 -8.217167 1.635511
Cd 4.913664 -4.935053 1.635511
Cd 4.913664 -8.217167 4.917625
Cd 8.195777 -4.935053 4.917625
Cd 8.195777 -8.217167 8.199738
Cd 4.913664 -4.935053 8.199738
Cd 4.913664 -8.217167 11.481852
Cd 8.195777 -4.935053 11.481852
Cd 8.195777 -8.217167 14.763966
Cd 4.913664 -4.935053 14.763966
Cd 4.913664 -8.217167 18.046079
Cd 8.195777 -4.935053 18.046079
Cd 8.195777 -8.217167 21.328193
Cd 4.913664 -4.935053 21.328193
Cd 4.913664 -8.217167 24.610306
Cd 8.195777 -4.935053 24.610306
Cd 8.195777 -8.217167 27.892420
Cd 4.913664 -4.935053 27.892420
Cd 4.913664 -1.652940 -27.903511
Cd 8.195777 1.629174 -27.903511
Cd 8.195777 -1.652940 -24.621397
Cd 4.913664 1.629174 -24.621397
Cd 4.913664 -1.652940 -21.339284
Cd 8.195777 1.629174 -21.339284
Cd 8.195777 -1.652940 -18.057170
Cd 4.913664 1.629174 -18.057170
Cd 4.913664 -1.652940 -14.775056
Cd 8.195777 1.629174 -14.775056
Cd 8.195777 -1.652940 -11.492943
Cd 4.913664 1.629174 -11.492943
Cd 4.913664 -1.652940 -8.210829
Cd 8.195777 1.629174 -8.210829
Cd 8.195777 -1.652940 -4.928716
Cd 4.913664 1.629174 -4.928716
Cd 4.913664 -1.652940 -1.646602
Cd 8.195777 1.629174 -1.646602
Cd 8.195777 -1.652940 1.635511
Cd 4.913664 1.629174 1.635511
Cd 4.913664 -1.652940 4.917625
Cd 8.195777 1.629174 4.917625
Cd 8.195777 -1.652940 8.199738
Cd 4.913664 1.629174 8.199738
Cd 4.913664 -1.652940 11.481852
Cd 8.195777 1.629174 11.481852
Cd 8.195777 -1.652940 14.763966
Cd 4.913664 1.629174 14.763966
Cd 4.913664 -1.652940 18.046079
Cd 8.195777 1.629174 18.046079
Cd 8.195777 -1.652940 21.328193
Cd 4.913664 1.629174 21.328193
Cd 4.913664 -1.652940 24.610306
Cd 8.195777 1.629174 24.610306
Cd 8.195777 -1.652940 27.892420
Cd 4.913664 1.629174 27.892420
Cd 4.913664 4.911287 -27.903511
Cd 8.195777 8.193401 -27.903511
Cd 8.195777 4.911287 -24.621397
Cd 4.913664 8.193401 -24.621397
Cd 4.913664 4.911287 -21.339284
Cd 8.195777 8.193401 -21.339284
Cd 8.195777 4.911287 -18.057170
Cd 4.913664 8.193401 -18.057170
Cd 4.913664 4.911287 -14.775056
Cd 8.195777 8.193401 -14.775056
Cd 8.195777 4.911287 -11.492943
Cd 4.913664 8.193401 -11.492943
Cd 4.913664 4.911287 -8.210829
Cd 8.195777 8.193401 -8.210829
Cd 8.195777 4.911287 -4.928716
Cd 4.913664 8.193401 -4.928716
Cd 4.913664 4.911287 -1.646602
Cd 8.195777 8.193401 -1.646602
Cd 8.195777 4.911287 1.635511
Cd 4.913664 8.193401 1.635511
Cd 4.913664 4.911287 4.917625
Cd 8.195777 8.193401 4.917625
Cd 8.195777 4.911287 8.199738
Cd 4.913664 8.193401 8.199738
Cd 4.913664 4.911287 11.481852
Cd 8.195777 8.193401 11.481852
Cd 8.195777 4.911287 14.763966
Cd 4.913664 8.193401 14.763966
Cd 4.913664 4.911287 18.046079
Cd 8.195777 8.193401 18.046079
Cd 8.195777 4.911287 21.328193
Cd 4.913664 8.193401 21.328193
Cd 4.913664 4.911287 24.610306
Cd 8.195777 8.193401 24.610306
Cd 8.195777 4.911287 27.892420
Cd 4.913664 8.193401 27.892420
Cd 4.913664 11.475514 -27.903511
Cd 8.195777 14.757628 -27.903511
Cd 8.195777 11.475514 -24.621397
Cd 4.913664 14.757628 -24.621397
Cd 4.913664 11.475514 -21.339284
Cd 8.195777 14.757628 -21.339284
Cd 8.195777 11.475514 -18.057170
Cd 4.913664 14.757628 -18.057170
Cd 4.913664 11.475514 -14.775056
Cd 8.195777 14.757628 -14.775056
Cd 8.195777 11.475514 -11.492943
Cd 4.913664 14.757628 -11.492943
Cd 4.913664 11.475514 -8.210829
Cd 8.195777 14.757628 -8.210829
Cd 8.195777 11.475514 -4.928716
Cd 4.913664 14.757628 -4.928716
Cd 4.913664 11.475514 -1.646602
Cd 8.195777 14.757628 -1.646602
Cd 8.195777 11.475514 1.635511
Cd 4.913664 14.757628 1.635511
Cd 4.913664 11.475514 4.917625
Cd 8.195777 14.757628 4.917625
Cd 8.195777 11.475514 8.199738
Cd 4.913664 14.757628 8.199738
Cd 4.913664 11.475514 11.481852
Cd 8.195777 14.757628 11.481852
Cd 8.195777 11.475514 14.763966
Cd 4.913664 14.757628 14.763966
Cd 4.913664 11.475514 18.046079
Cd 8.195777 14.757628 18.046079
Cd 8.195777 11.475514 21.328193
Cd 4.913664 14.757628 21.328193
Cd 4.913664 11.475514 24.610306
Cd 8.195777 14.757628 24.610306
Cd 8.195777 11.475514 27.892420
Cd 4.913664 14.757628 27.892420
Cd 4.913664 18.039741 -27.903511
Cd 4.913664 21.321855 -24.621397
Cd 4.913664 18.039741 -21.339284
Cd 8.195777 21.321855 -21.339284
Cd 8.195777 18.039741 -18.057170
Cd 4.913664 21.321855 -18.057170
Cd 4.913664 18.039741 -14.775056
Cd 8.195777 21.321855 -14.775056
Cd 8.195777 18.039741 -11.492943
Cd 4.913664 21.321855 -11.492943
Cd 4.913664 18.039741 -8.210829
Cd 8.195777 21.321855 -8.210829
Cd 8.195777 18.039741 -4.928716
Cd 4.913664 21.321855 -4.928716
Cd 4.913664 18.039741 -1.646602
Cd 8.195777 21.321855 -1.646602
Cd 8.195777 18.039741 1.635511
Cd 4.913664 21.321855 1.635511
Cd 4.913664 18.039741 4.917625
Cd 8.195777 21.321855 4.917625
Cd 8.195777 18.039741 8.199738
Cd 4.913664 21.321855 8.199738
Cd 4.913664 18.039741 11.481852
Cd 8.195777 21.321855 11.481852
Cd 8.195777 18.039741 14.763966
Cd 4.913664 21.321855 14.763966
Cd 4.913664 18.039741 18.046079
Cd 8.195777 21.321855 18.046079
Cd 4.913664 21.321855 21.328193
Cd 4.913664 18.039741 24.610306
Cd 8.195777 24.603969 -18.057170
Cd 4.913664 27.886082 -18.057170
Cd 4.913664 24.603969 -14.775056
Cd 8.195777 27.886082 -14.775056
Cd 8.195777 24.603969 -11.492943
Cd 4.913664 27.886082 -11.492943
Cd 4.913664 24.603969 -8.210829
Cd 8.195777 27.886082 -8.210829
Cd 8.195777 24.603969 -4.928716
Cd 4.913664 27.886082 -4.928716
Cd 4.913664 24.603969 -1.646602
Cd 8.195777 27.886082 -1.646602
Cd 8.195777 24.603969 1.635511
Cd 4.913664 27.886082 1.635511
Cd 4.913664 24.603969 4.917625
Cd 8.195777 27.886082 4.917625
Cd 8.195777 24.603969 8.199738
Cd 4.913664 27.886082 8.199738
Cd 4.913664 24.603969 11.481852
Cd 8.195777 27.886082 11.481852
Cd 8.195777 24.603969 14.763966
Cd 4.913664 27.886082 14.763966
Cd 11.477891 -27.909848 -8.210829
Cd 14.760005 -24.627735 -8.210829
Cd 14.760005 -27.909848 -4.928716
Cd 11.477891 -24.627735 -4.928716
Cd 11.477891 -27.909848 -1.646602
Cd 14.760005 -24.627735 -1.646602
Cd 14.760005 -27.909848 1.635511
Cd 11.477891 -24.627735 1.635511
Cd 11.477891 -27.909848 4.917625
Cd 14.760005 -24.627735 4.917625
Cd 14.760005 -27.909848 8.199738
Cd 11.477891 -24.627735 8.199738
Cd 11.477891 -27.909848 11.481852
Cd 14.760005 -24.627735 11.481852
Cd 11.477891 -24.627735 14.763966
Cd 11.477891 -18.063508 -18.057170
Cd 11.477891 -21.345621 -14.775056
Cd 14.760005 -18.063508 -14.775056
Cd 14.760005 -21.345621 -11.492943
Cd 11.477891 -18.063508 -11.492943
Cd 11.477891 -21.345621 -8.210829
Cd 14.760005 -18.063508 -8.210829
Cd 14.760005 -21.345621 -4.928716
Cd 11.477891 -18.063508 -4.928716
Cd 11.477891 -21.345621 -1.646602
Cd 14.760005 -18.063508 -1.646602
Cd 14.760005 -21.345621 1.635511
Cd 11.477891 -18.063508 1.635511
Cd 11.477891 -21.345621 4.917625
Cd 14.760005 -18.063508 4.917625
Cd 14.760005 -21.345621 8.199738
Cd 11.477891 -18.063508 8.199738
Cd 11.477891 -21.345621 11.481852
Cd 14.760005 -18.063508 11.481852
Cd 11.477891 -18.063508 14.763966
Cd 11.477891 -21.345621 18.046079
Cd 14.760005 -18.063508 18.046079
Cd 11.477891 -11.499281 -24.621397
Cd 14.760005 -11.499281 -21.339284
Cd 14.760005 -14.781394 -18.057170
Cd 11.477891 -11.499281 -18.057170
Cd 11.477891 -14.781394 -14.775056
Cd 14.760005 -11.499281 -14.775056
Cd 14.760005 -14.781394 -11.492943
Cd 11.477891 -11.499281 -11.492943
Cd 11.477891 -14.781394 -8.210829
Cd 14.760005 -11.499281 -8.210829
Cd 14.760005 -14.781394 -4.928716
Cd 11.477891 -11.499281 -4.928716
Cd 11.477891 -14.781394 -1.646602
Cd 14.760005 -11.499281 -1.646602
Cd 14.760005 -14.781394 1.635511
Cd 11.477891 -11.499281 1.635511
Cd 11.477891 -14.781394 4.917625
Cd 14.760005 -11.499281 4.917625
Cd 14.760005 -14.781394 8.199738
Cd 11.477891 -11.499281 8.199738
Cd 11.477891 -14.781394 11.481852
Cd 14.760005 -11.499281 11.481852
Cd 14.760005 -14.781394 14.763966
Cd 11.477891 -11.499281 14.763966
Cd 11.477891 -14.781394 18.046079
Cd 14.760005 -11.499281 18.046079
Cd 14.760005 -14.781394 21.328193
Cd 11.477891 -11.499281 21.328193
Cd 11.477891 -14.781394 24.610306
Cd 11.477891 -11.499281 27.892420
Cd 11.477891 -8.217167 -27.903511
Cd 14.760005 -4.935053 -27.903511
Cd 11.477891 -4.935053 -24.621397
Cd 11.477891 -8.217167 -21.339284
Cd 14.760005 -4.935053 -21.339284
Cd 14.760005 -8.217167 -18.057170
Cd 11.477891 -4.935053 -18.057170
Cd 11.477891 -8.217167 -14.775056
Cd 14.760005 -4.935053 -14.775056
Cd 14.760005 -8.217167 -11.492943
Cd 11.477891 -4.935053 -11.492943
Cd 11.477891 -8.217167 -8.210829
Cd 14.760005 -4.935053 -8.210829
Cd 14.760005 -8.217167 -4.928716
Cd 11.477891 -4.935053 -4.928716
Cd 11.477891 -8.217167 -1.646602
Cd 14.760005 -4.935053 -1.646602
Cd 14.760005 -8.217167 1.635511
Cd 11.477891 -4.935053 1.635511
Cd 11.477891 -8.217167 4.917625
Cd 14.760005 -4.935053 4.917625
Cd 14.760005 -8.217167 8.199738
Cd 11.477891 -4.935053 8.199738
Cd 11.477891 -8.217167 11.481852
Cd 14.760005 -4.935053 11.481852
Cd 14.760005 -8.217167 14.763966
Cd 11.477891 -4.935053 14.763966
Cd 11.477891 -8.217167 18.046079
Cd 14.760005 -4.935053 18.046079
Cd 14.760005 -8.217167 21.328193
Cd 11.477891 -4.935053 21.328193
Cd 11.477891 -8.217167 24.610306
Cd 14.760005 -4.935053 24.610306
Cd 14.760005 -8.217167 27.892420
Cd 11.477891 -4.935053 27.892420
Cd 11.477891 -1.652940 -27.903511
Cd 14.760005 1.629174 -27.903511
Cd 14.760005 -1.652940 -24.621397
Cd 11.477891 1.629174 -24.621397
Cd 11.477891 -1.652940 -21.339284
Cd 14.760005 1.629174 -21.339284
Cd 14.760005 -1.652940 -18.057170
Cd 11.477891 1.629174 -18.057170
Cd 11.477891 -1.652940 -14.775056
Cd 14.760005 1.629174 -14.775056
Cd 14.760005 -1.652940 -11.492943
Cd 11.477891 1.629174 -11.492943
Cd 11.477891 -1.652940 -8.210829
Cd 14.760005 1.629174 -8.210829
Cd 14.760005 -1.652940 -4.928716
Cd 11.477891 1.629174 -4.928716
Cd 11.477891 -1.652940 -1.646602
Cd 14.760005 1.629174 -1.646602
Cd 14.760005 -1.652940 1.635511
Cd 11.477891 1.629174 1.635511
Cd 11.477891 -1.652940 4.917625
Cd 14.760005 1.629174 4.917625
Cd 14.760005 -1.652940 8.199738
Cd 11.477891 1.629174 8.199738
Cd 11.477891 -1.652940 11.481852
Cd 14.760005 1.629174 11.481852
Cd 14.760005 -1.652940 14.763966
Cd 11.477891 1.629174 14.763966
Cd 11.477891 -1.652940 18.046079
Cd 14.760005 1.629174 18.046079
Cd 14.760005 -1.652940 21.328193
Cd 11.477891 1.629174 21.328193
Cd 11.477891 -1.652940 24.610306
Cd 14.760005 1.629174 24.610306
Cd 14.760005 -1.652940 27.892420
Cd 11.477891 1.629174 27.892420
Cd 11.477891 4.911287 -27.903511
Cd 14.760005 8.193401 -27.903511
Cd 14.760005 4.911287 -24.621397
Cd 11.477891 8.193401 -24.621397
Cd 11.477891 4.911287 -21.339284
Cd 14.760005 8.193401 -21.339284
Cd 14.760005 4.911287 -18.057170
Cd 11.477891 8.193401 -18.057170
Cd 11.477891 4.911287 -14.775056
Cd 14.760005 8.193401 -14.775056
Cd 14.760005 4.911287 -11.492943
Cd 11.477891 8.193401 -11.492943
Cd 11.477891 4.911287 -8.210829
Cd 14.760005 8.193401 -8.210829
Cd 14.760005 4.911287 -4.928716
Cd 11.477891 8.193401 -4.928716
Cd 11.477891 4.911287 -1.646602
Cd 14.760005 8.193401 -1.646602
Cd 14.760005 4.911287 1.635511
Cd 11.477891 8.193401 1.635511
Cd 11.477891 4.911287 4.917625
Cd 14.760005 8.193401 4.917625
Cd 14.760005 4.911287 8.199738
Cd 11.477891 8.193401 8.199738
Cd 11.477891 4.911287 11.481852
Cd 14.760005 8.193401 11.481852
Cd 14.760005 4.911287 14.763966
Cd 11.477891 8.193401 14.763966
Cd 11.477891 4.911287 18.046079
Cd 14.760005 8.193401 18.046079
Cd 14.760005 4.911287 21.328193
Cd 11.477891 8.193401 21.328193
Cd 11.477891 4.911287 24.610306
Cd 14.760005 8.193401 24.610306
Cd 14.760005 4.911287 27.892420
Cd 11.477891 8.193401 27.892420
Cd 11.477891 11.475514 -27.903511
Cd 14.760005 11.475514 -24.621397
Cd 11.477891 14.757628 -24.621397
Cd 11.477891 11.475514 -21.339284
Cd 14.760005 11.475514 -18.057170
Cd 11.477891 14.757628 -18.057170
Cd 11.477891 11.475514 -14.775056
Cd 14.760005 14.757628 -14.775056
Cd 14.760005 11.475514 -11.492943
Cd 11.477891 14.757628 -11.492943
Cd 11.477891 11.475514 -8.210829
Cd 14.760005 14.757628 -8.210829
Cd 14.760005 11.475514 -4.928716
Cd 11.477891 14.757628 -4.928716
Cd 11.477891 11.475514 -1.646602
Cd 14.760005 14.757628 -1.646602
Cd 14.760005 11.475514 1.635511
Cd 11.477891 14.757628 1.635511
Cd 11.477891 11.475514 4.917625
Cd 14.760005 14.757628 4.917625
Cd 14.760005 11.475514 8.199738
Cd 11.477891 14.757628 8.199738
Cd 11.477891 11.475514 11.481852
Cd 14.760005 14.757628 11.481852
Cd 14.760005 11.475514 14.763966
Cd 11.477891 14.757628 14.763966
Cd 11.477891 11.475514 18.046079
Cd 14.760005 14.757628 18.046079
Cd 14.760005 11.475514 21.328193
Cd 11.477891 14.757628 21.328193
Cd 11.477891 18.039741 -21.339284
Cd 14.760005 18.039741 -18.057170
Cd 11.477891 18.039741 -14.775056
Cd 14.760005 21.321855 -14.775056
Cd 14.760005 18.039741 -11.492943
Cd 11.477891 21.321855 -11.492943
Cd 11.477891 18.039741 -8.210829
Cd 14.760005 21.321855 -8.210829
Cd 14.760005 18.039741 -4.928716
Cd 11.477891 21.321855 -4.928716
Cd 11.477891 18.039741 -1.646602
Cd 14.760005 21.321855 -1.646602
Cd 14.760005 18.039741 1.635511
Cd 11.477891 21.321855 1.635511
Cd 11.477891 18.039741 4.917625
Cd 14.760005 21.321855 4.917625
Cd 14.760005 18.039741 8.199738
Cd 11.477891 21.321855 8.199738
Cd 11.477891 18.039741 11.481852
Cd 14.760005 21.321855 11.481852
Cd 14.760005 18.039741 14.763966
Cd 11.477891 18.039741 18.046079
Cd 11.477891 24.603969 -14.775056
Cd 11.477891 27.886082 -11.492943
Cd 11.477891 24.603969 -8.210829
Cd 14.760005 27.886082 -8.210829
Cd 14.760005 24.603969 -4.928716
Cd 11.477891 27.886082 -4.928716
Cd 11.477891 24.603969 -1.646602
Cd 14.760005 27.886082 -1.646602
Cd 14.760005 24.603969 1.635511
Cd 11.477891 27.886082 1.635511
Cd 11.477891 24.603969 4.917625
Cd 14.760005 27.886082 4.917625
Cd 11.477891 27.886082 8.199738
Cd 11.477891 24.603969 11.481852
Cd 18.042118 -24.627735 -4.928716
Cd 18.042118 -27.909848 -1.646602
Cd 21.324232 -27.909848 1.635511
Cd 18.042118 -24.627735 1.635511
Cd 18.042118 -27.909848 4.917625
Cd 21.324232 -24.627735 4.917625
Cd 18.042118 -18.063508 -11.492943
Cd 21.324232 -18.063508 -8.210829
Cd 21.324232 -21.345621 -4.928716
Cd 18.042118 -18.063508 -4.928716
Cd 18.042118 -21.345621 -1.646602
Cd 21.324232 -18.063508 -1.646602
Cd 21.324232 -21.345621 1.635511
Cd 18.042118 -18.063508 1.635511
Cd 18.042118 -21.345621 4.917625
Cd 21.324232 -18.063508 4.917625
Cd 21.324232 -21.345621 8.199738
Cd 18.042118 -18.063508 8.199738
Cd 18.042118 -21.345621 11.481852
Cd 18.042118 -18.063508 14.763966
Cd 18.042118 -11.499281 -18.057170
Cd 18.042118 -14.781394 -14.775056
Cd 21.324232 -11.499281 -14.775056
Cd 21.324232 -14.781394 -11.492943
Cd 18.042118 -11.499281 -11.492943
Cd 18.042118 -14.781394 -8.210829
Cd 21.324232 -11.499281 -8.210829
Cd 21.324232 -14.781394 -4.928716
Cd 18.042118 -11.499281 -4.928716
Cd 18.042118 -14.781394 -1.646602
Cd 21.324232 -11.499281 -1.646602
Cd 21.324232 -14.781394 1.635511
Cd 18.042118 -11.499281 1.635511
Cd 18.042118 -14.781394 4.917625
Cd 21.324232 -11.499281 4.917625
Cd 21.324232 -14.781394 8.199738
Cd 18.042118 -11.499281 8.199738
Cd 18.042118 -14.781394 11.481852
Cd 21.324232 -11.499281 11.481852
Cd 21.324232 -14.781394 14.763966
Cd 18.042118 -11.499281 14.763966
Cd 21.324232 -11.499281 18.046079
Cd 18.042118 -11.499281 21.328193
Cd 18.042118 -4.935053 -24.621397
Cd 18.042118 -8.217167 -21.339284
Cd 21.324232 -8.217167 -18.057170
Cd 18.042118 -4.935053 -18.057170
Cd 18.042118 -8.217167 -14.775056
Cd 21.324232 -4.935053 -14.775056
Cd 21.324232 -8.217167 -11.492943
Cd 18.042118 -4.935053 -11.492943
Cd 18.042118 -8.217167 -8.210829
Cd 21.324232 -4.935053 -8.210829
Cd 21.324232 -8.217167 -4.928716
Cd 18.042118 -4.935053 -4.928716
Cd 18.042118 -8.217167 -1.646602
Cd 21.324232 -4.935053 -1.646602
Cd 21.324232 -8.217167 1.635511
Cd 18.042118 -4.935053 1.635511
Cd 18.042118 -8.217167 4.917625
Cd 21.324232 -4.935053 4.917625
Cd 21.324232 -8.217167 8.199738
Cd 18.042118 -4.935053 8.199738
Cd 18.042118 -8.217167 11.481852
Cd 21.324232 -4.935053 11.481852
Cd 21.324232 -8.217167 14.763966
Cd 18.042118 -4.935053 14.763966
Cd 18.042118 -8.217167 18.046079
Cd 21.324232 -4.935053 18.046079
Cd 18.042118 -4.935053 21.328193
Cd 18.042118 -8.217167 24.610306
Cd 21.324232 -4.935053 24.610306
Cd 18.042118 -4.935053 27.892420
Cd 18.042118 -1.652940 -27.903511
Cd 21.324232 1.629174 -27.903511
Cd 21.324232 -1.652940 -24.621397
Cd 18.042118 1.629174 -24.621397
Cd 18.042118 -1.652940 -21.339284
Cd 21.324232 1.629174 -21.339284
Cd 21.324232 -1.652940 -18.057170
Cd 18.042118 1.629174 -18.057170
Cd 18.042118 -1.652940 -14.775056
Cd 21.324232 1.629174 -14.775056
Cd 21.324232 -1.652940 -11.492943
Cd 18.042118 1.629174 -11.492943
Cd 18.042118 -1.652940 -8.210829
Cd 21.324232 1.629174 -8.210829
Cd 21.324232 -1.652940 -4.928716
Cd 18.042118 1.629174 -4.928716
Cd 18.042118 -1.652940 -1.646602
Cd 21.324232 1.629174 -1.646602
Cd 21.324232 -1.652940 1.635511
Cd 18.042118 1.629174 1.635511
Cd 18.042118 -1.652940 4.917625
Cd 21.324232 1.629174 4.917625
Cd 21.324232 -1.652940 8.199738
Cd 18.042118 1.629174 8.199738
Cd 18.042118 -1.652940 11.481852
Cd 21.324232 1.629174 11.481852
Cd 21.324232 -1.652940 14.763966
Cd 18.042118 1.629174 14.763966
Cd 18.042118 -1.652940 18.046079
Cd 21.324232 1.629174 18.046079
Cd 21.324232 -1.652940 21.328193
Cd 18.042118 1.629174 21.328193
Cd 18.042118 -1.652940 24.610306
Cd 21.324232 -1.652940 27.892420
Cd 18.042118 1.629174 27.892420
Cd 18.042118 4.911287 -27.903511
Cd 21.324232 4.911287 -24.621397
Cd 18.042118 4.911287 -21.339284
Cd 21.324232 8.193401 -21.339284
Cd 21.324232 4.911287 -18.057170
Cd 18.042118 8.193401 -18.057170
Cd 18.042118 4.911287 -14.775056
Cd 21.324232 8.193401 -14.775056
Cd 21.324232 4.911287 -11.492943
Cd 18.042118 8.193401 -11.492943
Cd 18.042118 4.911287 -8.210829
Cd 21.324232 8.193401 -8.210829
Cd 21.324232 4.911287 -4.928716
Cd 18.042118 8.193401 -4.928716
Cd 18.042118 4.911287 -1.646602
Cd 21.324232 8.193401 -1.646602
Cd 21.324232 4.911287 1.635511
Cd 18.042118 8.193401 1.635511
Cd 18.042118 4.911287 4.917625
Cd 21.324232 8.193401 4.917625
Cd 21.324232 4.911287 8.199738
Cd 18.042118 8.193401 8.199738
Cd 18.042118 4.911287 11.481852
Cd 21.324232 8.193401 11.481852
Cd 21.324232 4.911287 14.763966
Cd 18.042118 8.193401 14.763966
Cd 18.042118 4.911287 18.046079
Cd 21.324232 8.193401 18.046079
Cd 21.324232 4.911287 21.328193
Cd 18.042118 4.911287 24.610306
Cd 18.042118 11.475514 -21.339284
Cd 18.042118 14.757628 -18.057170
Cd 18.042118 11.475514 -14.775056
Cd 21.324232 14.757628 -14.775056
Cd 21.324232 11.475514 -11.492943
Cd 18.042118 14.757628 -11.492943
Cd 18.042118 11.475514 -8.210829
Cd 21.324232 14.757628 -8.210829
Cd 21.324232 11.475514 -4.928716
Cd 18.042118 14.757628 -4.928716
Cd 18.042118 11.475514 -1.646602
Cd 21.324232 14.757628 -1.646602
Cd 21.324232 11.475514 1.635511
Cd 18.042118 14.757628 1.635511
Cd 18.042118 11.475514 4.917625
Cd 21.324232 14.757628 4.917625
Cd 21.324232 11.475514 8.199738
Cd 18.042118 14.757628 8.199738
Cd 18.042118 11.475514 11.481852
Cd 21.324232 14.757628 11.481852
Cd 21.324232 11.475514 14.763966
Cd 18.042118 14.757628 14.763966
Cd 18.042118 11.475514 18.046079
Cd 21.324232 18.039741 -11.492943
Cd 18.042118 21.321855 -11.492943
Cd 18.042118 18.039741 -8.210829
Cd 21.324232 18.039741 -4.928716
Cd 18.042118 21.321855 -4.928716
Cd 18.042118 18.039741 -1.646602
Cd 21.324232 21.321855 -1.646602
Cd 21.324232 18.039741 1.635511
Cd 18.042118 21.321855 1.635511
Cd 18.042118 18.039741 4.917625
Cd 21.324232 18.039741 8.199738
Cd 18.042118 21.321855 8.199738
Cd 18.042118 18.039741 11.481852
Cd 18.042118 24.603969 -8.210829
Cd 21.324232 24.603969 -4.928716
Cd 18.042118 27.886082 -4.928716
Cd 18.042118 24.603969 -1.646602
Cd 21.324232 27.886082 -1.646602
Cd 21.324232 24.603969 1.635511
Cd 18.042118 27.886082 1.635511
Cd 18.042118 24.603969 4.917625
Cd 24.606345 -24.627735 1.635511
Cd 24.606345 -21.345621 -1.646602
Cd 27.888459 -18.063508 -1.646602
Cd 27.888459 -21.345621 1.635511
Cd 24.606345 -18.063508 1.635511
Cd 27.888459 -18.063508 4.917625
Cd 24.606345 -18.063508 8.199738
Cd 24.606345 -11.499281 -11.492943
Cd 24.606345 -14.781394 -8.210829
Cd 27.888459 -11.499281 -8.210829
Cd 27.888459 -14.781394 -4.928716
Cd 24.606345 -11.499281 -4.928716
Cd 24.606345 -14.781394 -1.646602
Cd 27.888459 -11.499281 -1.646602
Cd 27.888459 -14.781394 1.635511
Cd 24.606345 -11.499281 1.635511
Cd 24.606345 -14.781394 4.917625
Cd 27.888459 -11.499281 4.917625
Cd 27.888459 -14.781394 8.199738
Cd 24.606345 -11.499281 8.199738
Cd 24.606345 -14.781394 11.481852
Cd 27.888459 -11.499281 11.481852
Cd 24.606345 -4.935053 -18.057170
Cd 27.888459 -4.935053 -14.775056
Cd 27.888459 -8.217167 -11.492943
Cd 24.606345 -4.935053 -11.492943
Cd 24.606345 -8.217167 -8.210829
Cd 27.888459 -4.935053 -8.210829
Cd 27.888459 -8.217167 -4.928716
Cd 24.606345 -4.935053 -4.928716
Cd 24.606345 -8.217167 -1.646602
Cd 27.888459 -4.935053 -1.646602
Cd 27.888459 -8.217167 1.635511
Cd 24.606345 -4.935053 1.635511
Cd 24.606345 -8.217167 4.917625
Cd 27.888459 -4.935053 4.917625
Cd 27.888459 -8.217167 8.199738
Cd 24.606345 -4.935053 8.199738
Cd 24.606345 -8.217167 11.481852
Cd 27.888459 -4.935053 11.481852
Cd 27.888459 -8.217167 14.763966
Cd 24.606345 -4.935053 14.763966
Cd 24.606345 -8.217167 18.046079
Cd 27.888459 -4.935053 18.046079
Cd 24.606345 -4.935053 21.328193
Cd 24.606345 1.629174 -24.621397
Cd 24.606345 -1.652940 -21.339284
Cd 27.888459 1.629174 -21.339284
Cd 27.888459 -1.652940 -18.057170
Cd 24.606345 1.629174 -18.057170
Cd 24.606345 -1.652940 -14.775056
Cd 27.888459 1.629174 -14.775056
Cd 27.888459 -1.652940 -11.492943
Cd 24.606345 1.629174 -11.492943
Cd 24.606345 -1.652940 -8.210829
Cd 27.888459 1.629174 -8.210829
Cd 27.888459 -1.652940 -4.928716
Cd 24.606345 1.629174 -4.928716
Cd 24.606345 -1.652940 -1.646602
Cd 27.888459 1.629174 -1.646602
Cd 27.888459 -1.652940 1.635511
Cd 24.606345 1.629174 1.635511
Cd 24.606345 -1.652940 4.917625
Cd 27.888459 1.629174 4.917625
Cd 27.888459 -1.652940 8.199738
Cd 24.606345 1.629174 8.199738
Cd 24.606345 -1.652940 11.481852
Cd 27.888459 1.629174 11.481852
Cd 27.888459 -1.652940 14.763966
Cd 24.606345 1.629174 14.763966
Cd 24.606345 -1.652940 18.046079
Cd 27.888459 1.629174 18.046079
Cd 27.888459 -1.652940 21.328193
Cd 24.606345 1.629174 21.328193
Cd 24.606345 -1.652940 24.610306
Cd 27.888459 4.911287 -18.057170
Cd 24.606345 8.193401 -18.057170
Cd 24.606345 4.911287 -14.775056
Cd 27.888459 8.193401 -14.775056
Cd 27.888459 4.911287 -11.492943
Cd 24.606345 8.193401 -11.492943
Cd 24.606345 4.911287 -8.210829
Cd 27.888459 8.193401 -8.210829
Cd 27.888459 4.911287 -4.928716
Cd 24.606345 8.193401 -4.928716
Cd 24.606345 4.911287 -1.646602
Cd 27.888459 8.193401 -1.646602
Cd 27.888459 4.911287 1.635511
Cd 24.606345 8.193401 1.635511
Cd 24.606345 4.911287 4.917625
Cd 27.888459 8.193401 4.917625
Cd 27.888459 4.911287 8.199738
Cd 24.606345 8.193401 8.199738
Cd 24.606345 4.911287 11.481852
Cd 27.888459 8.193401 11.481852
Cd 27.888459 4.911287 14.763966
Cd 24.606345 8.193401 14.763966
Cd 24.606345 11.475514 -14.775056
Cd 27.888459 11.475514 -11.492943
Cd 24.606345 11.475514 -8.210829
Cd 27.888459 14.757628 -8.210829
Cd 27.888459 11.475514 -4.928716
Cd 24.606345 14.757628 -4.928716
Cd 24.606345 11.475514 -1.646602
Cd 27.888459 14.757628 -1.646602
Cd 27.888459 11.475514 1.635511
Cd 24.606345 14.757628 1.635511
Cd 24.606345 11.475514 4.917625
Cd 27.888459 14.757628 4.917625
Cd 27.888459 11.475514 8.199738
Cd 24.606345 11.475514 11.481852
Cd 24.606345 18.039741 -8.210829
Cd 27.888459 18.039741 -4.928716
Cd 24.606345 21.321855 -4.928716
Cd 24.606345 18.039741 -1.646602
Cd 27.888459 21.321855 -1.646602
Cd 27.888459 18.039741 1.635511
Cd 24.606345 21.321855 1.635511
Cd 24.606345 18.039741 4.917625
Cd 24.606345 24.603969 -1.646602
Te -26.266415 -22.986678 -3.287659
Te -22.984301 -22.986678 -0.005545
Te -26.266415 -16.422451 -3.287659
Te -22.984301 -16.422451 -6.569773
Te -22.984301 -19.704564 -3.287659
Te -26.266415 -19.704564 -0.005545
Te -26.266415 -16.422451 3.276568
Te -22.984301 -16.422451 -0.005545
Te -22.984301 -19.704564 3.276568
Te -22.984301 -16.422451 6.558682
Te -26.266415 -13.140337 -13.134000
Te -26.266415 -9.858224 -9.851886
Te -22.984301 -9.858224 -13.134000
Te -22.984301 -13.140337 -9.851886
Te -26.266415 -13.140337 -6.569773
Te -26.266415 -9.858224 -3.287659
Te -22.984301 -9.858224 -6.569773
Te -22.984301 -13.140337 -3.287659
Te -26.266415 -13.140337 -0.005545
Te -26.266415 -9.858224 3.276568
Te -22.984301 -9.858224 -0.005545
Te -22.984301 -13.140337 3.276568
Te -26.266415 -13.140337 6.558682
Te -26.266415 -9.858224 9.840795
Te -22.984301 -9.858224 6.558682
Te -22.984301 -13.140337 9.840795
Te -22.984301 -9.858224 13.122909
Te -26.266415 -3.293997 -22.980340
Te -26.266415 -3.293997 -16.416113
Te -22.984301 -3.293997 -19.698227
Te -22.984301 -6.576110 -16.416113
Te -26.266415 -6.576110 -13.134000
Te -26.266415 -3.293997 -9.851886
Te -22.984301 -3.293997 -13.134000
Te -22.984301 -6.576110 -9.851886
Te -26.266415 -6.576110 -6.569773
Te -26.266415 -3.293997 -3.287659
Te -22.984301 -3.293997 -6.569773
Te -22.984301 -6.576110 -3.287659
Te -26.266415 -6.576110 -0.005545
Te -26.266415 -3.293997 3.276568
Te -22.984301 -3.293997 -0.005545
Te -22.984301 -6.576110 3.276568
Te -26.266415 -6.576110 6.558682
Te -26.266415 -3.293997 9.840795
Te -22.984301 -3.293997 6.558682
Te -22.984301 -6.576110 9.840795
Te -26.266415 -6.576110 13.122909
Te -26.266415 -3.293997 16.405022
Te -22.984301 -3.293997 13.122909
Te -22.984301 -6.576110 16.405022
Te -22.984301 -3.293997 19.687136
Te -22.984301 -0.011883 -22.980340
Te -26.266415 -0.011883 -19.698227
Te -26.266415 3.270230 -16.416113
Te -22.984301 3.270230 -19.698227
Te -22.984301 -0.011883 -16.416113
Te -26.266415 -0.011883 -13.134000
Te -26.266415 3.270230 -9.851886
Te -22.984301 3.270230 -13.134000
Te -22.984301 -0.011883 -9.851886
Te -26.266415 -0.011883 -6.569773
Te -26.266415 3.270230 -3.287659
Te -22.984301 3.270230 -6.569773
Te -22.984301 -0.011883 -3.287659
Te -26.266415 -0.011883 -0.005545
Te -26.266415 3.270230 3.276568
Te -22.984301 3.270230 -0.005545
Te -22.984301 -0.011883 3.276568
Te -26.266415 -0.011883 6.558682
Te -26.266415 3.270230 9.840795
Te -22.984301 3.270230 6.558682
Te -22.984301 -0.011883 9.840795
Te -26.266415 -0.011883 13.122909
Te -26.266415 3.270230 16.405022
Te -22.984301 3.270230 13.122909
Te -22.984301 -0.011883 16.405022
Te -26.266415 -0.011883 19.687136
Te -26.266415 3.270230 22.969249
Te -22.984301 3.270230 19.687136
Te -22.984301 -0.011883 22.969249
Te -22.984301 6.552344 -16.416113
Te -26.266415 6.552344 -13.134000
Te -26.266415 9.834458 -9.851886
Te -22.984301 9.834458 -13.134000
Te -22.984301 6.552344 -9.851886
Te -26.266415 6.552344 -6.569773
Te -26.266415 9.834458 -3.287659
Te -22.984301 9.834458 -6.569773
Te -22.984301 6.552344 -3.287659
Te -26.266415 6.552344 -0.005545
Te -26.266415 9.834458 3.276568
Te -22.984301 9.834458 -0.005545
Te -22.984301 6.552344 3.276568
Te -26.266415 6.552344 6.558682
Te -26.266415 9.834458 9.840795
Te -22.984301 9.834458 6.558682
Te -22.984301 6.552344 9.840795
Te -26.266415 6.552344 13.122909
Te -22.984301 9.834458 13.122909
Te -22.984301 6.552344 16.405022
Te -22.984301 13.116571 -9.851886
Te -26.266415 13.116571 -6.569773
Te -26.266415 16.398685 -3.287659
Te -22.984301 16.398685 -6.569773
Te -22.984301 13.116571 -3.287659
Te -26.266415 13.116571 -0.005545
Te -26.266415 16.398685 3.276568
Te -22.984301 16.398685 -0.005545
Te -22.984301 13.116571 3.276568
Te -26.266415 13.116571 6.558682
Te -22.984301 16.398685 6.558682
Te -22.984301 13.116571 9.840795
Te -26.266415 13.116571 13.122909
Te -22.984301 19.680798 -3.287659
Te -26.266415 19.680798 -0.005545
Te -26.266415 22.962912 3.276568
Te -22.984301 22.962912 -0.005545
Te -22.984301 19.680798 3.276568
Te -16.420074 -26.268792 -9.851886
Te -19.702188 -22.986678 -3.287659
Te -16.420074 -22.986678 -6.569773
Te -16.420074 -26.268792 -3.287659
Te -19.702188 -26.268792 -0.005545
Te -19.702188 -22.986678 3.276568
Te -16.420074 -22.986678 -0.005545
Te -16.420074 -26.268792 3.276568
Te -16.420074 -22.986678 6.558682
Te -19.702188 -16.422451 -9.851886
Te -16.420074 -16.422451 -13.134000
Te -16.420074 -19.704564 -9.851886
Te -19.702188 -19.704564 -6.569773
Te -19.702188 -16.422451 -3.287659
Te -16.420074 -16.422451 -6.569773
Te -16.420074 -19.704564 -3.287659
Te -19.702188 -19.704564 -0.005545
Te -19.702188 -16.422451 3.276568
Te -16.420074 -16.422451 -0.005545
Te -16.420074 -19.704564 3.276568
Te -19.702188 -19.704564 6.558682
Te -19.702188 -16.422451 9.840795
Te -16.420074 -16.422451 6.558682
Te -16.420074 -19.704564 9.840795
Te -16.420074 -16.422451 13.122909
Te -16.420074 -9.858224 -26.262454
Te -19.702188 -9.858224 -16.416113
Te -16.420074 -9.858224 -19.698227
Te -16.420074 -13.140337 -16.416113
Te -19.702188 -13.140337 -13.134000
Te -19.702188 -9.858224 -9.851886
Te -16.420074 -9.858224 -13.134000
Te -16.420074 -13.140337 -9.851886
Te -19.702188 -13.140337 -6.569773
Te -19.702188 -9.858224 -3.287659
Te -16.420074 -9.858224 -6.569773
Te -16.420074 -13.140337 -3.287659
Te -19.702188 -13.140337 -0.005545
Te -19.702188 -9.858224 3.276568
Te -16.420074 -9.858224 -0.005545
Te -16.420074 -13.140337 3.276568
Te -19.702188 -13.140337 6.558682
Te -19.702188 -9.858224 9.840795
Te -16.420074 -9.858224 6.558682
Te -16.420074 -13.140337 9.840795
Te -19.702188 -13.140337 13.122909
Te -19.702188 -9.858224 16.405022
Te -16.420074 -9.858224 13.122909
Te -16.420074 -13.140337 16.405022
Te -16.420074 -9.858224 19.687136
Te -19.702188 -3.293997 -22.980340
Te -16.420074 -3.293997 -26.262454
Te -16.420074 -6.576110 -22.980340
Te -19.702188 -6.576110 -19.698227
Te -19.702188 -3.293997 -16.416113
Te -16.420074 -3.293997 -19.698227
Te -16.420074 -6.576110 -16.416113
Te -19.702188 -6.576110 -13.134000
Te -19.702188 -3.293997 -9.851886
Te -16.420074 -3.293997 -13.134000
Te -16.420074 -6.576110 -9.851886
Te -19.702188 -6.576110 -6.569773
Te -19.702188 -3.293997 -3.287659
Te -16.420074 -3.293997 -6.569773
Te -16.420074 -6.576110 -3.287659
Te -19.702188 -6.576110 -0.005545
Te -19.702188 -3.293997 3.276568
Te -16.420074 -3.293997 -0.005545
Te -16.420074 -6.576110 3.276568
Te -19.702188 -6.576110 6.558682
Te -19.702188 -3.293997 9.840795
Te -16.420074 -3.293997 6.558682
Te -16.420074 -6.576110 9.840795
Te -19.702188 -6.576110 13.122909
Te -19.702188 -3.293997 16.405022
Te -16.420074 -3.293997 13.122909
Te -16.420074 -6.576110 16.405022
Te -19.702188 -6.576110 19.687136
Te -19.702188 -3.293997 22.969249
Te -16.420074 -3.293997 19.687136
Te -16.420074 -6.576110 22.969249
Te -16.420074 -3.293997 26.251363
Te -19.702188 -0.011883 -26.262454
Te -19.702188 3.270230 -22.980340
Te -16.420074 3.270230 -26.262454
Te -16.420074 -0.011883 -22.980340
Te -19.702188 -0.011883 -19.698227
Te -19.702188 3.270230 -16.416113
Te -16.420074 3.270230 -19.698227
Te -16.420074 -0.011883 -16.416113
Te -19.702188 -0.011883 -13.134000
Te -19.702188 3.270230 -9.851886
Te -16.420074 3.270230 -13.134000
Te -16.420074 -0.011883 -9.851886
Te -19.702188 -0.011883 -6.569773
Te -19.702188 3.270230 -3.287659
Te -16.420074 3.270230 -6.569773
Te -16.420074 -0.011883 -3.287659
Te -19.702188 -0.011883 -0.005545
Te -19.702188 3.270230 3.276568
Te -16.420074 3.270230 -0.005545
Te -16.420074 -0.011883 3.276568
Te -19.702188 -0.011883 6.558682
Te -19.702188 3.270230 9.840795
Te -16.420074 3.270230 6.558682
Te -16.420074 -0.011883 9.840795
Te -19.702188 -0.011883 13.122909
Te -19.702188 3.270230 16.405022
Te -16.420074 3.270230 13.122909
Te -16.420074 -0.011883 16.405022
Te -19.702188 -0.011883 19.687136
Te -19.702188 3.270230 22.969249
Te -16.420074 3.270230 19.687136
Te -16.420074 -0.011883 22.969249
Te -19.702188 -0.011883 26.251363
Te -16.420074 3.270230 26.251363
Te -16.420074 6.552344 -22.980340
Te -19.702188 6.552344 -19.698227
Te -19.702188 9.834458 -16.416113
Te -16.420074 9.834458 -19.698227
Te -16.420074 6.552344 -16.416113
Te -19.702188 6.552344 -13.134000
Te -19.702188 9.834458 -9.851886
Te -16.420074 9.834458 -13.134000
Te -16.420074 6.552344 -9.851886
Te -19.702188 6.552344 -6.569773
Te -19.702188 9.834458 -3.287659
Te -16.420074 9.834458 -6.569773
Te -16.420074 6.552344 -3.287659
Te -19.702188 6.552344 -0.005545
Te -19.702188 9.834458 3.276568
Te -16.420074 9.834458 -0.005545
Te -16.420074 6.552344 3.276568
Te -19.702188 6.552344 6.558682
Te -19.702188 9.834458 9.840795
Te -16.420074 9.834458 6.558682
Te -16.420074 6.552344 9.840795
Te -19.702188 6.552344 13.122909
Te -19.702188 9.834458 16.405022
Te -16.420074 9.834458 13.122909
Te -16.420074 6.552344 16.405022
Te -19.702188 6.552344 19.687136
Te -16.420074 9.834458 19.687136
Te -16.420074 6.552344 22.969249
Te -16.420074 9.834458 26.251363
Te -16.420074 13.116571 -16.416113
Te -19.702188 13.116571 -13.134000
Te -19.702188 16.398685 -9.851886
Te -16.420074 16.398685 -13.134000
Te -16.420074 13.116571 -9.851886
Te -19.702188 13.116571 -6.569773
Te -19.702188 16.398685 -3.287659
Te -16.420074 16.398685 -6.569773
Te -16.420074 13.116571 -3.287659
Te -19.702188 13.116571 -0.005545
Te -19.702188 16.398685 3.276568
Te -16.420074 16.398685 -0.005545
Te -16.420074 13.116571 3.276568
Te -19.702188 13.116571 6.558682
Te -19.702188 16.398685 9.840795
Te -16.420074 16.398685 6.558682
Te -16.420074 13.116571 9.840795
Te -19.702188 13.116571 13.122909
Te -16.420074 16.398685 13.122909
Te -16.420074 13.116571 16.405022
Te -16.420074 19.680798 -9.851886
Te -19.702188 19.680798 -6.569773
Te -19.702188 22.962912 -3.287659
Te -16.420074 22.962912 -6.569773
Te -16.420074 19.680798 -3.287659
Te -19.702188 19.680798 -0.005545
Te -19.702188 22.962912 3.276568
Te -16.420074 22.962912 -0.005545
Te -16.420074 19.680798 3.276568
Te -19.702188 19.680798 6.558682
Te -16.420074 22.962912 6.558682
Te -16.420074 19.680798 9.840795
Te -16.420074 26.245025 -3.287659
Te -19.702188 26.245025 -0.005545
Te -16.420074 26.245025 3.276568
Te -16.420074 26.245025 9.840795
Te -13.137961 -22.986678 -9.851886
Te -9.855847 -22.986678 -13.134000
Te -9.855847 -26.268792 -9.851886
Te -13.137961 -26.268792 -6.569773
Te -13.137961 -22.986678 -3.287659
Te -9.855847 -22.986678 -6.569773
Te -9.855847 -26.268792 -3.287659
Te -13.137961 -26.268792 -0.005545
Te -13.137961 -22.986678 3.276568
Te -9.855847 -22.986678 -0.005545
Te -9.855847 -26.268792 3.276568
Te -13.137961 -26.268792 6.558682
Te -13.137961 -22.986678 9.840795
Te -9.855847 -22.986678 6.558682
Te -9.855847 -26.268792 9.840795
Te -9.855847 -22.986678 13.122909
Te -13.137961 -16.422451 -16.416113
Te -9.855847 -16.422451 -19.698227
Te -9.855847 -19.704564 -16.416113
Te -13.137961 -19.704564 -13.134000
Te -13.137961 -16.422451 -9.851886
Te -9.855847 -16.422451 -13.134000
Te -9.855847 -19.704564 -9.851886
Te -13.137961 -19.704564 -6.569773
Te -13.137961 -16.422451 -3.287659
Te -9.855847 -16.422451 -6.569773
Te -9.855847 -19.704564 -3.287659
Te -13.137961 -19.704564 -0.005545
Te -13.137961 -16.422451 3.276568
Te -9.855847 -16.422451 -0.005545
Te -9.855847 -19.704564 3.276568
Te -13.137961 -19.704564 6.558682
Te -13.137961 -16.422451 9.840795
Te -9.855847 -16.422451 6.558682
Te -9.855847 -19.704564 9.840795
Te -13.137961 -19.704564 13.122909
Te -13.137961 -16.422451 16.405022
Te -9.855847 -16.422451 13.122909
Te -9.855847 -19.704564 16.405022
Te -9.855847 -16.422451 19.687136
Te -13.137961 -9.858224 -22.980340
Te -9.855847 -9.858224 -26.262454
Te -9.855847 -13.140337 -22.980340
Te -13.137961 -13.140337 -19.698227
Te -13.137961 -9.858224 -16.416113
Te -9.855847 -9.858224 -19.698227
Te -9.855847 -13.140337 -16.416113
Te -13.137961 -13.140337 -13.134000
Te -13.137961 -9.858224 -9.851886
Te -9.855847 -9.858224 -13.134000
Te -9.855847 -13.140337 -9.851886
Te -13.137961 -13.140337 -6.569773
Te -13.137961 -9.858224 -3.287659
Te -9.855847 -9.858224 -6.569773
Te -9.855847 -13.140337 -3.287659
Te -13.137961 -13.140337 -0.005545
Te -13.137961 -9.858224 3.276568
Te -9.855847 -9.858224 -0.005545
Te -9.855847 -13.140337 3.276568
Te -13.137961 -13.140337 6.558682
Te -13.137961 -9.858224 9.840795
Te -9.855847 -9.858224 6.558682
Te -9.855847 -13.140337 9.840795
Te -13.137961 -13.140337 13.122909
Te -13.137961 -9.858224 16.405022
Te -9.855847 -9.858224 13.122909
Te -9.855847 -13.140337 16.405022
Te -13.137961 -13.140337 19.687136
Te -13.137961 -9.858224 22.969249
Te -9.855847 -9.858224 19.687136
Te -9.855847 -13.140337 22.969249
Te -9.855847 -9.858224 26.251363
Te -13.137961 -6.576110 -26.262454
Te -13.137961 -3.293997 -22.980340
Te -9.855847 -3.293997 -26.262454
Te -9.855847 -6.576110 -22.980340
Te -13.137961 -6.576110 -19.698227
Te -13.137961 -3.293997 -16.416113
Te -9.855847 -3.293997 -19.698227
Te -9.855847 -6.576110 -16.416113
Te -13.137961 -6.576110 -13.134000
Te -13.137961 -3.293997 -9.851886
Te -9.855847 -3.293997 -13.134000
Te -9.855847 -6.576110 -9.851886
Te -13.137961 -6.576110 -6.569773
Te -13.137961 -3.293997 -3.287659
Te -9.855847 -3.293997 -6.569773
Te -9.855847 -6.576110 -3.287659
Te -13.137961 -6.576110 -0.005545
Te -13.137961 -3.293997 3.276568
Te -9.855847 -3.293997 -0.005545
Te -9.855847 -6.576110 3.276568
Te -13.137961 -6.576110 6.558682
Te -13.137961 -3.293997 9.840795
Te -9.855847 -3.293997 6.558682
Te -9.855847 -6.576110 9.840795
Te -13.137961 -6.576110 13.122909
Te -13.137961 -3.293997 16.405022
Te -9.855847 -3.293997 13.122909
Te -9.855847 -6.576110 16.405022
Te -13.137961 -6.576110 19.687136
Te -13.137961 -3.293997 22.969249
Te -9.855847 -3.293997 19.687136
Te -9.855847 -6.576110 22.969249
Te -13.137961 -6.576110 26.251363
Te -9.855847 -3.293997 26.251363
Te -13.137961 -0.011883 -26.262454
Te -13.137961 3.270230 -22.980340
Te -9.855847 3.270230 -26.262454
Te -9.855847 -0.011883 -22.980340
Te -13.137961 -0.011883 -19.698227
Te -13.137961 3.270230 -16.416113
Te -9.855847 3.270230 -19.698227
Te -9.855847 -0.011883 -16.416113
Te -13.137961 -0.011883 -13.134000
Te -13.137961 3.270230 -9.851886
Te -9.855847 3.270230 -13.134000
Te -9.855847 -0.011883 -9.851886
Te -13.137961 -0.011883 -6.569773
Te -13.137961 3.270230 -3.287659
Te -9.855847 3.270230 -6.569773
Te -9.855847 -0.011883 -3.287659
Te -13.137961 -0.011883 -0.005545
Te -13.137961 3.270230 3.276568
Te -9.855847 3.270230 -0.005545
Te -9.855847 -0.011883 3.276568
Te -13.137961 -0.011883 6.558682
Te -13.137961 3.270230 9.840795
Te -9.855847 3.270230 6.558682
Te -9.855847 -0.011883 9.840795
Te -13.137961 -0.011883 13.122909
Te -13.137961 3.270230 16.405022
Te -9.855847 3.270230 13.122909
Te -9.855847 -0.011883 16.405022
Te -13.137961 -0.011883 19.687136
Te -13.137961 3.270230 22.969249
Te -9.855847 3.270230 19.687136
Te -9.855847 -0.011883 22.969249
Te -13.137961 -0.011883 26.251363
Te -9.855847 3.270230 26.251363
Te -13.137961 6.552344 -26.262454
Te -13.137961 9.834458 -22.980340
Te -9.855847 9.834458 -26.262454
Te -9.855847 6.552344 -22.980340
Te -13.137961 6.552344 -19.698227
Te -13.137961 9.834458 -16.416113
Te -9.855847 9.834458 -19.698227
Te -9.855847 6.552344 -16.416113
Te -13.137961 6.552344 -13.134000
Te -13.137961 9.834458 -9.851886
Te -9.855847 9.834458 -13.134000
Te -9.855847 6.552344 -9.851886
Te -13.137961 6.552344 -6.569773
Te -13.137961 9.834458 -3.287659
Te -9.855847 9.834458 -6.569773
Te -9.855847 6.552344 -3.287659
Te -13.137961 6.552344 -0.005545
Te -13.137961 9.834458 3.276568
Te -9.855847 9.834458 -0.005545
Te -9.855847 6.552344 3.276568
Te -13.137961 6.552344 6.558682
Te -13.137961 9.834458 9.840795
Te -9.855847 9.834458 6.558682
Te -9.855847 6.552344 9.840795
Te -13.137961 6.552344 13.122909
Te -13.137961 9.834458 16.405022
Te -9.855847 9.834458 13.122909
Te -9.855847 6.552344 16.405022
Te -13.137961 6.552344 19.687136
Te -13.137961 9.834458 22.969249
Te -9.855847 9.834458 19.687136
Te -9.855847 6.552344 22.969249
Te -13.137961 6.552344 26.251363
Te -9.855847 9.834458 26.251363
Te -9.855847 13.116571 -22.980340
Te -13.137961 13.116571 -19.698227
Te -13.137961 16.398685 -16.416113
Te -9.855847 16.398685 -19.698227
Te -9.855847 13.116571 -16.416113
Te -13.137961 13.116571 -13.134000
Te -13.137961 16.398685 -9.851886
Te -9.855847 16.398685 -13.134000
Te -9.855847 13.116571 -9.851886
Te -13.137961 13.116571 -6.569773
Te -13.137961 16.398685 -3.287659
Te -9.855847 16.398685 -6.569773
Te -9.855847 13.116571 -3.287659
Te -13.137961 13.116571 -0.005545
Te -13.137961 16.398685 3.276568
Te -9.855847 16.398685 -0.005545
Te -9.855847 13.116571 3.276568
Te -13.137961 13.116571 6.558682
Te -13.137961 16.398685 9.840795
Te -9.855847 16.398685 6.558682
Te -9.855847 13.116571 9.840795
Te -13.137961 13.116571 13.122909
Te -13.137961 16.398685 16.405022
Te -9.855847 16.398685 13.122909
Te -9.855847 13.116571 16.405022
Te -13.137961 13.116571 19.687136
Te -9.855847 16.398685 19.687136
Te -9.855847 13.116571 22.969249
Te -9.855847 19.680798 -16.416113
Te -13.137961 19.680798 -13.134000
Te -13.137961 22.962912 -9.851886
Te -9.855847 22.962912 -13.134000
Te -9.855847 19.680798 -9.851886
Te -13.137961 19.680798 -6.569773
Te -13.137961 22.962912 -3.287659
Te -9.855847 22.962912 -6.569773
Te -9.855847 19.680798 -3.287659
Te -13.137961 19.680798 -0.005545
Te -13.137961 22.962912 3.276568
Te -9.855847 22.962912 -0.005545
Te -9.855847 19.680798 3.276568
Te -13.137961 19.680798 6.558682
Te -13.137961 22.962912 9.840795
Te -9.855847 22.962912 6.558682
Te -9.855847 19.680798 9.840795
Te -13.137961 19.680798 13.122909
Te -9.855847 22.962912 13.122909
Te -9.855847 19.680798 16.405022
Te -9.855847 26.245025 -9.851886
Te -13.137961 26.245025 -6.569773
Te -9.855847 26.245025 -3.287659
Te -13.137961 26.245025 -0.005545
Te -9.855847 26.245025 3.276568
Te -13.137961 26.245025 6.558682
Te -9.855847 26.245025 9.840795
Te -3.291620 -26.268792 -22.980340
Te -6.573734 -22.986678 -16.416113
Te -3.291620 -22.986678 -19.698227
Te -3.291620 -26.268792 -16.416113
Te -6.573734 -26.268792 -13.134000
Te -6.573734 -22.986678 -9.851886
Te -3.291620 -22.986678 -13.134000
Te -3.291620 -26.268792 -9.851886
Te -6.573734 -26.268792 -6.569773
Te -6.573734 -22.986678 -3.287659
Te -3.291620 -22.986678 -6.569773
Te -3.291620 -26.268792 -3.287659
Te -6.573734 -26.268792 -0.005545
Te -6.573734 -22.986678 3.276568
Te -3.291620 -22.986678 -0.005545
Te -3.291620 -26.268792 3.276568
Te -6.573734 -26.268792 6.558682
Te -6.573734 -22.986678 9.840795
Te -3.291620 -22.986678 6.558682
Te -3.291620 -26.268792 9.840795
Te -6.573734 -26.268792 13.122909
Te -6.573734 -22.986678 16.405022
Te -3.291620 -22.986678 13.122909
Te -3.291620 -26.268792 16.405022
Te -3.291620 -22.986678 19.687136
Te -6.573734 -19.704564 -26.262454
Te -6.573734 -16.422451 -22.980340
Te -3.291620 -16.422451 -26.262454
Te -3.291620 -19.704564 -22.980340
Te -6.573734 -19.704564 -19.698227
Te -6.573734 -16.422451 -16.416113
Te -3.291620 -16.422451 -19.698227
Te -3.291620 -19.704564 -16.416113
Te -6.573734 -19.704564 -13.134000
Te -6.573734 -16.422451 -9.851886
Te -3.291620 -16.422451 -13.134000
Te -3.291620 -19.704564 -9.851886
Te -6.573734 -19.704564 -6.569773
Te -6.573734 -16.422451 -3.287659
Te -3.291620 -16.422451 -6.569773
Te -3.291620 -19.704564 -3.287659
Te -6.573734 -19.704564 -0.005545
Te -6.573734 -16.422451 3.276568
Te -3.291620 -16.422451 -0.005545
Te -3.291620 -19.704564 3.276568
Te -6.573734 -19.704564 6.558682
Te -6.573734 -16.422451 9.840795
Te -3.291620 -16.422451 6.558682
Te -3.291620 -19.704564 9.840795
Te -6.573734 -19.704564 13.122909
Te -6.573734 -16.422451 16.405022
Te -3.291620 -16.422451 13.122909
Te -3.291620 -19.704564 16.405022
Te -6.573734 -19.704564 19.687136
Te -6.573734 -16.422451 22.969249
Te -3.291620 -16.422451 19.687136
Te -3.291620 -19.704564 22.969249
Te -3.291620 -16.422451 26.251363
Te -6.573734 -13.140337 -26.262454
Te -6.573734 -9.858224 -22.980340
Te -3.291620 -9.858224 -26.262454
Te -3.291620 -13.140337 -22.980340
Te -6.573734 -13.140337 -19.698227
Te -6.573734 -9.858224 -16.416113
Te -3.291620 -9.858224 -19.698227
Te -3.291620 -13.140337 -16.416113
Te -6.573734 -13.140337 -13.134000
Te -6.573734 -9.858224 -9.851886
Te -3.291620 -9.858224 -13.134000
Te -3.291620 -13.140337 -9.851886
Te -6.573734 -13.140337 -6.569773
Te -6.573734 -9.858224 -3.287659
Te -3.291620 -9.858224 -6.569773
Te -3.291620 -13.140337 -3.287659
Te -6.573734 -13.140337 -0.005545
Te -6.573734 -9.858224 3.276568
Te -3.291620 -9.858224 -0.005545
Te -3.291620 -13.140337 3.276568
Te -6.573734 -13.140337 6.558682
Te -6.573734 -9.858224 9.840795
Te -3.291620 -9.858224 6.558682
Te -3.291620 -13.140337 9.840795
Te -6.573734 -13.140337 13.122909
Te -6.573734 -9.858224 16.405022
Te -3.291620 -9.858224 13.122909
Te -3.291620 -13.140337 16.405022
Te -6.573734 -13.140337 19.687136
Te -6.573734 -9.858224 22.969249
Te -3.291620 -9.858224 19.687136
Te -3.291620 -13.140337 22.969249
Te -6.573734 -13.140337 26.251363
Te -3.291620 -9.858224 26.251363
Te -6.573734 -6.576110 -26.262454
Te -6.573734 -3.293997 -22.980340
Te -3.291620 -3.293997 -26.262454
Te -3.291620 -6.576110 -22.980340
Te -6.573734 -6.576110 -19.698227
Te -6.573734 -3.293997 -16.416113
Te -3.291620 -3.293997 -19.698227
Te -3.291620 -6.576110 -16.416113
Te -6.573734 -6.576110 -13.134000
Te -6.573734 -3.293997 -9.851886
Te -3.291620 -3.293997 -13.134000
Te -3.291620 -6.576110 -9.851886
Te -6.573734 -6.576110 -6.569773
Te -6.573734 -3.293997 -3.287659
Te -3.291620 -3.293997 -6.569773
Te -3.291620 -6.576110 -3.287659
Te -6.573734 -6.576110 -0.005545
Te -6.573734 -3.293997 3.276568
Te -3.291620 -3.293997 -0.005545
Te -3.291620 -6.576110 3.276568
Te -6.573734 -6.576110 6.558682
Te -6.573734 -3.293997 9.840795
Te -3.291620 -3.293997 6.558682
Te -3.291620 -6.576110 9.840795
Te -6.573734 -6.576110 13.122909
Te -6.573734 -3.293997 16.405022
Te -3.291620 -3.293997 13.122909
Te -3.291620 -6.576110 16.405022
Te -6.573734 -6.576110 19.687136
Te -6.573734 -3.293997 22.969249
Te -3.291620 -3.293997 19.687136
Te -3.291620 -6.576110 22.969249
Te -6.573734 -6.576110 26.251363
Te -3.291620 -3.293997 26.251363
Te -6.573734 -0.011883 -26.262454
Te -6.573734 3.270230 -22.980340
Te -3.291620 3.270230 -26.262454
Te -3.291620 -0.011883 -22.980340
Te -6.573734 -0.011883 -19.698227
Te -6.573734 3.270230 -16.416113
Te -3.291620 3.270230 -19.698227
Te -3.291620 -0.011883 -16.416113
Te -6.573734 -0.011883 -13.134000
Te -6.573734 3.270230 -9.851886
Te -3.291620 3.270230 -13.134000
Te -3.291620 -0.011883 -9.851886
Te -6.573734 -0.011883 -6.569773
Te -6.573734 3.270230 -3.287659
Te -3.291620 3.270230 -6.569773
Te -3.291620 -0.011883 -3.287659
Te -6.573734 -0.011883 -0.005545
Te -6.573734 3.270230 3.276568
Te -3.291620 3.270230 -0.005545
Te -3.291620 -0.011883 3.276568
Te -6.573734 -0.011883 6.558682
Te -6.573734 3.270230 9.840795
Te -3.291620 3.270230 6.558682
Te -3.291620 -0.011883 9.840795
Te -6.573734 -0.011883 13.122909
Te -6.573734 3.270230 16.405022
Te -3.291620 3.270230 13.122909
Te -3.291620 -0.011883 16.405022
Te -6.573734 -0.011883 19.687136
Te -6.573734 3.270230 22.969249
Te -3.291620 3.270230 19.687136
Te -3.291620 -0.011883 22.969249
Te -6.573734 -0.011883 26.251363
Te -3.291620 3.270230 26.251363
Te -6.573734 6.552344 -26.262454
Te -6.573734 9.834458 -22.980340
Te -3.291620 9.834458 -26.262454
Te -3.291620 6.552344 -22.980340
Te -6.573734 6.552344 -19.698227
Te -6.573734 9.834458 -16.416113
Te -3.291620 9.834458 -19.698227
Te -3.291620 6.552344 -16.416113
Te -6.573734 6.552344 -13.134000
Te -6.573734 9.834458 -9.851886
Te -3.291620 9.834458 -13.134000
Te -3.291620 6.552344 -9.851886
Te -6.573734 6.552344 -6.569773
Te -6.573734 9.834458 -3.287659
Te -3.291620 9.834458 -6.569773
Te -3.291620 6.552344 -3.287659
Te -6.573734 6.552344 -0.005545
Te -6.573734 9.834458 3.276568
Te -3.291620 9.834458 -0.005545
Te -3.291620 6.552344 3.276568
Te -6.573734 6.552344 6.558682
Te -6.573734 9.834458 9.840795
Te -3.291620 9.834458 6.558682
Te -3.291620 6.552344 9.840795
Te -6.573734 6.552344 13.122909
Te -6.573734 9.834458 16.405022
Te -3.291620 9.834458 13.122909
Te -3.291620 6.552344 16.405022
Te -6.573734 6.552344 19.687136
Te -6.573734 9.834458 22.969249
Te -3.291620 9.834458 19.687136
Te -3.291620 6.552344 22.969249
Te -6.573734 6.552344 26.251363
Te -3.291620 9.834458 26.251363
Te -6.573734 13.116571 -26.262454
Te -6.573734 16.398685 -22.980340
Te -3.291620 16.398685 -26.262454
Te -3.291620 13.116571 -22.980340
Te -6.573734 13.116571 -19.698227
Te -6.573734 16.398685 -16.416113
Te -3.291620 16.398685 -19.698227
Te -3.291620 13.116571 -16.416113
Te -6.573734 13.116571 -13.134000
Te -6.573734 16.398685 -9.851886
Te -3.291620 16.398685 -13.134000
Te -3.291620 13.116571 -9.851886
Te -6.573734 13.116571 -6.569773
Te -6.573734 16.398685 -3.287659
Te -3.291620 16.398685 -6.569773
Te -3.291620 13.116571 -3.287659
Te -6.573734 13.116571 -0.005545
Te -6.573734 16.398685 3.276568
Te -3.291620 16.398685 -0.005545
Te -3.291620 13.116571 3.276568
Te -6.573734 13.116571 6.558682
Te -6.573734 16.398685 9.840795
Te -3.291620 16.398685 6.558682
Te -3.291620 13.116571 9.840795
Te -6.573734 13.116571 13.122909
Te -6.573734 16.398685 16.405022
Te -3.291620 16.398685 13.122909
Te -3.291620 13.116571 16.405022
Te -6.573734 13.116571 19.687136
Te -6.573734 16.398685 22.969249
Te -3.291620 16.398685 19.687136
Te -3.291620 13.116571 22.969249
Te -6.573734 13.116571 26.251363
Te -3.291620 16.398685 26.251363
Te -3.291620 19.680798 -22.980340
Te -6.573734 19.680798 -19.698227
Te -6.573734 22.962912 -16.416113
Te -3.291620 22.962912 -19.698227
Te -3.291620 19.680798 -16.416113
Te -6.573734 19.680798 -13.134000
Te -6.573734 22.962912 -9.851886
Te -3.291620 22.962912 -13.134000
Te -3.291620 19.680798 -9.851886
Te -6.573734 19.680798 -6.569773
Te -6.573734 22.962912 -3.287659
Te -3.291620 22.962912 -6.569773
Te -3.291620 19.680798 -3.287659
Te -6.573734 19.680798 -0.005545
Te -6.573734 22.962912 3.276568
Te -3.291620 22.962912 -0.005545
Te -3.291620 19.680798 3.276568
Te -6.573734 19.680798 6.558682
Te -6.573734 22.962912 9.840795
Te -3.291620 22.962912 6.558682
Te -3.291620 19.680798 9.840795
Te -6.573734 19.680798 13.122909
Te -6.573734 22.962912 16.405022
Te -3.291620 22.962912 13.122909
Te -3.291620 19.680798 16.405022
Te -6.573734 19.680798 19.687136
Te -3.291620 22.962912 19.687136
Te -3.291620 19.680798 22.969249
Te -3.291620 22.962912 26.251363
Te -3.291620 26.245025 -16.416113
Te -6.573734 26.245025 -13.134000
Te -3.291620 26.245025 -9.851886
Te -6.573734 26.245025 -6.569773
Te -3.291620 26.245025 -3.287659
Te -6.573734 26.245025 -0.005545
Te -3.291620 26.245025 3.276568
Te -6.573734 26.245025 6.558682
Te -3.291620 26.245025 9.840795
Te -6.573734 26.245025 13.122909
Te -3.291620 26.245025 16.405022
Te -6.573734 26.245025 19.687136
Te -0.009506 -22.986678 -22.980340
Te -0.009506 -26.268792 -19.698227
Te -0.009506 -22.986678 -16.416113
Te 3.272607 -22.986678 -19.698227
Te 3.272607 -26.268792 -16.416113
Te -0.009506 -26.268792 -13.134000
Te -0.009506 -22.986678 -9.851886
Te 3.272607 -22.986678 -13.134000
Te 3.272607 -26.268792 -9.851886
Te -0.009506 -26.268792 -6.569773
Te -0.009506 -22.986678 -3.287659
Te 3.272607 -22.986678 -6.569773
Te 3.272607 -26.268792 -3.287659
Te -0.009506 -26.268792 -0.005545
Te -0.009506 -22.986678 3.276568
Te 3.272607 -22.986678 -0.005545
Te 3.272607 -26.268792 3.276568
Te -0.009506 -26.268792 6.558682
Te -0.009506 -22.986678 9.840795
Te 3.272607 -22.986678 6.558682
Te 3.272607 -26.268792 9.840795
Te -0.009506 -26.268792 13.122909
Te -0.009506 -22.986678 16.405022
Te 3.272607 -22.986678 13.122909
Te 3.272607 -26.268792 16.405022
Te -0.009506 -26.268792 19.687136
Te -0.009506 -22.986678 22.969249
Te 3.272607 -22.986678 19.687136
Te 3.272607 -26.268792 22.969249
Te -0.009506 -19.704564 -26.262454
Te -0.009506 -16.422451 -22.980340
Te 3.272607 -16.422451 -26.262454
Te 3.272607 -19.704564 -22.980340
Te -0.009506 -19.704564 -19.698227
Te -0.009506 -16.422451 -16.416113
Te 3.272607 -16.422451 -19.698227
Te 3.272607 -19.704564 -16.416113
Te -0.009506 -19.704564 -13.134000
Te -0.009506 -16.422451 -9.851886
Te 3.272607 -16.422451 -13.134000
Te 3.272607 -19.704564 -9.851886
Te -0.009506 -19.704564 -6.569773
Te -0.009506 -16.422451 -3.287659
Te 3.272607 -16.422451 -6.569773
Te 3.272607 -19.704564 -3.287659
Te -0.009506 -19.704564 -0.005545
Te -0.009506 -16.422451 3.276568
Te 3.272607 -16.422451 -0.005545
Te 3.272607 -19.704564 3.276568
Te -0.009506 -19.704564 6.558682
Te -0.009506 -16.422451 9.840795
Te 3.272607 -16.422451 6.558682
Te 3.272607 -19.704564 9.840795
Te -0.009506 -19.704564 13.122909
Te -0.009506 -16.422451 16.405022
Te 3.272607 -16.422451 13.122909
Te 3.272607 -19.704564 16.405022
Te -0.009506 -19.704564 19.687136
Te -0.009506 -16.422451 22.969249
Te 3.272607 -16.422451 19.687136
Te 3.272607 -19.704564 22.969249
Te -0.009506 -19.704564 26.251363
Te 3.272607 -16.422451 26.251363
Te -0.009506 -13.140337 -26.262454
Te -0.009506 -9.858224 -22.980340
Te 3.272607 -9.858224 -26.262454
Te 3.272607 -13.140337 -22.980340
Te -0.009506 -13.140337 -19.698227
Te -0.009506 -9.858224 -16.416113
Te 3.272607 -9.858224 -19.698227
Te 3.272607 -13.140337 -16.416113
Te -0.009506 -13.140337 -13.134000
Te -0.009506 -9.858224 -9.851886
Te 3.272607 -9.858224 -13.134000
Te 3.272607 -13.140337 -9.851886
Te -0.009506 -13.140337 -6.569773
Te -0.009506 -9.858224 -3.287659
Te 3.272607 -9.858224 -6.569773
Te 3.272607 -13.140337 -3.287659
Te -0.009506 -13.140337 -0.005545
Te -0.009506 -9.858224 3.276568
Te 3.272607 -9.858224 -0.005545
Te 3.272607 -13.140337 3.276568
Te -0.009506 -13.140337 6.558682
Te -0.009506 -9.858224 9.840795
Te 3.272607 -9.858224 6.558682
Te 3.272607 -13.140337 9.840795
Te -0.009506 -13.140337 13.122909
Te -0.009506 -9.858224 16.405022
Te 3.272607 -9.858224 13.122909
Te 3.272607 -13.140337 16.405022
Te -0.009506 -13.140337 19.687136
Te -0.009506 -9.858224 22.969249
Te 3.272607 -9.858224 19.687136
Te 3.272607 -13.140337 22.969249
Te -0.009506 -13.140337 26.251363
Te 3.272607 -9.858224 26.251363
Te -0.009506 -6.576110 -26.262454
Te -0.009506 -3.293997 -22.980340
Te 3.272607 -3.293997 -26.262454
Te 3.272607 -6.576110 -22.980340
Te -0.009506 -6.576110 -19.698227
Te -0.009506 -3.293997 -16.416113
Te 3.272607 -3.293997 -19.698227
Te 3.272607 -6.576110 -16.416113
Te -0.009506 -6.576110 -13.134000
Te -0.009506 -3.293997 -9.851886
Te 3.272607 -3.293997 -13.134000
Te 3.272607 -6.576110 -9.851886
Te -0.009506 -6.576110 -6.569773
Te -0.009506 -3.293997 -3.287659
Te 3.272607 -3.293997 -6.569773
Te 3.272607 -6.576110 -3.287659
Te -0.009506 -6.576110 -0.005545
Te -0.009506 -3.293997 3.276568
Te 3.272607 -3.293997 -0.005545
Te 3.272607 -6.576110 3.276568
Te -0.009506 -6.576110 6.558682
Te -0.009506 -3.293997 9.840795
Te 3.272607 -3.293997 6.558682
Te 3.272607 -6.576110 9.840795
Te -0.009506 -6.576110 13.122909
Te -0.009506 -3.293997 16.405022
Te 3.272607 -3.293997 13.122909
Te 3.272607 -6.576110 16.405022
Te -0.009506 -6.576110 19.687136
Te -0.009506 -3.293997 22.969249
Te 3.272607 -3.293997 19.687136
Te 3.272607 -6.576110 22.969249
Te -0.009506 -6.576110 26.251363
Te 3.272607 -3.293997 26.251363
Te -0.009506 -0.011883 -26.262454
Te -0.009506 3.270230 -22.980340
Te 3.272607 3.270230 -26.262454
Te 3.272607 -0.011883 -22.980340
Te -0.009506 -0.011883 -19.698227
Te -0.009506 3.270230 -16.416113
Te 3.272607 3.270230 -19.698227
Te 3.272607 -0.011883 -16.416113
Te -0.009506 -0.011883 -13.134000
Te -0.009506 3.270230 -9.851886
Te 3.272607 3.270230 -13.134000
Te 3.272607 -0.011883 -9.851886
Te -0.009506 -0.011883 -6.569773
Te -0.009506 3.270230 -3.287659
Te 3.272607 3.270230 -6.569773
Te 3.272607 -0.011883 -3.287659
Te -0.009506 -0.011883 -0.005545
Te -0.009506 3.270230 3.276568
Te 3.272607 3.270230 -0.005545
Te 3.272607 -0.011883 3.276568
Te -0.009506 -0.011883 6.558682
Te -0.009506 3.270230 9.840795
Te 3.272607 3.270230 6.558682
Te 3.272607 -0.011883 9.840795
Te -0.009506 -0.011883 13.122909
Te -0.009506 3.270230 16.405022
Te 3.272607 3.270230 13.122909
Te 3.272607 -0.011883 16.405022
Te -0.009506 -0.011883 19.687136
Te -0.009506 3.270230 22.969249
Te 3.272607 3.270230 19.687136
Te 3.272607 -0.011883 22.969249
Te -0.009506 -0.011883 26.251363
Te 3.272607 3.270230 26.251363
Te -0.009506 6.552344 -26.262454
Te -0.009506 9.834458 -22.980340
Te 3.272607 9.834458 -26.262454
Te 3.272607 6.552344 -22.980340
Te -0.009506 6.552344 -19.698227
Te -0.009506 9.834458 -16.416113
Te 3.272607 9.834458 -19.698227
Te 3.272607 6.552344 -16.416113
Te -0.009506 6.552344 -13.134000
Te -0.009506 9.834458 -9.851886
Te 3.272607 9.834458 -13.134000
Te 3.272607 6.552344 -9.851886
Te -0.009506 6.552344 -6.569773
Te -0.009506 9.834458 -3.287659
Te 3.272607 9.834458 -6.569773
Te 3.272607 6.552344 -3.287659
Te -0.009506 6.552344 -0.005545
Te -0.009506 9.834458 3.276568
Te 3.272607 9.834458 -0.005545
Te 3.272607 6.552344 3.276568
Te -0.009506 6.552344 6.558682
Te -0.009506 9.834458 9.840795
Te 3.272607 9.834458 6.558682
Te 3.272607 6.552344 9.840795
Te -0.009506 6.552344 13.122909
Te -0.009506 9.834458 16.405022
Te 3.272607 9.834458 13.122909
Te 3.272607 6.552344 16.405022
Te -0.009506 6.552344 19.687136
Te -0.009506 9.834458 22.969249
Te 3.272607 9.834458 19.687136
Te 3.272607 6.552344 22.969249
Te -0.009506 6.552344 26.251363
Te 3.272607 9.834458 26.251363
Te -0.009506 13.116571 -26.262454
Te -0.009506 16.398685 -22.980340
Te 3.272607 16.398685 -26.262454
Te 3.272607 13.116571 -22.980340
Te -0.009506 13.116571 -19.698227
Te -0.009506 16.398685 -16.416113
Te 3.272607 16.398685 -19.698227
Te 3.272607 13.116571 -16.416113
Te -0.009506 13.116571 -13.134000
Te -0.009506 16.398685 -9.851886
Te 3.272607 16.398685 -13.134000
Te 3.272607 13.116571 -9.851886
Te -0.009506 13.116571 -6.569773
Te -0.009506 16.398685 -3.287659
Te 3.272607 16.398685 -6.569773
Te 3.272607 13.116571 -3.287659
Te -0.009506 13.116571 -0.005545
Te -0.009506 16.398685 3.276568
Te 3.272607 16.398685 -0.005545
Te 3.272607 13.116571 3.276568
Te -0.009506 13.116571 6.558682
Te -0.009506 16.398685 9.840795
Te 3.272607 16.398685 6.558682
Te 3.272607 13.116571 9.840795
Te -0.009506 13.116571 13.122909
Te -0.009506 16.398685 16.405022
Te 3.272607 16.398685 13.122909
Te 3.272607 13.116571 16.405022
Te -0.009506 13.116571 19.687136
Te -0.009506 16.398685 22.969249
Te 3.272607 16.398685 19.687136
Te 3.272607 13.116571 22.969249
Te -0.009506 13.116571 26.251363
Te 3.272607 16.398685 26.251363
Te -0.009506 19.680798 -26.262454
Te -0.009506 22.962912 -22.980340
Te 3.272607 22.962912 -26.262454
Te 3.272607 19.680798 -22.980340
Te -0.009506 19.680798 -19.698227
Te -0.009506 22.962912 -16.416113
Te 3.272607 22.962912 -19.698227
Te 3.272607 19.680798 -16.416113
Te -0.009506 19.680798 -13.134000
Te -0.009506 22.962912 -9.851886
Te 3.272607 22.962912 -13.134000
Te 3.272607 19.680798 -9.851886
Te -0.009506 19.680798 -6.569773
Te -0.009506 22.962912 -3.287659
Te 3.272607 22.962912 -6.569773
Te 3.272607 19.680798 -3.287659
Te -0.009506 19.680798 -0.005545
Te -0.009506 22.962912 3.276568
Te 3.272607 22.962912 -0.005545
Te 3.272607 19.680798 3.276568
Te -0.009506 19.680798 6.558682
Te -0.009506 22.962912 9.840795
Te 3.272607 22.962912 6.558682
Te 3.272607 19.680798 9.840795
Te -0.009506 19.680798 13.122909
Te -0.009506 22.962912 16.405022
Te 3.272607 22.962912 13.122909
Te 3.272607 19.680798 16.405022
Te -0.009506 19.680798 19.687136
Te -0.009506 22.962912 22.969249
Te 3.272607 22.962912 19.687136
Te 3.272607 19.680798 22.969249
Te -0.009506 19.680798 26.251363
Te -0.009506 26.245025 -19.698227
Te 3.272607 26.245025 -16.416113
Te -0.009506 26.245025 -13.134000
Te 3.272607 26.245025 -9.851886
Te -0.009506 26.245025 -6.569773
Te 3.272607 26.245025 -3.287659
Te -0.009506 26.245025 -0.005545
Te 3.272607 26.245025 3.276568
Te -0.009506 26.245025 6.558682
Te 3.272607 26.245025 9.840795
Te -0.009506 26.245025 13.122909
Te 3.272607 26.245025 16.405022
Te -0.009506 26.245025 19.687136
Te 6.554721 -22.986678 -16.416113
Te 6.554721 -26.268792 -13.134000
Te 6.554721 -22.986678 -9.851886
Te 9.836834 -22.986678 -13.134000
Te 9.836834 -26.268792 -9.851886
Te 6.554721 -26.268792 -6.569773
Te 6.554721 -22.986678 -3.287659
Te 9.836834 -22.986678 -6.569773
Te 9.836834 -26.268792 -3.287659
Te 6.554721 -26.268792 -0.005545
Te 6.554721 -22.986678 3.276568
Te 9.836834 -22.986678 -0.005545
Te 9.836834 -26.268792 3.276568
Te 6.554721 -26.268792 6.558682
Te 6.554721 -22.986678 9.840795
Te 9.836834 -22.986678 6.558682
Te 9.836834 -26.268792 9.840795
Te 6.554721 -26.268792 13.122909
Te 6.554721 -22.986678 16.405022
Te 9.836834 -22.986678 13.122909
Te 6.554721 -16.422451 -22.980340
Te 6.554721 -19.704564 -19.698227
Te 6.554721 -16.422451 -16.416113
Te 9.836834 -16.422451 -19.698227
Te 9.836834 -19.704564 -16.416113
Te 6.554721 -19.704564 -13.134000
Te 6.554721 -16.422451 -9.851886
Te 9.836834 -16.422451 -13.134000
Te 9.836834 -19.704564 -9.851886
Te 6.554721 -19.704564 -6.569773
Te 6.554721 -16.422451 -3.287659
Te 9.836834 -16.422451 -6.569773
Te 9.836834 -19.704564 -3.287659
Te 6.554721 -19.704564 -0.005545
Te 6.554721 -16.422451 3.276568
Te 9.836834 -16.422451 -0.005545
Te 9.836834 -19.704564 3.276568
Te 6.554721 -19.704564 6.558682
Te 6.554721 -16.422451 9.840795
Te 9.836834 -16.422451 6.558682
Te 9.836834 -19.704564 9.840795
Te 6.554721 -19.704564 13.122909
Te 6.554721 -16.422451 16.405022
Te 9.836834 -16.422451 13.122909
Te 9.836834 -19.704564 16.405022
Te 6.554721 -19.704564 19.687136
Te 6.554721 -16.422451 22.969249
Te 9.836834 -16.422451 19.687136
Te 9.836834 -16.422451 26.251363
Te 6.554721 -13.140337 -26.262454
Te 6.554721 -9.858224 -22.980340
Te 9.836834 -9.858224 -26.262454
Te 9.836834 -13.140337 -22.980340
Te 6.554721 -13.140337 -19.698227
Te 6.554721 -9.858224 -16.416113
Te 9.836834 -9.858224 -19.698227
Te 9.836834 -13.140337 -16.416113
Te 6.554721 -13.140337 -13.134000
Te 6.554721 -9.858224 -9.851886
Te 9.836834 -9.858224 -13.134000
Te 9.836834 -13.140337 -9.851886
Te 6.554721 -13.140337 -6.569773
Te 6.554721 -9.858224 -3.287659
Te 9.836834 -9.858224 -6.569773
Te 9.836834 -13.140337 -3.287659
Te 6.554721 -13.140337 -0.005545
Te 6.554721 -9.858224 3.276568
Te 9.836834 -9.858224 -0.005545
Te 9.836834 -13.140337 3.276568
Te 6.554721 -13.140337 6.558682
Te 6.554721 -9.858224 9.840795
Te 9.836834 -9.858224 6.558682
Te 9.836834 -13.140337 9.840795
Te 6.554721 -13.140337 13.122909
Te 6.554721 -9.858224 16.405022
Te 9.836834 -9.858224 13.122909
Te 9.836834 -13.140337 16.405022
Te 6.554721 -13.140337 19.687136
Te 6.554721 -9.858224 22.969249
Te 9.836834 -9.858224 19.687136
Te 9.836834 -13.140337 22.969249
Te 6.554721 -13.140337 26.251363
Te 9.836834 -9.858224 26.251363
Te 6.554721 -6.576110 -26.262454
Te 6.554721 -3.293997 -22.980340
Te 9.836834 -3.293997 -26.262454
Te 9.836834 -6.576110 -22.980340
Te 6.554721 -6.576110 -19.698227
Te 6.554721 -3.293997 -16.416113
Te 9.836834 -3.293997 -19.698227
Te 9.836834 -6.576110 -16.416113
Te 6.554721 -6.576110 -13.134000
Te 6.554721 -3.293997 -9.851886
Te 9.836834 -3.293997 -13.134000
Te 9.836834 -6.576110 -9.851886
Te 6.554721 -6.576110 -6.569773
Te 6.554721 -3.293997 -3.287659
Te 9.836834 -3.293997 -6.569773
Te 9.836834 -6.576110 -3.287659
Te 6.554721 -6.576110 -0.005545
Te 6.554721 -3.293997 3.276568
Te 9.836834 -3.293997 -0.005545
Te 9.836834 -6.576110 3.276568
Te 6.554721 -6.576110 6.558682
Te 6.554721 -3.293997 9.840795
Te 9.836834 -3.293997 6.558682
Te 9.836834 -6.576110 9.840795
Te 6.554721 -6.576110 13.122909
Te 6.554721 -3.293997 16.405022
Te 9.836834 -3.293997 13.122909
Te 9.836834 -6.576110 16.405022
Te 6.554721 -6.576110 19.687136
Te 6.554721 -3.293997 22.969249
Te 9.836834 -3.293997 19.687136
Te 9.836834 -6.576110 22.969249
Te 6.554721 -6.576110 26.251363
Te 9.836834 -3.293997 26.251363
Te 6.554721 -0.011883 -26.262454
Te 6.554721 3.270230 -22.980340
Te 9.836834 3.270230 -26.262454
Te 9.836834 -0.011883 -22.980340
Te 6.554721 -0.011883 -19.698227
Te 6.554721 3.270230 -16.416113
Te 9.836834 3.270230 -19.698227
Te 9.836834 -0.011883 -16.416113
Te 6.554721 -0.011883 -13.134000
Te 6.554721 3.270230 -9.851886
Te 9.836834 3.270230 -13.134000
Te 9.836834 -0.011883 -9.851886
Te 6.554721 -0.011883 -6.569773
Te 6.554721 3.270230 -3.287659
Te 9.836834 3.270230 -6.569773
Te 9.836834 -0.011883 -3.287659
Te 6.554721 -0.011883 -0.005545
Te 6.554721 3.270230 3.276568
Te 9.836834 3.270230 -0.005545
Te 9.836834 -0.011883 3.276568
Te 6.554721 -0.011883 6.558682
Te 6.554721 3.270230 9.840795
Te 9.836834 3.270230 6.558682
Te 9.836834 -0.011883 9.840795
Te 6.554721 -0.011883 13.122909
Te 6.554721 3.270230 16.405022
Te 9.836834 3.270230 13.122909
Te 9.836834 -0.011883 16.405022
Te 6.554721 -0.011883 19.687136
Te 6.554721 3.270230 22.969249
Te 9.836834 3.270230 19.687136
Te 9.836834 -0.011883 22.969249
Te 6.554721 -0.011883 26.251363
Te 9.836834 3.270230 26.251363
Te 6.554721 6.552344 -26.262454
Te 6.554721 9.834458 -22.980340
Te 9.836834 9.834458 -26.262454
Te 9.836834 6.552344 -22.980340
Te 6.554721 6.552344 -19.698227
Te 6.554721 9.834458 -16.416113
Te 9.836834 9.834458 -19.698227
Te 9.836834 6.552344 -16.416113
Te 6.554721 6.552344 -13.134000
Te 6.554721 9.834458 -9.851886
Te 9.836834 9.834458 -13.134000
Te 9.836834 6.552344 -9.851886
Te 6.554721 6.552344 -6.569773
Te 6.554721 9.834458 -3.287659
Te 9.836834 9.834458 -6.569773
Te 9.836834 6.552344 -3.287659
Te 6.554721 6.552344 -0.005545
Te 6.554721 9.834458 3.276568
Te 9.836834 9.834458 -0.005545
Te 9.836834 6.552344 3.276568
Te 6.554721 6.552344 6.558682
Te 6.554721 9.834458 9.840795
Te 9.836834 9.834458 6.558682
Te 9.836834 6.552344 9.840795
Te 6.554721 6.552344 13.122909
Te 6.554721 9.834458 16.405022
Te 9.836834 9.834458 13.122909
Te 9.836834 6.552344 16.405022
Te 6.554721 6.552344 19.687136
Te 6.554721 9.834458 22.969249
Te 9.836834 9.834458 19.687136
Te 9.836834 6.552344 22.969249
Te 6.554721 6.552344 26.251363
Te 9.836834 9.834458 26.251363
Te 6.554721 13.116571 -26.262454
Te 6.554721 16.398685 -22.980340
Te 9.836834 13.116571 -22.980340
Te 6.554721 13.116571 -19.698227
Te 6.554721 16.398685 -16.416113
Te 9.836834 16.398685 -19.698227
Te 9.836834 13.116571 -16.416113
Te 6.554721 13.116571 -13.134000
Te 6.554721 16.398685 -9.851886
Te 9.836834 16.398685 -13.134000
Te 9.836834 13.116571 -9.851886
Te 6.554721 13.116571 -6.569773
Te 6.554721 16.398685 -3.287659
Te 9.836834 16.398685 -6.569773
Te 9.836834 13.116571 -3.287659
Te 6.554721 13.116571 -0.005545
Te 6.554721 16.398685 3.276568
Te 9.836834 16.398685 -0.005545
Te 9.836834 13.116571 3.276568
Te 6.554721 13.116571 6.558682
Te 6.554721 16.398685 9.840795
Te 9.836834 16.398685 6.558682
Te 9.836834 13.116571 9.840795
Te 6.554721 13.116571 13.122909
Te 6.554721 16.398685 16.405022
Te 9.836834 16.398685 13.122909
Te 9.836834 13.116571 16.405022
Te 6.554721 13.116571 19.687136
Te 6.554721 16.398685 22.969249
Te 9.836834 16.398685 19.687136
Te 9.836834 13.116571 22.969249
Te 6.554721 13.116571 26.251363
Te 6.554721 19.680798 -19.698227
Te 6.554721 22.962912 -16.416113
Te 9.836834 19.680798 -16.416113
Te 6.554721 19.680798 -13.134000
Te 6.554721 22.962912 -9.851886
Te 9.836834 22.962912 -13.134000
Te 9.836834 19.680798 -9.851886
Te 6.554721 19.680798 -6.569773
Te 6.554721 22.962912 -3.287659
Te 9.836834 22.962912 -6.569773
Te 9.836834 19.680798 -3.287659
Te 6.554721 19.680798 -0.005545
Te 6.554721 22.962912 3.276568
Te 9.836834 22.962912 -0.005545
Te 9.836834 19.680798 3.276568
Te 6.554721 19.680798 6.558682
Te 6.554721 22.962912 9.840795
Te 9.836834 22.962912 6.558682
Te 9.836834 19.680798 9.840795
Te 6.554721 19.680798 13.122909
Te 6.554721 22.962912 16.405022
Te 9.836834 22.962912 13.122909
Te 9.836834 19.680798 16.405022
Te 6.554721 19.680798 19.687136
Te 9.836834 26.245025 -16.416113
Te 6.554721 26.245025 -13.134000
Te 9.836834 26.245025 -9.851886
Te 6.554721 26.245025 -6.569773
Te 9.836834 26.245025 -3.287659
Te 6.554721 26.245025 -0.005545
Te 9.836834 26.245025 3.276568
Te 6.554721 26.245025 6.558682
Te 9.836834 26.245025 9.840795
Te 6.554721 26.245025 13.122909
Te 13.118948 -22.986678 -9.851886
Te 13.118948 -26.268792 -6.569773
Te 13.118948 -22.986678 -3.287659
Te 16.401061 -22.986678 -6.569773
Te 16.401061 -26.268792 -3.287659
Te 13.118948 -26.268792 -0.005545
Te 13.118948 -22.986678 3.276568
Te 16.401061 -22.986678 -0.005545
Te 16.401061 -26.268792 3.276568
Te 13.118948 -26.268792 6.558682
Te 13.118948 -22.986678 9.840795
Te 16.401061 -22.986678 6.558682
Te 13.118948 -26.268792 13.122909
Te 13.118948 -16.422451 -16.416113
Te 13.118948 -19.704564 -13.134000
Te 13.118948 -16.422451 -9.851886
Te 16.401061 -16.422451 -13.134000
Te 16.401061 -19.704564 -9.851886
Te 13.118948 -19.704564 -6.569773
Te 13.118948 -16.422451 -3.287659
Te 16.401061 -16.422451 -6.569773
Te 16.401061 -19.704564 -3.287659
Te 13.118948 -19.704564 -0.005545
Te 13.118948 -16.422451 3.276568
Te 16.401061 -16.422451 -0.005545
Te 16.401061 -19.704564 3.276568
Te 13.118948 -19.704564 6.558682
Te 13.118948 -16.422451 9.840795
Te 16.401061 -16.422451 6.558682
Te 16.401061 -19.704564 9.840795
Te 13.118948 -19.704564 13.122909
Te 13.118948 -16.422451 16.405022
Te 16.401061 -16.422451 13.122909
Te 13.118948 -9.858224 -22.980340
Te 13.118948 -13.140337 -19.698227
Te 13.118948 -9.858224 -16.416113
Te 16.401061 -9.858224 -19.698227
Te 16.401061 -13.140337 -16.416113
Te 13.118948 -13.140337 -13.134000
Te 13.118948 -9.858224 -9.851886
Te 16.401061 -9.858224 -13.134000
Te 16.401061 -13.140337 -9.851886
Te 13.118948 -13.140337 -6.569773
Te 13.118948 -9.858224 -3.287659
Te 16.401061 -9.858224 -6.569773
Te 16.401061 -13.140337 -3.287659
Te 13.118948 -13.140337 -0.005545
Te 13.118948 -9.858224 3.276568
Te 16.401061 -9.858224 -0.005545
Te 16.401061 -13.140337 3.276568
Te 13.118948 -13.140337 6.558682
Te 13.118948 -9.858224 9.840795
Te 16.401061 -9.858224 6.558682
Te 16.401061 -13.140337 9.840795
Te 13.118948 -13.140337 13.122909
Te 13.118948 -9.858224 16.405022
Te 16.401061 -9.858224 13.122909
Te 16.401061 -13.140337 16.405022
Te 13.118948 -13.140337 19.687136
Te 13.118948 -9.858224 22.969249
Te 16.401061 -9.858224 19.687136
Te 13.118948 -6.576110 -26.262454
Te 13.118948 -3.293997 -22.980340
Te 16.401061 -3.293997 -26.262454
Te 16.401061 -6.576110 -22.980340
Te 13.118948 -6.576110 -19.698227
Te 13.118948 -3.293997 -16.416113
Te 16.401061 -3.293997 -19.698227
Te 16.401061 -6.576110 -16.416113
Te 13.118948 -6.576110 -13.134000
Te 13.118948 -3.293997 -9.851886
Te 16.401061 -3.293997 -13.134000
Te 16.401061 -6.576110 -9.851886
Te 13.118948 -6.576110 -6.569773
Te 13.118948 -3.293997 -3.287659
Te 16.401061 -3.293997 -6.569773
Te 16.401061 -6.576110 -3.287659
Te 13.118948 -6.576110 -0.005545
Te 13.118948 -3.293997 3.276568
Te 16.401061 -3.293997 -0.005545
Te 16.401061 -6.576110 3.276568
Te 13.118948 -6.576110 6.558682
Te 13.118948 -3.293997 9.840795
Te 16.401061 -3.293997 6.558682
Te 16.401061 -6.576110 9.840795
Te 13.118948 -6.576110 13.122909
Te 13.118948 -3.293997 16.405022
Te 16.401061 -3.293997 13.122909
Te 16.401061 -6.576110 16.405022
Te 13.118948 -6.576110 19.687136
Te 13.118948 -3.293997 22.969249
Te 16.401061 -3.293997 19.687136
Te 16.401061 -6.576110 22.969249
Te 13.118948 -6.576110 26.251363
Te 16.401061 -3.293997 26.251363
Te 13.118948 -0.011883 -26.262454
Te 13.118948 3.270230 -22.980340
Te 16.401061 3.270230 -26.262454
Te 16.401061 -0.011883 -22.980340
Te 13.118948 -0.011883 -19.698227
Te 13.118948 3.270230 -16.416113
Te 16.401061 3.270230 -19.698227
Te 16.401061 -0.011883 -16.416113
Te 13.118948 -0.011883 -13.134000
Te 13.118948 3.270230 -9.851886
Te 16.401061 3.270230 -13.134000
Te 16.401061 -0.011883 -9.851886
Te 13.118948 -0.011883 -6.569773
Te 13.118948 3.270230 -3.287659
Te 16.401061 3.270230 -6.569773
Te 16.401061 -0.011883 -3.287659
Te 13.118948 -0.011883 -0.005545
Te 13.118948 3.270230 3.276568
Te 16.401061 3.270230 -0.005545
Te 16.401061 -0.011883 3.276568
Te 13.118948 -0.011883 6.558682
Te 13.118948 3.270230 9.840795
Te 16.401061 3.270230 6.558682
Te 16.401061 -0.011883 9.840795
Te 13.118948 -0.011883 13.122909
Te 13.118948 3.270230 16.405022
Te 16.401061 3.270230 13.122909
Te 16.401061 -0.011883 16.405022
Te 13.118948 -0.011883 19.687136
Te 13.118948 3.270230 22.969249
Te 16.401061 3.270230 19.687136
Te 16.401061 -0.011883 22.969249
Te 13.118948 -0.011883 26.251363
Te 16.401061 3.270230 26.251363
Te 13.118948 6.552344 -26.262454
Te 13.118948 9.834458 -22.980340
Te 16.401061 6.552344 -22.980340
Te 13.118948 6.552344 -19.698227
Te 13.118948 9.834458 -16.416113
Te 16.401061 9.834458 -19.698227
Te 16.401061 6.552344 -16.416113
Te 13.118948 6.552344 -13.134000
Te 13.118948 9.834458 -9.851886
Te 16.401061 9.834458 -13.134000
Te 16.401061 6.552344 -9.851886
Te 13.118948 6.552344 -6.569773
Te 13.118948 9.834458 -3.287659
Te 16.401061 9.834458 -6.569773
Te 16.401061 6.552344 -3.287659
Te 13.118948 6.552344 -0.005545
Te 13.118948 9.834458 3.276568
Te 16.401061 9.834458 -0.005545
Te 16.401061 6.552344 3.276568
Te 13.118948 6.552344 6.558682
Te 13.118948 9.834458 9.840795
Te 16.401061 9.834458 6.558682
Te 16.401061 6.552344 9.840795
Te 13.118948 6.552344 13.122909
Te 13.118948 9.834458 16.405022
Te 16.401061 9.834458 13.122909
Te 16.401061 6.552344 16.405022
Te 13.118948 6.552344 19.687136
Te 13.118948 9.834458 22.969249
Te 16.401061 9.834458 19.687136
Te 16.401061 6.552344 22.969249
Te 13.118948 6.552344 26.251363
Te 13.118948 13.116571 -26.262454
Te 13.118948 13.116571 -19.698227
Te 13.118948 16.398685 -16.416113
Te 16.401061 13.116571 -16.416113
Te 13.118948 13.116571 -13.134000
Te 13.118948 16.398685 -9.851886
Te 16.401061 16.398685 -13.134000
Te 16.401061 13.116571 -9.851886
Te 13.118948 13.116571 -6.569773
Te 13.118948 16.398685 -3.287659
Te 16.401061 16.398685 -6.569773
Te 16.401061 13.116571 -3.287659
Te 13.118948 13.116571 -0.005545
Te 13.118948 16.398685 3.276568
Te 16.401061 16.398685 -0.005545
Te 16.401061 13.116571 3.276568
Te 13.118948 13.116571 6.558682
Te 13.118948 16.398685 9.840795
Te 16.401061 16.398685 6.558682
Te 16.401061 13.116571 9.840795
Te 13.118948 13.116571 13.122909
Te 13.118948 16.398685 16.405022
Te 16.401061 16.398685 13.122909
Te 16.401061 13.116571 16.405022
Te 13.118948 13.116571 19.687136
Te 13.118948 19.680798 -13.134000
Te 13.118948 22.962912 -9.851886
Te 16.401061 19.680798 -9.851886
Te 13.118948 19.680798 -6.569773
Te 13.118948 22.962912 -3.287659
Te 16.401061 22.962912 -6.569773
Te 16.401061 19.680798 -3.287659
Te 13.118948 19.680798 -0.005545
Te 13.118948 22.962912 3.276568
Te 16.401061 22.962912 -0.005545
Te 16.401061 19.680798 3.276568
Te 13.118948 19.680798 6.558682
Te 13.118948 22.962912 9.840795
Te 16.401061 22.962912 6.558682
Te 16.401061 19.680798 9.840795
Te 13.118948 19.680798 13.122909
Te 13.118948 26.245025 -6.569773
Te 16.401061 26.245025 -3.287659
Te 13.118948 26.245025 -0.005545
Te 16.401061 26.245025 3.276568
Te 13.118948 26.245025 6.558682
Te 19.683175 -22.986678 -3.287659
Te 19.683175 -26.268792 -0.005545
Te 19.683175 -22.986678 3.276568
Te 22.965288 -22.986678 -0.005545
Te 22.965288 -26.268792 3.276568
Te 19.683175 -16.422451 -9.851886
Te 19.683175 -19.704564 -6.569773
Te 19.683175 -16.422451 -3.287659
Te 22.965288 -16.422451 -6.569773
Te 22.965288 -19.704564 -3.287659
Te 19.683175 -19.704564 -0.005545
Te 19.683175 -16.422451 3.276568
Te 22.965288 -16.422451 -0.005545
Te 22.965288 -19.704564 3.276568
Te 19.683175 -19.704564 6.558682
Te 19.683175 -16.422451 9.840795
Te 22.965288 -16.422451 6.558682
Te 19.683175 -9.858224 -16.416113
Te 19.683175 -13.140337 -13.134000
Te 19.683175 -9.858224 -9.851886
Te 22.965288 -9.858224 -13.134000
Te 22.965288 -13.140337 -9.851886
Te 19.683175 -13.140337 -6.569773
Te 19.683175 -9.858224 -3.287659
Te 22.965288 -9.858224 -6.569773
Te 22.965288 -13.140337 -3.287659
Te 19.683175 -13.140337 -0.005545
Te 19.683175 -9.858224 3.276568
Te 22.965288 -9.858224 -0.005545
Te 22.965288 -13.140337 3.276568
Te 19.683175 -13.140337 6.558682
Te 19.683175 -9.858224 9.840795
Te 22.965288 -9.858224 6.558682
Te 22.965288 -13.140337 9.840795
Te 19.683175 -13.140337 13.122909
Te 19.683175 -9.858224 16.405022
Te 22.965288 -9.858224 13.122909
Te 19.683175 -3.293997 -22.980340
Te 19.683175 -6.576110 -19.698227
Te 19.683175 -3.293997 -16.416113
Te 22.965288 -3.293997 -19.698227
Te 22.965288 -6.576110 -16.416113
Te 19.683175 -6.576110 -13.134000
Te 19.683175 -3.293997 -9.851886
Te 22.965288 -3.293997 -13.134000
Te 22.965288 -6.576110 -9.851886
Te 19.683175 -6.576110 -6.569773
Te 19.683175 -3.293997 -3.287659
Te 22.965288 -3.293997 -6.569773
Te 22.965288 -6.576110 -3.287659
Te 19.683175 -6.576110 -0.005545
Te 19.683175 -3.293997 3.276568
Te 22.965288 -3.293997 -0.005545
Te 22.965288 -6.576110 3.276568
Te 19.683175 -6.576110 6.558682
Te 19.683175 -3.293997 9.840795
Te 22.965288 -3.293997 6.558682
Te 22.965288 -6.576110 9.840795
Te 19.683175 -6.576110 13.122909
Te 19.683175 -3.293997 16.405022
Te 22.965288 -3.293997 13.122909
Te 22.965288 -6.576110 16.405022
Te 19.683175 -6.576110 19.687136
Te 19.683175 -3.293997 22.969249
Te 22.965288 -3.293997 19.687136
Te 22.965288 -3.293997 26.251363
Te 19.683175 -0.011883 -26.262454
Te 19.683175 3.270230 -22.980340
Te 22.965288 3.270230 -26.262454
Te 22.965288 -0.011883 -22.980340
Te 19.683175 -0.011883 -19.698227
Te 19.683175 3.270230 -16.416113
Te 22.965288 3.270230 -19.698227
Te 22.965288 -0.011883 -16.416113
Te 19.683175 -0.011883 -13.134000
Te 19.683175 3.270230 -9.851886
Te 22.965288 3.270230 -13.134000
Te 22.965288 -0.011883 -9.851886
Te 19.683175 -0.011883 -6.569773
Te 19.683175 3.270230 -3.287659
Te 22.965288 3.270230 -6.569773
Te 22.965288 -0.011883 -3.287659
Te 19.683175 -0.011883 -0.005545
Te 19.683175 3.270230 3.276568
Te 22.965288 3.270230 -0.005545
Te 22.965288 -0.011883 3.276568
Te 19.683175 -0.011883 6.558682
Te 19.683175 3.270230 9.840795
Te 22.965288 3.270230 6.558682
Te 22.965288 -0.011883 9.840795
Te 19.683175 -0.011883 13.122909
Te 19.683175 3.270230 16.405022
Te 22.965288 3.270230 13.122909
Te 22.965288 -0.011883 16.405022
Te 19.683175 -0.011883 19.687136
Te 19.683175 3.270230 22.969249
Te 22.965288 3.270230 19.687136
Te 22.965288 -0.011883 22.969249
Te 19.683175 -0.011883 26.251363
Te 19.683175 6.552344 -19.698227
Te 19.683175 9.834458 -16.416113
Te 22.965288 6.552344 -16.416113
Te 19.683175 6.552344 -13.134000
Te 19.683175 9.834458 -9.851886
Te 22.965288 9.834458 -13.134000
Te 22.965288 6.552344 -9.851886
Te 19.683175 6.552344 -6.569773
Te 19.683175 9.834458 -3.287659
Te 22.965288 9.834458 -6.569773
Te 22.965288 6.552344 -3.287659
Te 19.683175 6.552344 -0.005545
Te 19.683175 9.834458 3.276568
Te 22.965288 9.834458 -0.005545
Te 22.965288 6.552344 3.276568
Te 19.683175 6.552344 6.558682
Te 19.683175 9.834458 9.840795
Te 22.965288 9.834458 6.558682
Te 22.965288 6.552344 9.840795
Te 19.683175 6.552344 13.122909
Te 19.683175 9.834458 16.405022
Te 22.965288 9.834458 13.122909
Te 22.965288 6.552344 16.405022
Te 19.683175 6.552344 19.687136
Te 19.683175 13.116571 -13.134000
Te 19.683175 16.398685 -9.851886
Te 22.965288 13.116571 -9.851886
Te 19.683175 13.116571 -6.569773
Te 19.683175 16.398685 -3.287659
Te 22.965288 16.398685 -6.569773
Te 22.965288 13.116571 -3.287659
Te 19.683175 13.116571 -0.005545
Te 19.683175 16.398685 3.276568
Te 22.965288 16.398685 -0.005545
Te 22.965288 13.116571 3.276568
Te 19.683175 13.116571 6.558682
Te 19.683175 16.398685 9.840795
Te 22.965288 16.398685 6.558682
Te 22.965288 13.116571 9.840795
Te 19.683175 13.116571 13.122909
Te 19.683175 19.680798 -6.569773
Te 19.683175 22.962912 -3.287659
Te 22.965288 19.680798 -3.287659
Te 19.683175 19.680798 -0.005545
Te 19.683175 22.962912 3.276568
Te 22.965288 22.962912 -0.005545
Te 22.965288 19.680798 3.276568
Te 19.683175 19.680798 6.558682
Te 22.965288 26.245025 -3.287659
Te 19.683175 26.245025 -0.005545
Te 26.247402 -16.422451 -3.287659
Te 26.247402 -19.704564 -0.005545
Te 26.247402 -16.422451 3.276568
Te 26.247402 -16.422451 9.840795
Te 26.247402 -9.858224 -9.851886
Te 26.247402 -13.140337 -6.569773
Te 26.247402 -9.858224 -3.287659
Te 26.247402 -13.140337 -0.005545
Te 26.247402 -9.858224 3.276568
Te 26.247402 -13.140337 6.558682
Te 26.247402 -9.858224 9.840795
Te 26.247402 -3.293997 -16.416113
Te 26.247402 -6.576110 -13.134000
Te 26.247402 -3.293997 -9.851886
Te 26.247402 -6.576110 -6.569773
Te 26.247402 -3.293997 -3.287659
Te 26.247402 -6.576110 -0.005545
Te 26.247402 -3.293997 3.276568
Te 26.247402 -6.576110 6.558682
Te 26.247402 -3.293997 9.840795
Te 26.247402 -6.576110 13.122909
Te 26.247402 -3.293997 16.405022
Te 26.247402 -6.576110 19.687136
Te 26.247402 -0.011883 -19.698227
Te 26.247402 3.270230 -16.416113
Te 26.247402 -0.011883 -13.134000
Te 26.247402 3.270230 -9.851886
Te 26.247402 -0.011883 -6.569773
Te 26.247402 3.270230 -3.287659
Te 26.247402 -0.011883 -0.005545
Te 26.247402 3.270230 3.276568
Te 26.247402 -0.011883 6.558682
Te 26.247402 3.270230 9.840795
Te 26.247402 -0.011883 13.122909
Te 26.247402 3.270230 16.405022
Te 26.247402 -0.011883 19.687136
Te 26.247402 9.834458 -16.416113
Te 26.247402 6.552344 -13.134000
Te 26.247402 9.834458 -9.851886
Te 26.247402 6.552344 -6.569773
Te 26.247402 9.834458 -3.287659
Te 26.247402 6.552344 -0.005545
Te 26.247402 9.834458 3.276568
Te 26.247402 6.552344 6.558682
Te 26.247402 9.834458 9.840795
Te 26.247402 6.552344 13.122909
Te 26.247402 13.116571 -6.569773
Te 26.247402 16.398685 -3.287659
Te 26.247402 13.116571 -0.005545
Te 26.247402 16.398685 3.276568
Te 26.247402 13.116571 6.558682
Te 26.247402 19.680798 -6.569773
Te 26.247402 19.680798 -0.005545
Cl -29.548528 -16.422451 -6.569773
Cl -29.548528 -19.704564 -3.287659
Cl -29.548528 -16.422451 -0.005545
Cl -29.548528 -9.858224 -13.134000
Cl -29.548528 -13.140337 -9.851886
Cl -29.548528 -9.858224 -6.569773
Cl -29.548528 -13.140337 -3.287659
Cl -29.548528 -9.858224 -0.005545
Cl -29.548528 -13.140337 3.276568
Cl -29.548528 -9.858224 6.558682
Cl -29.548528 -3.293997 -19.698227
Cl -29.548528 -6.576110 -16.416113
Cl -29.548528 -3.293997 -13.134000
Cl -29.548528 -6.576110 -9.851886
Cl -29.548528 -3.293997 -6.569773
Cl -29.548528 -6.576110 -3.287659
Cl -29.548528 -3.293997 -0.005545
Cl -29.548528 -6.576110 3.276568
Cl -29.548528 -3.293997 6.558682
Cl -29.548528 -6.576110 9.840795
Cl -29.548528 -3.293997 13.122909
Cl -29.548528 -0.011883 -16.416113
Cl -29.548528 3.270230 -13.134000
Cl -29.548528 -0.011883 -9.851886
Cl -29.548528 3.270230 -6.569773
Cl -29.548528 -0.011883 -3.287659
Cl -29.548528 3.270230 -0.005545
Cl -29.548528 -0.011883 3.276568
Cl -29.548528 3.270230 6.558682
Cl -29.548528 -0.011883 9.840795
Cl -29.548528 3.270230 13.122909
Cl -29.548528 -0.011883 16.405022
Cl -29.548528 3.270230 19.687136
Cl -29.548528 6.552344 -9.851886
Cl -29.548528 9.834458 -6.569773
Cl -29.548528 6.552344 -3.287659
Cl -29.548528 9.834458 -0.005545
Cl -29.548528 6.552344 3.276568
Cl -29.548528 9.834458 6.558682
Cl -29.548528 6.552344 9.840795
Cl -29.548528 9.834458 13.122909
Cl -29.548528 6.552344 16.405022
Cl -29.548528 13.116571 -3.287659
Cl -29.548528 16.398685 -0.005545
Cl -29.548528 13.116571 3.276568
Cl -29.548528 16.398685 6.558682
Cl -29.548528 13.116571 9.840795
Cl -29.548528 19.680798 3.276568
Cl -22.984301 -22.986678 -6.569773
Cl -22.984301 -26.268792 -3.287659
Cl -26.266415 -16.422451 -9.851886
Cl -22.984301 -16.422451 -13.134000
Cl -22.984301 -19.704564 -9.851886
Cl -26.266415 -19.704564 -6.569773
Cl -26.266415 -9.858224 -16.416113
Cl -22.984301 -9.858224 -19.698227
Cl -22.984301 -13.140337 -16.416113
Cl -22.984301 -3.293997 -26.262454
Cl -22.984301 -6.576110 -22.980340
Cl -26.266415 -6.576110 -19.698227
Cl -22.984301 3.270230 26.251363
Cl -26.266415 9.834458 16.405022
Cl -26.266415 6.552344 19.687136
Cl -22.984301 9.834458 19.687136
Cl -22.984301 6.552344 22.969249
Cl -26.266415 16.398685 9.840795
Cl -22.984301 16.398685 13.122909
Cl -22.984301 13.116571 16.405022
Cl -26.266415 19.680798 6.558682
Cl -22.984301 22.962912 6.558682
Cl -22.984301 19.680798 9.840795
Cl -22.984301 26.245025 3.276568
Cl -19.702188 -29.550905 -3.287659
Cl -16.420074 -29.550905 -6.569773
Cl -16.420074 -29.550905 -0.005545
Cl -19.702188 -22.986678 -9.851886
Cl -16.420074 -22.986678 -13.134000
Cl -19.702188 -26.268792 -6.569773
Cl -19.702188 -16.422451 -16.416113
Cl -16.420074 -16.422451 -19.698227
Cl -16.420074 -19.704564 -16.416113
Cl -19.702188 -19.704564 -13.134000
Cl -19.702188 -9.858224 -22.980340
Cl -16.420074 -13.140337 -22.980340
Cl -19.702188 -13.140337 -19.698227
Cl -19.702188 -3.293997 -29.544567
Cl -16.420074 -6.576110 -29.544567
Cl -19.702188 -6.576110 -26.262454
Cl -16.420074 -0.011883 -29.544567
Cl -19.702188 3.270230 29.533477
Cl -16.420074 -0.011883 29.533477
Cl -19.702188 9.834458 22.969249
Cl -19.702188 6.552344 26.251363
Cl -16.420074 6.552344 29.533477
Cl -19.702188 16.398685 16.405022
Cl -19.702188 13.116571 19.687136
Cl -16.420074 16.398685 19.687136
Cl -16.420074 13.116571 22.969249
Cl -19.702188 22.962912 9.840795
Cl -19.702188 19.680798 13.122909
Cl -16.420074 22.962912 13.122909
Cl -16.420074 19.680798 16.405022
Cl -19.702188 29.527139 3.276568
Cl -16.420074 29.527139 -0.005545
Cl -19.702188 26.245025 6.558682
Cl -16.420074 29.527139 6.558682
Cl -13.137961 -29.550905 -9.851886
Cl -9.855847 -29.550905 -13.134000
Cl -13.137961 -29.550905 -3.287659
Cl -9.855847 -29.550905 -6.569773
Cl -13.137961 -29.550905 3.276568
Cl -9.855847 -29.550905 -0.005545
Cl -9.855847 -29.550905 6.558682
Cl -13.137961 -22.986678 -16.416113
Cl -9.855847 -22.986678 -19.698227
Cl -9.855847 -26.268792 -16.416113
Cl -13.137961 -26.268792 -13.134000
Cl -13.137961 -16.422451 -22.980340
Cl -9.855847 -16.422451 -26.262454
Cl -9.855847 -19.704564 -22.980340
Cl -13.137961 -19.704564 -19.698227
Cl -13.137961 -9.858224 -29.544567
Cl -9.855847 -13.140337 -29.544567
Cl -13.137961 -13.140337 -26.262454
Cl -13.137961 -3.293997 -29.544567
Cl -9.855847 -6.576110 -29.544567
Cl -13.137961 -3.293997 29.533477
Cl -9.855847 -6.576110 29.533477
Cl -13.137961 3.270230 -29.544567
Cl -9.855847 -0.011883 -29.544567
Cl -13.137961 3.270230 29.533477
Cl -9.855847 -0.011883 29.533477
Cl -9.855847 6.552344 -29.544567
Cl -13.137961 9.834458 29.533477
Cl -9.855847 6.552344 29.533477
Cl -13.137961 16.398685 22.969249
Cl -13.137961 13.116571 26.251363
Cl -9.855847 16.398685 26.251363
Cl -9.855847 13.116571 29.533477
Cl -13.137961 22.962912 16.405022
Cl -13.137961 19.680798 19.687136
Cl -9.855847 22.962912 19.687136
Cl -9.855847 19.680798 22.969249
Cl -13.137961 29.527139 -3.287659
Cl -9.855847 29.527139 -6.569773
Cl -13.137961 29.527139 3.276568
Cl -9.855847 29.527139 -0.005545
Cl -13.137961 29.527139 9.840795
Cl -9.855847 29.527139 6.558682
Cl -13.137961 26.245025 13.122909
Cl -9.855847 29.527139 13.122909
Cl -9.855847 26.245025 16.405022
Cl -6.573734 -29.550905 -16.416113
Cl -3.291620 -29.550905 -19.698227
Cl -6.573734 -29.550905 -9.851886
Cl -3.291620 -29.550905 -13.134000
Cl -6.573734 -29.550905 -3.287659
Cl -3.291620 -29.550905 -6.569773
Cl -6.573734 -29.550905 3.276568
Cl -3.291620 -29.550905 -0.005545
Cl -6.573734 -29.550905 9.840795
Cl -3.291620 -29.550905 6.558682
Cl -3.291620 -29.550905 13.122909
Cl -6.573734 -22.986678 -22.980340
Cl -3.291620 -22.986678 -26.262454
Cl -6.573734 -26.268792 -19.698227
Cl -6.573734 -16.422451 -29.544567
Cl -3.291620 -19.704564 -29.544567
Cl -6.573734 -9.858224 -29.544567
Cl -3.291620 -13.140337 -29.544567
Cl -6.573734 -9.858224 29.533477
Cl -3.291620 -13.140337 29.533477
Cl -6.573734 -3.293997 -29.544567
Cl -3.291620 -6.576110 -29.544567
Cl -6.573734 -3.293997 29.533477
Cl -3.291620 -6.576110 29.533477
Cl -6.573734 3.270230 -29.544567
Cl -3.291620 -0.011883 -29.544567
Cl -6.573734 3.270230 29.533477
Cl -3.291620 -0.011883 29.533477
Cl -6.573734 9.834458 -29.544567
Cl -3.291620 6.552344 -29.544567
Cl -6.573734 9.834458 29.533477
Cl -3.291620 6.552344 29.533477
Cl -3.291620 13.116571 -29.544567
Cl -6.573734 16.398685 29.533477
Cl -3.291620 13.116571 29.533477
Cl -6.573734 22.962912 22.969249
Cl -6.573734 19.680798 26.251363
Cl -3.291620 19.680798 29.533477
Cl -6.573734 29.527139 -9.851886
Cl -3.291620 29.527139 -13.134000
Cl -6.573734 29.527139 -3.287659
Cl -3.291620 29.527139 -6.569773
Cl -6.573734 29.527139 3.276568
Cl -3.291620 29.527139 -0.005545
Cl -6.573734 29.527139 9.840795
Cl -3.291620 29.527139 6.558682
Cl -6.573734 29.527139 16.405022
Cl -3.291620 29.527139 13.122909
Cl -3.291620 29.527139 19.687136
Cl -3.291620 26.245025 22.969249
Cl -0.009506 -29.550905 -16.416113
Cl -0.009506 -29.550905 -9.851886
Cl 3.272607 -29.550905 -13.134000
Cl -0.009506 -29.550905 -3.287659
Cl 3.272607 -29.550905 -6.569773
Cl -0.009506 -29.550905 3.276568
Cl 3.272607 -29.550905 -0.005545
Cl -0.009506 -29.550905 9.840795
Cl 3.272607 -29.550905 6.558682
Cl -0.009506 -29.550905 16.405022
Cl 3.272607 -29.550905 13.122909
Cl 3.272607 -29.550905 19.687136
Cl 3.272607 -22.986678 26.251363
Cl -0.009506 -16.422451 -29.544567
Cl -0.009506 -16.422451 29.533477
Cl 3.272607 -19.704564 29.533477
Cl -0.009506 -9.858224 -29.544567
Cl 3.272607 -13.140337 -29.544567
Cl -0.009506 -9.858224 29.533477
Cl 3.272607 -13.140337 29.533477
Cl -0.009506 -3.293997 -29.544567
Cl 3.272607 -6.576110 -29.544567
Cl -0.009506 -3.293997 29.533477
Cl 3.272607 -6.576110 29.533477
Cl -0.009506 3.270230 -29.544567
Cl 3.272607 -0.011883 -29.544567
Cl -0.009506 3.270230 29.533477
Cl 3.272607 -0.011883 29.533477
Cl -0.009506 9.834458 -29.544567
Cl 3.272607 6.552344 -29.544567
Cl -0.009506 9.834458 29.533477
Cl 3.272607 6.552344 29.533477
Cl -0.009506 16.398685 -29.544567
Cl 3.272607 13.116571 -29.544567
Cl -0.009506 16.398685 29.533477
Cl 3.272607 13.116571 29.533477
Cl 3.272607 19.680798 -29.544567
Cl 3.272607 26.245025 -22.980340
Cl -0.009506 29.527139 -16.416113
Cl 3.272607 29.527139 -19.698227
Cl -0.009506 29.527139 -9.851886
Cl 3.272607 29.527139 -13.134000
Cl -0.009506 29.527139 -3.287659
Cl 3.272607 29.527139 -6.569773
Cl -0.009506 29.527139 3.276568
Cl 3.272607 29.527139 -0.005545
Cl -0.009506 29.527139 9.840795
Cl 3.272607 29.527139 6.558682
Cl -0.009506 29.527139 16.405022
Cl 3.272607 29.527139 13.122909
Cl 6.554721 -29.550905 -9.851886
Cl 6.554721 -29.550905 -3.287659
Cl 9.836834 -29.550905 -6.569773
Cl 6.554721 -29.550905 3.276568
Cl 9.836834 -29.550905 -0.005545
Cl 6.554721 -29.550905 9.840795
Cl 9.836834 -29.550905 6.558682
Cl 6.554721 -29.550905 16.405022
Cl 9.836834 -29.550905 13.122909
Cl 9.836834 -26.268792 16.405022
Cl 6.554721 -26.268792 19.687136
Cl 6.554721 -22.986678 22.969249
Cl 9.836834 -22.986678 19.687136
Cl 9.836834 -19.704564 22.969249
Cl 6.554721 -19.704564 26.251363
Cl 6.554721 -16.422451 29.533477
Cl 6.554721 -9.858224 -29.544567
Cl 6.554721 -9.858224 29.533477
Cl 9.836834 -13.140337 29.533477
Cl 6.554721 -3.293997 -29.544567
Cl 9.836834 -6.576110 -29.544567
Cl 6.554721 -3.293997 29.533477
Cl 9.836834 -6.576110 29.533477
Cl 6.554721 3.270230 -29.544567
Cl 9.836834 -0.011883 -29.544567
Cl 6.554721 3.270230 29.533477
Cl 9.836834 -0.011883 29.533477
Cl 6.554721 9.834458 -29.544567
Cl 9.836834 6.552344 -29.544567
Cl 6.554721 9.834458 29.533477
Cl 9.836834 6.552344 29.533477
Cl 6.554721 16.398685 -29.544567
Cl 9.836834 13.116571 -29.544567
Cl 9.836834 16.398685 -26.262454
Cl 6.554721 19.680798 -26.262454
Cl 6.554721 22.962912 -22.980340
Cl 9.836834 19.680798 -22.980340
Cl 9.836834 22.962912 -19.698227
Cl 6.554721 26.245025 -19.698227
Cl 6.554721 29.527139 -16.416113
Cl 6.554721 29.527139 -9.851886
Cl 9.836834 29.527139 -13.134000
Cl 6.554721 29.527139 -3.287659
Cl 9.836834 29.527139 -6.569773
Cl 6.554721 29.527139 3.276568
Cl 9.836834 29.527139 -0.005545
Cl 6.554721 29.527139 9.840795
Cl 9.836834 29.527139 6.558682
Cl 13.118948 -29.550905 -3.287659
Cl 13.118948 -29.550905 3.276568
Cl 16.401061 -29.550905 -0.005545
Cl 13.118948 -29.550905 9.840795
Cl 16.401061 -29.550905 6.558682
Cl 16.401061 -26.268792 9.840795
Cl 13.118948 -22.986678 16.405022
Cl 16.401061 -22.986678 13.122909
Cl 16.401061 -19.704564 16.405022
Cl 13.118948 -19.704564 19.687136
Cl 13.118948 -16.422451 22.969249
Cl 16.401061 -16.422451 19.687136
Cl 16.401061 -13.140337 22.969249
Cl 13.118948 -13.140337 26.251363
Cl 13.118948 -9.858224 29.533477
Cl 16.401061 -9.858224 26.251363
Cl 13.118948 -3.293997 -29.544567
Cl 13.118948 -3.293997 29.533477
Cl 16.401061 -6.576110 29.533477
Cl 13.118948 3.270230 -29.544567
Cl 16.401061 -0.011883 -29.544567
Cl 13.118948 3.270230 29.533477
Cl 16.401061 -0.011883 29.533477
Cl 13.118948 9.834458 -29.544567
Cl 16.401061 6.552344 -29.544567
Cl 16.401061 9.834458 -26.262454
Cl 13.118948 16.398685 -22.980340
Cl 16.401061 13.116571 -22.980340
Cl 16.401061 16.398685 -19.698227
Cl 13.118948 19.680798 -19.698227
Cl 13.118948 22.962912 -16.416113
Cl 16.401061 19.680798 -16.416113
Cl 16.401061 22.962912 -13.134000
Cl 13.118948 26.245025 -13.134000
Cl 13.118948 29.527139 -9.851886
Cl 16.401061 26.245025 -9.851886
Cl 13.118948 29.527139 -3.287659
Cl 16.401061 29.527139 -6.569773
Cl 13.118948 29.527139 3.276568
Cl 16.401061 29.527139 -0.005545
Cl 19.683175 -29.550905 3.276568
Cl 19.683175 -26.268792 6.558682
Cl 19.683175 -22.986678 9.840795
Cl 22.965288 -22.986678 6.558682
Cl 22.965288 -19.704564 9.840795
Cl 19.683175 -19.704564 13.122909
Cl 19.683175 -16.422451 16.405022
Cl 22.965288 -16.422451 13.122909
Cl 22.965288 -13.140337 16.405022
Cl 19.683175 -13.140337 19.687136
Cl 19.683175 -9.858224 22.969249
Cl 22.965288 -9.858224 19.687136
Cl 22.965288 -6.576110 22.969249
Cl 19.683175 -6.576110 26.251363
Cl 19.683175 -3.293997 29.533477
Cl 19.683175 3.270230 -29.544567
Cl 19.683175 6.552344 -26.262454
Cl 19.683175 9.834458 -22.980340
Cl 22.965288 6.552344 -22.980340
Cl 22.965288 9.834458 -19.698227
Cl 19.683175 13.116571 -19.698227
Cl 19.683175 16.398685 -16.416113
Cl 22.965288 13.116571 -16.416113
Cl 22.965288 16.398685 -13.134000
Cl 19.683175 19.680798 -13.134000
Cl 19.683175 22.962912 -9.851886
Cl 22.965288 19.680798 -9.851886
Cl 22.965288 22.962912 -6.569773
Cl 19.683175 26.245025 -6.569773
Cl 19.683175 29.527139 -3.287659
Cl 26.247402 -22.986678 3.276568
Cl 29.529516 -16.422451 -0.005545
Cl 29.529516 -19.704564 3.276568
Cl 26.247402 -19.704564 6.558682
Cl 29.529516 -16.422451 6.558682
Cl 29.529516 -9.858224 -6.569773
Cl 29.529516 -13.140337 -3.287659
Cl 29.529516 -9.858224 -0.005545
Cl 29.529516 -13.140337 3.276568
Cl 29.529516 -9.858224 6.558682
Cl 29.529516 -13.140337 9.840795
Cl 26.247402 -13.140337 13.122909
Cl 26.247402 -9.858224 16.405022
Cl 29.529516 -9.858224 13.122909
Cl 29.529516 -3.293997 -13.134000
Cl 29.529516 -6.576110 -9.851886
Cl 29.529516 -3.293997 -6.569773
Cl 29.529516 -6.576110 -3.287659
Cl 29.529516 -3.293997 -0.005545
Cl 29.529516 -6.576110 3.276568
Cl 29.529516 -3.293997 6.558682
Cl 29.529516 -6.576110 9.840795
Cl 29.529516 -3.293997 13.122909
Cl 29.529516 -6.576110 16.405022
Cl 26.247402 -3.293997 22.969249
Cl 29.529516 -3.293997 19.687136
Cl 26.247402 3.270230 -22.980340
Cl 29.529516 3.270230 -19.698227
Cl 29.529516 -0.011883 -16.416113
Cl 29.529516 3.270230 -13.134000
Cl 29.529516 -0.011883 -9.851886
Cl 29.529516 3.270230 -6.569773
Cl 29.529516 -0.011883 -3.287659
Cl 29.529516 3.270230 -0.005545
Cl 29.529516 -0.011883 3.276568
Cl 29.529516 3.270230 6.558682
Cl 29.529516 -0.011883 9.840795
Cl 29.529516 3.270230 13.122909
Cl 29.529516 -0.011883 16.405022
Cl 26.247402 6.552344 -19.698227
Cl 29.529516 6.552344 -16.416113
Cl 29.529516 9.834458 -13.134000
Cl 29.529516 6.552344 -9.851886
Cl 29.529516 9.834458 -6.569773
Cl 29.529516 6.552344 -3.287659
Cl 29.529516 9.834458 -0.005545
Cl 29.529516 6.552344 3.276568
Cl 29.529516 9.834458 6.558682
Cl 29.529516 6.552344 9.840795
Cl 26.247402 13.116571 -13.134000
Cl 26.247402 16.398685 -9.851886
Cl 29.529516 13.116571 -9.851886
Cl 29.529516 16.398685 -6.569773
Cl 29.529516 13.116571 -3.287659
Cl 29.529516 16.398685 -0.005545
Cl 29.529516 13.116571 3.276568
Cl 26.247402 22.962912 -3.287659
Cl 29.529516 19.680798 -3.287659
Cl -16.420074 -16.422451 16.405022
Cl -16.420074 16.398685 -16.416113
Cl 16.401061 -16.422451 -16.416113
Cl 16.401061 16.398685 16.405022
Cl -0.009506 -26.268792 22.969249
Cl -0.009506 22.962912 -26.262454
Cl 22.965288 -0.011883 -26.262454
Cl 22.965288 26.245025 -0.005545
Cl -26.266415 -6.576110 16.405022
Cl -26.266415 16.398685 -6.569773
Cl 16.401061 -26.268792 -6.569773
Cl 16.401061 6.552344 26.251363
Cl -26.266415 -16.422451 6.558682
Cl -26.266415 6.552344 -16.416113
Cl 6.554721 -26.268792 -16.416113
Cl 6.554721 16.398685 26.251363
Cl -13.137961 -9.858224 26.251363
Cl -13.137961 26.245025 -9.851886
