88
InAs-In-In35As26Cl27-clean
In -2.966813 -2.966813 -0.086749
In -6.020374 -6.020374 6.020374
In -6.020374 -2.966813 2.966813
In -2.966813 -2.966813 6.020374
In -2.966813 -6.020374 2.966813
In -2.966813 3.140311 -6.193872
In -6.020374 0.086749 -0.086749
In -6.020374 3.140311 -3.140311
In -2.966813 3.140311 -0.086749
In -2.966813 0.086749 -3.140311
In -2.966813 0.086749 2.966813
In -6.020374 6.193872 -6.193872
In -2.966813 6.193872 -3.140311
In 3.140311 -2.966813 -6.193872
In 0.086749 -6.020374 -0.086749
In 0.086749 -2.966813 -3.140311
In 3.140311 -2.966813 -0.086749
In 3.140311 -6.020374 -3.140311
In 0.086749 -2.966813 2.966813
In 0.086749 0.086749 -6.193872
In 0.086749 0.086749 -0.086749
In 0.086749 3.140311 -3.140311
In 3.140311 3.140311 -0.086749
In 3.140311 0.086749 -3.140311
In 0.086749 0.086749 6.020374
In 0.086749 3.140311 2.966813
In 3.140311 3.140311 6.020374
In 3.140311 0.086749 2.966813
In 0.086749 6.193872 -0.086749
In 3.140311 6.193872 2.966813
In 6.193872 -6.020374 -6.193872
In 6.193872 -2.966813 -3.140311
In 6.193872 0.086749 -0.086749
In 6.193872 3.140311 2.966813
In 6.193872 6.193872 6.020374
As -4.493594 -4.493594 1.440032
As -4.493594 1.613530 -4.667091
As -4.493594 -1.440032 -1.613530
As -4.493594 -1.440032 4.493594
As -4.493594 4.667091 -1.613530
As 1.613530 -4.493594 -4.667091
As -1.440032 -4.493594 -1.613530
As 1.613530 -4.493594 1.440032
As -1.440032 -4.493594 4.493594
As -1.440032 -1.440032 -4.667091
As 1.613530 1.613530 -4.667091
As 1.613530 -1.440032 -1.613530
As -1.440032 1.613530 -1.613530
As -1.440032 -1.440032 1.440032
As 1.613530 1.613530 1.440032
As 1.613530 -1.440032 4.493594
As -1.440032 1.613530 4.493594
As -1.440032 4.667091 -4.667091
As 1.613530 4.667091 -1.613530
As -1.440032 4.667091 1.440032
As 1.613530 4.667091 4.493594
As 4.667091 -4.493594 -1.613530
As 4.667091 -1.440032 -4.667091
As 4.667091 -1.440032 1.440032
As 4.667091 1.613530 4.493594
As 4.667091 4.667091 1.440032
Cl -4.493594 -7.547155 4.493594
Cl -7.547155 -4.493594 4.493594
Cl -4.493594 -4.493594 7.547155
Cl -7.547155 1.613530 -1.613530
Cl -7.547155 -1.440032 1.440032
Cl -4.493594 1.613530 1.440032
Cl -4.493594 4.667091 -7.720653
Cl -7.547155 4.667091 -4.667091
Cl -4.493594 7.720653 -4.667091
Cl 1.613530 -7.547155 -1.613530
Cl -1.440032 -7.547155 1.440032
Cl 1.613530 -1.440032 -7.720653
Cl -1.440032 1.613530 -7.720653
Cl -1.440032 -1.440032 7.547155
Cl 1.613530 1.613530 7.547155
Cl -1.440032 7.720653 -1.613530
Cl 1.613530 7.720653 1.440032
Cl 4.667091 -4.493594 -7.720653
Cl 4.667091 -7.547155 -4.667091
Cl 7.720653 -4.493594 -4.667091
Cl 7.720653 -1.440032 -1.613530
Cl 4.667091 1.613530 -1.613530
Cl 7.720653 1.613530 1.440032
Cl 7.720653 4.667091 4.493594
Cl 4.667091 7.720653 4.493594
Cl 4.667091 4.667091 7.547155
Cl -7.547155 -7.547155 7.547155
