266
GaSb-Sb-Ga116Sb99Cl51-clean
Ga -10.693971 -7.636902 -7.636902
Ga -10.693971 -4.568298 -4.568298
Ga -10.693971 -1.499694 -1.499694
Ga -10.693971 1.568910 1.568910
Ga -10.693971 4.637515 4.637515
Ga -10.693971 7.706119 7.706119
Ga -7.625366 -10.705507 -7.636902
Ga -4.556762 -10.705507 -4.568298
Ga -7.625366 -7.636902 -10.705507
Ga -4.556762 -4.568298 -10.705507
Ga -4.556762 -7.636902 -7.636902
Ga -7.625366 -4.568298 -7.636902
Ga -7.625366 -7.636902 -4.568298
Ga -4.556762 -4.568298 -4.568298
Ga -4.556762 -7.636902 -1.499694
Ga -7.625366 -4.568298 -1.499694
Ga -4.556762 -4.568298 1.568910
Ga -4.556762 -1.499694 -7.636902
Ga -7.625366 -1.499694 -4.568298
Ga -4.556762 1.568910 -4.568298
Ga -4.556762 -1.499694 -1.499694
Ga -7.625366 1.568910 -1.499694
Ga -7.625366 -1.499694 1.568910
Ga -4.556762 1.568910 1.568910
Ga -4.556762 -1.499694 4.637515
Ga -7.625366 1.568910 4.637515
Ga -4.556762 1.568910 7.706119
Ga -4.556762 4.637515 -1.499694
Ga -7.625366 4.637515 1.568910
Ga -4.556762 7.706119 1.568910
Ga -4.556762 4.637515 4.637515
Ga -7.625366 7.706119 4.637515
Ga -7.625366 4.637515 7.706119
Ga -4.556762 7.706119 7.706119
Ga -4.556762 4.637515 10.774723
Ga -7.625366 7.706119 10.774723
Ga -4.556762 10.774723 4.637515
Ga -7.625366 10.774723 7.706119
Ga -1.488158 -10.705507 -1.499694
Ga 1.580447 -10.705507 1.568910
Ga -1.488158 -4.568298 -7.636902
Ga -1.488158 -7.636902 -4.568298
Ga 1.580447 -4.568298 -4.568298
Ga 1.580447 -7.636902 -1.499694
Ga -1.488158 -4.568298 -1.499694
Ga -1.488158 -7.636902 1.568910
Ga 1.580447 -4.568298 1.568910
Ga 1.580447 -7.636902 4.637515
Ga -1.488158 -4.568298 4.637515
Ga 1.580447 -4.568298 7.706119
Ga -1.488158 -1.499694 -10.705507
Ga 1.580447 1.568910 -10.705507
Ga 1.580447 -1.499694 -7.636902
Ga -1.488158 1.568910 -7.636902
Ga -1.488158 -1.499694 -4.568298
Ga 1.580447 1.568910 -4.568298
Ga 1.580447 -1.499694 -1.499694
Ga -1.488158 1.568910 -1.499694
Ga -1.488158 -1.499694 1.568910
Ga 1.580447 1.568910 1.568910
Ga 1.580447 -1.499694 4.637515
Ga -1.488158 1.568910 4.637515
Ga -1.488158 -1.499694 7.706119
Ga 1.580447 1.568910 7.706119
Ga 1.580447 -1.499694 10.774723
Ga -1.488158 1.568910 10.774723
Ga 1.580447 4.637515 -7.636902
Ga -1.488158 4.637515 -4.568298
Ga 1.580447 7.706119 -4.568298
Ga 1.580447 4.637515 -1.499694
Ga -1.488158 7.706119 -1.499694
Ga -1.488158 4.637515 1.568910
Ga 1.580447 7.706119 1.568910
Ga 1.580447 4.637515 4.637515
Ga -1.488158 7.706119 4.637515
Ga -1.488158 4.637515 7.706119
Ga 1.580447 10.774723 -1.499694
Ga -1.488158 10.774723 1.568910
Ga 4.649051 -10.705507 4.637515
Ga 7.717655 -10.705507 7.706119
Ga 4.649051 -4.568298 -1.499694
Ga 4.649051 -7.636902 1.568910
Ga 7.717655 -4.568298 1.568910
Ga 7.717655 -7.636902 4.637515
Ga 4.649051 -4.568298 4.637515
Ga 4.649051 -7.636902 7.706119
Ga 7.717655 -4.568298 7.706119
Ga 7.717655 -7.636902 10.774723
Ga 4.649051 -4.568298 10.774723
Ga 4.649051 1.568910 -7.636902
Ga 4.649051 -1.499694 -4.568298
Ga 7.717655 1.568910 -4.568298
Ga 7.717655 -1.499694 -1.499694
Ga 4.649051 1.568910 -1.499694
Ga 4.649051 -1.499694 1.568910
Ga 7.717655 1.568910 1.568910
Ga 7.717655 -1.499694 4.637515
Ga 4.649051 1.568910 4.637515
Ga 4.649051 -1.499694 7.706119
Ga 4.649051 4.637515 -10.705507
Ga 7.717655 7.706119 -10.705507
Ga 7.717655 4.637515 -7.636902
Ga 4.649051 7.706119 -7.636902
Ga 4.649051 4.637515 -4.568298
Ga 7.717655 7.706119 -4.568298
Ga 7.717655 4.637515 -1.499694
Ga 4.649051 7.706119 -1.499694
Ga 4.649051 4.637515 1.568910
Ga 7.717655 10.774723 -7.636902
Ga 4.649051 10.774723 -4.568298
Ga 10.786260 -4.568298 4.637515
Ga 10.786260 -7.636902 7.706119
Ga 10.786260 1.568910 -1.499694
Ga 10.786260 -1.499694 1.568910
Ga 10.786260 7.706119 -7.636902
Ga 10.786260 4.637515 -4.568298
Sb -9.159669 -3.033996 -6.102600
Sb -9.159669 -3.033996 0.034608
Sb -9.159669 -6.102600 -3.033996
Sb -9.159669 3.103213 0.034608
Sb -9.159669 0.034608 -3.033996
Sb -9.159669 3.103213 6.171817
Sb -9.159669 0.034608 3.103213
Sb -9.159669 6.171817 3.103213
Sb -3.022460 -9.171205 -6.102600
Sb -6.091064 -9.171205 -3.033996
Sb -3.022460 -9.171205 0.034608
Sb -6.091064 -6.102600 -6.102600
Sb -6.091064 -3.033996 -9.171205
Sb -3.022460 -3.033996 -6.102600
Sb -3.022460 -6.102600 -9.171205
Sb -6.091064 -6.102600 0.034608
Sb -6.091064 -3.033996 -3.033996
Sb -3.022460 -3.033996 0.034608
Sb -3.022460 -6.102600 -3.033996
Sb -3.022460 -3.033996 6.171817
Sb -3.022460 -6.102600 3.103213
Sb -6.091064 0.034608 -6.102600
Sb -3.022460 3.103213 -6.102600
Sb -3.022460 0.034608 -9.171205
Sb -6.091064 0.034608 0.034608
Sb -3.022460 3.103213 0.034608
Sb -3.022460 0.034608 -3.033996
Sb -6.091064 0.034608 6.171817
Sb -6.091064 3.103213 3.103213
Sb -3.022460 3.103213 6.171817
Sb -3.022460 0.034608 3.103213
Sb -6.091064 3.103213 9.240421
Sb -3.022460 0.034608 9.240421
Sb -6.091064 6.171817 0.034608
Sb -3.022460 9.240421 0.034608
Sb -3.022460 6.171817 -3.033996
Sb -6.091064 6.171817 6.171817
Sb -6.091064 9.240421 3.103213
Sb -3.022460 9.240421 6.171817
Sb -3.022460 6.171817 3.103213
Sb -3.022460 6.171817 9.240421
Sb 0.046144 -9.171205 -3.033996
Sb 3.114749 -9.171205 0.034608
Sb 0.046144 -9.171205 3.103213
Sb 3.114749 -9.171205 6.171817
Sb 0.046144 -3.033996 -9.171205
Sb 3.114749 -3.033996 -6.102600
Sb 0.046144 -6.102600 0.034608
Sb 0.046144 -3.033996 -3.033996
Sb 3.114749 -3.033996 0.034608
Sb 3.114749 -6.102600 -3.033996
Sb 0.046144 -3.033996 3.103213
Sb 3.114749 -3.033996 6.171817
Sb 3.114749 -6.102600 3.103213
Sb 0.046144 -3.033996 9.240421
Sb 3.114749 -6.102600 9.240421
Sb 0.046144 0.034608 -6.102600
Sb 0.046144 3.103213 -9.171205
Sb 3.114749 3.103213 -6.102600
Sb 3.114749 0.034608 -9.171205
Sb 0.046144 0.034608 0.034608
Sb 0.046144 3.103213 -3.033996
Sb 3.114749 3.103213 0.034608
Sb 3.114749 0.034608 -3.033996
Sb 0.046144 0.034608 6.171817
Sb 0.046144 3.103213 3.103213
Sb 3.114749 3.103213 6.171817
Sb 3.114749 0.034608 3.103213
Sb 0.046144 3.103213 9.240421
Sb 3.114749 0.034608 9.240421
Sb 3.114749 9.240421 -6.102600
Sb 3.114749 6.171817 -9.171205
Sb 0.046144 6.171817 0.034608
Sb 0.046144 9.240421 -3.033996
Sb 3.114749 9.240421 0.034608
Sb 3.114749 6.171817 -3.033996
Sb 0.046144 9.240421 3.103213
Sb 3.114749 6.171817 3.103213
Sb 6.183353 -9.171205 3.103213
Sb 6.183353 -6.102600 0.034608
Sb 9.251957 -3.033996 0.034608
Sb 6.183353 -6.102600 6.171817
Sb 6.183353 -3.033996 3.103213
Sb 9.251957 -3.033996 6.171817
Sb 9.251957 -6.102600 3.103213
Sb 6.183353 -3.033996 9.240421
Sb 6.183353 0.034608 -6.102600
Sb 6.183353 3.103213 -9.171205
Sb 9.251957 3.103213 -6.102600
Sb 6.183353 0.034608 0.034608
Sb 6.183353 3.103213 -3.033996
Sb 9.251957 3.103213 0.034608
Sb 9.251957 0.034608 -3.033996
Sb 6.183353 0.034608 6.171817
Sb 9.251957 0.034608 3.103213
Sb 6.183353 6.171817 -6.102600
Sb 6.183353 6.171817 0.034608
Sb 6.183353 9.240421 -3.033996
Sb 9.251957 6.171817 -3.033996
Cl -9.159669 -9.171205 -6.102600
Cl -12.228273 -6.102600 -6.102600
Cl -9.159669 -6.102600 -9.171205
Cl -12.228273 -3.033996 -3.033996
Cl -12.228273 0.034608 0.034608
Cl -12.228273 3.103213 3.103213
Cl -12.228273 6.171817 6.171817
Cl -9.159669 9.240421 6.171817
Cl -9.159669 6.171817 9.240421
Cl -6.091064 -12.239809 -6.102600
Cl -6.091064 -9.171205 -9.171205
Cl -3.022460 -12.239809 -3.033996
Cl -6.091064 -6.102600 -12.239809
Cl -3.022460 -3.033996 -12.239809
Cl -6.091064 -3.033996 3.103213
Cl -6.091064 3.103213 -3.033996
Cl -3.022460 3.103213 12.309026
Cl -6.091064 6.171817 12.309026
Cl -6.091064 9.240421 9.240421
Cl -6.091064 12.309026 6.171817
Cl -3.022460 12.309026 3.103213
Cl 0.046144 -12.239809 0.034608
Cl 3.114749 -12.239809 3.103213
Cl 0.046144 -6.102600 -6.102600
Cl 0.046144 -6.102600 6.171817
Cl 3.114749 -3.033996 12.309026
Cl 0.046144 0.034608 -12.239809
Cl 3.114749 3.103213 -12.239809
Cl 0.046144 0.034608 12.309026
Cl 0.046144 6.171817 -6.102600
Cl 0.046144 6.171817 6.171817
Cl 0.046144 12.309026 0.034608
Cl 3.114749 12.309026 -3.033996
Cl 6.183353 -12.239809 6.171817
Cl 9.251957 -9.171205 6.171817
Cl 6.183353 -9.171205 9.240421
Cl 6.183353 -3.033996 -3.033996
Cl 6.183353 -6.102600 12.309026
Cl 9.251957 -6.102600 9.240421
Cl 6.183353 3.103213 3.103213
Cl 6.183353 6.171817 -12.239809
Cl 6.183353 9.240421 -9.171205
Cl 9.251957 9.240421 -6.102600
Cl 9.251957 6.171817 -9.171205
Cl 6.183353 12.309026 -6.102600
Cl 12.320562 -6.102600 6.171817
Cl 12.320562 -3.033996 3.103213
Cl 12.320562 0.034608 0.034608
Cl 12.320562 3.103213 -3.033996
Cl 12.320562 6.171817 -6.102600
Cl -12.228273 -9.171205 -9.171205
