92
InAs-In-In31As16Cl45-reconstructed
In -2.970584 -3.070157 -6.024146
In -6.024146 -3.070157 -2.970584
In -2.970584 -3.070157 0.082977
In -2.970584 -6.123719 -2.970584
In -6.024146 -0.016595 0.082977
In -2.970584 3.036966 0.082977
In -2.970584 -0.016595 -2.970584
In -6.024146 3.036966 3.136539
In -2.970584 3.036966 6.190101
In -2.970584 -0.016595 3.136539
In -2.970584 6.090528 3.136539
In 0.082977 -6.123719 0.082977
In 0.082977 -3.070157 -2.970584
In 3.136539 -3.070157 0.082977
In 0.082977 -3.070157 3.136539
In 3.136539 -3.070157 6.190101
In 3.136539 -6.123719 3.136539
In 0.082977 -0.016595 -6.024146
In 3.136539 3.036966 -6.024146
In 0.082977 -0.016595 0.082977
In 0.082977 3.036966 -2.970584
In 3.136539 3.036966 0.082977
In 3.136539 -0.016595 -2.970584
In 0.082977 -0.016595 6.190101
In 0.082977 3.036966 3.136539
In 3.136539 -0.016595 3.136539
In 0.082977 6.090528 0.082977
In 3.136539 6.090528 -2.970584
In 6.190101 -3.070157 3.136539
In 6.190101 -0.016595 0.082977
In 6.190101 3.036966 -2.970584
As -4.497365 -1.543376 -1.443804
As -4.497365 1.510185 1.609758
As -1.443804 -4.596938 -1.443804
As 1.609758 -4.596938 1.609758
As -1.443804 -1.543376 -4.497365
As 1.609758 1.510185 -4.497365
As 1.609758 -1.543376 -1.443804
As -1.443804 1.510185 -1.443804
As -1.443804 -1.543376 1.609758
As 1.609758 1.510185 1.609758
As 1.609758 -1.543376 4.663320
As -1.443804 1.510185 4.663320
As 1.609758 4.563747 -1.443804
As -1.443804 4.563747 1.609758
As 4.663320 1.510185 -1.443804
As 4.663320 -1.543376 1.609758
Cl -4.497365 -4.596938 -4.497365
Cl -4.497365 4.563747 4.663320
Cl 4.663320 -4.596938 4.663320
Cl 4.663320 4.563747 -4.497365
Cl 1.609758 -1.543376 -7.550927
Cl 7.716881 1.510185 1.609758
Cl -1.443804 7.617309 -1.443804
Cl -1.443804 7.617309 4.663320
Cl 4.663320 -7.650500 1.609758
Cl -1.443804 -4.596938 -7.550927
Cl 7.716881 -1.543376 4.663320
Cl -7.550927 -1.543376 -4.497365
Cl -4.497365 1.510185 7.716881
Cl -4.497365 -7.650500 -1.443804
Cl 4.663320 1.510185 -7.550927
Cl 1.609758 7.617309 -4.497365
Cl 7.716881 4.563747 -1.443804
Cl -7.550927 4.563747 1.609758
Cl 1.609758 -4.596938 7.716881
Cl 1.609758 -7.650500 -1.443804
Cl 1.609758 1.510185 7.716881
Cl -7.550927 -1.543376 1.609758
Cl -1.443804 1.510185 -7.550927
Cl 1.609758 -7.650500 4.663320
Cl 7.716881 -1.543376 -1.443804
Cl 4.663320 7.617309 -1.443804
Cl -7.550927 -4.596938 -1.443804
Cl -4.497365 -1.543376 -7.550927
Cl -1.443804 4.563747 7.716881
Cl -7.550927 1.510185 4.663320
Cl -4.497365 7.617309 1.609758
Cl 7.716881 -4.596938 1.609758
Cl 4.663320 -1.543376 7.716881
Cl 1.609758 4.563747 -7.550927
Cl -1.443804 -7.650500 -4.497365
Cl -1.443804 -7.650500 1.609758
Cl 7.716881 1.510185 -4.497365
Cl -7.550927 1.510185 -1.443804
Cl -1.443804 -1.543376 7.716881
Cl 1.609758 7.617309 1.609758
Cl -4.497365 -4.596938 1.609758
Cl -4.497365 4.563747 -1.443804
Cl 1.609758 -4.596938 -4.497365
Cl 4.663320 4.563747 1.609758
Cl -4.497365 1.510185 -4.497365
