2274
GaP-P-Ga1000P863Cl411-clean
Ga -20.451985 -15.006353 -12.279342
Ga -20.451985 -12.280540 -15.005154
Ga -20.451985 -9.554728 -12.279342
Ga -20.451985 -12.280540 -9.553529
Ga -20.451985 -9.554728 -6.827717
Ga -20.451985 -6.828915 -9.553529
Ga -20.451985 -4.103103 -6.827717
Ga -20.451985 -6.828915 -4.101904
Ga -20.451985 -4.103103 -1.376092
Ga -20.451985 -1.377290 -4.101904
Ga -20.451985 1.348522 -1.376092
Ga -20.451985 -1.377290 1.349721
Ga -20.451985 1.348522 4.075533
Ga -20.451985 4.074335 1.349721
Ga -20.451985 6.800147 4.075533
Ga -20.451985 4.074335 6.801346
Ga -20.451985 6.800147 9.527158
Ga -20.451985 9.525959 6.801346
Ga -20.451985 12.251772 9.527158
Ga -20.451985 9.525959 12.252971
Ga -20.451985 12.251772 14.978783
Ga -20.451985 14.977584 12.252971
Ga -15.000360 -20.457978 -12.279342
Ga -15.000360 -15.006353 -17.730967
Ga -15.000360 -17.732165 -15.005154
Ga -17.726172 -15.006353 -15.005154
Ga -17.726172 -17.732165 -12.279342
Ga -15.000360 -15.006353 -12.279342
Ga -15.000360 -17.732165 -9.553529
Ga -17.726172 -15.006353 -9.553529
Ga -15.000360 -15.006353 -6.827717
Ga -15.000360 -12.280540 -20.456779
Ga -17.726172 -12.280540 -17.730967
Ga -15.000360 -9.554728 -17.730967
Ga -15.000360 -12.280540 -15.005154
Ga -17.726172 -9.554728 -15.005154
Ga -17.726172 -12.280540 -12.279342
Ga -15.000360 -9.554728 -12.279342
Ga -15.000360 -12.280540 -9.553529
Ga -17.726172 -9.554728 -9.553529
Ga -17.726172 -12.280540 -6.827717
Ga -15.000360 -9.554728 -6.827717
Ga -15.000360 -12.280540 -4.101904
Ga -17.726172 -9.554728 -4.101904
Ga -15.000360 -9.554728 -1.376092
Ga -15.000360 -6.828915 -15.005154
Ga -17.726172 -6.828915 -12.279342
Ga -15.000360 -4.103103 -12.279342
Ga -15.000360 -6.828915 -9.553529
Ga -17.726172 -4.103103 -9.553529
Ga -17.726172 -6.828915 -6.827717
Ga -15.000360 -4.103103 -6.827717
Ga -15.000360 -6.828915 -4.101904
Ga -17.726172 -4.103103 -4.101904
Ga -17.726172 -6.828915 -1.376092
Ga -15.000360 -4.103103 -1.376092
Ga -15.000360 -6.828915 1.349721
Ga -17.726172 -4.103103 1.349721
Ga -15.000360 -4.103103 4.075533
Ga -15.000360 -1.377290 -9.553529
Ga -17.726172 -1.377290 -6.827717
Ga -15.000360 1.348522 -6.827717
Ga -15.000360 -1.377290 -4.101904
Ga -17.726172 1.348522 -4.101904
Ga -17.726172 -1.377290 -1.376092
Ga -15.000360 1.348522 -1.376092
Ga -15.000360 -1.377290 1.349721
Ga -17.726172 1.348522 1.349721
Ga -17.726172 -1.377290 4.075533
Ga -15.000360 1.348522 4.075533
Ga -15.000360 -1.377290 6.801346
Ga -17.726172 1.348522 6.801346
Ga -15.000360 1.348522 9.527158
Ga -15.000360 4.074335 -4.101904
Ga -17.726172 4.074335 -1.376092
Ga -15.000360 6.800147 -1.376092
Ga -15.000360 4.074335 1.349721
Ga -17.726172 6.800147 1.349721
Ga -17.726172 4.074335 4.075533
Ga -15.000360 6.800147 4.075533
Ga -15.000360 4.074335 6.801346
Ga -17.726172 6.800147 6.801346
Ga -17.726172 4.074335 9.527158
Ga -15.000360 6.800147 9.527158
Ga -15.000360 4.074335 12.252971
Ga -17.726172 6.800147 12.252971
Ga -15.000360 6.800147 14.978783
Ga -15.000360 9.525959 1.349721
Ga -17.726172 9.525959 4.075533
Ga -15.000360 12.251772 4.075533
Ga -15.000360 9.525959 6.801346
Ga -17.726172 12.251772 6.801346
Ga -17.726172 9.525959 9.527158
Ga -15.000360 12.251772 9.527158
Ga -15.000360 9.525959 12.252971
Ga -17.726172 12.251772 12.252971
Ga -17.726172 9.525959 14.978783
Ga -15.000360 12.251772 14.978783
Ga -15.000360 9.525959 17.704596
Ga -17.726172 12.251772 17.704596
Ga -15.000360 12.251772 20.430408
Ga -15.000360 14.977584 6.801346
Ga -17.726172 14.977584 9.527158
Ga -15.000360 17.703397 9.527158
Ga -15.000360 14.977584 12.252971
Ga -17.726172 17.703397 12.252971
Ga -17.726172 14.977584 14.978783
Ga -15.000360 17.703397 14.978783
Ga -15.000360 14.977584 17.704596
Ga -15.000360 20.429209 12.252971
Ga -12.274547 -20.457978 -15.005154
Ga -9.548735 -20.457978 -12.279342
Ga -12.274547 -20.457978 -9.553529
Ga -9.548735 -20.457978 -6.827717
Ga -12.274547 -15.006353 -20.456779
Ga -12.274547 -17.732165 -17.730967
Ga -9.548735 -15.006353 -17.730967
Ga -9.548735 -17.732165 -15.005154
Ga -12.274547 -15.006353 -15.005154
Ga -12.274547 -17.732165 -12.279342
Ga -9.548735 -15.006353 -12.279342
Ga -9.548735 -17.732165 -9.553529
Ga -12.274547 -15.006353 -9.553529
Ga -12.274547 -17.732165 -6.827717
Ga -9.548735 -15.006353 -6.827717
Ga -9.548735 -17.732165 -4.101904
Ga -12.274547 -15.006353 -4.101904
Ga -9.548735 -15.006353 -1.376092
Ga -9.548735 -12.280540 -20.456779
Ga -12.274547 -9.554728 -20.456779
Ga -12.274547 -12.280540 -17.730967
Ga -9.548735 -9.554728 -17.730967
Ga -9.548735 -12.280540 -15.005154
Ga -12.274547 -9.554728 -15.005154
Ga -12.274547 -12.280540 -12.279342
Ga -9.548735 -9.554728 -12.279342
Ga -9.548735 -12.280540 -9.553529
Ga -12.274547 -9.554728 -9.553529
Ga -12.274547 -12.280540 -6.827717
Ga -9.548735 -9.554728 -6.827717
Ga -9.548735 -12.280540 -4.101904
Ga -12.274547 -9.554728 -4.101904
Ga -12.274547 -12.280540 -1.376092
Ga -9.548735 -9.554728 -1.376092
Ga -9.548735 -12.280540 1.349721
Ga -12.274547 -9.554728 1.349721
Ga -9.548735 -9.554728 4.075533
Ga -9.548735 -6.828915 -20.456779
Ga -12.274547 -6.828915 -17.730967
Ga -9.548735 -4.103103 -17.730967
Ga -9.548735 -6.828915 -15.005154
Ga -12.274547 -4.103103 -15.005154
Ga -12.274547 -6.828915 -12.279342
Ga -9.548735 -4.103103 -12.279342
Ga -9.548735 -6.828915 -9.553529
Ga -12.274547 -4.103103 -9.553529
Ga -12.274547 -6.828915 -6.827717
Ga -9.548735 -4.103103 -6.827717
Ga -9.548735 -6.828915 -4.101904
Ga -12.274547 -4.103103 -4.101904
Ga -12.274547 -6.828915 -1.376092
Ga -9.548735 -4.103103 -1.376092
Ga -9.548735 -6.828915 1.349721
Ga -12.274547 -4.103103 1.349721
Ga -12.274547 -6.828915 4.075533
Ga -9.548735 -4.103103 4.075533
Ga -9.548735 -6.828915 6.801346
Ga -12.274547 -4.103103 6.801346
Ga -9.548735 -4.103103 9.527158
Ga -9.548735 -1.377290 -15.005154
Ga -12.274547 -1.377290 -12.279342
Ga -9.548735 1.348522 -12.279342
Ga -9.548735 -1.377290 -9.553529
Ga -12.274547 1.348522 -9.553529
Ga -12.274547 -1.377290 -6.827717
Ga -9.548735 1.348522 -6.827717
Ga -9.548735 -1.377290 -4.101904
Ga -12.274547 1.348522 -4.101904
Ga -12.274547 -1.377290 -1.376092
Ga -9.548735 1.348522 -1.376092
Ga -9.548735 -1.377290 1.349721
Ga -12.274547 1.348522 1.349721
Ga -12.274547 -1.377290 4.075533
Ga -9.548735 1.348522 4.075533
Ga -9.548735 -1.377290 6.801346
Ga -12.274547 1.348522 6.801346
Ga -12.274547 -1.377290 9.527158
Ga -9.548735 1.348522 9.527158
Ga -9.548735 -1.377290 12.252971
Ga -12.274547 1.348522 12.252971
Ga -9.548735 1.348522 14.978783
Ga -9.548735 4.074335 -9.553529
Ga -12.274547 4.074335 -6.827717
Ga -9.548735 6.800147 -6.827717
Ga -9.548735 4.074335 -4.101904
Ga -12.274547 6.800147 -4.101904
Ga -12.274547 4.074335 -1.376092
Ga -9.548735 6.800147 -1.376092
Ga -9.548735 4.074335 1.349721
Ga -12.274547 6.800147 1.349721
Ga -12.274547 4.074335 4.075533
Ga -9.548735 6.800147 4.075533
Ga -9.548735 4.074335 6.801346
Ga -12.274547 6.800147 6.801346
Ga -12.274547 4.074335 9.527158
Ga -9.548735 6.800147 9.527158
Ga -9.548735 4.074335 12.252971
Ga -12.274547 6.800147 12.252971
Ga -12.274547 4.074335 14.978783
Ga -9.548735 6.800147 14.978783
Ga -9.548735 4.074335 17.704596
Ga -12.274547 6.800147 17.704596
Ga -9.548735 6.800147 20.430408
Ga -9.548735 9.525959 -4.101904
Ga -12.274547 9.525959 -1.376092
Ga -9.548735 12.251772 -1.376092
Ga -9.548735 9.525959 1.349721
Ga -12.274547 12.251772 1.349721
Ga -12.274547 9.525959 4.075533
Ga -9.548735 12.251772 4.075533
Ga -9.548735 9.525959 6.801346
Ga -12.274547 12.251772 6.801346
Ga -12.274547 9.525959 9.527158
Ga -9.548735 12.251772 9.527158
Ga -9.548735 9.525959 12.252971
Ga -12.274547 12.251772 12.252971
Ga -12.274547 9.525959 14.978783
Ga -9.548735 12.251772 14.978783
Ga -9.548735 9.525959 17.704596
Ga -12.274547 12.251772 17.704596
Ga -12.274547 9.525959 20.430408
Ga -9.548735 12.251772 20.430408
Ga -9.548735 14.977584 1.349721
Ga -12.274547 14.977584 4.075533
Ga -9.548735 17.703397 4.075533
Ga -9.548735 14.977584 6.801346
Ga -12.274547 17.703397 6.801346
Ga -12.274547 14.977584 9.527158
Ga -9.548735 17.703397 9.527158
Ga -9.548735 14.977584 12.252971
Ga -12.274547 17.703397 12.252971
Ga -12.274547 14.977584 14.978783
Ga -9.548735 17.703397 14.978783
Ga -9.548735 14.977584 17.704596
Ga -12.274547 17.703397 17.704596
Ga -12.274547 14.977584 20.430408
Ga -9.548735 20.429209 6.801346
Ga -12.274547 20.429209 9.527158
Ga -9.548735 20.429209 12.252971
Ga -12.274547 20.429209 14.978783
Ga -6.822922 -20.457978 -9.553529
Ga -4.097110 -20.457978 -6.827717
Ga -6.822922 -20.457978 -4.101904
Ga -4.097110 -20.457978 -1.376092
Ga -6.822922 -15.006353 -15.005154
Ga -6.822922 -17.732165 -12.279342
Ga -4.097110 -15.006353 -12.279342
Ga -4.097110 -17.732165 -9.553529
Ga -6.822922 -15.006353 -9.553529
Ga -6.822922 -17.732165 -6.827717
Ga -4.097110 -15.006353 -6.827717
Ga -4.097110 -17.732165 -4.101904
Ga -6.822922 -15.006353 -4.101904
Ga -6.822922 -17.732165 -1.376092
Ga -4.097110 -15.006353 -1.376092
Ga -4.097110 -17.732165 1.349721
Ga -6.822922 -15.006353 1.349721
Ga -4.097110 -15.006353 4.075533
Ga -6.822922 -9.554728 -20.456779
Ga -6.822922 -12.280540 -17.730967
Ga -4.097110 -9.554728 -17.730967
Ga -4.097110 -12.280540 -15.005154
Ga -6.822922 -9.554728 -15.005154
Ga -6.822922 -12.280540 -12.279342
Ga -4.097110 -9.554728 -12.279342
Ga -4.097110 -12.280540 -9.553529
Ga -6.822922 -9.554728 -9.553529
Ga -6.822922 -12.280540 -6.827717
Ga -4.097110 -9.554728 -6.827717
Ga -4.097110 -12.280540 -4.101904
Ga -6.822922 -9.554728 -4.101904
Ga -6.822922 -12.280540 -1.376092
Ga -4.097110 -9.554728 -1.376092
Ga -4.097110 -12.280540 1.349721
Ga -6.822922 -9.554728 1.349721
Ga -6.822922 -12.280540 4.075533
Ga -4.097110 -9.554728 4.075533
Ga -4.097110 -12.280540 6.801346
Ga -6.822922 -9.554728 6.801346
Ga -4.097110 -9.554728 9.527158
Ga -4.097110 -6.828915 -20.456779
Ga -6.822922 -4.103103 -20.456779
Ga -6.822922 -6.828915 -17.730967
Ga -4.097110 -4.103103 -17.730967
Ga -4.097110 -6.828915 -15.005154
Ga -6.822922 -4.103103 -15.005154
Ga -6.822922 -6.828915 -12.279342
Ga -4.097110 -4.103103 -12.279342
Ga -4.097110 -6.828915 -9.553529
Ga -6.822922 -4.103103 -9.553529
Ga -6.822922 -6.828915 -6.827717
Ga -4.097110 -4.103103 -6.827717
Ga -4.097110 -6.828915 -4.101904
Ga -6.822922 -4.103103 -4.101904
Ga -6.822922 -6.828915 -1.376092
Ga -4.097110 -4.103103 -1.376092
Ga -4.097110 -6.828915 1.349721
Ga -6.822922 -4.103103 1.349721
Ga -6.822922 -6.828915 4.075533
Ga -4.097110 -4.103103 4.075533
Ga -4.097110 -6.828915 6.801346
Ga -6.822922 -4.103103 6.801346
Ga -6.822922 -6.828915 9.527158
Ga -4.097110 -4.103103 9.527158
Ga -4.097110 -6.828915 12.252971
Ga -6.822922 -4.103103 12.252971
Ga -4.097110 -4.103103 14.978783
Ga -4.097110 -1.377290 -20.456779
Ga -6.822922 -1.377290 -17.730967
Ga -4.097110 1.348522 -17.730967
Ga -4.097110 -1.377290 -15.005154
Ga -6.822922 1.348522 -15.005154
Ga -6.822922 -1.377290 -12.279342
Ga -4.097110 1.348522 -12.279342
Ga -4.097110 -1.377290 -9.553529
Ga -6.822922 1.348522 -9.553529
Ga -6.822922 -1.377290 -6.827717
Ga -4.097110 1.348522 -6.827717
Ga -4.097110 -1.377290 -4.101904
Ga -6.822922 1.348522 -4.101904
Ga -6.822922 -1.377290 -1.376092
Ga -4.097110 1.348522 -1.376092
Ga -4.097110 -1.377290 1.349721
Ga -6.822922 1.348522 1.349721
Ga -6.822922 -1.377290 4.075533
Ga -4.097110 1.348522 4.075533
Ga -4.097110 -1.377290 6.801346
Ga -6.822922 1.348522 6.801346
Ga -6.822922 -1.377290 9.527158
Ga -4.097110 1.348522 9.527158
Ga -4.097110 -1.377290 12.252971
Ga -6.822922 1.348522 12.252971
Ga -6.822922 -1.377290 14.978783
Ga -4.097110 1.348522 14.978783
Ga -4.097110 -1.377290 17.704596
Ga -6.822922 1.348522 17.704596
Ga -4.097110 1.348522 20.430408
Ga -4.097110 4.074335 -15.005154
Ga -6.822922 4.074335 -12.279342
Ga -4.097110 6.800147 -12.279342
Ga -4.097110 4.074335 -9.553529
Ga -6.822922 6.800147 -9.553529
Ga -6.822922 4.074335 -6.827717
Ga -4.097110 6.800147 -6.827717
Ga -4.097110 4.074335 -4.101904
Ga -6.822922 6.800147 -4.101904
Ga -6.822922 4.074335 -1.376092
Ga -4.097110 6.800147 -1.376092
Ga -4.097110 4.074335 1.349721
Ga -6.822922 6.800147 1.349721
Ga -6.822922 4.074335 4.075533
Ga -4.097110 6.800147 4.075533
Ga -4.097110 4.074335 6.801346
Ga -6.822922 6.800147 6.801346
Ga -6.822922 4.074335 9.527158
Ga -4.097110 6.800147 9.527158
Ga -4.097110 4.074335 12.252971
Ga -6.822922 6.800147 12.252971
Ga -6.822922 4.074335 14.978783
Ga -4.097110 6.800147 14.978783
Ga -4.097110 4.074335 17.704596
Ga -6.822922 6.800147 17.704596
Ga -6.822922 4.074335 20.430408
Ga -4.097110 6.800147 20.430408
Ga -4.097110 9.525959 -9.553529
Ga -6.822922 9.525959 -6.827717
Ga -4.097110 12.251772 -6.827717
Ga -4.097110 9.525959 -4.101904
Ga -6.822922 12.251772 -4.101904
Ga -6.822922 9.525959 -1.376092
Ga -4.097110 12.251772 -1.376092
Ga -4.097110 9.525959 1.349721
Ga -6.822922 12.251772 1.349721
Ga -6.822922 9.525959 4.075533
Ga -4.097110 12.251772 4.075533
Ga -4.097110 9.525959 6.801346
Ga -6.822922 12.251772 6.801346
Ga -6.822922 9.525959 9.527158
Ga -4.097110 12.251772 9.527158
Ga -4.097110 9.525959 12.252971
Ga -6.822922 12.251772 12.252971
Ga -6.822922 9.525959 14.978783
Ga -4.097110 12.251772 14.978783
Ga -4.097110 9.525959 17.704596
Ga -6.822922 12.251772 17.704596
Ga -6.822922 9.525959 20.430408
Ga -4.097110 14.977584 -4.101904
Ga -6.822922 14.977584 -1.376092
Ga -4.097110 17.703397 -1.376092
Ga -4.097110 14.977584 1.349721
Ga -6.822922 17.703397 1.349721
Ga -6.822922 14.977584 4.075533
Ga -4.097110 17.703397 4.075533
Ga -4.097110 14.977584 6.801346
Ga -6.822922 17.703397 6.801346
Ga -6.822922 14.977584 9.527158
Ga -4.097110 17.703397 9.527158
Ga -4.097110 14.977584 12.252971
Ga -6.822922 17.703397 12.252971
Ga -6.822922 14.977584 14.978783
Ga -4.097110 20.429209 1.349721
Ga -6.822922 20.429209 4.075533
Ga -4.097110 20.429209 6.801346
Ga -6.822922 20.429209 9.527158
Ga -1.371297 -20.457978 -4.101904
Ga 1.354515 -20.457978 -1.376092
Ga -1.371297 -20.457978 1.349721
Ga 1.354515 -20.457978 4.075533
Ga -1.371297 -15.006353 -9.553529
Ga -1.371297 -17.732165 -6.827717
Ga 1.354515 -15.006353 -6.827717
Ga 1.354515 -17.732165 -4.101904
Ga -1.371297 -15.006353 -4.101904
Ga -1.371297 -17.732165 -1.376092
Ga 1.354515 -15.006353 -1.376092
Ga 1.354515 -17.732165 1.349721
Ga -1.371297 -15.006353 1.349721
Ga -1.371297 -17.732165 4.075533
Ga 1.354515 -15.006353 4.075533
Ga 1.354515 -17.732165 6.801346
Ga -1.371297 -15.006353 6.801346
Ga 1.354515 -15.006353 9.527158
Ga -1.371297 -9.554728 -15.005154
Ga -1.371297 -12.280540 -12.279342
Ga 1.354515 -9.554728 -12.279342
Ga 1.354515 -12.280540 -9.553529
Ga -1.371297 -9.554728 -9.553529
Ga -1.371297 -12.280540 -6.827717
Ga 1.354515 -9.554728 -6.827717
Ga 1.354515 -12.280540 -4.101904
Ga -1.371297 -9.554728 -4.101904
Ga -1.371297 -12.280540 -1.376092
Ga 1.354515 -9.554728 -1.376092
Ga 1.354515 -12.280540 1.349721
Ga -1.371297 -9.554728 1.349721
Ga -1.371297 -12.280540 4.075533
Ga 1.354515 -9.554728 4.075533
Ga 1.354515 -12.280540 6.801346
Ga -1.371297 -9.554728 6.801346
Ga -1.371297 -12.280540 9.527158
Ga 1.354515 -9.554728 9.527158
Ga 1.354515 -12.280540 12.252971
Ga -1.371297 -9.554728 12.252971
Ga 1.354515 -9.554728 14.978783
Ga -1.371297 -4.103103 -20.456779
Ga -1.371297 -6.828915 -17.730967
Ga 1.354515 -4.103103 -17.730967
Ga 1.354515 -6.828915 -15.005154
Ga -1.371297 -4.103103 -15.005154
Ga -1.371297 -6.828915 -12.279342
Ga 1.354515 -4.103103 -12.279342
Ga 1.354515 -6.828915 -9.553529
Ga -1.371297 -4.103103 -9.553529
Ga -1.371297 -6.828915 -6.827717
Ga 1.354515 -4.103103 -6.827717
Ga 1.354515 -6.828915 -4.101904
Ga -1.371297 -4.103103 -4.101904
Ga -1.371297 -6.828915 -1.376092
Ga 1.354515 -4.103103 -1.376092
Ga 1.354515 -6.828915 1.349721
Ga -1.371297 -4.103103 1.349721
Ga -1.371297 -6.828915 4.075533
Ga 1.354515 -4.103103 4.075533
Ga 1.354515 -6.828915 6.801346
Ga -1.371297 -4.103103 6.801346
Ga -1.371297 -6.828915 9.527158
Ga 1.354515 -4.103103 9.527158
Ga 1.354515 -6.828915 12.252971
Ga -1.371297 -4.103103 12.252971
Ga -1.371297 -6.828915 14.978783
Ga 1.354515 -4.103103 14.978783
Ga 1.354515 -6.828915 17.704596
Ga -1.371297 -4.103103 17.704596
Ga 1.354515 -4.103103 20.430408
Ga 1.354515 -1.377290 -20.456779
Ga -1.371297 1.348522 -20.456779
Ga -1.371297 -1.377290 -17.730967
Ga 1.354515 1.348522 -17.730967
Ga 1.354515 -1.377290 -15.005154
Ga -1.371297 1.348522 -15.005154
Ga -1.371297 -1.377290 -12.279342
Ga 1.354515 1.348522 -12.279342
Ga 1.354515 -1.377290 -9.553529
Ga -1.371297 1.348522 -9.553529
Ga -1.371297 -1.377290 -6.827717
Ga 1.354515 1.348522 -6.827717
Ga 1.354515 -1.377290 -4.101904
Ga -1.371297 1.348522 -4.101904
Ga -1.371297 -1.377290 -1.376092
Ga 1.354515 1.348522 -1.376092
Ga 1.354515 -1.377290 1.349721
Ga -1.371297 1.348522 1.349721
Ga -1.371297 -1.377290 4.075533
Ga 1.354515 1.348522 4.075533
Ga 1.354515 -1.377290 6.801346
Ga -1.371297 1.348522 6.801346
Ga -1.371297 -1.377290 9.527158
Ga 1.354515 1.348522 9.527158
Ga 1.354515 -1.377290 12.252971
Ga -1.371297 1.348522 12.252971
Ga -1.371297 -1.377290 14.978783
Ga 1.354515 1.348522 14.978783
Ga 1.354515 -1.377290 17.704596
Ga -1.371297 1.348522 17.704596
Ga -1.371297 -1.377290 20.430408
Ga 1.354515 1.348522 20.430408
Ga 1.354515 4.074335 -20.456779
Ga -1.371297 4.074335 -17.730967
Ga 1.354515 6.800147 -17.730967
Ga 1.354515 4.074335 -15.005154
Ga -1.371297 6.800147 -15.005154
Ga -1.371297 4.074335 -12.279342
Ga 1.354515 6.800147 -12.279342
Ga 1.354515 4.074335 -9.553529
Ga -1.371297 6.800147 -9.553529
Ga -1.371297 4.074335 -6.827717
Ga 1.354515 6.800147 -6.827717
Ga 1.354515 4.074335 -4.101904
Ga -1.371297 6.800147 -4.101904
Ga -1.371297 4.074335 -1.376092
Ga 1.354515 6.800147 -1.376092
Ga 1.354515 4.074335 1.349721
Ga -1.371297 6.800147 1.349721
Ga -1.371297 4.074335 4.075533
Ga 1.354515 6.800147 4.075533
Ga 1.354515 4.074335 6.801346
Ga -1.371297 6.800147 6.801346
Ga -1.371297 4.074335 9.527158
Ga 1.354515 6.800147 9.527158
Ga 1.354515 4.074335 12.252971
Ga -1.371297 6.800147 12.252971
Ga -1.371297 4.074335 14.978783
Ga 1.354515 6.800147 14.978783
Ga 1.354515 4.074335 17.704596
Ga -1.371297 6.800147 17.704596
Ga -1.371297 4.074335 20.430408
Ga 1.354515 9.525959 -15.005154
Ga -1.371297 9.525959 -12.279342
Ga 1.354515 12.251772 -12.279342
Ga 1.354515 9.525959 -9.553529
Ga -1.371297 12.251772 -9.553529
Ga -1.371297 9.525959 -6.827717
Ga 1.354515 12.251772 -6.827717
Ga 1.354515 9.525959 -4.101904
Ga -1.371297 12.251772 -4.101904
Ga -1.371297 9.525959 -1.376092
Ga 1.354515 12.251772 -1.376092
Ga 1.354515 9.525959 1.349721
Ga -1.371297 12.251772 1.349721
Ga -1.371297 9.525959 4.075533
Ga 1.354515 12.251772 4.075533
Ga 1.354515 9.525959 6.801346
Ga -1.371297 12.251772 6.801346
Ga -1.371297 9.525959 9.527158
Ga 1.354515 12.251772 9.527158
Ga 1.354515 9.525959 12.252971
Ga -1.371297 12.251772 12.252971
Ga -1.371297 9.525959 14.978783
Ga 1.354515 14.977584 -9.553529
Ga -1.371297 14.977584 -6.827717
Ga 1.354515 17.703397 -6.827717
Ga 1.354515 14.977584 -4.101904
Ga -1.371297 17.703397 -4.101904
Ga -1.371297 14.977584 -1.376092
Ga 1.354515 17.703397 -1.376092
Ga 1.354515 14.977584 1.349721
Ga -1.371297 17.703397 1.349721
Ga -1.371297 14.977584 4.075533
Ga 1.354515 17.703397 4.075533
Ga 1.354515 14.977584 6.801346
Ga -1.371297 17.703397 6.801346
Ga -1.371297 14.977584 9.527158
Ga 1.354515 20.429209 -4.101904
Ga -1.371297 20.429209 -1.376092
Ga 1.354515 20.429209 1.349721
Ga -1.371297 20.429209 4.075533
Ga 4.080328 -20.457978 1.349721
Ga 6.806140 -20.457978 4.075533
Ga 4.080328 -20.457978 6.801346
Ga 6.806140 -20.457978 9.527158
Ga 4.080328 -15.006353 -4.101904
Ga 4.080328 -17.732165 -1.376092
Ga 6.806140 -15.006353 -1.376092
Ga 6.806140 -17.732165 1.349721
Ga 4.080328 -15.006353 1.349721
Ga 4.080328 -17.732165 4.075533
Ga 6.806140 -15.006353 4.075533
Ga 6.806140 -17.732165 6.801346
Ga 4.080328 -15.006353 6.801346
Ga 4.080328 -17.732165 9.527158
Ga 6.806140 -15.006353 9.527158
Ga 6.806140 -17.732165 12.252971
Ga 4.080328 -15.006353 12.252971
Ga 6.806140 -15.006353 14.978783
Ga 4.080328 -9.554728 -9.553529
Ga 4.080328 -12.280540 -6.827717
Ga 6.806140 -9.554728 -6.827717
Ga 6.806140 -12.280540 -4.101904
Ga 4.080328 -9.554728 -4.101904
Ga 4.080328 -12.280540 -1.376092
Ga 6.806140 -9.554728 -1.376092
Ga 6.806140 -12.280540 1.349721
Ga 4.080328 -9.554728 1.349721
Ga 4.080328 -12.280540 4.075533
Ga 6.806140 -9.554728 4.075533
Ga 6.806140 -12.280540 6.801346
Ga 4.080328 -9.554728 6.801346
Ga 4.080328 -12.280540 9.527158
Ga 6.806140 -9.554728 9.527158
Ga 6.806140 -12.280540 12.252971
Ga 4.080328 -9.554728 12.252971
Ga 4.080328 -12.280540 14.978783
Ga 6.806140 -9.554728 14.978783
Ga 6.806140 -12.280540 17.704596
Ga 4.080328 -9.554728 17.704596
Ga 6.806140 -9.554728 20.430408
Ga 4.080328 -4.103103 -15.005154
Ga 4.080328 -6.828915 -12.279342
Ga 6.806140 -4.103103 -12.279342
Ga 6.806140 -6.828915 -9.553529
Ga 4.080328 -4.103103 -9.553529
Ga 4.080328 -6.828915 -6.827717
Ga 6.806140 -4.103103 -6.827717
Ga 6.806140 -6.828915 -4.101904
Ga 4.080328 -4.103103 -4.101904
Ga 4.080328 -6.828915 -1.376092
Ga 6.806140 -4.103103 -1.376092
Ga 6.806140 -6.828915 1.349721
Ga 4.080328 -4.103103 1.349721
Ga 4.080328 -6.828915 4.075533
Ga 6.806140 -4.103103 4.075533
Ga 6.806140 -6.828915 6.801346
Ga 4.080328 -4.103103 6.801346
Ga 4.080328 -6.828915 9.527158
Ga 6.806140 -4.103103 9.527158
Ga 6.806140 -6.828915 12.252971
Ga 4.080328 -4.103103 12.252971
Ga 4.080328 -6.828915 14.978783
Ga 6.806140 -4.103103 14.978783
Ga 6.806140 -6.828915 17.704596
Ga 4.080328 -4.103103 17.704596
Ga 4.080328 -6.828915 20.430408
Ga 6.806140 -4.103103 20.430408
Ga 4.080328 1.348522 -20.456779
Ga 4.080328 -1.377290 -17.730967
Ga 6.806140 1.348522 -17.730967
Ga 6.806140 -1.377290 -15.005154
Ga 4.080328 1.348522 -15.005154
Ga 4.080328 -1.377290 -12.279342
Ga 6.806140 1.348522 -12.279342
Ga 6.806140 -1.377290 -9.553529
Ga 4.080328 1.348522 -9.553529
Ga 4.080328 -1.377290 -6.827717
Ga 6.806140 1.348522 -6.827717
Ga 6.806140 -1.377290 -4.101904
Ga 4.080328 1.348522 -4.101904
Ga 4.080328 -1.377290 -1.376092
Ga 6.806140 1.348522 -1.376092
Ga 6.806140 -1.377290 1.349721
Ga 4.080328 1.348522 1.349721
Ga 4.080328 -1.377290 4.075533
Ga 6.806140 1.348522 4.075533
Ga 6.806140 -1.377290 6.801346
Ga 4.080328 1.348522 6.801346
Ga 4.080328 -1.377290 9.527158
Ga 6.806140 1.348522 9.527158
Ga 6.806140 -1.377290 12.252971
Ga 4.080328 1.348522 12.252971
Ga 4.080328 -1.377290 14.978783
Ga 6.806140 1.348522 14.978783
Ga 6.806140 -1.377290 17.704596
Ga 4.080328 1.348522 17.704596
Ga 4.080328 -1.377290 20.430408
Ga 6.806140 4.074335 -20.456779
Ga 4.080328 6.800147 -20.456779
Ga 4.080328 4.074335 -17.730967
Ga 6.806140 6.800147 -17.730967
Ga 6.806140 4.074335 -15.005154
Ga 4.080328 6.800147 -15.005154
Ga 4.080328 4.074335 -12.279342
Ga 6.806140 6.800147 -12.279342
Ga 6.806140 4.074335 -9.553529
Ga 4.080328 6.800147 -9.553529
Ga 4.080328 4.074335 -6.827717
Ga 6.806140 6.800147 -6.827717
Ga 6.806140 4.074335 -4.101904
Ga 4.080328 6.800147 -4.101904
Ga 4.080328 4.074335 -1.376092
Ga 6.806140 6.800147 -1.376092
Ga 6.806140 4.074335 1.349721
Ga 4.080328 6.800147 1.349721
Ga 4.080328 4.074335 4.075533
Ga 6.806140 6.800147 4.075533
Ga 6.806140 4.074335 6.801346
Ga 4.080328 6.800147 6.801346
Ga 4.080328 4.074335 9.527158
Ga 6.806140 6.800147 9.527158
Ga 6.806140 4.074335 12.252971
Ga 4.080328 6.800147 12.252971
Ga 4.080328 4.074335 14.978783
Ga 6.806140 9.525959 -20.456779
Ga 4.080328 9.525959 -17.730967
Ga 6.806140 12.251772 -17.730967
Ga 6.806140 9.525959 -15.005154
Ga 4.080328 12.251772 -15.005154
Ga 4.080328 9.525959 -12.279342
Ga 6.806140 12.251772 -12.279342
Ga 6.806140 9.525959 -9.553529
Ga 4.080328 12.251772 -9.553529
Ga 4.080328 9.525959 -6.827717
Ga 6.806140 12.251772 -6.827717
Ga 6.806140 9.525959 -4.101904
Ga 4.080328 12.251772 -4.101904
Ga 4.080328 9.525959 -1.376092
Ga 6.806140 12.251772 -1.376092
Ga 6.806140 9.525959 1.349721
Ga 4.080328 12.251772 1.349721
Ga 4.080328 9.525959 4.075533
Ga 6.806140 12.251772 4.075533
Ga 6.806140 9.525959 6.801346
Ga 4.080328 12.251772 6.801346
Ga 4.080328 9.525959 9.527158
Ga 6.806140 14.977584 -15.005154
Ga 4.080328 14.977584 -12.279342
Ga 6.806140 17.703397 -12.279342
Ga 6.806140 14.977584 -9.553529
Ga 4.080328 17.703397 -9.553529
Ga 4.080328 14.977584 -6.827717
Ga 6.806140 17.703397 -6.827717
Ga 6.806140 14.977584 -4.101904
Ga 4.080328 17.703397 -4.101904
Ga 4.080328 14.977584 -1.376092
Ga 6.806140 17.703397 -1.376092
Ga 6.806140 14.977584 1.349721
Ga 4.080328 17.703397 1.349721
Ga 4.080328 14.977584 4.075533
Ga 6.806140 20.429209 -9.553529
Ga 4.080328 20.429209 -6.827717
Ga 6.806140 20.429209 -4.101904
Ga 4.080328 20.429209 -1.376092
Ga 9.531953 -20.457978 6.801346
Ga 12.257765 -20.457978 9.527158
Ga 9.531953 -20.457978 12.252971
Ga 12.257765 -20.457978 14.978783
Ga 9.531953 -15.006353 1.349721
Ga 9.531953 -17.732165 4.075533
Ga 12.257765 -15.006353 4.075533
Ga 12.257765 -17.732165 6.801346
Ga 9.531953 -15.006353 6.801346
Ga 9.531953 -17.732165 9.527158
Ga 12.257765 -15.006353 9.527158
Ga 12.257765 -17.732165 12.252971
Ga 9.531953 -15.006353 12.252971
Ga 9.531953 -17.732165 14.978783
Ga 12.257765 -15.006353 14.978783
Ga 12.257765 -17.732165 17.704596
Ga 9.531953 -15.006353 17.704596
Ga 12.257765 -15.006353 20.430408
Ga 9.531953 -9.554728 -4.101904
Ga 9.531953 -12.280540 -1.376092
Ga 12.257765 -9.554728 -1.376092
Ga 12.257765 -12.280540 1.349721
Ga 9.531953 -9.554728 1.349721
Ga 9.531953 -12.280540 4.075533
Ga 12.257765 -9.554728 4.075533
Ga 12.257765 -12.280540 6.801346
Ga 9.531953 -9.554728 6.801346
Ga 9.531953 -12.280540 9.527158
Ga 12.257765 -9.554728 9.527158
Ga 12.257765 -12.280540 12.252971
Ga 9.531953 -9.554728 12.252971
Ga 9.531953 -12.280540 14.978783
Ga 12.257765 -9.554728 14.978783
Ga 12.257765 -12.280540 17.704596
Ga 9.531953 -9.554728 17.704596
Ga 9.531953 -12.280540 20.430408
Ga 12.257765 -9.554728 20.430408
Ga 9.531953 -4.103103 -9.553529
Ga 9.531953 -6.828915 -6.827717
Ga 12.257765 -4.103103 -6.827717
Ga 12.257765 -6.828915 -4.101904
Ga 9.531953 -4.103103 -4.101904
Ga 9.531953 -6.828915 -1.376092
Ga 12.257765 -4.103103 -1.376092
Ga 12.257765 -6.828915 1.349721
Ga 9.531953 -4.103103 1.349721
Ga 9.531953 -6.828915 4.075533
Ga 12.257765 -4.103103 4.075533
Ga 12.257765 -6.828915 6.801346
Ga 9.531953 -4.103103 6.801346
Ga 9.531953 -6.828915 9.527158
Ga 12.257765 -4.103103 9.527158
Ga 12.257765 -6.828915 12.252971
Ga 9.531953 -4.103103 12.252971
Ga 9.531953 -6.828915 14.978783
Ga 12.257765 -4.103103 14.978783
Ga 12.257765 -6.828915 17.704596
Ga 9.531953 -4.103103 17.704596
Ga 9.531953 -6.828915 20.430408
Ga 9.531953 1.348522 -15.005154
Ga 9.531953 -1.377290 -12.279342
Ga 12.257765 1.348522 -12.279342
Ga 12.257765 -1.377290 -9.553529
Ga 9.531953 1.348522 -9.553529
Ga 9.531953 -1.377290 -6.827717
Ga 12.257765 1.348522 -6.827717
Ga 12.257765 -1.377290 -4.101904
Ga 9.531953 1.348522 -4.101904
Ga 9.531953 -1.377290 -1.376092
Ga 12.257765 1.348522 -1.376092
Ga 12.257765 -1.377290 1.349721
Ga 9.531953 1.348522 1.349721
Ga 9.531953 -1.377290 4.075533
Ga 12.257765 1.348522 4.075533
Ga 12.257765 -1.377290 6.801346
Ga 9.531953 1.348522 6.801346
Ga 9.531953 -1.377290 9.527158
Ga 12.257765 1.348522 9.527158
Ga 12.257765 -1.377290 12.252971
Ga 9.531953 1.348522 12.252971
Ga 9.531953 -1.377290 14.978783
Ga 9.531953 6.800147 -20.456779
Ga 9.531953 4.074335 -17.730967
Ga 12.257765 6.800147 -17.730967
Ga 12.257765 4.074335 -15.005154
Ga 9.531953 6.800147 -15.005154
Ga 9.531953 4.074335 -12.279342
Ga 12.257765 6.800147 -12.279342
Ga 12.257765 4.074335 -9.553529
Ga 9.531953 6.800147 -9.553529
Ga 9.531953 4.074335 -6.827717
Ga 12.257765 6.800147 -6.827717
Ga 12.257765 4.074335 -4.101904
Ga 9.531953 6.800147 -4.101904
Ga 9.531953 4.074335 -1.376092
Ga 12.257765 6.800147 -1.376092
Ga 12.257765 4.074335 1.349721
Ga 9.531953 6.800147 1.349721
Ga 9.531953 4.074335 4.075533
Ga 12.257765 6.800147 4.075533
Ga 12.257765 4.074335 6.801346
Ga 9.531953 6.800147 6.801346
Ga 9.531953 4.074335 9.527158
Ga 12.257765 9.525959 -20.456779
Ga 9.531953 12.251772 -20.456779
Ga 9.531953 9.525959 -17.730967
Ga 12.257765 12.251772 -17.730967
Ga 12.257765 9.525959 -15.005154
Ga 9.531953 12.251772 -15.005154
Ga 9.531953 9.525959 -12.279342
Ga 12.257765 12.251772 -12.279342
Ga 12.257765 9.525959 -9.553529
Ga 9.531953 12.251772 -9.553529
Ga 9.531953 9.525959 -6.827717
Ga 12.257765 12.251772 -6.827717
Ga 12.257765 9.525959 -4.101904
Ga 9.531953 12.251772 -4.101904
Ga 9.531953 9.525959 -1.376092
Ga 12.257765 12.251772 -1.376092
Ga 12.257765 9.525959 1.349721
Ga 9.531953 12.251772 1.349721
Ga 9.531953 9.525959 4.075533
Ga 12.257765 14.977584 -20.456779
Ga 9.531953 14.977584 -17.730967
Ga 12.257765 17.703397 -17.730967
Ga 12.257765 14.977584 -15.005154
Ga 9.531953 17.703397 -15.005154
Ga 9.531953 14.977584 -12.279342
Ga 12.257765 17.703397 -12.279342
Ga 12.257765 14.977584 -9.553529
Ga 9.531953 17.703397 -9.553529
Ga 9.531953 14.977584 -6.827717
Ga 12.257765 17.703397 -6.827717
Ga 12.257765 14.977584 -4.101904
Ga 9.531953 17.703397 -4.101904
Ga 9.531953 14.977584 -1.376092
Ga 12.257765 20.429209 -15.005154
Ga 9.531953 20.429209 -12.279342
Ga 12.257765 20.429209 -9.553529
Ga 9.531953 20.429209 -6.827717
Ga 14.983578 -20.457978 12.252971
Ga 14.983578 -15.006353 6.801346
Ga 14.983578 -17.732165 9.527158
Ga 17.709390 -15.006353 9.527158
Ga 17.709390 -17.732165 12.252971
Ga 14.983578 -15.006353 12.252971
Ga 14.983578 -17.732165 14.978783
Ga 17.709390 -15.006353 14.978783
Ga 14.983578 -15.006353 17.704596
Ga 14.983578 -9.554728 1.349721
Ga 14.983578 -12.280540 4.075533
Ga 17.709390 -9.554728 4.075533
Ga 17.709390 -12.280540 6.801346
Ga 14.983578 -9.554728 6.801346
Ga 14.983578 -12.280540 9.527158
Ga 17.709390 -9.554728 9.527158
Ga 17.709390 -12.280540 12.252971
Ga 14.983578 -9.554728 12.252971
Ga 14.983578 -12.280540 14.978783
Ga 17.709390 -9.554728 14.978783
Ga 17.709390 -12.280540 17.704596
Ga 14.983578 -9.554728 17.704596
Ga 14.983578 -12.280540 20.430408
Ga 14.983578 -4.103103 -4.101904
Ga 14.983578 -6.828915 -1.376092
Ga 17.709390 -4.103103 -1.376092
Ga 17.709390 -6.828915 1.349721
Ga 14.983578 -4.103103 1.349721
Ga 14.983578 -6.828915 4.075533
Ga 17.709390 -4.103103 4.075533
Ga 17.709390 -6.828915 6.801346
Ga 14.983578 -4.103103 6.801346
Ga 14.983578 -6.828915 9.527158
Ga 17.709390 -4.103103 9.527158
Ga 17.709390 -6.828915 12.252971
Ga 14.983578 -4.103103 12.252971
Ga 14.983578 -6.828915 14.978783
Ga 14.983578 1.348522 -9.553529
Ga 14.983578 -1.377290 -6.827717
Ga 17.709390 1.348522 -6.827717
Ga 17.709390 -1.377290 -4.101904
Ga 14.983578 1.348522 -4.101904
Ga 14.983578 -1.377290 -1.376092
Ga 17.709390 1.348522 -1.376092
Ga 17.709390 -1.377290 1.349721
Ga 14.983578 1.348522 1.349721
Ga 14.983578 -1.377290 4.075533
Ga 17.709390 1.348522 4.075533
Ga 17.709390 -1.377290 6.801346
Ga 14.983578 1.348522 6.801346
Ga 14.983578 -1.377290 9.527158
Ga 14.983578 6.800147 -15.005154
Ga 14.983578 4.074335 -12.279342
Ga 17.709390 6.800147 -12.279342
Ga 17.709390 4.074335 -9.553529
Ga 14.983578 6.800147 -9.553529
Ga 14.983578 4.074335 -6.827717
Ga 17.709390 6.800147 -6.827717
Ga 17.709390 4.074335 -4.101904
Ga 14.983578 6.800147 -4.101904
Ga 14.983578 4.074335 -1.376092
Ga 17.709390 6.800147 -1.376092
Ga 17.709390 4.074335 1.349721
Ga 14.983578 6.800147 1.349721
Ga 14.983578 4.074335 4.075533
Ga 14.983578 12.251772 -20.456779
Ga 14.983578 9.525959 -17.730967
Ga 17.709390 12.251772 -17.730967
Ga 17.709390 9.525959 -15.005154
Ga 14.983578 12.251772 -15.005154
Ga 14.983578 9.525959 -12.279342
Ga 17.709390 12.251772 -12.279342
Ga 17.709390 9.525959 -9.553529
Ga 14.983578 12.251772 -9.553529
Ga 14.983578 9.525959 -6.827717
Ga 17.709390 12.251772 -6.827717
Ga 17.709390 9.525959 -4.101904
Ga 14.983578 12.251772 -4.101904
Ga 14.983578 9.525959 -1.376092
Ga 14.983578 14.977584 -17.730967
Ga 17.709390 14.977584 -15.005154
Ga 14.983578 17.703397 -15.005154
Ga 14.983578 14.977584 -12.279342
Ga 17.709390 17.703397 -12.279342
Ga 17.709390 14.977584 -9.553529
Ga 14.983578 17.703397 -9.553529
Ga 14.983578 14.977584 -6.827717
Ga 14.983578 20.429209 -12.279342
Ga 20.435203 -15.006353 12.252971
Ga 20.435203 -9.554728 6.801346
Ga 20.435203 -12.280540 9.527158
Ga 20.435203 -9.554728 12.252971
Ga 20.435203 -12.280540 14.978783
Ga 20.435203 -4.103103 1.349721
Ga 20.435203 -6.828915 4.075533
Ga 20.435203 -4.103103 6.801346
Ga 20.435203 -6.828915 9.527158
Ga 20.435203 1.348522 -4.101904
Ga 20.435203 -1.377290 -1.376092
Ga 20.435203 1.348522 1.349721
Ga 20.435203 -1.377290 4.075533
Ga 20.435203 6.800147 -9.553529
Ga 20.435203 4.074335 -6.827717
Ga 20.435203 6.800147 -4.101904
Ga 20.435203 4.074335 -1.376092
Ga 20.435203 12.251772 -15.005154
Ga 20.435203 9.525959 -12.279342
Ga 20.435203 12.251772 -9.553529
Ga 20.435203 9.525959 -6.827717
Ga 20.435203 14.977584 -12.279342
P -19.089078 -13.643447 -16.368061
P -19.089078 -16.369259 -13.642248
P -19.089078 -13.643447 -10.916436
P -19.089078 -10.917634 -13.642248
P -19.089078 -8.191822 -10.916436
P -19.089078 -10.917634 -8.190623
P -19.089078 -8.191822 -5.464811
P -19.089078 -5.466009 -8.190623
P -19.089078 -2.740197 -5.464811
P -19.089078 -5.466009 -2.738998
P -19.089078 -2.740197 -0.013186
P -19.089078 -0.014384 -2.738998
P -19.089078 2.711428 -0.013186
P -19.089078 -0.014384 2.712627
P -19.089078 2.711428 5.438439
P -19.089078 5.437241 2.712627
P -19.089078 8.163053 5.438439
P -19.089078 5.437241 8.164252
P -19.089078 8.163053 10.890064
P -19.089078 10.888866 8.164252
P -19.089078 13.614678 10.890064
P -19.089078 10.888866 13.615877
P -19.089078 13.614678 16.341689
P -19.089078 16.340491 13.615877
P -16.363266 -19.095072 -13.642248
P -13.637453 -19.095072 -16.368061
P -13.637453 -19.095072 -10.916436
P -16.363266 -13.643447 -19.093873
P -13.637453 -16.369259 -19.093873
P -16.363266 -16.369259 -16.368061
P -16.363266 -13.643447 -13.642248
P -13.637453 -13.643447 -16.368061
P -13.637453 -16.369259 -13.642248
P -16.363266 -16.369259 -10.916436
P -16.363266 -13.643447 -8.190623
P -13.637453 -13.643447 -10.916436
P -13.637453 -16.369259 -8.190623
P -13.637453 -13.643447 -5.464811
P -13.637453 -10.917634 -19.093873
P -16.363266 -10.917634 -16.368061
P -16.363266 -8.191822 -13.642248
P -13.637453 -8.191822 -16.368061
P -13.637453 -10.917634 -13.642248
P -16.363266 -10.917634 -10.916436
P -16.363266 -8.191822 -8.190623
P -13.637453 -8.191822 -10.916436
P -13.637453 -10.917634 -8.190623
P -16.363266 -10.917634 -5.464811
P -16.363266 -8.191822 -2.738998
P -13.637453 -8.191822 -5.464811
P -13.637453 -10.917634 -2.738998
P -13.637453 -8.191822 -0.013186
P -13.637453 -5.466009 -13.642248
P -16.363266 -5.466009 -10.916436
P -16.363266 -2.740197 -8.190623
P -13.637453 -2.740197 -10.916436
P -13.637453 -5.466009 -8.190623
P -16.363266 -5.466009 -5.464811
P -16.363266 -2.740197 -2.738998
P -13.637453 -2.740197 -5.464811
P -13.637453 -5.466009 -2.738998
P -16.363266 -5.466009 -0.013186
P -16.363266 -2.740197 2.712627
P -13.637453 -2.740197 -0.013186
P -13.637453 -5.466009 2.712627
P -13.637453 -2.740197 5.438439
P -13.637453 -0.014384 -8.190623
P -16.363266 -0.014384 -5.464811
P -16.363266 2.711428 -2.738998
P -13.637453 2.711428 -5.464811
P -13.637453 -0.014384 -2.738998
P -16.363266 -0.014384 -0.013186
P -16.363266 2.711428 2.712627
P -13.637453 2.711428 -0.013186
P -13.637453 -0.014384 2.712627
P -16.363266 -0.014384 5.438439
P -16.363266 2.711428 8.164252
P -13.637453 2.711428 5.438439
P -13.637453 -0.014384 8.164252
P -13.637453 2.711428 10.890064
P -13.637453 5.437241 -2.738998
P -16.363266 5.437241 -0.013186
P -16.363266 8.163053 2.712627
P -13.637453 8.163053 -0.013186
P -13.637453 5.437241 2.712627
P -16.363266 5.437241 5.438439
P -16.363266 8.163053 8.164252
P -13.637453 8.163053 5.438439
P -13.637453 5.437241 8.164252
P -16.363266 5.437241 10.890064
P -16.363266 8.163053 13.615877
P -13.637453 8.163053 10.890064
P -13.637453 5.437241 13.615877
P -13.637453 8.163053 16.341689
P -13.637453 10.888866 2.712627
P -16.363266 10.888866 5.438439
P -16.363266 13.614678 8.164252
P -13.637453 13.614678 5.438439
P -13.637453 10.888866 8.164252
P -16.363266 10.888866 10.890064
P -16.363266 13.614678 13.615877
P -13.637453 13.614678 10.890064
P -13.637453 10.888866 13.615877
P -16.363266 10.888866 16.341689
P -16.363266 13.614678 19.067502
P -13.637453 13.614678 16.341689
P -13.637453 10.888866 19.067502
P -13.637453 16.340491 8.164252
P -16.363266 16.340491 10.890064
P -16.363266 19.066303 13.615877
P -13.637453 19.066303 10.890064
P -13.637453 16.340491 13.615877
P -16.363266 16.340491 16.341689
P -13.637453 19.066303 16.341689
P -13.637453 16.340491 19.067502
P -10.911641 -19.095072 -13.642248
P -10.911641 -19.095072 -8.190623
P -8.185828 -19.095072 -10.916436
P -8.185828 -19.095072 -5.464811
P -10.911641 -13.643447 -19.093873
P -10.911641 -16.369259 -16.368061
P -10.911641 -13.643447 -13.642248
P -8.185828 -13.643447 -16.368061
P -8.185828 -16.369259 -13.642248
P -10.911641 -16.369259 -10.916436
P -10.911641 -13.643447 -8.190623
P -8.185828 -13.643447 -10.916436
P -8.185828 -16.369259 -8.190623
P -10.911641 -16.369259 -5.464811
P -10.911641 -13.643447 -2.738998
P -8.185828 -13.643447 -5.464811
P -8.185828 -16.369259 -2.738998
P -8.185828 -13.643447 -0.013186
P -10.911641 -8.191822 -19.093873
P -8.185828 -10.917634 -19.093873
P -10.911641 -10.917634 -16.368061
P -10.911641 -8.191822 -13.642248
P -8.185828 -8.191822 -16.368061
P -8.185828 -10.917634 -13.642248
P -10.911641 -10.917634 -10.916436
P -10.911641 -8.191822 -8.190623
P -8.185828 -8.191822 -10.916436
P -8.185828 -10.917634 -8.190623
P -10.911641 -10.917634 -5.464811
P -10.911641 -8.191822 -2.738998
P -8.185828 -8.191822 -5.464811
P -8.185828 -10.917634 -2.738998
P -10.911641 -10.917634 -0.013186
P -10.911641 -8.191822 2.712627
P -8.185828 -8.191822 -0.013186
P -8.185828 -10.917634 2.712627
P -8.185828 -8.191822 5.438439
P -8.185828 -5.466009 -19.093873
P -10.911641 -5.466009 -16.368061
P -10.911641 -2.740197 -13.642248
P -8.185828 -2.740197 -16.368061
P -8.185828 -5.466009 -13.642248
P -10.911641 -5.466009 -10.916436
P -10.911641 -2.740197 -8.190623
P -8.185828 -2.740197 -10.916436
P -8.185828 -5.466009 -8.190623
P -10.911641 -5.466009 -5.464811
P -10.911641 -2.740197 -2.738998
P -8.185828 -2.740197 -5.464811
P -8.185828 -5.466009 -2.738998
P -10.911641 -5.466009 -0.013186
P -10.911641 -2.740197 2.712627
P -8.185828 -2.740197 -0.013186
P -8.185828 -5.466009 2.712627
P -10.911641 -5.466009 5.438439
P -10.911641 -2.740197 8.164252
P -8.185828 -2.740197 5.438439
P -8.185828 -5.466009 8.164252
P -8.185828 -2.740197 10.890064
P -8.185828 -0.014384 -13.642248
P -10.911641 -0.014384 -10.916436
P -10.911641 2.711428 -8.190623
P -8.185828 2.711428 -10.916436
P -8.185828 -0.014384 -8.190623
P -10.911641 -0.014384 -5.464811
P -10.911641 2.711428 -2.738998
P -8.185828 2.711428 -5.464811
P -8.185828 -0.014384 -2.738998
P -10.911641 -0.014384 -0.013186
P -10.911641 2.711428 2.712627
P -8.185828 2.711428 -0.013186
P -8.185828 -0.014384 2.712627
P -10.911641 -0.014384 5.438439
P -10.911641 2.711428 8.164252
P -8.185828 2.711428 5.438439
P -8.185828 -0.014384 8.164252
P -10.911641 -0.014384 10.890064
P -10.911641 2.711428 13.615877
P -8.185828 2.711428 10.890064
P -8.185828 -0.014384 13.615877
P -8.185828 2.711428 16.341689
P -8.185828 5.437241 -8.190623
P -10.911641 5.437241 -5.464811
P -10.911641 8.163053 -2.738998
P -8.185828 8.163053 -5.464811
P -8.185828 5.437241 -2.738998
P -10.911641 5.437241 -0.013186
P -10.911641 8.163053 2.712627
P -8.185828 8.163053 -0.013186
P -8.185828 5.437241 2.712627
P -10.911641 5.437241 5.438439
P -10.911641 8.163053 8.164252
P -8.185828 8.163053 5.438439
P -8.185828 5.437241 8.164252
P -10.911641 5.437241 10.890064
P -10.911641 8.163053 13.615877
P -8.185828 8.163053 10.890064
P -8.185828 5.437241 13.615877
P -10.911641 5.437241 16.341689
P -10.911641 8.163053 19.067502
P -8.185828 8.163053 16.341689
P -8.185828 5.437241 19.067502
P -8.185828 10.888866 -2.738998
P -10.911641 10.888866 -0.013186
P -10.911641 13.614678 2.712627
P -8.185828 13.614678 -0.013186
P -8.185828 10.888866 2.712627
P -10.911641 10.888866 5.438439
P -10.911641 13.614678 8.164252
P -8.185828 13.614678 5.438439
P -8.185828 10.888866 8.164252
P -10.911641 10.888866 10.890064
P -10.911641 13.614678 13.615877
P -8.185828 13.614678 10.890064
P -8.185828 10.888866 13.615877
P -10.911641 10.888866 16.341689
P -10.911641 13.614678 19.067502
P -8.185828 13.614678 16.341689
P -8.185828 10.888866 19.067502
P -8.185828 16.340491 2.712627
P -10.911641 16.340491 5.438439
P -10.911641 19.066303 8.164252
P -8.185828 19.066303 5.438439
P -8.185828 16.340491 8.164252
P -10.911641 16.340491 10.890064
P -10.911641 19.066303 13.615877
P -8.185828 19.066303 10.890064
P -8.185828 16.340491 13.615877
P -10.911641 16.340491 16.341689
P -5.460016 -19.095072 -8.190623
P -5.460016 -19.095072 -2.738998
P -2.734203 -19.095072 -5.464811
P -2.734203 -19.095072 -0.013186
P -5.460016 -13.643447 -13.642248
P -5.460016 -16.369259 -10.916436
P -5.460016 -13.643447 -8.190623
P -2.734203 -13.643447 -10.916436
P -2.734203 -16.369259 -8.190623
P -5.460016 -16.369259 -5.464811
P -5.460016 -13.643447 -2.738998
P -2.734203 -13.643447 -5.464811
P -2.734203 -16.369259 -2.738998
P -5.460016 -16.369259 -0.013186
P -5.460016 -13.643447 2.712627
P -2.734203 -13.643447 -0.013186
P -2.734203 -16.369259 2.712627
P -2.734203 -13.643447 5.438439
P -5.460016 -8.191822 -19.093873
P -5.460016 -10.917634 -16.368061
P -5.460016 -8.191822 -13.642248
P -2.734203 -8.191822 -16.368061
P -2.734203 -10.917634 -13.642248
P -5.460016 -10.917634 -10.916436
P -5.460016 -8.191822 -8.190623
P -2.734203 -8.191822 -10.916436
P -2.734203 -10.917634 -8.190623
P -5.460016 -10.917634 -5.464811
P -5.460016 -8.191822 -2.738998
P -2.734203 -8.191822 -5.464811
P -2.734203 -10.917634 -2.738998
P -5.460016 -10.917634 -0.013186
P -5.460016 -8.191822 2.712627
P -2.734203 -8.191822 -0.013186
P -2.734203 -10.917634 2.712627
P -5.460016 -10.917634 5.438439
P -5.460016 -8.191822 8.164252
P -2.734203 -8.191822 5.438439
P -2.734203 -10.917634 8.164252
P -2.734203 -8.191822 10.890064
P -5.460016 -2.740197 -19.093873
P -2.734203 -5.466009 -19.093873
P -5.460016 -5.466009 -16.368061
P -5.460016 -2.740197 -13.642248
P -2.734203 -2.740197 -16.368061
P -2.734203 -5.466009 -13.642248
P -5.460016 -5.466009 -10.916436
P -5.460016 -2.740197 -8.190623
P -2.734203 -2.740197 -10.916436
P -2.734203 -5.466009 -8.190623
P -5.460016 -5.466009 -5.464811
P -5.460016 -2.740197 -2.738998
P -2.734203 -2.740197 -5.464811
P -2.734203 -5.466009 -2.738998
P -5.460016 -5.466009 -0.013186
P -5.460016 -2.740197 2.712627
P -2.734203 -2.740197 -0.013186
P -2.734203 -5.466009 2.712627
P -5.460016 -5.466009 5.438439
P -5.460016 -2.740197 8.164252
P -2.734203 -2.740197 5.438439
P -2.734203 -5.466009 8.164252
P -5.460016 -5.466009 10.890064
P -5.460016 -2.740197 13.615877
P -2.734203 -2.740197 10.890064
P -2.734203 -5.466009 13.615877
P -2.734203 -2.740197 16.341689
P -2.734203 -0.014384 -19.093873
P -5.460016 -0.014384 -16.368061
P -5.460016 2.711428 -13.642248
P -2.734203 2.711428 -16.368061
P -2.734203 -0.014384 -13.642248
P -5.460016 -0.014384 -10.916436
P -5.460016 2.711428 -8.190623
P -2.734203 2.711428 -10.916436
P -2.734203 -0.014384 -8.190623
P -5.460016 -0.014384 -5.464811
P -5.460016 2.711428 -2.738998
P -2.734203 2.711428 -5.464811
P -2.734203 -0.014384 -2.738998
P -5.460016 -0.014384 -0.013186
P -5.460016 2.711428 2.712627
P -2.734203 2.711428 -0.013186
P -2.734203 -0.014384 2.712627
P -5.460016 -0.014384 5.438439
P -5.460016 2.711428 8.164252
P -2.734203 2.711428 5.438439
P -2.734203 -0.014384 8.164252
P -5.460016 -0.014384 10.890064
P -5.460016 2.711428 13.615877
P -2.734203 2.711428 10.890064
P -2.734203 -0.014384 13.615877
P -5.460016 -0.014384 16.341689
P -5.460016 2.711428 19.067502
P -2.734203 2.711428 16.341689
P -2.734203 -0.014384 19.067502
P -2.734203 5.437241 -13.642248
P -5.460016 5.437241 -10.916436
P -5.460016 8.163053 -8.190623
P -2.734203 8.163053 -10.916436
P -2.734203 5.437241 -8.190623
P -5.460016 5.437241 -5.464811
P -5.460016 8.163053 -2.738998
P -2.734203 8.163053 -5.464811
P -2.734203 5.437241 -2.738998
P -5.460016 5.437241 -0.013186
P -5.460016 8.163053 2.712627
P -2.734203 8.163053 -0.013186
P -2.734203 5.437241 2.712627
P -5.460016 5.437241 5.438439
P -5.460016 8.163053 8.164252
P -2.734203 8.163053 5.438439
P -2.734203 5.437241 8.164252
P -5.460016 5.437241 10.890064
P -5.460016 8.163053 13.615877
P -2.734203 8.163053 10.890064
P -2.734203 5.437241 13.615877
P -5.460016 5.437241 16.341689
P -5.460016 8.163053 19.067502
P -2.734203 8.163053 16.341689
P -2.734203 5.437241 19.067502
P -2.734203 10.888866 -8.190623
P -5.460016 10.888866 -5.464811
P -5.460016 13.614678 -2.738998
P -2.734203 13.614678 -5.464811
P -2.734203 10.888866 -2.738998
P -5.460016 10.888866 -0.013186
P -5.460016 13.614678 2.712627
P -2.734203 13.614678 -0.013186
P -2.734203 10.888866 2.712627
P -5.460016 10.888866 5.438439
P -5.460016 13.614678 8.164252
P -2.734203 13.614678 5.438439
P -2.734203 10.888866 8.164252
P -5.460016 10.888866 10.890064
P -5.460016 13.614678 13.615877
P -2.734203 13.614678 10.890064
P -2.734203 10.888866 13.615877
P -5.460016 10.888866 16.341689
P -2.734203 16.340491 -2.738998
P -5.460016 16.340491 -0.013186
P -5.460016 19.066303 2.712627
P -2.734203 19.066303 -0.013186
P -2.734203 16.340491 2.712627
P -5.460016 16.340491 5.438439
P -5.460016 19.066303 8.164252
P -2.734203 19.066303 5.438439
P -2.734203 16.340491 8.164252
P -5.460016 16.340491 10.890064
P -0.008391 -19.095072 -2.738998
P -0.008391 -19.095072 2.712627
P 2.717422 -19.095072 -0.013186
P 2.717422 -19.095072 5.438439
P -0.008391 -13.643447 -8.190623
P -0.008391 -16.369259 -5.464811
P -0.008391 -13.643447 -2.738998
P 2.717422 -13.643447 -5.464811
P 2.717422 -16.369259 -2.738998
P -0.008391 -16.369259 -0.013186
P -0.008391 -13.643447 2.712627
P 2.717422 -13.643447 -0.013186
P 2.717422 -16.369259 2.712627
P -0.008391 -16.369259 5.438439
P -0.008391 -13.643447 8.164252
P 2.717422 -13.643447 5.438439
P 2.717422 -16.369259 8.164252
P 2.717422 -13.643447 10.890064
P -0.008391 -8.191822 -13.642248
P -0.008391 -10.917634 -10.916436
P -0.008391 -8.191822 -8.190623
P 2.717422 -8.191822 -10.916436
P 2.717422 -10.917634 -8.190623
P -0.008391 -10.917634 -5.464811
P -0.008391 -8.191822 -2.738998
P 2.717422 -8.191822 -5.464811
P 2.717422 -10.917634 -2.738998
P -0.008391 -10.917634 -0.013186
P -0.008391 -8.191822 2.712627
P 2.717422 -8.191822 -0.013186
P 2.717422 -10.917634 2.712627
P -0.008391 -10.917634 5.438439
P -0.008391 -8.191822 8.164252
P 2.717422 -8.191822 5.438439
P 2.717422 -10.917634 8.164252
P -0.008391 -10.917634 10.890064
P -0.008391 -8.191822 13.615877
P 2.717422 -8.191822 10.890064
P 2.717422 -10.917634 13.615877
P 2.717422 -8.191822 16.341689
P -0.008391 -2.740197 -19.093873
P -0.008391 -5.466009 -16.368061
P -0.008391 -2.740197 -13.642248
P 2.717422 -2.740197 -16.368061
P 2.717422 -5.466009 -13.642248
P -0.008391 -5.466009 -10.916436
P -0.008391 -2.740197 -8.190623
P 2.717422 -2.740197 -10.916436
P 2.717422 -5.466009 -8.190623
P -0.008391 -5.466009 -5.464811
P -0.008391 -2.740197 -2.738998
P 2.717422 -2.740197 -5.464811
P 2.717422 -5.466009 -2.738998
P -0.008391 -5.466009 -0.013186
P -0.008391 -2.740197 2.712627
P 2.717422 -2.740197 -0.013186
P 2.717422 -5.466009 2.712627
P -0.008391 -5.466009 5.438439
P -0.008391 -2.740197 8.164252
P 2.717422 -2.740197 5.438439
P 2.717422 -5.466009 8.164252
P -0.008391 -5.466009 10.890064
P -0.008391 -2.740197 13.615877
P 2.717422 -2.740197 10.890064
P 2.717422 -5.466009 13.615877
P -0.008391 -5.466009 16.341689
P -0.008391 -2.740197 19.067502
P 2.717422 -2.740197 16.341689
P 2.717422 -5.466009 19.067502
P -0.008391 2.711428 -19.093873
P 2.717422 -0.014384 -19.093873
P -0.008391 -0.014384 -16.368061
P -0.008391 2.711428 -13.642248
P 2.717422 2.711428 -16.368061
P 2.717422 -0.014384 -13.642248
P -0.008391 -0.014384 -10.916436
P -0.008391 2.711428 -8.190623
P 2.717422 2.711428 -10.916436
P 2.717422 -0.014384 -8.190623
P -0.008391 -0.014384 -5.464811
P -0.008391 2.711428 -2.738998
P 2.717422 2.711428 -5.464811
P 2.717422 -0.014384 -2.738998
P -0.008391 -0.014384 -0.013186
P -0.008391 2.711428 2.712627
P 2.717422 2.711428 -0.013186
P 2.717422 -0.014384 2.712627
P -0.008391 -0.014384 5.438439
P -0.008391 2.711428 8.164252
P 2.717422 2.711428 5.438439
P 2.717422 -0.014384 8.164252
P -0.008391 -0.014384 10.890064
P -0.008391 2.711428 13.615877
P 2.717422 2.711428 10.890064
P 2.717422 -0.014384 13.615877
P -0.008391 -0.014384 16.341689
P -0.008391 2.711428 19.067502
P 2.717422 2.711428 16.341689
P 2.717422 -0.014384 19.067502
P 2.717422 5.437241 -19.093873
P -0.008391 5.437241 -16.368061
P -0.008391 8.163053 -13.642248
P 2.717422 8.163053 -16.368061
P 2.717422 5.437241 -13.642248
P -0.008391 5.437241 -10.916436
P -0.008391 8.163053 -8.190623
P 2.717422 8.163053 -10.916436
P 2.717422 5.437241 -8.190623
P -0.008391 5.437241 -5.464811
P -0.008391 8.163053 -2.738998
P 2.717422 8.163053 -5.464811
P 2.717422 5.437241 -2.738998
P -0.008391 5.437241 -0.013186
P -0.008391 8.163053 2.712627
P 2.717422 8.163053 -0.013186
P 2.717422 5.437241 2.712627
P -0.008391 5.437241 5.438439
P -0.008391 8.163053 8.164252
P 2.717422 8.163053 5.438439
P 2.717422 5.437241 8.164252
P -0.008391 5.437241 10.890064
P -0.008391 8.163053 13.615877
P 2.717422 8.163053 10.890064
P 2.717422 5.437241 13.615877
P -0.008391 5.437241 16.341689
P 2.717422 10.888866 -13.642248
P -0.008391 10.888866 -10.916436
P -0.008391 13.614678 -8.190623
P 2.717422 13.614678 -10.916436
P 2.717422 10.888866 -8.190623
P -0.008391 10.888866 -5.464811
P -0.008391 13.614678 -2.738998
P 2.717422 13.614678 -5.464811
P 2.717422 10.888866 -2.738998
P -0.008391 10.888866 -0.013186
P -0.008391 13.614678 2.712627
P 2.717422 13.614678 -0.013186
P 2.717422 10.888866 2.712627
P -0.008391 10.888866 5.438439
P -0.008391 13.614678 8.164252
P 2.717422 13.614678 5.438439
P 2.717422 10.888866 8.164252
P -0.008391 10.888866 10.890064
P 2.717422 16.340491 -8.190623
P -0.008391 16.340491 -5.464811
P -0.008391 19.066303 -2.738998
P 2.717422 19.066303 -5.464811
P 2.717422 16.340491 -2.738998
P -0.008391 16.340491 -0.013186
P -0.008391 19.066303 2.712627
P 2.717422 19.066303 -0.013186
P 2.717422 16.340491 2.712627
P -0.008391 16.340491 5.438439
P 5.443234 -19.095072 2.712627
P 5.443234 -19.095072 8.164252
P 8.169047 -19.095072 5.438439
P 8.169047 -19.095072 10.890064
P 5.443234 -13.643447 -2.738998
P 5.443234 -16.369259 -0.013186
P 5.443234 -13.643447 2.712627
P 8.169047 -13.643447 -0.013186
P 8.169047 -16.369259 2.712627
P 5.443234 -16.369259 5.438439
P 5.443234 -13.643447 8.164252
P 8.169047 -13.643447 5.438439
P 8.169047 -16.369259 8.164252
P 5.443234 -16.369259 10.890064
P 5.443234 -13.643447 13.615877
P 8.169047 -13.643447 10.890064
P 8.169047 -16.369259 13.615877
P 8.169047 -13.643447 16.341689
P 5.443234 -8.191822 -8.190623
P 5.443234 -10.917634 -5.464811
P 5.443234 -8.191822 -2.738998
P 8.169047 -8.191822 -5.464811
P 8.169047 -10.917634 -2.738998
P 5.443234 -10.917634 -0.013186
P 5.443234 -8.191822 2.712627
P 8.169047 -8.191822 -0.013186
P 8.169047 -10.917634 2.712627
P 5.443234 -10.917634 5.438439
P 5.443234 -8.191822 8.164252
P 8.169047 -8.191822 5.438439
P 8.169047 -10.917634 8.164252
P 5.443234 -10.917634 10.890064
P 5.443234 -8.191822 13.615877
P 8.169047 -8.191822 10.890064
P 8.169047 -10.917634 13.615877
P 5.443234 -10.917634 16.341689
P 5.443234 -8.191822 19.067502
P 8.169047 -8.191822 16.341689
P 8.169047 -10.917634 19.067502
P 5.443234 -2.740197 -13.642248
P 5.443234 -5.466009 -10.916436
P 5.443234 -2.740197 -8.190623
P 8.169047 -2.740197 -10.916436
P 8.169047 -5.466009 -8.190623
P 5.443234 -5.466009 -5.464811
P 5.443234 -2.740197 -2.738998
P 8.169047 -2.740197 -5.464811
P 8.169047 -5.466009 -2.738998
P 5.443234 -5.466009 -0.013186
P 5.443234 -2.740197 2.712627
P 8.169047 -2.740197 -0.013186
P 8.169047 -5.466009 2.712627
P 5.443234 -5.466009 5.438439
P 5.443234 -2.740197 8.164252
P 8.169047 -2.740197 5.438439
P 8.169047 -5.466009 8.164252
P 5.443234 -5.466009 10.890064
P 5.443234 -2.740197 13.615877
P 8.169047 -2.740197 10.890064
P 8.169047 -5.466009 13.615877
P 5.443234 -5.466009 16.341689
P 5.443234 -2.740197 19.067502
P 8.169047 -2.740197 16.341689
P 8.169047 -5.466009 19.067502
P 5.443234 2.711428 -19.093873
P 5.443234 -0.014384 -16.368061
P 5.443234 2.711428 -13.642248
P 8.169047 2.711428 -16.368061
P 8.169047 -0.014384 -13.642248
P 5.443234 -0.014384 -10.916436
P 5.443234 2.711428 -8.190623
P 8.169047 2.711428 -10.916436
P 8.169047 -0.014384 -8.190623
P 5.443234 -0.014384 -5.464811
P 5.443234 2.711428 -2.738998
P 8.169047 2.711428 -5.464811
P 8.169047 -0.014384 -2.738998
P 5.443234 -0.014384 -0.013186
P 5.443234 2.711428 2.712627
P 8.169047 2.711428 -0.013186
P 8.169047 -0.014384 2.712627
P 5.443234 -0.014384 5.438439
P 5.443234 2.711428 8.164252
P 8.169047 2.711428 5.438439
P 8.169047 -0.014384 8.164252
P 5.443234 -0.014384 10.890064
P 5.443234 2.711428 13.615877
P 8.169047 2.711428 10.890064
P 8.169047 -0.014384 13.615877
P 5.443234 -0.014384 16.341689
P 5.443234 8.163053 -19.093873
P 8.169047 5.437241 -19.093873
P 5.443234 5.437241 -16.368061
P 5.443234 8.163053 -13.642248
P 8.169047 8.163053 -16.368061
P 8.169047 5.437241 -13.642248
P 5.443234 5.437241 -10.916436
P 5.443234 8.163053 -8.190623
P 8.169047 8.163053 -10.916436
P 8.169047 5.437241 -8.190623
P 5.443234 5.437241 -5.464811
P 5.443234 8.163053 -2.738998
P 8.169047 8.163053 -5.464811
P 8.169047 5.437241 -2.738998
P 5.443234 5.437241 -0.013186
P 5.443234 8.163053 2.712627
P 8.169047 8.163053 -0.013186
P 8.169047 5.437241 2.712627
P 5.443234 5.437241 5.438439
P 5.443234 8.163053 8.164252
P 8.169047 8.163053 5.438439
P 8.169047 5.437241 8.164252
P 5.443234 5.437241 10.890064
P 8.169047 10.888866 -19.093873
P 5.443234 10.888866 -16.368061
P 5.443234 13.614678 -13.642248
P 8.169047 13.614678 -16.368061
P 8.169047 10.888866 -13.642248
P 5.443234 10.888866 -10.916436
P 5.443234 13.614678 -8.190623
P 8.169047 13.614678 -10.916436
P 8.169047 10.888866 -8.190623
P 5.443234 10.888866 -5.464811
P 5.443234 13.614678 -2.738998
P 8.169047 13.614678 -5.464811
P 8.169047 10.888866 -2.738998
P 5.443234 10.888866 -0.013186
P 5.443234 13.614678 2.712627
P 8.169047 13.614678 -0.013186
P 8.169047 10.888866 2.712627
P 5.443234 10.888866 5.438439
P 8.169047 16.340491 -13.642248
P 5.443234 16.340491 -10.916436
P 5.443234 19.066303 -8.190623
P 8.169047 19.066303 -10.916436
P 8.169047 16.340491 -8.190623
P 5.443234 16.340491 -5.464811
P 5.443234 19.066303 -2.738998
P 8.169047 19.066303 -5.464811
P 8.169047 16.340491 -2.738998
P 5.443234 16.340491 -0.013186
P 10.894859 -19.095072 8.164252
P 10.894859 -19.095072 13.615877
P 13.620672 -19.095072 10.890064
P 13.620672 -19.095072 16.341689
P 10.894859 -13.643447 2.712627
P 10.894859 -16.369259 5.438439
P 10.894859 -13.643447 8.164252
P 13.620672 -13.643447 5.438439
P 13.620672 -16.369259 8.164252
P 10.894859 -16.369259 10.890064
P 10.894859 -13.643447 13.615877
P 13.620672 -13.643447 10.890064
P 13.620672 -16.369259 13.615877
P 10.894859 -16.369259 16.341689
P 10.894859 -13.643447 19.067502
P 13.620672 -13.643447 16.341689
P 13.620672 -16.369259 19.067502
P 10.894859 -8.191822 -2.738998
P 10.894859 -10.917634 -0.013186
P 10.894859 -8.191822 2.712627
P 13.620672 -8.191822 -0.013186
P 13.620672 -10.917634 2.712627
P 10.894859 -10.917634 5.438439
P 10.894859 -8.191822 8.164252
P 13.620672 -8.191822 5.438439
P 13.620672 -10.917634 8.164252
P 10.894859 -10.917634 10.890064
P 10.894859 -8.191822 13.615877
P 13.620672 -8.191822 10.890064
P 13.620672 -10.917634 13.615877
P 10.894859 -10.917634 16.341689
P 10.894859 -8.191822 19.067502
P 13.620672 -8.191822 16.341689
P 13.620672 -10.917634 19.067502
P 10.894859 -2.740197 -8.190623
P 10.894859 -5.466009 -5.464811
P 10.894859 -2.740197 -2.738998
P 13.620672 -2.740197 -5.464811
P 13.620672 -5.466009 -2.738998
P 10.894859 -5.466009 -0.013186
P 10.894859 -2.740197 2.712627
P 13.620672 -2.740197 -0.013186
P 13.620672 -5.466009 2.712627
P 10.894859 -5.466009 5.438439
P 10.894859 -2.740197 8.164252
P 13.620672 -2.740197 5.438439
P 13.620672 -5.466009 8.164252
P 10.894859 -5.466009 10.890064
P 10.894859 -2.740197 13.615877
P 13.620672 -2.740197 10.890064
P 13.620672 -5.466009 13.615877
P 10.894859 -5.466009 16.341689
P 10.894859 2.711428 -13.642248
P 10.894859 -0.014384 -10.916436
P 10.894859 2.711428 -8.190623
P 13.620672 2.711428 -10.916436
P 13.620672 -0.014384 -8.190623
P 10.894859 -0.014384 -5.464811
P 10.894859 2.711428 -2.738998
P 13.620672 2.711428 -5.464811
P 13.620672 -0.014384 -2.738998
P 10.894859 -0.014384 -0.013186
P 10.894859 2.711428 2.712627
P 13.620672 2.711428 -0.013186
P 13.620672 -0.014384 2.712627
P 10.894859 -0.014384 5.438439
P 10.894859 2.711428 8.164252
P 13.620672 2.711428 5.438439
P 13.620672 -0.014384 8.164252
P 10.894859 -0.014384 10.890064
P 10.894859 8.163053 -19.093873
P 10.894859 5.437241 -16.368061
P 10.894859 8.163053 -13.642248
P 13.620672 8.163053 -16.368061
P 13.620672 5.437241 -13.642248
P 10.894859 5.437241 -10.916436
P 10.894859 8.163053 -8.190623
P 13.620672 8.163053 -10.916436
P 13.620672 5.437241 -8.190623
P 10.894859 5.437241 -5.464811
P 10.894859 8.163053 -2.738998
P 13.620672 8.163053 -5.464811
P 13.620672 5.437241 -2.738998
P 10.894859 5.437241 -0.013186
P 10.894859 8.163053 2.712627
P 13.620672 8.163053 -0.013186
P 13.620672 5.437241 2.712627
P 10.894859 5.437241 5.438439
P 10.894859 13.614678 -19.093873
P 13.620672 10.888866 -19.093873
P 10.894859 10.888866 -16.368061
P 10.894859 13.614678 -13.642248
P 13.620672 13.614678 -16.368061
P 13.620672 10.888866 -13.642248
P 10.894859 10.888866 -10.916436
P 10.894859 13.614678 -8.190623
P 13.620672 13.614678 -10.916436
P 13.620672 10.888866 -8.190623
P 10.894859 10.888866 -5.464811
P 10.894859 13.614678 -2.738998
P 13.620672 13.614678 -5.464811
P 13.620672 10.888866 -2.738998
P 10.894859 10.888866 -0.013186
P 13.620672 16.340491 -19.093873
P 10.894859 16.340491 -16.368061
P 10.894859 19.066303 -13.642248
P 13.620672 19.066303 -16.368061
P 13.620672 16.340491 -13.642248
P 10.894859 16.340491 -10.916436
P 10.894859 19.066303 -8.190623
P 13.620672 19.066303 -10.916436
P 13.620672 16.340491 -8.190623
P 10.894859 16.340491 -5.464811
P 16.346484 -19.095072 13.615877
P 16.346484 -13.643447 8.164252
P 16.346484 -16.369259 10.890064
P 16.346484 -13.643447 13.615877
P 19.072297 -13.643447 10.890064
P 19.072297 -16.369259 13.615877
P 16.346484 -16.369259 16.341689
P 16.346484 -13.643447 19.067502
P 19.072297 -13.643447 16.341689
P 16.346484 -8.191822 2.712627
P 16.346484 -10.917634 5.438439
P 16.346484 -8.191822 8.164252
P 19.072297 -8.191822 5.438439
P 19.072297 -10.917634 8.164252
P 16.346484 -10.917634 10.890064
P 16.346484 -8.191822 13.615877
P 19.072297 -8.191822 10.890064
P 19.072297 -10.917634 13.615877
P 16.346484 -10.917634 16.341689
P 16.346484 -2.740197 -2.738998
P 16.346484 -5.466009 -0.013186
P 16.346484 -2.740197 2.712627
P 19.072297 -2.740197 -0.013186
P 19.072297 -5.466009 2.712627
P 16.346484 -5.466009 5.438439
P 16.346484 -2.740197 8.164252
P 19.072297 -2.740197 5.438439
P 19.072297 -5.466009 8.164252
P 16.346484 -5.466009 10.890064
P 16.346484 2.711428 -8.190623
P 16.346484 -0.014384 -5.464811
P 16.346484 2.711428 -2.738998
P 19.072297 2.711428 -5.464811
P 19.072297 -0.014384 -2.738998
P 16.346484 -0.014384 -0.013186
P 16.346484 2.711428 2.712627
P 19.072297 2.711428 -0.013186
P 19.072297 -0.014384 2.712627
P 16.346484 -0.014384 5.438439
P 16.346484 8.163053 -13.642248
P 16.346484 5.437241 -10.916436
P 16.346484 8.163053 -8.190623
P 19.072297 8.163053 -10.916436
P 19.072297 5.437241 -8.190623
P 16.346484 5.437241 -5.464811
P 16.346484 8.163053 -2.738998
P 19.072297 8.163053 -5.464811
P 19.072297 5.437241 -2.738998
P 16.346484 5.437241 -0.013186
P 16.346484 13.614678 -19.093873
P 16.346484 10.888866 -16.368061
P 16.346484 13.614678 -13.642248
P 19.072297 13.614678 -16.368061
P 19.072297 10.888866 -13.642248
P 16.346484 10.888866 -10.916436
P 16.346484 13.614678 -8.190623
P 19.072297 13.614678 -10.916436
P 19.072297 10.888866 -8.190623
P 16.346484 10.888866 -5.464811
P 16.346484 16.340491 -16.368061
P 16.346484 19.066303 -13.642248
P 19.072297 16.340491 -13.642248
P 16.346484 16.340491 -10.916436
Cl -21.814891 -13.643447 -13.642248
Cl -21.814891 -10.917634 -10.916436
Cl -21.814891 -8.191822 -8.190623
Cl -21.814891 -5.466009 -5.464811
Cl -21.814891 -2.740197 -2.738998
Cl -21.814891 -0.014384 -0.013186
Cl -21.814891 2.711428 2.712627
Cl -21.814891 5.437241 5.438439
Cl -21.814891 8.163053 8.164252
Cl -21.814891 10.888866 10.890064
Cl -21.814891 13.614678 13.615877
Cl -13.637453 -21.820884 -13.642248
Cl -13.637453 -13.643447 -21.819686
Cl -13.637453 13.614678 21.793314
Cl -13.637453 21.792116 13.615877
Cl -10.911641 -21.820884 -10.916436
Cl -8.185828 -21.820884 -8.190623
Cl -10.911641 -10.917634 -21.819686
Cl -8.185828 -8.191822 -21.819686
Cl -8.185828 8.163053 21.793314
Cl -10.911641 10.888866 21.793314
Cl -8.185828 21.792116 8.164252
Cl -10.911641 21.792116 10.890064
Cl -5.460016 -21.820884 -5.464811
Cl -2.734203 -21.820884 -2.738998
Cl -5.460016 -5.466009 -21.819686
Cl -2.734203 -2.740197 -21.819686
Cl -2.734203 2.711428 21.793314
Cl -5.460016 5.437241 21.793314
Cl -2.734203 21.792116 2.712627
Cl -5.460016 21.792116 5.438439
Cl -0.008391 -21.820884 -0.013186
Cl 2.717422 -21.820884 2.712627
Cl 2.717422 -2.740197 21.793314
Cl -0.008391 -0.014384 -21.819686
Cl 2.717422 2.711428 -21.819686
Cl -0.008391 -0.014384 21.793314
Cl 2.717422 21.792116 -2.738998
Cl -0.008391 21.792116 -0.013186
Cl 5.443234 -21.820884 5.438439
Cl 8.169047 -21.820884 8.164252
Cl 8.169047 -8.191822 21.793314
Cl 5.443234 -5.466009 21.793314
Cl 5.443234 5.437241 -21.819686
Cl 8.169047 8.163053 -21.819686
Cl 8.169047 21.792116 -8.190623
Cl 5.443234 21.792116 -5.464811
Cl 10.894859 -21.820884 10.890064
Cl 13.620672 -21.820884 13.615877
Cl 13.620672 -13.643447 21.793314
Cl 10.894859 -10.917634 21.793314
Cl 10.894859 10.888866 -21.819686
Cl 13.620672 13.614678 -21.819686
Cl 13.620672 21.792116 -13.642248
Cl 10.894859 21.792116 -10.916436
Cl 21.798109 -13.643447 13.615877
Cl 21.798109 -8.191822 8.164252
Cl 21.798109 -10.917634 10.890064
Cl 21.798109 -2.740197 2.712627
Cl 21.798109 -5.466009 5.438439
Cl 21.798109 2.711428 -2.738998
Cl 21.798109 -0.014384 -0.013186
Cl 21.798109 8.163053 -8.190623
Cl 21.798109 5.437241 -5.464811
Cl 21.798109 13.614678 -13.642248
Cl 21.798109 10.888866 -10.916436
Cl -10.911641 -10.917634 5.438439
Cl -10.911641 5.437241 -10.916436
Cl 5.443234 -10.917634 -10.916436
Cl 8.169047 8.163053 10.890064
Cl -16.363266 10.888866 21.793314
Cl -16.363266 21.792116 10.890064
Cl 21.798109 -16.369259 10.890064
Cl 16.346484 21.792116 -10.916436
Cl 10.894859 -16.369259 21.793314
Cl 10.894859 21.792116 -16.368061
Cl 21.798109 10.888866 -16.368061
Cl 21.798109 -10.917634 16.341689
Cl -10.911641 21.792116 16.341689
Cl -21.814891 -16.369259 -10.916436
Cl -21.814891 -10.917634 -16.368061
Cl -10.911641 -21.820884 -16.368061
Cl -2.734203 -2.740197 21.793314
Cl -2.734203 21.792116 -2.738998
Cl 21.798109 -2.740197 -2.738998
Cl 21.798109 5.437241 -0.013186
Cl 2.717422 -21.820884 8.164252
Cl 8.169047 2.711428 -21.819686
Cl 2.717422 8.163053 -21.819686
Cl 2.717422 21.792116 2.712627
Cl -21.814891 8.163053 2.712627
Cl -21.814891 2.711428 8.164252
Cl 8.169047 -21.820884 2.712627
Cl 8.169047 -2.740197 21.793314
Cl -2.734203 8.163053 21.793314
Cl -8.185828 -21.820884 -2.738998
Cl -2.734203 -8.191822 -21.819686
Cl -8.185828 -2.740197 -21.819686
Cl -21.814891 -2.740197 -8.190623
Cl -21.814891 -8.191822 -2.738998
Cl -2.734203 -21.820884 -8.190623
Cl 21.798109 -2.740197 8.164252
Cl 13.620672 13.614678 -0.013186
Cl -2.734203 -10.917634 13.615877
Cl -2.734203 13.614678 -10.916436
Cl 13.620672 -2.740197 -10.916436
Cl -10.911641 -2.740197 13.615877
Cl -10.911641 13.614678 -2.738998
Cl 13.620672 -10.917634 -2.738998
Cl 21.798109 13.614678 -8.190623
Cl -2.734203 16.340491 13.615877
Cl 10.894859 -21.820884 16.341689
Cl 10.894859 16.340491 -21.819686
Cl 16.346484 10.888866 -21.819686
Cl 13.620672 -0.014384 13.615877
Cl -21.814891 10.888866 16.341689
Cl -21.814891 16.340491 10.890064
Cl 16.346484 -21.820884 10.890064
Cl -16.363266 -21.820884 -10.916436
Cl -16.363266 -10.917634 -21.819686
Cl -10.911641 -16.369259 -21.819686
Cl 16.346484 -10.917634 21.793314
Cl -10.911641 16.340491 21.793314
Cl -10.911641 5.437241 21.793314
Cl -10.911641 21.792116 5.438439
Cl 21.798109 -10.917634 5.438439
Cl 5.443234 -10.917634 21.793314
Cl 5.443234 21.792116 -10.916436
Cl 21.798109 5.437241 -10.916436
Cl 8.169047 21.792116 -2.738998
Cl -21.814891 2.711428 -2.738998
Cl -21.814891 -2.740197 2.712627
Cl 2.717422 -21.820884 -2.738998
Cl 2.717422 2.711428 21.793314
Cl -2.734203 -21.820884 2.712627
Cl 2.717422 -2.740197 -21.819686
Cl -2.734203 2.711428 -21.819686
Cl -2.734203 21.792116 8.164252
Cl -16.363266 -13.643447 -2.738998
Cl -16.363266 -2.740197 -13.642248
Cl -2.734203 -16.369259 -13.642248
Cl 16.346484 5.437241 5.438439
Cl 2.717422 -16.369259 13.615877
Cl 2.717422 13.614678 -16.368061
Cl 13.620672 2.711428 -16.368061
Cl 8.169047 13.614678 5.438439
Cl -16.363266 2.711428 13.615877
Cl -16.363266 13.614678 2.712627
Cl 13.620672 -16.369259 2.712627
Cl 2.717422 8.163053 16.341689
Cl -2.734203 -16.369259 8.164252
Cl -2.734203 8.163053 -16.368061
Cl 8.169047 -2.740197 -16.368061
Cl 16.346484 -5.466009 16.341689
Cl -16.363266 -2.740197 8.164252
Cl -16.363266 8.163053 -2.738998
Cl 8.169047 -16.369259 -2.738998
Cl 13.620672 19.066303 -5.464811
Cl -10.911641 -16.369259 -0.013186
Cl -10.911641 -0.014384 -16.368061
Cl -0.008391 -10.917634 -16.368061
Cl -5.460016 13.614678 19.067502
Cl -8.185828 -0.014384 19.067502
Cl -8.185828 19.066303 -0.013186
Cl 19.072297 -8.191822 -0.013186
Cl 19.072297 10.888866 -2.738998
Cl -0.008391 -8.191822 19.067502
Cl -0.008391 19.066303 -8.190623
Cl 19.072297 -0.014384 -8.190623
Cl 2.717422 16.340491 8.164252
Cl 8.169047 2.711428 16.341689
Cl -16.363266 -8.191822 2.712627
Cl -16.363266 2.711428 -8.190623
Cl 2.717422 -16.369259 -8.190623
Cl -13.637453 -19.095072 -5.464811
Cl -13.637453 -5.466009 -19.093873
Cl -5.460016 -13.643447 -19.093873
Cl 21.798109 16.340491 -10.916436
Cl -8.185828 -8.191822 10.890064
Cl -8.185828 10.888866 -8.190623
Cl 10.894859 -8.191822 -8.190623
Cl 21.798109 -5.466009 10.890064
Cl -5.460016 -5.466009 16.341689
Cl -5.460016 16.340491 -5.464811
Cl 16.346484 -5.466009 -5.464811
Cl -8.185828 21.792116 13.615877
Cl 8.169047 -21.820884 13.615877
Cl 13.620672 8.163053 -21.819686
Cl 8.169047 13.614678 -21.819686
Cl 10.894859 -5.466009 21.793314
Cl -21.814891 13.614678 8.164252
Cl -21.814891 8.163053 13.615877
Cl 13.620672 -21.820884 8.164252
Cl 21.798109 2.711428 2.712627
Cl -21.814891 -8.191822 -13.642248
Cl -21.814891 -13.643447 -8.190623
Cl -8.185828 -21.820884 -13.642248
Cl 13.620672 8.163053 5.438439
Cl 8.169047 -16.369259 19.067502
Cl 8.169047 19.066303 -16.368061
Cl 19.072297 8.163053 -16.368061
Cl 8.169047 19.066303 -0.013186
Cl -16.363266 8.163053 19.067502
Cl -16.363266 19.066303 8.164252
Cl 19.072297 -16.369259 8.164252
Cl 2.717422 10.888866 13.615877
Cl -5.460016 -16.369259 5.438439
Cl -5.460016 5.437241 -16.368061
Cl 5.443234 -5.466009 -16.368061
Cl 16.346484 -0.014384 10.890064
Cl 16.346484 16.340491 -5.464811
Cl -13.637453 2.711428 16.341689
Cl -13.637453 16.340491 2.712627
Cl 16.346484 -13.643447 2.712627
Cl 2.717422 -13.643447 16.341689
Cl 2.717422 16.340491 -13.642248
Cl 16.346484 2.711428 -13.642248
Cl 10.894859 5.437241 10.890064
Cl -13.637453 -5.466009 8.164252
Cl -13.637453 8.163053 -5.464811
Cl 8.169047 -13.643447 -5.464811
Cl -8.185828 13.614678 21.793314
Cl -13.637453 -21.820884 -8.190623
Cl -8.185828 -13.643447 -21.819686
Cl -13.637453 -8.191822 -21.819686
Cl 19.072297 -10.917634 19.067502
Cl -0.008391 21.792116 5.438439
Cl -21.814891 -5.466009 -0.013186
Cl -21.814891 -0.014384 -5.464811
Cl -0.008391 -21.820884 -5.464811
Cl -5.460016 -21.820884 -0.013186
Cl -5.460016 -0.014384 -21.819686
Cl -0.008391 -5.466009 -21.819686
Cl 13.620672 21.792116 -8.190623
Cl -0.008391 5.437241 21.793314
Cl -0.008391 -5.466009 21.793314
Cl -0.008391 21.792116 -5.464811
Cl 21.798109 -0.014384 -5.464811
Cl 21.798109 8.163053 -2.738998
Cl -8.185828 2.711428 21.793314
Cl -8.185828 21.792116 2.712627
Cl 21.798109 -8.191822 2.712627
Cl -10.911641 19.066303 19.067502
Cl 5.443234 -21.820884 10.890064
Cl 5.443234 10.888866 -21.819686
Cl 10.894859 5.437241 -21.819686
Cl -19.089078 -19.095072 -10.916436
Cl -19.089078 -10.917634 -19.093873
Cl -10.911641 -19.095072 -19.093873
Cl 13.620672 -8.191822 21.793314
Cl -21.814891 5.437241 10.890064
Cl -21.814891 10.888866 5.438439
Cl 10.894859 -21.820884 5.438439
Cl -5.460016 21.792116 10.890064
Cl -21.814891 -10.917634 -5.464811
Cl -21.814891 -5.466009 -10.916436
Cl -5.460016 -21.820884 -10.916436
Cl 21.798109 -0.014384 5.438439
Cl 5.443234 -0.014384 21.793314
Cl -21.814891 -0.014384 5.438439
Cl -21.814891 5.437241 -0.013186
Cl 5.443234 -21.820884 -0.013186
Cl 21.798109 -8.191822 13.615877
Cl -0.008391 -21.820884 5.438439
Cl -0.008391 5.437241 -21.819686
Cl 5.443234 -0.014384 -21.819686
Cl 19.072297 19.066303 -10.916436
Cl -10.911641 -13.643447 2.712627
Cl -10.911641 2.711428 -13.642248
Cl 2.717422 -10.917634 -13.642248
Cl 8.169047 16.340491 2.712627
Cl -5.460016 -10.917634 10.890064
Cl -5.460016 10.888866 -10.916436
Cl 10.894859 -5.466009 -10.916436
Cl -2.734203 13.614678 16.341689
Cl -16.363266 -10.917634 -0.013186
Cl -16.363266 -0.014384 -10.916436
Cl -0.008391 -16.369259 -10.916436
Cl 2.717422 13.614678 10.890064
Cl 8.169047 -13.643447 21.793314
Cl 8.169047 21.792116 -13.642248
Cl 21.798109 8.163053 -13.642248
Cl 10.894859 -0.014384 16.341689
Cl -19.089078 10.888866 19.067502
Cl -19.089078 19.066303 10.890064
Cl 19.072297 -19.095072 10.890064
Cl 13.620672 10.888866 2.712627
Cl -16.363266 -16.369259 -5.464811
Cl -16.363266 -5.466009 -16.368061
Cl -5.460016 -16.369259 -16.368061
Cl -16.363266 -0.014384 10.890064
Cl -16.363266 10.888866 -0.013186
Cl 10.894859 -16.369259 -0.013186
Cl 16.346484 2.711428 8.164252
Cl -0.008391 -16.369259 10.890064
Cl -0.008391 10.888866 -16.368061
Cl 10.894859 -0.014384 -16.368061
Cl 5.443234 5.437241 16.341689
Cl 10.894859 -19.095072 19.067502
Cl 10.894859 19.066303 -19.093873
Cl 19.072297 10.888866 -19.093873
Cl 8.169047 10.888866 8.164252
Cl -13.637453 8.163053 21.793314
Cl -13.637453 21.792116 8.164252
Cl 21.798109 -13.643447 8.164252
Cl 21.798109 10.888866 -5.464811
Cl -5.460016 -0.014384 21.793314
Cl -5.460016 21.792116 -0.013186
Cl 21.798109 -5.466009 -0.013186
Cl 5.443234 21.792116 -0.013186
Cl 2.717422 -8.191822 21.793314
Cl 2.717422 21.792116 -8.190623
Cl 21.798109 2.711428 -8.190623
Cl -5.460016 10.888866 21.793314
Cl -10.911641 -21.820884 -5.464811
Cl -10.911641 -5.466009 -21.819686
Cl -5.460016 -10.917634 -21.819686
Cl 10.894859 21.792116 -5.464811
Cl -8.185828 19.066303 16.341689
Cl -8.185828 -5.466009 13.615877
Cl -8.185828 13.614678 -5.464811
Cl 13.620672 -8.191822 -5.464811
Cl 19.072297 -5.466009 13.615877
Cl -5.460016 -19.095072 2.712627
Cl -5.460016 2.711428 -19.093873
Cl 2.717422 -5.466009 -19.093873
Cl 13.620672 -5.466009 19.067502
Cl -19.089078 -5.466009 2.712627
Cl -19.089078 2.711428 -5.464811
Cl 2.717422 -19.095072 -5.464811
Cl -0.008391 19.066303 8.164252
Cl -19.089078 5.437241 13.615877
Cl -19.089078 13.614678 5.438439
Cl 13.620672 -19.095072 5.438439
Cl 5.443234 -19.095072 13.615877
Cl 5.443234 13.614678 -19.093873
Cl 13.620672 5.437241 -19.093873
Cl 19.072297 8.163053 -0.013186
Cl 13.620672 16.340491 -2.738998
Cl -0.008391 -10.917634 16.341689
Cl -0.008391 16.340491 -10.916436
Cl 16.346484 -0.014384 -10.916436
Cl -0.008391 8.163053 19.067502
Cl -10.911641 -8.191822 8.164252
Cl -10.911641 8.163053 -8.190623
Cl 8.169047 -10.917634 -8.190623
Cl -10.911641 -0.014384 16.341689
Cl -10.911641 16.340491 -0.013186
Cl 16.346484 -10.917634 -0.013186
Cl 5.443234 16.340491 5.438439
Cl -8.185828 -13.643447 5.438439
Cl -8.185828 5.437241 -13.642248
Cl 5.443234 -8.191822 -13.642248
Cl 19.072297 16.340491 -8.190623
Cl -19.089078 -16.369259 -8.190623
Cl -19.089078 -8.191822 -16.368061
Cl -8.185828 -19.095072 -16.368061
Cl 19.072297 -0.014384 8.164252
Cl -5.460016 19.066303 13.615877
Cl -10.911641 -19.095072 -2.738998
Cl -10.911641 -2.740197 -19.093873
Cl -2.734203 -10.917634 -19.093873
Cl 8.169047 -0.014384 19.067502
Cl -19.089078 -0.014384 8.164252
Cl -19.089078 8.163053 -0.013186
Cl 8.169047 -19.095072 -0.013186
Cl 5.443234 -13.643447 19.067502
Cl 5.443234 19.066303 -13.642248
Cl 19.072297 5.437241 -13.642248
Cl 19.072297 5.437241 2.712627
Cl -13.637453 5.437241 19.067502
Cl -13.637453 19.066303 5.438439
Cl 19.072297 -13.643447 5.438439
Cl -0.008391 13.614678 13.615877
Cl -19.089078 -10.917634 -2.738998
Cl -19.089078 -2.740197 -10.916436
Cl -2.734203 -19.095072 -10.916436
Cl 10.894859 8.163053 8.164252
Cl -2.734203 -5.466009 19.067502
Cl -2.734203 19.066303 -5.464811
Cl 19.072297 -2.740197 -5.464811
Cl 13.620672 -2.740197 16.341689
Cl -0.008391 -19.095072 8.164252
Cl -0.008391 8.163053 -19.093873
Cl 8.169047 -0.014384 -19.093873
Cl 16.346484 13.614678 -2.738998
Cl -16.363266 -5.466009 5.438439
Cl -16.363266 5.437241 -5.464811
Cl 5.443234 -16.369259 -5.464811
Cl 8.169047 5.437241 13.615877
Cl -2.734203 -13.643447 10.890064
Cl -2.734203 10.888866 -13.642248
Cl 10.894859 -2.740197 -13.642248
Cl 10.894859 16.340491 -0.013186
Cl -13.637453 -13.643447 -0.013186
Cl -13.637453 -0.014384 -13.642248
Cl -0.008391 -13.643447 -13.642248
Cl 19.072297 -8.191822 16.341689
Cl -8.185828 16.340491 19.067502
Cl -13.637453 -2.740197 10.890064
Cl -13.637453 10.888866 -2.738998
Cl 10.894859 -13.643447 -2.738998
Cl 8.169047 -19.095072 16.341689
Cl 8.169047 16.340491 -19.093873
Cl 16.346484 8.163053 -19.093873
Cl 13.620672 2.711428 10.890064
Cl -19.089078 8.163053 16.341689
Cl -19.089078 16.340491 8.164252
Cl 16.346484 -19.095072 8.164252
Cl 5.443234 10.888866 10.890064
Cl 2.717422 19.066303 5.438439
