391
PbSe-Pb-Pb177Se140Cl74-clean
Pb -9.272471 -9.256661 -0.000000
Pb -9.272471 -3.075014 -6.181647
Pb -9.272471 -6.165837 -3.090824
Pb -12.363294 -3.075014 -3.090824
Pb -9.272471 -3.075014 -0.000000
Pb -9.272471 -6.165837 3.090824
Pb -12.363294 -3.075014 3.090824
Pb -9.272471 -3.075014 6.181647
Pb -9.272471 0.015810 -9.272471
Pb -9.272471 3.106633 -6.181647
Pb -9.272471 0.015810 -3.090824
Pb -12.363294 3.106633 -3.090824
Pb -12.363294 0.015810 -0.000000
Pb -9.272471 3.106633 -0.000000
Pb -9.272471 0.015810 3.090824
Pb -12.363294 3.106633 3.090824
Pb -9.272471 3.106633 6.181647
Pb -9.272471 0.015810 9.272471
Pb -9.272471 6.197457 -3.090824
Pb -9.272471 9.288280 0.000000
Pb -9.272471 6.197457 3.090824
Pb -3.090824 -9.256661 -6.181647
Pb -3.090824 -12.347484 -3.090824
Pb -6.181647 -9.256661 -3.090824
Pb -3.090824 -9.256661 -0.000000
Pb -3.090824 -12.347484 3.090824
Pb -6.181647 -9.256661 3.090824
Pb -3.090824 -9.256661 6.181647
Pb -3.090824 -3.075014 -12.363294
Pb -3.090824 -6.165837 -9.272471
Pb -6.181647 -3.075014 -9.272471
Pb -6.181647 -6.165837 -6.181647
Pb -3.090824 -3.075014 -6.181647
Pb -3.090824 -6.165837 -3.090824
Pb -6.181647 -3.075014 -3.090824
Pb -6.181647 -6.165837 -0.000000
Pb -3.090824 -3.075014 -0.000000
Pb -3.090824 -6.165837 3.090824
Pb -6.181647 -3.075014 3.090824
Pb -6.181647 -6.165837 6.181647
Pb -3.090824 -3.075014 6.181647
Pb -3.090824 -6.165837 9.272471
Pb -6.181647 -3.075014 9.272471
Pb -3.090824 -3.075014 12.363294
Pb -3.090824 3.106633 -12.363294
Pb -3.090824 0.015810 -9.272471
Pb -6.181647 3.106633 -9.272471
Pb -6.181647 0.015810 -6.181647
Pb -3.090824 3.106633 -6.181647
Pb -3.090824 0.015810 -3.090824
Pb -6.181647 3.106633 -3.090824
Pb -6.181647 0.015810 -0.000000
Pb -3.090824 3.106633 0.000000
Pb -3.090824 0.015810 3.090824
Pb -6.181647 3.106633 3.090824
Pb -6.181647 0.015810 6.181647
Pb -3.090824 3.106633 6.181647
Pb -3.090824 0.015810 9.272471
Pb -6.181647 3.106633 9.272471
Pb -3.090824 3.106633 12.363294
Pb -3.090824 6.197457 -9.272471
Pb -6.181647 6.197457 -6.181647
Pb -3.090824 9.288280 -6.181647
Pb -3.090824 6.197457 -3.090824
Pb -6.181647 9.288280 -3.090824
Pb -6.181647 6.197457 0.000000
Pb -3.090824 9.288280 0.000000
Pb -3.090824 6.197457 3.090824
Pb -6.181647 9.288280 3.090824
Pb -6.181647 6.197457 6.181647
Pb -3.090824 9.288280 6.181647
Pb -3.090824 6.197457 9.272471
Pb -3.090824 12.379104 -3.090824
Pb -3.090824 12.379104 3.090824
Pb 0.000000 -9.256661 -9.272471
Pb 3.090824 -9.256661 -6.181647
Pb 3.090824 -12.347484 -3.090824
Pb 0.000000 -9.256661 -3.090824
Pb 0.000000 -12.347484 -0.000000
Pb 3.090824 -9.256661 -0.000000
Pb 3.090824 -12.347484 3.090824
Pb 0.000000 -9.256661 3.090824
Pb 3.090824 -9.256661 6.181647
Pb 0.000000 -9.256661 9.272471
Pb 3.090824 -3.075014 -12.363294
Pb 3.090824 -6.165837 -9.272471
Pb 0.000000 -3.075014 -9.272471
Pb 0.000000 -6.165837 -6.181647
Pb 3.090824 -3.075014 -6.181647
Pb 3.090824 -6.165837 -3.090824
Pb 0.000000 -3.075014 -3.090824
Pb 0.000000 -6.165837 -0.000000
Pb 3.090824 -3.075014 0.000000
Pb 3.090824 -6.165837 3.090824
Pb 0.000000 -3.075014 3.090824
Pb 0.000000 -6.165837 6.181647
Pb 3.090824 -3.075014 6.181647
Pb 3.090824 -6.165837 9.272471
Pb 0.000000 -3.075014 9.272471
Pb 3.090824 -3.075014 12.363294
Pb 0.000000 0.015810 -12.363294
Pb 3.090824 3.106633 -12.363294
Pb 3.090824 0.015810 -9.272471
Pb 0.000000 3.106633 -9.272471
Pb 0.000000 0.015810 -6.181647
Pb 3.090824 3.106633 -6.181647
Pb 3.090824 0.015810 -3.090824
Pb 0.000000 3.106633 -3.090824
Pb 0.000000 0.015810 0.000000
Pb 3.090824 3.106633 0.000000
Pb 3.090824 0.015810 3.090824
Pb 0.000000 3.106633 3.090824
Pb 0.000000 0.015810 6.181647
Pb 3.090824 3.106633 6.181647
Pb 3.090824 0.015810 9.272471
Pb 0.000000 3.106633 9.272471
Pb 0.000000 0.015810 12.363294
Pb 3.090824 3.106633 12.363294
Pb 3.090824 6.197457 -9.272471
Pb 0.000000 9.288280 -9.272471
Pb 0.000000 6.197457 -6.181647
Pb 3.090824 9.288280 -6.181647
Pb 3.090824 6.197457 -3.090824
Pb 0.000000 9.288280 -3.090824
Pb 0.000000 6.197457 0.000000
Pb 3.090824 9.288280 0.000000
Pb 3.090824 6.197457 3.090824
Pb 0.000000 9.288280 3.090824
Pb 0.000000 6.197457 6.181647
Pb 3.090824 9.288280 6.181647
Pb 3.090824 6.197457 9.272471
Pb 0.000000 9.288280 9.272471
Pb 3.090824 12.379104 -3.090824
Pb 0.000000 12.379104 0.000000
Pb 3.090824 12.379104 3.090824
Pb 6.181647 -9.256661 -3.090824
Pb 9.272471 -9.256661 0.000000
Pb 6.181647 -9.256661 3.090824
Pb 6.181647 -3.075014 -9.272471
Pb 6.181647 -6.165837 -6.181647
Pb 9.272471 -3.075014 -6.181647
Pb 9.272471 -6.165837 -3.090824
Pb 6.181647 -3.075014 -3.090824
Pb 6.181647 -6.165837 0.000000
Pb 9.272471 -3.075014 0.000000
Pb 9.272471 -6.165837 3.090824
Pb 6.181647 -3.075014 3.090824
Pb 6.181647 -6.165837 6.181647
Pb 9.272471 -3.075014 6.181647
Pb 6.181647 -3.075014 9.272471
Pb 9.272471 0.015810 -9.272471
Pb 6.181647 3.106633 -9.272471
Pb 6.181647 0.015810 -6.181647
Pb 9.272471 3.106633 -6.181647
Pb 9.272471 0.015810 -3.090824
Pb 6.181647 3.106633 -3.090824
Pb 6.181647 0.015810 0.000000
Pb 9.272471 3.106633 0.000000
Pb 9.272471 0.015810 3.090824
Pb 6.181647 3.106633 3.090824
Pb 6.181647 0.015810 6.181647
Pb 9.272471 3.106633 6.181647
Pb 9.272471 0.015810 9.272471
Pb 6.181647 3.106633 9.272471
Pb 6.181647 6.197457 -6.181647
Pb 9.272471 6.197457 -3.090824
Pb 6.181647 9.288280 -3.090824
Pb 6.181647 6.197457 0.000000
Pb 9.272471 9.288280 0.000000
Pb 9.272471 6.197457 3.090824
Pb 6.181647 9.288280 3.090824
Pb 6.181647 6.197457 6.181647
Pb 12.363294 -3.075014 -3.090824
Pb 12.363294 -3.075014 3.090824
Pb 12.363294 3.106633 -3.090824
Pb 12.363294 0.015810 0.000000
Pb 12.363294 3.106633 3.090824
Se -9.272471 -3.075014 -3.090824
Se -9.272471 -6.165837 -0.000000
Se -12.363294 -3.075014 -0.000000
Se -9.272471 -3.075014 3.090824
Se -12.363294 0.015810 -3.090824
Se -9.272471 0.015810 -6.181647
Se -9.272471 3.106633 -3.090824
Se -12.363294 0.015810 3.090824
Se -9.272471 0.015810 -0.000000
Se -12.363294 3.106633 -0.000000
Se -9.272471 3.106633 3.090824
Se -9.272471 0.015810 6.181647
Se -9.272471 6.197457 0.000000
Se -3.090824 -9.256661 -3.090824
Se -3.090824 -12.347484 -0.000000
Se -6.181647 -9.256661 -0.000000
Se -3.090824 -9.256661 3.090824
Se -3.090824 -3.075014 -9.272471
Se -6.181647 -6.165837 -3.090824
Se -3.090824 -6.165837 -6.181647
Se -6.181647 -3.075014 -6.181647
Se -3.090824 -3.075014 -3.090824
Se -6.181647 -6.165837 3.090824
Se -3.090824 -6.165837 -0.000000
Se -6.181647 -3.075014 -0.000000
Se -3.090824 -3.075014 3.090824
Se -3.090824 -6.165837 6.181647
Se -6.181647 -3.075014 6.181647
Se -3.090824 -3.075014 9.272471
Se -6.181647 0.015810 -9.272471
Se -3.090824 0.015810 -12.363294
Se -3.090824 3.106633 -9.272471
Se -6.181647 0.015810 -3.090824
Se -3.090824 0.015810 -6.181647
Se -6.181647 3.106633 -6.181647
Se -3.090824 3.106633 -3.090824
Se -6.181647 0.015810 3.090824
Se -3.090824 0.015810 0.000000
Se -6.181647 3.106633 0.000000
Se -3.090824 3.106633 3.090824
Se -6.181647 0.015810 9.272471
Se -3.090824 0.015810 6.181647
Se -6.181647 3.106633 6.181647
Se -3.090824 3.106633 9.272471
Se -3.090824 0.015810 12.363294
Se -6.181647 6.197457 -3.090824
Se -3.090824 6.197457 -6.181647
Se -3.090824 9.288280 -3.090824
Se -6.181647 6.197457 3.090824
Se -3.090824 6.197457 0.000000
Se -6.181647 9.288280 0.000000
Se -3.090824 9.288280 3.090824
Se -3.090824 6.197457 6.181647
Se -3.090824 12.379104 0.000000
Se 0.000000 -12.347484 -3.090824
Se 0.000000 -9.256661 -6.181647
Se 3.090824 -9.256661 -3.090824
Se 0.000000 -12.347484 3.090824
Se 3.090824 -12.347484 -0.000000
Se 0.000000 -9.256661 -0.000000
Se 3.090824 -9.256661 3.090824
Se 0.000000 -9.256661 6.181647
Se 0.000000 -6.165837 -9.272471
Se 0.000000 -3.075014 -12.363294
Se 3.090824 -3.075014 -9.272471
Se 0.000000 -6.165837 -3.090824
Se 3.090824 -6.165837 -6.181647
Se 0.000000 -3.075014 -6.181647
Se 3.090824 -3.075014 -3.090824
Se 0.000000 -6.165837 3.090824
Se 3.090824 -6.165837 0.000000
Se 0.000000 -3.075014 0.000000
Se 3.090824 -3.075014 3.090824
Se 0.000000 -6.165837 9.272471
Se 3.090824 -6.165837 6.181647
Se 0.000000 -3.075014 6.181647
Se 3.090824 -3.075014 9.272471
Se 0.000000 -3.075014 12.363294
Se 0.000000 0.015810 -9.272471
Se 3.090824 0.015810 -12.363294
Se 0.000000 3.106633 -12.363294
Se 3.090824 3.106633 -9.272471
Se 0.000000 0.015810 -3.090824
Se 3.090824 0.015810 -6.181647
Se 0.000000 3.106633 -6.181647
Se 3.090824 3.106633 -3.090824
Se 0.000000 0.015810 3.090824
Se 3.090824 0.015810 0.000000
Se 0.000000 3.106633 0.000000
Se 3.090824 3.106633 3.090824
Se 0.000000 0.015810 9.272471
Se 3.090824 0.015810 6.181647
Se 0.000000 3.106633 6.181647
Se 3.090824 3.106633 9.272471
Se 3.090824 0.015810 12.363294
Se 0.000000 3.106633 12.363294
Se 0.000000 6.197457 -9.272471
Se 0.000000 6.197457 -3.090824
Se 3.090824 6.197457 -6.181647
Se 0.000000 9.288280 -6.181647
Se 3.090824 9.288280 -3.090824
Se 0.000000 6.197457 3.090824
Se 3.090824 6.197457 0.000000
Se 0.000000 9.288280 0.000000
Se 3.090824 9.288280 3.090824
Se 0.000000 6.197457 9.272471
Se 3.090824 6.197457 6.181647
Se 0.000000 9.288280 6.181647
Se 0.000000 12.379104 -3.090824
Se 0.000000 12.379104 3.090824
Se 3.090824 12.379104 0.000000
Se 6.181647 -9.256661 0.000000
Se 6.181647 -6.165837 -3.090824
Se 6.181647 -3.075014 -6.181647
Se 9.272471 -3.075014 -3.090824
Se 6.181647 -6.165837 3.090824
Se 9.272471 -6.165837 0.000000
Se 6.181647 -3.075014 0.000000
Se 9.272471 -3.075014 3.090824
Se 6.181647 -3.075014 6.181647
Se 6.181647 0.015810 -9.272471
Se 6.181647 0.015810 -3.090824
Se 9.272471 0.015810 -6.181647
Se 6.181647 3.106633 -6.181647
Se 9.272471 3.106633 -3.090824
Se 6.181647 0.015810 3.090824
Se 9.272471 0.015810 0.000000
Se 6.181647 3.106633 0.000000
Se 9.272471 3.106633 3.090824
Se 6.181647 0.015810 9.272471
Se 9.272471 0.015810 6.181647
Se 6.181647 3.106633 6.181647
Se 6.181647 6.197457 -3.090824
Se 6.181647 6.197457 3.090824
Se 9.272471 6.197457 0.000000
Se 6.181647 9.288280 0.000000
Se 12.363294 -3.075014 0.000000
Se 12.363294 0.015810 -3.090824
Se 12.363294 0.015810 3.090824
Se 12.363294 3.106633 0.000000
Cl -12.363294 -9.256661 -0.000000
Cl 12.363294 9.288280 0.000000
Cl -9.272471 12.379104 0.000000
Cl 9.272471 -12.347484 0.000000
Cl -9.272471 0.015810 12.363294
Cl 0.000000 9.288280 -12.363294
Cl 0.000000 -9.256661 -12.363294
Cl 0.000000 9.288280 12.363294
Cl 0.000000 -12.347484 9.272471
Cl 12.363294 0.015810 -9.272471
Cl -12.363294 0.015810 -9.272471
Cl 12.363294 0.015810 9.272471
Cl 6.181647 -6.165837 9.272471
Cl -6.181647 6.197457 -9.272471
Cl -6.181647 6.197457 9.272471
Cl 6.181647 -6.165837 -9.272471
Cl -9.272471 6.197457 -6.181647
Cl 6.181647 -9.256661 6.181647
Cl 6.181647 9.288280 -6.181647
Cl -9.272471 -6.165837 6.181647
Cl -9.272471 6.197457 6.181647
Cl 9.272471 -6.165837 -6.181647
Cl -6.181647 9.288280 -6.181647
Cl 9.272471 -6.165837 6.181647
Cl -6.181647 -9.256661 -6.181647
Cl 6.181647 9.288280 6.181647
Cl -6.181647 -9.256661 6.181647
Cl 9.272471 6.197457 -6.181647
Cl -6.181647 9.288280 6.181647
Cl 6.181647 -9.256661 -6.181647
Cl -6.181647 -6.165837 -9.272471
Cl 6.181647 6.197457 9.272471
Cl -6.181647 -6.165837 9.272471
Cl 6.181647 6.197457 -9.272471
Cl -9.272471 -6.165837 -6.181647
Cl 9.272471 6.197457 6.181647
Cl -12.363294 3.106633 -6.181647
Cl 3.090824 -12.347484 6.181647
Cl -6.181647 3.106633 12.363294
Cl 6.181647 -3.075014 -12.363294
Cl -3.090824 12.379104 -6.181647
Cl 12.363294 -3.075014 6.181647
Cl -12.363294 -6.165837 3.090824
Cl 6.181647 12.379104 -3.090824
Cl -12.363294 3.106633 6.181647
Cl -6.181647 3.106633 -12.363294
Cl 3.090824 -12.347484 -6.181647
Cl 3.090824 -6.165837 12.363294
Cl -3.090824 12.379104 6.181647
Cl 12.363294 -3.075014 -6.181647
Cl -3.090824 -12.347484 -6.181647
Cl 3.090824 12.379104 6.181647
Cl -6.181647 -12.347484 3.090824
Cl 12.363294 6.197457 -3.090824
Cl -6.181647 -3.075014 -12.363294
Cl 6.181647 3.106633 12.363294
Cl -3.090824 -6.165837 12.363294
Cl 6.181647 3.106633 -12.363294
Cl -12.363294 -6.165837 -3.090824
Cl 12.363294 6.197457 3.090824
Cl -12.363294 9.288280 0.000000
Cl 12.363294 -9.256661 0.000000
Cl -12.363294 0.015810 9.272471
Cl 0.000000 12.379104 -9.272471
Cl -9.272471 -12.347484 -0.000000
Cl 9.272471 12.379104 0.000000
Cl 0.000000 -9.256661 12.363294
Cl 9.272471 0.015810 -12.363294
Cl -9.272471 0.015810 -12.363294
Cl 0.000000 12.379104 9.272471
Cl 0.000000 -12.347484 -9.272471
Cl 9.272471 0.015810 12.363294
Cl -9.272471 9.288280 -3.090824
Cl 9.272471 -9.256661 3.090824
