374
CdSe-Cd-Cd175Se151Cl48-reconstructed
Cd -13.003394 -0.254947 -6.707119
Cd -13.003394 -0.254947 0.382721
Cd -13.003394 -0.254947 7.472561
Cd -4.311223 -10.291801 -10.252039
Cd -4.311223 -10.291801 -3.162199
Cd -2.138181 -11.546408 -6.707119
Cd -4.311223 -10.291801 3.927641
Cd -2.138181 -11.546408 0.382721
Cd -2.138181 -11.546408 7.472561
Cd -6.484266 -6.527981 -10.252039
Cd -6.484266 -6.527981 -3.162199
Cd -4.311223 -7.782588 -6.707119
Cd -6.484266 -6.527981 3.927641
Cd -4.311223 -7.782588 0.382721
Cd -4.311223 -7.782588 7.472561
Cd -8.657309 -2.764161 -10.252039
Cd -8.657309 -2.764161 -3.162199
Cd -6.484266 -4.018767 -6.707119
Cd -8.657309 -2.764161 3.927641
Cd -6.484266 -4.018767 0.382721
Cd -6.484266 -4.018767 7.472561
Cd -10.830351 0.999660 -10.252039
Cd -10.830351 0.999660 -3.162199
Cd -8.657309 -0.254947 -6.707119
Cd -10.830351 0.999660 3.927641
Cd -8.657309 -0.254947 0.382721
Cd -10.830351 0.999660 11.017481
Cd -8.657309 -0.254947 7.472561
Cd -10.830351 3.508873 -6.707119
Cd -10.830351 3.508873 0.382721
Cd -10.830351 3.508873 7.472561
Cd 0.034862 -10.291801 -10.252039
Cd 0.034862 -10.291801 -3.162199
Cd 2.207905 -11.546408 -6.707119
Cd 0.034862 -10.291801 3.927641
Cd 2.207905 -11.546408 0.382721
Cd 2.207905 -11.546408 7.472561
Cd -2.138181 -6.527981 -3.162199
Cd 0.034862 -7.782588 -6.707119
Cd -2.138181 -6.527981 3.927641
Cd 0.034862 -7.782588 0.382721
Cd -2.138181 -6.527981 11.017481
Cd 0.034862 -7.782588 7.472561
Cd -4.311223 -2.764161 -10.252039
Cd -4.311223 -2.764161 -3.162199
Cd -2.138181 -4.018767 -6.707119
Cd -4.311223 -2.764161 3.927641
Cd -2.138181 -4.018767 0.382721
Cd -4.311223 -2.764161 11.017481
Cd -2.138181 -4.018767 7.472561
Cd -6.484266 0.999660 -10.252039
Cd -6.484266 0.999660 -3.162199
Cd -4.311223 -0.254947 -6.707119
Cd -6.484266 0.999660 3.927641
Cd -4.311223 -0.254947 0.382721
Cd -6.484266 0.999660 11.017481
Cd -4.311223 -0.254947 7.472561
Cd -8.657309 4.763480 -10.252039
Cd -8.657309 4.763480 -3.162199
Cd -6.484266 3.508873 -6.707119
Cd -8.657309 4.763480 3.927641
Cd -6.484266 3.508873 0.382721
Cd -8.657309 4.763480 11.017481
Cd -6.484266 3.508873 7.472561
Cd -8.657309 7.272694 -6.707119
Cd -8.657309 7.272694 0.382721
Cd -8.657309 7.272694 7.472561
Cd 4.380947 -10.291801 -10.252039
Cd 4.380947 -10.291801 -3.162199
Cd 4.380947 -10.291801 3.927641
Cd 2.207905 -6.527981 -10.252039
Cd 2.207905 -6.527981 -3.162199
Cd 4.380947 -7.782588 -6.707119
Cd 2.207905 -6.527981 3.927641
Cd 4.380947 -7.782588 0.382721
Cd 2.207905 -6.527981 11.017481
Cd 4.380947 -7.782588 7.472561
Cd 0.034862 -2.764161 -10.252039
Cd 0.034862 -2.764161 -3.162199
Cd 2.207905 -4.018767 -6.707119
Cd 0.034862 -2.764161 3.927641
Cd 2.207905 -4.018767 0.382721
Cd 2.207905 -4.018767 7.472561
Cd -2.138181 0.999660 -3.162199
Cd 0.034862 -0.254947 -6.707119
Cd -2.138181 0.999660 3.927641
Cd 0.034862 -0.254947 0.382721
Cd -2.138181 0.999660 11.017481
Cd 0.034862 -0.254947 7.472561
Cd -4.311223 4.763480 -10.252039
Cd -4.311223 4.763480 -3.162199
Cd -2.138181 3.508873 -6.707119
Cd -4.311223 4.763480 3.927641
Cd -2.138181 3.508873 0.382721
Cd -2.138181 3.508873 7.472561
Cd -6.484266 8.527300 -10.252039
Cd -6.484266 8.527300 -3.162199
Cd -4.311223 7.272694 -6.707119
Cd -6.484266 8.527300 3.927641
Cd -4.311223 7.272694 0.382721
Cd -6.484266 8.527300 11.017481
Cd -4.311223 7.272694 7.472561
Cd 6.553990 -6.527981 -10.252039
Cd 6.553990 -6.527981 -3.162199
Cd 6.553990 -6.527981 3.927641
Cd 4.380947 -2.764161 -3.162199
Cd 6.553990 -4.018767 -6.707119
Cd 4.380947 -2.764161 3.927641
Cd 6.553990 -4.018767 0.382721
Cd 4.380947 -2.764161 11.017481
Cd 6.553990 -4.018767 7.472561
Cd 2.207905 0.999660 -10.252039
Cd 2.207905 0.999660 -3.162199
Cd 4.380947 -0.254947 -6.707119
Cd 2.207905 0.999660 3.927641
Cd 4.380947 -0.254947 0.382721
Cd 2.207905 0.999660 11.017481
Cd 4.380947 -0.254947 7.472561
Cd 0.034862 4.763480 -10.252039
Cd 0.034862 4.763480 -3.162199
Cd 2.207905 3.508873 -6.707119
Cd 0.034862 4.763480 3.927641
Cd 2.207905 3.508873 0.382721
Cd 0.034862 4.763480 11.017481
Cd 2.207905 3.508873 7.472561
Cd -2.138181 8.527300 -10.252039
Cd -2.138181 8.527300 -3.162199
Cd 0.034862 7.272694 -6.707119
Cd -2.138181 8.527300 3.927641
Cd 0.034862 7.272694 0.382721
Cd -2.138181 8.527300 11.017481
Cd 0.034862 7.272694 7.472561
Cd 8.727033 -2.764161 -10.252039
Cd 8.727033 -2.764161 -3.162199
Cd 8.727033 -2.764161 3.927641
Cd 6.553990 0.999660 -10.252039
Cd 6.553990 0.999660 -3.162199
Cd 8.727033 -0.254947 -6.707119
Cd 6.553990 0.999660 3.927641
Cd 8.727033 -0.254947 0.382721
Cd 6.553990 0.999660 11.017481
Cd 8.727033 -0.254947 7.472561
Cd 4.380947 4.763480 -3.162199
Cd 6.553990 3.508873 -6.707119
Cd 4.380947 4.763480 3.927641
Cd 6.553990 3.508873 0.382721
Cd 6.553990 3.508873 7.472561
Cd 2.207905 8.527300 -10.252039
Cd 2.207905 8.527300 -3.162199
Cd 4.380947 7.272694 -6.707119
Cd 2.207905 8.527300 3.927641
Cd 4.380947 7.272694 0.382721
Cd 2.207905 8.527300 11.017481
Cd 4.380947 7.272694 7.472561
Cd 10.900075 0.999660 -10.252039
Cd 10.900075 0.999660 -3.162199
Cd 13.073118 -0.254947 -6.707119
Cd 10.900075 0.999660 3.927641
Cd 13.073118 -0.254947 0.382721
Cd 10.900075 0.999660 11.017481
Cd 13.073118 -0.254947 7.472561
Cd 8.727033 4.763480 -10.252039
Cd 8.727033 4.763480 -3.162199
Cd 10.900075 3.508873 -6.707119
Cd 8.727033 4.763480 3.927641
Cd 10.900075 3.508873 0.382721
Cd 8.727033 4.763480 11.017481
Cd 10.900075 3.508873 7.472561
Cd 6.553990 8.527300 -10.252039
Cd 6.553990 8.527300 -3.162199
Cd 8.727033 7.272694 -6.707119
Cd 6.553990 8.527300 3.927641
Cd 8.727033 7.272694 0.382721
Cd 6.553990 8.527300 11.017481
Cd 8.727033 7.272694 7.472561
Se -4.311223 -10.291801 -7.586590
Se -2.138181 -11.546408 -4.041670
Se -4.311223 -10.291801 -0.496750
Se -2.138181 -11.546408 3.048170
Se -4.311223 -10.291801 6.593089
Se -6.484266 -6.527981 -7.586590
Se -4.311223 -7.782588 -4.041670
Se -6.484266 -6.527981 -0.496750
Se -4.311223 -7.782588 3.048170
Se -6.484266 -6.527981 6.593089
Se -8.657309 -2.764161 -7.586590
Se -6.484266 -4.018767 -4.041670
Se -8.657309 -2.764161 -0.496750
Se -6.484266 -4.018767 3.048170
Se -8.657309 -2.764161 6.593089
Se -10.830351 0.999660 -7.586590
Se -8.657309 -0.254947 -4.041670
Se -10.830351 0.999660 -0.496750
Se -8.657309 -0.254947 3.048170
Se -10.830351 0.999660 6.593089
Se -8.657309 -0.254947 10.138009
Se -10.830351 3.508873 -4.041670
Se -10.830351 3.508873 3.048170
Se -10.830351 3.508873 10.138009
Se 0.034862 -10.291801 -7.586590
Se 2.207905 -11.546408 -4.041670
Se 0.034862 -10.291801 -0.496750
Se 2.207905 -11.546408 3.048170
Se 0.034862 -10.291801 6.593089
Se -2.138181 -6.527981 -7.586590
Se 0.034862 -7.782588 -4.041670
Se -2.138181 -6.527981 -0.496750
Se 0.034862 -7.782588 3.048170
Se -2.138181 -6.527981 6.593089
Se 0.034862 -7.782588 10.138009
Se -4.311223 -2.764161 -7.586590
Se -2.138181 -4.018767 -4.041670
Se -4.311223 -2.764161 -0.496750
Se -2.138181 -4.018767 3.048170
Se -4.311223 -2.764161 6.593089
Se -2.138181 -4.018767 10.138009
Se -6.484266 0.999660 -7.586590
Se -4.311223 -0.254947 -4.041670
Se -6.484266 0.999660 -0.496750
Se -4.311223 -0.254947 3.048170
Se -6.484266 0.999660 6.593089
Se -4.311223 -0.254947 10.138009
Se -6.484266 3.508873 -11.131510
Se -8.657309 4.763480 -7.586590
Se -6.484266 3.508873 -4.041670
Se -8.657309 4.763480 -0.496750
Se -6.484266 3.508873 3.048170
Se -8.657309 4.763480 6.593089
Se -6.484266 3.508873 10.138009
Se -8.657309 7.272694 -4.041670
Se -8.657309 7.272694 3.048170
Se -8.657309 7.272694 10.138009
Se 4.380947 -10.291801 -7.586590
Se 4.380947 -10.291801 -0.496750
Se 4.380947 -10.291801 6.593089
Se 2.207905 -6.527981 -7.586590
Se 4.380947 -7.782588 -4.041670
Se 2.207905 -6.527981 -0.496750
Se 4.380947 -7.782588 3.048170
Se 2.207905 -6.527981 6.593089
Se 0.034862 -2.764161 -7.586590
Se 2.207905 -4.018767 -4.041670
Se 0.034862 -2.764161 -0.496750
Se 2.207905 -4.018767 3.048170
Se 0.034862 -2.764161 6.593089
Se 2.207905 -4.018767 10.138009
Se -2.138181 0.999660 -7.586590
Se 0.034862 -0.254947 -4.041670
Se -2.138181 0.999660 -0.496750
Se 0.034862 -0.254947 3.048170
Se -2.138181 0.999660 6.593089
Se 0.034862 -0.254947 10.138009
Se -4.311223 4.763480 -7.586590
Se -2.138181 3.508873 -4.041670
Se -4.311223 4.763480 -0.496750
Se -2.138181 3.508873 3.048170
Se -4.311223 4.763480 6.593089
Se -2.138181 3.508873 10.138009
Se -6.484266 8.527300 -7.586590
Se -4.311223 7.272694 -4.041670
Se -6.484266 8.527300 -0.496750
Se -4.311223 7.272694 3.048170
Se -6.484266 8.527300 6.593089
Se -4.311223 7.272694 10.138009
Se 6.553990 -6.527981 -7.586590
Se 6.553990 -6.527981 -0.496750
Se 6.553990 -6.527981 6.593089
Se 4.380947 -2.764161 -7.586590
Se 6.553990 -4.018767 -4.041670
Se 4.380947 -2.764161 -0.496750
Se 6.553990 -4.018767 3.048170
Se 4.380947 -2.764161 6.593089
Se 2.207905 0.999660 -7.586590
Se 4.380947 -0.254947 -4.041670
Se 2.207905 0.999660 -0.496750
Se 4.380947 -0.254947 3.048170
Se 2.207905 0.999660 6.593089
Se 4.380947 -0.254947 10.138009
Se 0.034862 4.763480 -7.586590
Se 2.207905 3.508873 -4.041670
Se 0.034862 4.763480 -0.496750
Se 2.207905 3.508873 3.048170
Se 0.034862 4.763480 6.593089
Se 2.207905 3.508873 10.138009
Se -2.138181 8.527300 -7.586590
Se 0.034862 7.272694 -4.041670
Se -2.138181 8.527300 -0.496750
Se 0.034862 7.272694 3.048170
Se -2.138181 8.527300 6.593089
Se 0.034862 7.272694 10.138009
Se 8.727033 -2.764161 -7.586590
Se 8.727033 -2.764161 -0.496750
Se 8.727033 -2.764161 6.593089
Se 6.553990 0.999660 -7.586590
Se 8.727033 -0.254947 -4.041670
Se 6.553990 0.999660 -0.496750
Se 8.727033 -0.254947 3.048170
Se 6.553990 0.999660 6.593089
Se 8.727033 -0.254947 10.138009
Se 4.380947 4.763480 -7.586590
Se 6.553990 3.508873 -4.041670
Se 4.380947 4.763480 -0.496750
Se 6.553990 3.508873 3.048170
Se 4.380947 4.763480 6.593089
Se 6.553990 3.508873 10.138009
Se 2.207905 8.527300 -7.586590
Se 4.380947 7.272694 -4.041670
Se 2.207905 8.527300 -0.496750
Se 4.380947 7.272694 3.048170
Se 2.207905 8.527300 6.593089
Se 4.380947 7.272694 10.138009
Se 10.900075 0.999660 -7.586590
Se 10.900075 0.999660 -0.496750
Se 10.900075 0.999660 6.593089
Se 8.727033 4.763480 -7.586590
Se 10.900075 3.508873 -4.041670
Se 8.727033 4.763480 -0.496750
Se 10.900075 3.508873 3.048170
Se 8.727033 4.763480 6.593089
Se 10.900075 3.508873 10.138009
Se 6.553990 8.527300 -7.586590
Se 8.727033 7.272694 -4.041670
Se 6.553990 8.527300 -0.496750
Se 8.727033 7.272694 3.048170
Se 6.553990 8.527300 6.593089
Se 8.727033 7.272694 10.138009
Cl -13.003394 -0.254947 -4.041670
Cl -13.003394 -0.254947 3.048170
Cl -13.003394 -0.254947 10.138009
Cl -2.138181 -11.546408 -11.131510
Cl -2.138181 -11.546408 10.138009
Cl -4.311223 -7.782588 -11.131510
Cl -4.311223 -7.782588 10.138009
Cl -6.484266 -4.018767 -11.131510
Cl -6.484266 -4.018767 10.138009
Cl -8.657309 -0.254947 -11.131510
Cl -10.830351 3.508873 -11.131510
Cl 2.207905 -11.546408 -11.131510
Cl 2.207905 -11.546408 10.138009
Cl 0.034862 -7.782588 -11.131510
Cl -2.138181 -4.018767 -11.131510
Cl -4.311223 -0.254947 -11.131510
Cl -8.657309 7.272694 -11.131510
Cl 4.380947 -7.782588 -11.131510
Cl 4.380947 -7.782588 10.138009
Cl 2.207905 -4.018767 -11.131510
Cl 0.034862 -0.254947 -11.131510
Cl -2.138181 3.508873 -11.131510
Cl -4.311223 7.272694 -11.131510
Cl 6.553990 -4.018767 -11.131510
Cl 6.553990 -4.018767 10.138009
Cl 4.380947 -0.254947 -11.131510
Cl 2.207905 3.508873 -11.131510
Cl 0.034862 7.272694 -11.131510
Cl 8.727033 -0.254947 -11.131510
Cl 6.553990 3.508873 -11.131510
Cl 4.380947 7.272694 -11.131510
Cl 13.073118 -0.254947 -4.041670
Cl 13.073118 -0.254947 3.048170
Cl 13.073118 -0.254947 10.138009
Cl 10.900075 3.508873 -11.131510
Cl 8.727033 7.272694 -11.131510
Cl -2.138181 11.036514 10.138009
Cl 6.553990 8.527300 13.682929
Cl -15.176437 0.999660 -7.586590
Cl 15.246161 0.999660 -7.586590
Cl -15.176437 0.999660 6.593089
Cl 15.246161 0.999660 6.593089
Cl -6.484266 8.527300 13.682929
Cl 2.207905 11.036514 10.138009
Cl -15.176437 0.999660 -0.496750
Cl 15.246161 0.999660 -0.496750
Cl 0.034862 2.254267 11.896952
Cl -8.657309 2.254267 11.896952
