6096
CdTe-Cd-Cd2892Te2580Cl624-reconstructed
Cd -29.531484 -22.966719 -0.008076
Cd -29.531484 -26.248832 3.274037
Cd -32.813598 -22.966719 3.274037
Cd -29.531484 -22.966719 6.556151
Cd -29.531484 -19.684605 -3.290190
Cd -32.813598 -16.402492 -3.290190
Cd -32.813598 -19.684605 -0.008076
Cd -29.531484 -16.402492 -0.008076
Cd -29.531484 -19.684605 3.274037
Cd -32.813598 -16.402492 3.274037
Cd -32.813598 -19.684605 6.556151
Cd -29.531484 -16.402492 6.556151
Cd -32.813598 -16.402492 9.838265
Cd -29.531484 -16.402492 13.120378
Cd -29.531484 -9.838265 -13.136530
Cd -29.531484 -13.120378 -9.854417
Cd -32.813598 -9.838265 -9.854417
Cd -32.813598 -13.120378 -6.572303
Cd -29.531484 -9.838265 -6.572303
Cd -29.531484 -13.120378 -3.290190
Cd -32.813598 -9.838265 -3.290190
Cd -32.813598 -13.120378 -0.008076
Cd -29.531484 -9.838265 -0.008076
Cd -29.531484 -13.120378 3.274037
Cd -32.813598 -9.838265 3.274037
Cd -32.813598 -13.120378 6.556151
Cd -29.531484 -9.838265 6.556151
Cd -29.531484 -13.120378 9.838265
Cd -32.813598 -9.838265 9.838265
Cd -32.813598 -13.120378 13.120378
Cd -29.531484 -9.838265 13.120378
Cd -29.531484 -13.120378 16.402492
Cd -32.813598 -9.838265 16.402492
Cd -29.531484 -3.274037 -19.700757
Cd -32.813598 -3.274037 -16.418644
Cd -32.813598 -6.556151 -13.136530
Cd -29.531484 -3.274037 -13.136530
Cd -29.531484 -6.556151 -9.854417
Cd -32.813598 -3.274037 -9.854417
Cd -32.813598 -6.556151 -6.572303
Cd -29.531484 -3.274037 -6.572303
Cd -29.531484 -6.556151 -3.290190
Cd -32.813598 -3.274037 -3.290190
Cd -32.813598 -6.556151 -0.008076
Cd -29.531484 -3.274037 -0.008076
Cd -29.531484 -6.556151 3.274037
Cd -32.813598 -3.274037 3.274037
Cd -32.813598 -6.556151 6.556151
Cd -29.531484 -3.274037 6.556151
Cd -29.531484 -6.556151 9.838265
Cd -32.813598 -3.274037 9.838265
Cd -32.813598 -6.556151 13.120378
Cd -29.531484 -3.274037 13.120378
Cd -29.531484 -6.556151 16.402492
Cd -32.813598 -3.274037 16.402492
Cd -32.813598 -6.556151 19.684605
Cd -29.531484 -3.274037 19.684605
Cd -29.531484 -6.556151 22.966719
Cd -32.813598 -3.274037 22.966719
Cd -29.531484 -3.274037 26.248832
Cd -29.531484 3.290190 -26.264985
Cd -29.531484 0.008076 -22.982871
Cd -32.813598 3.290190 -22.982871
Cd -32.813598 0.008076 -19.700757
Cd -29.531484 3.290190 -19.700757
Cd -29.531484 0.008076 -16.418644
Cd -32.813598 3.290190 -16.418644
Cd -32.813598 0.008076 -13.136530
Cd -29.531484 3.290190 -13.136530
Cd -29.531484 0.008076 -9.854417
Cd -32.813598 3.290190 -9.854417
Cd -32.813598 0.008076 -6.572303
Cd -29.531484 3.290190 -6.572303
Cd -29.531484 0.008076 -3.290190
Cd -32.813598 3.290190 -3.290190
Cd -32.813598 0.008076 -0.008076
Cd -29.531484 3.290190 -0.008076
Cd -29.531484 0.008076 3.274037
Cd -32.813598 3.290190 3.274037
Cd -32.813598 0.008076 6.556151
Cd -29.531484 3.290190 6.556151
Cd -29.531484 0.008076 9.838265
Cd -32.813598 3.290190 9.838265
Cd -32.813598 0.008076 13.120378
Cd -29.531484 3.290190 13.120378
Cd -29.531484 0.008076 16.402492
Cd -32.813598 3.290190 16.402492
Cd -32.813598 0.008076 19.684605
Cd -29.531484 3.290190 19.684605
Cd -29.531484 0.008076 22.966719
Cd -29.531484 6.572303 -22.982871
Cd -32.813598 6.572303 -19.700757
Cd -29.531484 6.572303 -16.418644
Cd -32.813598 9.854417 -16.418644
Cd -32.813598 6.572303 -13.136530
Cd -29.531484 9.854417 -13.136530
Cd -29.531484 6.572303 -9.854417
Cd -32.813598 9.854417 -9.854417
Cd -32.813598 6.572303 -6.572303
Cd -29.531484 9.854417 -6.572303
Cd -29.531484 6.572303 -3.290190
Cd -32.813598 9.854417 -3.290190
Cd -32.813598 6.572303 -0.008076
Cd -29.531484 9.854417 -0.008076
Cd -29.531484 6.572303 3.274037
Cd -32.813598 9.854417 3.274037
Cd -32.813598 6.572303 6.556151
Cd -29.531484 9.854417 6.556151
Cd -29.531484 6.572303 9.838265
Cd -32.813598 9.854417 9.838265
Cd -32.813598 6.572303 13.120378
Cd -29.531484 9.854417 13.120378
Cd -29.531484 13.136530 -16.418644
Cd -32.813598 13.136530 -13.136530
Cd -29.531484 16.418644 -13.136530
Cd -29.531484 13.136530 -9.854417
Cd -32.813598 16.418644 -9.854417
Cd -32.813598 13.136530 -6.572303
Cd -29.531484 16.418644 -6.572303
Cd -29.531484 13.136530 -3.290190
Cd -32.813598 16.418644 -3.290190
Cd -32.813598 13.136530 -0.008076
Cd -29.531484 16.418644 -0.008076
Cd -29.531484 13.136530 3.274037
Cd -32.813598 16.418644 3.274037
Cd -32.813598 13.136530 6.556151
Cd -29.531484 13.136530 9.838265
Cd -32.813598 19.700757 -6.572303
Cd -29.531484 22.982871 -6.572303
Cd -29.531484 19.700757 -3.290190
Cd -32.813598 22.982871 -3.290190
Cd -32.813598 19.700757 -0.008076
Cd -29.531484 22.982871 -0.008076
Cd -29.531484 19.700757 3.274037
Cd -29.531484 26.264985 -3.290190
Cd -22.967257 -29.530946 -0.008076
Cd -22.967257 -32.813059 3.274037
Cd -26.249371 -29.530946 3.274037
Cd -22.967257 -29.530946 6.556151
Cd -22.967257 -22.966719 -6.572303
Cd -22.967257 -26.248832 -3.290190
Cd -26.249371 -26.248832 -0.008076
Cd -22.967257 -22.966719 -0.008076
Cd -22.967257 -26.248832 3.274037
Cd -26.249371 -22.966719 3.274037
Cd -22.967257 -22.966719 6.556151
Cd -22.967257 -26.248832 9.838265
Cd -26.249371 -22.966719 9.838265
Cd -22.967257 -22.966719 13.120378
Cd -22.967257 -16.402492 -13.136530
Cd -26.249371 -16.402492 -9.854417
Cd -26.249371 -19.684605 -6.572303
Cd -22.967257 -16.402492 -6.572303
Cd -22.967257 -19.684605 -3.290190
Cd -26.249371 -16.402492 -3.290190
Cd -26.249371 -19.684605 -0.008076
Cd -22.967257 -16.402492 -0.008076
Cd -22.967257 -19.684605 3.274037
Cd -26.249371 -16.402492 3.274037
Cd -26.249371 -19.684605 6.556151
Cd -22.967257 -16.402492 6.556151
Cd -22.967257 -19.684605 9.838265
Cd -26.249371 -16.402492 9.838265
Cd -26.249371 -19.684605 13.120378
Cd -22.967257 -16.402492 13.120378
Cd -22.967257 -19.684605 16.402492
Cd -22.967257 -16.402492 19.684605
Cd -22.967257 -13.120378 -16.418644
Cd -26.249371 -9.838265 -16.418644
Cd -22.967257 -9.838265 -13.136530
Cd -22.967257 -13.120378 -9.854417
Cd -26.249371 -9.838265 -9.854417
Cd -26.249371 -13.120378 -6.572303
Cd -22.967257 -9.838265 -6.572303
Cd -22.967257 -13.120378 -3.290190
Cd -26.249371 -9.838265 -3.290190
Cd -26.249371 -13.120378 -0.008076
Cd -22.967257 -9.838265 -0.008076
Cd -22.967257 -13.120378 3.274037
Cd -26.249371 -9.838265 3.274037
Cd -26.249371 -13.120378 6.556151
Cd -22.967257 -9.838265 6.556151
Cd -22.967257 -13.120378 9.838265
Cd -26.249371 -9.838265 9.838265
Cd -26.249371 -13.120378 13.120378
Cd -22.967257 -9.838265 13.120378
Cd -22.967257 -13.120378 16.402492
Cd -26.249371 -9.838265 16.402492
Cd -26.249371 -13.120378 19.684605
Cd -22.967257 -9.838265 19.684605
Cd -26.249371 -9.838265 22.966719
Cd -22.967257 -9.838265 26.248832
Cd -22.967257 -3.274037 -26.264985
Cd -22.967257 -6.556151 -22.982871
Cd -26.249371 -6.556151 -19.700757
Cd -22.967257 -3.274037 -19.700757
Cd -22.967257 -6.556151 -16.418644
Cd -26.249371 -3.274037 -16.418644
Cd -26.249371 -6.556151 -13.136530
Cd -22.967257 -3.274037 -13.136530
Cd -22.967257 -6.556151 -9.854417
Cd -26.249371 -3.274037 -9.854417
Cd -26.249371 -6.556151 -6.572303
Cd -22.967257 -3.274037 -6.572303
Cd -22.967257 -6.556151 -3.290190
Cd -26.249371 -3.274037 -3.290190
Cd -26.249371 -6.556151 -0.008076
Cd -22.967257 -3.274037 -0.008076
Cd -22.967257 -6.556151 3.274037
Cd -26.249371 -3.274037 3.274037
Cd -26.249371 -6.556151 6.556151
Cd -22.967257 -3.274037 6.556151
Cd -22.967257 -6.556151 9.838265
Cd -26.249371 -3.274037 9.838265
Cd -26.249371 -6.556151 13.120378
Cd -22.967257 -3.274037 13.120378
Cd -22.967257 -6.556151 16.402492
Cd -26.249371 -3.274037 16.402492
Cd -26.249371 -6.556151 19.684605
Cd -22.967257 -3.274037 19.684605
Cd -22.967257 -6.556151 22.966719
Cd -26.249371 -3.274037 22.966719
Cd -22.967257 -3.274037 26.248832
Cd -22.967257 -6.556151 29.530946
Cd -26.249371 -3.274037 29.530946
Cd -22.967257 -3.274037 32.813059
Cd -22.967257 3.290190 -32.829212
Cd -22.967257 0.008076 -29.547098
Cd -26.249371 3.290190 -29.547098
Cd -26.249371 0.008076 -26.264985
Cd -22.967257 3.290190 -26.264985
Cd -22.967257 0.008076 -22.982871
Cd -26.249371 3.290190 -22.982871
Cd -26.249371 0.008076 -19.700757
Cd -22.967257 3.290190 -19.700757
Cd -22.967257 0.008076 -16.418644
Cd -26.249371 3.290190 -16.418644
Cd -26.249371 0.008076 -13.136530
Cd -22.967257 3.290190 -13.136530
Cd -22.967257 0.008076 -9.854417
Cd -26.249371 3.290190 -9.854417
Cd -26.249371 0.008076 -6.572303
Cd -22.967257 3.290190 -6.572303
Cd -22.967257 0.008076 -3.290190
Cd -26.249371 3.290190 -3.290190
Cd -26.249371 0.008076 -0.008076
Cd -22.967257 3.290190 -0.008076
Cd -22.967257 0.008076 3.274037
Cd -26.249371 3.290190 3.274037
Cd -26.249371 0.008076 6.556151
Cd -22.967257 3.290190 6.556151
Cd -22.967257 0.008076 9.838265
Cd -26.249371 3.290190 9.838265
Cd -26.249371 0.008076 13.120378
Cd -22.967257 3.290190 13.120378
Cd -22.967257 0.008076 16.402492
Cd -26.249371 3.290190 16.402492
Cd -26.249371 0.008076 19.684605
Cd -22.967257 3.290190 19.684605
Cd -22.967257 0.008076 22.966719
Cd -26.249371 0.008076 26.248832
Cd -22.967257 3.290190 26.248832
Cd -22.967257 0.008076 29.530946
Cd -22.967257 6.572303 -29.547098
Cd -22.967257 9.854417 -26.264985
Cd -22.967257 6.572303 -22.982871
Cd -26.249371 9.854417 -22.982871
Cd -26.249371 6.572303 -19.700757
Cd -22.967257 9.854417 -19.700757
Cd -22.967257 6.572303 -16.418644
Cd -26.249371 9.854417 -16.418644
Cd -26.249371 6.572303 -13.136530
Cd -22.967257 9.854417 -13.136530
Cd -22.967257 6.572303 -9.854417
Cd -26.249371 9.854417 -9.854417
Cd -26.249371 6.572303 -6.572303
Cd -22.967257 9.854417 -6.572303
Cd -22.967257 6.572303 -3.290190
Cd -26.249371 9.854417 -3.290190
Cd -26.249371 6.572303 -0.008076
Cd -22.967257 9.854417 -0.008076
Cd -22.967257 6.572303 3.274037
Cd -26.249371 9.854417 3.274037
Cd -26.249371 6.572303 6.556151
Cd -22.967257 9.854417 6.556151
Cd -22.967257 6.572303 9.838265
Cd -26.249371 9.854417 9.838265
Cd -26.249371 6.572303 13.120378
Cd -22.967257 9.854417 13.120378
Cd -22.967257 6.572303 16.402492
Cd -26.249371 9.854417 16.402492
Cd -26.249371 6.572303 19.684605
Cd -22.967257 6.572303 22.966719
Cd -22.967257 13.136530 -22.982871
Cd -26.249371 13.136530 -19.700757
Cd -22.967257 13.136530 -16.418644
Cd -26.249371 16.418644 -16.418644
Cd -26.249371 13.136530 -13.136530
Cd -22.967257 16.418644 -13.136530
Cd -22.967257 13.136530 -9.854417
Cd -26.249371 16.418644 -9.854417
Cd -26.249371 13.136530 -6.572303
Cd -22.967257 16.418644 -6.572303
Cd -22.967257 13.136530 -3.290190
Cd -26.249371 16.418644 -3.290190
Cd -26.249371 13.136530 -0.008076
Cd -22.967257 16.418644 -0.008076
Cd -22.967257 13.136530 3.274037
Cd -26.249371 16.418644 3.274037
Cd -26.249371 13.136530 6.556151
Cd -22.967257 16.418644 6.556151
Cd -22.967257 13.136530 9.838265
Cd -26.249371 16.418644 9.838265
Cd -22.967257 16.418644 13.120378
Cd -22.967257 13.136530 16.402492
Cd -22.967257 19.700757 -16.418644
Cd -26.249371 19.700757 -13.136530
Cd -22.967257 22.982871 -13.136530
Cd -22.967257 19.700757 -9.854417
Cd -26.249371 22.982871 -9.854417
Cd -26.249371 19.700757 -6.572303
Cd -22.967257 22.982871 -6.572303
Cd -22.967257 19.700757 -3.290190
Cd -26.249371 22.982871 -3.290190
Cd -26.249371 19.700757 -0.008076
Cd -22.967257 22.982871 -0.008076
Cd -22.967257 19.700757 3.274037
Cd -26.249371 19.700757 6.556151
Cd -22.967257 22.982871 6.556151
Cd -22.967257 26.264985 -9.854417
Cd -22.967257 29.547098 -6.572303
Cd -22.967257 26.264985 -3.290190
Cd -26.249371 29.547098 -3.290190
Cd -26.249371 26.264985 -0.008076
Cd -22.967257 29.547098 -0.008076
Cd -22.967257 26.264985 3.274037
Cd -22.967257 32.829212 -3.290190
Cd -16.403030 -29.530946 -6.572303
Cd -16.403030 -32.813059 -3.290190
Cd -19.685144 -29.530946 -3.290190
Cd -19.685144 -32.813059 -0.008076
Cd -16.403030 -29.530946 -0.008076
Cd -16.403030 -32.813059 3.274037
Cd -19.685144 -29.530946 3.274037
Cd -19.685144 -32.813059 6.556151
Cd -16.403030 -29.530946 6.556151
Cd -16.403030 -32.813059 9.838265
Cd -16.403030 -29.530946 13.120378
Cd -16.403030 -26.248832 -9.854417
Cd -19.685144 -22.966719 -9.854417
Cd -16.403030 -22.966719 -6.572303
Cd -16.403030 -26.248832 -3.290190
Cd -19.685144 -22.966719 -3.290190
Cd -19.685144 -26.248832 -0.008076
Cd -16.403030 -22.966719 -0.008076
Cd -16.403030 -26.248832 3.274037
Cd -19.685144 -22.966719 3.274037
Cd -19.685144 -26.248832 6.556151
Cd -16.403030 -22.966719 6.556151
Cd -16.403030 -26.248832 9.838265
Cd -19.685144 -22.966719 9.838265
Cd -19.685144 -26.248832 13.120378
Cd -16.403030 -22.966719 13.120378
Cd -16.403030 -26.248832 16.402492
Cd -19.685144 -22.966719 16.402492
Cd -16.403030 -22.966719 19.684605
Cd -16.403030 -16.402492 -19.700757
Cd -16.403030 -19.684605 -16.418644
Cd -19.685144 -19.684605 -13.136530
Cd -16.403030 -16.402492 -13.136530
Cd -16.403030 -19.684605 -9.854417
Cd -19.685144 -16.402492 -9.854417
Cd -19.685144 -19.684605 -6.572303
Cd -16.403030 -16.402492 -6.572303
Cd -16.403030 -19.684605 -3.290190
Cd -19.685144 -16.402492 -3.290190
Cd -19.685144 -19.684605 -0.008076
Cd -16.403030 -16.402492 -0.008076
Cd -16.403030 -19.684605 3.274037
Cd -19.685144 -16.402492 3.274037
Cd -19.685144 -19.684605 6.556151
Cd -16.403030 -16.402492 6.556151
Cd -16.403030 -19.684605 9.838265
Cd -19.685144 -16.402492 9.838265
Cd -19.685144 -19.684605 13.120378
Cd -16.403030 -16.402492 13.120378
Cd -16.403030 -19.684605 16.402492
Cd -19.685144 -16.402492 16.402492
Cd -19.685144 -19.684605 19.684605
Cd -16.403030 -16.402492 19.684605
Cd -16.403030 -19.684605 22.966719
Cd -19.685144 -16.402492 22.966719
Cd -16.403030 -9.838265 -26.264985
Cd -19.685144 -9.838265 -22.982871
Cd -19.685144 -13.120378 -19.700757
Cd -16.403030 -9.838265 -19.700757
Cd -16.403030 -13.120378 -16.418644
Cd -19.685144 -9.838265 -16.418644
Cd -19.685144 -13.120378 -13.136530
Cd -16.403030 -9.838265 -13.136530
Cd -16.403030 -13.120378 -9.854417
Cd -19.685144 -9.838265 -9.854417
Cd -19.685144 -13.120378 -6.572303
Cd -16.403030 -9.838265 -6.572303
Cd -16.403030 -13.120378 -3.290190
Cd -19.685144 -9.838265 -3.290190
Cd -19.685144 -13.120378 -0.008076
Cd -16.403030 -9.838265 -0.008076
Cd -16.403030 -13.120378 3.274037
Cd -19.685144 -9.838265 3.274037
Cd -19.685144 -13.120378 6.556151
Cd -16.403030 -9.838265 6.556151
Cd -16.403030 -13.120378 9.838265
Cd -19.685144 -9.838265 9.838265
Cd -19.685144 -13.120378 13.120378
Cd -16.403030 -9.838265 13.120378
Cd -16.403030 -13.120378 16.402492
Cd -19.685144 -9.838265 16.402492
Cd -19.685144 -13.120378 19.684605
Cd -16.403030 -9.838265 19.684605
Cd -16.403030 -13.120378 22.966719
Cd -19.685144 -9.838265 22.966719
Cd -19.685144 -13.120378 26.248832
Cd -16.403030 -9.838265 26.248832
Cd -16.403030 -13.120378 29.530946
Cd -16.403030 -9.838265 32.813059
Cd -16.403030 -3.274037 -32.829212
Cd -16.403030 -6.556151 -29.547098
Cd -19.685144 -3.274037 -29.547098
Cd -16.403030 -3.274037 -26.264985
Cd -16.403030 -6.556151 -22.982871
Cd -19.685144 -3.274037 -22.982871
Cd -19.685144 -6.556151 -19.700757
Cd -16.403030 -3.274037 -19.700757
Cd -16.403030 -6.556151 -16.418644
Cd -19.685144 -3.274037 -16.418644
Cd -19.685144 -6.556151 -13.136530
Cd -16.403030 -3.274037 -13.136530
Cd -16.403030 -6.556151 -9.854417
Cd -19.685144 -3.274037 -9.854417
Cd -19.685144 -6.556151 -6.572303
Cd -16.403030 -3.274037 -6.572303
Cd -16.403030 -6.556151 -3.290190
Cd -19.685144 -3.274037 -3.290190
Cd -19.685144 -6.556151 -0.008076
Cd -16.403030 -3.274037 -0.008076
Cd -16.403030 -6.556151 3.274037
Cd -19.685144 -3.274037 3.274037
Cd -19.685144 -6.556151 6.556151
Cd -16.403030 -3.274037 6.556151
Cd -16.403030 -6.556151 9.838265
Cd -19.685144 -3.274037 9.838265
Cd -19.685144 -6.556151 13.120378
Cd -16.403030 -3.274037 13.120378
Cd -16.403030 -6.556151 16.402492
Cd -19.685144 -3.274037 16.402492
Cd -19.685144 -6.556151 19.684605
Cd -16.403030 -3.274037 19.684605
Cd -16.403030 -6.556151 22.966719
Cd -19.685144 -3.274037 22.966719
Cd -19.685144 -6.556151 26.248832
Cd -16.403030 -3.274037 26.248832
Cd -16.403030 -6.556151 29.530946
Cd -19.685144 -3.274037 29.530946
Cd -19.685144 -6.556151 32.813059
Cd -16.403030 -3.274037 32.813059
Cd -19.685144 0.008076 -32.829212
Cd -16.403030 3.290190 -32.829212
Cd -16.403030 0.008076 -29.547098
Cd -19.685144 3.290190 -29.547098
Cd -19.685144 0.008076 -26.264985
Cd -16.403030 3.290190 -26.264985
Cd -16.403030 0.008076 -22.982871
Cd -19.685144 3.290190 -22.982871
Cd -19.685144 0.008076 -19.700757
Cd -16.403030 3.290190 -19.700757
Cd -16.403030 0.008076 -16.418644
Cd -19.685144 3.290190 -16.418644
Cd -19.685144 0.008076 -13.136530
Cd -16.403030 3.290190 -13.136530
Cd -16.403030 0.008076 -9.854417
Cd -19.685144 3.290190 -9.854417
Cd -19.685144 0.008076 -6.572303
Cd -16.403030 3.290190 -6.572303
Cd -16.403030 0.008076 -3.290190
Cd -19.685144 3.290190 -3.290190
Cd -19.685144 0.008076 -0.008076
Cd -16.403030 3.290190 -0.008076
Cd -16.403030 0.008076 3.274037
Cd -19.685144 3.290190 3.274037
Cd -19.685144 0.008076 6.556151
Cd -16.403030 3.290190 6.556151
Cd -16.403030 0.008076 9.838265
Cd -19.685144 3.290190 9.838265
Cd -19.685144 0.008076 13.120378
Cd -16.403030 3.290190 13.120378
Cd -16.403030 0.008076 16.402492
Cd -19.685144 3.290190 16.402492
Cd -19.685144 0.008076 19.684605
Cd -16.403030 3.290190 19.684605
Cd -16.403030 0.008076 22.966719
Cd -19.685144 3.290190 22.966719
Cd -19.685144 0.008076 26.248832
Cd -16.403030 3.290190 26.248832
Cd -16.403030 0.008076 29.530946
Cd -19.685144 3.290190 29.530946
Cd -19.685144 0.008076 32.813059
Cd -16.403030 3.290190 32.813059
Cd -19.685144 6.572303 -32.829212
Cd -16.403030 9.854417 -32.829212
Cd -16.403030 6.572303 -29.547098
Cd -19.685144 6.572303 -26.264985
Cd -16.403030 9.854417 -26.264985
Cd -16.403030 6.572303 -22.982871
Cd -19.685144 9.854417 -22.982871
Cd -19.685144 6.572303 -19.700757
Cd -16.403030 9.854417 -19.700757
Cd -16.403030 6.572303 -16.418644
Cd -19.685144 9.854417 -16.418644
Cd -19.685144 6.572303 -13.136530
Cd -16.403030 9.854417 -13.136530
Cd -16.403030 6.572303 -9.854417
Cd -19.685144 9.854417 -9.854417
Cd -19.685144 6.572303 -6.572303
Cd -16.403030 9.854417 -6.572303
Cd -16.403030 6.572303 -3.290190
Cd -19.685144 9.854417 -3.290190
Cd -19.685144 6.572303 -0.008076
Cd -16.403030 9.854417 -0.008076
Cd -16.403030 6.572303 3.274037
Cd -19.685144 9.854417 3.274037
Cd -19.685144 6.572303 6.556151
Cd -16.403030 9.854417 6.556151
Cd -16.403030 6.572303 9.838265
Cd -19.685144 9.854417 9.838265
Cd -19.685144 6.572303 13.120378
Cd -16.403030 9.854417 13.120378
Cd -16.403030 6.572303 16.402492
Cd -19.685144 9.854417 16.402492
Cd -19.685144 6.572303 19.684605
Cd -16.403030 9.854417 19.684605
Cd -16.403030 6.572303 22.966719
Cd -19.685144 9.854417 22.966719
Cd -16.403030 9.854417 26.248832
Cd -16.403030 6.572303 29.530946
Cd -16.403030 13.136530 -29.547098
Cd -19.685144 13.136530 -26.264985
Cd -16.403030 13.136530 -22.982871
Cd -19.685144 16.418644 -22.982871
Cd -19.685144 13.136530 -19.700757
Cd -16.403030 16.418644 -19.700757
Cd -16.403030 13.136530 -16.418644
Cd -19.685144 16.418644 -16.418644
Cd -19.685144 13.136530 -13.136530
Cd -16.403030 16.418644 -13.136530
Cd -16.403030 13.136530 -9.854417
Cd -19.685144 16.418644 -9.854417
Cd -19.685144 13.136530 -6.572303
Cd -16.403030 16.418644 -6.572303
Cd -16.403030 13.136530 -3.290190
Cd -19.685144 16.418644 -3.290190
Cd -19.685144 13.136530 -0.008076
Cd -16.403030 16.418644 -0.008076
Cd -16.403030 13.136530 3.274037
Cd -19.685144 16.418644 3.274037
Cd -19.685144 13.136530 6.556151
Cd -16.403030 16.418644 6.556151
Cd -16.403030 13.136530 9.838265
Cd -19.685144 16.418644 9.838265
Cd -19.685144 13.136530 13.120378
Cd -16.403030 16.418644 13.120378
Cd -16.403030 13.136530 16.402492
Cd -19.685144 13.136530 19.684605
Cd -16.403030 16.418644 19.684605
Cd -16.403030 19.700757 -22.982871
Cd -19.685144 19.700757 -19.700757
Cd -16.403030 22.982871 -19.700757
Cd -16.403030 19.700757 -16.418644
Cd -19.685144 22.982871 -16.418644
Cd -19.685144 19.700757 -13.136530
Cd -16.403030 22.982871 -13.136530
Cd -16.403030 19.700757 -9.854417
Cd -19.685144 22.982871 -9.854417
Cd -19.685144 19.700757 -6.572303
Cd -16.403030 22.982871 -6.572303
Cd -16.403030 19.700757 -3.290190
Cd -19.685144 22.982871 -3.290190
Cd -19.685144 19.700757 -0.008076
Cd -16.403030 22.982871 -0.008076
Cd -16.403030 19.700757 3.274037
Cd -19.685144 22.982871 3.274037
Cd -19.685144 19.700757 6.556151
Cd -16.403030 22.982871 6.556151
Cd -16.403030 19.700757 9.838265
Cd -19.685144 22.982871 9.838265
Cd -19.685144 19.700757 13.120378
Cd -16.403030 19.700757 16.402492
Cd -19.685144 26.264985 -13.136530
Cd -16.403030 29.547098 -13.136530
Cd -16.403030 26.264985 -9.854417
Cd -19.685144 26.264985 -6.572303
Cd -16.403030 29.547098 -6.572303
Cd -16.403030 26.264985 -3.290190
Cd -19.685144 29.547098 -3.290190
Cd -19.685144 26.264985 -0.008076
Cd -16.403030 29.547098 -0.008076
Cd -16.403030 26.264985 3.274037
Cd -19.685144 29.547098 3.274037
Cd -16.403030 29.547098 6.556151
Cd -16.403030 26.264985 9.838265
Cd -16.403030 32.829212 -9.854417
Cd -19.685144 32.829212 -6.572303
Cd -16.403030 32.829212 -3.290190
Cd -19.685144 32.829212 -0.008076
Cd -16.403030 32.829212 3.274037
Cd -9.838803 -29.530946 -13.136530
Cd -9.838803 -32.813059 -9.854417
Cd -13.120917 -32.813059 -6.572303
Cd -9.838803 -29.530946 -6.572303
Cd -9.838803 -32.813059 -3.290190
Cd -13.120917 -29.530946 -3.290190
Cd -13.120917 -32.813059 -0.008076
Cd -9.838803 -29.530946 -0.008076
Cd -9.838803 -32.813059 3.274037
Cd -13.120917 -29.530946 3.274037
Cd -13.120917 -32.813059 6.556151
Cd -9.838803 -29.530946 6.556151
Cd -9.838803 -32.813059 9.838265
Cd -13.120917 -29.530946 9.838265
Cd -13.120917 -32.813059 13.120378
Cd -9.838803 -29.530946 13.120378
Cd -9.838803 -32.813059 16.402492
Cd -13.120917 -29.530946 16.402492
Cd -9.838803 -22.966719 -19.700757
Cd -13.120917 -22.966719 -16.418644
Cd -13.120917 -26.248832 -13.136530
Cd -9.838803 -22.966719 -13.136530
Cd -9.838803 -26.248832 -9.854417
Cd -13.120917 -22.966719 -9.854417
Cd -13.120917 -26.248832 -6.572303
Cd -9.838803 -22.966719 -6.572303
Cd -9.838803 -26.248832 -3.290190
Cd -13.120917 -22.966719 -3.290190
Cd -13.120917 -26.248832 -0.008076
Cd -9.838803 -22.966719 -0.008076
Cd -9.838803 -26.248832 3.274037
Cd -13.120917 -22.966719 3.274037
Cd -13.120917 -26.248832 6.556151
Cd -9.838803 -22.966719 6.556151
Cd -9.838803 -26.248832 9.838265
Cd -13.120917 -22.966719 9.838265
Cd -13.120917 -26.248832 13.120378
Cd -9.838803 -22.966719 13.120378
Cd -9.838803 -26.248832 16.402492
Cd -13.120917 -22.966719 16.402492
Cd -13.120917 -26.248832 19.684605
Cd -9.838803 -22.966719 19.684605
Cd -9.838803 -26.248832 22.966719
Cd -13.120917 -22.966719 22.966719
Cd -9.838803 -22.966719 26.248832
Cd -9.838803 -19.684605 -22.982871
Cd -13.120917 -16.402492 -22.982871
Cd -9.838803 -16.402492 -19.700757
Cd -9.838803 -19.684605 -16.418644
Cd -13.120917 -16.402492 -16.418644
Cd -13.120917 -19.684605 -13.136530
Cd -9.838803 -16.402492 -13.136530
Cd -9.838803 -19.684605 -9.854417
Cd -13.120917 -16.402492 -9.854417
Cd -13.120917 -19.684605 -6.572303
Cd -9.838803 -16.402492 -6.572303
Cd -9.838803 -19.684605 -3.290190
Cd -13.120917 -16.402492 -3.290190
Cd -13.120917 -19.684605 -0.008076
Cd -9.838803 -16.402492 -0.008076
Cd -9.838803 -19.684605 3.274037
Cd -13.120917 -16.402492 3.274037
Cd -13.120917 -19.684605 6.556151
Cd -9.838803 -16.402492 6.556151
Cd -9.838803 -19.684605 9.838265
Cd -13.120917 -16.402492 9.838265
Cd -13.120917 -19.684605 13.120378
Cd -9.838803 -16.402492 13.120378
Cd -9.838803 -19.684605 16.402492
Cd -13.120917 -16.402492 16.402492
Cd -13.120917 -19.684605 19.684605
Cd -9.838803 -16.402492 19.684605
Cd -9.838803 -19.684605 22.966719
Cd -13.120917 -16.402492 22.966719
Cd -13.120917 -19.684605 26.248832
Cd -9.838803 -16.402492 26.248832
Cd -13.120917 -16.402492 29.530946
Cd -9.838803 -16.402492 32.813059
Cd -9.838803 -9.838265 -32.829212
Cd -9.838803 -13.120378 -29.547098
Cd -13.120917 -13.120378 -26.264985
Cd -9.838803 -9.838265 -26.264985
Cd -9.838803 -13.120378 -22.982871
Cd -13.120917 -9.838265 -22.982871
Cd -13.120917 -13.120378 -19.700757
Cd -9.838803 -9.838265 -19.700757
Cd -9.838803 -13.120378 -16.418644
Cd -13.120917 -9.838265 -16.418644
Cd -13.120917 -13.120378 -13.136530
Cd -9.838803 -9.838265 -13.136530
Cd -9.838803 -13.120378 -9.854417
Cd -13.120917 -9.838265 -9.854417
Cd -13.120917 -13.120378 -6.572303
Cd -9.838803 -9.838265 -6.572303
Cd -9.838803 -13.120378 -3.290190
Cd -13.120917 -9.838265 -3.290190
Cd -13.120917 -13.120378 -0.008076
Cd -9.838803 -9.838265 -0.008076
Cd -9.838803 -13.120378 3.274037
Cd -13.120917 -9.838265 3.274037
Cd -13.120917 -13.120378 6.556151
Cd -9.838803 -9.838265 6.556151
Cd -9.838803 -13.120378 9.838265
Cd -13.120917 -9.838265 9.838265
Cd -13.120917 -13.120378 13.120378
Cd -9.838803 -9.838265 13.120378
Cd -9.838803 -13.120378 16.402492
Cd -13.120917 -9.838265 16.402492
Cd -13.120917 -13.120378 19.684605
Cd -9.838803 -9.838265 19.684605
Cd -9.838803 -13.120378 22.966719
Cd -13.120917 -9.838265 22.966719
Cd -13.120917 -13.120378 26.248832
Cd -9.838803 -9.838265 26.248832
Cd -9.838803 -13.120378 29.530946
Cd -13.120917 -9.838265 29.530946
Cd -13.120917 -13.120378 32.813059
Cd -9.838803 -9.838265 32.813059
Cd -13.120917 -6.556151 -32.829212
Cd -9.838803 -3.274037 -32.829212
Cd -9.838803 -6.556151 -29.547098
Cd -13.120917 -3.274037 -29.547098
Cd -13.120917 -6.556151 -26.264985
Cd -9.838803 -3.274037 -26.264985
Cd -9.838803 -6.556151 -22.982871
Cd -13.120917 -3.274037 -22.982871
Cd -13.120917 -6.556151 -19.700757
Cd -9.838803 -3.274037 -19.700757
Cd -9.838803 -6.556151 -16.418644
Cd -13.120917 -3.274037 -16.418644
Cd -13.120917 -6.556151 -13.136530
Cd -9.838803 -3.274037 -13.136530
Cd -9.838803 -6.556151 -9.854417
Cd -13.120917 -3.274037 -9.854417
Cd -13.120917 -6.556151 -6.572303
Cd -9.838803 -3.274037 -6.572303
Cd -9.838803 -6.556151 -3.290190
Cd -13.120917 -3.274037 -3.290190
Cd -13.120917 -6.556151 -0.008076
Cd -9.838803 -3.274037 -0.008076
Cd -9.838803 -6.556151 3.274037
Cd -13.120917 -3.274037 3.274037
Cd -13.120917 -6.556151 6.556151
Cd -9.838803 -3.274037 6.556151
Cd -9.838803 -6.556151 9.838265
Cd -13.120917 -3.274037 9.838265
Cd -13.120917 -6.556151 13.120378
Cd -9.838803 -3.274037 13.120378
Cd -9.838803 -6.556151 16.402492
Cd -13.120917 -3.274037 16.402492
Cd -13.120917 -6.556151 19.684605
Cd -9.838803 -3.274037 19.684605
Cd -9.838803 -6.556151 22.966719
Cd -13.120917 -3.274037 22.966719
Cd -13.120917 -6.556151 26.248832
Cd -9.838803 -3.274037 26.248832
Cd -9.838803 -6.556151 29.530946
Cd -13.120917 -3.274037 29.530946
Cd -13.120917 -6.556151 32.813059
Cd -9.838803 -3.274037 32.813059
Cd -13.120917 0.008076 -32.829212
Cd -9.838803 3.290190 -32.829212
Cd -9.838803 0.008076 -29.547098
Cd -13.120917 3.290190 -29.547098
Cd -13.120917 0.008076 -26.264985
Cd -9.838803 3.290190 -26.264985
Cd -9.838803 0.008076 -22.982871
Cd -13.120917 3.290190 -22.982871
Cd -13.120917 0.008076 -19.700757
Cd -9.838803 3.290190 -19.700757
Cd -9.838803 0.008076 -16.418644
Cd -13.120917 3.290190 -16.418644
Cd -13.120917 0.008076 -13.136530
Cd -9.838803 3.290190 -13.136530
Cd -9.838803 0.008076 -9.854417
Cd -13.120917 3.290190 -9.854417
Cd -13.120917 0.008076 -6.572303
Cd -9.838803 3.290190 -6.572303
Cd -9.838803 0.008076 -3.290190
Cd -13.120917 3.290190 -3.290190
Cd -13.120917 0.008076 -0.008076
Cd -9.838803 3.290190 -0.008076
Cd -9.838803 0.008076 3.274037
Cd -13.120917 3.290190 3.274037
Cd -13.120917 0.008076 6.556151
Cd -9.838803 3.290190 6.556151
Cd -9.838803 0.008076 9.838265
Cd -13.120917 3.290190 9.838265
Cd -13.120917 0.008076 13.120378
Cd -9.838803 3.290190 13.120378
Cd -9.838803 0.008076 16.402492
Cd -13.120917 3.290190 16.402492
Cd -13.120917 0.008076 19.684605
Cd -9.838803 3.290190 19.684605
Cd -9.838803 0.008076 22.966719
Cd -13.120917 3.290190 22.966719
Cd -13.120917 0.008076 26.248832
Cd -9.838803 3.290190 26.248832
Cd -9.838803 0.008076 29.530946
Cd -13.120917 3.290190 29.530946
Cd -13.120917 0.008076 32.813059
Cd -9.838803 3.290190 32.813059
Cd -13.120917 6.572303 -32.829212
Cd -9.838803 9.854417 -32.829212
Cd -9.838803 6.572303 -29.547098
Cd -13.120917 9.854417 -29.547098
Cd -13.120917 6.572303 -26.264985
Cd -9.838803 9.854417 -26.264985
Cd -9.838803 6.572303 -22.982871
Cd -13.120917 9.854417 -22.982871
Cd -13.120917 6.572303 -19.700757
Cd -9.838803 9.854417 -19.700757
Cd -9.838803 6.572303 -16.418644
Cd -13.120917 9.854417 -16.418644
Cd -13.120917 6.572303 -13.136530
Cd -9.838803 9.854417 -13.136530
Cd -9.838803 6.572303 -9.854417
Cd -13.120917 9.854417 -9.854417
Cd -13.120917 6.572303 -6.572303
Cd -9.838803 9.854417 -6.572303
Cd -9.838803 6.572303 -3.290190
Cd -13.120917 9.854417 -3.290190
Cd -13.120917 6.572303 -0.008076
Cd -9.838803 9.854417 -0.008076
Cd -9.838803 6.572303 3.274037
Cd -13.120917 9.854417 3.274037
Cd -13.120917 6.572303 6.556151
Cd -9.838803 9.854417 6.556151
Cd -9.838803 6.572303 9.838265
Cd -13.120917 9.854417 9.838265
Cd -13.120917 6.572303 13.120378
Cd -9.838803 9.854417 13.120378
Cd -9.838803 6.572303 16.402492
Cd -13.120917 9.854417 16.402492
Cd -13.120917 6.572303 19.684605
Cd -9.838803 9.854417 19.684605
Cd -9.838803 6.572303 22.966719
Cd -13.120917 9.854417 22.966719
Cd -13.120917 6.572303 26.248832
Cd -9.838803 9.854417 26.248832
Cd -9.838803 6.572303 29.530946
Cd -13.120917 6.572303 32.813059
Cd -9.838803 9.854417 32.813059
Cd -13.120917 13.136530 -32.829212
Cd -9.838803 16.418644 -32.829212
Cd -9.838803 13.136530 -29.547098
Cd -13.120917 16.418644 -29.547098
Cd -13.120917 13.136530 -26.264985
Cd -9.838803 16.418644 -26.264985
Cd -9.838803 13.136530 -22.982871
Cd -13.120917 16.418644 -22.982871
Cd -13.120917 13.136530 -19.700757
Cd -9.838803 16.418644 -19.700757
Cd -9.838803 13.136530 -16.418644
Cd -13.120917 16.418644 -16.418644
Cd -13.120917 13.136530 -13.136530
Cd -9.838803 16.418644 -13.136530
Cd -9.838803 13.136530 -9.854417
Cd -13.120917 16.418644 -9.854417
Cd -13.120917 13.136530 -6.572303
Cd -9.838803 16.418644 -6.572303
Cd -9.838803 13.136530 -3.290190
Cd -13.120917 16.418644 -3.290190
Cd -13.120917 13.136530 -0.008076
Cd -9.838803 16.418644 -0.008076
Cd -9.838803 13.136530 3.274037
Cd -13.120917 16.418644 3.274037
Cd -13.120917 13.136530 6.556151
Cd -9.838803 16.418644 6.556151
Cd -9.838803 13.136530 9.838265
Cd -13.120917 16.418644 9.838265
Cd -13.120917 13.136530 13.120378
Cd -9.838803 16.418644 13.120378
Cd -9.838803 13.136530 16.402492
Cd -13.120917 16.418644 16.402492
Cd -13.120917 13.136530 19.684605
Cd -9.838803 16.418644 19.684605
Cd -9.838803 13.136530 22.966719
Cd -13.120917 16.418644 22.966719
Cd -13.120917 13.136530 26.248832
Cd -9.838803 13.136530 29.530946
Cd -13.120917 19.700757 -26.264985
Cd -9.838803 22.982871 -26.264985
Cd -9.838803 19.700757 -22.982871
Cd -13.120917 19.700757 -19.700757
Cd -9.838803 22.982871 -19.700757
Cd -9.838803 19.700757 -16.418644
Cd -13.120917 22.982871 -16.418644
Cd -13.120917 19.700757 -13.136530
Cd -9.838803 22.982871 -13.136530
Cd -9.838803 19.700757 -9.854417
Cd -13.120917 22.982871 -9.854417
Cd -13.120917 19.700757 -6.572303
Cd -9.838803 22.982871 -6.572303
Cd -9.838803 19.700757 -3.290190
Cd -13.120917 22.982871 -3.290190
Cd -13.120917 19.700757 -0.008076
Cd -9.838803 22.982871 -0.008076
Cd -9.838803 19.700757 3.274037
Cd -13.120917 22.982871 3.274037
Cd -13.120917 19.700757 6.556151
Cd -9.838803 22.982871 6.556151
Cd -9.838803 19.700757 9.838265
Cd -13.120917 22.982871 9.838265
Cd -13.120917 19.700757 13.120378
Cd -9.838803 22.982871 13.120378
Cd -9.838803 19.700757 16.402492
Cd -13.120917 22.982871 16.402492
Cd -9.838803 22.982871 19.684605
Cd -9.838803 19.700757 22.966719
Cd -9.838803 26.264985 -22.982871
Cd -13.120917 26.264985 -19.700757
Cd -9.838803 26.264985 -16.418644
Cd -13.120917 29.547098 -16.418644
Cd -13.120917 26.264985 -13.136530
Cd -9.838803 29.547098 -13.136530
Cd -9.838803 26.264985 -9.854417
Cd -13.120917 29.547098 -9.854417
Cd -13.120917 26.264985 -6.572303
Cd -9.838803 29.547098 -6.572303
Cd -9.838803 26.264985 -3.290190
Cd -13.120917 29.547098 -3.290190
Cd -13.120917 26.264985 -0.008076
Cd -9.838803 29.547098 -0.008076
Cd -9.838803 26.264985 3.274037
Cd -13.120917 29.547098 3.274037
Cd -13.120917 26.264985 6.556151
Cd -9.838803 29.547098 6.556151
Cd -9.838803 26.264985 9.838265
Cd -13.120917 26.264985 13.120378
Cd -9.838803 29.547098 13.120378
Cd -9.838803 32.829212 -16.418644
Cd -13.120917 32.829212 -13.136530
Cd -9.838803 32.829212 -9.854417
Cd -13.120917 32.829212 -6.572303
Cd -9.838803 32.829212 -3.290190
Cd -13.120917 32.829212 -0.008076
Cd -9.838803 32.829212 3.274037
Cd -13.120917 32.829212 6.556151
Cd -9.838803 32.829212 9.838265
Cd -3.274576 -32.813059 -16.418644
Cd -6.556689 -29.530946 -16.418644
Cd -6.556689 -32.813059 -13.136530
Cd -3.274576 -29.530946 -13.136530
Cd -3.274576 -32.813059 -9.854417
Cd -6.556689 -29.530946 -9.854417
Cd -6.556689 -32.813059 -6.572303
Cd -3.274576 -29.530946 -6.572303
Cd -3.274576 -32.813059 -3.290190
Cd -6.556689 -29.530946 -3.290190
Cd -6.556689 -32.813059 -0.008076
Cd -3.274576 -29.530946 -0.008076
Cd -3.274576 -32.813059 3.274037
Cd -6.556689 -29.530946 3.274037
Cd -6.556689 -32.813059 6.556151
Cd -3.274576 -29.530946 6.556151
Cd -3.274576 -32.813059 9.838265
Cd -6.556689 -29.530946 9.838265
Cd -6.556689 -32.813059 13.120378
Cd -3.274576 -29.530946 13.120378
Cd -3.274576 -32.813059 16.402492
Cd -6.556689 -29.530946 16.402492
Cd -6.556689 -32.813059 19.684605
Cd -3.274576 -29.530946 19.684605
Cd -3.274576 -32.813059 22.966719
Cd -6.556689 -29.530946 22.966719
Cd -3.274576 -29.530946 26.248832
Cd -3.274576 -22.966719 -26.264985
Cd -3.274576 -26.248832 -22.982871
Cd -6.556689 -26.248832 -19.700757
Cd -3.274576 -22.966719 -19.700757
Cd -3.274576 -26.248832 -16.418644
Cd -6.556689 -22.966719 -16.418644
Cd -6.556689 -26.248832 -13.136530
Cd -3.274576 -22.966719 -13.136530
Cd -3.274576 -26.248832 -9.854417
Cd -6.556689 -22.966719 -9.854417
Cd -6.556689 -26.248832 -6.572303
Cd -3.274576 -22.966719 -6.572303
Cd -3.274576 -26.248832 -3.290190
Cd -6.556689 -22.966719 -3.290190
Cd -6.556689 -26.248832 -0.008076
Cd -3.274576 -22.966719 -0.008076
Cd -3.274576 -26.248832 3.274037
Cd -6.556689 -22.966719 3.274037
Cd -6.556689 -26.248832 6.556151
Cd -3.274576 -22.966719 6.556151
Cd -3.274576 -26.248832 9.838265
Cd -6.556689 -22.966719 9.838265
Cd -6.556689 -26.248832 13.120378
Cd -3.274576 -22.966719 13.120378
Cd -3.274576 -26.248832 16.402492
Cd -6.556689 -22.966719 16.402492
Cd -6.556689 -26.248832 19.684605
Cd -3.274576 -22.966719 19.684605
Cd -3.274576 -26.248832 22.966719
Cd -6.556689 -22.966719 22.966719
Cd -3.274576 -22.966719 26.248832
Cd -3.274576 -26.248832 29.530946
Cd -6.556689 -22.966719 29.530946
Cd -3.274576 -22.966719 32.813059
Cd -3.274576 -16.402492 -32.829212
Cd -6.556689 -16.402492 -29.547098
Cd -6.556689 -19.684605 -26.264985
Cd -3.274576 -16.402492 -26.264985
Cd -3.274576 -19.684605 -22.982871
Cd -6.556689 -16.402492 -22.982871
Cd -6.556689 -19.684605 -19.700757
Cd -3.274576 -16.402492 -19.700757
Cd -3.274576 -19.684605 -16.418644
Cd -6.556689 -16.402492 -16.418644
Cd -6.556689 -19.684605 -13.136530
Cd -3.274576 -16.402492 -13.136530
Cd -3.274576 -19.684605 -9.854417
Cd -6.556689 -16.402492 -9.854417
Cd -6.556689 -19.684605 -6.572303
Cd -3.274576 -16.402492 -6.572303
Cd -3.274576 -19.684605 -3.290190
Cd -6.556689 -16.402492 -3.290190
Cd -6.556689 -19.684605 -0.008076
Cd -3.274576 -16.402492 -0.008076
Cd -3.274576 -19.684605 3.274037
Cd -6.556689 -16.402492 3.274037
Cd -6.556689 -19.684605 6.556151
Cd -3.274576 -16.402492 6.556151
Cd -3.274576 -19.684605 9.838265
Cd -6.556689 -16.402492 9.838265
Cd -6.556689 -19.684605 13.120378
Cd -3.274576 -16.402492 13.120378
Cd -3.274576 -19.684605 16.402492
Cd -6.556689 -16.402492 16.402492
Cd -6.556689 -19.684605 19.684605
Cd -3.274576 -16.402492 19.684605
Cd -3.274576 -19.684605 22.966719
Cd -6.556689 -16.402492 22.966719
Cd -6.556689 -19.684605 26.248832
Cd -3.274576 -16.402492 26.248832
Cd -3.274576 -19.684605 29.530946
Cd -6.556689 -16.402492 29.530946
Cd -6.556689 -19.684605 32.813059
Cd -3.274576 -16.402492 32.813059
Cd -6.556689 -13.120378 -32.829212
Cd -3.274576 -9.838265 -32.829212
Cd -3.274576 -13.120378 -29.547098
Cd -6.556689 -9.838265 -29.547098
Cd -6.556689 -13.120378 -26.264985
Cd -3.274576 -9.838265 -26.264985
Cd -3.274576 -13.120378 -22.982871
Cd -6.556689 -9.838265 -22.982871
Cd -6.556689 -13.120378 -19.700757
Cd -3.274576 -9.838265 -19.700757
Cd -3.274576 -13.120378 -16.418644
Cd -6.556689 -9.838265 -16.418644
Cd -6.556689 -13.120378 -13.136530
Cd -3.274576 -9.838265 -13.136530
Cd -3.274576 -13.120378 -9.854417
Cd -6.556689 -9.838265 -9.854417
Cd -6.556689 -13.120378 -6.572303
Cd -3.274576 -9.838265 -6.572303
Cd -3.274576 -13.120378 -3.290190
Cd -6.556689 -9.838265 -3.290190
Cd -6.556689 -13.120378 -0.008076
Cd -3.274576 -9.838265 -0.008076
Cd -3.274576 -13.120378 3.274037
Cd -6.556689 -9.838265 3.274037
Cd -6.556689 -13.120378 6.556151
Cd -3.274576 -9.838265 6.556151
Cd -3.274576 -13.120378 9.838265
Cd -6.556689 -9.838265 9.838265
Cd -6.556689 -13.120378 13.120378
Cd -3.274576 -9.838265 13.120378
Cd -3.274576 -13.120378 16.402492
Cd -6.556689 -9.838265 16.402492
Cd -6.556689 -13.120378 19.684605
Cd -3.274576 -9.838265 19.684605
Cd -3.274576 -13.120378 22.966719
Cd -6.556689 -9.838265 22.966719
Cd -6.556689 -13.120378 26.248832
Cd -3.274576 -9.838265 26.248832
Cd -3.274576 -13.120378 29.530946
Cd -6.556689 -9.838265 29.530946
Cd -6.556689 -13.120378 32.813059
Cd -3.274576 -9.838265 32.813059
Cd -6.556689 -6.556151 -32.829212
Cd -3.274576 -3.274037 -32.829212
Cd -3.274576 -6.556151 -29.547098
Cd -6.556689 -3.274037 -29.547098
Cd -6.556689 -6.556151 -26.264985
Cd -3.274576 -3.274037 -26.264985
Cd -3.274576 -6.556151 -22.982871
Cd -6.556689 -3.274037 -22.982871
Cd -6.556689 -6.556151 -19.700757
Cd -3.274576 -3.274037 -19.700757
Cd -3.274576 -6.556151 -16.418644
Cd -6.556689 -3.274037 -16.418644
Cd -6.556689 -6.556151 -13.136530
Cd -3.274576 -3.274037 -13.136530
Cd -3.274576 -6.556151 -9.854417
Cd -6.556689 -3.274037 -9.854417
Cd -6.556689 -6.556151 -6.572303
Cd -3.274576 -3.274037 -6.572303
Cd -3.274576 -6.556151 -3.290190
Cd -6.556689 -3.274037 -3.290190
Cd -6.556689 -6.556151 -0.008076
Cd -3.274576 -3.274037 -0.008076
Cd -3.274576 -6.556151 3.274037
Cd -6.556689 -3.274037 3.274037
Cd -6.556689 -6.556151 6.556151
Cd -3.274576 -3.274037 6.556151
Cd -3.274576 -6.556151 9.838265
Cd -6.556689 -3.274037 9.838265
Cd -6.556689 -6.556151 13.120378
Cd -3.274576 -3.274037 13.120378
Cd -3.274576 -6.556151 16.402492
Cd -6.556689 -3.274037 16.402492
Cd -6.556689 -6.556151 19.684605
Cd -3.274576 -3.274037 19.684605
Cd -3.274576 -6.556151 22.966719
Cd -6.556689 -3.274037 22.966719
Cd -6.556689 -6.556151 26.248832
Cd -3.274576 -3.274037 26.248832
Cd -3.274576 -6.556151 29.530946
Cd -6.556689 -3.274037 29.530946
Cd -6.556689 -6.556151 32.813059
Cd -3.274576 -3.274037 32.813059
Cd -6.556689 0.008076 -32.829212
Cd -3.274576 3.290190 -32.829212
Cd -3.274576 0.008076 -29.547098
Cd -6.556689 3.290190 -29.547098
Cd -6.556689 0.008076 -26.264985
Cd -3.274576 3.290190 -26.264985
Cd -3.274576 0.008076 -22.982871
Cd -6.556689 3.290190 -22.982871
Cd -6.556689 0.008076 -19.700757
Cd -3.274576 3.290190 -19.700757
Cd -3.274576 0.008076 -16.418644
Cd -6.556689 3.290190 -16.418644
Cd -6.556689 0.008076 -13.136530
Cd -3.274576 3.290190 -13.136530
Cd -3.274576 0.008076 -9.854417
Cd -6.556689 3.290190 -9.854417
Cd -6.556689 0.008076 -6.572303
Cd -3.274576 3.290190 -6.572303
Cd -3.274576 0.008076 -3.290190
Cd -6.556689 3.290190 -3.290190
Cd -6.556689 0.008076 -0.008076
Cd -3.274576 3.290190 -0.008076
Cd -3.274576 0.008076 3.274037
Cd -6.556689 3.290190 3.274037
Cd -6.556689 0.008076 6.556151
Cd -3.274576 3.290190 6.556151
Cd -3.274576 0.008076 9.838265
Cd -6.556689 3.290190 9.838265
Cd -6.556689 0.008076 13.120378
Cd -3.274576 3.290190 13.120378
Cd -3.274576 0.008076 16.402492
Cd -6.556689 3.290190 16.402492
Cd -6.556689 0.008076 19.684605
Cd -3.274576 3.290190 19.684605
Cd -3.274576 0.008076 22.966719
Cd -6.556689 3.290190 22.966719
Cd -6.556689 0.008076 26.248832
Cd -3.274576 3.290190 26.248832
Cd -3.274576 0.008076 29.530946
Cd -6.556689 3.290190 29.530946
Cd -6.556689 0.008076 32.813059
Cd -3.274576 3.290190 32.813059
Cd -6.556689 6.572303 -32.829212
Cd -3.274576 9.854417 -32.829212
Cd -3.274576 6.572303 -29.547098
Cd -6.556689 9.854417 -29.547098
Cd -6.556689 6.572303 -26.264985
Cd -3.274576 9.854417 -26.264985
Cd -3.274576 6.572303 -22.982871
Cd -6.556689 9.854417 -22.982871
Cd -6.556689 6.572303 -19.700757
Cd -3.274576 9.854417 -19.700757
Cd -3.274576 6.572303 -16.418644
Cd -6.556689 9.854417 -16.418644
Cd -6.556689 6.572303 -13.136530
Cd -3.274576 9.854417 -13.136530
Cd -3.274576 6.572303 -9.854417
Cd -6.556689 9.854417 -9.854417
Cd -6.556689 6.572303 -6.572303
Cd -3.274576 9.854417 -6.572303
Cd -3.274576 6.572303 -3.290190
Cd -6.556689 9.854417 -3.290190
Cd -6.556689 6.572303 -0.008076
Cd -3.274576 9.854417 -0.008076
Cd -3.274576 6.572303 3.274037
Cd -6.556689 9.854417 3.274037
Cd -6.556689 6.572303 6.556151
Cd -3.274576 9.854417 6.556151
Cd -3.274576 6.572303 9.838265
Cd -6.556689 9.854417 9.838265
Cd -6.556689 6.572303 13.120378
Cd -3.274576 9.854417 13.120378
Cd -3.274576 6.572303 16.402492
Cd -6.556689 9.854417 16.402492
Cd -6.556689 6.572303 19.684605
Cd -3.274576 9.854417 19.684605
Cd -3.274576 6.572303 22.966719
Cd -6.556689 9.854417 22.966719
Cd -6.556689 6.572303 26.248832
Cd -3.274576 9.854417 26.248832
Cd -3.274576 6.572303 29.530946
Cd -6.556689 9.854417 29.530946
Cd -6.556689 6.572303 32.813059
Cd -3.274576 9.854417 32.813059
Cd -6.556689 13.136530 -32.829212
Cd -3.274576 16.418644 -32.829212
Cd -3.274576 13.136530 -29.547098
Cd -6.556689 16.418644 -29.547098
Cd -6.556689 13.136530 -26.264985
Cd -3.274576 16.418644 -26.264985
Cd -3.274576 13.136530 -22.982871
Cd -6.556689 16.418644 -22.982871
Cd -6.556689 13.136530 -19.700757
Cd -3.274576 16.418644 -19.700757
Cd -3.274576 13.136530 -16.418644
Cd -6.556689 16.418644 -16.418644
Cd -6.556689 13.136530 -13.136530
Cd -3.274576 16.418644 -13.136530
Cd -3.274576 13.136530 -9.854417
Cd -6.556689 16.418644 -9.854417
Cd -6.556689 13.136530 -6.572303
Cd -3.274576 16.418644 -6.572303
Cd -3.274576 13.136530 -3.290190
Cd -6.556689 16.418644 -3.290190
Cd -6.556689 13.136530 -0.008076
Cd -3.274576 16.418644 -0.008076
Cd -3.274576 13.136530 3.274037
Cd -6.556689 16.418644 3.274037
Cd -6.556689 13.136530 6.556151
Cd -3.274576 16.418644 6.556151
Cd -3.274576 13.136530 9.838265
Cd -6.556689 16.418644 9.838265
Cd -6.556689 13.136530 13.120378
Cd -3.274576 16.418644 13.120378
Cd -3.274576 13.136530 16.402492
Cd -6.556689 16.418644 16.402492
Cd -6.556689 13.136530 19.684605
Cd -3.274576 16.418644 19.684605
Cd -3.274576 13.136530 22.966719
Cd -6.556689 16.418644 22.966719
Cd -6.556689 13.136530 26.248832
Cd -3.274576 16.418644 26.248832
Cd -3.274576 13.136530 29.530946
Cd -6.556689 16.418644 29.530946
Cd -6.556689 13.136530 32.813059
Cd -3.274576 16.418644 32.813059
Cd -6.556689 19.700757 -32.829212
Cd -3.274576 22.982871 -32.829212
Cd -3.274576 19.700757 -29.547098
Cd -6.556689 22.982871 -29.547098
Cd -6.556689 19.700757 -26.264985
Cd -3.274576 22.982871 -26.264985
Cd -3.274576 19.700757 -22.982871
Cd -6.556689 22.982871 -22.982871
Cd -6.556689 19.700757 -19.700757
Cd -3.274576 22.982871 -19.700757
Cd -3.274576 19.700757 -16.418644
Cd -6.556689 22.982871 -16.418644
Cd -6.556689 19.700757 -13.136530
Cd -3.274576 22.982871 -13.136530
Cd -3.274576 19.700757 -9.854417
Cd -6.556689 22.982871 -9.854417
Cd -6.556689 19.700757 -6.572303
Cd -3.274576 22.982871 -6.572303
Cd -3.274576 19.700757 -3.290190
Cd -6.556689 22.982871 -3.290190
Cd -6.556689 19.700757 -0.008076
Cd -3.274576 22.982871 -0.008076
Cd -3.274576 19.700757 3.274037
Cd -6.556689 22.982871 3.274037
Cd -6.556689 19.700757 6.556151
Cd -3.274576 22.982871 6.556151
Cd -3.274576 19.700757 9.838265
Cd -6.556689 22.982871 9.838265
Cd -6.556689 19.700757 13.120378
Cd -3.274576 22.982871 13.120378
Cd -3.274576 19.700757 16.402492
Cd -6.556689 22.982871 16.402492
Cd -6.556689 19.700757 19.684605
Cd -3.274576 22.982871 19.684605
Cd -3.274576 19.700757 22.966719
Cd -6.556689 19.700757 26.248832
Cd -3.274576 22.982871 26.248832
Cd -3.274576 26.264985 -29.547098
Cd -3.274576 29.547098 -26.264985
Cd -3.274576 26.264985 -22.982871
Cd -6.556689 29.547098 -22.982871
Cd -6.556689 26.264985 -19.700757
Cd -3.274576 29.547098 -19.700757
Cd -3.274576 26.264985 -16.418644
Cd -6.556689 29.547098 -16.418644
Cd -6.556689 26.264985 -13.136530
Cd -3.274576 29.547098 -13.136530
Cd -3.274576 26.264985 -9.854417
Cd -6.556689 29.547098 -9.854417
Cd -6.556689 26.264985 -6.572303
Cd -3.274576 29.547098 -6.572303
Cd -3.274576 26.264985 -3.290190
Cd -6.556689 29.547098 -3.290190
Cd -6.556689 26.264985 -0.008076
Cd -3.274576 29.547098 -0.008076
Cd -3.274576 26.264985 3.274037
Cd -6.556689 29.547098 3.274037
Cd -6.556689 26.264985 6.556151
Cd -3.274576 29.547098 6.556151
Cd -3.274576 26.264985 9.838265
Cd -6.556689 29.547098 9.838265
Cd -6.556689 26.264985 13.120378
Cd -3.274576 29.547098 13.120378
Cd -3.274576 26.264985 16.402492
Cd -6.556689 29.547098 16.402492
Cd -6.556689 26.264985 19.684605
Cd -3.274576 26.264985 22.966719
Cd -3.274576 32.829212 -22.982871
Cd -6.556689 32.829212 -19.700757
Cd -3.274576 32.829212 -16.418644
Cd -6.556689 32.829212 -13.136530
Cd -3.274576 32.829212 -9.854417
Cd -6.556689 32.829212 -6.572303
Cd -3.274576 32.829212 -3.290190
Cd -6.556689 32.829212 -0.008076
Cd -3.274576 32.829212 3.274037
Cd -6.556689 32.829212 6.556151
Cd -3.274576 32.829212 9.838265
Cd -6.556689 32.829212 13.120378
Cd -3.274576 32.829212 16.402492
Cd 3.289651 -29.530946 -26.264985
Cd 3.289651 -32.813059 -22.982871
Cd 0.007538 -29.530946 -22.982871
Cd 0.007538 -32.813059 -19.700757
Cd 3.289651 -29.530946 -19.700757
Cd 3.289651 -32.813059 -16.418644
Cd 0.007538 -29.530946 -16.418644
Cd 0.007538 -32.813059 -13.136530
Cd 3.289651 -29.530946 -13.136530
Cd 3.289651 -32.813059 -9.854417
Cd 0.007538 -29.530946 -9.854417
Cd 0.007538 -32.813059 -6.572303
Cd 3.289651 -29.530946 -6.572303
Cd 3.289651 -32.813059 -3.290190
Cd 0.007538 -29.530946 -3.290190
Cd 0.007538 -32.813059 -0.008076
Cd 3.289651 -29.530946 -0.008076
Cd 3.289651 -32.813059 3.274037
Cd 0.007538 -29.530946 3.274037
Cd 0.007538 -32.813059 6.556151
Cd 3.289651 -29.530946 6.556151
Cd 3.289651 -32.813059 9.838265
Cd 0.007538 -29.530946 9.838265
Cd 0.007538 -32.813059 13.120378
Cd 3.289651 -29.530946 13.120378
Cd 3.289651 -32.813059 16.402492
Cd 0.007538 -29.530946 16.402492
Cd 0.007538 -32.813059 19.684605
Cd 3.289651 -29.530946 19.684605
Cd 0.007538 -29.530946 22.966719
Cd 3.289651 -22.966719 -32.829212
Cd 3.289651 -26.248832 -29.547098
Cd 0.007538 -22.966719 -29.547098
Cd 3.289651 -22.966719 -26.264985
Cd 3.289651 -26.248832 -22.982871
Cd 0.007538 -22.966719 -22.982871
Cd 0.007538 -26.248832 -19.700757
Cd 3.289651 -22.966719 -19.700757
Cd 3.289651 -26.248832 -16.418644
Cd 0.007538 -22.966719 -16.418644
Cd 0.007538 -26.248832 -13.136530
Cd 3.289651 -22.966719 -13.136530
Cd 3.289651 -26.248832 -9.854417
Cd 0.007538 -22.966719 -9.854417
Cd 0.007538 -26.248832 -6.572303
Cd 3.289651 -22.966719 -6.572303
Cd 3.289651 -26.248832 -3.290190
Cd 0.007538 -22.966719 -3.290190
Cd 0.007538 -26.248832 -0.008076
Cd 3.289651 -22.966719 -0.008076
Cd 3.289651 -26.248832 3.274037
Cd 0.007538 -22.966719 3.274037
Cd 0.007538 -26.248832 6.556151
Cd 3.289651 -22.966719 6.556151
Cd 3.289651 -26.248832 9.838265
Cd 0.007538 -22.966719 9.838265
Cd 0.007538 -26.248832 13.120378
Cd 3.289651 -22.966719 13.120378
Cd 3.289651 -26.248832 16.402492
Cd 0.007538 -22.966719 16.402492
Cd 0.007538 -26.248832 19.684605
Cd 3.289651 -22.966719 19.684605
Cd 3.289651 -26.248832 22.966719
Cd 0.007538 -22.966719 22.966719
Cd 0.007538 -26.248832 26.248832
Cd 0.007538 -22.966719 29.530946
Cd 0.007538 -19.684605 -32.829212
Cd 3.289651 -16.402492 -32.829212
Cd 3.289651 -19.684605 -29.547098
Cd 0.007538 -16.402492 -29.547098
Cd 0.007538 -19.684605 -26.264985
Cd 3.289651 -16.402492 -26.264985
Cd 3.289651 -19.684605 -22.982871
Cd 0.007538 -16.402492 -22.982871
Cd 0.007538 -19.684605 -19.700757
Cd 3.289651 -16.402492 -19.700757
Cd 3.289651 -19.684605 -16.418644
Cd 0.007538 -16.402492 -16.418644
Cd 0.007538 -19.684605 -13.136530
Cd 3.289651 -16.402492 -13.136530
Cd 3.289651 -19.684605 -9.854417
Cd 0.007538 -16.402492 -9.854417
Cd 0.007538 -19.684605 -6.572303
Cd 3.289651 -16.402492 -6.572303
Cd 3.289651 -19.684605 -3.290190
Cd 0.007538 -16.402492 -3.290190
Cd 0.007538 -19.684605 -0.008076
Cd 3.289651 -16.402492 -0.008076
Cd 3.289651 -19.684605 3.274037
Cd 0.007538 -16.402492 3.274037
Cd 0.007538 -19.684605 6.556151
Cd 3.289651 -16.402492 6.556151
Cd 3.289651 -19.684605 9.838265
Cd 0.007538 -16.402492 9.838265
Cd 0.007538 -19.684605 13.120378
Cd 3.289651 -16.402492 13.120378
Cd 3.289651 -19.684605 16.402492
Cd 0.007538 -16.402492 16.402492
Cd 0.007538 -19.684605 19.684605
Cd 3.289651 -16.402492 19.684605
Cd 3.289651 -19.684605 22.966719
Cd 0.007538 -16.402492 22.966719
Cd 0.007538 -19.684605 26.248832
Cd 3.289651 -16.402492 26.248832
Cd 3.289651 -19.684605 29.530946
Cd 0.007538 -16.402492 29.530946
Cd 0.007538 -19.684605 32.813059
Cd 3.289651 -16.402492 32.813059
Cd 0.007538 -13.120378 -32.829212
Cd 3.289651 -9.838265 -32.829212
Cd 3.289651 -13.120378 -29.547098
Cd 0.007538 -9.838265 -29.547098
Cd 0.007538 -13.120378 -26.264985
Cd 3.289651 -9.838265 -26.264985
Cd 3.289651 -13.120378 -22.982871
Cd 0.007538 -9.838265 -22.982871
Cd 0.007538 -13.120378 -19.700757
Cd 3.289651 -9.838265 -19.700757
Cd 3.289651 -13.120378 -16.418644
Cd 0.007538 -9.838265 -16.418644
Cd 0.007538 -13.120378 -13.136530
Cd 3.289651 -9.838265 -13.136530
Cd 3.289651 -13.120378 -9.854417
Cd 0.007538 -9.838265 -9.854417
Cd 0.007538 -13.120378 -6.572303
Cd 3.289651 -9.838265 -6.572303
Cd 3.289651 -13.120378 -3.290190
Cd 0.007538 -9.838265 -3.290190
Cd 0.007538 -13.120378 -0.008076
Cd 3.289651 -9.838265 -0.008076
Cd 3.289651 -13.120378 3.274037
Cd 0.007538 -9.838265 3.274037
Cd 0.007538 -13.120378 6.556151
Cd 3.289651 -9.838265 6.556151
Cd 3.289651 -13.120378 9.838265
Cd 0.007538 -9.838265 9.838265
Cd 0.007538 -13.120378 13.120378
Cd 3.289651 -9.838265 13.120378
Cd 3.289651 -13.120378 16.402492
Cd 0.007538 -9.838265 16.402492
Cd 0.007538 -13.120378 19.684605
Cd 3.289651 -9.838265 19.684605
Cd 3.289651 -13.120378 22.966719
Cd 0.007538 -9.838265 22.966719
Cd 0.007538 -13.120378 26.248832
Cd 3.289651 -9.838265 26.248832
Cd 3.289651 -13.120378 29.530946
Cd 0.007538 -9.838265 29.530946
Cd 0.007538 -13.120378 32.813059
Cd 3.289651 -9.838265 32.813059
Cd 0.007538 -6.556151 -32.829212
Cd 3.289651 -3.274037 -32.829212
Cd 3.289651 -6.556151 -29.547098
Cd 0.007538 -3.274037 -29.547098
Cd 0.007538 -6.556151 -26.264985
Cd 3.289651 -3.274037 -26.264985
Cd 3.289651 -6.556151 -22.982871
Cd 0.007538 -3.274037 -22.982871
Cd 0.007538 -6.556151 -19.700757
Cd 3.289651 -3.274037 -19.700757
Cd 3.289651 -6.556151 -16.418644
Cd 0.007538 -3.274037 -16.418644
Cd 0.007538 -6.556151 -13.136530
Cd 3.289651 -3.274037 -13.136530
Cd 3.289651 -6.556151 -9.854417
Cd 0.007538 -3.274037 -9.854417
Cd 0.007538 -6.556151 -6.572303
Cd 3.289651 -3.274037 -6.572303
Cd 3.289651 -6.556151 -3.290190
Cd 0.007538 -3.274037 -3.290190
Cd 0.007538 -6.556151 -0.008076
Cd 3.289651 -3.274037 -0.008076
Cd 3.289651 -6.556151 3.274037
Cd 0.007538 -3.274037 3.274037
Cd 0.007538 -6.556151 6.556151
Cd 3.289651 -3.274037 6.556151
Cd 3.289651 -6.556151 9.838265
Cd 0.007538 -3.274037 9.838265
Cd 0.007538 -6.556151 13.120378
Cd 3.289651 -3.274037 13.120378
Cd 3.289651 -6.556151 16.402492
Cd 0.007538 -3.274037 16.402492
Cd 0.007538 -6.556151 19.684605
Cd 3.289651 -3.274037 19.684605
Cd 3.289651 -6.556151 22.966719
Cd 0.007538 -3.274037 22.966719
Cd 0.007538 -6.556151 26.248832
Cd 3.289651 -3.274037 26.248832
Cd 3.289651 -6.556151 29.530946
Cd 0.007538 -3.274037 29.530946
Cd 0.007538 -6.556151 32.813059
Cd 3.289651 -3.274037 32.813059
Cd 0.007538 0.008076 -32.829212
Cd 3.289651 3.290190 -32.829212
Cd 3.289651 0.008076 -29.547098
Cd 0.007538 3.290190 -29.547098
Cd 0.007538 0.008076 -26.264985
Cd 3.289651 3.290190 -26.264985
Cd 3.289651 0.008076 -22.982871
Cd 0.007538 3.290190 -22.982871
Cd 0.007538 0.008076 -19.700757
Cd 3.289651 3.290190 -19.700757
Cd 3.289651 0.008076 -16.418644
Cd 0.007538 3.290190 -16.418644
Cd 0.007538 0.008076 -13.136530
Cd 3.289651 3.290190 -13.136530
Cd 3.289651 0.008076 -9.854417
Cd 0.007538 3.290190 -9.854417
Cd 0.007538 0.008076 -6.572303
Cd 3.289651 3.290190 -6.572303
Cd 3.289651 0.008076 -3.290190
Cd 0.007538 3.290190 -3.290190
Cd 0.007538 0.008076 -0.008076
Cd 3.289651 3.290190 -0.008076
Cd 3.289651 0.008076 3.274037
Cd 0.007538 3.290190 3.274037
Cd 0.007538 0.008076 6.556151
Cd 3.289651 3.290190 6.556151
Cd 3.289651 0.008076 9.838265
Cd 0.007538 3.290190 9.838265
Cd 0.007538 0.008076 13.120378
Cd 3.289651 3.290190 13.120378
Cd 3.289651 0.008076 16.402492
Cd 0.007538 3.290190 16.402492
Cd 0.007538 0.008076 19.684605
Cd 3.289651 3.290190 19.684605
Cd 3.289651 0.008076 22.966719
Cd 0.007538 3.290190 22.966719
Cd 0.007538 0.008076 26.248832
Cd 3.289651 3.290190 26.248832
Cd 3.289651 0.008076 29.530946
Cd 0.007538 3.290190 29.530946
Cd 0.007538 0.008076 32.813059
Cd 3.289651 3.290190 32.813059
Cd 0.007538 6.572303 -32.829212
Cd 3.289651 9.854417 -32.829212
Cd 3.289651 6.572303 -29.547098
Cd 0.007538 9.854417 -29.547098
Cd 0.007538 6.572303 -26.264985
Cd 3.289651 9.854417 -26.264985
Cd 3.289651 6.572303 -22.982871
Cd 0.007538 9.854417 -22.982871
Cd 0.007538 6.572303 -19.700757
Cd 3.289651 9.854417 -19.700757
Cd 3.289651 6.572303 -16.418644
Cd 0.007538 9.854417 -16.418644
Cd 0.007538 6.572303 -13.136530
Cd 3.289651 9.854417 -13.136530
Cd 3.289651 6.572303 -9.854417
Cd 0.007538 9.854417 -9.854417
Cd 0.007538 6.572303 -6.572303
Cd 3.289651 9.854417 -6.572303
Cd 3.289651 6.572303 -3.290190
Cd 0.007538 9.854417 -3.290190
Cd 0.007538 6.572303 -0.008076
Cd 3.289651 9.854417 -0.008076
Cd 3.289651 6.572303 3.274037
Cd 0.007538 9.854417 3.274037
Cd 0.007538 6.572303 6.556151
Cd 3.289651 9.854417 6.556151
Cd 3.289651 6.572303 9.838265
Cd 0.007538 9.854417 9.838265
Cd 0.007538 6.572303 13.120378
Cd 3.289651 9.854417 13.120378
Cd 3.289651 6.572303 16.402492
Cd 0.007538 9.854417 16.402492
Cd 0.007538 6.572303 19.684605
Cd 3.289651 9.854417 19.684605
Cd 3.289651 6.572303 22.966719
Cd 0.007538 9.854417 22.966719
Cd 0.007538 6.572303 26.248832
Cd 3.289651 9.854417 26.248832
Cd 3.289651 6.572303 29.530946
Cd 0.007538 9.854417 29.530946
Cd 0.007538 6.572303 32.813059
Cd 3.289651 9.854417 32.813059
Cd 0.007538 13.136530 -32.829212
Cd 3.289651 16.418644 -32.829212
Cd 3.289651 13.136530 -29.547098
Cd 0.007538 16.418644 -29.547098
Cd 0.007538 13.136530 -26.264985
Cd 3.289651 16.418644 -26.264985
Cd 3.289651 13.136530 -22.982871
Cd 0.007538 16.418644 -22.982871
Cd 0.007538 13.136530 -19.700757
Cd 3.289651 16.418644 -19.700757
Cd 3.289651 13.136530 -16.418644
Cd 0.007538 16.418644 -16.418644
Cd 0.007538 13.136530 -13.136530
Cd 3.289651 16.418644 -13.136530
Cd 3.289651 13.136530 -9.854417
Cd 0.007538 16.418644 -9.854417
Cd 0.007538 13.136530 -6.572303
Cd 3.289651 16.418644 -6.572303
Cd 3.289651 13.136530 -3.290190
Cd 0.007538 16.418644 -3.290190
Cd 0.007538 13.136530 -0.008076
Cd 3.289651 16.418644 -0.008076
Cd 3.289651 13.136530 3.274037
Cd 0.007538 16.418644 3.274037
Cd 0.007538 13.136530 6.556151
Cd 3.289651 16.418644 6.556151
Cd 3.289651 13.136530 9.838265
Cd 0.007538 16.418644 9.838265
Cd 0.007538 13.136530 13.120378
Cd 3.289651 16.418644 13.120378
Cd 3.289651 13.136530 16.402492
Cd 0.007538 16.418644 16.402492
Cd 0.007538 13.136530 19.684605
Cd 3.289651 16.418644 19.684605
Cd 3.289651 13.136530 22.966719
Cd 0.007538 16.418644 22.966719
Cd 0.007538 13.136530 26.248832
Cd 3.289651 16.418644 26.248832
Cd 3.289651 13.136530 29.530946
Cd 0.007538 16.418644 29.530946
Cd 0.007538 13.136530 32.813059
Cd 3.289651 16.418644 32.813059
Cd 0.007538 19.700757 -32.829212
Cd 0.007538 22.982871 -29.547098
Cd 0.007538 19.700757 -26.264985
Cd 3.289651 22.982871 -26.264985
Cd 3.289651 19.700757 -22.982871
Cd 0.007538 22.982871 -22.982871
Cd 0.007538 19.700757 -19.700757
Cd 3.289651 22.982871 -19.700757
Cd 3.289651 19.700757 -16.418644
Cd 0.007538 22.982871 -16.418644
Cd 0.007538 19.700757 -13.136530
Cd 3.289651 22.982871 -13.136530
Cd 3.289651 19.700757 -9.854417
Cd 0.007538 22.982871 -9.854417
Cd 0.007538 19.700757 -6.572303
Cd 3.289651 22.982871 -6.572303
Cd 3.289651 19.700757 -3.290190
Cd 0.007538 22.982871 -3.290190
Cd 0.007538 19.700757 -0.008076
Cd 3.289651 22.982871 -0.008076
Cd 3.289651 19.700757 3.274037
Cd 0.007538 22.982871 3.274037
Cd 0.007538 19.700757 6.556151
Cd 3.289651 22.982871 6.556151
Cd 3.289651 19.700757 9.838265
Cd 0.007538 22.982871 9.838265
Cd 0.007538 19.700757 13.120378
Cd 3.289651 22.982871 13.120378
Cd 3.289651 19.700757 16.402492
Cd 0.007538 22.982871 16.402492
Cd 0.007538 19.700757 19.684605
Cd 3.289651 22.982871 19.684605
Cd 3.289651 19.700757 22.966719
Cd 0.007538 22.982871 22.966719
Cd 0.007538 19.700757 26.248832
Cd 3.289651 22.982871 26.248832
Cd 3.289651 19.700757 29.530946
Cd 0.007538 22.982871 29.530946
Cd 0.007538 19.700757 32.813059
Cd 3.289651 22.982871 32.813059
Cd 3.289651 26.264985 -22.982871
Cd 0.007538 29.547098 -22.982871
Cd 0.007538 26.264985 -19.700757
Cd 3.289651 26.264985 -16.418644
Cd 0.007538 29.547098 -16.418644
Cd 0.007538 26.264985 -13.136530
Cd 3.289651 29.547098 -13.136530
Cd 3.289651 26.264985 -9.854417
Cd 0.007538 29.547098 -9.854417
Cd 0.007538 26.264985 -6.572303
Cd 3.289651 29.547098 -6.572303
Cd 3.289651 26.264985 -3.290190
Cd 0.007538 29.547098 -3.290190
Cd 0.007538 26.264985 -0.008076
Cd 3.289651 29.547098 -0.008076
Cd 3.289651 26.264985 3.274037
Cd 0.007538 29.547098 3.274037
Cd 0.007538 26.264985 6.556151
Cd 3.289651 29.547098 6.556151
Cd 3.289651 26.264985 9.838265
Cd 0.007538 29.547098 9.838265
Cd 0.007538 26.264985 13.120378
Cd 3.289651 29.547098 13.120378
Cd 3.289651 26.264985 16.402492
Cd 0.007538 29.547098 16.402492
Cd 0.007538 26.264985 19.684605
Cd 3.289651 29.547098 19.684605
Cd 3.289651 26.264985 22.966719
Cd 0.007538 29.547098 22.966719
Cd 3.289651 29.547098 26.248832
Cd 3.289651 26.264985 29.530946
Cd 0.007538 32.829212 -19.700757
Cd 3.289651 32.829212 -16.418644
Cd 0.007538 32.829212 -13.136530
Cd 3.289651 32.829212 -9.854417
Cd 0.007538 32.829212 -6.572303
Cd 3.289651 32.829212 -3.290190
Cd 0.007538 32.829212 -0.008076
Cd 3.289651 32.829212 3.274037
Cd 0.007538 32.829212 6.556151
Cd 3.289651 32.829212 9.838265
Cd 0.007538 32.829212 13.120378
Cd 3.289651 32.829212 16.402492
Cd 0.007538 32.829212 19.684605
Cd 3.289651 32.829212 22.966719
Cd 6.571765 -29.530946 -22.982871
Cd 6.571765 -32.813059 -19.700757
Cd 9.853878 -32.813059 -16.418644
Cd 6.571765 -29.530946 -16.418644
Cd 6.571765 -32.813059 -13.136530
Cd 9.853878 -29.530946 -13.136530
Cd 9.853878 -32.813059 -9.854417
Cd 6.571765 -29.530946 -9.854417
Cd 6.571765 -32.813059 -6.572303
Cd 9.853878 -29.530946 -6.572303
Cd 9.853878 -32.813059 -3.290190
Cd 6.571765 -29.530946 -3.290190
Cd 6.571765 -32.813059 -0.008076
Cd 9.853878 -29.530946 -0.008076
Cd 9.853878 -32.813059 3.274037
Cd 6.571765 -29.530946 3.274037
Cd 6.571765 -32.813059 6.556151
Cd 9.853878 -29.530946 6.556151
Cd 9.853878 -32.813059 9.838265
Cd 6.571765 -29.530946 9.838265
Cd 6.571765 -32.813059 13.120378
Cd 6.571765 -29.530946 16.402492
Cd 6.571765 -22.966719 -29.547098
Cd 9.853878 -22.966719 -26.264985
Cd 9.853878 -26.248832 -22.982871
Cd 6.571765 -22.966719 -22.982871
Cd 6.571765 -26.248832 -19.700757
Cd 9.853878 -22.966719 -19.700757
Cd 9.853878 -26.248832 -16.418644
Cd 6.571765 -22.966719 -16.418644
Cd 6.571765 -26.248832 -13.136530
Cd 9.853878 -22.966719 -13.136530
Cd 9.853878 -26.248832 -9.854417
Cd 6.571765 -22.966719 -9.854417
Cd 6.571765 -26.248832 -6.572303
Cd 9.853878 -22.966719 -6.572303
Cd 9.853878 -26.248832 -3.290190
Cd 6.571765 -22.966719 -3.290190
Cd 6.571765 -26.248832 -0.008076
Cd 9.853878 -22.966719 -0.008076
Cd 9.853878 -26.248832 3.274037
Cd 6.571765 -22.966719 3.274037
Cd 6.571765 -26.248832 6.556151
Cd 9.853878 -22.966719 6.556151
Cd 9.853878 -26.248832 9.838265
Cd 6.571765 -22.966719 9.838265
Cd 6.571765 -26.248832 13.120378
Cd 9.853878 -22.966719 13.120378
Cd 9.853878 -26.248832 16.402492
Cd 6.571765 -22.966719 16.402492
Cd 9.853878 -22.966719 19.684605
Cd 6.571765 -22.966719 22.966719
Cd 6.571765 -19.684605 -32.829212
Cd 9.853878 -16.402492 -32.829212
Cd 6.571765 -16.402492 -29.547098
Cd 6.571765 -19.684605 -26.264985
Cd 9.853878 -16.402492 -26.264985
Cd 9.853878 -19.684605 -22.982871
Cd 6.571765 -16.402492 -22.982871
Cd 6.571765 -19.684605 -19.700757
Cd 9.853878 -16.402492 -19.700757
Cd 9.853878 -19.684605 -16.418644
Cd 6.571765 -16.402492 -16.418644
Cd 6.571765 -19.684605 -13.136530
Cd 9.853878 -16.402492 -13.136530
Cd 9.853878 -19.684605 -9.854417
Cd 6.571765 -16.402492 -9.854417
Cd 6.571765 -19.684605 -6.572303
Cd 9.853878 -16.402492 -6.572303
Cd 9.853878 -19.684605 -3.290190
Cd 6.571765 -16.402492 -3.290190
Cd 6.571765 -19.684605 -0.008076
Cd 9.853878 -16.402492 -0.008076
Cd 9.853878 -19.684605 3.274037
Cd 6.571765 -16.402492 3.274037
Cd 6.571765 -19.684605 6.556151
Cd 9.853878 -16.402492 6.556151
Cd 9.853878 -19.684605 9.838265
Cd 6.571765 -16.402492 9.838265
Cd 6.571765 -19.684605 13.120378
Cd 9.853878 -16.402492 13.120378
Cd 9.853878 -19.684605 16.402492
Cd 6.571765 -16.402492 16.402492
Cd 6.571765 -19.684605 19.684605
Cd 9.853878 -16.402492 19.684605
Cd 6.571765 -16.402492 22.966719
Cd 6.571765 -19.684605 26.248832
Cd 9.853878 -16.402492 26.248832
Cd 6.571765 -13.120378 -32.829212
Cd 9.853878 -9.838265 -32.829212
Cd 9.853878 -13.120378 -29.547098
Cd 6.571765 -9.838265 -29.547098
Cd 6.571765 -13.120378 -26.264985
Cd 9.853878 -9.838265 -26.264985
Cd 9.853878 -13.120378 -22.982871
Cd 6.571765 -9.838265 -22.982871
Cd 6.571765 -13.120378 -19.700757
Cd 9.853878 -9.838265 -19.700757
Cd 9.853878 -13.120378 -16.418644
Cd 6.571765 -9.838265 -16.418644
Cd 6.571765 -13.120378 -13.136530
Cd 9.853878 -9.838265 -13.136530
Cd 9.853878 -13.120378 -9.854417
Cd 6.571765 -9.838265 -9.854417
Cd 6.571765 -13.120378 -6.572303
Cd 9.853878 -9.838265 -6.572303
Cd 9.853878 -13.120378 -3.290190
Cd 6.571765 -9.838265 -3.290190
Cd 6.571765 -13.120378 -0.008076
Cd 9.853878 -9.838265 -0.008076
Cd 9.853878 -13.120378 3.274037
Cd 6.571765 -9.838265 3.274037
Cd 6.571765 -13.120378 6.556151
Cd 9.853878 -9.838265 6.556151
Cd 9.853878 -13.120378 9.838265
Cd 6.571765 -9.838265 9.838265
Cd 6.571765 -13.120378 13.120378
Cd 9.853878 -9.838265 13.120378
Cd 9.853878 -13.120378 16.402492
Cd 6.571765 -9.838265 16.402492
Cd 6.571765 -13.120378 19.684605
Cd 9.853878 -9.838265 19.684605
Cd 9.853878 -13.120378 22.966719
Cd 6.571765 -9.838265 22.966719
Cd 6.571765 -13.120378 26.248832
Cd 9.853878 -9.838265 26.248832
Cd 9.853878 -13.120378 29.530946
Cd 6.571765 -9.838265 29.530946
Cd 6.571765 -13.120378 32.813059
Cd 9.853878 -9.838265 32.813059
Cd 6.571765 -6.556151 -32.829212
Cd 9.853878 -3.274037 -32.829212
Cd 9.853878 -6.556151 -29.547098
Cd 6.571765 -3.274037 -29.547098
Cd 6.571765 -6.556151 -26.264985
Cd 9.853878 -3.274037 -26.264985
Cd 9.853878 -6.556151 -22.982871
Cd 6.571765 -3.274037 -22.982871
Cd 6.571765 -6.556151 -19.700757
Cd 9.853878 -3.274037 -19.700757
Cd 9.853878 -6.556151 -16.418644
Cd 6.571765 -3.274037 -16.418644
Cd 6.571765 -6.556151 -13.136530
Cd 9.853878 -3.274037 -13.136530
Cd 9.853878 -6.556151 -9.854417
Cd 6.571765 -3.274037 -9.854417
Cd 6.571765 -6.556151 -6.572303
Cd 9.853878 -3.274037 -6.572303
Cd 9.853878 -6.556151 -3.290190
Cd 6.571765 -3.274037 -3.290190
Cd 6.571765 -6.556151 -0.008076
Cd 9.853878 -3.274037 -0.008076
Cd 9.853878 -6.556151 3.274037
Cd 6.571765 -3.274037 3.274037
Cd 6.571765 -6.556151 6.556151
Cd 9.853878 -3.274037 6.556151
Cd 9.853878 -6.556151 9.838265
Cd 6.571765 -3.274037 9.838265
Cd 6.571765 -6.556151 13.120378
Cd 9.853878 -3.274037 13.120378
Cd 9.853878 -6.556151 16.402492
Cd 6.571765 -3.274037 16.402492
Cd 6.571765 -6.556151 19.684605
Cd 9.853878 -3.274037 19.684605
Cd 9.853878 -6.556151 22.966719
Cd 6.571765 -3.274037 22.966719
Cd 6.571765 -6.556151 26.248832
Cd 9.853878 -3.274037 26.248832
Cd 9.853878 -6.556151 29.530946
Cd 6.571765 -3.274037 29.530946
Cd 6.571765 -6.556151 32.813059
Cd 9.853878 -3.274037 32.813059
Cd 6.571765 0.008076 -32.829212
Cd 9.853878 3.290190 -32.829212
Cd 9.853878 0.008076 -29.547098
Cd 6.571765 3.290190 -29.547098
Cd 6.571765 0.008076 -26.264985
Cd 9.853878 3.290190 -26.264985
Cd 9.853878 0.008076 -22.982871
Cd 6.571765 3.290190 -22.982871
Cd 6.571765 0.008076 -19.700757
Cd 9.853878 3.290190 -19.700757
Cd 9.853878 0.008076 -16.418644
Cd 6.571765 3.290190 -16.418644
Cd 6.571765 0.008076 -13.136530
Cd 9.853878 3.290190 -13.136530
Cd 9.853878 0.008076 -9.854417
Cd 6.571765 3.290190 -9.854417
Cd 6.571765 0.008076 -6.572303
Cd 9.853878 3.290190 -6.572303
Cd 9.853878 0.008076 -3.290190
Cd 6.571765 3.290190 -3.290190
Cd 6.571765 0.008076 -0.008076
Cd 9.853878 3.290190 -0.008076
Cd 9.853878 0.008076 3.274037
Cd 6.571765 3.290190 3.274037
Cd 6.571765 0.008076 6.556151
Cd 9.853878 3.290190 6.556151
Cd 9.853878 0.008076 9.838265
Cd 6.571765 3.290190 9.838265
Cd 6.571765 0.008076 13.120378
Cd 9.853878 3.290190 13.120378
Cd 9.853878 0.008076 16.402492
Cd 6.571765 3.290190 16.402492
Cd 6.571765 0.008076 19.684605
Cd 9.853878 3.290190 19.684605
Cd 9.853878 0.008076 22.966719
Cd 6.571765 3.290190 22.966719
Cd 6.571765 0.008076 26.248832
Cd 9.853878 3.290190 26.248832
Cd 9.853878 0.008076 29.530946
Cd 6.571765 3.290190 29.530946
Cd 6.571765 0.008076 32.813059
Cd 9.853878 3.290190 32.813059
Cd 6.571765 6.572303 -32.829212
Cd 9.853878 9.854417 -32.829212
Cd 9.853878 6.572303 -29.547098
Cd 6.571765 9.854417 -29.547098
Cd 6.571765 6.572303 -26.264985
Cd 9.853878 9.854417 -26.264985
Cd 9.853878 6.572303 -22.982871
Cd 6.571765 9.854417 -22.982871
Cd 6.571765 6.572303 -19.700757
Cd 9.853878 9.854417 -19.700757
Cd 9.853878 6.572303 -16.418644
Cd 6.571765 9.854417 -16.418644
Cd 6.571765 6.572303 -13.136530
Cd 9.853878 9.854417 -13.136530
Cd 9.853878 6.572303 -9.854417
Cd 6.571765 9.854417 -9.854417
Cd 6.571765 6.572303 -6.572303
Cd 9.853878 9.854417 -6.572303
Cd 9.853878 6.572303 -3.290190
Cd 6.571765 9.854417 -3.290190
Cd 6.571765 6.572303 -0.008076
Cd 9.853878 9.854417 -0.008076
Cd 9.853878 6.572303 3.274037
Cd 6.571765 9.854417 3.274037
Cd 6.571765 6.572303 6.556151
Cd 9.853878 9.854417 6.556151
Cd 9.853878 6.572303 9.838265
Cd 6.571765 9.854417 9.838265
Cd 6.571765 6.572303 13.120378
Cd 9.853878 9.854417 13.120378
Cd 9.853878 6.572303 16.402492
Cd 6.571765 9.854417 16.402492
Cd 6.571765 6.572303 19.684605
Cd 9.853878 9.854417 19.684605
Cd 9.853878 6.572303 22.966719
Cd 6.571765 9.854417 22.966719
Cd 6.571765 6.572303 26.248832
Cd 9.853878 9.854417 26.248832
Cd 9.853878 6.572303 29.530946
Cd 6.571765 9.854417 29.530946
Cd 6.571765 6.572303 32.813059
Cd 9.853878 9.854417 32.813059
Cd 6.571765 13.136530 -32.829212
Cd 9.853878 13.136530 -29.547098
Cd 6.571765 16.418644 -29.547098
Cd 6.571765 13.136530 -26.264985
Cd 9.853878 13.136530 -22.982871
Cd 6.571765 16.418644 -22.982871
Cd 6.571765 13.136530 -19.700757
Cd 9.853878 16.418644 -19.700757
Cd 9.853878 13.136530 -16.418644
Cd 6.571765 16.418644 -16.418644
Cd 6.571765 13.136530 -13.136530
Cd 9.853878 16.418644 -13.136530
Cd 9.853878 13.136530 -9.854417
Cd 6.571765 16.418644 -9.854417
Cd 6.571765 13.136530 -6.572303
Cd 9.853878 16.418644 -6.572303
Cd 9.853878 13.136530 -3.290190
Cd 6.571765 16.418644 -3.290190
Cd 6.571765 13.136530 -0.008076
Cd 9.853878 16.418644 -0.008076
Cd 9.853878 13.136530 3.274037
Cd 6.571765 16.418644 3.274037
Cd 6.571765 13.136530 6.556151
Cd 9.853878 16.418644 6.556151
Cd 9.853878 13.136530 9.838265
Cd 6.571765 16.418644 9.838265
Cd 6.571765 13.136530 13.120378
Cd 9.853878 16.418644 13.120378
Cd 9.853878 13.136530 16.402492
Cd 6.571765 16.418644 16.402492
Cd 6.571765 13.136530 19.684605
Cd 9.853878 16.418644 19.684605
Cd 9.853878 13.136530 22.966719
Cd 6.571765 16.418644 22.966719
Cd 6.571765 13.136530 26.248832
Cd 9.853878 16.418644 26.248832
Cd 9.853878 13.136530 29.530946
Cd 6.571765 16.418644 29.530946
Cd 6.571765 13.136530 32.813059
Cd 9.853878 16.418644 32.813059
Cd 6.571765 19.700757 -26.264985
Cd 9.853878 19.700757 -22.982871
Cd 6.571765 19.700757 -19.700757
Cd 9.853878 22.982871 -19.700757
Cd 9.853878 19.700757 -16.418644
Cd 6.571765 22.982871 -16.418644
Cd 6.571765 19.700757 -13.136530
Cd 9.853878 22.982871 -13.136530
Cd 9.853878 19.700757 -9.854417
Cd 6.571765 22.982871 -9.854417
Cd 6.571765 19.700757 -6.572303
Cd 9.853878 22.982871 -6.572303
Cd 9.853878 19.700757 -3.290190
Cd 6.571765 22.982871 -3.290190
Cd 6.571765 19.700757 -0.008076
Cd 9.853878 22.982871 -0.008076
Cd 9.853878 19.700757 3.274037
Cd 6.571765 22.982871 3.274037
Cd 6.571765 19.700757 6.556151
Cd 9.853878 22.982871 6.556151
Cd 9.853878 19.700757 9.838265
Cd 6.571765 22.982871 9.838265
Cd 6.571765 19.700757 13.120378
Cd 9.853878 22.982871 13.120378
Cd 9.853878 19.700757 16.402492
Cd 6.571765 22.982871 16.402492
Cd 6.571765 19.700757 19.684605
Cd 9.853878 22.982871 19.684605
Cd 9.853878 19.700757 22.966719
Cd 6.571765 22.982871 22.966719
Cd 6.571765 19.700757 26.248832
Cd 9.853878 22.982871 26.248832
Cd 6.571765 22.982871 29.530946
Cd 6.571765 19.700757 32.813059
Cd 6.571765 26.264985 -19.700757
Cd 6.571765 29.547098 -16.418644
Cd 6.571765 26.264985 -13.136530
Cd 9.853878 29.547098 -13.136530
Cd 9.853878 26.264985 -9.854417
Cd 6.571765 29.547098 -9.854417
Cd 6.571765 26.264985 -6.572303
Cd 9.853878 29.547098 -6.572303
Cd 9.853878 26.264985 -3.290190
Cd 6.571765 29.547098 -3.290190
Cd 6.571765 26.264985 -0.008076
Cd 9.853878 29.547098 -0.008076
Cd 9.853878 26.264985 3.274037
Cd 6.571765 29.547098 3.274037
Cd 6.571765 26.264985 6.556151
Cd 9.853878 29.547098 6.556151
Cd 9.853878 26.264985 9.838265
Cd 6.571765 29.547098 9.838265
Cd 6.571765 26.264985 13.120378
Cd 9.853878 29.547098 13.120378
Cd 9.853878 26.264985 16.402492
Cd 6.571765 29.547098 16.402492
Cd 6.571765 26.264985 19.684605
Cd 9.853878 26.264985 22.966719
Cd 6.571765 29.547098 22.966719
Cd 6.571765 32.829212 -13.136530
Cd 9.853878 32.829212 -9.854417
Cd 6.571765 32.829212 -6.572303
Cd 9.853878 32.829212 -3.290190
Cd 6.571765 32.829212 -0.008076
Cd 9.853878 32.829212 3.274037
Cd 6.571765 32.829212 6.556151
Cd 9.853878 32.829212 9.838265
Cd 6.571765 32.829212 13.120378
Cd 9.853878 32.829212 16.402492
Cd 6.571765 32.829212 19.684605
Cd 13.135992 -29.530946 -16.418644
Cd 13.135992 -32.813059 -13.136530
Cd 16.418105 -29.530946 -13.136530
Cd 16.418105 -32.813059 -9.854417
Cd 13.135992 -29.530946 -9.854417
Cd 13.135992 -32.813059 -6.572303
Cd 16.418105 -29.530946 -6.572303
Cd 16.418105 -32.813059 -3.290190
Cd 13.135992 -29.530946 -3.290190
Cd 13.135992 -32.813059 -0.008076
Cd 16.418105 -29.530946 -0.008076
Cd 16.418105 -32.813059 3.274037
Cd 13.135992 -29.530946 3.274037
Cd 13.135992 -32.813059 6.556151
Cd 16.418105 -29.530946 6.556151
Cd 13.135992 -29.530946 9.838265
Cd 13.135992 -22.966719 -22.982871
Cd 13.135992 -26.248832 -19.700757
Cd 16.418105 -26.248832 -16.418644
Cd 13.135992 -22.966719 -16.418644
Cd 13.135992 -26.248832 -13.136530
Cd 16.418105 -22.966719 -13.136530
Cd 16.418105 -26.248832 -9.854417
Cd 13.135992 -22.966719 -9.854417
Cd 13.135992 -26.248832 -6.572303
Cd 16.418105 -22.966719 -6.572303
Cd 16.418105 -26.248832 -3.290190
Cd 13.135992 -22.966719 -3.290190
Cd 13.135992 -26.248832 -0.008076
Cd 16.418105 -22.966719 -0.008076
Cd 16.418105 -26.248832 3.274037
Cd 13.135992 -22.966719 3.274037
Cd 13.135992 -26.248832 6.556151
Cd 16.418105 -22.966719 6.556151
Cd 13.135992 -22.966719 9.838265
Cd 13.135992 -26.248832 13.120378
Cd 16.418105 -22.966719 13.120378
Cd 13.135992 -16.402492 -29.547098
Cd 13.135992 -19.684605 -26.264985
Cd 16.418105 -19.684605 -22.982871
Cd 13.135992 -16.402492 -22.982871
Cd 13.135992 -19.684605 -19.700757
Cd 16.418105 -16.402492 -19.700757
Cd 16.418105 -19.684605 -16.418644
Cd 13.135992 -16.402492 -16.418644
Cd 13.135992 -19.684605 -13.136530
Cd 16.418105 -16.402492 -13.136530
Cd 16.418105 -19.684605 -9.854417
Cd 13.135992 -16.402492 -9.854417
Cd 13.135992 -19.684605 -6.572303
Cd 16.418105 -16.402492 -6.572303
Cd 16.418105 -19.684605 -3.290190
Cd 13.135992 -16.402492 -3.290190
Cd 13.135992 -19.684605 -0.008076
Cd 16.418105 -16.402492 -0.008076
Cd 16.418105 -19.684605 3.274037
Cd 13.135992 -16.402492 3.274037
Cd 13.135992 -19.684605 6.556151
Cd 16.418105 -16.402492 6.556151
Cd 16.418105 -19.684605 9.838265
Cd 13.135992 -16.402492 9.838265
Cd 13.135992 -19.684605 13.120378
Cd 16.418105 -16.402492 13.120378
Cd 16.418105 -19.684605 16.402492
Cd 13.135992 -16.402492 16.402492
Cd 13.135992 -19.684605 19.684605
Cd 13.135992 -16.402492 22.966719
Cd 13.135992 -13.120378 -32.829212
Cd 16.418105 -9.838265 -32.829212
Cd 16.418105 -13.120378 -29.547098
Cd 13.135992 -9.838265 -29.547098
Cd 13.135992 -13.120378 -26.264985
Cd 16.418105 -9.838265 -26.264985
Cd 16.418105 -13.120378 -22.982871
Cd 13.135992 -9.838265 -22.982871
Cd 13.135992 -13.120378 -19.700757
Cd 16.418105 -9.838265 -19.700757
Cd 16.418105 -13.120378 -16.418644
Cd 13.135992 -9.838265 -16.418644
Cd 13.135992 -13.120378 -13.136530
Cd 16.418105 -9.838265 -13.136530
Cd 16.418105 -13.120378 -9.854417
Cd 13.135992 -9.838265 -9.854417
Cd 13.135992 -13.120378 -6.572303
Cd 16.418105 -9.838265 -6.572303
Cd 16.418105 -13.120378 -3.290190
Cd 13.135992 -9.838265 -3.290190
Cd 13.135992 -13.120378 -0.008076
Cd 16.418105 -9.838265 -0.008076
Cd 16.418105 -13.120378 3.274037
Cd 13.135992 -9.838265 3.274037
Cd 13.135992 -13.120378 6.556151
Cd 16.418105 -9.838265 6.556151
Cd 16.418105 -13.120378 9.838265
Cd 13.135992 -9.838265 9.838265
Cd 13.135992 -13.120378 13.120378
Cd 16.418105 -9.838265 13.120378
Cd 16.418105 -13.120378 16.402492
Cd 13.135992 -9.838265 16.402492
Cd 13.135992 -13.120378 19.684605
Cd 16.418105 -9.838265 19.684605
Cd 16.418105 -13.120378 22.966719
Cd 13.135992 -9.838265 22.966719
Cd 16.418105 -9.838265 26.248832
Cd 13.135992 -9.838265 29.530946
Cd 13.135992 -6.556151 -32.829212
Cd 16.418105 -3.274037 -32.829212
Cd 16.418105 -6.556151 -29.547098
Cd 13.135992 -3.274037 -29.547098
Cd 13.135992 -6.556151 -26.264985
Cd 16.418105 -3.274037 -26.264985
Cd 16.418105 -6.556151 -22.982871
Cd 13.135992 -3.274037 -22.982871
Cd 13.135992 -6.556151 -19.700757
Cd 16.418105 -3.274037 -19.700757
Cd 16.418105 -6.556151 -16.418644
Cd 13.135992 -3.274037 -16.418644
Cd 13.135992 -6.556151 -13.136530
Cd 16.418105 -3.274037 -13.136530
Cd 16.418105 -6.556151 -9.854417
Cd 13.135992 -3.274037 -9.854417
Cd 13.135992 -6.556151 -6.572303
Cd 16.418105 -3.274037 -6.572303
Cd 16.418105 -6.556151 -3.290190
Cd 13.135992 -3.274037 -3.290190
Cd 13.135992 -6.556151 -0.008076
Cd 16.418105 -3.274037 -0.008076
Cd 16.418105 -6.556151 3.274037
Cd 13.135992 -3.274037 3.274037
Cd 13.135992 -6.556151 6.556151
Cd 16.418105 -3.274037 6.556151
Cd 16.418105 -6.556151 9.838265
Cd 13.135992 -3.274037 9.838265
Cd 13.135992 -6.556151 13.120378
Cd 16.418105 -3.274037 13.120378
Cd 16.418105 -6.556151 16.402492
Cd 13.135992 -3.274037 16.402492
Cd 13.135992 -6.556151 19.684605
Cd 16.418105 -3.274037 19.684605
Cd 16.418105 -6.556151 22.966719
Cd 13.135992 -3.274037 22.966719
Cd 13.135992 -6.556151 26.248832
Cd 16.418105 -3.274037 26.248832
Cd 13.135992 -3.274037 29.530946
Cd 13.135992 -6.556151 32.813059
Cd 16.418105 -3.274037 32.813059
Cd 13.135992 0.008076 -32.829212
Cd 16.418105 3.290190 -32.829212
Cd 16.418105 0.008076 -29.547098
Cd 13.135992 3.290190 -29.547098
Cd 13.135992 0.008076 -26.264985
Cd 16.418105 3.290190 -26.264985
Cd 16.418105 0.008076 -22.982871
Cd 13.135992 3.290190 -22.982871
Cd 13.135992 0.008076 -19.700757
Cd 16.418105 3.290190 -19.700757
Cd 16.418105 0.008076 -16.418644
Cd 13.135992 3.290190 -16.418644
Cd 13.135992 0.008076 -13.136530
Cd 16.418105 3.290190 -13.136530
Cd 16.418105 0.008076 -9.854417
Cd 13.135992 3.290190 -9.854417
Cd 13.135992 0.008076 -6.572303
Cd 16.418105 3.290190 -6.572303
Cd 16.418105 0.008076 -3.290190
Cd 13.135992 3.290190 -3.290190
Cd 13.135992 0.008076 -0.008076
Cd 16.418105 3.290190 -0.008076
Cd 16.418105 0.008076 3.274037
Cd 13.135992 3.290190 3.274037
Cd 13.135992 0.008076 6.556151
Cd 16.418105 3.290190 6.556151
Cd 16.418105 0.008076 9.838265
Cd 13.135992 3.290190 9.838265
Cd 13.135992 0.008076 13.120378
Cd 16.418105 3.290190 13.120378
Cd 16.418105 0.008076 16.402492
Cd 13.135992 3.290190 16.402492
Cd 13.135992 0.008076 19.684605
Cd 16.418105 3.290190 19.684605
Cd 16.418105 0.008076 22.966719
Cd 13.135992 3.290190 22.966719
Cd 13.135992 0.008076 26.248832
Cd 16.418105 3.290190 26.248832
Cd 16.418105 0.008076 29.530946
Cd 13.135992 3.290190 29.530946
Cd 13.135992 0.008076 32.813059
Cd 16.418105 3.290190 32.813059
Cd 13.135992 6.572303 -32.829212
Cd 16.418105 6.572303 -29.547098
Cd 13.135992 6.572303 -26.264985
Cd 16.418105 9.854417 -26.264985
Cd 16.418105 6.572303 -22.982871
Cd 13.135992 9.854417 -22.982871
Cd 13.135992 6.572303 -19.700757
Cd 16.418105 9.854417 -19.700757
Cd 16.418105 6.572303 -16.418644
Cd 13.135992 9.854417 -16.418644
Cd 13.135992 6.572303 -13.136530
Cd 16.418105 9.854417 -13.136530
Cd 16.418105 6.572303 -9.854417
Cd 13.135992 9.854417 -9.854417
Cd 13.135992 6.572303 -6.572303
Cd 16.418105 9.854417 -6.572303
Cd 16.418105 6.572303 -3.290190
Cd 13.135992 9.854417 -3.290190
Cd 13.135992 6.572303 -0.008076
Cd 16.418105 9.854417 -0.008076
Cd 16.418105 6.572303 3.274037
Cd 13.135992 9.854417 3.274037
Cd 13.135992 6.572303 6.556151
Cd 16.418105 9.854417 6.556151
Cd 16.418105 6.572303 9.838265
Cd 13.135992 9.854417 9.838265
Cd 13.135992 6.572303 13.120378
Cd 16.418105 9.854417 13.120378
Cd 16.418105 6.572303 16.402492
Cd 13.135992 9.854417 16.402492
Cd 13.135992 6.572303 19.684605
Cd 16.418105 9.854417 19.684605
Cd 16.418105 6.572303 22.966719
Cd 13.135992 9.854417 22.966719
Cd 13.135992 6.572303 26.248832
Cd 16.418105 9.854417 26.248832
Cd 16.418105 6.572303 29.530946
Cd 13.135992 9.854417 29.530946
Cd 13.135992 6.572303 32.813059
Cd 16.418105 9.854417 32.813059
Cd 13.135992 13.136530 -26.264985
Cd 13.135992 16.418644 -22.982871
Cd 13.135992 13.136530 -19.700757
Cd 16.418105 16.418644 -19.700757
Cd 16.418105 13.136530 -16.418644
Cd 13.135992 16.418644 -16.418644
Cd 13.135992 13.136530 -13.136530
Cd 16.418105 16.418644 -13.136530
Cd 16.418105 13.136530 -9.854417
Cd 13.135992 16.418644 -9.854417
Cd 13.135992 13.136530 -6.572303
Cd 16.418105 16.418644 -6.572303
Cd 16.418105 13.136530 -3.290190
Cd 13.135992 16.418644 -3.290190
Cd 13.135992 13.136530 -0.008076
Cd 16.418105 16.418644 -0.008076
Cd 16.418105 13.136530 3.274037
Cd 13.135992 16.418644 3.274037
Cd 13.135992 13.136530 6.556151
Cd 16.418105 16.418644 6.556151
Cd 16.418105 13.136530 9.838265
Cd 13.135992 16.418644 9.838265
Cd 13.135992 13.136530 13.120378
Cd 16.418105 16.418644 13.120378
Cd 16.418105 13.136530 16.402492
Cd 13.135992 16.418644 16.402492
Cd 13.135992 13.136530 19.684605
Cd 16.418105 16.418644 19.684605
Cd 16.418105 13.136530 22.966719
Cd 13.135992 16.418644 22.966719
Cd 13.135992 13.136530 26.248832
Cd 16.418105 13.136530 29.530946
Cd 13.135992 16.418644 29.530946
Cd 13.135992 13.136530 32.813059
Cd 16.418105 19.700757 -16.418644
Cd 13.135992 22.982871 -16.418644
Cd 13.135992 19.700757 -13.136530
Cd 16.418105 19.700757 -9.854417
Cd 13.135992 22.982871 -9.854417
Cd 13.135992 19.700757 -6.572303
Cd 16.418105 22.982871 -6.572303
Cd 16.418105 19.700757 -3.290190
Cd 13.135992 22.982871 -3.290190
Cd 13.135992 19.700757 -0.008076
Cd 16.418105 22.982871 -0.008076
Cd 16.418105 19.700757 3.274037
Cd 13.135992 22.982871 3.274037
Cd 13.135992 19.700757 6.556151
Cd 16.418105 22.982871 6.556151
Cd 16.418105 19.700757 9.838265
Cd 13.135992 22.982871 9.838265
Cd 13.135992 19.700757 13.120378
Cd 16.418105 22.982871 13.120378
Cd 16.418105 19.700757 16.402492
Cd 13.135992 22.982871 16.402492
Cd 13.135992 19.700757 19.684605
Cd 16.418105 22.982871 19.684605
Cd 16.418105 19.700757 22.966719
Cd 13.135992 19.700757 26.248832
Cd 13.135992 26.264985 -13.136530
Cd 16.418105 26.264985 -9.854417
Cd 13.135992 26.264985 -6.572303
Cd 16.418105 29.547098 -6.572303
Cd 16.418105 26.264985 -3.290190
Cd 13.135992 29.547098 -3.290190
Cd 13.135992 26.264985 -0.008076
Cd 16.418105 29.547098 -0.008076
Cd 16.418105 26.264985 3.274037
Cd 13.135992 29.547098 3.274037
Cd 13.135992 26.264985 6.556151
Cd 16.418105 29.547098 6.556151
Cd 16.418105 26.264985 9.838265
Cd 13.135992 29.547098 9.838265
Cd 13.135992 26.264985 13.120378
Cd 16.418105 29.547098 13.120378
Cd 13.135992 29.547098 16.402492
Cd 13.135992 26.264985 19.684605
Cd 13.135992 32.829212 -6.572303
Cd 16.418105 32.829212 -3.290190
Cd 13.135992 32.829212 -0.008076
Cd 16.418105 32.829212 3.274037
Cd 13.135992 32.829212 6.556151
Cd 16.418105 32.829212 9.838265
Cd 13.135992 32.829212 13.120378
Cd 19.700219 -32.813059 -6.572303
Cd 22.982333 -29.530946 -6.572303
Cd 22.982333 -32.813059 -3.290190
Cd 19.700219 -29.530946 -3.290190
Cd 19.700219 -32.813059 -0.008076
Cd 22.982333 -29.530946 -0.008076
Cd 19.700219 -22.966719 -16.418644
Cd 19.700219 -26.248832 -13.136530
Cd 22.982333 -22.966719 -13.136530
Cd 22.982333 -26.248832 -9.854417
Cd 19.700219 -22.966719 -9.854417
Cd 19.700219 -26.248832 -6.572303
Cd 22.982333 -22.966719 -6.572303
Cd 22.982333 -26.248832 -3.290190
Cd 19.700219 -22.966719 -3.290190
Cd 19.700219 -26.248832 -0.008076
Cd 22.982333 -22.966719 -0.008076
Cd 22.982333 -26.248832 3.274037
Cd 19.700219 -22.966719 3.274037
Cd 19.700219 -26.248832 6.556151
Cd 19.700219 -22.966719 9.838265
Cd 19.700219 -16.402492 -22.982871
Cd 19.700219 -19.684605 -19.700757
Cd 22.982333 -16.402492 -19.700757
Cd 22.982333 -19.684605 -16.418644
Cd 19.700219 -16.402492 -16.418644
Cd 19.700219 -19.684605 -13.136530
Cd 22.982333 -16.402492 -13.136530
Cd 22.982333 -19.684605 -9.854417
Cd 19.700219 -16.402492 -9.854417
Cd 19.700219 -19.684605 -6.572303
Cd 22.982333 -16.402492 -6.572303
Cd 22.982333 -19.684605 -3.290190
Cd 19.700219 -16.402492 -3.290190
Cd 19.700219 -19.684605 -0.008076
Cd 22.982333 -16.402492 -0.008076
Cd 22.982333 -19.684605 3.274037
Cd 19.700219 -16.402492 3.274037
Cd 19.700219 -19.684605 6.556151
Cd 22.982333 -16.402492 6.556151
Cd 22.982333 -19.684605 9.838265
Cd 19.700219 -16.402492 9.838265
Cd 22.982333 -16.402492 13.120378
Cd 19.700219 -16.402492 16.402492
Cd 19.700219 -13.120378 -26.264985
Cd 22.982333 -9.838265 -26.264985
Cd 19.700219 -9.838265 -22.982871
Cd 19.700219 -13.120378 -19.700757
Cd 22.982333 -9.838265 -19.700757
Cd 22.982333 -13.120378 -16.418644
Cd 19.700219 -9.838265 -16.418644
Cd 19.700219 -13.120378 -13.136530
Cd 22.982333 -9.838265 -13.136530
Cd 22.982333 -13.120378 -9.854417
Cd 19.700219 -9.838265 -9.854417
Cd 19.700219 -13.120378 -6.572303
Cd 22.982333 -9.838265 -6.572303
Cd 22.982333 -13.120378 -3.290190
Cd 19.700219 -9.838265 -3.290190
Cd 19.700219 -13.120378 -0.008076
Cd 22.982333 -9.838265 -0.008076
Cd 22.982333 -13.120378 3.274037
Cd 19.700219 -9.838265 3.274037
Cd 19.700219 -13.120378 6.556151
Cd 22.982333 -9.838265 6.556151
Cd 22.982333 -13.120378 9.838265
Cd 19.700219 -9.838265 9.838265
Cd 19.700219 -13.120378 13.120378
Cd 22.982333 -9.838265 13.120378
Cd 19.700219 -9.838265 16.402492
Cd 19.700219 -13.120378 19.684605
Cd 22.982333 -9.838265 19.684605
Cd 19.700219 -6.556151 -32.829212
Cd 22.982333 -3.274037 -32.829212
Cd 22.982333 -6.556151 -29.547098
Cd 19.700219 -3.274037 -29.547098
Cd 19.700219 -6.556151 -26.264985
Cd 22.982333 -3.274037 -26.264985
Cd 22.982333 -6.556151 -22.982871
Cd 19.700219 -3.274037 -22.982871
Cd 19.700219 -6.556151 -19.700757
Cd 22.982333 -3.274037 -19.700757
Cd 22.982333 -6.556151 -16.418644
Cd 19.700219 -3.274037 -16.418644
Cd 19.700219 -6.556151 -13.136530
Cd 22.982333 -3.274037 -13.136530
Cd 22.982333 -6.556151 -9.854417
Cd 19.700219 -3.274037 -9.854417
Cd 19.700219 -6.556151 -6.572303
Cd 22.982333 -3.274037 -6.572303
Cd 22.982333 -6.556151 -3.290190
Cd 19.700219 -3.274037 -3.290190
Cd 19.700219 -6.556151 -0.008076
Cd 22.982333 -3.274037 -0.008076
Cd 22.982333 -6.556151 3.274037
Cd 19.700219 -3.274037 3.274037
Cd 19.700219 -6.556151 6.556151
Cd 22.982333 -3.274037 6.556151
Cd 22.982333 -6.556151 9.838265
Cd 19.700219 -3.274037 9.838265
Cd 19.700219 -6.556151 13.120378
Cd 22.982333 -3.274037 13.120378
Cd 22.982333 -6.556151 16.402492
Cd 19.700219 -3.274037 16.402492
Cd 19.700219 -6.556151 19.684605
Cd 22.982333 -3.274037 19.684605
Cd 22.982333 -6.556151 22.966719
Cd 19.700219 -3.274037 22.966719
Cd 19.700219 -6.556151 26.248832
Cd 19.700219 -3.274037 29.530946
Cd 19.700219 0.008076 -32.829212
Cd 22.982333 0.008076 -29.547098
Cd 19.700219 3.290190 -29.547098
Cd 19.700219 0.008076 -26.264985
Cd 22.982333 3.290190 -26.264985
Cd 22.982333 0.008076 -22.982871
Cd 19.700219 3.290190 -22.982871
Cd 19.700219 0.008076 -19.700757
Cd 22.982333 3.290190 -19.700757
Cd 22.982333 0.008076 -16.418644
Cd 19.700219 3.290190 -16.418644
Cd 19.700219 0.008076 -13.136530
Cd 22.982333 3.290190 -13.136530
Cd 22.982333 0.008076 -9.854417
Cd 19.700219 3.290190 -9.854417
Cd 19.700219 0.008076 -6.572303
Cd 22.982333 3.290190 -6.572303
Cd 22.982333 0.008076 -3.290190
Cd 19.700219 3.290190 -3.290190
Cd 19.700219 0.008076 -0.008076
Cd 22.982333 3.290190 -0.008076
Cd 22.982333 0.008076 3.274037
Cd 19.700219 3.290190 3.274037
Cd 19.700219 0.008076 6.556151
Cd 22.982333 3.290190 6.556151
Cd 22.982333 0.008076 9.838265
Cd 19.700219 3.290190 9.838265
Cd 19.700219 0.008076 13.120378
Cd 22.982333 3.290190 13.120378
Cd 22.982333 0.008076 16.402492
Cd 19.700219 3.290190 16.402492
Cd 19.700219 0.008076 19.684605
Cd 22.982333 3.290190 19.684605
Cd 22.982333 0.008076 22.966719
Cd 19.700219 3.290190 22.966719
Cd 19.700219 0.008076 26.248832
Cd 22.982333 3.290190 26.248832
Cd 22.982333 0.008076 29.530946
Cd 19.700219 3.290190 29.530946
Cd 19.700219 0.008076 32.813059
Cd 22.982333 3.290190 32.813059
Cd 22.982333 6.572303 -22.982871
Cd 19.700219 9.854417 -22.982871
Cd 19.700219 6.572303 -19.700757
Cd 22.982333 6.572303 -16.418644
Cd 19.700219 9.854417 -16.418644
Cd 19.700219 6.572303 -13.136530
Cd 22.982333 9.854417 -13.136530
Cd 22.982333 6.572303 -9.854417
Cd 19.700219 9.854417 -9.854417
Cd 19.700219 6.572303 -6.572303
Cd 22.982333 9.854417 -6.572303
Cd 22.982333 6.572303 -3.290190
Cd 19.700219 9.854417 -3.290190
Cd 19.700219 6.572303 -0.008076
Cd 22.982333 9.854417 -0.008076
Cd 22.982333 6.572303 3.274037
Cd 19.700219 9.854417 3.274037
Cd 19.700219 6.572303 6.556151
Cd 22.982333 9.854417 6.556151
Cd 22.982333 6.572303 9.838265
Cd 19.700219 9.854417 9.838265
Cd 19.700219 6.572303 13.120378
Cd 22.982333 9.854417 13.120378
Cd 22.982333 6.572303 16.402492
Cd 19.700219 9.854417 16.402492
Cd 19.700219 6.572303 19.684605
Cd 22.982333 9.854417 19.684605
Cd 22.982333 6.572303 22.966719
Cd 19.700219 9.854417 22.966719
Cd 19.700219 6.572303 26.248832
Cd 22.982333 9.854417 26.248832
Cd 22.982333 6.572303 29.530946
Cd 19.700219 6.572303 32.813059
Cd 19.700219 13.136530 -19.700757
Cd 22.982333 13.136530 -16.418644
Cd 19.700219 13.136530 -13.136530
Cd 22.982333 16.418644 -13.136530
Cd 22.982333 13.136530 -9.854417
Cd 19.700219 16.418644 -9.854417
Cd 19.700219 13.136530 -6.572303
Cd 22.982333 16.418644 -6.572303
Cd 22.982333 13.136530 -3.290190
Cd 19.700219 16.418644 -3.290190
Cd 19.700219 13.136530 -0.008076
Cd 22.982333 16.418644 -0.008076
Cd 22.982333 13.136530 3.274037
Cd 19.700219 16.418644 3.274037
Cd 19.700219 13.136530 6.556151
Cd 22.982333 16.418644 6.556151
Cd 22.982333 13.136530 9.838265
Cd 19.700219 16.418644 9.838265
Cd 19.700219 13.136530 13.120378
Cd 22.982333 16.418644 13.120378
Cd 22.982333 13.136530 16.402492
Cd 19.700219 16.418644 16.402492
Cd 19.700219 13.136530 19.684605
Cd 22.982333 13.136530 22.966719
Cd 19.700219 16.418644 22.966719
Cd 19.700219 13.136530 26.248832
Cd 19.700219 19.700757 -13.136530
Cd 19.700219 22.982871 -9.854417
Cd 19.700219 19.700757 -6.572303
Cd 22.982333 22.982871 -6.572303
Cd 22.982333 19.700757 -3.290190
Cd 19.700219 22.982871 -3.290190
Cd 19.700219 19.700757 -0.008076
Cd 22.982333 22.982871 -0.008076
Cd 22.982333 19.700757 3.274037
Cd 19.700219 22.982871 3.274037
Cd 19.700219 19.700757 6.556151
Cd 22.982333 22.982871 6.556151
Cd 22.982333 19.700757 9.838265
Cd 19.700219 22.982871 9.838265
Cd 19.700219 19.700757 13.120378
Cd 22.982333 22.982871 13.120378
Cd 22.982333 19.700757 16.402492
Cd 19.700219 22.982871 16.402492
Cd 19.700219 19.700757 19.684605
Cd 22.982333 26.264985 -3.290190
Cd 19.700219 29.547098 -3.290190
Cd 19.700219 26.264985 -0.008076
Cd 22.982333 29.547098 -0.008076
Cd 22.982333 26.264985 3.274037
Cd 19.700219 29.547098 3.274037
Cd 19.700219 26.264985 6.556151
Cd 22.982333 29.547098 6.556151
Cd 22.982333 26.264985 9.838265
Cd 19.700219 26.264985 13.120378
Cd 19.700219 32.829212 -0.008076
Cd 22.982333 32.829212 3.274037
Cd 19.700219 32.829212 6.556151
Cd 26.264446 -29.530946 -3.290190
Cd 26.264446 -22.966719 -9.854417
Cd 29.546560 -22.966719 -6.572303
Cd 29.546560 -26.248832 -3.290190
Cd 26.264446 -22.966719 -3.290190
Cd 29.546560 -22.966719 -0.008076
Cd 26.264446 -22.966719 3.274037
Cd 26.264446 -19.684605 -13.136530
Cd 29.546560 -16.402492 -13.136530
Cd 26.264446 -16.402492 -9.854417
Cd 26.264446 -19.684605 -6.572303
Cd 29.546560 -16.402492 -6.572303
Cd 29.546560 -19.684605 -3.290190
Cd 26.264446 -16.402492 -3.290190
Cd 26.264446 -19.684605 -0.008076
Cd 29.546560 -16.402492 -0.008076
Cd 26.264446 -16.402492 3.274037
Cd 26.264446 -19.684605 6.556151
Cd 29.546560 -16.402492 6.556151
Cd 26.264446 -9.838265 -22.982871
Cd 26.264446 -13.120378 -19.700757
Cd 29.546560 -13.120378 -16.418644
Cd 26.264446 -9.838265 -16.418644
Cd 26.264446 -13.120378 -13.136530
Cd 29.546560 -9.838265 -13.136530
Cd 29.546560 -13.120378 -9.854417
Cd 26.264446 -9.838265 -9.854417
Cd 26.264446 -13.120378 -6.572303
Cd 29.546560 -9.838265 -6.572303
Cd 29.546560 -13.120378 -3.290190
Cd 26.264446 -9.838265 -3.290190
Cd 26.264446 -13.120378 -0.008076
Cd 29.546560 -9.838265 -0.008076
Cd 29.546560 -13.120378 3.274037
Cd 26.264446 -9.838265 3.274037
Cd 26.264446 -13.120378 6.556151
Cd 29.546560 -9.838265 6.556151
Cd 29.546560 -13.120378 9.838265
Cd 26.264446 -9.838265 9.838265
Cd 26.264446 -13.120378 13.120378
Cd 26.264446 -9.838265 16.402492
Cd 26.264446 -3.274037 -29.547098
Cd 29.546560 -3.274037 -26.264985
Cd 29.546560 -6.556151 -22.982871
Cd 26.264446 -3.274037 -22.982871
Cd 26.264446 -6.556151 -19.700757
Cd 29.546560 -3.274037 -19.700757
Cd 29.546560 -6.556151 -16.418644
Cd 26.264446 -3.274037 -16.418644
Cd 26.264446 -6.556151 -13.136530
Cd 29.546560 -3.274037 -13.136530
Cd 29.546560 -6.556151 -9.854417
Cd 26.264446 -3.274037 -9.854417
Cd 26.264446 -6.556151 -6.572303
Cd 29.546560 -3.274037 -6.572303
Cd 29.546560 -6.556151 -3.290190
Cd 26.264446 -3.274037 -3.290190
Cd 26.264446 -6.556151 -0.008076
Cd 29.546560 -3.274037 -0.008076
Cd 29.546560 -6.556151 3.274037
Cd 26.264446 -3.274037 3.274037
Cd 26.264446 -6.556151 6.556151
Cd 29.546560 -3.274037 6.556151
Cd 29.546560 -6.556151 9.838265
Cd 26.264446 -3.274037 9.838265
Cd 26.264446 -6.556151 13.120378
Cd 29.546560 -3.274037 13.120378
Cd 29.546560 -6.556151 16.402492
Cd 26.264446 -3.274037 16.402492
Cd 29.546560 -3.274037 19.684605
Cd 26.264446 -3.274037 22.966719
Cd 26.264446 0.008076 -26.264985
Cd 29.546560 0.008076 -22.982871
Cd 26.264446 0.008076 -19.700757
Cd 29.546560 3.290190 -19.700757
Cd 29.546560 0.008076 -16.418644
Cd 26.264446 3.290190 -16.418644
Cd 26.264446 0.008076 -13.136530
Cd 29.546560 3.290190 -13.136530
Cd 29.546560 0.008076 -9.854417
Cd 26.264446 3.290190 -9.854417
Cd 26.264446 0.008076 -6.572303
Cd 29.546560 3.290190 -6.572303
Cd 29.546560 0.008076 -3.290190
Cd 26.264446 3.290190 -3.290190
Cd 26.264446 0.008076 -0.008076
Cd 29.546560 3.290190 -0.008076
Cd 29.546560 0.008076 3.274037
Cd 26.264446 3.290190 3.274037
Cd 26.264446 0.008076 6.556151
Cd 29.546560 3.290190 6.556151
Cd 29.546560 0.008076 9.838265
Cd 26.264446 3.290190 9.838265
Cd 26.264446 0.008076 13.120378
Cd 29.546560 3.290190 13.120378
Cd 29.546560 0.008076 16.402492
Cd 26.264446 3.290190 16.402492
Cd 26.264446 0.008076 19.684605
Cd 29.546560 3.290190 19.684605
Cd 29.546560 0.008076 22.966719
Cd 26.264446 3.290190 22.966719
Cd 26.264446 0.008076 26.248832
Cd 29.546560 3.290190 26.248832
Cd 26.264446 3.290190 29.530946
Cd 26.264446 6.572303 -19.700757
Cd 26.264446 9.854417 -16.418644
Cd 26.264446 6.572303 -13.136530
Cd 29.546560 9.854417 -13.136530
Cd 29.546560 6.572303 -9.854417
Cd 26.264446 9.854417 -9.854417
Cd 26.264446 6.572303 -6.572303
Cd 29.546560 9.854417 -6.572303
Cd 29.546560 6.572303 -3.290190
Cd 26.264446 9.854417 -3.290190
Cd 26.264446 6.572303 -0.008076
Cd 29.546560 9.854417 -0.008076
Cd 29.546560 6.572303 3.274037
Cd 26.264446 9.854417 3.274037
Cd 26.264446 6.572303 6.556151
Cd 29.546560 9.854417 6.556151
Cd 29.546560 6.572303 9.838265
Cd 26.264446 9.854417 9.838265
Cd 26.264446 6.572303 13.120378
Cd 29.546560 9.854417 13.120378
Cd 29.546560 6.572303 16.402492
Cd 26.264446 9.854417 16.402492
Cd 26.264446 6.572303 19.684605
Cd 29.546560 6.572303 22.966719
Cd 26.264446 9.854417 22.966719
Cd 29.546560 13.136530 -9.854417
Cd 26.264446 16.418644 -9.854417
Cd 26.264446 13.136530 -6.572303
Cd 29.546560 13.136530 -3.290190
Cd 26.264446 16.418644 -3.290190
Cd 26.264446 13.136530 -0.008076
Cd 29.546560 16.418644 -0.008076
Cd 29.546560 13.136530 3.274037
Cd 26.264446 16.418644 3.274037
Cd 26.264446 13.136530 6.556151
Cd 29.546560 16.418644 6.556151
Cd 29.546560 13.136530 9.838265
Cd 26.264446 16.418644 9.838265
Cd 26.264446 13.136530 13.120378
Cd 29.546560 16.418644 13.120378
Cd 29.546560 13.136530 16.402492
Cd 26.264446 16.418644 16.402492
Cd 26.264446 13.136530 19.684605
Cd 26.264446 19.700757 -6.572303
Cd 29.546560 19.700757 -3.290190
Cd 26.264446 19.700757 -0.008076
Cd 29.546560 22.982871 -0.008076
Cd 29.546560 19.700757 3.274037
Cd 26.264446 22.982871 3.274037
Cd 26.264446 19.700757 6.556151
Cd 29.546560 22.982871 6.556151
Cd 26.264446 22.982871 9.838265
Cd 26.264446 19.700757 13.120378
Cd 26.264446 26.264985 -0.008076
Cd 29.546560 26.264985 3.274037
Cd 26.264446 29.547098 3.274037
Cd 32.828673 -22.966719 -3.290190
Cd 32.828673 -16.402492 -9.854417
Cd 32.828673 -19.684605 -6.572303
Cd 32.828673 -16.402492 -3.290190
Cd 32.828673 -19.684605 -0.008076
Cd 32.828673 -16.402492 3.274037
Cd 32.828673 -9.838265 -16.418644
Cd 32.828673 -13.120378 -13.136530
Cd 32.828673 -9.838265 -9.854417
Cd 32.828673 -13.120378 -6.572303
Cd 32.828673 -9.838265 -3.290190
Cd 32.828673 -13.120378 -0.008076
Cd 32.828673 -9.838265 3.274037
Cd 32.828673 -13.120378 6.556151
Cd 32.828673 -9.838265 9.838265
Cd 32.828673 -3.274037 -22.982871
Cd 32.828673 -6.556151 -19.700757
Cd 32.828673 -3.274037 -16.418644
Cd 32.828673 -6.556151 -13.136530
Cd 32.828673 -3.274037 -9.854417
Cd 32.828673 -6.556151 -6.572303
Cd 32.828673 -3.274037 -3.290190
Cd 32.828673 -6.556151 -0.008076
Cd 32.828673 -3.274037 3.274037
Cd 32.828673 -6.556151 6.556151
Cd 32.828673 -3.274037 9.838265
Cd 32.828673 -6.556151 13.120378
Cd 32.828673 -3.274037 16.402492
Cd 32.828673 0.008076 -19.700757
Cd 32.828673 3.290190 -16.418644
Cd 32.828673 0.008076 -13.136530
Cd 32.828673 3.290190 -9.854417
Cd 32.828673 0.008076 -6.572303
Cd 32.828673 3.290190 -3.290190
Cd 32.828673 0.008076 -0.008076
Cd 32.828673 3.290190 3.274037
Cd 32.828673 0.008076 6.556151
Cd 32.828673 3.290190 9.838265
Cd 32.828673 0.008076 13.120378
Cd 32.828673 3.290190 16.402492
Cd 32.828673 0.008076 19.684605
Cd 32.828673 3.290190 22.966719
Cd 32.828673 6.572303 -13.136530
Cd 32.828673 9.854417 -9.854417
Cd 32.828673 6.572303 -6.572303
Cd 32.828673 9.854417 -3.290190
Cd 32.828673 6.572303 -0.008076
Cd 32.828673 9.854417 3.274037
Cd 32.828673 6.572303 6.556151
Cd 32.828673 9.854417 9.838265
Cd 32.828673 6.572303 13.120378
Cd 32.828673 9.854417 16.402492
Cd 32.828673 6.572303 19.684605
Cd 32.828673 13.136530 -6.572303
Cd 32.828673 16.418644 -3.290190
Cd 32.828673 13.136530 -0.008076
Cd 32.828673 16.418644 3.274037
Cd 32.828673 13.136530 6.556151
Cd 32.828673 16.418644 9.838265
Cd 32.828673 13.136530 13.120378
Cd 32.828673 19.700757 -0.008076
Cd 32.828673 22.982871 3.274037
Cd 32.828673 19.700757 6.556151
Te -31.172541 -21.325662 -1.649133
Te -31.172541 -21.325662 4.915094
Te -27.890428 -21.325662 1.632981
Te -27.890428 -24.607776 4.915094
Te -27.890428 -21.325662 8.197208
Te -31.172541 -14.761435 -1.649133
Te -27.890428 -14.761435 -4.931246
Te -27.890428 -18.043548 -1.649133
Te -31.172541 -18.043548 1.632981
Te -31.172541 -14.761435 4.915094
Te -27.890428 -14.761435 1.632981
Te -27.890428 -18.043548 4.915094
Te -31.172541 -18.043548 8.197208
Te -31.172541 -14.761435 11.479321
Te -27.890428 -14.761435 8.197208
Te -27.890428 -18.043548 11.479321
Te -27.890428 -14.761435 14.761435
Te -31.172541 -11.479321 -11.495474
Te -31.172541 -8.197208 -8.213360
Te -27.890428 -8.197208 -11.495474
Te -27.890428 -11.479321 -8.213360
Te -31.172541 -11.479321 -4.931246
Te -31.172541 -8.197208 -1.649133
Te -27.890428 -8.197208 -4.931246
Te -27.890428 -11.479321 -1.649133
Te -31.172541 -11.479321 1.632981
Te -31.172541 -8.197208 4.915094
Te -27.890428 -8.197208 1.632981
Te -27.890428 -11.479321 4.915094
Te -31.172541 -11.479321 8.197208
Te -31.172541 -8.197208 11.479321
Te -27.890428 -8.197208 8.197208
Te -27.890428 -11.479321 11.479321
Te -31.172541 -11.479321 14.761435
Te -31.172541 -8.197208 18.043548
Te -27.890428 -8.197208 14.761435
Te -27.890428 -11.479321 18.043548
Te -27.890428 -8.197208 21.325662
Te -31.172541 -1.632981 -21.341814
Te -31.172541 -1.632981 -14.777587
Te -27.890428 -1.632981 -18.059701
Te -27.890428 -4.915094 -14.777587
Te -31.172541 -4.915094 -11.495474
Te -31.172541 -1.632981 -8.213360
Te -27.890428 -1.632981 -11.495474
Te -27.890428 -4.915094 -8.213360
Te -31.172541 -4.915094 -4.931246
Te -31.172541 -1.632981 -1.649133
Te -27.890428 -1.632981 -4.931246
Te -27.890428 -4.915094 -1.649133
Te -31.172541 -4.915094 1.632981
Te -31.172541 -1.632981 4.915094
Te -27.890428 -1.632981 1.632981
Te -27.890428 -4.915094 4.915094
Te -31.172541 -4.915094 8.197208
Te -31.172541 -1.632981 11.479321
Te -27.890428 -1.632981 8.197208
Te -27.890428 -4.915094 11.479321
Te -31.172541 -4.915094 14.761435
Te -31.172541 -1.632981 18.043548
Te -27.890428 -1.632981 14.761435
Te -27.890428 -4.915094 18.043548
Te -31.172541 -4.915094 21.325662
Te -27.890428 -1.632981 21.325662
Te -27.890428 -4.915094 24.607776
Te -31.172541 4.931246 -21.341814
Te -27.890428 4.931246 -24.623928
Te -27.890428 1.649133 -21.341814
Te -31.172541 1.649133 -18.059701
Te -31.172541 4.931246 -14.777587
Te -27.890428 4.931246 -18.059701
Te -27.890428 1.649133 -14.777587
Te -31.172541 1.649133 -11.495474
Te -31.172541 4.931246 -8.213360
Te -27.890428 4.931246 -11.495474
Te -27.890428 1.649133 -8.213360
Te -31.172541 1.649133 -4.931246
Te -31.172541 4.931246 -1.649133
Te -27.890428 4.931246 -4.931246
Te -27.890428 1.649133 -1.649133
Te -31.172541 1.649133 1.632981
Te -31.172541 4.931246 4.915094
Te -27.890428 4.931246 1.632981
Te -27.890428 1.649133 4.915094
Te -31.172541 1.649133 8.197208
Te -31.172541 4.931246 11.479321
Te -27.890428 4.931246 8.197208
Te -27.890428 1.649133 11.479321
Te -31.172541 1.649133 14.761435
Te -27.890428 4.931246 14.761435
Te -27.890428 1.649133 18.043548
Te -31.172541 1.649133 21.325662
Te -27.890428 8.213360 -21.341814
Te -31.172541 8.213360 -18.059701
Te -31.172541 11.495474 -14.777587
Te -27.890428 11.495474 -18.059701
Te -27.890428 8.213360 -14.777587
Te -31.172541 8.213360 -11.495474
Te -31.172541 11.495474 -8.213360
Te -27.890428 11.495474 -11.495474
Te -27.890428 8.213360 -8.213360
Te -31.172541 8.213360 -4.931246
Te -31.172541 11.495474 -1.649133
Te -27.890428 11.495474 -4.931246
Te -27.890428 8.213360 -1.649133
Te -31.172541 8.213360 1.632981
Te -31.172541 11.495474 4.915094
Te -27.890428 11.495474 1.632981
Te -27.890428 8.213360 4.915094
Te -31.172541 8.213360 8.197208
Te -31.172541 11.495474 11.479321
Te -27.890428 11.495474 8.197208
Te -27.890428 8.213360 11.479321
Te -27.890428 14.777587 -14.777587
Te -31.172541 14.777587 -11.495474
Te -31.172541 18.059701 -8.213360
Te -27.890428 18.059701 -11.495474
Te -27.890428 14.777587 -8.213360
Te -31.172541 14.777587 -4.931246
Te -31.172541 18.059701 -1.649133
Te -27.890428 18.059701 -4.931246
Te -27.890428 14.777587 -1.649133
Te -31.172541 14.777587 1.632981
Te -27.890428 18.059701 1.632981
Te -27.890428 14.777587 4.915094
Te -27.890428 21.341814 -8.213360
Te -31.172541 21.341814 -4.931246
Te -27.890428 24.623928 -4.931246
Te -27.890428 21.341814 -1.649133
Te -31.172541 21.341814 1.632981
Te -27.890428 27.906041 -1.649133
Te -24.608314 -27.889889 -1.649133
Te -24.608314 -27.889889 4.915094
Te -21.326200 -27.889889 1.632981
Te -21.326200 -31.172003 4.915094
Te -21.326200 -27.889889 8.197208
Te -24.608314 -21.325662 -1.649133
Te -21.326200 -21.325662 -4.931246
Te -21.326200 -24.607776 -1.649133
Te -24.608314 -24.607776 1.632981
Te -24.608314 -21.325662 4.915094
Te -21.326200 -21.325662 1.632981
Te -21.326200 -24.607776 4.915094
Te -24.608314 -24.607776 8.197208
Te -24.608314 -21.325662 11.479321
Te -21.326200 -21.325662 8.197208
Te -21.326200 -24.607776 11.479321
Te -21.326200 -21.325662 14.761435
Te -24.608314 -14.761435 -8.213360
Te -21.326200 -14.761435 -11.495474
Te -21.326200 -18.043548 -8.213360
Te -24.608314 -18.043548 -4.931246
Te -24.608314 -14.761435 -1.649133
Te -21.326200 -14.761435 -4.931246
Te -21.326200 -18.043548 -1.649133
Te -24.608314 -18.043548 1.632981
Te -24.608314 -14.761435 4.915094
Te -21.326200 -14.761435 1.632981
Te -21.326200 -18.043548 4.915094
Te -24.608314 -18.043548 8.197208
Te -24.608314 -14.761435 11.479321
Te -21.326200 -14.761435 8.197208
Te -21.326200 -18.043548 11.479321
Te -24.608314 -18.043548 14.761435
Te -24.608314 -14.761435 18.043548
Te -21.326200 -14.761435 14.761435
Te -21.326200 -18.043548 18.043548
Te -21.326200 -14.761435 21.325662
Te -24.608314 -8.197208 -14.777587
Te -21.326200 -8.197208 -18.059701
Te -21.326200 -11.479321 -14.777587
Te -24.608314 -11.479321 -11.495474
Te -24.608314 -8.197208 -8.213360
Te -21.326200 -8.197208 -11.495474
Te -21.326200 -11.479321 -8.213360
Te -24.608314 -11.479321 -4.931246
Te -24.608314 -8.197208 -1.649133
Te -21.326200 -8.197208 -4.931246
Te -21.326200 -11.479321 -1.649133
Te -24.608314 -11.479321 1.632981
Te -24.608314 -8.197208 4.915094
Te -21.326200 -8.197208 1.632981
Te -21.326200 -11.479321 4.915094
Te -24.608314 -11.479321 8.197208
Te -24.608314 -8.197208 11.479321
Te -21.326200 -8.197208 8.197208
Te -21.326200 -11.479321 11.479321
Te -24.608314 -11.479321 14.761435
Te -24.608314 -8.197208 18.043548
Te -21.326200 -8.197208 14.761435
Te -21.326200 -11.479321 18.043548
Te -24.608314 -11.479321 21.325662
Te -24.608314 -8.197208 24.607776
Te -21.326200 -8.197208 21.325662
Te -21.326200 -11.479321 24.607776
Te -21.326200 -8.197208 27.889889
Te -24.608314 -1.632981 -27.906041
Te -24.608314 -1.632981 -21.341814
Te -21.326200 -1.632981 -24.623928
Te -21.326200 -4.915094 -21.341814
Te -24.608314 -4.915094 -18.059701
Te -24.608314 -1.632981 -14.777587
Te -21.326200 -1.632981 -18.059701
Te -21.326200 -4.915094 -14.777587
Te -24.608314 -4.915094 -11.495474
Te -24.608314 -1.632981 -8.213360
Te -21.326200 -1.632981 -11.495474
Te -21.326200 -4.915094 -8.213360
Te -24.608314 -4.915094 -4.931246
Te -24.608314 -1.632981 -1.649133
Te -21.326200 -1.632981 -4.931246
Te -21.326200 -4.915094 -1.649133
Te -24.608314 -4.915094 1.632981
Te -24.608314 -1.632981 4.915094
Te -21.326200 -1.632981 1.632981
Te -21.326200 -4.915094 4.915094
Te -24.608314 -4.915094 8.197208
Te -24.608314 -1.632981 11.479321
Te -21.326200 -1.632981 8.197208
Te -21.326200 -4.915094 11.479321
Te -24.608314 -4.915094 14.761435
Te -24.608314 -1.632981 18.043548
Te -21.326200 -1.632981 14.761435
Te -21.326200 -4.915094 18.043548
Te -24.608314 -4.915094 21.325662
Te -24.608314 -1.632981 24.607776
Te -21.326200 -1.632981 21.325662
Te -21.326200 -4.915094 24.607776
Te -24.608314 -4.915094 27.889889
Te -21.326200 -1.632981 27.889889
Te -21.326200 -4.915094 31.172003
Te -24.608314 4.931246 -27.906041
Te -21.326200 4.931246 -31.188155
Te -21.326200 1.649133 -27.906041
Te -24.608314 1.649133 -24.623928
Te -24.608314 4.931246 -21.341814
Te -21.326200 4.931246 -24.623928
Te -21.326200 1.649133 -21.341814
Te -24.608314 1.649133 -18.059701
Te -24.608314 4.931246 -14.777587
Te -21.326200 4.931246 -18.059701
Te -21.326200 1.649133 -14.777587
Te -24.608314 1.649133 -11.495474
Te -24.608314 4.931246 -8.213360
Te -21.326200 4.931246 -11.495474
Te -21.326200 1.649133 -8.213360
Te -24.608314 1.649133 -4.931246
Te -24.608314 4.931246 -1.649133
Te -21.326200 4.931246 -4.931246
Te -21.326200 1.649133 -1.649133
Te -24.608314 1.649133 1.632981
Te -24.608314 4.931246 4.915094
Te -21.326200 4.931246 1.632981
Te -21.326200 1.649133 4.915094
Te -24.608314 1.649133 8.197208
Te -24.608314 4.931246 11.479321
Te -21.326200 4.931246 8.197208
Te -21.326200 1.649133 11.479321
Te -24.608314 1.649133 14.761435
Te -24.608314 4.931246 18.043548
Te -21.326200 4.931246 14.761435
Te -21.326200 1.649133 18.043548
Te -24.608314 1.649133 21.325662
Te -21.326200 4.931246 21.325662
Te -21.326200 1.649133 24.607776
Te -24.608314 1.649133 27.889889
Te -21.326200 8.213360 -27.906041
Te -24.608314 8.213360 -24.623928
Te -24.608314 11.495474 -21.341814
Te -21.326200 11.495474 -24.623928
Te -21.326200 8.213360 -21.341814
Te -24.608314 8.213360 -18.059701
Te -24.608314 11.495474 -14.777587
Te -21.326200 11.495474 -18.059701
Te -21.326200 8.213360 -14.777587
Te -24.608314 8.213360 -11.495474
Te -24.608314 11.495474 -8.213360
Te -21.326200 11.495474 -11.495474
Te -21.326200 8.213360 -8.213360
Te -24.608314 8.213360 -4.931246
Te -24.608314 11.495474 -1.649133
Te -21.326200 11.495474 -4.931246
Te -21.326200 8.213360 -1.649133
Te -24.608314 8.213360 1.632981
Te -24.608314 11.495474 4.915094
Te -21.326200 11.495474 1.632981
Te -21.326200 8.213360 4.915094
Te -24.608314 8.213360 8.197208
Te -24.608314 11.495474 11.479321
Te -21.326200 11.495474 8.197208
Te -21.326200 8.213360 11.479321
Te -24.608314 8.213360 14.761435
Te -21.326200 11.495474 14.761435
Te -21.326200 8.213360 18.043548
Te -21.326200 14.777587 -21.341814
Te -24.608314 14.777587 -18.059701
Te -24.608314 18.059701 -14.777587
Te -21.326200 18.059701 -18.059701
Te -21.326200 14.777587 -14.777587
Te -24.608314 14.777587 -11.495474
Te -24.608314 18.059701 -8.213360
Te -21.326200 18.059701 -11.495474
Te -21.326200 14.777587 -8.213360
Te -24.608314 14.777587 -4.931246
Te -24.608314 18.059701 -1.649133
Te -21.326200 18.059701 -4.931246
Te -21.326200 14.777587 -1.649133
Te -24.608314 14.777587 1.632981
Te -24.608314 18.059701 4.915094
Te -21.326200 18.059701 1.632981
Te -21.326200 14.777587 4.915094
Te -24.608314 14.777587 8.197208
Te -21.326200 18.059701 8.197208
Te -21.326200 14.777587 11.479321
Te -21.326200 21.341814 -14.777587
Te -24.608314 21.341814 -11.495474
Te -24.608314 24.623928 -8.213360
Te -21.326200 24.623928 -11.495474
Te -21.326200 21.341814 -8.213360
Te -24.608314 21.341814 -4.931246
Te -24.608314 24.623928 -1.649133
Te -21.326200 24.623928 -4.931246
Te -21.326200 21.341814 -1.649133
Te -24.608314 21.341814 1.632981
Te -21.326200 24.623928 1.632981
Te -21.326200 21.341814 4.915094
Te -21.326200 27.906041 -8.213360
Te -24.608314 27.906041 -4.931246
Te -21.326200 31.188155 -4.931246
Te -21.326200 27.906041 -1.649133
Te -21.326200 31.188155 1.632981
Te -18.044087 -31.172003 -4.931246
Te -18.044087 -27.889889 -1.649133
Te -14.761973 -27.889889 -4.931246
Te -14.761973 -31.172003 -1.649133
Te -18.044087 -31.172003 1.632981
Te -18.044087 -27.889889 4.915094
Te -14.761973 -27.889889 1.632981
Te -14.761973 -31.172003 4.915094
Te -18.044087 -31.172003 8.197208
Te -18.044087 -27.889889 11.479321
Te -14.761973 -27.889889 8.197208
Te -14.761973 -31.172003 11.479321
Te -14.761973 -27.889889 14.761435
Te -18.044087 -21.325662 -8.213360
Te -14.761973 -21.325662 -11.495474
Te -14.761973 -24.607776 -8.213360
Te -18.044087 -24.607776 -4.931246
Te -18.044087 -21.325662 -1.649133
Te -14.761973 -21.325662 -4.931246
Te -14.761973 -24.607776 -1.649133
Te -18.044087 -24.607776 1.632981
Te -18.044087 -21.325662 4.915094
Te -14.761973 -21.325662 1.632981
Te -14.761973 -24.607776 4.915094
Te -18.044087 -24.607776 8.197208
Te -18.044087 -21.325662 11.479321
Te -14.761973 -21.325662 8.197208
Te -14.761973 -24.607776 11.479321
Te -18.044087 -24.607776 14.761435
Te -18.044087 -21.325662 18.043548
Te -14.761973 -21.325662 14.761435
Te -14.761973 -24.607776 18.043548
Te -14.761973 -21.325662 21.325662
Te -18.044087 -14.761435 -14.777587
Te -14.761973 -14.761435 -18.059701
Te -14.761973 -18.043548 -14.777587
Te -18.044087 -18.043548 -11.495474
Te -18.044087 -14.761435 -8.213360
Te -14.761973 -14.761435 -11.495474
Te -14.761973 -18.043548 -8.213360
Te -18.044087 -18.043548 -4.931246
Te -18.044087 -14.761435 -1.649133
Te -14.761973 -14.761435 -4.931246
Te -14.761973 -18.043548 -1.649133
Te -18.044087 -18.043548 1.632981
Te -18.044087 -14.761435 4.915094
Te -14.761973 -14.761435 1.632981
Te -14.761973 -18.043548 4.915094
Te -18.044087 -18.043548 8.197208
Te -18.044087 -14.761435 11.479321
Te -14.761973 -14.761435 8.197208
Te -14.761973 -18.043548 11.479321
Te -18.044087 -18.043548 14.761435
Te -18.044087 -14.761435 18.043548
Te -14.761973 -14.761435 14.761435
Te -14.761973 -18.043548 18.043548
Te -18.044087 -18.043548 21.325662
Te -18.044087 -14.761435 24.607776
Te -14.761973 -14.761435 21.325662
Te -14.761973 -18.043548 24.607776
Te -14.761973 -14.761435 27.889889
Te -18.044087 -8.197208 -21.341814
Te -14.761973 -8.197208 -24.623928
Te -14.761973 -11.479321 -21.341814
Te -18.044087 -11.479321 -18.059701
Te -18.044087 -8.197208 -14.777587
Te -14.761973 -8.197208 -18.059701
Te -14.761973 -11.479321 -14.777587
Te -18.044087 -11.479321 -11.495474
Te -18.044087 -8.197208 -8.213360
Te -14.761973 -8.197208 -11.495474
Te -14.761973 -11.479321 -8.213360
Te -18.044087 -11.479321 -4.931246
Te -18.044087 -8.197208 -1.649133
Te -14.761973 -8.197208 -4.931246
Te -14.761973 -11.479321 -1.649133
Te -18.044087 -11.479321 1.632981
Te -18.044087 -8.197208 4.915094
Te -14.761973 -8.197208 1.632981
Te -14.761973 -11.479321 4.915094
Te -18.044087 -11.479321 8.197208
Te -18.044087 -8.197208 11.479321
Te -14.761973 -8.197208 8.197208
Te -14.761973 -11.479321 11.479321
Te -18.044087 -11.479321 14.761435
Te -18.044087 -8.197208 18.043548
Te -14.761973 -8.197208 14.761435
Te -14.761973 -11.479321 18.043548
Te -18.044087 -11.479321 21.325662
Te -18.044087 -8.197208 24.607776
Te -14.761973 -8.197208 21.325662
Te -14.761973 -11.479321 24.607776
Te -18.044087 -11.479321 27.889889
Te -18.044087 -8.197208 31.172003
Te -14.761973 -8.197208 27.889889
Te -14.761973 -11.479321 31.172003
Te -18.044087 -4.915094 -31.188155
Te -18.044087 -1.632981 -27.906041
Te -14.761973 -1.632981 -31.188155
Te -14.761973 -4.915094 -27.906041
Te -18.044087 -4.915094 -24.623928
Te -18.044087 -1.632981 -21.341814
Te -14.761973 -1.632981 -24.623928
Te -14.761973 -4.915094 -21.341814
Te -18.044087 -4.915094 -18.059701
Te -18.044087 -1.632981 -14.777587
Te -14.761973 -1.632981 -18.059701
Te -14.761973 -4.915094 -14.777587
Te -18.044087 -4.915094 -11.495474
Te -18.044087 -1.632981 -8.213360
Te -14.761973 -1.632981 -11.495474
Te -14.761973 -4.915094 -8.213360
Te -18.044087 -4.915094 -4.931246
Te -18.044087 -1.632981 -1.649133
Te -14.761973 -1.632981 -4.931246
Te -14.761973 -4.915094 -1.649133
Te -18.044087 -4.915094 1.632981
Te -18.044087 -1.632981 4.915094
Te -14.761973 -1.632981 1.632981
Te -14.761973 -4.915094 4.915094
Te -18.044087 -4.915094 8.197208
Te -18.044087 -1.632981 11.479321
Te -14.761973 -1.632981 8.197208
Te -14.761973 -4.915094 11.479321
Te -18.044087 -4.915094 14.761435
Te -18.044087 -1.632981 18.043548
Te -14.761973 -1.632981 14.761435
Te -14.761973 -4.915094 18.043548
Te -18.044087 -4.915094 21.325662
Te -18.044087 -1.632981 24.607776
Te -14.761973 -1.632981 21.325662
Te -14.761973 -4.915094 24.607776
Te -18.044087 -4.915094 27.889889
Te -18.044087 -1.632981 31.172003
Te -14.761973 -1.632981 27.889889
Te -14.761973 -4.915094 31.172003
Te -18.044087 1.649133 -31.188155
Te -18.044087 4.931246 -27.906041
Te -14.761973 4.931246 -31.188155
Te -14.761973 1.649133 -27.906041
Te -18.044087 1.649133 -24.623928
Te -18.044087 4.931246 -21.341814
Te -14.761973 4.931246 -24.623928
Te -14.761973 1.649133 -21.341814
Te -18.044087 1.649133 -18.059701
Te -18.044087 4.931246 -14.777587
Te -14.761973 4.931246 -18.059701
Te -14.761973 1.649133 -14.777587
Te -18.044087 1.649133 -11.495474
Te -18.044087 4.931246 -8.213360
Te -14.761973 4.931246 -11.495474
Te -14.761973 1.649133 -8.213360
Te -18.044087 1.649133 -4.931246
Te -18.044087 4.931246 -1.649133
Te -14.761973 4.931246 -4.931246
Te -14.761973 1.649133 -1.649133
Te -18.044087 1.649133 1.632981
Te -18.044087 4.931246 4.915094
Te -14.761973 4.931246 1.632981
Te -14.761973 1.649133 4.915094
Te -18.044087 1.649133 8.197208
Te -18.044087 4.931246 11.479321
Te -14.761973 4.931246 8.197208
Te -14.761973 1.649133 11.479321
Te -18.044087 1.649133 14.761435
Te -18.044087 4.931246 18.043548
Te -14.761973 4.931246 14.761435
Te -14.761973 1.649133 18.043548
Te -18.044087 1.649133 21.325662
Te -18.044087 4.931246 24.607776
Te -14.761973 4.931246 21.325662
Te -14.761973 1.649133 24.607776
Te -18.044087 1.649133 27.889889
Te -18.044087 4.931246 31.172003
Te -14.761973 4.931246 27.889889
Te -14.761973 1.649133 31.172003
Te -18.044087 8.213360 -31.188155
Te -18.044087 11.495474 -27.906041
Te -14.761973 11.495474 -31.188155
Te -14.761973 8.213360 -27.906041
Te -18.044087 8.213360 -24.623928
Te -18.044087 11.495474 -21.341814
Te -14.761973 11.495474 -24.623928
Te -14.761973 8.213360 -21.341814
Te -18.044087 8.213360 -18.059701
Te -18.044087 11.495474 -14.777587
Te -14.761973 11.495474 -18.059701
Te -14.761973 8.213360 -14.777587
Te -18.044087 8.213360 -11.495474
Te -18.044087 11.495474 -8.213360
Te -14.761973 11.495474 -11.495474
Te -14.761973 8.213360 -8.213360
Te -18.044087 8.213360 -4.931246
Te -18.044087 11.495474 -1.649133
Te -14.761973 11.495474 -4.931246
Te -14.761973 8.213360 -1.649133
Te -18.044087 8.213360 1.632981
Te -18.044087 11.495474 4.915094
Te -14.761973 11.495474 1.632981
Te -14.761973 8.213360 4.915094
Te -18.044087 8.213360 8.197208
Te -18.044087 11.495474 11.479321
Te -14.761973 11.495474 8.197208
Te -14.761973 8.213360 11.479321
Te -18.044087 8.213360 14.761435
Te -18.044087 11.495474 18.043548
Te -14.761973 11.495474 14.761435
Te -14.761973 8.213360 18.043548
Te -18.044087 8.213360 21.325662
Te -14.761973 11.495474 21.325662
Te -14.761973 8.213360 24.607776
Te -14.761973 14.777587 -27.906041
Te -18.044087 14.777587 -24.623928
Te -18.044087 18.059701 -21.341814
Te -14.761973 18.059701 -24.623928
Te -14.761973 14.777587 -21.341814
Te -18.044087 14.777587 -18.059701
Te -18.044087 18.059701 -14.777587
Te -14.761973 18.059701 -18.059701
Te -14.761973 14.777587 -14.777587
Te -18.044087 14.777587 -11.495474
Te -18.044087 18.059701 -8.213360
Te -14.761973 18.059701 -11.495474
Te -14.761973 14.777587 -8.213360
Te -18.044087 14.777587 -4.931246
Te -18.044087 18.059701 -1.649133
Te -14.761973 18.059701 -4.931246
Te -14.761973 14.777587 -1.649133
Te -18.044087 14.777587 1.632981
Te -18.044087 18.059701 4.915094
Te -14.761973 18.059701 1.632981
Te -14.761973 14.777587 4.915094
Te -18.044087 14.777587 8.197208
Te -18.044087 18.059701 11.479321
Te -14.761973 18.059701 8.197208
Te -14.761973 14.777587 11.479321
Te -18.044087 14.777587 14.761435
Te -14.761973 18.059701 14.761435
Te -14.761973 14.777587 18.043548
Te -14.761973 21.341814 -21.341814
Te -18.044087 21.341814 -18.059701
Te -18.044087 24.623928 -14.777587
Te -14.761973 24.623928 -18.059701
Te -14.761973 21.341814 -14.777587
Te -18.044087 21.341814 -11.495474
Te -18.044087 24.623928 -8.213360
Te -14.761973 24.623928 -11.495474
Te -14.761973 21.341814 -8.213360
Te -18.044087 21.341814 -4.931246
Te -18.044087 24.623928 -1.649133
Te -14.761973 24.623928 -4.931246
Te -14.761973 21.341814 -1.649133
Te -18.044087 21.341814 1.632981
Te -18.044087 24.623928 4.915094
Te -14.761973 24.623928 1.632981
Te -14.761973 21.341814 4.915094
Te -18.044087 21.341814 8.197208
Te -14.761973 24.623928 8.197208
Te -14.761973 21.341814 11.479321
Te -14.761973 27.906041 -14.777587
Te -18.044087 27.906041 -11.495474
Te -18.044087 31.188155 -8.213360
Te -14.761973 31.188155 -11.495474
Te -14.761973 27.906041 -8.213360
Te -18.044087 27.906041 -4.931246
Te -18.044087 31.188155 -1.649133
Te -14.761973 31.188155 -4.931246
Te -14.761973 27.906041 -1.649133
Te -18.044087 27.906041 1.632981
Te -14.761973 31.188155 1.632981
Te -14.761973 27.906041 4.915094
Te -8.197746 -31.172003 -14.777587
Te -11.479860 -27.889889 -8.213360
Te -8.197746 -27.889889 -11.495474
Te -8.197746 -31.172003 -8.213360
Te -11.479860 -31.172003 -4.931246
Te -11.479860 -27.889889 -1.649133
Te -8.197746 -27.889889 -4.931246
Te -8.197746 -31.172003 -1.649133
Te -11.479860 -31.172003 1.632981
Te -11.479860 -27.889889 4.915094
Te -8.197746 -27.889889 1.632981
Te -8.197746 -31.172003 4.915094
Te -11.479860 -31.172003 8.197208
Te -11.479860 -27.889889 11.479321
Te -8.197746 -27.889889 8.197208
Te -8.197746 -31.172003 11.479321
Te -11.479860 -31.172003 14.761435
Te -11.479860 -27.889889 18.043548
Te -8.197746 -27.889889 14.761435
Te -8.197746 -31.172003 18.043548
Te -8.197746 -27.889889 21.325662
Te -11.479860 -21.325662 -14.777587
Te -8.197746 -21.325662 -18.059701
Te -8.197746 -24.607776 -14.777587
Te -11.479860 -24.607776 -11.495474
Te -11.479860 -21.325662 -8.213360
Te -8.197746 -21.325662 -11.495474
Te -8.197746 -24.607776 -8.213360
Te -11.479860 -24.607776 -4.931246
Te -11.479860 -21.325662 -1.649133
Te -8.197746 -21.325662 -4.931246
Te -8.197746 -24.607776 -1.649133
Te -11.479860 -24.607776 1.632981
Te -11.479860 -21.325662 4.915094
Te -8.197746 -21.325662 1.632981
Te -8.197746 -24.607776 4.915094
Te -11.479860 -24.607776 8.197208
Te -11.479860 -21.325662 11.479321
Te -8.197746 -21.325662 8.197208
Te -8.197746 -24.607776 11.479321
Te -11.479860 -24.607776 14.761435
Te -11.479860 -21.325662 18.043548
Te -8.197746 -21.325662 14.761435
Te -8.197746 -24.607776 18.043548
Te -11.479860 -24.607776 21.325662
Te -11.479860 -21.325662 24.607776
Te -8.197746 -21.325662 21.325662
Te -8.197746 -24.607776 24.607776
Te -8.197746 -21.325662 27.889889
Te -8.197746 -14.761435 -31.188155
Te -11.479860 -14.761435 -21.341814
Te -8.197746 -14.761435 -24.623928
Te -8.197746 -18.043548 -21.341814
Te -11.479860 -18.043548 -18.059701
Te -11.479860 -14.761435 -14.777587
Te -8.197746 -14.761435 -18.059701
Te -8.197746 -18.043548 -14.777587
Te -11.479860 -18.043548 -11.495474
Te -11.479860 -14.761435 -8.213360
Te -8.197746 -14.761435 -11.495474
Te -8.197746 -18.043548 -8.213360
Te -11.479860 -18.043548 -4.931246
Te -11.479860 -14.761435 -1.649133
Te -8.197746 -14.761435 -4.931246
Te -8.197746 -18.043548 -1.649133
Te -11.479860 -18.043548 1.632981
Te -11.479860 -14.761435 4.915094
Te -8.197746 -14.761435 1.632981
Te -8.197746 -18.043548 4.915094
Te -11.479860 -18.043548 8.197208
Te -11.479860 -14.761435 11.479321
Te -8.197746 -14.761435 8.197208
Te -8.197746 -18.043548 11.479321
Te -11.479860 -18.043548 14.761435
Te -11.479860 -14.761435 18.043548
Te -8.197746 -14.761435 14.761435
Te -8.197746 -18.043548 18.043548
Te -11.479860 -18.043548 21.325662
Te -11.479860 -14.761435 24.607776
Te -8.197746 -14.761435 21.325662
Te -8.197746 -18.043548 24.607776
Te -11.479860 -18.043548 27.889889
Te -11.479860 -14.761435 31.172003
Te -8.197746 -14.761435 27.889889
Te -8.197746 -18.043548 31.172003
Te -11.479860 -8.197208 -27.906041
Te -8.197746 -8.197208 -31.188155
Te -8.197746 -11.479321 -27.906041
Te -11.479860 -11.479321 -24.623928
Te -11.479860 -8.197208 -21.341814
Te -8.197746 -8.197208 -24.623928
Te -8.197746 -11.479321 -21.341814
Te -11.479860 -11.479321 -18.059701
Te -11.479860 -8.197208 -14.777587
Te -8.197746 -8.197208 -18.059701
Te -8.197746 -11.479321 -14.777587
Te -11.479860 -11.479321 -11.495474
Te -11.479860 -8.197208 -8.213360
Te -8.197746 -8.197208 -11.495474
Te -8.197746 -11.479321 -8.213360
Te -11.479860 -11.479321 -4.931246
Te -11.479860 -8.197208 -1.649133
Te -8.197746 -8.197208 -4.931246
Te -8.197746 -11.479321 -1.649133
Te -11.479860 -11.479321 1.632981
Te -11.479860 -8.197208 4.915094
Te -8.197746 -8.197208 1.632981
Te -8.197746 -11.479321 4.915094
Te -11.479860 -11.479321 8.197208
Te -11.479860 -8.197208 11.479321
Te -8.197746 -8.197208 8.197208
Te -8.197746 -11.479321 11.479321
Te -11.479860 -11.479321 14.761435
Te -11.479860 -8.197208 18.043548
Te -8.197746 -8.197208 14.761435
Te -8.197746 -11.479321 18.043548
Te -11.479860 -11.479321 21.325662
Te -11.479860 -8.197208 24.607776
Te -8.197746 -8.197208 21.325662
Te -8.197746 -11.479321 24.607776
Te -11.479860 -11.479321 27.889889
Te -11.479860 -8.197208 31.172003
Te -8.197746 -8.197208 27.889889
Te -8.197746 -11.479321 31.172003
Te -11.479860 -4.915094 -31.188155
Te -11.479860 -1.632981 -27.906041
Te -8.197746 -1.632981 -31.188155
Te -8.197746 -4.915094 -27.906041
Te -11.479860 -4.915094 -24.623928
Te -11.479860 -1.632981 -21.341814
Te -8.197746 -1.632981 -24.623928
Te -8.197746 -4.915094 -21.341814
Te -11.479860 -4.915094 -18.059701
Te -11.479860 -1.632981 -14.777587
Te -8.197746 -1.632981 -18.059701
Te -8.197746 -4.915094 -14.777587
Te -11.479860 -4.915094 -11.495474
Te -11.479860 -1.632981 -8.213360
Te -8.197746 -1.632981 -11.495474
Te -8.197746 -4.915094 -8.213360
Te -11.479860 -4.915094 -4.931246
Te -11.479860 -1.632981 -1.649133
Te -8.197746 -1.632981 -4.931246
Te -8.197746 -4.915094 -1.649133
Te -11.479860 -4.915094 1.632981
Te -11.479860 -1.632981 4.915094
Te -8.197746 -1.632981 1.632981
Te -8.197746 -4.915094 4.915094
Te -11.479860 -4.915094 8.197208
Te -11.479860 -1.632981 11.479321
Te -8.197746 -1.632981 8.197208
Te -8.197746 -4.915094 11.479321
Te -11.479860 -4.915094 14.761435
Te -11.479860 -1.632981 18.043548
Te -8.197746 -1.632981 14.761435
Te -8.197746 -4.915094 18.043548
Te -11.479860 -4.915094 21.325662
Te -11.479860 -1.632981 24.607776
Te -8.197746 -1.632981 21.325662
Te -8.197746 -4.915094 24.607776
Te -11.479860 -4.915094 27.889889
Te -11.479860 -1.632981 31.172003
Te -8.197746 -1.632981 27.889889
Te -8.197746 -4.915094 31.172003
Te -11.479860 1.649133 -31.188155
Te -11.479860 4.931246 -27.906041
Te -8.197746 4.931246 -31.188155
Te -8.197746 1.649133 -27.906041
Te -11.479860 1.649133 -24.623928
Te -11.479860 4.931246 -21.341814
Te -8.197746 4.931246 -24.623928
Te -8.197746 1.649133 -21.341814
Te -11.479860 1.649133 -18.059701
Te -11.479860 4.931246 -14.777587
Te -8.197746 4.931246 -18.059701
Te -8.197746 1.649133 -14.777587
Te -11.479860 1.649133 -11.495474
Te -11.479860 4.931246 -8.213360
Te -8.197746 4.931246 -11.495474
Te -8.197746 1.649133 -8.213360
Te -11.479860 1.649133 -4.931246
Te -11.479860 4.931246 -1.649133
Te -8.197746 4.931246 -4.931246
Te -8.197746 1.649133 -1.649133
Te -11.479860 1.649133 1.632981
Te -11.479860 4.931246 4.915094
Te -8.197746 4.931246 1.632981
Te -8.197746 1.649133 4.915094
Te -11.479860 1.649133 8.197208
Te -11.479860 4.931246 11.479321
Te -8.197746 4.931246 8.197208
Te -8.197746 1.649133 11.479321
Te -11.479860 1.649133 14.761435
Te -11.479860 4.931246 18.043548
Te -8.197746 4.931246 14.761435
Te -8.197746 1.649133 18.043548
Te -11.479860 1.649133 21.325662
Te -11.479860 4.931246 24.607776
Te -8.197746 4.931246 21.325662
Te -8.197746 1.649133 24.607776
Te -11.479860 1.649133 27.889889
Te -11.479860 4.931246 31.172003
Te -8.197746 4.931246 27.889889
Te -8.197746 1.649133 31.172003
Te -11.479860 8.213360 -31.188155
Te -11.479860 11.495474 -27.906041
Te -8.197746 11.495474 -31.188155
Te -8.197746 8.213360 -27.906041
Te -11.479860 8.213360 -24.623928
Te -11.479860 11.495474 -21.341814
Te -8.197746 11.495474 -24.623928
Te -8.197746 8.213360 -21.341814
Te -11.479860 8.213360 -18.059701
Te -11.479860 11.495474 -14.777587
Te -8.197746 11.495474 -18.059701
Te -8.197746 8.213360 -14.777587
Te -11.479860 8.213360 -11.495474
Te -11.479860 11.495474 -8.213360
Te -8.197746 11.495474 -11.495474
Te -8.197746 8.213360 -8.213360
Te -11.479860 8.213360 -4.931246
Te -11.479860 11.495474 -1.649133
Te -8.197746 11.495474 -4.931246
Te -8.197746 8.213360 -1.649133
Te -11.479860 8.213360 1.632981
Te -11.479860 11.495474 4.915094
Te -8.197746 11.495474 1.632981
Te -8.197746 8.213360 4.915094
Te -11.479860 8.213360 8.197208
Te -11.479860 11.495474 11.479321
Te -8.197746 11.495474 8.197208
Te -8.197746 8.213360 11.479321
Te -11.479860 8.213360 14.761435
Te -11.479860 11.495474 18.043548
Te -8.197746 11.495474 14.761435
Te -8.197746 8.213360 18.043548
Te -11.479860 8.213360 21.325662
Te -11.479860 11.495474 24.607776
Te -8.197746 11.495474 21.325662
Te -8.197746 8.213360 24.607776
Te -11.479860 8.213360 27.889889
Te -8.197746 11.495474 27.889889
Te -8.197746 8.213360 31.172003
Te -11.479860 14.777587 -31.188155
Te -11.479860 18.059701 -27.906041
Te -8.197746 18.059701 -31.188155
Te -8.197746 14.777587 -27.906041
Te -11.479860 14.777587 -24.623928
Te -11.479860 18.059701 -21.341814
Te -8.197746 18.059701 -24.623928
Te -8.197746 14.777587 -21.341814
Te -11.479860 14.777587 -18.059701
Te -11.479860 18.059701 -14.777587
Te -8.197746 18.059701 -18.059701
Te -8.197746 14.777587 -14.777587
Te -11.479860 14.777587 -11.495474
Te -11.479860 18.059701 -8.213360
Te -8.197746 18.059701 -11.495474
Te -8.197746 14.777587 -8.213360
Te -11.479860 14.777587 -4.931246
Te -11.479860 18.059701 -1.649133
Te -8.197746 18.059701 -4.931246
Te -8.197746 14.777587 -1.649133
Te -11.479860 14.777587 1.632981
Te -11.479860 18.059701 4.915094
Te -8.197746 18.059701 1.632981
Te -8.197746 14.777587 4.915094
Te -11.479860 14.777587 8.197208
Te -11.479860 18.059701 11.479321
Te -8.197746 18.059701 8.197208
Te -8.197746 14.777587 11.479321
Te -11.479860 14.777587 14.761435
Te -11.479860 18.059701 18.043548
Te -8.197746 18.059701 14.761435
Te -8.197746 14.777587 18.043548
Te -11.479860 14.777587 21.325662
Te -8.197746 18.059701 21.325662
Te -8.197746 14.777587 24.607776
Te -8.197746 14.777587 31.172003
Te -8.197746 21.341814 -27.906041
Te -11.479860 21.341814 -24.623928
Te -11.479860 24.623928 -21.341814
Te -8.197746 24.623928 -24.623928
Te -8.197746 21.341814 -21.341814
Te -11.479860 21.341814 -18.059701
Te -11.479860 24.623928 -14.777587
Te -8.197746 24.623928 -18.059701
Te -8.197746 21.341814 -14.777587
Te -11.479860 21.341814 -11.495474
Te -11.479860 24.623928 -8.213360
Te -8.197746 24.623928 -11.495474
Te -8.197746 21.341814 -8.213360
Te -11.479860 21.341814 -4.931246
Te -11.479860 24.623928 -1.649133
Te -8.197746 24.623928 -4.931246
Te -8.197746 21.341814 -1.649133
Te -11.479860 21.341814 1.632981
Te -11.479860 24.623928 4.915094
Te -8.197746 24.623928 1.632981
Te -8.197746 21.341814 4.915094
Te -11.479860 21.341814 8.197208
Te -11.479860 24.623928 11.479321
Te -8.197746 24.623928 8.197208
Te -8.197746 21.341814 11.479321
Te -11.479860 21.341814 14.761435
Te -8.197746 24.623928 14.761435
Te -8.197746 21.341814 18.043548
Te -8.197746 27.906041 -21.341814
Te -11.479860 27.906041 -18.059701
Te -11.479860 31.188155 -14.777587
Te -8.197746 31.188155 -18.059701
Te -8.197746 27.906041 -14.777587
Te -11.479860 27.906041 -11.495474
Te -11.479860 31.188155 -8.213360
Te -8.197746 31.188155 -11.495474
Te -8.197746 27.906041 -8.213360
Te -11.479860 27.906041 -4.931246
Te -11.479860 31.188155 -1.649133
Te -8.197746 31.188155 -4.931246
Te -8.197746 27.906041 -1.649133
Te -11.479860 27.906041 1.632981
Te -11.479860 31.188155 4.915094
Te -8.197746 31.188155 1.632981
Te -8.197746 27.906041 4.915094
Te -11.479860 27.906041 8.197208
Te -8.197746 31.188155 8.197208
Te -8.197746 27.906041 11.479321
Te -8.197746 31.188155 14.761435
Te -4.915633 -27.889889 -14.777587
Te -1.633519 -27.889889 -18.059701
Te -1.633519 -31.172003 -14.777587
Te -4.915633 -31.172003 -11.495474
Te -4.915633 -27.889889 -8.213360
Te -1.633519 -27.889889 -11.495474
Te -1.633519 -31.172003 -8.213360
Te -4.915633 -31.172003 -4.931246
Te -4.915633 -27.889889 -1.649133
Te -1.633519 -27.889889 -4.931246
Te -1.633519 -31.172003 -1.649133
Te -4.915633 -31.172003 1.632981
Te -4.915633 -27.889889 4.915094
Te -1.633519 -27.889889 1.632981
Te -1.633519 -31.172003 4.915094
Te -4.915633 -31.172003 8.197208
Te -4.915633 -27.889889 11.479321
Te -1.633519 -27.889889 8.197208
Te -1.633519 -31.172003 11.479321
Te -4.915633 -31.172003 14.761435
Te -4.915633 -27.889889 18.043548
Te -1.633519 -27.889889 14.761435
Te -1.633519 -31.172003 18.043548
Te -4.915633 -31.172003 21.325662
Te -4.915633 -27.889889 24.607776
Te -1.633519 -27.889889 21.325662
Te -4.915633 -21.325662 -21.341814
Te -1.633519 -21.325662 -24.623928
Te -1.633519 -24.607776 -21.341814
Te -4.915633 -24.607776 -18.059701
Te -4.915633 -21.325662 -14.777587
Te -1.633519 -21.325662 -18.059701
Te -1.633519 -24.607776 -14.777587
Te -4.915633 -24.607776 -11.495474
Te -4.915633 -21.325662 -8.213360
Te -1.633519 -21.325662 -11.495474
Te -1.633519 -24.607776 -8.213360
Te -4.915633 -24.607776 -4.931246
Te -4.915633 -21.325662 -1.649133
Te -1.633519 -21.325662 -4.931246
Te -1.633519 -24.607776 -1.649133
Te -4.915633 -24.607776 1.632981
Te -4.915633 -21.325662 4.915094
Te -1.633519 -21.325662 1.632981
Te -1.633519 -24.607776 4.915094
Te -4.915633 -24.607776 8.197208
Te -4.915633 -21.325662 11.479321
Te -1.633519 -21.325662 8.197208
Te -1.633519 -24.607776 11.479321
Te -4.915633 -24.607776 14.761435
Te -4.915633 -21.325662 18.043548
Te -1.633519 -21.325662 14.761435
Te -1.633519 -24.607776 18.043548
Te -4.915633 -24.607776 21.325662
Te -4.915633 -21.325662 24.607776
Te -1.633519 -21.325662 21.325662
Te -1.633519 -24.607776 24.607776
Te -4.915633 -24.607776 27.889889
Te -4.915633 -21.325662 31.172003
Te -1.633519 -21.325662 27.889889
Te -4.915633 -14.761435 -27.906041
Te -1.633519 -14.761435 -31.188155
Te -1.633519 -18.043548 -27.906041
Te -4.915633 -18.043548 -24.623928
Te -4.915633 -14.761435 -21.341814
Te -1.633519 -14.761435 -24.623928
Te -1.633519 -18.043548 -21.341814
Te -4.915633 -18.043548 -18.059701
Te -4.915633 -14.761435 -14.777587
Te -1.633519 -14.761435 -18.059701
Te -1.633519 -18.043548 -14.777587
Te -4.915633 -18.043548 -11.495474
Te -4.915633 -14.761435 -8.213360
Te -1.633519 -14.761435 -11.495474
Te -1.633519 -18.043548 -8.213360
Te -4.915633 -18.043548 -4.931246
Te -4.915633 -14.761435 -1.649133
Te -1.633519 -14.761435 -4.931246
Te -1.633519 -18.043548 -1.649133
Te -4.915633 -18.043548 1.632981
Te -4.915633 -14.761435 4.915094
Te -1.633519 -14.761435 1.632981
Te -1.633519 -18.043548 4.915094
Te -4.915633 -18.043548 8.197208
Te -4.915633 -14.761435 11.479321
Te -1.633519 -14.761435 8.197208
Te -1.633519 -18.043548 11.479321
Te -4.915633 -18.043548 14.761435
Te -4.915633 -14.761435 18.043548
Te -1.633519 -14.761435 14.761435
Te -1.633519 -18.043548 18.043548
Te -4.915633 -18.043548 21.325662
Te -4.915633 -14.761435 24.607776
Te -1.633519 -14.761435 21.325662
Te -1.633519 -18.043548 24.607776
Te -4.915633 -18.043548 27.889889
Te -4.915633 -14.761435 31.172003
Te -1.633519 -14.761435 27.889889
Te -1.633519 -18.043548 31.172003
Te -4.915633 -11.479321 -31.188155
Te -4.915633 -8.197208 -27.906041
Te -1.633519 -8.197208 -31.188155
Te -1.633519 -11.479321 -27.906041
Te -4.915633 -11.479321 -24.623928
Te -4.915633 -8.197208 -21.341814
Te -1.633519 -8.197208 -24.623928
Te -1.633519 -11.479321 -21.341814
Te -4.915633 -11.479321 -18.059701
Te -4.915633 -8.197208 -14.777587
Te -1.633519 -8.197208 -18.059701
Te -1.633519 -11.479321 -14.777587
Te -4.915633 -11.479321 -11.495474
Te -4.915633 -8.197208 -8.213360
Te -1.633519 -8.197208 -11.495474
Te -1.633519 -11.479321 -8.213360
Te -4.915633 -11.479321 -4.931246
Te -4.915633 -8.197208 -1.649133
Te -1.633519 -8.197208 -4.931246
Te -1.633519 -11.479321 -1.649133
Te -4.915633 -11.479321 1.632981
Te -4.915633 -8.197208 4.915094
Te -1.633519 -8.197208 1.632981
Te -1.633519 -11.479321 4.915094
Te -4.915633 -11.479321 8.197208
Te -4.915633 -8.197208 11.479321
Te -1.633519 -8.197208 8.197208
Te -1.633519 -11.479321 11.479321
Te -4.915633 -11.479321 14.761435
Te -4.915633 -8.197208 18.043548
Te -1.633519 -8.197208 14.761435
Te -1.633519 -11.479321 18.043548
Te -4.915633 -11.479321 21.325662
Te -4.915633 -8.197208 24.607776
Te -1.633519 -8.197208 21.325662
Te -1.633519 -11.479321 24.607776
Te -4.915633 -11.479321 27.889889
Te -4.915633 -8.197208 31.172003
Te -1.633519 -8.197208 27.889889
Te -1.633519 -11.479321 31.172003
Te -4.915633 -4.915094 -31.188155
Te -4.915633 -1.632981 -27.906041
Te -1.633519 -1.632981 -31.188155
Te -1.633519 -4.915094 -27.906041
Te -4.915633 -4.915094 -24.623928
Te -4.915633 -1.632981 -21.341814
Te -1.633519 -1.632981 -24.623928
Te -1.633519 -4.915094 -21.341814
Te -4.915633 -4.915094 -18.059701
Te -4.915633 -1.632981 -14.777587
Te -1.633519 -1.632981 -18.059701
Te -1.633519 -4.915094 -14.777587
Te -4.915633 -4.915094 -11.495474
Te -4.915633 -1.632981 -8.213360
Te -1.633519 -1.632981 -11.495474
Te -1.633519 -4.915094 -8.213360
Te -4.915633 -4.915094 -4.931246
Te -4.915633 -1.632981 -1.649133
Te -1.633519 -1.632981 -4.931246
Te -1.633519 -4.915094 -1.649133
Te -4.915633 -4.915094 1.632981
Te -4.915633 -1.632981 4.915094
Te -1.633519 -1.632981 1.632981
Te -1.633519 -4.915094 4.915094
Te -4.915633 -4.915094 8.197208
Te -4.915633 -1.632981 11.479321
Te -1.633519 -1.632981 8.197208
Te -1.633519 -4.915094 11.479321
Te -4.915633 -4.915094 14.761435
Te -4.915633 -1.632981 18.043548
Te -1.633519 -1.632981 14.761435
Te -1.633519 -4.915094 18.043548
Te -4.915633 -4.915094 21.325662
Te -4.915633 -1.632981 24.607776
Te -1.633519 -1.632981 21.325662
Te -1.633519 -4.915094 24.607776
Te -4.915633 -4.915094 27.889889
Te -4.915633 -1.632981 31.172003
Te -1.633519 -1.632981 27.889889
Te -1.633519 -4.915094 31.172003
Te -4.915633 1.649133 -31.188155
Te -4.915633 4.931246 -27.906041
Te -1.633519 4.931246 -31.188155
Te -1.633519 1.649133 -27.906041
Te -4.915633 1.649133 -24.623928
Te -4.915633 4.931246 -21.341814
Te -1.633519 4.931246 -24.623928
Te -1.633519 1.649133 -21.341814
Te -4.915633 1.649133 -18.059701
Te -4.915633 4.931246 -14.777587
Te -1.633519 4.931246 -18.059701
Te -1.633519 1.649133 -14.777587
Te -4.915633 1.649133 -11.495474
Te -4.915633 4.931246 -8.213360
Te -1.633519 4.931246 -11.495474
Te -1.633519 1.649133 -8.213360
Te -4.915633 1.649133 -4.931246
Te -4.915633 4.931246 -1.649133
Te -1.633519 4.931246 -4.931246
Te -1.633519 1.649133 -1.649133
Te -4.915633 1.649133 1.632981
Te -4.915633 4.931246 4.915094
Te -1.633519 4.931246 1.632981
Te -1.633519 1.649133 4.915094
Te -4.915633 1.649133 8.197208
Te -4.915633 4.931246 11.479321
Te -1.633519 4.931246 8.197208
Te -1.633519 1.649133 11.479321
Te -4.915633 1.649133 14.761435
Te -4.915633 4.931246 18.043548
Te -1.633519 4.931246 14.761435
Te -1.633519 1.649133 18.043548
Te -4.915633 1.649133 21.325662
Te -4.915633 4.931246 24.607776
Te -1.633519 4.931246 21.325662
Te -1.633519 1.649133 24.607776
Te -4.915633 1.649133 27.889889
Te -4.915633 4.931246 31.172003
Te -1.633519 4.931246 27.889889
Te -1.633519 1.649133 31.172003
Te -4.915633 8.213360 -31.188155
Te -4.915633 11.495474 -27.906041
Te -1.633519 11.495474 -31.188155
Te -1.633519 8.213360 -27.906041
Te -4.915633 8.213360 -24.623928
Te -4.915633 11.495474 -21.341814
Te -1.633519 11.495474 -24.623928
Te -1.633519 8.213360 -21.341814
Te -4.915633 8.213360 -18.059701
Te -4.915633 11.495474 -14.777587
Te -1.633519 11.495474 -18.059701
Te -1.633519 8.213360 -14.777587
Te -4.915633 8.213360 -11.495474
Te -4.915633 11.495474 -8.213360
Te -1.633519 11.495474 -11.495474
Te -1.633519 8.213360 -8.213360
Te -4.915633 8.213360 -4.931246
Te -4.915633 11.495474 -1.649133
Te -1.633519 11.495474 -4.931246
Te -1.633519 8.213360 -1.649133
Te -4.915633 8.213360 1.632981
Te -4.915633 11.495474 4.915094
Te -1.633519 11.495474 1.632981
Te -1.633519 8.213360 4.915094
Te -4.915633 8.213360 8.197208
Te -4.915633 11.495474 11.479321
Te -1.633519 11.495474 8.197208
Te -1.633519 8.213360 11.479321
Te -4.915633 8.213360 14.761435
Te -4.915633 11.495474 18.043548
Te -1.633519 11.495474 14.761435
Te -1.633519 8.213360 18.043548
Te -4.915633 8.213360 21.325662
Te -4.915633 11.495474 24.607776
Te -1.633519 11.495474 21.325662
Te -1.633519 8.213360 24.607776
Te -4.915633 8.213360 27.889889
Te -4.915633 11.495474 31.172003
Te -1.633519 11.495474 27.889889
Te -1.633519 8.213360 31.172003
Te -4.915633 14.777587 -31.188155
Te -4.915633 18.059701 -27.906041
Te -1.633519 18.059701 -31.188155
Te -1.633519 14.777587 -27.906041
Te -4.915633 14.777587 -24.623928
Te -4.915633 18.059701 -21.341814
Te -1.633519 18.059701 -24.623928
Te -1.633519 14.777587 -21.341814
Te -4.915633 14.777587 -18.059701
Te -4.915633 18.059701 -14.777587
Te -1.633519 18.059701 -18.059701
Te -1.633519 14.777587 -14.777587
Te -4.915633 14.777587 -11.495474
Te -4.915633 18.059701 -8.213360
Te -1.633519 18.059701 -11.495474
Te -1.633519 14.777587 -8.213360
Te -4.915633 14.777587 -4.931246
Te -4.915633 18.059701 -1.649133
Te -1.633519 18.059701 -4.931246
Te -1.633519 14.777587 -1.649133
Te -4.915633 14.777587 1.632981
Te -4.915633 18.059701 4.915094
Te -1.633519 18.059701 1.632981
Te -1.633519 14.777587 4.915094
Te -4.915633 14.777587 8.197208
Te -4.915633 18.059701 11.479321
Te -1.633519 18.059701 8.197208
Te -1.633519 14.777587 11.479321
Te -4.915633 14.777587 14.761435
Te -4.915633 18.059701 18.043548
Te -1.633519 18.059701 14.761435
Te -1.633519 14.777587 18.043548
Te -4.915633 14.777587 21.325662
Te -4.915633 18.059701 24.607776
Te -1.633519 18.059701 21.325662
Te -1.633519 14.777587 24.607776
Te -4.915633 14.777587 27.889889
Te -1.633519 18.059701 27.889889
Te -1.633519 14.777587 31.172003
Te -4.915633 21.341814 -31.188155
Te -4.915633 24.623928 -27.906041
Te -1.633519 24.623928 -31.188155
Te -1.633519 21.341814 -27.906041
Te -4.915633 21.341814 -24.623928
Te -4.915633 24.623928 -21.341814
Te -1.633519 24.623928 -24.623928
Te -1.633519 21.341814 -21.341814
Te -4.915633 21.341814 -18.059701
Te -4.915633 24.623928 -14.777587
Te -1.633519 24.623928 -18.059701
Te -1.633519 21.341814 -14.777587
Te -4.915633 21.341814 -11.495474
Te -4.915633 24.623928 -8.213360
Te -1.633519 24.623928 -11.495474
Te -1.633519 21.341814 -8.213360
Te -4.915633 21.341814 -4.931246
Te -4.915633 24.623928 -1.649133
Te -1.633519 24.623928 -4.931246
Te -1.633519 21.341814 -1.649133
Te -4.915633 21.341814 1.632981
Te -4.915633 24.623928 4.915094
Te -1.633519 24.623928 1.632981
Te -1.633519 21.341814 4.915094
Te -4.915633 21.341814 8.197208
Te -4.915633 24.623928 11.479321
Te -1.633519 24.623928 8.197208
Te -1.633519 21.341814 11.479321
Te -4.915633 21.341814 14.761435
Te -4.915633 24.623928 18.043548
Te -1.633519 24.623928 14.761435
Te -1.633519 21.341814 18.043548
Te -4.915633 21.341814 21.325662
Te -1.633519 24.623928 21.325662
Te -1.633519 21.341814 24.607776
Te -4.915633 27.906041 -24.623928
Te -4.915633 31.188155 -21.341814
Te -1.633519 31.188155 -24.623928
Te -1.633519 27.906041 -21.341814
Te -4.915633 27.906041 -18.059701
Te -4.915633 31.188155 -14.777587
Te -1.633519 31.188155 -18.059701
Te -1.633519 27.906041 -14.777587
Te -4.915633 27.906041 -11.495474
Te -4.915633 31.188155 -8.213360
Te -1.633519 31.188155 -11.495474
Te -1.633519 27.906041 -8.213360
Te -4.915633 27.906041 -4.931246
Te -4.915633 31.188155 -1.649133
Te -1.633519 31.188155 -4.931246
Te -1.633519 27.906041 -1.649133
Te -4.915633 27.906041 1.632981
Te -4.915633 31.188155 4.915094
Te -1.633519 31.188155 1.632981
Te -1.633519 27.906041 4.915094
Te -4.915633 27.906041 8.197208
Te -4.915633 31.188155 11.479321
Te -1.633519 31.188155 8.197208
Te -1.633519 27.906041 11.479321
Te -4.915633 27.906041 14.761435
Te -1.633519 31.188155 14.761435
Te -1.633519 27.906041 18.043548
Te 1.648594 -27.889889 -21.341814
Te 4.930708 -27.889889 -24.623928
Te 4.930708 -31.172003 -21.341814
Te 1.648594 -31.172003 -18.059701
Te 1.648594 -27.889889 -14.777587
Te 4.930708 -27.889889 -18.059701
Te 4.930708 -31.172003 -14.777587
Te 1.648594 -31.172003 -11.495474
Te 1.648594 -27.889889 -8.213360
Te 4.930708 -27.889889 -11.495474
Te 4.930708 -31.172003 -8.213360
Te 1.648594 -31.172003 -4.931246
Te 1.648594 -27.889889 -1.649133
Te 4.930708 -27.889889 -4.931246
Te 4.930708 -31.172003 -1.649133
Te 1.648594 -31.172003 1.632981
Te 1.648594 -27.889889 4.915094
Te 4.930708 -27.889889 1.632981
Te 4.930708 -31.172003 4.915094
Te 1.648594 -31.172003 8.197208
Te 1.648594 -27.889889 11.479321
Te 4.930708 -27.889889 8.197208
Te 4.930708 -31.172003 11.479321
Te 1.648594 -31.172003 14.761435
Te 1.648594 -27.889889 18.043548
Te 4.930708 -27.889889 14.761435
Te 4.930708 -31.172003 18.043548
Te 1.648594 -27.889889 24.607776
Te 1.648594 -21.325662 -27.906041
Te 4.930708 -21.325662 -31.188155
Te 4.930708 -24.607776 -27.906041
Te 1.648594 -24.607776 -24.623928
Te 1.648594 -21.325662 -21.341814
Te 4.930708 -21.325662 -24.623928
Te 4.930708 -24.607776 -21.341814
Te 1.648594 -24.607776 -18.059701
Te 1.648594 -21.325662 -14.777587
Te 4.930708 -21.325662 -18.059701
Te 4.930708 -24.607776 -14.777587
Te 1.648594 -24.607776 -11.495474
Te 1.648594 -21.325662 -8.213360
Te 4.930708 -21.325662 -11.495474
Te 4.930708 -24.607776 -8.213360
Te 1.648594 -24.607776 -4.931246
Te 1.648594 -21.325662 -1.649133
Te 4.930708 -21.325662 -4.931246
Te 4.930708 -24.607776 -1.649133
Te 1.648594 -24.607776 1.632981
Te 1.648594 -21.325662 4.915094
Te 4.930708 -21.325662 1.632981
Te 4.930708 -24.607776 4.915094
Te 1.648594 -24.607776 8.197208
Te 1.648594 -21.325662 11.479321
Te 4.930708 -21.325662 8.197208
Te 4.930708 -24.607776 11.479321
Te 1.648594 -24.607776 14.761435
Te 1.648594 -21.325662 18.043548
Te 4.930708 -21.325662 14.761435
Te 4.930708 -24.607776 18.043548
Te 1.648594 -24.607776 21.325662
Te 1.648594 -21.325662 24.607776
Te 4.930708 -21.325662 21.325662
Te 1.648594 -21.325662 31.172003
Te 1.648594 -18.043548 -31.188155
Te 1.648594 -14.761435 -27.906041
Te 4.930708 -14.761435 -31.188155
Te 4.930708 -18.043548 -27.906041
Te 1.648594 -18.043548 -24.623928
Te 1.648594 -14.761435 -21.341814
Te 4.930708 -14.761435 -24.623928
Te 4.930708 -18.043548 -21.341814
Te 1.648594 -18.043548 -18.059701
Te 1.648594 -14.761435 -14.777587
Te 4.930708 -14.761435 -18.059701
Te 4.930708 -18.043548 -14.777587
Te 1.648594 -18.043548 -11.495474
Te 1.648594 -14.761435 -8.213360
Te 4.930708 -14.761435 -11.495474
Te 4.930708 -18.043548 -8.213360
Te 1.648594 -18.043548 -4.931246
Te 1.648594 -14.761435 -1.649133
Te 4.930708 -14.761435 -4.931246
Te 4.930708 -18.043548 -1.649133
Te 1.648594 -18.043548 1.632981
Te 1.648594 -14.761435 4.915094
Te 4.930708 -14.761435 1.632981
Te 4.930708 -18.043548 4.915094
Te 1.648594 -18.043548 8.197208
Te 1.648594 -14.761435 11.479321
Te 4.930708 -14.761435 8.197208
Te 4.930708 -18.043548 11.479321
Te 1.648594 -18.043548 14.761435
Te 1.648594 -14.761435 18.043548
Te 4.930708 -14.761435 14.761435
Te 4.930708 -18.043548 18.043548
Te 1.648594 -18.043548 21.325662
Te 1.648594 -14.761435 24.607776
Te 4.930708 -14.761435 21.325662
Te 4.930708 -18.043548 24.607776
Te 1.648594 -18.043548 27.889889
Te 1.648594 -14.761435 31.172003
Te 4.930708 -14.761435 27.889889
Te 1.648594 -11.479321 -31.188155
Te 1.648594 -8.197208 -27.906041
Te 4.930708 -8.197208 -31.188155
Te 4.930708 -11.479321 -27.906041
Te 1.648594 -11.479321 -24.623928
Te 1.648594 -8.197208 -21.341814
Te 4.930708 -8.197208 -24.623928
Te 4.930708 -11.479321 -21.341814
Te 1.648594 -11.479321 -18.059701
Te 1.648594 -8.197208 -14.777587
Te 4.930708 -8.197208 -18.059701
Te 4.930708 -11.479321 -14.777587
Te 1.648594 -11.479321 -11.495474
Te 1.648594 -8.197208 -8.213360
Te 4.930708 -8.197208 -11.495474
Te 4.930708 -11.479321 -8.213360
Te 1.648594 -11.479321 -4.931246
Te 1.648594 -8.197208 -1.649133
Te 4.930708 -8.197208 -4.931246
Te 4.930708 -11.479321 -1.649133
Te 1.648594 -11.479321 1.632981
Te 1.648594 -8.197208 4.915094
Te 4.930708 -8.197208 1.632981
Te 4.930708 -11.479321 4.915094
Te 1.648594 -11.479321 8.197208
Te 1.648594 -8.197208 11.479321
Te 4.930708 -8.197208 8.197208
Te 4.930708 -11.479321 11.479321
Te 1.648594 -11.479321 14.761435
Te 1.648594 -8.197208 18.043548
Te 4.930708 -8.197208 14.761435
Te 4.930708 -11.479321 18.043548
Te 1.648594 -11.479321 21.325662
Te 1.648594 -8.197208 24.607776
Te 4.930708 -8.197208 21.325662
Te 4.930708 -11.479321 24.607776
Te 1.648594 -11.479321 27.889889
Te 1.648594 -8.197208 31.172003
Te 4.930708 -8.197208 27.889889
Te 4.930708 -11.479321 31.172003
Te 1.648594 -4.915094 -31.188155
Te 1.648594 -1.632981 -27.906041
Te 4.930708 -1.632981 -31.188155
Te 4.930708 -4.915094 -27.906041
Te 1.648594 -4.915094 -24.623928
Te 1.648594 -1.632981 -21.341814
Te 4.930708 -1.632981 -24.623928
Te 4.930708 -4.915094 -21.341814
Te 1.648594 -4.915094 -18.059701
Te 1.648594 -1.632981 -14.777587
Te 4.930708 -1.632981 -18.059701
Te 4.930708 -4.915094 -14.777587
Te 1.648594 -4.915094 -11.495474
Te 1.648594 -1.632981 -8.213360
Te 4.930708 -1.632981 -11.495474
Te 4.930708 -4.915094 -8.213360
Te 1.648594 -4.915094 -4.931246
Te 1.648594 -1.632981 -1.649133
Te 4.930708 -1.632981 -4.931246
Te 4.930708 -4.915094 -1.649133
Te 1.648594 -4.915094 1.632981
Te 1.648594 -1.632981 4.915094
Te 4.930708 -1.632981 1.632981
Te 4.930708 -4.915094 4.915094
Te 1.648594 -4.915094 8.197208
Te 1.648594 -1.632981 11.479321
Te 4.930708 -1.632981 8.197208
Te 4.930708 -4.915094 11.479321
Te 1.648594 -4.915094 14.761435
Te 1.648594 -1.632981 18.043548
Te 4.930708 -1.632981 14.761435
Te 4.930708 -4.915094 18.043548
Te 1.648594 -4.915094 21.325662
Te 1.648594 -1.632981 24.607776
Te 4.930708 -1.632981 21.325662
Te 4.930708 -4.915094 24.607776
Te 1.648594 -4.915094 27.889889
Te 1.648594 -1.632981 31.172003
Te 4.930708 -1.632981 27.889889
Te 4.930708 -4.915094 31.172003
Te 1.648594 1.649133 -31.188155
Te 1.648594 4.931246 -27.906041
Te 4.930708 4.931246 -31.188155
Te 4.930708 1.649133 -27.906041
Te 1.648594 1.649133 -24.623928
Te 1.648594 4.931246 -21.341814
Te 4.930708 4.931246 -24.623928
Te 4.930708 1.649133 -21.341814
Te 1.648594 1.649133 -18.059701
Te 1.648594 4.931246 -14.777587
Te 4.930708 4.931246 -18.059701
Te 4.930708 1.649133 -14.777587
Te 1.648594 1.649133 -11.495474
Te 1.648594 4.931246 -8.213360
Te 4.930708 4.931246 -11.495474
Te 4.930708 1.649133 -8.213360
Te 1.648594 1.649133 -4.931246
Te 1.648594 4.931246 -1.649133
Te 4.930708 4.931246 -4.931246
Te 4.930708 1.649133 -1.649133
Te 1.648594 1.649133 1.632981
Te 1.648594 4.931246 4.915094
Te 4.930708 4.931246 1.632981
Te 4.930708 1.649133 4.915094
Te 1.648594 1.649133 8.197208
Te 1.648594 4.931246 11.479321
Te 4.930708 4.931246 8.197208
Te 4.930708 1.649133 11.479321
Te 1.648594 1.649133 14.761435
Te 1.648594 4.931246 18.043548
Te 4.930708 4.931246 14.761435
Te 4.930708 1.649133 18.043548
Te 1.648594 1.649133 21.325662
Te 1.648594 4.931246 24.607776
Te 4.930708 4.931246 21.325662
Te 4.930708 1.649133 24.607776
Te 1.648594 1.649133 27.889889
Te 1.648594 4.931246 31.172003
Te 4.930708 4.931246 27.889889
Te 4.930708 1.649133 31.172003
Te 1.648594 8.213360 -31.188155
Te 1.648594 11.495474 -27.906041
Te 4.930708 11.495474 -31.188155
Te 4.930708 8.213360 -27.906041
Te 1.648594 8.213360 -24.623928
Te 1.648594 11.495474 -21.341814
Te 4.930708 11.495474 -24.623928
Te 4.930708 8.213360 -21.341814
Te 1.648594 8.213360 -18.059701
Te 1.648594 11.495474 -14.777587
Te 4.930708 11.495474 -18.059701
Te 4.930708 8.213360 -14.777587
Te 1.648594 8.213360 -11.495474
Te 1.648594 11.495474 -8.213360
Te 4.930708 11.495474 -11.495474
Te 4.930708 8.213360 -8.213360
Te 1.648594 8.213360 -4.931246
Te 1.648594 11.495474 -1.649133
Te 4.930708 11.495474 -4.931246
Te 4.930708 8.213360 -1.649133
Te 1.648594 8.213360 1.632981
Te 1.648594 11.495474 4.915094
Te 4.930708 11.495474 1.632981
Te 4.930708 8.213360 4.915094
Te 1.648594 8.213360 8.197208
Te 1.648594 11.495474 11.479321
Te 4.930708 11.495474 8.197208
Te 4.930708 8.213360 11.479321
Te 1.648594 8.213360 14.761435
Te 1.648594 11.495474 18.043548
Te 4.930708 11.495474 14.761435
Te 4.930708 8.213360 18.043548
Te 1.648594 8.213360 21.325662
Te 1.648594 11.495474 24.607776
Te 4.930708 11.495474 21.325662
Te 4.930708 8.213360 24.607776
Te 1.648594 8.213360 27.889889
Te 1.648594 11.495474 31.172003
Te 4.930708 11.495474 27.889889
Te 4.930708 8.213360 31.172003
Te 1.648594 14.777587 -31.188155
Te 1.648594 18.059701 -27.906041
Te 4.930708 14.777587 -27.906041
Te 1.648594 14.777587 -24.623928
Te 1.648594 18.059701 -21.341814
Te 4.930708 18.059701 -24.623928
Te 4.930708 14.777587 -21.341814
Te 1.648594 14.777587 -18.059701
Te 1.648594 18.059701 -14.777587
Te 4.930708 18.059701 -18.059701
Te 4.930708 14.777587 -14.777587
Te 1.648594 14.777587 -11.495474
Te 1.648594 18.059701 -8.213360
Te 4.930708 18.059701 -11.495474
Te 4.930708 14.777587 -8.213360
Te 1.648594 14.777587 -4.931246
Te 1.648594 18.059701 -1.649133
Te 4.930708 18.059701 -4.931246
Te 4.930708 14.777587 -1.649133
Te 1.648594 14.777587 1.632981
Te 1.648594 18.059701 4.915094
Te 4.930708 18.059701 1.632981
Te 4.930708 14.777587 4.915094
Te 1.648594 14.777587 8.197208
Te 1.648594 18.059701 11.479321
Te 4.930708 18.059701 8.197208
Te 4.930708 14.777587 11.479321
Te 1.648594 14.777587 14.761435
Te 1.648594 18.059701 18.043548
Te 4.930708 18.059701 14.761435
Te 4.930708 14.777587 18.043548
Te 1.648594 14.777587 21.325662
Te 1.648594 18.059701 24.607776
Te 4.930708 18.059701 21.325662
Te 4.930708 14.777587 24.607776
Te 1.648594 14.777587 27.889889
Te 1.648594 18.059701 31.172003
Te 4.930708 18.059701 27.889889
Te 4.930708 14.777587 31.172003
Te 1.648594 21.341814 -24.623928
Te 1.648594 24.623928 -21.341814
Te 4.930708 21.341814 -21.341814
Te 1.648594 21.341814 -18.059701
Te 1.648594 24.623928 -14.777587
Te 4.930708 24.623928 -18.059701
Te 4.930708 21.341814 -14.777587
Te 1.648594 21.341814 -11.495474
Te 1.648594 24.623928 -8.213360
Te 4.930708 24.623928 -11.495474
Te 4.930708 21.341814 -8.213360
Te 1.648594 21.341814 -4.931246
Te 1.648594 24.623928 -1.649133
Te 4.930708 24.623928 -4.931246
Te 4.930708 21.341814 -1.649133
Te 1.648594 21.341814 1.632981
Te 1.648594 24.623928 4.915094
Te 4.930708 24.623928 1.632981
Te 4.930708 21.341814 4.915094
Te 1.648594 21.341814 8.197208
Te 1.648594 24.623928 11.479321
Te 4.930708 24.623928 8.197208
Te 4.930708 21.341814 11.479321
Te 1.648594 21.341814 14.761435
Te 1.648594 24.623928 18.043548
Te 4.930708 24.623928 14.761435
Te 4.930708 21.341814 18.043548
Te 1.648594 21.341814 21.325662
Te 1.648594 24.623928 24.607776
Te 4.930708 24.623928 21.325662
Te 4.930708 21.341814 24.607776
Te 1.648594 21.341814 27.889889
Te 1.648594 24.623928 31.172003
Te 4.930708 24.623928 27.889889
Te 4.930708 21.341814 31.172003
Te 1.648594 27.906041 -18.059701
Te 1.648594 31.188155 -14.777587
Te 4.930708 27.906041 -14.777587
Te 1.648594 27.906041 -11.495474
Te 1.648594 31.188155 -8.213360
Te 4.930708 31.188155 -11.495474
Te 4.930708 27.906041 -8.213360
Te 1.648594 27.906041 -4.931246
Te 1.648594 31.188155 -1.649133
Te 4.930708 31.188155 -4.931246
Te 4.930708 27.906041 -1.649133
Te 1.648594 27.906041 1.632981
Te 1.648594 31.188155 4.915094
Te 4.930708 31.188155 1.632981
Te 4.930708 27.906041 4.915094
Te 1.648594 27.906041 8.197208
Te 1.648594 31.188155 11.479321
Te 4.930708 31.188155 8.197208
Te 4.930708 27.906041 11.479321
Te 1.648594 27.906041 14.761435
Te 1.648594 31.188155 18.043548
Te 4.930708 31.188155 14.761435
Te 4.930708 27.906041 18.043548
Te 1.648594 27.906041 21.325662
Te 4.930708 31.188155 21.325662
Te 4.930708 27.906041 24.607776
Te 8.212822 -27.889889 -21.341814
Te 8.212822 -31.172003 -18.059701
Te 8.212822 -27.889889 -14.777587
Te 11.494935 -27.889889 -18.059701
Te 11.494935 -31.172003 -14.777587
Te 8.212822 -31.172003 -11.495474
Te 8.212822 -27.889889 -8.213360
Te 11.494935 -27.889889 -11.495474
Te 11.494935 -31.172003 -8.213360
Te 8.212822 -31.172003 -4.931246
Te 8.212822 -27.889889 -1.649133
Te 11.494935 -27.889889 -4.931246
Te 11.494935 -31.172003 -1.649133
Te 8.212822 -31.172003 1.632981
Te 8.212822 -27.889889 4.915094
Te 11.494935 -27.889889 1.632981
Te 11.494935 -31.172003 4.915094
Te 8.212822 -31.172003 8.197208
Te 8.212822 -27.889889 11.479321
Te 11.494935 -27.889889 8.197208
Te 8.212822 -21.325662 -27.906041
Te 8.212822 -24.607776 -24.623928
Te 8.212822 -21.325662 -21.341814
Te 11.494935 -21.325662 -24.623928
Te 11.494935 -24.607776 -21.341814
Te 8.212822 -24.607776 -18.059701
Te 8.212822 -21.325662 -14.777587
Te 11.494935 -21.325662 -18.059701
Te 11.494935 -24.607776 -14.777587
Te 8.212822 -24.607776 -11.495474
Te 8.212822 -21.325662 -8.213360
Te 11.494935 -21.325662 -11.495474
Te 11.494935 -24.607776 -8.213360
Te 8.212822 -24.607776 -4.931246
Te 8.212822 -21.325662 -1.649133
Te 11.494935 -21.325662 -4.931246
Te 11.494935 -24.607776 -1.649133
Te 8.212822 -24.607776 1.632981
Te 8.212822 -21.325662 4.915094
Te 11.494935 -21.325662 1.632981
Te 11.494935 -24.607776 4.915094
Te 8.212822 -24.607776 8.197208
Te 8.212822 -21.325662 11.479321
Te 11.494935 -21.325662 8.197208
Te 11.494935 -24.607776 11.479321
Te 8.212822 -24.607776 14.761435
Te 8.212822 -21.325662 18.043548
Te 11.494935 -21.325662 14.761435
Te 8.212822 -18.043548 -31.188155
Te 8.212822 -14.761435 -27.906041
Te 11.494935 -14.761435 -31.188155
Te 11.494935 -18.043548 -27.906041
Te 8.212822 -18.043548 -24.623928
Te 8.212822 -14.761435 -21.341814
Te 11.494935 -14.761435 -24.623928
Te 11.494935 -18.043548 -21.341814
Te 8.212822 -18.043548 -18.059701
Te 8.212822 -14.761435 -14.777587
Te 11.494935 -14.761435 -18.059701
Te 11.494935 -18.043548 -14.777587
Te 8.212822 -18.043548 -11.495474
Te 8.212822 -14.761435 -8.213360
Te 11.494935 -14.761435 -11.495474
Te 11.494935 -18.043548 -8.213360
Te 8.212822 -18.043548 -4.931246
Te 8.212822 -14.761435 -1.649133
Te 11.494935 -14.761435 -4.931246
Te 11.494935 -18.043548 -1.649133
Te 8.212822 -18.043548 1.632981
Te 8.212822 -14.761435 4.915094
Te 11.494935 -14.761435 1.632981
Te 11.494935 -18.043548 4.915094
Te 8.212822 -18.043548 8.197208
Te 8.212822 -14.761435 11.479321
Te 11.494935 -14.761435 8.197208
Te 11.494935 -18.043548 11.479321
Te 8.212822 -18.043548 14.761435
Te 8.212822 -14.761435 18.043548
Te 11.494935 -14.761435 14.761435
Te 11.494935 -18.043548 18.043548
Te 8.212822 -18.043548 21.325662
Te 8.212822 -14.761435 24.607776
Te 11.494935 -14.761435 21.325662
Te 8.212822 -11.479321 -31.188155
Te 8.212822 -8.197208 -27.906041
Te 11.494935 -8.197208 -31.188155
Te 11.494935 -11.479321 -27.906041
Te 8.212822 -11.479321 -24.623928
Te 8.212822 -8.197208 -21.341814
Te 11.494935 -8.197208 -24.623928
Te 11.494935 -11.479321 -21.341814
Te 8.212822 -11.479321 -18.059701
Te 8.212822 -8.197208 -14.777587
Te 11.494935 -8.197208 -18.059701
Te 11.494935 -11.479321 -14.777587
Te 8.212822 -11.479321 -11.495474
Te 8.212822 -8.197208 -8.213360
Te 11.494935 -8.197208 -11.495474
Te 11.494935 -11.479321 -8.213360
Te 8.212822 -11.479321 -4.931246
Te 8.212822 -8.197208 -1.649133
Te 11.494935 -8.197208 -4.931246
Te 11.494935 -11.479321 -1.649133
Te 8.212822 -11.479321 1.632981
Te 8.212822 -8.197208 4.915094
Te 11.494935 -8.197208 1.632981
Te 11.494935 -11.479321 4.915094
Te 8.212822 -11.479321 8.197208
Te 8.212822 -8.197208 11.479321
Te 11.494935 -8.197208 8.197208
Te 11.494935 -11.479321 11.479321
Te 8.212822 -11.479321 14.761435
Te 8.212822 -8.197208 18.043548
Te 11.494935 -8.197208 14.761435
Te 11.494935 -11.479321 18.043548
Te 8.212822 -11.479321 21.325662
Te 8.212822 -8.197208 24.607776
Te 11.494935 -8.197208 21.325662
Te 11.494935 -11.479321 24.607776
Te 8.212822 -11.479321 27.889889
Te 8.212822 -8.197208 31.172003
Te 11.494935 -8.197208 27.889889
Te 11.494935 -11.479321 31.172003
Te 8.212822 -4.915094 -31.188155
Te 8.212822 -1.632981 -27.906041
Te 11.494935 -1.632981 -31.188155
Te 11.494935 -4.915094 -27.906041
Te 8.212822 -4.915094 -24.623928
Te 8.212822 -1.632981 -21.341814
Te 11.494935 -1.632981 -24.623928
Te 11.494935 -4.915094 -21.341814
Te 8.212822 -4.915094 -18.059701
Te 8.212822 -1.632981 -14.777587
Te 11.494935 -1.632981 -18.059701
Te 11.494935 -4.915094 -14.777587
Te 8.212822 -4.915094 -11.495474
Te 8.212822 -1.632981 -8.213360
Te 11.494935 -1.632981 -11.495474
Te 11.494935 -4.915094 -8.213360
Te 8.212822 -4.915094 -4.931246
Te 8.212822 -1.632981 -1.649133
Te 11.494935 -1.632981 -4.931246
Te 11.494935 -4.915094 -1.649133
Te 8.212822 -4.915094 1.632981
Te 8.212822 -1.632981 4.915094
Te 11.494935 -1.632981 1.632981
Te 11.494935 -4.915094 4.915094
Te 8.212822 -4.915094 8.197208
Te 8.212822 -1.632981 11.479321
Te 11.494935 -1.632981 8.197208
Te 11.494935 -4.915094 11.479321
Te 8.212822 -4.915094 14.761435
Te 8.212822 -1.632981 18.043548
Te 11.494935 -1.632981 14.761435
Te 11.494935 -4.915094 18.043548
Te 8.212822 -4.915094 21.325662
Te 8.212822 -1.632981 24.607776
Te 11.494935 -1.632981 21.325662
Te 11.494935 -4.915094 24.607776
Te 8.212822 -4.915094 27.889889
Te 8.212822 -1.632981 31.172003
Te 11.494935 -1.632981 27.889889
Te 11.494935 -4.915094 31.172003
Te 8.212822 1.649133 -31.188155
Te 8.212822 4.931246 -27.906041
Te 11.494935 4.931246 -31.188155
Te 11.494935 1.649133 -27.906041
Te 8.212822 1.649133 -24.623928
Te 8.212822 4.931246 -21.341814
Te 11.494935 4.931246 -24.623928
Te 11.494935 1.649133 -21.341814
Te 8.212822 1.649133 -18.059701
Te 8.212822 4.931246 -14.777587
Te 11.494935 4.931246 -18.059701
Te 11.494935 1.649133 -14.777587
Te 8.212822 1.649133 -11.495474
Te 8.212822 4.931246 -8.213360
Te 11.494935 4.931246 -11.495474
Te 11.494935 1.649133 -8.213360
Te 8.212822 1.649133 -4.931246
Te 8.212822 4.931246 -1.649133
Te 11.494935 4.931246 -4.931246
Te 11.494935 1.649133 -1.649133
Te 8.212822 1.649133 1.632981
Te 8.212822 4.931246 4.915094
Te 11.494935 4.931246 1.632981
Te 11.494935 1.649133 4.915094
Te 8.212822 1.649133 8.197208
Te 8.212822 4.931246 11.479321
Te 11.494935 4.931246 8.197208
Te 11.494935 1.649133 11.479321
Te 8.212822 1.649133 14.761435
Te 8.212822 4.931246 18.043548
Te 11.494935 4.931246 14.761435
Te 11.494935 1.649133 18.043548
Te 8.212822 1.649133 21.325662
Te 8.212822 4.931246 24.607776
Te 11.494935 4.931246 21.325662
Te 11.494935 1.649133 24.607776
Te 8.212822 1.649133 27.889889
Te 8.212822 4.931246 31.172003
Te 11.494935 4.931246 27.889889
Te 11.494935 1.649133 31.172003
Te 8.212822 8.213360 -31.188155
Te 8.212822 11.495474 -27.906041
Te 11.494935 8.213360 -27.906041
Te 8.212822 8.213360 -24.623928
Te 8.212822 11.495474 -21.341814
Te 11.494935 11.495474 -24.623928
Te 11.494935 8.213360 -21.341814
Te 8.212822 8.213360 -18.059701
Te 8.212822 11.495474 -14.777587
Te 11.494935 11.495474 -18.059701
Te 11.494935 8.213360 -14.777587
Te 8.212822 8.213360 -11.495474
Te 8.212822 11.495474 -8.213360
Te 11.494935 11.495474 -11.495474
Te 11.494935 8.213360 -8.213360
Te 8.212822 8.213360 -4.931246
Te 8.212822 11.495474 -1.649133
Te 11.494935 11.495474 -4.931246
Te 11.494935 8.213360 -1.649133
Te 8.212822 8.213360 1.632981
Te 8.212822 11.495474 4.915094
Te 11.494935 11.495474 1.632981
Te 11.494935 8.213360 4.915094
Te 8.212822 8.213360 8.197208
Te 8.212822 11.495474 11.479321
Te 11.494935 11.495474 8.197208
Te 11.494935 8.213360 11.479321
Te 8.212822 8.213360 14.761435
Te 8.212822 11.495474 18.043548
Te 11.494935 11.495474 14.761435
Te 11.494935 8.213360 18.043548
Te 8.212822 8.213360 21.325662
Te 8.212822 11.495474 24.607776
Te 11.494935 11.495474 21.325662
Te 11.494935 8.213360 24.607776
Te 8.212822 8.213360 27.889889
Te 8.212822 11.495474 31.172003
Te 11.494935 11.495474 27.889889
Te 11.494935 8.213360 31.172003
Te 8.212822 14.777587 -31.188155
Te 8.212822 14.777587 -24.623928
Te 8.212822 18.059701 -21.341814
Te 11.494935 14.777587 -21.341814
Te 8.212822 14.777587 -18.059701
Te 8.212822 18.059701 -14.777587
Te 11.494935 18.059701 -18.059701
Te 11.494935 14.777587 -14.777587
Te 8.212822 14.777587 -11.495474
Te 8.212822 18.059701 -8.213360
Te 11.494935 18.059701 -11.495474
Te 11.494935 14.777587 -8.213360
Te 8.212822 14.777587 -4.931246
Te 8.212822 18.059701 -1.649133
Te 11.494935 18.059701 -4.931246
Te 11.494935 14.777587 -1.649133
Te 8.212822 14.777587 1.632981
Te 8.212822 18.059701 4.915094
Te 11.494935 18.059701 1.632981
Te 11.494935 14.777587 4.915094
Te 8.212822 14.777587 8.197208
Te 8.212822 18.059701 11.479321
Te 11.494935 18.059701 8.197208
Te 11.494935 14.777587 11.479321
Te 8.212822 14.777587 14.761435
Te 8.212822 18.059701 18.043548
Te 11.494935 18.059701 14.761435
Te 11.494935 14.777587 18.043548
Te 8.212822 14.777587 21.325662
Te 8.212822 18.059701 24.607776
Te 11.494935 18.059701 21.325662
Te 11.494935 14.777587 24.607776
Te 8.212822 14.777587 27.889889
Te 8.212822 18.059701 31.172003
Te 11.494935 18.059701 27.889889
Te 11.494935 14.777587 31.172003
Te 8.212822 21.341814 -18.059701
Te 8.212822 24.623928 -14.777587
Te 11.494935 21.341814 -14.777587
Te 8.212822 21.341814 -11.495474
Te 8.212822 24.623928 -8.213360
Te 11.494935 24.623928 -11.495474
Te 11.494935 21.341814 -8.213360
Te 8.212822 21.341814 -4.931246
Te 8.212822 24.623928 -1.649133
Te 11.494935 24.623928 -4.931246
Te 11.494935 21.341814 -1.649133
Te 8.212822 21.341814 1.632981
Te 8.212822 24.623928 4.915094
Te 11.494935 24.623928 1.632981
Te 11.494935 21.341814 4.915094
Te 8.212822 21.341814 8.197208
Te 8.212822 24.623928 11.479321
Te 11.494935 24.623928 8.197208
Te 11.494935 21.341814 11.479321
Te 8.212822 21.341814 14.761435
Te 8.212822 24.623928 18.043548
Te 11.494935 24.623928 14.761435
Te 11.494935 21.341814 18.043548
Te 8.212822 21.341814 21.325662
Te 8.212822 24.623928 24.607776
Te 11.494935 24.623928 21.325662
Te 11.494935 21.341814 24.607776
Te 8.212822 21.341814 27.889889
Te 8.212822 31.188155 -14.777587
Te 8.212822 27.906041 -11.495474
Te 8.212822 31.188155 -8.213360
Te 11.494935 27.906041 -8.213360
Te 8.212822 27.906041 -4.931246
Te 8.212822 31.188155 -1.649133
Te 11.494935 31.188155 -4.931246
Te 11.494935 27.906041 -1.649133
Te 8.212822 27.906041 1.632981
Te 8.212822 31.188155 4.915094
Te 11.494935 31.188155 1.632981
Te 11.494935 27.906041 4.915094
Te 8.212822 27.906041 8.197208
Te 8.212822 31.188155 11.479321
Te 11.494935 31.188155 8.197208
Te 11.494935 27.906041 11.479321
Te 8.212822 27.906041 14.761435
Te 8.212822 31.188155 18.043548
Te 11.494935 31.188155 14.761435
Te 11.494935 27.906041 18.043548
Te 8.212822 27.906041 21.325662
Te 14.777049 -27.889889 -14.777587
Te 14.777049 -31.172003 -11.495474
Te 14.777049 -27.889889 -8.213360
Te 18.059162 -27.889889 -11.495474
Te 18.059162 -31.172003 -8.213360
Te 14.777049 -31.172003 -4.931246
Te 14.777049 -27.889889 -1.649133
Te 18.059162 -27.889889 -4.931246
Te 18.059162 -31.172003 -1.649133
Te 14.777049 -31.172003 1.632981
Te 14.777049 -27.889889 4.915094
Te 18.059162 -27.889889 1.632981
Te 14.777049 -31.172003 8.197208
Te 14.777049 -21.325662 -21.341814
Te 14.777049 -24.607776 -18.059701
Te 14.777049 -21.325662 -14.777587
Te 18.059162 -21.325662 -18.059701
Te 18.059162 -24.607776 -14.777587
Te 14.777049 -24.607776 -11.495474
Te 14.777049 -21.325662 -8.213360
Te 18.059162 -21.325662 -11.495474
Te 18.059162 -24.607776 -8.213360
Te 14.777049 -24.607776 -4.931246
Te 14.777049 -21.325662 -1.649133
Te 18.059162 -21.325662 -4.931246
Te 18.059162 -24.607776 -1.649133
Te 14.777049 -24.607776 1.632981
Te 14.777049 -21.325662 4.915094
Te 18.059162 -21.325662 1.632981
Te 18.059162 -24.607776 4.915094
Te 14.777049 -24.607776 8.197208
Te 14.777049 -21.325662 11.479321
Te 18.059162 -21.325662 8.197208
Te 14.777049 -14.761435 -27.906041
Te 14.777049 -18.043548 -24.623928
Te 14.777049 -14.761435 -21.341814
Te 18.059162 -14.761435 -24.623928
Te 18.059162 -18.043548 -21.341814
Te 14.777049 -18.043548 -18.059701
Te 14.777049 -14.761435 -14.777587
Te 18.059162 -14.761435 -18.059701
Te 18.059162 -18.043548 -14.777587
Te 14.777049 -18.043548 -11.495474
Te 14.777049 -14.761435 -8.213360
Te 18.059162 -14.761435 -11.495474
Te 18.059162 -18.043548 -8.213360
Te 14.777049 -18.043548 -4.931246
Te 14.777049 -14.761435 -1.649133
Te 18.059162 -14.761435 -4.931246
Te 18.059162 -18.043548 -1.649133
Te 14.777049 -18.043548 1.632981
Te 14.777049 -14.761435 4.915094
Te 18.059162 -14.761435 1.632981
Te 18.059162 -18.043548 4.915094
Te 14.777049 -18.043548 8.197208
Te 14.777049 -14.761435 11.479321
Te 18.059162 -14.761435 8.197208
Te 18.059162 -18.043548 11.479321
Te 14.777049 -18.043548 14.761435
Te 14.777049 -14.761435 18.043548
Te 18.059162 -14.761435 14.761435
Te 14.777049 -11.479321 -31.188155
Te 14.777049 -8.197208 -27.906041
Te 18.059162 -8.197208 -31.188155
Te 18.059162 -11.479321 -27.906041
Te 14.777049 -11.479321 -24.623928
Te 14.777049 -8.197208 -21.341814
Te 18.059162 -8.197208 -24.623928
Te 18.059162 -11.479321 -21.341814
Te 14.777049 -11.479321 -18.059701
Te 14.777049 -8.197208 -14.777587
Te 18.059162 -8.197208 -18.059701
Te 18.059162 -11.479321 -14.777587
Te 14.777049 -11.479321 -11.495474
Te 14.777049 -8.197208 -8.213360
Te 18.059162 -8.197208 -11.495474
Te 18.059162 -11.479321 -8.213360
Te 14.777049 -11.479321 -4.931246
Te 14.777049 -8.197208 -1.649133
Te 18.059162 -8.197208 -4.931246
Te 18.059162 -11.479321 -1.649133
Te 14.777049 -11.479321 1.632981
Te 14.777049 -8.197208 4.915094
Te 18.059162 -8.197208 1.632981
Te 18.059162 -11.479321 4.915094
Te 14.777049 -11.479321 8.197208
Te 14.777049 -8.197208 11.479321
Te 18.059162 -8.197208 8.197208
Te 18.059162 -11.479321 11.479321
Te 14.777049 -11.479321 14.761435
Te 14.777049 -8.197208 18.043548
Te 18.059162 -8.197208 14.761435
Te 18.059162 -11.479321 18.043548
Te 14.777049 -11.479321 21.325662
Te 14.777049 -8.197208 24.607776
Te 18.059162 -8.197208 21.325662
Te 14.777049 -4.915094 -31.188155
Te 14.777049 -1.632981 -27.906041
Te 18.059162 -1.632981 -31.188155
Te 18.059162 -4.915094 -27.906041
Te 14.777049 -4.915094 -24.623928
Te 14.777049 -1.632981 -21.341814
Te 18.059162 -1.632981 -24.623928
Te 18.059162 -4.915094 -21.341814
Te 14.777049 -4.915094 -18.059701
Te 14.777049 -1.632981 -14.777587
Te 18.059162 -1.632981 -18.059701
Te 18.059162 -4.915094 -14.777587
Te 14.777049 -4.915094 -11.495474
Te 14.777049 -1.632981 -8.213360
Te 18.059162 -1.632981 -11.495474
Te 18.059162 -4.915094 -8.213360
Te 14.777049 -4.915094 -4.931246
Te 14.777049 -1.632981 -1.649133
Te 18.059162 -1.632981 -4.931246
Te 18.059162 -4.915094 -1.649133
Te 14.777049 -4.915094 1.632981
Te 14.777049 -1.632981 4.915094
Te 18.059162 -1.632981 1.632981
Te 18.059162 -4.915094 4.915094
Te 14.777049 -4.915094 8.197208
Te 14.777049 -1.632981 11.479321
Te 18.059162 -1.632981 8.197208
Te 18.059162 -4.915094 11.479321
Te 14.777049 -4.915094 14.761435
Te 14.777049 -1.632981 18.043548
Te 18.059162 -1.632981 14.761435
Te 18.059162 -4.915094 18.043548
Te 14.777049 -4.915094 21.325662
Te 14.777049 -1.632981 24.607776
Te 18.059162 -1.632981 21.325662
Te 18.059162 -4.915094 24.607776
Te 14.777049 -4.915094 27.889889
Te 14.777049 -1.632981 31.172003
Te 18.059162 -1.632981 27.889889
Te 14.777049 1.649133 -31.188155
Te 14.777049 4.931246 -27.906041
Te 18.059162 1.649133 -27.906041
Te 14.777049 1.649133 -24.623928
Te 14.777049 4.931246 -21.341814
Te 18.059162 4.931246 -24.623928
Te 18.059162 1.649133 -21.341814
Te 14.777049 1.649133 -18.059701
Te 14.777049 4.931246 -14.777587
Te 18.059162 4.931246 -18.059701
Te 18.059162 1.649133 -14.777587
Te 14.777049 1.649133 -11.495474
Te 14.777049 4.931246 -8.213360
Te 18.059162 4.931246 -11.495474
Te 18.059162 1.649133 -8.213360
Te 14.777049 1.649133 -4.931246
Te 14.777049 4.931246 -1.649133
Te 18.059162 4.931246 -4.931246
Te 18.059162 1.649133 -1.649133
Te 14.777049 1.649133 1.632981
Te 14.777049 4.931246 4.915094
Te 18.059162 4.931246 1.632981
Te 18.059162 1.649133 4.915094
Te 14.777049 1.649133 8.197208
Te 14.777049 4.931246 11.479321
Te 18.059162 4.931246 8.197208
Te 18.059162 1.649133 11.479321
Te 14.777049 1.649133 14.761435
Te 14.777049 4.931246 18.043548
Te 18.059162 4.931246 14.761435
Te 18.059162 1.649133 18.043548
Te 14.777049 1.649133 21.325662
Te 14.777049 4.931246 24.607776
Te 18.059162 4.931246 21.325662
Te 18.059162 1.649133 24.607776
Te 14.777049 1.649133 27.889889
Te 14.777049 4.931246 31.172003
Te 18.059162 4.931246 27.889889
Te 18.059162 1.649133 31.172003
Te 14.777049 8.213360 -24.623928
Te 14.777049 11.495474 -21.341814
Te 18.059162 8.213360 -21.341814
Te 14.777049 8.213360 -18.059701
Te 14.777049 11.495474 -14.777587
Te 18.059162 11.495474 -18.059701
Te 18.059162 8.213360 -14.777587
Te 14.777049 8.213360 -11.495474
Te 14.777049 11.495474 -8.213360
Te 18.059162 11.495474 -11.495474
Te 18.059162 8.213360 -8.213360
Te 14.777049 8.213360 -4.931246
Te 14.777049 11.495474 -1.649133
Te 18.059162 11.495474 -4.931246
Te 18.059162 8.213360 -1.649133
Te 14.777049 8.213360 1.632981
Te 14.777049 11.495474 4.915094
Te 18.059162 11.495474 1.632981
Te 18.059162 8.213360 4.915094
Te 14.777049 8.213360 8.197208
Te 14.777049 11.495474 11.479321
Te 18.059162 11.495474 8.197208
Te 18.059162 8.213360 11.479321
Te 14.777049 8.213360 14.761435
Te 14.777049 11.495474 18.043548
Te 18.059162 11.495474 14.761435
Te 18.059162 8.213360 18.043548
Te 14.777049 8.213360 21.325662
Te 14.777049 11.495474 24.607776
Te 18.059162 11.495474 21.325662
Te 18.059162 8.213360 24.607776
Te 14.777049 8.213360 27.889889
Te 14.777049 11.495474 31.172003
Te 18.059162 11.495474 27.889889
Te 18.059162 8.213360 31.172003
Te 14.777049 14.777587 -18.059701
Te 14.777049 18.059701 -14.777587
Te 18.059162 14.777587 -14.777587
Te 14.777049 14.777587 -11.495474
Te 14.777049 18.059701 -8.213360
Te 18.059162 18.059701 -11.495474
Te 18.059162 14.777587 -8.213360
Te 14.777049 14.777587 -4.931246
Te 14.777049 18.059701 -1.649133
Te 18.059162 18.059701 -4.931246
Te 18.059162 14.777587 -1.649133
Te 14.777049 14.777587 1.632981
Te 14.777049 18.059701 4.915094
Te 18.059162 18.059701 1.632981
Te 18.059162 14.777587 4.915094
Te 14.777049 14.777587 8.197208
Te 14.777049 18.059701 11.479321
Te 18.059162 18.059701 8.197208
Te 18.059162 14.777587 11.479321
Te 14.777049 14.777587 14.761435
Te 14.777049 18.059701 18.043548
Te 18.059162 18.059701 14.761435
Te 18.059162 14.777587 18.043548
Te 14.777049 14.777587 21.325662
Te 14.777049 18.059701 24.607776
Te 18.059162 18.059701 21.325662
Te 18.059162 14.777587 24.607776
Te 14.777049 14.777587 27.889889
Te 14.777049 21.341814 -11.495474
Te 14.777049 24.623928 -8.213360
Te 18.059162 21.341814 -8.213360
Te 14.777049 21.341814 -4.931246
Te 14.777049 24.623928 -1.649133
Te 18.059162 24.623928 -4.931246
Te 18.059162 21.341814 -1.649133
Te 14.777049 21.341814 1.632981
Te 14.777049 24.623928 4.915094
Te 18.059162 24.623928 1.632981
Te 18.059162 21.341814 4.915094
Te 14.777049 21.341814 8.197208
Te 14.777049 24.623928 11.479321
Te 18.059162 24.623928 8.197208
Te 18.059162 21.341814 11.479321
Te 14.777049 21.341814 14.761435
Te 14.777049 24.623928 18.043548
Te 18.059162 24.623928 14.761435
Te 18.059162 21.341814 18.043548
Te 14.777049 21.341814 21.325662
Te 14.777049 27.906041 -4.931246
Te 14.777049 31.188155 -1.649133
Te 18.059162 27.906041 -1.649133
Te 14.777049 27.906041 1.632981
Te 14.777049 31.188155 4.915094
Te 18.059162 31.188155 1.632981
Te 18.059162 27.906041 4.915094
Te 14.777049 27.906041 8.197208
Te 14.777049 31.188155 11.479321
Te 18.059162 31.188155 8.197208
Te 18.059162 27.906041 11.479321
Te 14.777049 27.906041 14.761435
Te 21.341276 -27.889889 -8.213360
Te 21.341276 -31.172003 -4.931246
Te 21.341276 -27.889889 -1.649133
Te 24.623389 -27.889889 -4.931246
Te 21.341276 -21.325662 -14.777587
Te 21.341276 -24.607776 -11.495474
Te 21.341276 -21.325662 -8.213360
Te 24.623389 -21.325662 -11.495474
Te 24.623389 -24.607776 -8.213360
Te 21.341276 -24.607776 -4.931246
Te 21.341276 -21.325662 -1.649133
Te 24.623389 -21.325662 -4.931246
Te 24.623389 -24.607776 -1.649133
Te 21.341276 -24.607776 1.632981
Te 21.341276 -21.325662 4.915094
Te 24.623389 -21.325662 1.632981
Te 21.341276 -14.761435 -21.341814
Te 21.341276 -18.043548 -18.059701
Te 21.341276 -14.761435 -14.777587
Te 24.623389 -14.761435 -18.059701
Te 24.623389 -18.043548 -14.777587
Te 21.341276 -18.043548 -11.495474
Te 21.341276 -14.761435 -8.213360
Te 24.623389 -14.761435 -11.495474
Te 24.623389 -18.043548 -8.213360
Te 21.341276 -18.043548 -4.931246
Te 21.341276 -14.761435 -1.649133
Te 24.623389 -14.761435 -4.931246
Te 24.623389 -18.043548 -1.649133
Te 21.341276 -18.043548 1.632981
Te 21.341276 -14.761435 4.915094
Te 24.623389 -14.761435 1.632981
Te 24.623389 -18.043548 4.915094
Te 21.341276 -18.043548 8.197208
Te 21.341276 -14.761435 11.479321
Te 24.623389 -14.761435 8.197208
Te 21.341276 -8.197208 -27.906041
Te 21.341276 -11.479321 -24.623928
Te 21.341276 -8.197208 -21.341814
Te 24.623389 -8.197208 -24.623928
Te 24.623389 -11.479321 -21.341814
Te 21.341276 -11.479321 -18.059701
Te 21.341276 -8.197208 -14.777587
Te 24.623389 -8.197208 -18.059701
Te 24.623389 -11.479321 -14.777587
Te 21.341276 -11.479321 -11.495474
Te 21.341276 -8.197208 -8.213360
Te 24.623389 -8.197208 -11.495474
Te 24.623389 -11.479321 -8.213360
Te 21.341276 -11.479321 -4.931246
Te 21.341276 -8.197208 -1.649133
Te 24.623389 -8.197208 -4.931246
Te 24.623389 -11.479321 -1.649133
Te 21.341276 -11.479321 1.632981
Te 21.341276 -8.197208 4.915094
Te 24.623389 -8.197208 1.632981
Te 24.623389 -11.479321 4.915094
Te 21.341276 -11.479321 8.197208
Te 21.341276 -8.197208 11.479321
Te 24.623389 -8.197208 8.197208
Te 24.623389 -11.479321 11.479321
Te 21.341276 -11.479321 14.761435
Te 21.341276 -8.197208 18.043548
Te 24.623389 -8.197208 14.761435
Te 21.341276 -4.915094 -31.188155
Te 21.341276 -1.632981 -27.906041
Te 24.623389 -4.915094 -27.906041
Te 21.341276 -4.915094 -24.623928
Te 21.341276 -1.632981 -21.341814
Te 24.623389 -1.632981 -24.623928
Te 24.623389 -4.915094 -21.341814
Te 21.341276 -4.915094 -18.059701
Te 21.341276 -1.632981 -14.777587
Te 24.623389 -1.632981 -18.059701
Te 24.623389 -4.915094 -14.777587
Te 21.341276 -4.915094 -11.495474
Te 21.341276 -1.632981 -8.213360
Te 24.623389 -1.632981 -11.495474
Te 24.623389 -4.915094 -8.213360
Te 21.341276 -4.915094 -4.931246
Te 21.341276 -1.632981 -1.649133
Te 24.623389 -1.632981 -4.931246
Te 24.623389 -4.915094 -1.649133
Te 21.341276 -4.915094 1.632981
Te 21.341276 -1.632981 4.915094
Te 24.623389 -1.632981 1.632981
Te 24.623389 -4.915094 4.915094
Te 21.341276 -4.915094 8.197208
Te 21.341276 -1.632981 11.479321
Te 24.623389 -1.632981 8.197208
Te 24.623389 -4.915094 11.479321
Te 21.341276 -4.915094 14.761435
Te 21.341276 -1.632981 18.043548
Te 24.623389 -1.632981 14.761435
Te 24.623389 -4.915094 18.043548
Te 21.341276 -4.915094 21.325662
Te 21.341276 -1.632981 24.607776
Te 24.623389 -1.632981 21.325662
Te 21.341276 1.649133 -31.188155
Te 21.341276 1.649133 -24.623928
Te 21.341276 4.931246 -21.341814
Te 24.623389 1.649133 -21.341814
Te 21.341276 1.649133 -18.059701
Te 21.341276 4.931246 -14.777587
Te 24.623389 4.931246 -18.059701
Te 24.623389 1.649133 -14.777587
Te 21.341276 1.649133 -11.495474
Te 21.341276 4.931246 -8.213360
Te 24.623389 4.931246 -11.495474
Te 24.623389 1.649133 -8.213360
Te 21.341276 1.649133 -4.931246
Te 21.341276 4.931246 -1.649133
Te 24.623389 4.931246 -4.931246
Te 24.623389 1.649133 -1.649133
Te 21.341276 1.649133 1.632981
Te 21.341276 4.931246 4.915094
Te 24.623389 4.931246 1.632981
Te 24.623389 1.649133 4.915094
Te 21.341276 1.649133 8.197208
Te 21.341276 4.931246 11.479321
Te 24.623389 4.931246 8.197208
Te 24.623389 1.649133 11.479321
Te 21.341276 1.649133 14.761435
Te 21.341276 4.931246 18.043548
Te 24.623389 4.931246 14.761435
Te 24.623389 1.649133 18.043548
Te 21.341276 1.649133 21.325662
Te 21.341276 4.931246 24.607776
Te 24.623389 4.931246 21.325662
Te 24.623389 1.649133 24.607776
Te 21.341276 1.649133 27.889889
Te 21.341276 4.931246 31.172003
Te 24.623389 4.931246 27.889889
Te 24.623389 1.649133 31.172003
Te 21.341276 8.213360 -18.059701
Te 21.341276 11.495474 -14.777587
Te 24.623389 8.213360 -14.777587
Te 21.341276 8.213360 -11.495474
Te 21.341276 11.495474 -8.213360
Te 24.623389 11.495474 -11.495474
Te 24.623389 8.213360 -8.213360
Te 21.341276 8.213360 -4.931246
Te 21.341276 11.495474 -1.649133
Te 24.623389 11.495474 -4.931246
Te 24.623389 8.213360 -1.649133
Te 21.341276 8.213360 1.632981
Te 21.341276 11.495474 4.915094
Te 24.623389 11.495474 1.632981
Te 24.623389 8.213360 4.915094
Te 21.341276 8.213360 8.197208
Te 21.341276 11.495474 11.479321
Te 24.623389 11.495474 8.197208
Te 24.623389 8.213360 11.479321
Te 21.341276 8.213360 14.761435
Te 21.341276 11.495474 18.043548
Te 24.623389 11.495474 14.761435
Te 24.623389 8.213360 18.043548
Te 21.341276 8.213360 21.325662
Te 21.341276 11.495474 24.607776
Te 24.623389 11.495474 21.325662
Te 24.623389 8.213360 24.607776
Te 21.341276 8.213360 27.889889
Te 21.341276 14.777587 -11.495474
Te 21.341276 18.059701 -8.213360
Te 24.623389 14.777587 -8.213360
Te 21.341276 14.777587 -4.931246
Te 21.341276 18.059701 -1.649133
Te 24.623389 18.059701 -4.931246
Te 24.623389 14.777587 -1.649133
Te 21.341276 14.777587 1.632981
Te 21.341276 18.059701 4.915094
Te 24.623389 18.059701 1.632981
Te 24.623389 14.777587 4.915094
Te 21.341276 14.777587 8.197208
Te 21.341276 18.059701 11.479321
Te 24.623389 18.059701 8.197208
Te 24.623389 14.777587 11.479321
Te 21.341276 14.777587 14.761435
Te 21.341276 18.059701 18.043548
Te 24.623389 18.059701 14.761435
Te 24.623389 14.777587 18.043548
Te 21.341276 14.777587 21.325662
Te 21.341276 21.341814 -4.931246
Te 21.341276 24.623928 -1.649133
Te 24.623389 21.341814 -1.649133
Te 21.341276 21.341814 1.632981
Te 21.341276 24.623928 4.915094
Te 24.623389 24.623928 1.632981
Te 24.623389 21.341814 4.915094
Te 21.341276 21.341814 8.197208
Te 21.341276 24.623928 11.479321
Te 24.623389 24.623928 8.197208
Te 24.623389 21.341814 11.479321
Te 21.341276 21.341814 14.761435
Te 21.341276 31.188155 -1.649133
Te 21.341276 27.906041 1.632981
Te 21.341276 31.188155 4.915094
Te 24.623389 27.906041 4.915094
Te 21.341276 27.906041 8.197208
Te 27.905503 -21.325662 -8.213360
Te 27.905503 -24.607776 -4.931246
Te 27.905503 -21.325662 -1.649133
Te 31.187616 -21.325662 -4.931246
Te 31.187616 -24.607776 -1.649133
Te 27.905503 -14.761435 -14.777587
Te 27.905503 -18.043548 -11.495474
Te 27.905503 -14.761435 -8.213360
Te 31.187616 -14.761435 -11.495474
Te 31.187616 -18.043548 -8.213360
Te 27.905503 -18.043548 -4.931246
Te 27.905503 -14.761435 -1.649133
Te 31.187616 -14.761435 -4.931246
Te 31.187616 -18.043548 -1.649133
Te 27.905503 -18.043548 1.632981
Te 27.905503 -14.761435 4.915094
Te 31.187616 -14.761435 1.632981
Te 31.187616 -14.761435 8.197208
Te 27.905503 -8.197208 -21.341814
Te 27.905503 -11.479321 -18.059701
Te 27.905503 -8.197208 -14.777587
Te 31.187616 -8.197208 -18.059701
Te 31.187616 -11.479321 -14.777587
Te 27.905503 -11.479321 -11.495474
Te 27.905503 -8.197208 -8.213360
Te 31.187616 -8.197208 -11.495474
Te 31.187616 -11.479321 -8.213360
Te 27.905503 -11.479321 -4.931246
Te 27.905503 -8.197208 -1.649133
Te 31.187616 -8.197208 -4.931246
Te 31.187616 -11.479321 -1.649133
Te 27.905503 -11.479321 1.632981
Te 27.905503 -8.197208 4.915094
Te 31.187616 -8.197208 1.632981
Te 31.187616 -11.479321 4.915094
Te 27.905503 -11.479321 8.197208
Te 27.905503 -8.197208 11.479321
Te 31.187616 -8.197208 8.197208
Te 27.905503 -1.632981 -27.906041
Te 27.905503 -4.915094 -24.623928
Te 27.905503 -1.632981 -21.341814
Te 31.187616 -4.915094 -21.341814
Te 27.905503 -4.915094 -18.059701
Te 27.905503 -1.632981 -14.777587
Te 31.187616 -1.632981 -18.059701
Te 31.187616 -4.915094 -14.777587
Te 27.905503 -4.915094 -11.495474
Te 27.905503 -1.632981 -8.213360
Te 31.187616 -1.632981 -11.495474
Te 31.187616 -4.915094 -8.213360
Te 27.905503 -4.915094 -4.931246
Te 27.905503 -1.632981 -1.649133
Te 31.187616 -1.632981 -4.931246
Te 31.187616 -4.915094 -1.649133
Te 27.905503 -4.915094 1.632981
Te 27.905503 -1.632981 4.915094
Te 31.187616 -1.632981 1.632981
Te 31.187616 -4.915094 4.915094
Te 27.905503 -4.915094 8.197208
Te 27.905503 -1.632981 11.479321
Te 31.187616 -1.632981 8.197208
Te 31.187616 -4.915094 11.479321
Te 27.905503 -4.915094 14.761435
Te 27.905503 -1.632981 18.043548
Te 31.187616 -1.632981 14.761435
Te 31.187616 -4.915094 18.043548
Te 27.905503 -1.632981 24.607776
Te 31.187616 1.649133 -21.341814
Te 27.905503 1.649133 -18.059701
Te 27.905503 4.931246 -14.777587
Te 31.187616 1.649133 -14.777587
Te 27.905503 1.649133 -11.495474
Te 27.905503 4.931246 -8.213360
Te 31.187616 4.931246 -11.495474
Te 31.187616 1.649133 -8.213360
Te 27.905503 1.649133 -4.931246
Te 27.905503 4.931246 -1.649133
Te 31.187616 4.931246 -4.931246
Te 31.187616 1.649133 -1.649133
Te 27.905503 1.649133 1.632981
Te 27.905503 4.931246 4.915094
Te 31.187616 4.931246 1.632981
Te 31.187616 1.649133 4.915094
Te 27.905503 1.649133 8.197208
Te 27.905503 4.931246 11.479321
Te 31.187616 4.931246 8.197208
Te 31.187616 1.649133 11.479321
Te 27.905503 1.649133 14.761435
Te 27.905503 4.931246 18.043548
Te 31.187616 4.931246 14.761435
Te 31.187616 1.649133 18.043548
Te 27.905503 1.649133 21.325662
Te 27.905503 4.931246 24.607776
Te 31.187616 4.931246 21.325662
Te 27.905503 8.213360 -11.495474
Te 27.905503 11.495474 -8.213360
Te 31.187616 11.495474 -11.495474
Te 31.187616 8.213360 -8.213360
Te 27.905503 8.213360 -4.931246
Te 27.905503 11.495474 -1.649133
Te 31.187616 11.495474 -4.931246
Te 31.187616 8.213360 -1.649133
Te 27.905503 8.213360 1.632981
Te 27.905503 11.495474 4.915094
Te 31.187616 11.495474 1.632981
Te 31.187616 8.213360 4.915094
Te 27.905503 8.213360 8.197208
Te 27.905503 11.495474 11.479321
Te 31.187616 11.495474 8.197208
Te 31.187616 8.213360 11.479321
Te 27.905503 8.213360 14.761435
Te 27.905503 11.495474 18.043548
Te 31.187616 11.495474 14.761435
Te 31.187616 8.213360 18.043548
Te 27.905503 8.213360 21.325662
Te 27.905503 14.777587 -4.931246
Te 27.905503 18.059701 -1.649133
Te 31.187616 14.777587 -1.649133
Te 27.905503 14.777587 1.632981
Te 27.905503 18.059701 4.915094
Te 31.187616 18.059701 1.632981
Te 31.187616 14.777587 4.915094
Te 27.905503 14.777587 8.197208
Te 27.905503 18.059701 11.479321
Te 31.187616 18.059701 8.197208
Te 31.187616 14.777587 11.479321
Te 27.905503 14.777587 14.761435
Te 31.187616 21.341814 -1.649133
Te 27.905503 21.341814 1.632981
Te 27.905503 24.623928 4.915094
Te 31.187616 21.341814 4.915094
Te 27.905503 21.341814 8.197208
Te 27.905503 27.906041 1.632981
Cl -34.454655 -21.325662 1.632981
Cl -34.454655 -14.761435 -4.931246
Cl -34.454655 -18.043548 -1.649133
Cl -34.454655 -14.761435 1.632981
Cl -34.454655 -18.043548 4.915094
Cl -34.454655 -14.761435 8.197208
Cl -34.454655 -8.197208 -11.495474
Cl -34.454655 -11.479321 -8.213360
Cl -34.454655 -8.197208 -4.931246
Cl -34.454655 -11.479321 -1.649133
Cl -34.454655 -8.197208 1.632981
Cl -34.454655 -11.479321 4.915094
Cl -34.454655 -8.197208 8.197208
Cl -34.454655 -11.479321 11.479321
Cl -34.454655 -8.197208 14.761435
Cl -34.454655 -1.632981 -18.059701
Cl -34.454655 -4.915094 -14.777587
Cl -34.454655 -1.632981 -11.495474
Cl -34.454655 -4.915094 -8.213360
Cl -34.454655 -1.632981 -4.931246
Cl -34.454655 -4.915094 -1.649133
Cl -34.454655 -1.632981 1.632981
Cl -34.454655 -4.915094 4.915094
Cl -34.454655 -1.632981 8.197208
Cl -34.454655 -4.915094 11.479321
Cl -34.454655 -1.632981 14.761435
Cl -34.454655 -4.915094 18.043548
Cl -34.454655 -1.632981 21.325662
Cl -34.454655 1.649133 -21.341814
Cl -34.454655 4.931246 -18.059701
Cl -34.454655 1.649133 -14.777587
Cl -34.454655 4.931246 -11.495474
Cl -34.454655 1.649133 -8.213360
Cl -34.454655 4.931246 -4.931246
Cl -34.454655 1.649133 -1.649133
Cl -34.454655 4.931246 1.632981
Cl -34.454655 1.649133 4.915094
Cl -34.454655 4.931246 8.197208
Cl -34.454655 1.649133 11.479321
Cl -34.454655 4.931246 14.761435
Cl -34.454655 1.649133 18.043548
Cl -34.454655 8.213360 -14.777587
Cl -34.454655 11.495474 -11.495474
Cl -34.454655 8.213360 -8.213360
Cl -34.454655 11.495474 -4.931246
Cl -34.454655 8.213360 -1.649133
Cl -34.454655 11.495474 1.632981
Cl -34.454655 8.213360 4.915094
Cl -34.454655 11.495474 8.197208
Cl -34.454655 8.213360 11.479321
Cl -34.454655 14.777587 -8.213360
Cl -34.454655 18.059701 -4.931246
Cl -34.454655 14.777587 -1.649133
Cl -34.454655 18.059701 1.632981
Cl -34.454655 14.777587 4.915094
Cl -34.454655 21.341814 -1.649133
Cl -27.890428 -27.889889 1.632981
Cl -27.890428 -21.325662 -4.931246
Cl -27.890428 -24.607776 -1.649133
Cl -31.172541 -24.607776 1.632981
Cl -31.172541 -14.761435 -8.213360
Cl -27.890428 -14.761435 -11.495474
Cl -27.890428 -18.043548 -8.213360
Cl -31.172541 -18.043548 -4.931246
Cl -31.172541 -8.197208 -14.777587
Cl -27.890428 -8.197208 -18.059701
Cl -27.890428 -11.479321 -14.777587
Cl -27.890428 -1.632981 -24.623928
Cl -27.890428 -4.915094 -21.341814
Cl -31.172541 -4.915094 -18.059701
Cl -31.172541 -1.632981 24.607776
Cl -27.890428 -1.632981 27.889889
Cl -27.890428 1.649133 -27.906041
Cl -31.172541 1.649133 -24.623928
Cl -31.172541 4.931246 18.043548
Cl -27.890428 4.931246 21.325662
Cl -27.890428 1.649133 24.607776
Cl -31.172541 8.213360 14.761435
Cl -27.890428 11.495474 14.761435
Cl -27.890428 8.213360 18.043548
Cl -31.172541 18.059701 4.915094
Cl -31.172541 14.777587 8.197208
Cl -27.890428 18.059701 8.197208
Cl -27.890428 14.777587 11.479321
Cl -31.172541 24.623928 -1.649133
Cl -27.890428 24.623928 1.632981
Cl -27.890428 21.341814 4.915094
Cl -21.326200 -34.454116 1.632981
Cl -21.326200 -27.889889 -4.931246
Cl -21.326200 -31.172003 -1.649133
Cl -24.608314 -31.172003 1.632981
Cl -24.608314 -21.325662 -8.213360
Cl -21.326200 -21.325662 -11.495474
Cl -21.326200 -24.607776 -8.213360
Cl -24.608314 -24.607776 -4.931246
Cl -24.608314 -14.761435 -14.777587
Cl -21.326200 -14.761435 -18.059701
Cl -21.326200 -18.043548 -14.777587
Cl -24.608314 -18.043548 -11.495474
Cl -24.608314 -8.197208 -21.341814
Cl -21.326200 -8.197208 -24.623928
Cl -21.326200 -11.479321 -21.341814
Cl -24.608314 -11.479321 -18.059701
Cl -21.326200 -1.632981 -31.188155
Cl -21.326200 -4.915094 -27.906041
Cl -24.608314 -4.915094 -24.623928
Cl -24.608314 -1.632981 31.172003
Cl -21.326200 -1.632981 34.454116
Cl -21.326200 1.649133 -34.470268
Cl -24.608314 1.649133 -31.188155
Cl -24.608314 4.931246 24.607776
Cl -21.326200 4.931246 27.889889
Cl -21.326200 1.649133 31.172003
Cl -24.608314 11.495474 18.043548
Cl -24.608314 8.213360 21.325662
Cl -21.326200 11.495474 21.325662
Cl -21.326200 8.213360 24.607776
Cl -24.608314 18.059701 11.479321
Cl -24.608314 14.777587 14.761435
Cl -21.326200 18.059701 14.761435
Cl -21.326200 14.777587 18.043548
Cl -24.608314 24.623928 4.915094
Cl -24.608314 21.341814 8.197208
Cl -21.326200 24.623928 8.197208
Cl -21.326200 21.341814 11.479321
Cl -24.608314 31.188155 -1.649133
Cl -24.608314 27.906041 1.632981
Cl -21.326200 27.906041 4.915094
Cl -21.326200 34.470268 -1.649133
Cl -18.044087 -34.454116 -1.649133
Cl -14.761973 -34.454116 -4.931246
Cl -18.044087 -34.454116 4.915094
Cl -14.761973 -34.454116 1.632981
Cl -14.761973 -34.454116 8.197208
Cl -18.044087 -27.889889 -8.213360
Cl -14.761973 -27.889889 -11.495474
Cl -14.761973 -31.172003 -8.213360
Cl -18.044087 -21.325662 -14.777587
Cl -14.761973 -21.325662 -18.059701
Cl -14.761973 -24.607776 -14.777587
Cl -18.044087 -24.607776 -11.495474
Cl -18.044087 -14.761435 -21.341814
Cl -14.761973 -14.761435 -24.623928
Cl -14.761973 -18.043548 -21.341814
Cl -18.044087 -18.043548 -18.059701
Cl -18.044087 -8.197208 -27.906041
Cl -14.761973 -8.197208 -31.188155
Cl -14.761973 -11.479321 -27.906041
Cl -18.044087 -11.479321 -24.623928
Cl -14.761973 -8.197208 34.454116
Cl -18.044087 -1.632981 -34.470268
Cl -14.761973 -4.915094 -34.470268
Cl -18.044087 -4.915094 34.454116
Cl -14.761973 -1.632981 34.454116
Cl -18.044087 4.931246 -34.470268
Cl -14.761973 1.649133 -34.470268
Cl -18.044087 1.649133 34.454116
Cl -14.761973 4.931246 34.454116
Cl -14.761973 8.213360 -34.470268
Cl -18.044087 11.495474 24.607776
Cl -18.044087 8.213360 27.889889
Cl -14.761973 11.495474 27.889889
Cl -14.761973 8.213360 31.172003
Cl -18.044087 18.059701 18.043548
Cl -18.044087 14.777587 21.325662
Cl -14.761973 18.059701 21.325662
Cl -14.761973 14.777587 24.607776
Cl -18.044087 24.623928 11.479321
Cl -18.044087 21.341814 14.761435
Cl -14.761973 24.623928 14.761435
Cl -14.761973 21.341814 18.043548
Cl -18.044087 31.188155 4.915094
Cl -18.044087 27.906041 8.197208
Cl -14.761973 31.188155 8.197208
Cl -14.761973 27.906041 11.479321
Cl -14.761973 34.470268 -8.213360
Cl -18.044087 34.470268 -4.931246
Cl -14.761973 34.470268 -1.649133
Cl -18.044087 34.470268 1.632981
Cl -14.761973 34.470268 4.915094
Cl -11.479860 -34.454116 -8.213360
Cl -8.197746 -34.454116 -11.495474
Cl -11.479860 -34.454116 -1.649133
Cl -8.197746 -34.454116 -4.931246
Cl -11.479860 -34.454116 4.915094
Cl -8.197746 -34.454116 1.632981
Cl -11.479860 -34.454116 11.479321
Cl -8.197746 -34.454116 8.197208
Cl -8.197746 -34.454116 14.761435
Cl -11.479860 -27.889889 -14.777587
Cl -8.197746 -27.889889 -18.059701
Cl -11.479860 -31.172003 -11.495474
Cl -11.479860 -21.325662 -21.341814
Cl -8.197746 -21.325662 -24.623928
Cl -8.197746 -24.607776 -21.341814
Cl -11.479860 -24.607776 -18.059701
Cl -11.479860 -14.761435 -27.906041
Cl -8.197746 -18.043548 -27.906041
Cl -11.479860 -18.043548 -24.623928
Cl -8.197746 -14.761435 34.454116
Cl -11.479860 -8.197208 -34.470268
Cl -8.197746 -11.479321 -34.470268
Cl -11.479860 -11.479321 -31.188155
Cl -11.479860 -11.479321 34.454116
Cl -8.197746 -8.197208 34.454116
Cl -11.479860 -1.632981 -34.470268
Cl -8.197746 -4.915094 -34.470268
Cl -11.479860 -4.915094 34.454116
Cl -8.197746 -1.632981 34.454116
Cl -11.479860 4.931246 -34.470268
Cl -8.197746 1.649133 -34.470268
Cl -11.479860 1.649133 34.454116
Cl -8.197746 4.931246 34.454116
Cl -11.479860 11.495474 -34.470268
Cl -8.197746 8.213360 -34.470268
Cl -11.479860 11.495474 31.172003
Cl -11.479860 8.213360 34.454116
Cl -8.197746 11.495474 34.454116
Cl -8.197746 14.777587 -34.470268
Cl -11.479860 18.059701 24.607776
Cl -11.479860 14.777587 27.889889
Cl -8.197746 18.059701 27.889889
Cl -11.479860 24.623928 18.043548
Cl -11.479860 21.341814 21.325662
Cl -8.197746 24.623928 21.325662
Cl -8.197746 21.341814 24.607776
Cl -11.479860 31.188155 11.479321
Cl -11.479860 27.906041 14.761435
Cl -8.197746 27.906041 18.043548
Cl -8.197746 34.470268 -14.777587
Cl -11.479860 34.470268 -11.495474
Cl -8.197746 34.470268 -8.213360
Cl -11.479860 34.470268 -4.931246
Cl -8.197746 34.470268 -1.649133
Cl -11.479860 34.470268 1.632981
Cl -8.197746 34.470268 4.915094
Cl -11.479860 34.470268 8.197208
Cl -8.197746 34.470268 11.479321
Cl -4.915633 -34.454116 -14.777587
Cl -1.633519 -34.454116 -18.059701
Cl -4.915633 -34.454116 -8.213360
Cl -1.633519 -34.454116 -11.495474
Cl -4.915633 -34.454116 -1.649133
Cl -1.633519 -34.454116 -4.931246
Cl -4.915633 -34.454116 4.915094
Cl -1.633519 -34.454116 1.632981
Cl -4.915633 -34.454116 11.479321
Cl -1.633519 -34.454116 8.197208
Cl -4.915633 -34.454116 18.043548
Cl -1.633519 -34.454116 14.761435
Cl -1.633519 -34.454116 21.325662
Cl -4.915633 -27.889889 -21.341814
Cl -1.633519 -27.889889 -24.623928
Cl -1.633519 -31.172003 -21.341814
Cl -4.915633 -31.172003 -18.059701
Cl -1.633519 -31.172003 24.607776
Cl -1.633519 -27.889889 27.889889
Cl -4.915633 -21.325662 -27.906041
Cl -1.633519 -21.325662 -31.188155
Cl -1.633519 -24.607776 -27.906041
Cl -4.915633 -24.607776 -24.623928
Cl -1.633519 -24.607776 31.172003
Cl -1.633519 -21.325662 34.454116
Cl -4.915633 -14.761435 -34.470268
Cl -1.633519 -18.043548 -34.470268
Cl -4.915633 -18.043548 -31.188155
Cl -4.915633 -18.043548 34.454116
Cl -1.633519 -14.761435 34.454116
Cl -4.915633 -8.197208 -34.470268
Cl -1.633519 -11.479321 -34.470268
Cl -4.915633 -11.479321 34.454116
Cl -1.633519 -8.197208 34.454116
Cl -4.915633 -1.632981 -34.470268
Cl -1.633519 -4.915094 -34.470268
Cl -4.915633 -4.915094 34.454116
Cl -1.633519 -1.632981 34.454116
Cl -4.915633 4.931246 -34.470268
Cl -1.633519 1.649133 -34.470268
Cl -4.915633 1.649133 34.454116
Cl -1.633519 4.931246 34.454116
Cl -4.915633 11.495474 -34.470268
Cl -1.633519 8.213360 -34.470268
Cl -4.915633 8.213360 34.454116
Cl -1.633519 11.495474 34.454116
Cl -4.915633 18.059701 -34.470268
Cl -1.633519 14.777587 -34.470268
Cl -4.915633 18.059701 31.172003
Cl -4.915633 14.777587 34.454116
Cl -1.633519 18.059701 34.454116
Cl -1.633519 21.341814 -34.470268
Cl -4.915633 24.623928 24.607776
Cl -4.915633 21.341814 27.889889
Cl -1.633519 24.623928 27.889889
Cl -1.633519 21.341814 31.172003
Cl -1.633519 27.906041 -27.906041
Cl -4.915633 31.188155 18.043548
Cl -4.915633 27.906041 21.325662
Cl -1.633519 31.188155 21.325662
Cl -1.633519 27.906041 24.607776
Cl -1.633519 34.470268 -21.341814
Cl -4.915633 34.470268 -18.059701
Cl -1.633519 34.470268 -14.777587
Cl -4.915633 34.470268 -11.495474
Cl -1.633519 34.470268 -8.213360
Cl -4.915633 34.470268 -4.931246
Cl -1.633519 34.470268 -1.649133
Cl -4.915633 34.470268 1.632981
Cl -1.633519 34.470268 4.915094
Cl -4.915633 34.470268 8.197208
Cl -1.633519 34.470268 11.479321
Cl -4.915633 34.470268 14.761435
Cl -1.633519 34.470268 18.043548
Cl 1.648594 -34.454116 -21.341814
Cl 1.648594 -34.454116 -14.777587
Cl 4.930708 -34.454116 -18.059701
Cl 1.648594 -34.454116 -8.213360
Cl 4.930708 -34.454116 -11.495474
Cl 1.648594 -34.454116 -1.649133
Cl 4.930708 -34.454116 -4.931246
Cl 1.648594 -34.454116 4.915094
Cl 4.930708 -34.454116 1.632981
Cl 1.648594 -34.454116 11.479321
Cl 4.930708 -34.454116 8.197208
Cl 1.648594 -34.454116 18.043548
Cl 4.930708 -34.454116 14.761435
Cl 1.648594 -27.889889 -27.906041
Cl 1.648594 -31.172003 -24.623928
Cl 1.648594 -31.172003 21.325662
Cl 4.930708 -27.889889 21.325662
Cl 1.648594 -21.325662 -34.470268
Cl 1.648594 -24.607776 -31.188155
Cl 4.930708 -24.607776 24.607776
Cl 1.648594 -24.607776 27.889889
Cl 4.930708 -21.325662 27.889889
Cl 1.648594 -14.761435 -34.470268
Cl 4.930708 -18.043548 -34.470268
Cl 4.930708 -18.043548 31.172003
Cl 1.648594 -18.043548 34.454116
Cl 4.930708 -14.761435 34.454116
Cl 1.648594 -8.197208 -34.470268
Cl 4.930708 -11.479321 -34.470268
Cl 1.648594 -11.479321 34.454116
Cl 4.930708 -8.197208 34.454116
Cl 1.648594 -1.632981 -34.470268
Cl 4.930708 -4.915094 -34.470268
Cl 1.648594 -4.915094 34.454116
Cl 4.930708 -1.632981 34.454116
Cl 1.648594 4.931246 -34.470268
Cl 4.930708 1.649133 -34.470268
Cl 1.648594 1.649133 34.454116
Cl 4.930708 4.931246 34.454116
Cl 1.648594 11.495474 -34.470268
Cl 4.930708 8.213360 -34.470268
Cl 1.648594 8.213360 34.454116
Cl 4.930708 11.495474 34.454116
Cl 1.648594 18.059701 -34.470268
Cl 4.930708 14.777587 -34.470268
Cl 4.930708 18.059701 -31.188155
Cl 1.648594 14.777587 34.454116
Cl 4.930708 18.059701 34.454116
Cl 1.648594 21.341814 -31.188155
Cl 1.648594 24.623928 -27.906041
Cl 4.930708 21.341814 -27.906041
Cl 4.930708 24.623928 -24.623928
Cl 1.648594 21.341814 34.454116
Cl 1.648594 27.906041 -24.623928
Cl 1.648594 31.188155 -21.341814
Cl 4.930708 27.906041 -21.341814
Cl 4.930708 31.188155 -18.059701
Cl 1.648594 31.188155 24.607776
Cl 1.648594 27.906041 27.889889
Cl 1.648594 34.470268 -18.059701
Cl 4.930708 34.470268 -14.777587
Cl 1.648594 34.470268 -11.495474
Cl 4.930708 34.470268 -8.213360
Cl 1.648594 34.470268 -4.931246
Cl 4.930708 34.470268 -1.649133
Cl 1.648594 34.470268 1.632981
Cl 4.930708 34.470268 4.915094
Cl 1.648594 34.470268 8.197208
Cl 4.930708 34.470268 11.479321
Cl 1.648594 34.470268 14.761435
Cl 4.930708 34.470268 18.043548
Cl 1.648594 34.470268 21.325662
Cl 8.212822 -34.454116 -14.777587
Cl 8.212822 -34.454116 -8.213360
Cl 11.494935 -34.454116 -11.495474
Cl 8.212822 -34.454116 -1.649133
Cl 11.494935 -34.454116 -4.931246
Cl 8.212822 -34.454116 4.915094
Cl 11.494935 -34.454116 1.632981
Cl 8.212822 -34.454116 11.479321
Cl 11.494935 -34.454116 8.197208
Cl 11.494935 -31.172003 11.479321
Cl 8.212822 -31.172003 14.761435
Cl 8.212822 -27.889889 18.043548
Cl 11.494935 -27.889889 14.761435
Cl 11.494935 -24.607776 18.043548
Cl 8.212822 -24.607776 21.325662
Cl 8.212822 -21.325662 24.607776
Cl 11.494935 -21.325662 21.325662
Cl 8.212822 -14.761435 -34.470268
Cl 11.494935 -18.043548 24.607776
Cl 8.212822 -18.043548 27.889889
Cl 8.212822 -14.761435 31.172003
Cl 11.494935 -14.761435 27.889889
Cl 8.212822 -8.197208 -34.470268
Cl 11.494935 -11.479321 -34.470268
Cl 8.212822 -11.479321 34.454116
Cl 11.494935 -8.197208 34.454116
Cl 8.212822 -1.632981 -34.470268
Cl 11.494935 -4.915094 -34.470268
Cl 8.212822 -4.915094 34.454116
Cl 11.494935 -1.632981 34.454116
Cl 8.212822 4.931246 -34.470268
Cl 11.494935 1.649133 -34.470268
Cl 8.212822 1.649133 34.454116
Cl 11.494935 4.931246 34.454116
Cl 8.212822 11.495474 -34.470268
Cl 11.494935 8.213360 -34.470268
Cl 11.494935 11.495474 -31.188155
Cl 8.212822 8.213360 34.454116
Cl 11.494935 11.495474 34.454116
Cl 8.212822 18.059701 -27.906041
Cl 11.494935 14.777587 -27.906041
Cl 11.494935 18.059701 -24.623928
Cl 8.212822 14.777587 34.454116
Cl 8.212822 21.341814 -24.623928
Cl 8.212822 24.623928 -21.341814
Cl 11.494935 21.341814 -21.341814
Cl 11.494935 24.623928 -18.059701
Cl 8.212822 27.906041 -18.059701
Cl 11.494935 27.906041 -14.777587
Cl 11.494935 31.188155 -11.495474
Cl 8.212822 34.470268 -11.495474
Cl 11.494935 34.470268 -8.213360
Cl 8.212822 34.470268 -4.931246
Cl 11.494935 34.470268 -1.649133
Cl 8.212822 34.470268 1.632981
Cl 11.494935 34.470268 4.915094
Cl 8.212822 34.470268 8.197208
Cl 11.494935 34.470268 11.479321
Cl 8.212822 34.470268 14.761435
Cl 14.777049 -34.454116 -8.213360
Cl 14.777049 -34.454116 -1.649133
Cl 18.059162 -34.454116 -4.931246
Cl 14.777049 -34.454116 4.915094
Cl 18.059162 -34.454116 1.632981
Cl 18.059162 -31.172003 4.915094
Cl 14.777049 -27.889889 11.479321
Cl 18.059162 -27.889889 8.197208
Cl 18.059162 -24.607776 11.479321
Cl 14.777049 -24.607776 14.761435
Cl 14.777049 -21.325662 18.043548
Cl 18.059162 -21.325662 14.761435
Cl 18.059162 -18.043548 18.043548
Cl 14.777049 -18.043548 21.325662
Cl 14.777049 -14.761435 24.607776
Cl 18.059162 -14.761435 21.325662
Cl 14.777049 -8.197208 -34.470268
Cl 18.059162 -11.479321 24.607776
Cl 14.777049 -11.479321 27.889889
Cl 14.777049 -8.197208 31.172003
Cl 18.059162 -8.197208 27.889889
Cl 14.777049 -1.632981 -34.470268
Cl 18.059162 -4.915094 -34.470268
Cl 18.059162 -4.915094 31.172003
Cl 14.777049 -4.915094 34.454116
Cl 18.059162 -1.632981 34.454116
Cl 14.777049 4.931246 -34.470268
Cl 18.059162 1.649133 -34.470268
Cl 18.059162 4.931246 -31.188155
Cl 14.777049 1.649133 34.454116
Cl 18.059162 4.931246 34.454116
Cl 14.777049 8.213360 -31.188155
Cl 14.777049 11.495474 -27.906041
Cl 18.059162 8.213360 -27.906041
Cl 18.059162 11.495474 -24.623928
Cl 14.777049 8.213360 34.454116
Cl 14.777049 14.777587 -24.623928
Cl 14.777049 18.059701 -21.341814
Cl 18.059162 14.777587 -21.341814
Cl 18.059162 18.059701 -18.059701
Cl 14.777049 21.341814 -18.059701
Cl 14.777049 24.623928 -14.777587
Cl 18.059162 21.341814 -14.777587
Cl 18.059162 24.623928 -11.495474
Cl 14.777049 27.906041 -11.495474
Cl 14.777049 31.188155 -8.213360
Cl 18.059162 27.906041 -8.213360
Cl 18.059162 31.188155 -4.931246
Cl 14.777049 34.470268 -4.931246
Cl 18.059162 34.470268 -1.649133
Cl 14.777049 34.470268 1.632981
Cl 18.059162 34.470268 4.915094
Cl 14.777049 34.470268 8.197208
Cl 21.341276 -34.454116 -1.649133
Cl 24.623389 -31.172003 -1.649133
Cl 21.341276 -31.172003 1.632981
Cl 21.341276 -27.889889 4.915094
Cl 24.623389 -27.889889 1.632981
Cl 24.623389 -24.607776 4.915094
Cl 21.341276 -24.607776 8.197208
Cl 21.341276 -21.325662 11.479321
Cl 24.623389 -21.325662 8.197208
Cl 24.623389 -18.043548 11.479321
Cl 21.341276 -18.043548 14.761435
Cl 21.341276 -14.761435 18.043548
Cl 24.623389 -14.761435 14.761435
Cl 24.623389 -11.479321 18.043548
Cl 21.341276 -11.479321 21.325662
Cl 21.341276 -8.197208 24.607776
Cl 24.623389 -8.197208 21.325662
Cl 21.341276 -1.632981 -34.470268
Cl 24.623389 -1.632981 -31.188155
Cl 24.623389 -4.915094 24.607776
Cl 21.341276 -4.915094 27.889889
Cl 21.341276 -1.632981 31.172003
Cl 24.623389 -1.632981 27.889889
Cl 21.341276 4.931246 -27.906041
Cl 24.623389 1.649133 -27.906041
Cl 24.623389 4.931246 -24.623928
Cl 21.341276 1.649133 34.454116
Cl 21.341276 8.213360 -24.623928
Cl 21.341276 11.495474 -21.341814
Cl 24.623389 8.213360 -21.341814
Cl 24.623389 11.495474 -18.059701
Cl 21.341276 14.777587 -18.059701
Cl 21.341276 18.059701 -14.777587
Cl 24.623389 14.777587 -14.777587
Cl 24.623389 18.059701 -11.495474
Cl 21.341276 21.341814 -11.495474
Cl 21.341276 24.623928 -8.213360
Cl 24.623389 21.341814 -8.213360
Cl 24.623389 24.623928 -4.931246
Cl 21.341276 27.906041 -4.931246
Cl 24.623389 27.906041 -1.649133
Cl 24.623389 31.188155 1.632981
Cl 21.341276 34.470268 1.632981
Cl 27.905503 -27.889889 -1.649133
Cl 27.905503 -24.607776 1.632981
Cl 27.905503 -21.325662 4.915094
Cl 31.187616 -21.325662 1.632981
Cl 31.187616 -18.043548 4.915094
Cl 27.905503 -18.043548 8.197208
Cl 27.905503 -14.761435 11.479321
Cl 31.187616 -11.479321 11.479321
Cl 27.905503 -11.479321 14.761435
Cl 27.905503 -8.197208 18.043548
Cl 31.187616 -8.197208 14.761435
Cl 31.187616 -1.632981 -24.623928
Cl 27.905503 -4.915094 21.325662
Cl 31.187616 -1.632981 21.325662
Cl 27.905503 1.649133 -24.623928
Cl 27.905503 4.931246 -21.341814
Cl 31.187616 4.931246 -18.059701
Cl 31.187616 1.649133 24.607776
Cl 27.905503 1.649133 27.889889
Cl 27.905503 8.213360 -18.059701
Cl 27.905503 11.495474 -14.777587
Cl 31.187616 8.213360 -14.777587
Cl 27.905503 14.777587 -11.495474
Cl 27.905503 18.059701 -8.213360
Cl 31.187616 14.777587 -8.213360
Cl 31.187616 18.059701 -4.931246
Cl 27.905503 21.341814 -4.931246
Cl 27.905503 24.623928 -1.649133
Cl 31.187616 24.623928 1.632981
Cl 34.469730 -21.325662 -1.649133
Cl 34.469730 -14.761435 -8.213360
Cl 34.469730 -18.043548 -4.931246
Cl 34.469730 -14.761435 -1.649133
Cl 34.469730 -18.043548 1.632981
Cl 34.469730 -14.761435 4.915094
Cl 34.469730 -8.197208 -14.777587
Cl 34.469730 -11.479321 -11.495474
Cl 34.469730 -8.197208 -8.213360
Cl 34.469730 -11.479321 -4.931246
Cl 34.469730 -8.197208 -1.649133
Cl 34.469730 -11.479321 1.632981
Cl 34.469730 -8.197208 4.915094
Cl 34.469730 -11.479321 8.197208
Cl 34.469730 -8.197208 11.479321
Cl 34.469730 -1.632981 -21.341814
Cl 34.469730 -4.915094 -18.059701
Cl 34.469730 -1.632981 -14.777587
Cl 34.469730 -4.915094 -11.495474
Cl 34.469730 -1.632981 -8.213360
Cl 34.469730 -4.915094 -4.931246
Cl 34.469730 -1.632981 -1.649133
Cl 34.469730 -4.915094 1.632981
Cl 34.469730 -1.632981 4.915094
Cl 34.469730 -4.915094 8.197208
Cl 34.469730 -1.632981 11.479321
Cl 34.469730 -4.915094 14.761435
Cl 34.469730 -1.632981 18.043548
Cl 34.469730 1.649133 -18.059701
Cl 34.469730 4.931246 -14.777587
Cl 34.469730 1.649133 -11.495474
Cl 34.469730 4.931246 -8.213360
Cl 34.469730 1.649133 -4.931246
Cl 34.469730 4.931246 -1.649133
Cl 34.469730 1.649133 1.632981
Cl 34.469730 4.931246 4.915094
Cl 34.469730 1.649133 8.197208
Cl 34.469730 4.931246 11.479321
Cl 34.469730 1.649133 14.761435
Cl 34.469730 4.931246 18.043548
Cl 34.469730 1.649133 21.325662
Cl 34.469730 8.213360 -11.495474
Cl 34.469730 11.495474 -8.213360
Cl 34.469730 8.213360 -4.931246
Cl 34.469730 11.495474 -1.649133
Cl 34.469730 8.213360 1.632981
Cl 34.469730 11.495474 4.915094
Cl 34.469730 8.213360 8.197208
Cl 34.469730 11.495474 11.479321
Cl 34.469730 8.213360 14.761435
Cl 34.469730 14.777587 -4.931246
Cl 34.469730 18.059701 -1.649133
Cl 34.469730 14.777587 1.632981
Cl 34.469730 18.059701 4.915094
Cl 34.469730 14.777587 8.197208
Cl 34.469730 21.341814 1.632981
