316
AlP-Al-Al119P80Cl117-clean
Al -8.235293 -8.226638 -5.482983
Al -8.235293 -5.491638 -8.217983
Al -8.235293 -2.756638 -5.482983
Al -8.235293 -5.491638 -2.747983
Al -8.235293 -2.756638 -0.012983
Al -8.235293 -0.021638 -2.747983
Al -8.235293 2.713362 -0.012983
Al -8.235293 -0.021638 2.722017
Al -8.235293 2.713362 5.457017
Al -8.235293 5.448362 2.722017
Al -8.235293 8.183362 5.457017
Al -8.235293 5.448362 8.192017
Al -5.500293 -8.226638 -8.217983
Al -2.765293 -8.226638 -5.482983
Al -5.500293 -8.226638 -2.747983
Al -2.765293 -8.226638 -0.012983
Al -2.765293 -5.491638 -8.217983
Al -5.500293 -2.756638 -8.217983
Al -5.500293 -5.491638 -5.482983
Al -2.765293 -2.756638 -5.482983
Al -2.765293 -5.491638 -2.747983
Al -5.500293 -2.756638 -2.747983
Al -5.500293 -5.491638 -0.012983
Al -2.765293 -2.756638 -0.012983
Al -2.765293 -5.491638 2.722017
Al -5.500293 -2.756638 2.722017
Al -2.765293 -2.756638 5.457017
Al -2.765293 -0.021638 -8.217983
Al -5.500293 -0.021638 -5.482983
Al -2.765293 2.713362 -5.482983
Al -2.765293 -0.021638 -2.747983
Al -5.500293 2.713362 -2.747983
Al -5.500293 -0.021638 -0.012983
Al -2.765293 2.713362 -0.012983
Al -2.765293 -0.021638 2.722017
Al -5.500293 2.713362 2.722017
Al -5.500293 -0.021638 5.457017
Al -2.765293 2.713362 5.457017
Al -2.765293 -0.021638 8.192017
Al -5.500293 2.713362 8.192017
Al -2.765293 5.448362 -2.747983
Al -5.500293 5.448362 -0.012983
Al -2.765293 8.183362 -0.012983
Al -2.765293 5.448362 2.722017
Al -5.500293 8.183362 2.722017
Al -5.500293 5.448362 5.457017
Al -2.765293 8.183362 5.457017
Al -2.765293 5.448362 8.192017
Al -5.500293 8.183362 8.192017
Al -0.030293 -8.226638 -2.747983
Al 2.704707 -8.226638 -0.012983
Al -0.030293 -8.226638 2.722017
Al 2.704707 -8.226638 5.457017
Al -0.030293 -2.756638 -8.217983
Al -0.030293 -5.491638 -5.482983
Al 2.704707 -2.756638 -5.482983
Al 2.704707 -5.491638 -2.747983
Al -0.030293 -2.756638 -2.747983
Al -0.030293 -5.491638 -0.012983
Al 2.704707 -2.756638 -0.012983
Al 2.704707 -5.491638 2.722017
Al -0.030293 -2.756638 2.722017
Al -0.030293 -5.491638 5.457017
Al 2.704707 -2.756638 5.457017
Al 2.704707 -5.491638 8.192017
Al -0.030293 -2.756638 8.192017
Al 2.704707 -0.021638 -8.217983
Al -0.030293 2.713362 -8.217983
Al -0.030293 -0.021638 -5.482983
Al 2.704707 2.713362 -5.482983
Al 2.704707 -0.021638 -2.747983
Al -0.030293 2.713362 -2.747983
Al -0.030293 -0.021638 -0.012983
Al 2.704707 2.713362 -0.012983
Al 2.704707 -0.021638 2.722017
Al -0.030293 2.713362 2.722017
Al -0.030293 -0.021638 5.457017
Al 2.704707 2.713362 5.457017
Al 2.704707 -0.021638 8.192017
Al -0.030293 2.713362 8.192017
Al 2.704707 5.448362 -8.217983
Al -0.030293 5.448362 -5.482983
Al 2.704707 8.183362 -5.482983
Al 2.704707 5.448362 -2.747983
Al -0.030293 8.183362 -2.747983
Al -0.030293 5.448362 -0.012983
Al 2.704707 8.183362 -0.012983
Al 2.704707 5.448362 2.722017
Al -0.030293 8.183362 2.722017
Al -0.030293 5.448362 5.457017
Al 5.439707 -8.226638 2.722017
Al 8.174707 -8.226638 5.457017
Al 5.439707 -8.226638 8.192017
Al 5.439707 -2.756638 -2.747983
Al 5.439707 -5.491638 -0.012983
Al 8.174707 -2.756638 -0.012983
Al 8.174707 -5.491638 2.722017
Al 5.439707 -2.756638 2.722017
Al 5.439707 -5.491638 5.457017
Al 8.174707 -2.756638 5.457017
Al 8.174707 -5.491638 8.192017
Al 5.439707 -2.756638 8.192017
Al 5.439707 2.713362 -8.217983
Al 5.439707 -0.021638 -5.482983
Al 8.174707 2.713362 -5.482983
Al 8.174707 -0.021638 -2.747983
Al 5.439707 2.713362 -2.747983
Al 5.439707 -0.021638 -0.012983
Al 8.174707 2.713362 -0.012983
Al 8.174707 -0.021638 2.722017
Al 5.439707 2.713362 2.722017
Al 5.439707 -0.021638 5.457017
Al 8.174707 5.448362 -8.217983
Al 5.439707 8.183362 -8.217983
Al 5.439707 5.448362 -5.482983
Al 8.174707 8.183362 -5.482983
Al 8.174707 5.448362 -2.747983
Al 5.439707 8.183362 -2.747983
Al 5.439707 5.448362 -0.012983
P -6.867793 -6.859138 -4.115483
P -6.867793 -4.124138 -6.850483
P -6.867793 -1.389138 -4.115483
P -6.867793 -4.124138 -1.380483
P -6.867793 -1.389138 1.354517
P -6.867793 1.345862 -1.380483
P -6.867793 4.080862 1.354517
P -6.867793 1.345862 4.089517
P -6.867793 4.080862 6.824517
P -6.867793 6.815862 4.089517
P -4.132793 -6.859138 -6.850483
P -4.132793 -6.859138 -1.380483
P -1.397793 -6.859138 -4.115483
P -1.397793 -6.859138 1.354517
P -4.132793 -1.389138 -6.850483
P -1.397793 -4.124138 -6.850483
P -4.132793 -4.124138 -4.115483
P -4.132793 -1.389138 -1.380483
P -1.397793 -1.389138 -4.115483
P -1.397793 -4.124138 -1.380483
P -4.132793 -4.124138 1.354517
P -4.132793 -1.389138 4.089517
P -1.397793 -1.389138 1.354517
P -1.397793 -4.124138 4.089517
P -1.397793 -1.389138 6.824517
P -1.397793 1.345862 -6.850483
P -4.132793 1.345862 -4.115483
P -4.132793 4.080862 -1.380483
P -1.397793 4.080862 -4.115483
P -1.397793 1.345862 -1.380483
P -4.132793 1.345862 1.354517
P -4.132793 4.080862 4.089517
P -1.397793 4.080862 1.354517
P -1.397793 1.345862 4.089517
P -4.132793 1.345862 6.824517
P -1.397793 4.080862 6.824517
P -1.397793 6.815862 -1.380483
P -4.132793 6.815862 1.354517
P -1.397793 6.815862 4.089517
P -4.132793 6.815862 6.824517
P 1.337207 -6.859138 -1.380483
P 1.337207 -6.859138 4.089517
P 4.072207 -6.859138 1.354517
P 4.072207 -6.859138 6.824517
P 1.337207 -1.389138 -6.850483
P 1.337207 -4.124138 -4.115483
P 1.337207 -1.389138 -1.380483
P 4.072207 -1.389138 -4.115483
P 4.072207 -4.124138 -1.380483
P 1.337207 -4.124138 1.354517
P 1.337207 -1.389138 4.089517
P 4.072207 -1.389138 1.354517
P 4.072207 -4.124138 4.089517
P 1.337207 -4.124138 6.824517
P 4.072207 -1.389138 6.824517
P 1.337207 4.080862 -6.850483
P 4.072207 1.345862 -6.850483
P 1.337207 1.345862 -4.115483
P 1.337207 4.080862 -1.380483
P 4.072207 4.080862 -4.115483
P 4.072207 1.345862 -1.380483
P 1.337207 1.345862 1.354517
P 1.337207 4.080862 4.089517
P 4.072207 4.080862 1.354517
P 4.072207 1.345862 4.089517
P 1.337207 1.345862 6.824517
P 4.072207 6.815862 -6.850483
P 1.337207 6.815862 -4.115483
P 4.072207 6.815862 -1.380483
P 1.337207 6.815862 1.354517
P 6.807207 -6.859138 4.089517
P 6.807207 -1.389138 -1.380483
P 6.807207 -4.124138 1.354517
P 6.807207 -1.389138 4.089517
P 6.807207 -4.124138 6.824517
P 6.807207 4.080862 -6.850483
P 6.807207 1.345862 -4.115483
P 6.807207 4.080862 -1.380483
P 6.807207 1.345862 1.354517
P 6.807207 6.815862 -4.115483
Cl -9.602793 -6.859138 -6.850483
Cl -6.867793 -6.859138 -9.585483
Cl -6.867793 -9.594138 -6.850483
Cl -9.602793 -4.124138 -4.115483
Cl -9.602793 -1.389138 -1.380483
Cl -9.602793 1.345862 1.354517
Cl -9.602793 4.080862 4.089517
Cl -9.602793 6.815862 6.824517
Cl -6.867793 9.550862 6.824517
Cl -6.867793 6.815862 9.559517
Cl -4.132793 -9.594138 -4.115483
Cl -1.397793 -9.594138 -1.380483
Cl -4.132793 -4.124138 -9.585483
Cl -1.397793 -1.389138 -9.585483
Cl -4.132793 4.080862 9.559517
Cl -1.397793 1.345862 9.559517
Cl -4.132793 9.550862 4.089517
Cl -1.397793 9.550862 1.354517
Cl 1.337207 -9.594138 1.354517
Cl 4.072207 -9.594138 4.089517
Cl 1.337207 -1.389138 9.559517
Cl 4.072207 -4.124138 9.559517
Cl 1.337207 1.345862 -9.585483
Cl 4.072207 4.080862 -9.585483
Cl 1.337207 9.550862 -1.380483
Cl 4.072207 9.550862 -4.115483
Cl 6.807207 -9.594138 6.824517
Cl 6.807207 -6.859138 9.559517
Cl 9.542207 -6.859138 6.824517
Cl 9.542207 -1.389138 1.354517
Cl 9.542207 -4.124138 4.089517
Cl 9.542207 4.080862 -4.115483
Cl 9.542207 1.345862 -1.380483
Cl 6.807207 6.815862 -9.585483
Cl 6.807207 9.550862 -6.850483
Cl 9.542207 6.815862 -6.850483
Cl -6.867793 -6.859138 1.354517
Cl -6.867793 1.345862 -6.850483
Cl 1.337207 -6.859138 -6.850483
Cl 4.072207 4.080862 6.824517
Cl -9.602793 9.550862 4.089517
Cl -9.602793 4.080862 9.559517
Cl 9.542207 -9.594138 4.089517
Cl 9.542207 9.550862 -4.115483
Cl 4.072207 -9.594138 9.559517
Cl 9.542207 4.080862 -9.585483
Cl 4.072207 9.550862 -9.585483
Cl -4.132793 9.550862 9.559517
Cl 9.542207 -4.124138 9.559517
Cl -4.132793 -1.389138 9.559517
Cl -4.132793 9.550862 -1.380483
Cl 9.542207 -4.124138 -1.380483
Cl 4.072207 9.550862 1.354517
Cl -9.602793 -9.594138 -4.115483
Cl -9.602793 -4.124138 -9.585483
Cl -4.132793 -9.594138 -9.585483
Cl 9.542207 4.080862 1.354517
Cl -1.397793 -9.594138 4.089517
Cl 4.072207 -1.389138 -9.585483
Cl -1.397793 4.080862 -9.585483
Cl -9.602793 4.080862 -1.380483
Cl -9.602793 -1.389138 4.089517
Cl 4.072207 -9.594138 -1.380483
Cl 4.072207 1.345862 9.559517
Cl -1.397793 9.550862 6.824517
Cl 1.337207 -6.859138 9.559517
Cl 1.337207 9.550862 -6.850483
Cl 9.542207 1.345862 -6.850483
Cl 9.542207 -1.389138 6.824517
Cl -4.132793 -4.124138 6.824517
Cl -4.132793 6.815862 -4.115483
Cl 6.807207 -4.124138 -4.115483
Cl -9.602793 -1.389138 -6.850483
Cl -9.602793 -6.859138 -1.380483
Cl -1.397793 -9.594138 -6.850483
Cl 6.807207 9.550862 -1.380483
Cl -1.397793 6.815862 9.559517
Cl -9.602793 1.345862 6.824517
Cl -9.602793 6.815862 1.354517
Cl 6.807207 -9.594138 1.354517
Cl 9.542207 1.345862 4.089517
Cl -4.132793 -9.594138 1.354517
Cl -4.132793 1.345862 -9.585483
Cl 1.337207 -4.124138 -9.585483
Cl 1.337207 9.550862 4.089517
Cl 1.337207 -9.594138 6.824517
Cl 1.337207 6.815862 -9.585483
Cl 6.807207 1.345862 -9.585483
Cl 9.542207 6.815862 -1.380483
Cl -6.867793 1.345862 9.559517
Cl -6.867793 9.550862 1.354517
Cl 9.542207 -6.859138 1.354517
Cl 6.807207 -1.389138 9.559517
Cl -9.602793 -4.124138 1.354517
Cl -9.602793 1.345862 -4.115483
Cl 1.337207 -9.594138 -4.115483
Cl 1.337207 4.080862 9.559517
Cl -1.397793 -4.124138 9.559517
Cl -1.397793 9.550862 -4.115483
Cl 9.542207 -1.389138 -4.115483
Cl 4.072207 6.815862 4.089517
Cl -6.867793 -9.594138 -1.380483
Cl -1.397793 -6.859138 -9.585483
Cl -6.867793 -1.389138 -9.585483
Cl -4.132793 -6.859138 4.089517
Cl -4.132793 4.080862 -6.850483
Cl 4.072207 -4.124138 -6.850483
Cl 6.807207 4.080862 4.089517
Cl -6.867793 -1.389138 6.824517
Cl -6.867793 6.815862 -1.380483
Cl 6.807207 -6.859138 -1.380483
Cl 1.337207 6.815862 6.824517
Cl -1.397793 -6.859138 6.824517
Cl -1.397793 6.815862 -6.850483
Cl 6.807207 -1.389138 -6.850483
Cl 6.807207 1.345862 6.824517
Cl 6.807207 6.815862 1.354517
