133
CdTe-Cd-Cd55Te32Cl46-clean
Cd -3.060016 -3.282114 -6.564227
Cd -3.060016 -6.564227 -3.282114
Cd -6.342129 -3.282114 -3.282114
Cd -6.342129 -6.564227 -0.000000
Cd -3.060016 -3.282114 -0.000000
Cd -3.060016 -6.564227 3.282114
Cd -6.342129 -3.282114 3.282114
Cd -3.060016 -3.282114 6.564227
Cd -6.342129 0.000000 -6.564227
Cd -3.060016 3.282114 -6.564227
Cd -3.060016 0.000000 -3.282114
Cd -6.342129 3.282114 -3.282114
Cd -6.342129 0.000000 -0.000000
Cd -3.060016 3.282114 -0.000000
Cd -3.060016 0.000000 3.282114
Cd -6.342129 3.282114 3.282114
Cd -6.342129 0.000000 6.564227
Cd -3.060016 3.282114 6.564227
Cd -3.060016 6.564227 -3.282114
Cd -6.342129 6.564227 -0.000000
Cd -3.060016 6.564227 3.282114
Cd 0.222098 -6.564227 -6.564227
Cd 3.504211 -3.282114 -6.564227
Cd 3.504211 -6.564227 -3.282114
Cd 0.222098 -3.282114 -3.282114
Cd 0.222098 -6.564227 -0.000000
Cd 3.504211 -3.282114 -0.000000
Cd 3.504211 -6.564227 3.282114
Cd 0.222098 -3.282114 3.282114
Cd 0.222098 -6.564227 6.564227
Cd 3.504211 -3.282114 6.564227
Cd 0.222098 0.000000 -6.564227
Cd 3.504211 3.282114 -6.564227
Cd 3.504211 0.000000 -3.282114
Cd 0.222098 3.282114 -3.282114
Cd 0.222098 0.000000 -0.000000
Cd 3.504211 3.282114 0.000000
Cd 3.504211 0.000000 3.282114
Cd 0.222098 3.282114 3.282114
Cd 0.222098 0.000000 6.564227
Cd 3.504211 3.282114 6.564227
Cd 0.222098 6.564227 -6.564227
Cd 3.504211 6.564227 -3.282114
Cd 0.222098 6.564227 0.000000
Cd 3.504211 6.564227 3.282114
Cd 0.222098 6.564227 6.564227
Cd 6.786325 -3.282114 -3.282114
Cd 6.786325 -6.564227 -0.000000
Cd 6.786325 -3.282114 3.282114
Cd 6.786325 0.000000 -6.564227
Cd 6.786325 3.282114 -3.282114
Cd 6.786325 0.000000 0.000000
Cd 6.786325 3.282114 3.282114
Cd 6.786325 0.000000 6.564227
Cd 6.786325 6.564227 0.000000
Te -4.701072 -4.923170 -4.923170
Te -4.701072 -1.641057 -1.641057
Te -1.418959 -1.641057 -4.923170
Te -1.418959 -4.923170 -1.641057
Te -4.701072 -4.923170 1.641057
Te -4.701072 -1.641057 4.923170
Te -1.418959 -1.641057 1.641057
Te -1.418959 -4.923170 4.923170
Te -4.701072 1.641057 -4.923170
Te -4.701072 4.923170 -1.641057
Te -1.418959 4.923170 -4.923170
Te -1.418959 1.641057 -1.641057
Te -4.701072 1.641057 1.641057
Te -4.701072 4.923170 4.923170
Te -1.418959 4.923170 1.641057
Te -1.418959 1.641057 4.923170
Te 1.863155 -4.923170 -4.923170
Te 1.863155 -1.641057 -1.641057
Te 5.145268 -1.641057 -4.923170
Te 5.145268 -4.923170 -1.641057
Te 1.863155 -4.923170 1.641057
Te 1.863155 -1.641057 4.923170
Te 5.145268 -1.641057 1.641057
Te 5.145268 -4.923170 4.923170
Te 1.863155 1.641057 -4.923170
Te 1.863155 4.923170 -1.641057
Te 5.145268 4.923170 -4.923170
Te 5.145268 1.641057 -1.641057
Te 1.863155 1.641057 1.641057
Te 1.863155 4.923170 4.923170
Te 5.145268 4.923170 1.641057
Te 5.145268 1.641057 4.923170
Cl -7.983186 -1.641057 -4.923170
Cl -7.983186 -4.923170 -1.641057
Cl -7.983186 -1.641057 1.641057
Cl -7.983186 1.641057 -1.641057
Cl -7.983186 4.923170 1.641057
Cl -7.983186 1.641057 4.923170
Cl -4.701072 -8.205284 -1.641057
Cl -1.418959 -8.205284 -4.923170
Cl -1.418959 -8.205284 1.641057
Cl -4.701072 -1.641057 -8.205284
Cl -1.418959 -4.923170 -8.205284
Cl -1.418959 -1.641057 8.205284
Cl -1.418959 1.641057 -8.205284
Cl -4.701072 1.641057 8.205284
Cl -1.418959 4.923170 8.205284
Cl -1.418959 8.205284 -1.641057
Cl -4.701072 8.205284 1.641057
Cl -1.418959 8.205284 4.923170
Cl 1.863155 -8.205284 -1.641057
Cl 1.863155 -8.205284 4.923170
Cl 5.145268 -8.205284 1.641057
Cl 1.863155 -1.641057 -8.205284
Cl 1.863155 -4.923170 8.205284
Cl 5.145268 -1.641057 8.205284
Cl 1.863155 4.923170 -8.205284
Cl 5.145268 1.641057 -8.205284
Cl 1.863155 1.641057 8.205284
Cl 1.863155 8.205284 -4.923170
Cl 5.145268 8.205284 -1.641057
Cl 1.863155 8.205284 1.641057
Cl 8.427382 -1.641057 -1.641057
Cl 8.427382 -4.923170 1.641057
Cl 8.427382 -1.641057 4.923170
Cl 8.427382 1.641057 -4.923170
Cl 8.427382 4.923170 -1.641057
Cl 8.427382 1.641057 1.641057
Cl -4.701072 -4.923170 4.923170
Cl -4.701072 4.923170 -4.923170
Cl 5.145268 -4.923170 -4.923170
Cl 5.145268 4.923170 4.923170
Cl -7.983186 -8.205284 1.641057
Cl -7.983186 1.641057 -8.205284
Cl 1.863155 -8.205284 -8.205284
Cl 1.863155 8.205284 8.205284
Cl -7.983186 -1.641057 8.205284
Cl -7.983186 8.205284 -1.641057
