391
HgS-Hg-Hg177S140Cl74-reconstructed
Hg -8.886202 -8.893798 -0.000000
Hg -8.886202 -5.924135 -2.969663
Hg -11.855865 -2.954472 -2.969663
Hg -11.855865 -5.924135 -0.000000
Hg -8.886202 -2.954472 -0.000000
Hg -11.855865 -2.954472 2.969663
Hg -8.886202 -2.954472 5.939325
Hg -8.886202 0.015190 -8.908988
Hg -11.855865 0.015190 -5.939325
Hg -8.886202 0.015190 -2.969663
Hg -11.855865 2.984853 -2.969663
Hg -11.855865 0.015190 -0.000000
Hg -8.886202 2.984853 -0.000000
Hg -8.886202 0.015190 2.969663
Hg -11.855865 2.984853 2.969663
Hg -11.855865 0.015190 5.939325
Hg -8.886202 0.015190 8.908988
Hg -8.886202 5.954515 -2.969663
Hg -11.855865 5.954515 -0.000000
Hg -8.886202 8.924178 0.000000
Hg -8.886202 5.954515 2.969663
Hg -2.946877 -8.893798 -5.939325
Hg -2.946877 -11.863460 -2.969663
Hg -5.916540 -11.863460 -0.000000
Hg -2.946877 -8.893798 -0.000000
Hg -2.946877 -11.863460 2.969663
Hg -5.916540 -8.893798 2.969663
Hg -2.946877 -2.954472 -11.878650
Hg -5.916540 -2.954472 -8.908988
Hg -5.916540 -5.924135 -5.939325
Hg -2.946877 -2.954472 -5.939325
Hg -2.946877 -5.924135 -2.969663
Hg -5.916540 -2.954472 -2.969663
Hg -5.916540 -5.924135 -0.000000
Hg -2.946877 -2.954472 -0.000000
Hg -2.946877 -5.924135 2.969663
Hg -5.916540 -2.954472 2.969663
Hg -5.916540 -5.924135 5.939325
Hg -2.946877 -2.954472 5.939325
Hg -2.946877 -5.924135 8.908988
Hg -2.946877 -2.954472 11.878650
Hg -5.916540 0.015190 -11.878650
Hg -2.946877 2.984853 -11.878650
Hg -2.946877 0.015190 -8.908988
Hg -5.916540 2.984853 -8.908988
Hg -5.916540 0.015190 -5.939325
Hg -2.946877 2.984853 -5.939325
Hg -2.946877 0.015190 -2.969663
Hg -5.916540 2.984853 -2.969663
Hg -5.916540 0.015190 -0.000000
Hg -2.946877 2.984853 0.000000
Hg -2.946877 0.015190 2.969663
Hg -5.916540 2.984853 2.969663
Hg -5.916540 0.015190 5.939325
Hg -2.946877 2.984853 5.939325
Hg -2.946877 0.015190 8.908988
Hg -5.916540 2.984853 8.908988
Hg -5.916540 0.015190 11.878650
Hg -2.946877 2.984853 11.878650
Hg -5.916540 5.954515 -5.939325
Hg -2.946877 8.924178 -5.939325
Hg -2.946877 5.954515 -2.969663
Hg -5.916540 5.954515 0.000000
Hg -2.946877 8.924178 0.000000
Hg -2.946877 5.954515 2.969663
Hg -5.916540 5.954515 5.939325
Hg -2.946877 8.924178 5.939325
Hg -2.946877 11.893840 -2.969663
Hg -5.916540 11.893840 0.000000
Hg -2.946877 11.893840 2.969663
Hg 0.022785 -8.893798 -8.908988
Hg 0.022785 -11.863460 -5.939325
Hg 2.992448 -11.863460 -2.969663
Hg 0.022785 -8.893798 -2.969663
Hg 0.022785 -11.863460 -0.000000
Hg 2.992448 -8.893798 -0.000000
Hg 2.992448 -11.863460 2.969663
Hg 0.022785 -8.893798 2.969663
Hg 0.022785 -11.863460 5.939325
Hg 0.022785 -8.893798 8.908988
Hg 0.022785 -5.924135 -11.878650
Hg 2.992448 -2.954472 -11.878650
Hg 2.992448 -5.924135 -8.908988
Hg 0.022785 -2.954472 -8.908988
Hg 0.022785 -5.924135 -5.939325
Hg 2.992448 -2.954472 -5.939325
Hg 2.992448 -5.924135 -2.969663
Hg 0.022785 -2.954472 -2.969663
Hg 0.022785 -5.924135 -0.000000
Hg 2.992448 -2.954472 0.000000
Hg 2.992448 -5.924135 2.969663
Hg 0.022785 -2.954472 2.969663
Hg 0.022785 -5.924135 5.939325
Hg 2.992448 -2.954472 5.939325
Hg 2.992448 -5.924135 8.908988
Hg 0.022785 -2.954472 8.908988
Hg 0.022785 -5.924135 11.878650
Hg 2.992448 -2.954472 11.878650
Hg 0.022785 0.015190 -11.878650
Hg 2.992448 2.984853 -11.878650
Hg 2.992448 0.015190 -8.908988
Hg 0.022785 2.984853 -8.908988
Hg 0.022785 0.015190 -5.939325
Hg 2.992448 2.984853 -5.939325
Hg 2.992448 0.015190 -2.969663
Hg 0.022785 2.984853 -2.969663
Hg 0.022785 0.015190 0.000000
Hg 2.992448 2.984853 0.000000
Hg 2.992448 0.015190 2.969663
Hg 0.022785 2.984853 2.969663
Hg 0.022785 0.015190 5.939325
Hg 2.992448 2.984853 5.939325
Hg 2.992448 0.015190 8.908988
Hg 0.022785 2.984853 8.908988
Hg 0.022785 0.015190 11.878650
Hg 2.992448 2.984853 11.878650
Hg 0.022785 5.954515 -11.878650
Hg 0.022785 8.924178 -8.908988
Hg 0.022785 5.954515 -5.939325
Hg 2.992448 8.924178 -5.939325
Hg 2.992448 5.954515 -2.969663
Hg 0.022785 8.924178 -2.969663
Hg 0.022785 5.954515 0.000000
Hg 2.992448 8.924178 0.000000
Hg 2.992448 5.954515 2.969663
Hg 0.022785 8.924178 2.969663
Hg 0.022785 5.954515 5.939325
Hg 2.992448 5.954515 8.908988
Hg 0.022785 8.924178 8.908988
Hg 0.022785 5.954515 11.878650
Hg 0.022785 11.893840 -5.939325
Hg 2.992448 11.893840 -2.969663
Hg 0.022785 11.893840 0.000000
Hg 2.992448 11.893840 2.969663
Hg 0.022785 11.893840 5.939325
Hg 5.962110 -8.893798 -2.969663
Hg 5.962110 -11.863460 -0.000000
Hg 8.931773 -8.893798 0.000000
Hg 5.962110 -8.893798 2.969663
Hg 5.962110 -5.924135 -5.939325
Hg 8.931773 -2.954472 -5.939325
Hg 5.962110 -2.954472 -2.969663
Hg 5.962110 -5.924135 0.000000
Hg 8.931773 -2.954472 0.000000
Hg 5.962110 -2.954472 2.969663
Hg 5.962110 -5.924135 5.939325
Hg 8.931773 -2.954472 5.939325
Hg 5.962110 0.015190 -11.878650
Hg 8.931773 0.015190 -8.908988
Hg 5.962110 2.984853 -8.908988
Hg 5.962110 0.015190 -5.939325
Hg 8.931773 0.015190 -2.969663
Hg 5.962110 2.984853 -2.969663
Hg 5.962110 0.015190 0.000000
Hg 8.931773 2.984853 0.000000
Hg 8.931773 0.015190 2.969663
Hg 5.962110 2.984853 2.969663
Hg 5.962110 0.015190 5.939325
Hg 8.931773 2.984853 5.939325
Hg 8.931773 0.015190 8.908988
Hg 5.962110 0.015190 11.878650
Hg 5.962110 5.954515 -5.939325
Hg 8.931773 5.954515 -2.969663
Hg 5.962110 5.954515 0.000000
Hg 8.931773 8.924178 0.000000
Hg 5.962110 8.924178 2.969663
Hg 5.962110 5.954515 5.939325
Hg 5.962110 11.893840 0.000000
Hg 11.901435 -2.954472 -2.969663
Hg 11.901435 -5.924135 0.000000
Hg 11.901435 -2.954472 2.969663
Hg 11.901435 0.015190 -5.939325
Hg 11.901435 2.984853 -2.969663
Hg 11.901435 0.015190 0.000000
Hg 11.901435 2.984853 2.969663
Hg 11.901435 0.015190 5.939325
Hg 11.901435 5.954515 0.000000
S -10.371034 -7.408966 -1.484831
S -7.401371 -7.408966 1.484831
S -7.401371 -1.469641 -10.393819
S -10.371034 -1.469641 -1.484831
S -7.401371 -1.469641 -4.454494
S -7.401371 -4.439304 -1.484831
S -10.371034 -4.439304 1.484831
S -10.371034 -1.469641 4.454494
S -7.401371 -1.469641 1.484831
S -7.401371 -4.439304 4.454494
S -7.401371 -1.469641 7.424156
S -7.401371 1.500021 -7.424156
S -10.371034 1.500021 -4.454494
S -10.371034 4.469684 -1.484831
S -7.401371 4.469684 -4.454494
S -7.401371 1.500021 -1.484831
S -10.371034 1.500021 1.484831
S -7.401371 4.469684 1.484831
S -7.401371 1.500021 4.454494
S -7.401371 1.500021 10.393819
S -7.401371 7.439346 -1.484831
S -10.371034 7.439346 1.484831
S -1.462046 -10.378629 -7.424156
S -4.431709 -7.408966 -1.484831
S -1.462046 -7.408966 -4.454494
S -1.462046 -10.378629 -1.484831
S -4.431709 -10.378629 1.484831
S -4.431709 -7.408966 4.454494
S -1.462046 -7.408966 1.484831
S -1.462046 -10.378629 4.454494
S -1.462046 -7.408966 7.424156
S -4.431709 -1.469641 -7.424156
S -1.462046 -1.469641 -10.393819
S -1.462046 -4.439304 -7.424156
S -4.431709 -4.439304 -4.454494
S -4.431709 -1.469641 -1.484831
S -1.462046 -1.469641 -4.454494
S -1.462046 -4.439304 -1.484831
S -4.431709 -4.439304 1.484831
S -4.431709 -1.469641 4.454494
S -1.462046 -1.469641 1.484831
S -1.462046 -4.439304 4.454494
S -4.431709 -4.439304 7.424156
S -4.431709 -1.469641 10.393819
S -1.462046 -1.469641 7.424156
S -1.462046 -4.439304 10.393819
S -4.431709 1.500021 -10.393819
S -4.431709 4.469684 -7.424156
S -1.462046 4.469684 -10.393819
S -1.462046 1.500021 -7.424156
S -4.431709 1.500021 -4.454494
S -4.431709 4.469684 -1.484831
S -1.462046 4.469684 -4.454494
S -1.462046 1.500021 -1.484831
S -4.431709 1.500021 1.484831
S -4.431709 4.469684 4.454494
S -1.462046 4.469684 1.484831
S -1.462046 1.500021 4.454494
S -4.431709 1.500021 7.424156
S -1.462046 4.469684 7.424156
S -1.462046 1.500021 10.393819
S -1.462046 7.439346 -7.424156
S -4.431709 7.439346 -4.454494
S -4.431709 10.409009 -1.484831
S -1.462046 10.409009 -4.454494
S -1.462046 7.439346 -1.484831
S -4.431709 7.439346 1.484831
S -1.462046 10.409009 1.484831
S -1.462046 7.439346 4.454494
S -1.462046 10.409009 7.424156
S 1.507616 -7.408966 -7.424156
S 1.507616 -10.378629 -4.454494
S 1.507616 -7.408966 -1.484831
S 4.477279 -7.408966 -4.454494
S 4.477279 -10.378629 -1.484831
S 1.507616 -10.378629 1.484831
S 1.507616 -7.408966 4.454494
S 4.477279 -7.408966 1.484831
S 1.507616 -7.408966 10.393819
S 1.507616 -4.439304 -10.393819
S 1.507616 -1.469641 -7.424156
S 4.477279 -1.469641 -10.393819
S 4.477279 -4.439304 -7.424156
S 1.507616 -4.439304 -4.454494
S 1.507616 -1.469641 -1.484831
S 4.477279 -1.469641 -4.454494
S 4.477279 -4.439304 -1.484831
S 1.507616 -4.439304 1.484831
S 1.507616 -1.469641 4.454494
S 4.477279 -1.469641 1.484831
S 4.477279 -4.439304 4.454494
S 1.507616 -4.439304 7.424156
S 1.507616 -1.469641 10.393819
S 4.477279 -1.469641 7.424156
S 1.507616 1.500021 -10.393819
S 1.507616 4.469684 -7.424156
S 4.477279 1.500021 -7.424156
S 1.507616 1.500021 -4.454494
S 1.507616 4.469684 -1.484831
S 4.477279 4.469684 -4.454494
S 4.477279 1.500021 -1.484831
S 1.507616 1.500021 1.484831
S 1.507616 4.469684 4.454494
S 4.477279 4.469684 1.484831
S 4.477279 1.500021 4.454494
S 1.507616 1.500021 7.424156
S 1.507616 4.469684 10.393819
S 4.477279 4.469684 7.424156
S 4.477279 1.500021 10.393819
S 1.507616 10.409009 -7.424156
S 1.507616 7.439346 -4.454494
S 1.507616 10.409009 -1.484831
S 4.477279 7.439346 -1.484831
S 1.507616 7.439346 1.484831
S 1.507616 10.409009 4.454494
S 4.477279 10.409009 1.484831
S 4.477279 7.439346 4.454494
S 1.507616 7.439346 7.424156
S 7.446941 -7.408966 -1.484831
S 7.446941 -10.378629 1.484831
S 7.446941 -1.469641 -7.424156
S 7.446941 -4.439304 -4.454494
S 7.446941 -1.469641 -1.484831
S 10.416604 -1.469641 -4.454494
S 10.416604 -4.439304 -1.484831
S 7.446941 -4.439304 1.484831
S 7.446941 -1.469641 4.454494
S 10.416604 -1.469641 1.484831
S 10.416604 -1.469641 7.424156
S 7.446941 1.500021 -10.393819
S 7.446941 1.500021 -4.454494
S 7.446941 4.469684 -1.484831
S 10.416604 1.500021 -1.484831
S 7.446941 1.500021 1.484831
S 7.446941 4.469684 4.454494
S 10.416604 4.469684 1.484831
S 10.416604 1.500021 4.454494
S 7.446941 1.500021 7.424156
S 10.416604 7.439346 -1.484831
S 7.446941 7.439346 1.484831
Cl -13.340696 -1.469641 -4.454494
Cl -13.340696 -4.439304 -1.484831
Cl -13.340696 -1.469641 1.484831
Cl -13.340696 1.500021 -1.484831
Cl -13.340696 4.469684 1.484831
Cl -13.340696 1.500021 4.454494
Cl -7.401371 -7.408966 -4.454494
Cl -7.401371 -10.378629 -1.484831
Cl -10.371034 -1.469641 -7.424156
Cl -7.401371 -4.439304 -7.424156
Cl -10.371034 -4.439304 -4.454494
Cl -10.371034 4.469684 4.454494
Cl -10.371034 1.500021 7.424156
Cl -7.401371 4.469684 7.424156
Cl -7.401371 10.409009 1.484831
Cl -7.401371 7.439346 4.454494
Cl -4.431709 -13.348291 -1.484831
Cl -1.462046 -13.348291 -4.454494
Cl -1.462046 -13.348291 1.484831
Cl -4.431709 -7.408966 -7.424156
Cl -1.462046 -7.408966 -10.393819
Cl -4.431709 -10.378629 -4.454494
Cl -4.431709 -1.469641 -13.363481
Cl -1.462046 -4.439304 -13.363481
Cl -4.431709 -4.439304 -10.393819
Cl -1.462046 -1.469641 13.363481
Cl -1.462046 1.500021 -13.363481
Cl -4.431709 4.469684 10.393819
Cl -4.431709 1.500021 13.363481
Cl -1.462046 4.469684 13.363481
Cl -4.431709 10.409009 4.454494
Cl -4.431709 7.439346 7.424156
Cl -1.462046 7.439346 10.393819
Cl -1.462046 13.378671 -1.484831
Cl -4.431709 13.378671 1.484831
Cl -1.462046 13.378671 4.454494
Cl 1.507616 -13.348291 -1.484831
Cl 1.507616 -13.348291 4.454494
Cl 4.477279 -13.348291 1.484831
Cl 4.477279 -10.378629 4.454494
Cl 1.507616 -10.378629 7.424156
Cl 4.477279 -7.408966 7.424156
Cl 1.507616 -1.469641 -13.363481
Cl 4.477279 -4.439304 10.393819
Cl 1.507616 -4.439304 13.363481
Cl 4.477279 -1.469641 13.363481
Cl 1.507616 4.469684 -13.363481
Cl 4.477279 1.500021 -13.363481
Cl 4.477279 4.469684 -10.393819
Cl 1.507616 1.500021 13.363481
Cl 1.507616 7.439346 -10.393819
Cl 4.477279 7.439346 -7.424156
Cl 4.477279 10.409009 -4.454494
Cl 1.507616 13.378671 -4.454494
Cl 4.477279 13.378671 -1.484831
Cl 1.507616 13.378671 1.484831
Cl 7.446941 -7.408966 4.454494
Cl 10.416604 -7.408966 1.484831
Cl 10.416604 -4.439304 4.454494
Cl 7.446941 -4.439304 7.424156
Cl 7.446941 -1.469641 10.393819
Cl 7.446941 4.469684 -7.424156
Cl 10.416604 1.500021 -7.424156
Cl 10.416604 4.469684 -4.454494
Cl 7.446941 7.439346 -4.454494
Cl 7.446941 10.409009 -1.484831
Cl 13.386267 -1.469641 -1.484831
Cl 13.386267 -4.439304 1.484831
Cl 13.386267 -1.469641 4.454494
Cl 13.386267 1.500021 -4.454494
Cl 13.386267 4.469684 -1.484831
Cl 13.386267 1.500021 1.484831
Cl -7.401371 1.500021 -10.393819
Cl -1.462046 -7.408966 10.393819
