855
ZnTe-Zn-Zn405Te360Cl90-clean
Zn -15.274499 -9.163270 0.017869
Zn -15.274499 -3.052041 -6.093360
Zn -15.274499 -6.107655 -3.037745
Zn -15.274499 -3.052041 0.017869
Zn -15.274499 -6.107655 3.073484
Zn -15.274499 -3.052041 6.129098
Zn -15.274499 0.003574 -9.148975
Zn -15.274499 3.059188 -6.093360
Zn -15.274499 0.003574 -3.037745
Zn -15.274499 3.059188 0.017869
Zn -15.274499 0.003574 3.073484
Zn -15.274499 3.059188 6.129098
Zn -15.274499 0.003574 9.184713
Zn -15.274499 6.114803 -3.037745
Zn -15.274499 9.170417 0.017869
Zn -15.274499 6.114803 3.073484
Zn -9.163270 -15.274499 0.017869
Zn -9.163270 -9.163270 -6.093360
Zn -12.218884 -12.218884 0.017869
Zn -9.163270 -12.218884 -3.037745
Zn -12.218884 -9.163270 -3.037745
Zn -9.163270 -9.163270 0.017869
Zn -9.163270 -12.218884 3.073484
Zn -12.218884 -9.163270 3.073484
Zn -9.163270 -9.163270 6.129098
Zn -9.163270 -3.052041 -12.204589
Zn -12.218884 -6.107655 -6.093360
Zn -9.163270 -6.107655 -9.148975
Zn -12.218884 -3.052041 -9.148975
Zn -9.163270 -3.052041 -6.093360
Zn -12.218884 -6.107655 0.017869
Zn -9.163270 -6.107655 -3.037745
Zn -12.218884 -3.052041 -3.037745
Zn -9.163270 -3.052041 0.017869
Zn -12.218884 -6.107655 6.129098
Zn -9.163270 -6.107655 3.073484
Zn -12.218884 -3.052041 3.073484
Zn -9.163270 -3.052041 6.129098
Zn -9.163270 -6.107655 9.184713
Zn -12.218884 -3.052041 9.184713
Zn -9.163270 -3.052041 12.240327
Zn -12.218884 0.003574 -12.204589
Zn -9.163270 0.003574 -15.260204
Zn -9.163270 3.059188 -12.204589
Zn -12.218884 0.003574 -6.093360
Zn -9.163270 0.003574 -9.148975
Zn -12.218884 3.059188 -9.148975
Zn -9.163270 3.059188 -6.093360
Zn -12.218884 0.003574 0.017869
Zn -9.163270 0.003574 -3.037745
Zn -12.218884 3.059188 -3.037745
Zn -9.163270 3.059188 0.017869
Zn -12.218884 0.003574 6.129098
Zn -9.163270 0.003574 3.073484
Zn -12.218884 3.059188 3.073484
Zn -9.163270 3.059188 6.129098
Zn -12.218884 0.003574 12.240327
Zn -9.163270 0.003574 9.184713
Zn -12.218884 3.059188 9.184713
Zn -9.163270 3.059188 12.240327
Zn -9.163270 0.003574 15.295942
Zn -12.218884 6.114803 -6.093360
Zn -9.163270 6.114803 -9.148975
Zn -9.163270 9.170417 -6.093360
Zn -12.218884 6.114803 0.017869
Zn -9.163270 6.114803 -3.037745
Zn -12.218884 9.170417 -3.037745
Zn -9.163270 9.170417 0.017869
Zn -12.218884 6.114803 6.129098
Zn -9.163270 6.114803 3.073484
Zn -12.218884 9.170417 3.073484
Zn -9.163270 9.170417 6.129098
Zn -9.163270 6.114803 9.184713
Zn -12.218884 12.226032 0.017869
Zn -9.163270 12.226032 -3.037745
Zn -9.163270 15.281647 0.017869
Zn -9.163270 12.226032 3.073484
Zn -3.052041 -15.274499 -6.093360
Zn -6.107655 -15.274499 -3.037745
Zn -3.052041 -15.274499 0.017869
Zn -6.107655 -15.274499 3.073484
Zn -3.052041 -15.274499 6.129098
Zn -3.052041 -9.163270 -12.204589
Zn -6.107655 -12.218884 -6.093360
Zn -3.052041 -12.218884 -9.148975
Zn -6.107655 -9.163270 -9.148975
Zn -3.052041 -9.163270 -6.093360
Zn -6.107655 -12.218884 0.017869
Zn -3.052041 -12.218884 -3.037745
Zn -6.107655 -9.163270 -3.037745
Zn -3.052041 -9.163270 0.017869
Zn -6.107655 -12.218884 6.129098
Zn -3.052041 -12.218884 3.073484
Zn -6.107655 -9.163270 3.073484
Zn -3.052041 -9.163270 6.129098
Zn -3.052041 -12.218884 9.184713
Zn -6.107655 -9.163270 9.184713
Zn -3.052041 -9.163270 12.240327
Zn -6.107655 -6.107655 -12.204589
Zn -3.052041 -6.107655 -15.260204
Zn -6.107655 -3.052041 -15.260204
Zn -3.052041 -3.052041 -12.204589
Zn -6.107655 -6.107655 -6.093360
Zn -3.052041 -6.107655 -9.148975
Zn -6.107655 -3.052041 -9.148975
Zn -3.052041 -3.052041 -6.093360
Zn -6.107655 -6.107655 0.017869
Zn -3.052041 -6.107655 -3.037745
Zn -6.107655 -3.052041 -3.037745
Zn -3.052041 -3.052041 0.017869
Zn -6.107655 -6.107655 6.129098
Zn -3.052041 -6.107655 3.073484
Zn -6.107655 -3.052041 3.073484
Zn -3.052041 -3.052041 6.129098
Zn -6.107655 -6.107655 12.240327
Zn -3.052041 -6.107655 9.184713
Zn -6.107655 -3.052041 9.184713
Zn -3.052041 -3.052041 12.240327
Zn -3.052041 -6.107655 15.295942
Zn -6.107655 -3.052041 15.295942
Zn -6.107655 0.003574 -12.204589
Zn -3.052041 0.003574 -15.260204
Zn -6.107655 3.059188 -15.260204
Zn -3.052041 3.059188 -12.204589
Zn -6.107655 0.003574 -6.093360
Zn -3.052041 0.003574 -9.148975
Zn -6.107655 3.059188 -9.148975
Zn -3.052041 3.059188 -6.093360
Zn -6.107655 0.003574 0.017869
Zn -3.052041 0.003574 -3.037745
Zn -6.107655 3.059188 -3.037745
Zn -3.052041 3.059188 0.017869
Zn -6.107655 0.003574 6.129098
Zn -3.052041 0.003574 3.073484
Zn -6.107655 3.059188 3.073484
Zn -3.052041 3.059188 6.129098
Zn -6.107655 0.003574 12.240327
Zn -3.052041 0.003574 9.184713
Zn -6.107655 3.059188 9.184713
Zn -3.052041 3.059188 12.240327
Zn -3.052041 0.003574 15.295942
Zn -6.107655 3.059188 15.295942
Zn -6.107655 6.114803 -12.204589
Zn -3.052041 6.114803 -15.260204
Zn -3.052041 9.170417 -12.204589
Zn -6.107655 6.114803 -6.093360
Zn -3.052041 6.114803 -9.148975
Zn -6.107655 9.170417 -9.148975
Zn -3.052041 9.170417 -6.093360
Zn -6.107655 6.114803 0.017869
Zn -3.052041 6.114803 -3.037745
Zn -6.107655 9.170417 -3.037745
Zn -3.052041 9.170417 0.017869
Zn -6.107655 6.114803 6.129098
Zn -3.052041 6.114803 3.073484
Zn -6.107655 9.170417 3.073484
Zn -3.052041 9.170417 6.129098
Zn -6.107655 6.114803 12.240327
Zn -3.052041 6.114803 9.184713
Zn -6.107655 9.170417 9.184713
Zn -3.052041 9.170417 12.240327
Zn -3.052041 6.114803 15.295942
Zn -6.107655 12.226032 -6.093360
Zn -3.052041 12.226032 -9.148975
Zn -3.052041 15.281647 -6.093360
Zn -6.107655 12.226032 0.017869
Zn -3.052041 12.226032 -3.037745
Zn -6.107655 15.281647 -3.037745
Zn -3.052041 15.281647 0.017869
Zn -6.107655 12.226032 6.129098
Zn -3.052041 12.226032 3.073484
Zn -6.107655 15.281647 3.073484
Zn -3.052041 15.281647 6.129098
Zn -3.052041 12.226032 9.184713
Zn 0.003574 -15.274499 -9.148975
Zn 3.059188 -15.274499 -6.093360
Zn 0.003574 -15.274499 -3.037745
Zn 3.059188 -15.274499 0.017869
Zn 0.003574 -15.274499 3.073484
Zn 3.059188 -15.274499 6.129098
Zn 0.003574 -15.274499 9.184713
Zn 0.003574 -12.218884 -12.204589
Zn 0.003574 -9.163270 -15.260204
Zn 3.059188 -9.163270 -12.204589
Zn 0.003574 -12.218884 -6.093360
Zn 3.059188 -12.218884 -9.148975
Zn 0.003574 -9.163270 -9.148975
Zn 3.059188 -9.163270 -6.093360
Zn 0.003574 -12.218884 0.017869
Zn 3.059188 -12.218884 -3.037745
Zn 0.003574 -9.163270 -3.037745
Zn 3.059188 -9.163270 0.017869
Zn 0.003574 -12.218884 6.129098
Zn 3.059188 -12.218884 3.073484
Zn 0.003574 -9.163270 3.073484
Zn 3.059188 -9.163270 6.129098
Zn 0.003574 -12.218884 12.240327
Zn 3.059188 -12.218884 9.184713
Zn 0.003574 -9.163270 9.184713
Zn 3.059188 -9.163270 12.240327
Zn 0.003574 -9.163270 15.295942
Zn 0.003574 -6.107655 -12.204589
Zn 3.059188 -6.107655 -15.260204
Zn 0.003574 -3.052041 -15.260204
Zn 3.059188 -3.052041 -12.204589
Zn 0.003574 -6.107655 -6.093360
Zn 3.059188 -6.107655 -9.148975
Zn 0.003574 -3.052041 -9.148975
Zn 3.059188 -3.052041 -6.093360
Zn 0.003574 -6.107655 0.017869
Zn 3.059188 -6.107655 -3.037745
Zn 0.003574 -3.052041 -3.037745
Zn 3.059188 -3.052041 0.017869
Zn 0.003574 -6.107655 6.129098
Zn 3.059188 -6.107655 3.073484
Zn 0.003574 -3.052041 3.073484
Zn 3.059188 -3.052041 6.129098
Zn 0.003574 -6.107655 12.240327
Zn 3.059188 -6.107655 9.184713
Zn 0.003574 -3.052041 9.184713
Zn 3.059188 -3.052041 12.240327
Zn 3.059188 -6.107655 15.295942
Zn 0.003574 -3.052041 15.295942
Zn 0.003574 0.003574 -12.204589
Zn 3.059188 0.003574 -15.260204
Zn 0.003574 3.059188 -15.260204
Zn 3.059188 3.059188 -12.204589
Zn 0.003574 0.003574 -6.093360
Zn 3.059188 0.003574 -9.148975
Zn 0.003574 3.059188 -9.148975
Zn 3.059188 3.059188 -6.093360
Zn 0.003574 0.003574 0.017869
Zn 3.059188 0.003574 -3.037745
Zn 0.003574 3.059188 -3.037745
Zn 3.059188 3.059188 0.017869
Zn 0.003574 0.003574 6.129098
Zn 3.059188 0.003574 3.073484
Zn 0.003574 3.059188 3.073484
Zn 3.059188 3.059188 6.129098
Zn 0.003574 0.003574 12.240327
Zn 3.059188 0.003574 9.184713
Zn 0.003574 3.059188 9.184713
Zn 3.059188 3.059188 12.240327
Zn 3.059188 0.003574 15.295942
Zn 0.003574 3.059188 15.295942
Zn 0.003574 6.114803 -12.204589
Zn 3.059188 6.114803 -15.260204
Zn 0.003574 9.170417 -15.260204
Zn 3.059188 9.170417 -12.204589
Zn 0.003574 6.114803 -6.093360
Zn 3.059188 6.114803 -9.148975
Zn 0.003574 9.170417 -9.148975
Zn 3.059188 9.170417 -6.093360
Zn 0.003574 6.114803 0.017869
Zn 3.059188 6.114803 -3.037745
Zn 0.003574 9.170417 -3.037745
Zn 3.059188 9.170417 0.017869
Zn 0.003574 6.114803 6.129098
Zn 3.059188 6.114803 3.073484
Zn 0.003574 9.170417 3.073484
Zn 3.059188 9.170417 6.129098
Zn 0.003574 6.114803 12.240327
Zn 3.059188 6.114803 9.184713
Zn 0.003574 9.170417 9.184713
Zn 3.059188 9.170417 12.240327
Zn 3.059188 6.114803 15.295942
Zn 0.003574 9.170417 15.295942
Zn 0.003574 12.226032 -12.204589
Zn 0.003574 12.226032 -6.093360
Zn 3.059188 12.226032 -9.148975
Zn 0.003574 15.281647 -9.148975
Zn 3.059188 15.281647 -6.093360
Zn 0.003574 12.226032 0.017869
Zn 3.059188 12.226032 -3.037745
Zn 0.003574 15.281647 -3.037745
Zn 3.059188 15.281647 0.017869
Zn 0.003574 12.226032 6.129098
Zn 3.059188 12.226032 3.073484
Zn 0.003574 15.281647 3.073484
Zn 3.059188 15.281647 6.129098
Zn 0.003574 12.226032 12.240327
Zn 3.059188 12.226032 9.184713
Zn 0.003574 15.281647 9.184713
Zn 6.114803 -15.274499 -3.037745
Zn 9.170417 -15.274499 0.017869
Zn 6.114803 -15.274499 3.073484
Zn 6.114803 -12.218884 -6.093360
Zn 6.114803 -9.163270 -9.148975
Zn 9.170417 -9.163270 -6.093360
Zn 6.114803 -12.218884 0.017869
Zn 9.170417 -12.218884 -3.037745
Zn 6.114803 -9.163270 -3.037745
Zn 9.170417 -9.163270 0.017869
Zn 6.114803 -12.218884 6.129098
Zn 9.170417 -12.218884 3.073484
Zn 6.114803 -9.163270 3.073484
Zn 9.170417 -9.163270 6.129098
Zn 6.114803 -9.163270 9.184713
Zn 6.114803 -6.107655 -12.204589
Zn 6.114803 -3.052041 -15.260204
Zn 9.170417 -3.052041 -12.204589
Zn 6.114803 -6.107655 -6.093360
Zn 9.170417 -6.107655 -9.148975
Zn 6.114803 -3.052041 -9.148975
Zn 9.170417 -3.052041 -6.093360
Zn 6.114803 -6.107655 0.017869
Zn 9.170417 -6.107655 -3.037745
Zn 6.114803 -3.052041 -3.037745
Zn 9.170417 -3.052041 0.017869
Zn 6.114803 -6.107655 6.129098
Zn 9.170417 -6.107655 3.073484
Zn 6.114803 -3.052041 3.073484
Zn 9.170417 -3.052041 6.129098
Zn 6.114803 -6.107655 12.240327
Zn 9.170417 -6.107655 9.184713
Zn 6.114803 -3.052041 9.184713
Zn 9.170417 -3.052041 12.240327
Zn 6.114803 -3.052041 15.295942
Zn 6.114803 0.003574 -12.204589
Zn 9.170417 0.003574 -15.260204
Zn 6.114803 3.059188 -15.260204
Zn 9.170417 3.059188 -12.204589
Zn 6.114803 0.003574 -6.093360
Zn 9.170417 0.003574 -9.148975
Zn 6.114803 3.059188 -9.148975
Zn 9.170417 3.059188 -6.093360
Zn 6.114803 0.003574 0.017869
Zn 9.170417 0.003574 -3.037745
Zn 6.114803 3.059188 -3.037745
Zn 9.170417 3.059188 0.017869
Zn 6.114803 0.003574 6.129098
Zn 9.170417 0.003574 3.073484
Zn 6.114803 3.059188 3.073484
Zn 9.170417 3.059188 6.129098
Zn 6.114803 0.003574 12.240327
Zn 9.170417 0.003574 9.184713
Zn 6.114803 3.059188 9.184713
Zn 9.170417 3.059188 12.240327
Zn 9.170417 0.003574 15.295942
Zn 6.114803 3.059188 15.295942
Zn 6.114803 6.114803 -12.204589
Zn 6.114803 6.114803 -6.093360
Zn 9.170417 6.114803 -9.148975
Zn 6.114803 9.170417 -9.148975
Zn 9.170417 9.170417 -6.093360
Zn 6.114803 6.114803 0.017869
Zn 9.170417 6.114803 -3.037745
Zn 6.114803 9.170417 -3.037745
Zn 9.170417 9.170417 0.017869
Zn 6.114803 6.114803 6.129098
Zn 9.170417 6.114803 3.073484
Zn 6.114803 9.170417 3.073484
Zn 9.170417 9.170417 6.129098
Zn 6.114803 6.114803 12.240327
Zn 9.170417 6.114803 9.184713
Zn 6.114803 9.170417 9.184713
Zn 6.114803 12.226032 -6.093360
Zn 6.114803 12.226032 0.017869
Zn 9.170417 12.226032 -3.037745
Zn 6.114803 15.281647 -3.037745
Zn 9.170417 15.281647 0.017869
Zn 6.114803 12.226032 6.129098
Zn 9.170417 12.226032 3.073484
Zn 6.114803 15.281647 3.073484
Zn 12.226032 -12.218884 0.017869
Zn 12.226032 -9.163270 -3.037745
Zn 15.281647 -9.163270 0.017869
Zn 12.226032 -9.163270 3.073484
Zn 12.226032 -6.107655 -6.093360
Zn 12.226032 -3.052041 -9.148975
Zn 15.281647 -3.052041 -6.093360
Zn 12.226032 -6.107655 0.017869
Zn 15.281647 -6.107655 -3.037745
Zn 12.226032 -3.052041 -3.037745
Zn 15.281647 -3.052041 0.017869
Zn 12.226032 -6.107655 6.129098
Zn 15.281647 -6.107655 3.073484
Zn 12.226032 -3.052041 3.073484
Zn 15.281647 -3.052041 6.129098
Zn 12.226032 -3.052041 9.184713
Zn 12.226032 0.003574 -12.204589
Zn 12.226032 0.003574 -6.093360
Zn 15.281647 0.003574 -9.148975
Zn 12.226032 3.059188 -9.148975
Zn 15.281647 3.059188 -6.093360
Zn 12.226032 0.003574 0.017869
Zn 15.281647 0.003574 -3.037745
Zn 12.226032 3.059188 -3.037745
Zn 15.281647 3.059188 0.017869
Zn 12.226032 0.003574 6.129098
Zn 15.281647 0.003574 3.073484
Zn 12.226032 3.059188 3.073484
Zn 15.281647 3.059188 6.129098
Zn 12.226032 0.003574 12.240327
Zn 15.281647 0.003574 9.184713
Zn 12.226032 3.059188 9.184713
Zn 12.226032 6.114803 -6.093360
Zn 12.226032 6.114803 0.017869
Zn 15.281647 6.114803 -3.037745
Zn 12.226032 9.170417 -3.037745
Zn 15.281647 9.170417 0.017869
Zn 12.226032 6.114803 6.129098
Zn 15.281647 6.114803 3.073484
Zn 12.226032 9.170417 3.073484
Zn 12.226032 12.226032 0.017869
Te -13.746692 -7.635463 -1.509938
Te -13.746692 -10.691077 1.545676
Te -13.746692 -7.635463 4.601291
Te -13.746692 -1.524233 -7.621167
Te -13.746692 -4.579848 -4.565553
Te -13.746692 -1.524233 -1.509938
Te -13.746692 -4.579848 1.545676
Te -13.746692 -1.524233 4.601291
Te -13.746692 -4.579848 7.656905
Te -13.746692 -1.524233 10.712520
Te -13.746692 1.531381 -10.676782
Te -13.746692 4.586996 -7.621167
Te -13.746692 1.531381 -4.565553
Te -13.746692 4.586996 -1.509938
Te -13.746692 1.531381 1.545676
Te -13.746692 4.586996 4.601291
Te -13.746692 1.531381 7.656905
Te -13.746692 7.642610 -4.565553
Te -13.746692 10.698225 -1.509938
Te -13.746692 7.642610 1.545676
Te -10.691077 -13.746692 1.545676
Te -7.635463 -13.746692 -1.509938
Te -7.635463 -13.746692 4.601291
Te -10.691077 -7.635463 -4.565553
Te -7.635463 -7.635463 -7.621167
Te -7.635463 -10.691077 -4.565553
Te -10.691077 -10.691077 -1.509938
Te -10.691077 -7.635463 1.545676
Te -7.635463 -7.635463 -1.509938
Te -7.635463 -10.691077 1.545676
Te -10.691077 -10.691077 4.601291
Te -10.691077 -7.635463 7.656905
Te -7.635463 -7.635463 4.601291
Te -7.635463 -10.691077 7.656905
Te -7.635463 -7.635463 10.712520
Te -10.691077 -1.524233 -10.676782
Te -7.635463 -1.524233 -13.732396
Te -7.635463 -4.579848 -10.676782
Te -10.691077 -4.579848 -7.621167
Te -10.691077 -1.524233 -4.565553
Te -7.635463 -1.524233 -7.621167
Te -7.635463 -4.579848 -4.565553
Te -10.691077 -4.579848 -1.509938
Te -10.691077 -1.524233 1.545676
Te -7.635463 -1.524233 -1.509938
Te -7.635463 -4.579848 1.545676
Te -10.691077 -4.579848 4.601291
Te -10.691077 -1.524233 7.656905
Te -7.635463 -1.524233 4.601291
Te -7.635463 -4.579848 7.656905
Te -10.691077 -4.579848 10.712520
Te -10.691077 -1.524233 13.768135
Te -7.635463 -1.524233 10.712520
Te -7.635463 -4.579848 13.768135
Te -10.691077 1.531381 -13.732396
Te -10.691077 4.586996 -10.676782
Te -7.635463 4.586996 -13.732396
Te -7.635463 1.531381 -10.676782
Te -10.691077 1.531381 -7.621167
Te -10.691077 4.586996 -4.565553
Te -7.635463 4.586996 -7.621167
Te -7.635463 1.531381 -4.565553
Te -10.691077 1.531381 -1.509938
Te -10.691077 4.586996 1.545676
Te -7.635463 4.586996 -1.509938
Te -7.635463 1.531381 1.545676
Te -10.691077 1.531381 4.601291
Te -10.691077 4.586996 7.656905
Te -7.635463 4.586996 4.601291
Te -7.635463 1.531381 7.656905
Te -10.691077 1.531381 10.712520
Te -7.635463 4.586996 10.712520
Te -7.635463 1.531381 13.768135
Te -7.635463 7.642610 -10.676782
Te -10.691077 7.642610 -7.621167
Te -10.691077 10.698225 -4.565553
Te -7.635463 10.698225 -7.621167
Te -7.635463 7.642610 -4.565553
Te -10.691077 7.642610 -1.509938
Te -10.691077 10.698225 1.545676
Te -7.635463 10.698225 -1.509938
Te -7.635463 7.642610 1.545676
Te -10.691077 7.642610 4.601291
Te -7.635463 10.698225 4.601291
Te -7.635463 7.642610 7.656905
Te -7.635463 13.753839 -4.565553
Te -10.691077 13.753839 -1.509938
Te -7.635463 13.753839 1.545676
Te -4.579848 -13.746692 -4.565553
Te -1.524233 -13.746692 -7.621167
Te -4.579848 -13.746692 1.545676
Te -1.524233 -13.746692 -1.509938
Te -4.579848 -13.746692 7.656905
Te -1.524233 -13.746692 4.601291
Te -1.524233 -13.746692 10.712520
Te -4.579848 -7.635463 -10.676782
Te -1.524233 -7.635463 -13.732396
Te -1.524233 -10.691077 -10.676782
Te -4.579848 -10.691077 -7.621167
Te -4.579848 -7.635463 -4.565553
Te -1.524233 -7.635463 -7.621167
Te -1.524233 -10.691077 -4.565553
Te -4.579848 -10.691077 -1.509938
Te -4.579848 -7.635463 1.545676
Te -1.524233 -7.635463 -1.509938
Te -1.524233 -10.691077 1.545676
Te -4.579848 -10.691077 4.601291
Te -4.579848 -7.635463 7.656905
Te -1.524233 -7.635463 4.601291
Te -1.524233 -10.691077 7.656905
Te -4.579848 -10.691077 10.712520
Te -4.579848 -7.635463 13.768135
Te -1.524233 -7.635463 10.712520
Te -1.524233 -10.691077 13.768135
Te -4.579848 -4.579848 -13.732396
Te -4.579848 -1.524233 -10.676782
Te -1.524233 -1.524233 -13.732396
Te -1.524233 -4.579848 -10.676782
Te -4.579848 -4.579848 -7.621167
Te -4.579848 -1.524233 -4.565553
Te -1.524233 -1.524233 -7.621167
Te -1.524233 -4.579848 -4.565553
Te -4.579848 -4.579848 -1.509938
Te -4.579848 -1.524233 1.545676
Te -1.524233 -1.524233 -1.509938
Te -1.524233 -4.579848 1.545676
Te -4.579848 -4.579848 4.601291
Te -4.579848 -1.524233 7.656905
Te -1.524233 -1.524233 4.601291
Te -1.524233 -4.579848 7.656905
Te -4.579848 -4.579848 10.712520
Te -4.579848 -1.524233 13.768135
Te -1.524233 -1.524233 10.712520
Te -1.524233 -4.579848 13.768135
Te -4.579848 1.531381 -13.732396
Te -4.579848 4.586996 -10.676782
Te -1.524233 4.586996 -13.732396
Te -1.524233 1.531381 -10.676782
Te -4.579848 1.531381 -7.621167
Te -4.579848 4.586996 -4.565553
Te -1.524233 4.586996 -7.621167
Te -1.524233 1.531381 -4.565553
Te -4.579848 1.531381 -1.509938
Te -4.579848 4.586996 1.545676
Te -1.524233 4.586996 -1.509938
Te -1.524233 1.531381 1.545676
Te -4.579848 1.531381 4.601291
Te -4.579848 4.586996 7.656905
Te -1.524233 4.586996 4.601291
Te -1.524233 1.531381 7.656905
Te -4.579848 1.531381 10.712520
Te -4.579848 4.586996 13.768135
Te -1.524233 4.586996 10.712520
Te -1.524233 1.531381 13.768135
Te -4.579848 7.642610 -13.732396
Te -4.579848 10.698225 -10.676782
Te -1.524233 10.698225 -13.732396
Te -1.524233 7.642610 -10.676782
Te -4.579848 7.642610 -7.621167
Te -4.579848 10.698225 -4.565553
Te -1.524233 10.698225 -7.621167
Te -1.524233 7.642610 -4.565553
Te -4.579848 7.642610 -1.509938
Te -4.579848 10.698225 1.545676
Te -1.524233 10.698225 -1.509938
Te -1.524233 7.642610 1.545676
Te -4.579848 7.642610 4.601291
Te -4.579848 10.698225 7.656905
Te -1.524233 10.698225 4.601291
Te -1.524233 7.642610 7.656905
Te -4.579848 7.642610 10.712520
Te -1.524233 10.698225 10.712520
Te -1.524233 7.642610 13.768135
Te -1.524233 13.753839 -10.676782
Te -4.579848 13.753839 -7.621167
Te -1.524233 13.753839 -4.565553
Te -4.579848 13.753839 -1.509938
Te -1.524233 13.753839 1.545676
Te -4.579848 13.753839 4.601291
Te -1.524233 13.753839 7.656905
Te 1.531381 -13.746692 -10.676782
Te 1.531381 -13.746692 -4.565553
Te 4.586996 -13.746692 -7.621167
Te 1.531381 -13.746692 1.545676
Te 4.586996 -13.746692 -1.509938
Te 1.531381 -13.746692 7.656905
Te 4.586996 -13.746692 4.601291
Te 1.531381 -10.691077 -13.732396
Te 1.531381 -7.635463 -10.676782
Te 4.586996 -7.635463 -13.732396
Te 4.586996 -10.691077 -10.676782
Te 1.531381 -10.691077 -7.621167
Te 1.531381 -7.635463 -4.565553
Te 4.586996 -7.635463 -7.621167
Te 4.586996 -10.691077 -4.565553
Te 1.531381 -10.691077 -1.509938
Te 1.531381 -7.635463 1.545676
Te 4.586996 -7.635463 -1.509938
Te 4.586996 -10.691077 1.545676
Te 1.531381 -10.691077 4.601291
Te 1.531381 -7.635463 7.656905
Te 4.586996 -7.635463 4.601291
Te 4.586996 -10.691077 7.656905
Te 1.531381 -10.691077 10.712520
Te 1.531381 -7.635463 13.768135
Te 4.586996 -7.635463 10.712520
Te 1.531381 -4.579848 -13.732396
Te 1.531381 -1.524233 -10.676782
Te 4.586996 -1.524233 -13.732396
Te 4.586996 -4.579848 -10.676782
Te 1.531381 -4.579848 -7.621167
Te 1.531381 -1.524233 -4.565553
Te 4.586996 -1.524233 -7.621167
Te 4.586996 -4.579848 -4.565553
Te 1.531381 -4.579848 -1.509938
Te 1.531381 -1.524233 1.545676
Te 4.586996 -1.524233 -1.509938
Te 4.586996 -4.579848 1.545676
Te 1.531381 -4.579848 4.601291
Te 1.531381 -1.524233 7.656905
Te 4.586996 -1.524233 4.601291
Te 4.586996 -4.579848 7.656905
Te 1.531381 -4.579848 10.712520
Te 1.531381 -1.524233 13.768135
Te 4.586996 -1.524233 10.712520
Te 4.586996 -4.579848 13.768135
Te 1.531381 1.531381 -13.732396
Te 1.531381 4.586996 -10.676782
Te 4.586996 4.586996 -13.732396
Te 4.586996 1.531381 -10.676782
Te 1.531381 1.531381 -7.621167
Te 1.531381 4.586996 -4.565553
Te 4.586996 4.586996 -7.621167
Te 4.586996 1.531381 -4.565553
Te 1.531381 1.531381 -1.509938
Te 1.531381 4.586996 1.545676
Te 4.586996 4.586996 -1.509938
Te 4.586996 1.531381 1.545676
Te 1.531381 1.531381 4.601291
Te 1.531381 4.586996 7.656905
Te 4.586996 4.586996 4.601291
Te 4.586996 1.531381 7.656905
Te 1.531381 1.531381 10.712520
Te 1.531381 4.586996 13.768135
Te 4.586996 4.586996 10.712520
Te 4.586996 1.531381 13.768135
Te 1.531381 7.642610 -13.732396
Te 1.531381 10.698225 -10.676782
Te 4.586996 7.642610 -10.676782
Te 1.531381 7.642610 -7.621167
Te 1.531381 10.698225 -4.565553
Te 4.586996 10.698225 -7.621167
Te 4.586996 7.642610 -4.565553
Te 1.531381 7.642610 -1.509938
Te 1.531381 10.698225 1.545676
Te 4.586996 10.698225 -1.509938
Te 4.586996 7.642610 1.545676
Te 1.531381 7.642610 4.601291
Te 1.531381 10.698225 7.656905
Te 4.586996 10.698225 4.601291
Te 4.586996 7.642610 7.656905
Te 1.531381 7.642610 10.712520
Te 1.531381 10.698225 13.768135
Te 4.586996 10.698225 10.712520
Te 4.586996 7.642610 13.768135
Te 1.531381 13.753839 -7.621167
Te 4.586996 13.753839 -4.565553
Te 1.531381 13.753839 -1.509938
Te 4.586996 13.753839 1.545676
Te 1.531381 13.753839 4.601291
Te 4.586996 13.753839 7.656905
Te 1.531381 13.753839 10.712520
Te 7.642610 -13.746692 -4.565553
Te 7.642610 -13.746692 1.545676
Te 10.698225 -13.746692 -1.509938
Te 7.642610 -7.635463 -10.676782
Te 7.642610 -10.691077 -7.621167
Te 7.642610 -7.635463 -4.565553
Te 10.698225 -7.635463 -7.621167
Te 10.698225 -10.691077 -4.565553
Te 7.642610 -10.691077 -1.509938
Te 7.642610 -7.635463 1.545676
Te 10.698225 -7.635463 -1.509938
Te 10.698225 -10.691077 1.545676
Te 7.642610 -10.691077 4.601291
Te 7.642610 -7.635463 7.656905
Te 10.698225 -7.635463 4.601291
Te 7.642610 -4.579848 -13.732396
Te 7.642610 -1.524233 -10.676782
Te 10.698225 -1.524233 -13.732396
Te 10.698225 -4.579848 -10.676782
Te 7.642610 -4.579848 -7.621167
Te 7.642610 -1.524233 -4.565553
Te 10.698225 -1.524233 -7.621167
Te 10.698225 -4.579848 -4.565553
Te 7.642610 -4.579848 -1.509938
Te 7.642610 -1.524233 1.545676
Te 10.698225 -1.524233 -1.509938
Te 10.698225 -4.579848 1.545676
Te 7.642610 -4.579848 4.601291
Te 7.642610 -1.524233 7.656905
Te 10.698225 -1.524233 4.601291
Te 10.698225 -4.579848 7.656905
Te 7.642610 -4.579848 10.712520
Te 7.642610 -1.524233 13.768135
Te 10.698225 -1.524233 10.712520
Te 7.642610 1.531381 -13.732396
Te 7.642610 4.586996 -10.676782
Te 10.698225 1.531381 -10.676782
Te 7.642610 1.531381 -7.621167
Te 7.642610 4.586996 -4.565553
Te 10.698225 4.586996 -7.621167
Te 10.698225 1.531381 -4.565553
Te 7.642610 1.531381 -1.509938
Te 7.642610 4.586996 1.545676
Te 10.698225 4.586996 -1.509938
Te 10.698225 1.531381 1.545676
Te 7.642610 1.531381 4.601291
Te 7.642610 4.586996 7.656905
Te 10.698225 4.586996 4.601291
Te 10.698225 1.531381 7.656905
Te 7.642610 1.531381 10.712520
Te 7.642610 4.586996 13.768135
Te 10.698225 4.586996 10.712520
Te 10.698225 1.531381 13.768135
Te 7.642610 7.642610 -7.621167
Te 7.642610 10.698225 -4.565553
Te 10.698225 7.642610 -4.565553
Te 7.642610 7.642610 -1.509938
Te 7.642610 10.698225 1.545676
Te 10.698225 10.698225 -1.509938
Te 10.698225 7.642610 1.545676
Te 7.642610 7.642610 4.601291
Te 7.642610 10.698225 7.656905
Te 10.698225 10.698225 4.601291
Te 10.698225 7.642610 7.656905
Te 7.642610 7.642610 10.712520
Te 7.642610 13.753839 -1.509938
Te 10.698225 13.753839 1.545676
Te 7.642610 13.753839 4.601291
Te 13.753839 -7.635463 -4.565553
Te 13.753839 -10.691077 -1.509938
Te 13.753839 -7.635463 1.545676
Te 13.753839 -1.524233 -10.676782
Te 13.753839 -4.579848 -7.621167
Te 13.753839 -1.524233 -4.565553
Te 13.753839 -4.579848 -1.509938
Te 13.753839 -1.524233 1.545676
Te 13.753839 -4.579848 4.601291
Te 13.753839 -1.524233 7.656905
Te 13.753839 1.531381 -7.621167
Te 13.753839 4.586996 -4.565553
Te 13.753839 1.531381 -1.509938
Te 13.753839 4.586996 1.545676
Te 13.753839 1.531381 4.601291
Te 13.753839 4.586996 7.656905
Te 13.753839 1.531381 10.712520
Te 13.753839 7.642610 -1.509938
Te 13.753839 10.698225 1.545676
Te 13.753839 7.642610 4.601291
Cl -16.802306 -7.635463 1.545676
Cl -16.802306 -1.524233 -4.565553
Cl -16.802306 -4.579848 -1.509938
Cl -16.802306 -1.524233 1.545676
Cl -16.802306 -4.579848 4.601291
Cl -16.802306 -1.524233 7.656905
Cl -16.802306 1.531381 -7.621167
Cl -16.802306 4.586996 -4.565553
Cl -16.802306 1.531381 -1.509938
Cl -16.802306 4.586996 1.545676
Cl -16.802306 1.531381 4.601291
Cl -16.802306 7.642610 -1.509938
Cl -7.635463 -16.802306 1.545676
Cl -7.635463 -1.524233 16.823749
Cl -7.635463 1.531381 -16.788011
Cl -7.635463 16.809454 -1.509938
Cl -1.524233 -16.802306 -4.565553
Cl -4.579848 -16.802306 -1.509938
Cl -1.524233 -16.802306 1.545676
Cl -4.579848 -16.802306 4.601291
Cl -1.524233 -16.802306 7.656905
Cl -1.524233 -7.635463 16.823749
Cl -4.579848 -1.524233 -16.788011
Cl -1.524233 -4.579848 -16.788011
Cl -4.579848 -4.579848 16.823749
Cl -1.524233 -1.524233 16.823749
Cl -4.579848 4.586996 -16.788011
Cl -1.524233 1.531381 -16.788011
Cl -4.579848 1.531381 16.823749
Cl -1.524233 4.586996 16.823749
Cl -1.524233 7.642610 -16.788011
Cl -4.579848 16.809454 -4.565553
Cl -1.524233 16.809454 -7.621167
Cl -4.579848 16.809454 1.545676
Cl -1.524233 16.809454 -1.509938
Cl -1.524233 16.809454 4.601291
Cl 1.531381 -16.802306 -7.621167
Cl 4.586996 -16.802306 -4.565553
Cl 1.531381 -16.802306 -1.509938
Cl 4.586996 -16.802306 1.545676
Cl 1.531381 -16.802306 4.601291
Cl 1.531381 -7.635463 -16.788011
Cl 1.531381 -1.524233 -16.788011
Cl 4.586996 -4.579848 -16.788011
Cl 1.531381 -4.579848 16.823749
Cl 4.586996 -1.524233 16.823749
Cl 1.531381 4.586996 -16.788011
Cl 4.586996 1.531381 -16.788011
Cl 1.531381 1.531381 16.823749
Cl 4.586996 4.586996 16.823749
Cl 1.531381 7.642610 16.823749
Cl 1.531381 16.809454 -4.565553
Cl 1.531381 16.809454 1.545676
Cl 4.586996 16.809454 -1.509938
Cl 1.531381 16.809454 7.656905
Cl 4.586996 16.809454 4.601291
Cl 7.642610 -16.802306 -1.509938
Cl 7.642610 -1.524233 -16.788011
Cl 7.642610 1.531381 16.823749
Cl 7.642610 16.809454 1.545676
Cl 16.809454 -7.635463 -1.509938
Cl 16.809454 -1.524233 -7.621167
Cl 16.809454 -4.579848 -4.565553
Cl 16.809454 -1.524233 -1.509938
Cl 16.809454 -4.579848 1.545676
Cl 16.809454 -1.524233 4.601291
Cl 16.809454 1.531381 -4.565553
Cl 16.809454 4.586996 -1.509938
Cl 16.809454 1.531381 1.545676
Cl 16.809454 4.586996 4.601291
Cl 16.809454 1.531381 7.656905
Cl 16.809454 7.642610 1.545676
Cl -10.691077 -10.691077 -4.565553
Cl -10.691077 4.586996 10.712520
Cl 4.586996 -10.691077 10.712520
Cl 4.586996 10.698225 -10.676782
Cl -10.691077 -1.524233 -13.732396
Cl -10.691077 13.753839 1.545676
Cl 13.753839 -10.691077 1.545676
Cl 13.753839 1.531381 -10.676782
Cl -1.524233 -10.691077 -13.732396
Cl -1.524233 13.753839 10.712520
Cl 13.753839 -1.524233 10.712520
Cl 13.753839 10.698225 -1.509938
Cl -13.746692 -4.579848 -7.621167
Cl -13.746692 7.642610 4.601291
Cl 7.642610 -13.746692 4.601291
Cl 7.642610 4.586996 -13.732396
Cl -4.579848 -13.746692 -7.621167
Cl -4.579848 7.642610 13.768135
