9689
ZnSe-Se-Zn4720Se4471Cl498-clean
Zn -32.573089 -21.243319 -4.252172
Zn -32.573089 -24.075762 -1.419729
Zn -32.573089 -21.243319 1.412713
Zn -32.573089 -15.578434 -9.917057
Zn -32.573089 -18.410877 -7.084614
Zn -32.573089 -15.578434 -4.252172
Zn -32.573089 -18.410877 -1.419729
Zn -32.573089 -15.578434 1.412713
Zn -32.573089 -18.410877 4.245156
Zn -32.573089 -15.578434 7.077598
Zn -32.573089 -9.913549 -15.581942
Zn -32.573089 -12.745991 -12.749499
Zn -32.573089 -9.913549 -9.917057
Zn -32.573089 -12.745991 -7.084614
Zn -32.573089 -9.913549 -4.252172
Zn -32.573089 -12.745991 -1.419729
Zn -32.573089 -9.913549 1.412713
Zn -32.573089 -12.745991 4.245156
Zn -32.573089 -9.913549 7.077598
Zn -32.573089 -12.745991 9.910041
Zn -32.573089 -9.913549 12.742483
Zn -32.573089 -4.248664 -21.246827
Zn -32.573089 -7.081106 -18.414385
Zn -32.573089 -4.248664 -15.581942
Zn -32.573089 -7.081106 -12.749499
Zn -32.573089 -4.248664 -9.917057
Zn -32.573089 -7.081106 -7.084614
Zn -32.573089 -4.248664 -4.252172
Zn -32.573089 -7.081106 -1.419729
Zn -32.573089 -4.248664 1.412713
Zn -32.573089 -7.081106 4.245156
Zn -32.573089 -4.248664 7.077598
Zn -32.573089 -7.081106 9.910041
Zn -32.573089 -4.248664 12.742483
Zn -32.573089 -7.081106 15.574926
Zn -32.573089 -4.248664 18.407368
Zn -32.573089 -1.416221 -24.079270
Zn -32.573089 1.416221 -21.246827
Zn -32.573089 -1.416221 -18.414385
Zn -32.573089 1.416221 -15.581942
Zn -32.573089 -1.416221 -12.749499
Zn -32.573089 1.416221 -9.917057
Zn -32.573089 -1.416221 -7.084614
Zn -32.573089 1.416221 -4.252172
Zn -32.573089 -1.416221 -1.419729
Zn -32.573089 1.416221 1.412713
Zn -32.573089 -1.416221 4.245156
Zn -32.573089 1.416221 7.077598
Zn -32.573089 -1.416221 9.910041
Zn -32.573089 1.416221 12.742483
Zn -32.573089 -1.416221 15.574926
Zn -32.573089 1.416221 18.407368
Zn -32.573089 -1.416221 21.239811
Zn -32.573089 1.416221 24.072254
Zn -32.573089 4.248664 -18.414385
Zn -32.573089 7.081106 -15.581942
Zn -32.573089 4.248664 -12.749499
Zn -32.573089 7.081106 -9.917057
Zn -32.573089 4.248664 -7.084614
Zn -32.573089 7.081106 -4.252172
Zn -32.573089 4.248664 -1.419729
Zn -32.573089 7.081106 1.412713
Zn -32.573089 4.248664 4.245156
Zn -32.573089 7.081106 7.077598
Zn -32.573089 4.248664 9.910041
Zn -32.573089 7.081106 12.742483
Zn -32.573089 4.248664 15.574926
Zn -32.573089 7.081106 18.407368
Zn -32.573089 4.248664 21.239811
Zn -32.573089 9.913549 -12.749499
Zn -32.573089 12.745991 -9.917057
Zn -32.573089 9.913549 -7.084614
Zn -32.573089 12.745991 -4.252172
Zn -32.573089 9.913549 -1.419729
Zn -32.573089 12.745991 1.412713
Zn -32.573089 9.913549 4.245156
Zn -32.573089 12.745991 7.077598
Zn -32.573089 9.913549 9.910041
Zn -32.573089 12.745991 12.742483
Zn -32.573089 9.913549 15.574926
Zn -32.573089 15.578434 -7.084614
Zn -32.573089 18.410877 -4.252172
Zn -32.573089 15.578434 -1.419729
Zn -32.573089 18.410877 1.412713
Zn -32.573089 15.578434 4.245156
Zn -32.573089 18.410877 7.077598
Zn -32.573089 15.578434 9.910041
Zn -32.573089 21.243319 -1.419729
Zn -32.573089 24.075762 1.412713
Zn -32.573089 21.243319 4.245156
Zn -26.908204 -26.908204 -4.252172
Zn -26.908204 -29.740647 -1.419729
Zn -29.740647 -26.908204 -1.419729
Zn -26.908204 -26.908204 1.412713
Zn -26.908204 -21.243319 -9.917057
Zn -26.908204 -24.075762 -7.084614
Zn -29.740647 -21.243319 -7.084614
Zn -29.740647 -24.075762 -4.252172
Zn -26.908204 -21.243319 -4.252172
Zn -26.908204 -24.075762 -1.419729
Zn -29.740647 -21.243319 -1.419729
Zn -29.740647 -24.075762 1.412713
Zn -26.908204 -21.243319 1.412713
Zn -26.908204 -24.075762 4.245156
Zn -29.740647 -21.243319 4.245156
Zn -26.908204 -21.243319 7.077598
Zn -26.908204 -15.578434 -15.581942
Zn -26.908204 -18.410877 -12.749499
Zn -29.740647 -15.578434 -12.749499
Zn -29.740647 -18.410877 -9.917057
Zn -26.908204 -15.578434 -9.917057
Zn -26.908204 -18.410877 -7.084614
Zn -29.740647 -15.578434 -7.084614
Zn -29.740647 -18.410877 -4.252172
Zn -26.908204 -15.578434 -4.252172
Zn -26.908204 -18.410877 -1.419729
Zn -29.740647 -15.578434 -1.419729
Zn -29.740647 -18.410877 1.412713
Zn -26.908204 -15.578434 1.412713
Zn -26.908204 -18.410877 4.245156
Zn -29.740647 -15.578434 4.245156
Zn -29.740647 -18.410877 7.077598
Zn -26.908204 -15.578434 7.077598
Zn -26.908204 -18.410877 9.910041
Zn -29.740647 -15.578434 9.910041
Zn -26.908204 -15.578434 12.742483
Zn -26.908204 -9.913549 -21.246827
Zn -26.908204 -12.745991 -18.414385
Zn -29.740647 -9.913549 -18.414385
Zn -29.740647 -12.745991 -15.581942
Zn -26.908204 -9.913549 -15.581942
Zn -26.908204 -12.745991 -12.749499
Zn -29.740647 -9.913549 -12.749499
Zn -29.740647 -12.745991 -9.917057
Zn -26.908204 -9.913549 -9.917057
Zn -26.908204 -12.745991 -7.084614
Zn -29.740647 -9.913549 -7.084614
Zn -29.740647 -12.745991 -4.252172
Zn -26.908204 -9.913549 -4.252172
Zn -26.908204 -12.745991 -1.419729
Zn -29.740647 -9.913549 -1.419729
Zn -29.740647 -12.745991 1.412713
Zn -26.908204 -9.913549 1.412713
Zn -26.908204 -12.745991 4.245156
Zn -29.740647 -9.913549 4.245156
Zn -29.740647 -12.745991 7.077598
Zn -26.908204 -9.913549 7.077598
Zn -26.908204 -12.745991 9.910041
Zn -29.740647 -9.913549 9.910041
Zn -29.740647 -12.745991 12.742483
Zn -26.908204 -9.913549 12.742483
Zn -26.908204 -12.745991 15.574926
Zn -29.740647 -9.913549 15.574926
Zn -26.908204 -9.913549 18.407368
Zn -26.908204 -4.248664 -26.911712
Zn -26.908204 -7.081106 -24.079270
Zn -29.740647 -4.248664 -24.079270
Zn -29.740647 -7.081106 -21.246827
Zn -26.908204 -4.248664 -21.246827
Zn -26.908204 -7.081106 -18.414385
Zn -29.740647 -4.248664 -18.414385
Zn -29.740647 -7.081106 -15.581942
Zn -26.908204 -4.248664 -15.581942
Zn -26.908204 -7.081106 -12.749499
Zn -29.740647 -4.248664 -12.749499
Zn -29.740647 -7.081106 -9.917057
Zn -26.908204 -4.248664 -9.917057
Zn -26.908204 -7.081106 -7.084614
Zn -29.740647 -4.248664 -7.084614
Zn -29.740647 -7.081106 -4.252172
Zn -26.908204 -4.248664 -4.252172
Zn -26.908204 -7.081106 -1.419729
Zn -29.740647 -4.248664 -1.419729
Zn -29.740647 -7.081106 1.412713
Zn -26.908204 -4.248664 1.412713
Zn -26.908204 -7.081106 4.245156
Zn -29.740647 -4.248664 4.245156
Zn -29.740647 -7.081106 7.077598
Zn -26.908204 -4.248664 7.077598
Zn -26.908204 -7.081106 9.910041
Zn -29.740647 -4.248664 9.910041
Zn -29.740647 -7.081106 12.742483
Zn -26.908204 -4.248664 12.742483
Zn -26.908204 -7.081106 15.574926
Zn -29.740647 -4.248664 15.574926
Zn -29.740647 -7.081106 18.407368
Zn -26.908204 -4.248664 18.407368
Zn -26.908204 -7.081106 21.239811
Zn -29.740647 -4.248664 21.239811
Zn -26.908204 -4.248664 24.072254
Zn -26.908204 -1.416221 -29.744155
Zn -29.740647 -1.416221 -26.911712
Zn -26.908204 1.416221 -26.911712
Zn -26.908204 -1.416221 -24.079270
Zn -29.740647 1.416221 -24.079270
Zn -29.740647 -1.416221 -21.246827
Zn -26.908204 1.416221 -21.246827
Zn -26.908204 -1.416221 -18.414385
Zn -29.740647 1.416221 -18.414385
Zn -29.740647 -1.416221 -15.581942
Zn -26.908204 1.416221 -15.581942
Zn -26.908204 -1.416221 -12.749499
Zn -29.740647 1.416221 -12.749499
Zn -29.740647 -1.416221 -9.917057
Zn -26.908204 1.416221 -9.917057
Zn -26.908204 -1.416221 -7.084614
Zn -29.740647 1.416221 -7.084614
Zn -29.740647 -1.416221 -4.252172
Zn -26.908204 1.416221 -4.252172
Zn -26.908204 -1.416221 -1.419729
Zn -29.740647 1.416221 -1.419729
Zn -29.740647 -1.416221 1.412713
Zn -26.908204 1.416221 1.412713
Zn -26.908204 -1.416221 4.245156
Zn -29.740647 1.416221 4.245156
Zn -29.740647 -1.416221 7.077598
Zn -26.908204 1.416221 7.077598
Zn -26.908204 -1.416221 9.910041
Zn -29.740647 1.416221 9.910041
Zn -29.740647 -1.416221 12.742483
Zn -26.908204 1.416221 12.742483
Zn -26.908204 -1.416221 15.574926
Zn -29.740647 1.416221 15.574926
Zn -29.740647 -1.416221 18.407368
Zn -26.908204 1.416221 18.407368
Zn -26.908204 -1.416221 21.239811
Zn -29.740647 1.416221 21.239811
Zn -29.740647 -1.416221 24.072254
Zn -26.908204 1.416221 24.072254
Zn -26.908204 -1.416221 26.904696
Zn -29.740647 1.416221 26.904696
Zn -26.908204 1.416221 29.737139
Zn -26.908204 4.248664 -24.079270
Zn -29.740647 4.248664 -21.246827
Zn -26.908204 7.081106 -21.246827
Zn -26.908204 4.248664 -18.414385
Zn -29.740647 7.081106 -18.414385
Zn -29.740647 4.248664 -15.581942
Zn -26.908204 7.081106 -15.581942
Zn -26.908204 4.248664 -12.749499
Zn -29.740647 7.081106 -12.749499
Zn -29.740647 4.248664 -9.917057
Zn -26.908204 7.081106 -9.917057
Zn -26.908204 4.248664 -7.084614
Zn -29.740647 7.081106 -7.084614
Zn -29.740647 4.248664 -4.252172
Zn -26.908204 7.081106 -4.252172
Zn -26.908204 4.248664 -1.419729
Zn -29.740647 7.081106 -1.419729
Zn -29.740647 4.248664 1.412713
Zn -26.908204 7.081106 1.412713
Zn -26.908204 4.248664 4.245156
Zn -29.740647 7.081106 4.245156
Zn -29.740647 4.248664 7.077598
Zn -26.908204 7.081106 7.077598
Zn -26.908204 4.248664 9.910041
Zn -29.740647 7.081106 9.910041
Zn -29.740647 4.248664 12.742483
Zn -26.908204 7.081106 12.742483
Zn -26.908204 4.248664 15.574926
Zn -29.740647 7.081106 15.574926
Zn -29.740647 4.248664 18.407368
Zn -26.908204 7.081106 18.407368
Zn -26.908204 4.248664 21.239811
Zn -29.740647 7.081106 21.239811
Zn -29.740647 4.248664 24.072254
Zn -26.908204 7.081106 24.072254
Zn -26.908204 4.248664 26.904696
Zn -26.908204 9.913549 -18.414385
Zn -29.740647 9.913549 -15.581942
Zn -26.908204 12.745991 -15.581942
Zn -26.908204 9.913549 -12.749499
Zn -29.740647 12.745991 -12.749499
Zn -29.740647 9.913549 -9.917057
Zn -26.908204 12.745991 -9.917057
Zn -26.908204 9.913549 -7.084614
Zn -29.740647 12.745991 -7.084614
Zn -29.740647 9.913549 -4.252172
Zn -26.908204 12.745991 -4.252172
Zn -26.908204 9.913549 -1.419729
Zn -29.740647 12.745991 -1.419729
Zn -29.740647 9.913549 1.412713
Zn -26.908204 12.745991 1.412713
Zn -26.908204 9.913549 4.245156
Zn -29.740647 12.745991 4.245156
Zn -29.740647 9.913549 7.077598
Zn -26.908204 12.745991 7.077598
Zn -26.908204 9.913549 9.910041
Zn -29.740647 12.745991 9.910041
Zn -29.740647 9.913549 12.742483
Zn -26.908204 12.745991 12.742483
Zn -26.908204 9.913549 15.574926
Zn -29.740647 12.745991 15.574926
Zn -29.740647 9.913549 18.407368
Zn -26.908204 12.745991 18.407368
Zn -26.908204 9.913549 21.239811
Zn -26.908204 15.578434 -12.749499
Zn -29.740647 15.578434 -9.917057
Zn -26.908204 18.410877 -9.917057
Zn -26.908204 15.578434 -7.084614
Zn -29.740647 18.410877 -7.084614
Zn -29.740647 15.578434 -4.252172
Zn -26.908204 18.410877 -4.252172
Zn -26.908204 15.578434 -1.419729
Zn -29.740647 18.410877 -1.419729
Zn -29.740647 15.578434 1.412713
Zn -26.908204 18.410877 1.412713
Zn -26.908204 15.578434 4.245156
Zn -29.740647 18.410877 4.245156
Zn -29.740647 15.578434 7.077598
Zn -26.908204 18.410877 7.077598
Zn -26.908204 15.578434 9.910041
Zn -29.740647 18.410877 9.910041
Zn -29.740647 15.578434 12.742483
Zn -26.908204 18.410877 12.742483
Zn -26.908204 15.578434 15.574926
Zn -26.908204 21.243319 -7.084614
Zn -29.740647 21.243319 -4.252172
Zn -26.908204 24.075762 -4.252172
Zn -26.908204 21.243319 -1.419729
Zn -29.740647 24.075762 -1.419729
Zn -29.740647 21.243319 1.412713
Zn -26.908204 24.075762 1.412713
Zn -26.908204 21.243319 4.245156
Zn -29.740647 24.075762 4.245156
Zn -29.740647 21.243319 7.077598
Zn -26.908204 24.075762 7.077598
Zn -26.908204 21.243319 9.910041
Zn -26.908204 26.908204 -1.419729
Zn -29.740647 26.908204 1.412713
Zn -26.908204 29.740647 1.412713
Zn -26.908204 26.908204 4.245156
Zn -21.243319 -32.573089 -4.252172
Zn -24.075762 -32.573089 -1.419729
Zn -21.243319 -32.573089 1.412713
Zn -21.243319 -26.908204 -9.917057
Zn -21.243319 -29.740647 -7.084614
Zn -24.075762 -26.908204 -7.084614
Zn -24.075762 -29.740647 -4.252172
Zn -21.243319 -26.908204 -4.252172
Zn -21.243319 -29.740647 -1.419729
Zn -24.075762 -26.908204 -1.419729
Zn -24.075762 -29.740647 1.412713
Zn -21.243319 -26.908204 1.412713
Zn -21.243319 -29.740647 4.245156
Zn -24.075762 -26.908204 4.245156
Zn -21.243319 -26.908204 7.077598
Zn -21.243319 -21.243319 -15.581942
Zn -21.243319 -24.075762 -12.749499
Zn -24.075762 -21.243319 -12.749499
Zn -24.075762 -24.075762 -9.917057
Zn -21.243319 -21.243319 -9.917057
Zn -21.243319 -24.075762 -7.084614
Zn -24.075762 -21.243319 -7.084614
Zn -24.075762 -24.075762 -4.252172
Zn -21.243319 -21.243319 -4.252172
Zn -21.243319 -24.075762 -1.419729
Zn -24.075762 -21.243319 -1.419729
Zn -24.075762 -24.075762 1.412713
Zn -21.243319 -21.243319 1.412713
Zn -21.243319 -24.075762 4.245156
Zn -24.075762 -21.243319 4.245156
Zn -24.075762 -24.075762 7.077598
Zn -21.243319 -21.243319 7.077598
Zn -21.243319 -24.075762 9.910041
Zn -24.075762 -21.243319 9.910041
Zn -21.243319 -21.243319 12.742483
Zn -21.243319 -15.578434 -21.246827
Zn -21.243319 -18.410877 -18.414385
Zn -24.075762 -15.578434 -18.414385
Zn -24.075762 -18.410877 -15.581942
Zn -21.243319 -15.578434 -15.581942
Zn -21.243319 -18.410877 -12.749499
Zn -24.075762 -15.578434 -12.749499
Zn -24.075762 -18.410877 -9.917057
Zn -21.243319 -15.578434 -9.917057
Zn -21.243319 -18.410877 -7.084614
Zn -24.075762 -15.578434 -7.084614
Zn -24.075762 -18.410877 -4.252172
Zn -21.243319 -15.578434 -4.252172
Zn -21.243319 -18.410877 -1.419729
Zn -24.075762 -15.578434 -1.419729
Zn -24.075762 -18.410877 1.412713
Zn -21.243319 -15.578434 1.412713
Zn -21.243319 -18.410877 4.245156
Zn -24.075762 -15.578434 4.245156
Zn -24.075762 -18.410877 7.077598
Zn -21.243319 -15.578434 7.077598
Zn -21.243319 -18.410877 9.910041
Zn -24.075762 -15.578434 9.910041
Zn -24.075762 -18.410877 12.742483
Zn -21.243319 -15.578434 12.742483
Zn -21.243319 -18.410877 15.574926
Zn -24.075762 -15.578434 15.574926
Zn -21.243319 -15.578434 18.407368
Zn -21.243319 -9.913549 -26.911712
Zn -21.243319 -12.745991 -24.079270
Zn -24.075762 -9.913549 -24.079270
Zn -24.075762 -12.745991 -21.246827
Zn -21.243319 -9.913549 -21.246827
Zn -21.243319 -12.745991 -18.414385
Zn -24.075762 -9.913549 -18.414385
Zn -24.075762 -12.745991 -15.581942
Zn -21.243319 -9.913549 -15.581942
Zn -21.243319 -12.745991 -12.749499
Zn -24.075762 -9.913549 -12.749499
Zn -24.075762 -12.745991 -9.917057
Zn -21.243319 -9.913549 -9.917057
Zn -21.243319 -12.745991 -7.084614
Zn -24.075762 -9.913549 -7.084614
Zn -24.075762 -12.745991 -4.252172
Zn -21.243319 -9.913549 -4.252172
Zn -21.243319 -12.745991 -1.419729
Zn -24.075762 -9.913549 -1.419729
Zn -24.075762 -12.745991 1.412713
Zn -21.243319 -9.913549 1.412713
Zn -21.243319 -12.745991 4.245156
Zn -24.075762 -9.913549 4.245156
Zn -24.075762 -12.745991 7.077598
Zn -21.243319 -9.913549 7.077598
Zn -21.243319 -12.745991 9.910041
Zn -24.075762 -9.913549 9.910041
Zn -24.075762 -12.745991 12.742483
Zn -21.243319 -9.913549 12.742483
Zn -21.243319 -12.745991 15.574926
Zn -24.075762 -9.913549 15.574926
Zn -24.075762 -12.745991 18.407368
Zn -21.243319 -9.913549 18.407368
Zn -21.243319 -12.745991 21.239811
Zn -24.075762 -9.913549 21.239811
Zn -21.243319 -9.913549 24.072254
Zn -21.243319 -4.248664 -32.576597
Zn -21.243319 -7.081106 -29.744155
Zn -24.075762 -4.248664 -29.744155
Zn -24.075762 -7.081106 -26.911712
Zn -21.243319 -4.248664 -26.911712
Zn -21.243319 -7.081106 -24.079270
Zn -24.075762 -4.248664 -24.079270
Zn -24.075762 -7.081106 -21.246827
Zn -21.243319 -4.248664 -21.246827
Zn -21.243319 -7.081106 -18.414385
Zn -24.075762 -4.248664 -18.414385
Zn -24.075762 -7.081106 -15.581942
Zn -21.243319 -4.248664 -15.581942
Zn -21.243319 -7.081106 -12.749499
Zn -24.075762 -4.248664 -12.749499
Zn -24.075762 -7.081106 -9.917057
Zn -21.243319 -4.248664 -9.917057
Zn -21.243319 -7.081106 -7.084614
Zn -24.075762 -4.248664 -7.084614
Zn -24.075762 -7.081106 -4.252172
Zn -21.243319 -4.248664 -4.252172
Zn -21.243319 -7.081106 -1.419729
Zn -24.075762 -4.248664 -1.419729
Zn -24.075762 -7.081106 1.412713
Zn -21.243319 -4.248664 1.412713
Zn -21.243319 -7.081106 4.245156
Zn -24.075762 -4.248664 4.245156
Zn -24.075762 -7.081106 7.077598
Zn -21.243319 -4.248664 7.077598
Zn -21.243319 -7.081106 9.910041
Zn -24.075762 -4.248664 9.910041
Zn -24.075762 -7.081106 12.742483
Zn -21.243319 -4.248664 12.742483
Zn -21.243319 -7.081106 15.574926
Zn -24.075762 -4.248664 15.574926
Zn -24.075762 -7.081106 18.407368
Zn -21.243319 -4.248664 18.407368
Zn -21.243319 -7.081106 21.239811
Zn -24.075762 -4.248664 21.239811
Zn -24.075762 -7.081106 24.072254
Zn -21.243319 -4.248664 24.072254
Zn -21.243319 -7.081106 26.904696
Zn -24.075762 -4.248664 26.904696
Zn -21.243319 -4.248664 29.737139
Zn -24.075762 -1.416221 -32.576597
Zn -21.243319 1.416221 -32.576597
Zn -21.243319 -1.416221 -29.744155
Zn -24.075762 1.416221 -29.744155
Zn -24.075762 -1.416221 -26.911712
Zn -21.243319 1.416221 -26.911712
Zn -21.243319 -1.416221 -24.079270
Zn -24.075762 1.416221 -24.079270
Zn -24.075762 -1.416221 -21.246827
Zn -21.243319 1.416221 -21.246827
Zn -21.243319 -1.416221 -18.414385
Zn -24.075762 1.416221 -18.414385
Zn -24.075762 -1.416221 -15.581942
Zn -21.243319 1.416221 -15.581942
Zn -21.243319 -1.416221 -12.749499
Zn -24.075762 1.416221 -12.749499
Zn -24.075762 -1.416221 -9.917057
Zn -21.243319 1.416221 -9.917057
Zn -21.243319 -1.416221 -7.084614
Zn -24.075762 1.416221 -7.084614
Zn -24.075762 -1.416221 -4.252172
Zn -21.243319 1.416221 -4.252172
Zn -21.243319 -1.416221 -1.419729
Zn -24.075762 1.416221 -1.419729
Zn -24.075762 -1.416221 1.412713
Zn -21.243319 1.416221 1.412713
Zn -21.243319 -1.416221 4.245156
Zn -24.075762 1.416221 4.245156
Zn -24.075762 -1.416221 7.077598
Zn -21.243319 1.416221 7.077598
Zn -21.243319 -1.416221 9.910041
Zn -24.075762 1.416221 9.910041
Zn -24.075762 -1.416221 12.742483
Zn -21.243319 1.416221 12.742483
Zn -21.243319 -1.416221 15.574926
Zn -24.075762 1.416221 15.574926
Zn -24.075762 -1.416221 18.407368
Zn -21.243319 1.416221 18.407368
Zn -21.243319 -1.416221 21.239811
Zn -24.075762 1.416221 21.239811
Zn -24.075762 -1.416221 24.072254
Zn -21.243319 1.416221 24.072254
Zn -21.243319 -1.416221 26.904696
Zn -24.075762 1.416221 26.904696
Zn -24.075762 -1.416221 29.737139
Zn -21.243319 1.416221 29.737139
Zn -21.243319 -1.416221 32.569581
Zn -24.075762 1.416221 32.569581
Zn -21.243319 4.248664 -29.744155
Zn -24.075762 4.248664 -26.911712
Zn -21.243319 7.081106 -26.911712
Zn -21.243319 4.248664 -24.079270
Zn -24.075762 7.081106 -24.079270
Zn -24.075762 4.248664 -21.246827
Zn -21.243319 7.081106 -21.246827
Zn -21.243319 4.248664 -18.414385
Zn -24.075762 7.081106 -18.414385
Zn -24.075762 4.248664 -15.581942
Zn -21.243319 7.081106 -15.581942
Zn -21.243319 4.248664 -12.749499
Zn -24.075762 7.081106 -12.749499
Zn -24.075762 4.248664 -9.917057
Zn -21.243319 7.081106 -9.917057
Zn -21.243319 4.248664 -7.084614
Zn -24.075762 7.081106 -7.084614
Zn -24.075762 4.248664 -4.252172
Zn -21.243319 7.081106 -4.252172
Zn -21.243319 4.248664 -1.419729
Zn -24.075762 7.081106 -1.419729
Zn -24.075762 4.248664 1.412713
Zn -21.243319 7.081106 1.412713
Zn -21.243319 4.248664 4.245156
Zn -24.075762 7.081106 4.245156
Zn -24.075762 4.248664 7.077598
Zn -21.243319 7.081106 7.077598
Zn -21.243319 4.248664 9.910041
Zn -24.075762 7.081106 9.910041
Zn -24.075762 4.248664 12.742483
Zn -21.243319 7.081106 12.742483
Zn -21.243319 4.248664 15.574926
Zn -24.075762 7.081106 15.574926
Zn -24.075762 4.248664 18.407368
Zn -21.243319 7.081106 18.407368
Zn -21.243319 4.248664 21.239811
Zn -24.075762 7.081106 21.239811
Zn -24.075762 4.248664 24.072254
Zn -21.243319 7.081106 24.072254
Zn -21.243319 4.248664 26.904696
Zn -24.075762 7.081106 26.904696
Zn -24.075762 4.248664 29.737139
Zn -21.243319 7.081106 29.737139
Zn -21.243319 4.248664 32.569581
Zn -21.243319 9.913549 -24.079270
Zn -24.075762 9.913549 -21.246827
Zn -21.243319 12.745991 -21.246827
Zn -21.243319 9.913549 -18.414385
Zn -24.075762 12.745991 -18.414385
Zn -24.075762 9.913549 -15.581942
Zn -21.243319 12.745991 -15.581942
Zn -21.243319 9.913549 -12.749499
Zn -24.075762 12.745991 -12.749499
Zn -24.075762 9.913549 -9.917057
Zn -21.243319 12.745991 -9.917057
Zn -21.243319 9.913549 -7.084614
Zn -24.075762 12.745991 -7.084614
Zn -24.075762 9.913549 -4.252172
Zn -21.243319 12.745991 -4.252172
Zn -21.243319 9.913549 -1.419729
Zn -24.075762 12.745991 -1.419729
Zn -24.075762 9.913549 1.412713
Zn -21.243319 12.745991 1.412713
Zn -21.243319 9.913549 4.245156
Zn -24.075762 12.745991 4.245156
Zn -24.075762 9.913549 7.077598
Zn -21.243319 12.745991 7.077598
Zn -21.243319 9.913549 9.910041
Zn -24.075762 12.745991 9.910041
Zn -24.075762 9.913549 12.742483
Zn -21.243319 12.745991 12.742483
Zn -21.243319 9.913549 15.574926
Zn -24.075762 12.745991 15.574926
Zn -24.075762 9.913549 18.407368
Zn -21.243319 12.745991 18.407368
Zn -21.243319 9.913549 21.239811
Zn -24.075762 12.745991 21.239811
Zn -24.075762 9.913549 24.072254
Zn -21.243319 12.745991 24.072254
Zn -21.243319 9.913549 26.904696
Zn -21.243319 15.578434 -18.414385
Zn -24.075762 15.578434 -15.581942
Zn -21.243319 18.410877 -15.581942
Zn -21.243319 15.578434 -12.749499
Zn -24.075762 18.410877 -12.749499
Zn -24.075762 15.578434 -9.917057
Zn -21.243319 18.410877 -9.917057
Zn -21.243319 15.578434 -7.084614
Zn -24.075762 18.410877 -7.084614
Zn -24.075762 15.578434 -4.252172
Zn -21.243319 18.410877 -4.252172
Zn -21.243319 15.578434 -1.419729
Zn -24.075762 18.410877 -1.419729
Zn -24.075762 15.578434 1.412713
Zn -21.243319 18.410877 1.412713
Zn -21.243319 15.578434 4.245156
Zn -24.075762 18.410877 4.245156
Zn -24.075762 15.578434 7.077598
Zn -21.243319 18.410877 7.077598
Zn -21.243319 15.578434 9.910041
Zn -24.075762 18.410877 9.910041
Zn -24.075762 15.578434 12.742483
Zn -21.243319 18.410877 12.742483
Zn -21.243319 15.578434 15.574926
Zn -24.075762 18.410877 15.574926
Zn -24.075762 15.578434 18.407368
Zn -21.243319 18.410877 18.407368
Zn -21.243319 15.578434 21.239811
Zn -21.243319 21.243319 -12.749499
Zn -24.075762 21.243319 -9.917057
Zn -21.243319 24.075762 -9.917057
Zn -21.243319 21.243319 -7.084614
Zn -24.075762 24.075762 -7.084614
Zn -24.075762 21.243319 -4.252172
Zn -21.243319 24.075762 -4.252172
Zn -21.243319 21.243319 -1.419729
Zn -24.075762 24.075762 -1.419729
Zn -24.075762 21.243319 1.412713
Zn -21.243319 24.075762 1.412713
Zn -21.243319 21.243319 4.245156
Zn -24.075762 24.075762 4.245156
Zn -24.075762 21.243319 7.077598
Zn -21.243319 24.075762 7.077598
Zn -21.243319 21.243319 9.910041
Zn -24.075762 24.075762 9.910041
Zn -24.075762 21.243319 12.742483
Zn -21.243319 24.075762 12.742483
Zn -21.243319 21.243319 15.574926
Zn -21.243319 26.908204 -7.084614
Zn -24.075762 26.908204 -4.252172
Zn -21.243319 29.740647 -4.252172
Zn -21.243319 26.908204 -1.419729
Zn -24.075762 29.740647 -1.419729
Zn -24.075762 26.908204 1.412713
Zn -21.243319 29.740647 1.412713
Zn -21.243319 26.908204 4.245156
Zn -24.075762 29.740647 4.245156
Zn -24.075762 26.908204 7.077598
Zn -21.243319 29.740647 7.077598
Zn -21.243319 26.908204 9.910041
Zn -21.243319 32.573089 -1.419729
Zn -24.075762 32.573089 1.412713
Zn -21.243319 32.573089 4.245156
Zn -15.578434 -32.573089 -9.917057
Zn -18.410877 -32.573089 -7.084614
Zn -15.578434 -32.573089 -4.252172
Zn -18.410877 -32.573089 -1.419729
Zn -15.578434 -32.573089 1.412713
Zn -18.410877 -32.573089 4.245156
Zn -15.578434 -32.573089 7.077598
Zn -15.578434 -26.908204 -15.581942
Zn -15.578434 -29.740647 -12.749499
Zn -18.410877 -26.908204 -12.749499
Zn -18.410877 -29.740647 -9.917057
Zn -15.578434 -26.908204 -9.917057
Zn -15.578434 -29.740647 -7.084614
Zn -18.410877 -26.908204 -7.084614
Zn -18.410877 -29.740647 -4.252172
Zn -15.578434 -26.908204 -4.252172
Zn -15.578434 -29.740647 -1.419729
Zn -18.410877 -26.908204 -1.419729
Zn -18.410877 -29.740647 1.412713
Zn -15.578434 -26.908204 1.412713
Zn -15.578434 -29.740647 4.245156
Zn -18.410877 -26.908204 4.245156
Zn -18.410877 -29.740647 7.077598
Zn -15.578434 -26.908204 7.077598
Zn -15.578434 -29.740647 9.910041
Zn -18.410877 -26.908204 9.910041
Zn -15.578434 -26.908204 12.742483
Zn -15.578434 -21.243319 -21.246827
Zn -15.578434 -24.075762 -18.414385
Zn -18.410877 -21.243319 -18.414385
Zn -18.410877 -24.075762 -15.581942
Zn -15.578434 -21.243319 -15.581942
Zn -15.578434 -24.075762 -12.749499
Zn -18.410877 -21.243319 -12.749499
Zn -18.410877 -24.075762 -9.917057
Zn -15.578434 -21.243319 -9.917057
Zn -15.578434 -24.075762 -7.084614
Zn -18.410877 -21.243319 -7.084614
Zn -18.410877 -24.075762 -4.252172
Zn -15.578434 -21.243319 -4.252172
Zn -15.578434 -24.075762 -1.419729
Zn -18.410877 -21.243319 -1.419729
Zn -18.410877 -24.075762 1.412713
Zn -15.578434 -21.243319 1.412713
Zn -15.578434 -24.075762 4.245156
Zn -18.410877 -21.243319 4.245156
Zn -18.410877 -24.075762 7.077598
Zn -15.578434 -21.243319 7.077598
Zn -15.578434 -24.075762 9.910041
Zn -18.410877 -21.243319 9.910041
Zn -18.410877 -24.075762 12.742483
Zn -15.578434 -21.243319 12.742483
Zn -15.578434 -24.075762 15.574926
Zn -18.410877 -21.243319 15.574926
Zn -15.578434 -21.243319 18.407368
Zn -15.578434 -15.578434 -26.911712
Zn -15.578434 -18.410877 -24.079270
Zn -18.410877 -15.578434 -24.079270
Zn -18.410877 -18.410877 -21.246827
Zn -15.578434 -15.578434 -21.246827
Zn -15.578434 -18.410877 -18.414385
Zn -18.410877 -15.578434 -18.414385
Zn -18.410877 -18.410877 -15.581942
Zn -15.578434 -15.578434 -15.581942
Zn -15.578434 -18.410877 -12.749499
Zn -18.410877 -15.578434 -12.749499
Zn -18.410877 -18.410877 -9.917057
Zn -15.578434 -15.578434 -9.917057
Zn -15.578434 -18.410877 -7.084614
Zn -18.410877 -15.578434 -7.084614
Zn -18.410877 -18.410877 -4.252172
Zn -15.578434 -15.578434 -4.252172
Zn -15.578434 -18.410877 -1.419729
Zn -18.410877 -15.578434 -1.419729
Zn -18.410877 -18.410877 1.412713
Zn -15.578434 -15.578434 1.412713
Zn -15.578434 -18.410877 4.245156
Zn -18.410877 -15.578434 4.245156
Zn -18.410877 -18.410877 7.077598
Zn -15.578434 -15.578434 7.077598
Zn -15.578434 -18.410877 9.910041
Zn -18.410877 -15.578434 9.910041
Zn -18.410877 -18.410877 12.742483
Zn -15.578434 -15.578434 12.742483
Zn -15.578434 -18.410877 15.574926
Zn -18.410877 -15.578434 15.574926
Zn -18.410877 -18.410877 18.407368
Zn -15.578434 -15.578434 18.407368
Zn -15.578434 -18.410877 21.239811
Zn -18.410877 -15.578434 21.239811
Zn -15.578434 -15.578434 24.072254
Zn -15.578434 -9.913549 -32.576597
Zn -15.578434 -12.745991 -29.744155
Zn -18.410877 -9.913549 -29.744155
Zn -18.410877 -12.745991 -26.911712
Zn -15.578434 -9.913549 -26.911712
Zn -15.578434 -12.745991 -24.079270
Zn -18.410877 -9.913549 -24.079270
Zn -18.410877 -12.745991 -21.246827
Zn -15.578434 -9.913549 -21.246827
Zn -15.578434 -12.745991 -18.414385
Zn -18.410877 -9.913549 -18.414385
Zn -18.410877 -12.745991 -15.581942
Zn -15.578434 -9.913549 -15.581942
Zn -15.578434 -12.745991 -12.749499
Zn -18.410877 -9.913549 -12.749499
Zn -18.410877 -12.745991 -9.917057
Zn -15.578434 -9.913549 -9.917057
Zn -15.578434 -12.745991 -7.084614
Zn -18.410877 -9.913549 -7.084614
Zn -18.410877 -12.745991 -4.252172
Zn -15.578434 -9.913549 -4.252172
Zn -15.578434 -12.745991 -1.419729
Zn -18.410877 -9.913549 -1.419729
Zn -18.410877 -12.745991 1.412713
Zn -15.578434 -9.913549 1.412713
Zn -15.578434 -12.745991 4.245156
Zn -18.410877 -9.913549 4.245156
Zn -18.410877 -12.745991 7.077598
Zn -15.578434 -9.913549 7.077598
Zn -15.578434 -12.745991 9.910041
Zn -18.410877 -9.913549 9.910041
Zn -18.410877 -12.745991 12.742483
Zn -15.578434 -9.913549 12.742483
Zn -15.578434 -12.745991 15.574926
Zn -18.410877 -9.913549 15.574926
Zn -18.410877 -12.745991 18.407368
Zn -15.578434 -9.913549 18.407368
Zn -15.578434 -12.745991 21.239811
Zn -18.410877 -9.913549 21.239811
Zn -18.410877 -12.745991 24.072254
Zn -15.578434 -9.913549 24.072254
Zn -15.578434 -12.745991 26.904696
Zn -18.410877 -9.913549 26.904696
Zn -15.578434 -9.913549 29.737139
Zn -18.410877 -7.081106 -32.576597
Zn -15.578434 -4.248664 -32.576597
Zn -15.578434 -7.081106 -29.744155
Zn -18.410877 -4.248664 -29.744155
Zn -18.410877 -7.081106 -26.911712
Zn -15.578434 -4.248664 -26.911712
Zn -15.578434 -7.081106 -24.079270
Zn -18.410877 -4.248664 -24.079270
Zn -18.410877 -7.081106 -21.246827
Zn -15.578434 -4.248664 -21.246827
Zn -15.578434 -7.081106 -18.414385
Zn -18.410877 -4.248664 -18.414385
Zn -18.410877 -7.081106 -15.581942
Zn -15.578434 -4.248664 -15.581942
Zn -15.578434 -7.081106 -12.749499
Zn -18.410877 -4.248664 -12.749499
Zn -18.410877 -7.081106 -9.917057
Zn -15.578434 -4.248664 -9.917057
Zn -15.578434 -7.081106 -7.084614
Zn -18.410877 -4.248664 -7.084614
Zn -18.410877 -7.081106 -4.252172
Zn -15.578434 -4.248664 -4.252172
Zn -15.578434 -7.081106 -1.419729
Zn -18.410877 -4.248664 -1.419729
Zn -18.410877 -7.081106 1.412713
Zn -15.578434 -4.248664 1.412713
Zn -15.578434 -7.081106 4.245156
Zn -18.410877 -4.248664 4.245156
Zn -18.410877 -7.081106 7.077598
Zn -15.578434 -4.248664 7.077598
Zn -15.578434 -7.081106 9.910041
Zn -18.410877 -4.248664 9.910041
Zn -18.410877 -7.081106 12.742483
Zn -15.578434 -4.248664 12.742483
Zn -15.578434 -7.081106 15.574926
Zn -18.410877 -4.248664 15.574926
Zn -18.410877 -7.081106 18.407368
Zn -15.578434 -4.248664 18.407368
Zn -15.578434 -7.081106 21.239811
Zn -18.410877 -4.248664 21.239811
Zn -18.410877 -7.081106 24.072254
Zn -15.578434 -4.248664 24.072254
Zn -15.578434 -7.081106 26.904696
Zn -18.410877 -4.248664 26.904696
Zn -18.410877 -7.081106 29.737139
Zn -15.578434 -4.248664 29.737139
Zn -15.578434 -7.081106 32.569581
Zn -18.410877 -4.248664 32.569581
Zn -18.410877 -1.416221 -32.576597
Zn -15.578434 1.416221 -32.576597
Zn -15.578434 -1.416221 -29.744155
Zn -18.410877 1.416221 -29.744155
Zn -18.410877 -1.416221 -26.911712
Zn -15.578434 1.416221 -26.911712
Zn -15.578434 -1.416221 -24.079270
Zn -18.410877 1.416221 -24.079270
Zn -18.410877 -1.416221 -21.246827
Zn -15.578434 1.416221 -21.246827
Zn -15.578434 -1.416221 -18.414385
Zn -18.410877 1.416221 -18.414385
Zn -18.410877 -1.416221 -15.581942
Zn -15.578434 1.416221 -15.581942
Zn -15.578434 -1.416221 -12.749499
Zn -18.410877 1.416221 -12.749499
Zn -18.410877 -1.416221 -9.917057
Zn -15.578434 1.416221 -9.917057
Zn -15.578434 -1.416221 -7.084614
Zn -18.410877 1.416221 -7.084614
Zn -18.410877 -1.416221 -4.252172
Zn -15.578434 1.416221 -4.252172
Zn -15.578434 -1.416221 -1.419729
Zn -18.410877 1.416221 -1.419729
Zn -18.410877 -1.416221 1.412713
Zn -15.578434 1.416221 1.412713
Zn -15.578434 -1.416221 4.245156
Zn -18.410877 1.416221 4.245156
Zn -18.410877 -1.416221 7.077598
Zn -15.578434 1.416221 7.077598
Zn -15.578434 -1.416221 9.910041
Zn -18.410877 1.416221 9.910041
Zn -18.410877 -1.416221 12.742483
Zn -15.578434 1.416221 12.742483
Zn -15.578434 -1.416221 15.574926
Zn -18.410877 1.416221 15.574926
Zn -18.410877 -1.416221 18.407368
Zn -15.578434 1.416221 18.407368
Zn -15.578434 -1.416221 21.239811
Zn -18.410877 1.416221 21.239811
Zn -18.410877 -1.416221 24.072254
Zn -15.578434 1.416221 24.072254
Zn -15.578434 -1.416221 26.904696
Zn -18.410877 1.416221 26.904696
Zn -18.410877 -1.416221 29.737139
Zn -15.578434 1.416221 29.737139
Zn -15.578434 -1.416221 32.569581
Zn -18.410877 1.416221 32.569581
Zn -18.410877 4.248664 -32.576597
Zn -15.578434 7.081106 -32.576597
Zn -15.578434 4.248664 -29.744155
Zn -18.410877 7.081106 -29.744155
Zn -18.410877 4.248664 -26.911712
Zn -15.578434 7.081106 -26.911712
Zn -15.578434 4.248664 -24.079270
Zn -18.410877 7.081106 -24.079270
Zn -18.410877 4.248664 -21.246827
Zn -15.578434 7.081106 -21.246827
Zn -15.578434 4.248664 -18.414385
Zn -18.410877 7.081106 -18.414385
Zn -18.410877 4.248664 -15.581942
Zn -15.578434 7.081106 -15.581942
Zn -15.578434 4.248664 -12.749499
Zn -18.410877 7.081106 -12.749499
Zn -18.410877 4.248664 -9.917057
Zn -15.578434 7.081106 -9.917057
Zn -15.578434 4.248664 -7.084614
Zn -18.410877 7.081106 -7.084614
Zn -18.410877 4.248664 -4.252172
Zn -15.578434 7.081106 -4.252172
Zn -15.578434 4.248664 -1.419729
Zn -18.410877 7.081106 -1.419729
Zn -18.410877 4.248664 1.412713
Zn -15.578434 7.081106 1.412713
Zn -15.578434 4.248664 4.245156
Zn -18.410877 7.081106 4.245156
Zn -18.410877 4.248664 7.077598
Zn -15.578434 7.081106 7.077598
Zn -15.578434 4.248664 9.910041
Zn -18.410877 7.081106 9.910041
Zn -18.410877 4.248664 12.742483
Zn -15.578434 7.081106 12.742483
Zn -15.578434 4.248664 15.574926
Zn -18.410877 7.081106 15.574926
Zn -18.410877 4.248664 18.407368
Zn -15.578434 7.081106 18.407368
Zn -15.578434 4.248664 21.239811
Zn -18.410877 7.081106 21.239811
Zn -18.410877 4.248664 24.072254
Zn -15.578434 7.081106 24.072254
Zn -15.578434 4.248664 26.904696
Zn -18.410877 7.081106 26.904696
Zn -18.410877 4.248664 29.737139
Zn -15.578434 7.081106 29.737139
Zn -15.578434 4.248664 32.569581
Zn -18.410877 7.081106 32.569581
Zn -15.578434 9.913549 -29.744155
Zn -18.410877 9.913549 -26.911712
Zn -15.578434 12.745991 -26.911712
Zn -15.578434 9.913549 -24.079270
Zn -18.410877 12.745991 -24.079270
Zn -18.410877 9.913549 -21.246827
Zn -15.578434 12.745991 -21.246827
Zn -15.578434 9.913549 -18.414385
Zn -18.410877 12.745991 -18.414385
Zn -18.410877 9.913549 -15.581942
Zn -15.578434 12.745991 -15.581942
Zn -15.578434 9.913549 -12.749499
Zn -18.410877 12.745991 -12.749499
Zn -18.410877 9.913549 -9.917057
Zn -15.578434 12.745991 -9.917057
Zn -15.578434 9.913549 -7.084614
Zn -18.410877 12.745991 -7.084614
Zn -18.410877 9.913549 -4.252172
Zn -15.578434 12.745991 -4.252172
Zn -15.578434 9.913549 -1.419729
Zn -18.410877 12.745991 -1.419729
Zn -18.410877 9.913549 1.412713
Zn -15.578434 12.745991 1.412713
Zn -15.578434 9.913549 4.245156
Zn -18.410877 12.745991 4.245156
Zn -18.410877 9.913549 7.077598
Zn -15.578434 12.745991 7.077598
Zn -15.578434 9.913549 9.910041
Zn -18.410877 12.745991 9.910041
Zn -18.410877 9.913549 12.742483
Zn -15.578434 12.745991 12.742483
Zn -15.578434 9.913549 15.574926
Zn -18.410877 12.745991 15.574926
Zn -18.410877 9.913549 18.407368
Zn -15.578434 12.745991 18.407368
Zn -15.578434 9.913549 21.239811
Zn -18.410877 12.745991 21.239811
Zn -18.410877 9.913549 24.072254
Zn -15.578434 12.745991 24.072254
Zn -15.578434 9.913549 26.904696
Zn -18.410877 12.745991 26.904696
Zn -18.410877 9.913549 29.737139
Zn -15.578434 12.745991 29.737139
Zn -15.578434 9.913549 32.569581
Zn -15.578434 15.578434 -24.079270
Zn -18.410877 15.578434 -21.246827
Zn -15.578434 18.410877 -21.246827
Zn -15.578434 15.578434 -18.414385
Zn -18.410877 18.410877 -18.414385
Zn -18.410877 15.578434 -15.581942
Zn -15.578434 18.410877 -15.581942
Zn -15.578434 15.578434 -12.749499
Zn -18.410877 18.410877 -12.749499
Zn -18.410877 15.578434 -9.917057
Zn -15.578434 18.410877 -9.917057
Zn -15.578434 15.578434 -7.084614
Zn -18.410877 18.410877 -7.084614
Zn -18.410877 15.578434 -4.252172
Zn -15.578434 18.410877 -4.252172
Zn -15.578434 15.578434 -1.419729
Zn -18.410877 18.410877 -1.419729
Zn -18.410877 15.578434 1.412713
Zn -15.578434 18.410877 1.412713
Zn -15.578434 15.578434 4.245156
Zn -18.410877 18.410877 4.245156
Zn -18.410877 15.578434 7.077598
Zn -15.578434 18.410877 7.077598
Zn -15.578434 15.578434 9.910041
Zn -18.410877 18.410877 9.910041
Zn -18.410877 15.578434 12.742483
Zn -15.578434 18.410877 12.742483
Zn -15.578434 15.578434 15.574926
Zn -18.410877 18.410877 15.574926
Zn -18.410877 15.578434 18.407368
Zn -15.578434 18.410877 18.407368
Zn -15.578434 15.578434 21.239811
Zn -18.410877 18.410877 21.239811
Zn -18.410877 15.578434 24.072254
Zn -15.578434 18.410877 24.072254
Zn -15.578434 15.578434 26.904696
Zn -15.578434 21.243319 -18.414385
Zn -18.410877 21.243319 -15.581942
Zn -15.578434 24.075762 -15.581942
Zn -15.578434 21.243319 -12.749499
Zn -18.410877 24.075762 -12.749499
Zn -18.410877 21.243319 -9.917057
Zn -15.578434 24.075762 -9.917057
Zn -15.578434 21.243319 -7.084614
Zn -18.410877 24.075762 -7.084614
Zn -18.410877 21.243319 -4.252172
Zn -15.578434 24.075762 -4.252172
Zn -15.578434 21.243319 -1.419729
Zn -18.410877 24.075762 -1.419729
Zn -18.410877 21.243319 1.412713
Zn -15.578434 24.075762 1.412713
Zn -15.578434 21.243319 4.245156
Zn -18.410877 24.075762 4.245156
Zn -18.410877 21.243319 7.077598
Zn -15.578434 24.075762 7.077598
Zn -15.578434 21.243319 9.910041
Zn -18.410877 24.075762 9.910041
Zn -18.410877 21.243319 12.742483
Zn -15.578434 24.075762 12.742483
Zn -15.578434 21.243319 15.574926
Zn -18.410877 24.075762 15.574926
Zn -18.410877 21.243319 18.407368
Zn -15.578434 24.075762 18.407368
Zn -15.578434 21.243319 21.239811
Zn -15.578434 26.908204 -12.749499
Zn -18.410877 26.908204 -9.917057
Zn -15.578434 29.740647 -9.917057
Zn -15.578434 26.908204 -7.084614
Zn -18.410877 29.740647 -7.084614
Zn -18.410877 26.908204 -4.252172
Zn -15.578434 29.740647 -4.252172
Zn -15.578434 26.908204 -1.419729
Zn -18.410877 29.740647 -1.419729
Zn -18.410877 26.908204 1.412713
Zn -15.578434 29.740647 1.412713
Zn -15.578434 26.908204 4.245156
Zn -18.410877 29.740647 4.245156
Zn -18.410877 26.908204 7.077598
Zn -15.578434 29.740647 7.077598
Zn -15.578434 26.908204 9.910041
Zn -18.410877 29.740647 9.910041
Zn -18.410877 26.908204 12.742483
Zn -15.578434 29.740647 12.742483
Zn -15.578434 26.908204 15.574926
Zn -15.578434 32.573089 -7.084614
Zn -18.410877 32.573089 -4.252172
Zn -15.578434 32.573089 -1.419729
Zn -18.410877 32.573089 1.412713
Zn -15.578434 32.573089 4.245156
Zn -18.410877 32.573089 7.077598
Zn -15.578434 32.573089 9.910041
Zn -9.913549 -32.573089 -15.581942
Zn -12.745991 -32.573089 -12.749499
Zn -9.913549 -32.573089 -9.917057
Zn -12.745991 -32.573089 -7.084614
Zn -9.913549 -32.573089 -4.252172
Zn -12.745991 -32.573089 -1.419729
Zn -9.913549 -32.573089 1.412713
Zn -12.745991 -32.573089 4.245156
Zn -9.913549 -32.573089 7.077598
Zn -12.745991 -32.573089 9.910041
Zn -9.913549 -32.573089 12.742483
Zn -9.913549 -26.908204 -21.246827
Zn -9.913549 -29.740647 -18.414385
Zn -12.745991 -26.908204 -18.414385
Zn -12.745991 -29.740647 -15.581942
Zn -9.913549 -26.908204 -15.581942
Zn -9.913549 -29.740647 -12.749499
Zn -12.745991 -26.908204 -12.749499
Zn -12.745991 -29.740647 -9.917057
Zn -9.913549 -26.908204 -9.917057
Zn -9.913549 -29.740647 -7.084614
Zn -12.745991 -26.908204 -7.084614
Zn -12.745991 -29.740647 -4.252172
Zn -9.913549 -26.908204 -4.252172
Zn -9.913549 -29.740647 -1.419729
Zn -12.745991 -26.908204 -1.419729
Zn -12.745991 -29.740647 1.412713
Zn -9.913549 -26.908204 1.412713
Zn -9.913549 -29.740647 4.245156
Zn -12.745991 -26.908204 4.245156
Zn -12.745991 -29.740647 7.077598
Zn -9.913549 -26.908204 7.077598
Zn -9.913549 -29.740647 9.910041
Zn -12.745991 -26.908204 9.910041
Zn -12.745991 -29.740647 12.742483
Zn -9.913549 -26.908204 12.742483
Zn -9.913549 -29.740647 15.574926
Zn -12.745991 -26.908204 15.574926
Zn -9.913549 -26.908204 18.407368
Zn -9.913549 -21.243319 -26.911712
Zn -9.913549 -24.075762 -24.079270
Zn -12.745991 -21.243319 -24.079270
Zn -12.745991 -24.075762 -21.246827
Zn -9.913549 -21.243319 -21.246827
Zn -9.913549 -24.075762 -18.414385
Zn -12.745991 -21.243319 -18.414385
Zn -12.745991 -24.075762 -15.581942
Zn -9.913549 -21.243319 -15.581942
Zn -9.913549 -24.075762 -12.749499
Zn -12.745991 -21.243319 -12.749499
Zn -12.745991 -24.075762 -9.917057
Zn -9.913549 -21.243319 -9.917057
Zn -9.913549 -24.075762 -7.084614
Zn -12.745991 -21.243319 -7.084614
Zn -12.745991 -24.075762 -4.252172
Zn -9.913549 -21.243319 -4.252172
Zn -9.913549 -24.075762 -1.419729
Zn -12.745991 -21.243319 -1.419729
Zn -12.745991 -24.075762 1.412713
Zn -9.913549 -21.243319 1.412713
Zn -9.913549 -24.075762 4.245156
Zn -12.745991 -21.243319 4.245156
Zn -12.745991 -24.075762 7.077598
Zn -9.913549 -21.243319 7.077598
Zn -9.913549 -24.075762 9.910041
Zn -12.745991 -21.243319 9.910041
Zn -12.745991 -24.075762 12.742483
Zn -9.913549 -21.243319 12.742483
Zn -9.913549 -24.075762 15.574926
Zn -12.745991 -21.243319 15.574926
Zn -12.745991 -24.075762 18.407368
Zn -9.913549 -21.243319 18.407368
Zn -9.913549 -24.075762 21.239811
Zn -12.745991 -21.243319 21.239811
Zn -9.913549 -21.243319 24.072254
Zn -9.913549 -15.578434 -32.576597
Zn -9.913549 -18.410877 -29.744155
Zn -12.745991 -15.578434 -29.744155
Zn -12.745991 -18.410877 -26.911712
Zn -9.913549 -15.578434 -26.911712
Zn -9.913549 -18.410877 -24.079270
Zn -12.745991 -15.578434 -24.079270
Zn -12.745991 -18.410877 -21.246827
Zn -9.913549 -15.578434 -21.246827
Zn -9.913549 -18.410877 -18.414385
Zn -12.745991 -15.578434 -18.414385
Zn -12.745991 -18.410877 -15.581942
Zn -9.913549 -15.578434 -15.581942
Zn -9.913549 -18.410877 -12.749499
Zn -12.745991 -15.578434 -12.749499
Zn -12.745991 -18.410877 -9.917057
Zn -9.913549 -15.578434 -9.917057
Zn -9.913549 -18.410877 -7.084614
Zn -12.745991 -15.578434 -7.084614
Zn -12.745991 -18.410877 -4.252172
Zn -9.913549 -15.578434 -4.252172
Zn -9.913549 -18.410877 -1.419729
Zn -12.745991 -15.578434 -1.419729
Zn -12.745991 -18.410877 1.412713
Zn -9.913549 -15.578434 1.412713
Zn -9.913549 -18.410877 4.245156
Zn -12.745991 -15.578434 4.245156
Zn -12.745991 -18.410877 7.077598
Zn -9.913549 -15.578434 7.077598
Zn -9.913549 -18.410877 9.910041
Zn -12.745991 -15.578434 9.910041
Zn -12.745991 -18.410877 12.742483
Zn -9.913549 -15.578434 12.742483
Zn -9.913549 -18.410877 15.574926
Zn -12.745991 -15.578434 15.574926
Zn -12.745991 -18.410877 18.407368
Zn -9.913549 -15.578434 18.407368
Zn -9.913549 -18.410877 21.239811
Zn -12.745991 -15.578434 21.239811
Zn -12.745991 -18.410877 24.072254
Zn -9.913549 -15.578434 24.072254
Zn -9.913549 -18.410877 26.904696
Zn -12.745991 -15.578434 26.904696
Zn -9.913549 -15.578434 29.737139
Zn -12.745991 -12.745991 -32.576597
Zn -9.913549 -9.913549 -32.576597
Zn -9.913549 -12.745991 -29.744155
Zn -12.745991 -9.913549 -29.744155
Zn -12.745991 -12.745991 -26.911712
Zn -9.913549 -9.913549 -26.911712
Zn -9.913549 -12.745991 -24.079270
Zn -12.745991 -9.913549 -24.079270
Zn -12.745991 -12.745991 -21.246827
Zn -9.913549 -9.913549 -21.246827
Zn -9.913549 -12.745991 -18.414385
Zn -12.745991 -9.913549 -18.414385
Zn -12.745991 -12.745991 -15.581942
Zn -9.913549 -9.913549 -15.581942
Zn -9.913549 -12.745991 -12.749499
Zn -12.745991 -9.913549 -12.749499
Zn -12.745991 -12.745991 -9.917057
Zn -9.913549 -9.913549 -9.917057
Zn -9.913549 -12.745991 -7.084614
Zn -12.745991 -9.913549 -7.084614
Zn -12.745991 -12.745991 -4.252172
Zn -9.913549 -9.913549 -4.252172
Zn -9.913549 -12.745991 -1.419729
Zn -12.745991 -9.913549 -1.419729
Zn -12.745991 -12.745991 1.412713
Zn -9.913549 -9.913549 1.412713
Zn -9.913549 -12.745991 4.245156
Zn -12.745991 -9.913549 4.245156
Zn -12.745991 -12.745991 7.077598
Zn -9.913549 -9.913549 7.077598
Zn -9.913549 -12.745991 9.910041
Zn -12.745991 -9.913549 9.910041
Zn -12.745991 -12.745991 12.742483
Zn -9.913549 -9.913549 12.742483
Zn -9.913549 -12.745991 15.574926
Zn -12.745991 -9.913549 15.574926
Zn -12.745991 -12.745991 18.407368
Zn -9.913549 -9.913549 18.407368
Zn -9.913549 -12.745991 21.239811
Zn -12.745991 -9.913549 21.239811
Zn -12.745991 -12.745991 24.072254
Zn -9.913549 -9.913549 24.072254
Zn -9.913549 -12.745991 26.904696
Zn -12.745991 -9.913549 26.904696
Zn -12.745991 -12.745991 29.737139
Zn -9.913549 -9.913549 29.737139
Zn -9.913549 -12.745991 32.569581
Zn -12.745991 -9.913549 32.569581
Zn -12.745991 -7.081106 -32.576597
Zn -9.913549 -4.248664 -32.576597
Zn -9.913549 -7.081106 -29.744155
Zn -12.745991 -4.248664 -29.744155
Zn -12.745991 -7.081106 -26.911712
Zn -9.913549 -4.248664 -26.911712
Zn -9.913549 -7.081106 -24.079270
Zn -12.745991 -4.248664 -24.079270
Zn -12.745991 -7.081106 -21.246827
Zn -9.913549 -4.248664 -21.246827
Zn -9.913549 -7.081106 -18.414385
Zn -12.745991 -4.248664 -18.414385
Zn -12.745991 -7.081106 -15.581942
Zn -9.913549 -4.248664 -15.581942
Zn -9.913549 -7.081106 -12.749499
Zn -12.745991 -4.248664 -12.749499
Zn -12.745991 -7.081106 -9.917057
Zn -9.913549 -4.248664 -9.917057
Zn -9.913549 -7.081106 -7.084614
Zn -12.745991 -4.248664 -7.084614
Zn -12.745991 -7.081106 -4.252172
Zn -9.913549 -4.248664 -4.252172
Zn -9.913549 -7.081106 -1.419729
Zn -12.745991 -4.248664 -1.419729
Zn -12.745991 -7.081106 1.412713
Zn -9.913549 -4.248664 1.412713
Zn -9.913549 -7.081106 4.245156
Zn -12.745991 -4.248664 4.245156
Zn -12.745991 -7.081106 7.077598
Zn -9.913549 -4.248664 7.077598
Zn -9.913549 -7.081106 9.910041
Zn -12.745991 -4.248664 9.910041
Zn -12.745991 -7.081106 12.742483
Zn -9.913549 -4.248664 12.742483
Zn -9.913549 -7.081106 15.574926
Zn -12.745991 -4.248664 15.574926
Zn -12.745991 -7.081106 18.407368
Zn -9.913549 -4.248664 18.407368
Zn -9.913549 -7.081106 21.239811
Zn -12.745991 -4.248664 21.239811
Zn -12.745991 -7.081106 24.072254
Zn -9.913549 -4.248664 24.072254
Zn -9.913549 -7.081106 26.904696
Zn -12.745991 -4.248664 26.904696
Zn -12.745991 -7.081106 29.737139
Zn -9.913549 -4.248664 29.737139
Zn -9.913549 -7.081106 32.569581
Zn -12.745991 -4.248664 32.569581
Zn -12.745991 -1.416221 -32.576597
Zn -9.913549 1.416221 -32.576597
Zn -9.913549 -1.416221 -29.744155
Zn -12.745991 1.416221 -29.744155
Zn -12.745991 -1.416221 -26.911712
Zn -9.913549 1.416221 -26.911712
Zn -9.913549 -1.416221 -24.079270
Zn -12.745991 1.416221 -24.079270
Zn -12.745991 -1.416221 -21.246827
Zn -9.913549 1.416221 -21.246827
Zn -9.913549 -1.416221 -18.414385
Zn -12.745991 1.416221 -18.414385
Zn -12.745991 -1.416221 -15.581942
Zn -9.913549 1.416221 -15.581942
Zn -9.913549 -1.416221 -12.749499
Zn -12.745991 1.416221 -12.749499
Zn -12.745991 -1.416221 -9.917057
Zn -9.913549 1.416221 -9.917057
Zn -9.913549 -1.416221 -7.084614
Zn -12.745991 1.416221 -7.084614
Zn -12.745991 -1.416221 -4.252172
Zn -9.913549 1.416221 -4.252172
Zn -9.913549 -1.416221 -1.419729
Zn -12.745991 1.416221 -1.419729
Zn -12.745991 -1.416221 1.412713
Zn -9.913549 1.416221 1.412713
Zn -9.913549 -1.416221 4.245156
Zn -12.745991 1.416221 4.245156
Zn -12.745991 -1.416221 7.077598
Zn -9.913549 1.416221 7.077598
Zn -9.913549 -1.416221 9.910041
Zn -12.745991 1.416221 9.910041
Zn -12.745991 -1.416221 12.742483
Zn -9.913549 1.416221 12.742483
Zn -9.913549 -1.416221 15.574926
Zn -12.745991 1.416221 15.574926
Zn -12.745991 -1.416221 18.407368
Zn -9.913549 1.416221 18.407368
Zn -9.913549 -1.416221 21.239811
Zn -12.745991 1.416221 21.239811
Zn -12.745991 -1.416221 24.072254
Zn -9.913549 1.416221 24.072254
Zn -9.913549 -1.416221 26.904696
Zn -12.745991 1.416221 26.904696
Zn -12.745991 -1.416221 29.737139
Zn -9.913549 1.416221 29.737139
Zn -9.913549 -1.416221 32.569581
Zn -12.745991 1.416221 32.569581
Zn -12.745991 4.248664 -32.576597
Zn -9.913549 7.081106 -32.576597
Zn -9.913549 4.248664 -29.744155
Zn -12.745991 7.081106 -29.744155
Zn -12.745991 4.248664 -26.911712
Zn -9.913549 7.081106 -26.911712
Zn -9.913549 4.248664 -24.079270
Zn -12.745991 7.081106 -24.079270
Zn -12.745991 4.248664 -21.246827
Zn -9.913549 7.081106 -21.246827
Zn -9.913549 4.248664 -18.414385
Zn -12.745991 7.081106 -18.414385
Zn -12.745991 4.248664 -15.581942
Zn -9.913549 7.081106 -15.581942
Zn -9.913549 4.248664 -12.749499
Zn -12.745991 7.081106 -12.749499
Zn -12.745991 4.248664 -9.917057
Zn -9.913549 7.081106 -9.917057
Zn -9.913549 4.248664 -7.084614
Zn -12.745991 7.081106 -7.084614
Zn -12.745991 4.248664 -4.252172
Zn -9.913549 7.081106 -4.252172
Zn -9.913549 4.248664 -1.419729
Zn -12.745991 7.081106 -1.419729
Zn -12.745991 4.248664 1.412713
Zn -9.913549 7.081106 1.412713
Zn -9.913549 4.248664 4.245156
Zn -12.745991 7.081106 4.245156
Zn -12.745991 4.248664 7.077598
Zn -9.913549 7.081106 7.077598
Zn -9.913549 4.248664 9.910041
Zn -12.745991 7.081106 9.910041
Zn -12.745991 4.248664 12.742483
Zn -9.913549 7.081106 12.742483
Zn -9.913549 4.248664 15.574926
Zn -12.745991 7.081106 15.574926
Zn -12.745991 4.248664 18.407368
Zn -9.913549 7.081106 18.407368
Zn -9.913549 4.248664 21.239811
Zn -12.745991 7.081106 21.239811
Zn -12.745991 4.248664 24.072254
Zn -9.913549 7.081106 24.072254
Zn -9.913549 4.248664 26.904696
Zn -12.745991 7.081106 26.904696
Zn -12.745991 4.248664 29.737139
Zn -9.913549 7.081106 29.737139
Zn -9.913549 4.248664 32.569581
Zn -12.745991 7.081106 32.569581
Zn -12.745991 9.913549 -32.576597
Zn -9.913549 12.745991 -32.576597
Zn -9.913549 9.913549 -29.744155
Zn -12.745991 12.745991 -29.744155
Zn -12.745991 9.913549 -26.911712
Zn -9.913549 12.745991 -26.911712
Zn -9.913549 9.913549 -24.079270
Zn -12.745991 12.745991 -24.079270
Zn -12.745991 9.913549 -21.246827
Zn -9.913549 12.745991 -21.246827
Zn -9.913549 9.913549 -18.414385
Zn -12.745991 12.745991 -18.414385
Zn -12.745991 9.913549 -15.581942
Zn -9.913549 12.745991 -15.581942
Zn -9.913549 9.913549 -12.749499
Zn -12.745991 12.745991 -12.749499
Zn -12.745991 9.913549 -9.917057
Zn -9.913549 12.745991 -9.917057
Zn -9.913549 9.913549 -7.084614
Zn -12.745991 12.745991 -7.084614
Zn -12.745991 9.913549 -4.252172
Zn -9.913549 12.745991 -4.252172
Zn -9.913549 9.913549 -1.419729
Zn -12.745991 12.745991 -1.419729
Zn -12.745991 9.913549 1.412713
Zn -9.913549 12.745991 1.412713
Zn -9.913549 9.913549 4.245156
Zn -12.745991 12.745991 4.245156
Zn -12.745991 9.913549 7.077598
Zn -9.913549 12.745991 7.077598
Zn -9.913549 9.913549 9.910041
Zn -12.745991 12.745991 9.910041
Zn -12.745991 9.913549 12.742483
Zn -9.913549 12.745991 12.742483
Zn -9.913549 9.913549 15.574926
Zn -12.745991 12.745991 15.574926
Zn -12.745991 9.913549 18.407368
Zn -9.913549 12.745991 18.407368
Zn -9.913549 9.913549 21.239811
Zn -12.745991 12.745991 21.239811
Zn -12.745991 9.913549 24.072254
Zn -9.913549 12.745991 24.072254
Zn -9.913549 9.913549 26.904696
Zn -12.745991 12.745991 26.904696
Zn -12.745991 9.913549 29.737139
Zn -9.913549 12.745991 29.737139
Zn -9.913549 9.913549 32.569581
Zn -12.745991 12.745991 32.569581
Zn -9.913549 15.578434 -29.744155
Zn -12.745991 15.578434 -26.911712
Zn -9.913549 18.410877 -26.911712
Zn -9.913549 15.578434 -24.079270
Zn -12.745991 18.410877 -24.079270
Zn -12.745991 15.578434 -21.246827
Zn -9.913549 18.410877 -21.246827
Zn -9.913549 15.578434 -18.414385
Zn -12.745991 18.410877 -18.414385
Zn -12.745991 15.578434 -15.581942
Zn -9.913549 18.410877 -15.581942
Zn -9.913549 15.578434 -12.749499
Zn -12.745991 18.410877 -12.749499
Zn -12.745991 15.578434 -9.917057
Zn -9.913549 18.410877 -9.917057
Zn -9.913549 15.578434 -7.084614
Zn -12.745991 18.410877 -7.084614
Zn -12.745991 15.578434 -4.252172
Zn -9.913549 18.410877 -4.252172
Zn -9.913549 15.578434 -1.419729
Zn -12.745991 18.410877 -1.419729
Zn -12.745991 15.578434 1.412713
Zn -9.913549 18.410877 1.412713
Zn -9.913549 15.578434 4.245156
Zn -12.745991 18.410877 4.245156
Zn -12.745991 15.578434 7.077598
Zn -9.913549 18.410877 7.077598
Zn -9.913549 15.578434 9.910041
Zn -12.745991 18.410877 9.910041
Zn -12.745991 15.578434 12.742483
Zn -9.913549 18.410877 12.742483
Zn -9.913549 15.578434 15.574926
Zn -12.745991 18.410877 15.574926
Zn -12.745991 15.578434 18.407368
Zn -9.913549 18.410877 18.407368
Zn -9.913549 15.578434 21.239811
Zn -12.745991 18.410877 21.239811
Zn -12.745991 15.578434 24.072254
Zn -9.913549 18.410877 24.072254
Zn -9.913549 15.578434 26.904696
Zn -12.745991 18.410877 26.904696
Zn -12.745991 15.578434 29.737139
Zn -9.913549 18.410877 29.737139
Zn -9.913549 15.578434 32.569581
Zn -9.913549 21.243319 -24.079270
Zn -12.745991 21.243319 -21.246827
Zn -9.913549 24.075762 -21.246827
Zn -9.913549 21.243319 -18.414385
Zn -12.745991 24.075762 -18.414385
Zn -12.745991 21.243319 -15.581942
Zn -9.913549 24.075762 -15.581942
Zn -9.913549 21.243319 -12.749499
Zn -12.745991 24.075762 -12.749499
Zn -12.745991 21.243319 -9.917057
Zn -9.913549 24.075762 -9.917057
Zn -9.913549 21.243319 -7.084614
Zn -12.745991 24.075762 -7.084614
Zn -12.745991 21.243319 -4.252172
Zn -9.913549 24.075762 -4.252172
Zn -9.913549 21.243319 -1.419729
Zn -12.745991 24.075762 -1.419729
Zn -12.745991 21.243319 1.412713
Zn -9.913549 24.075762 1.412713
Zn -9.913549 21.243319 4.245156
Zn -12.745991 24.075762 4.245156
Zn -12.745991 21.243319 7.077598
Zn -9.913549 24.075762 7.077598
Zn -9.913549 21.243319 9.910041
Zn -12.745991 24.075762 9.910041
Zn -12.745991 21.243319 12.742483
Zn -9.913549 24.075762 12.742483
Zn -9.913549 21.243319 15.574926
Zn -12.745991 24.075762 15.574926
Zn -12.745991 21.243319 18.407368
Zn -9.913549 24.075762 18.407368
Zn -9.913549 21.243319 21.239811
Zn -12.745991 24.075762 21.239811
Zn -12.745991 21.243319 24.072254
Zn -9.913549 24.075762 24.072254
Zn -9.913549 21.243319 26.904696
Zn -9.913549 26.908204 -18.414385
Zn -12.745991 26.908204 -15.581942
Zn -9.913549 29.740647 -15.581942
Zn -9.913549 26.908204 -12.749499
Zn -12.745991 29.740647 -12.749499
Zn -12.745991 26.908204 -9.917057
Zn -9.913549 29.740647 -9.917057
Zn -9.913549 26.908204 -7.084614
Zn -12.745991 29.740647 -7.084614
Zn -12.745991 26.908204 -4.252172
Zn -9.913549 29.740647 -4.252172
Zn -9.913549 26.908204 -1.419729
Zn -12.745991 29.740647 -1.419729
Zn -12.745991 26.908204 1.412713
Zn -9.913549 29.740647 1.412713
Zn -9.913549 26.908204 4.245156
Zn -12.745991 29.740647 4.245156
Zn -12.745991 26.908204 7.077598
Zn -9.913549 29.740647 7.077598
Zn -9.913549 26.908204 9.910041
Zn -12.745991 29.740647 9.910041
Zn -12.745991 26.908204 12.742483
Zn -9.913549 29.740647 12.742483
Zn -9.913549 26.908204 15.574926
Zn -12.745991 29.740647 15.574926
Zn -12.745991 26.908204 18.407368
Zn -9.913549 29.740647 18.407368
Zn -9.913549 26.908204 21.239811
Zn -9.913549 32.573089 -12.749499
Zn -12.745991 32.573089 -9.917057
Zn -9.913549 32.573089 -7.084614
Zn -12.745991 32.573089 -4.252172
Zn -9.913549 32.573089 -1.419729
Zn -12.745991 32.573089 1.412713
Zn -9.913549 32.573089 4.245156
Zn -12.745991 32.573089 7.077598
Zn -9.913549 32.573089 9.910041
Zn -12.745991 32.573089 12.742483
Zn -9.913549 32.573089 15.574926
Zn -4.248664 -32.573089 -21.246827
Zn -7.081106 -32.573089 -18.414385
Zn -4.248664 -32.573089 -15.581942
Zn -7.081106 -32.573089 -12.749499
Zn -4.248664 -32.573089 -9.917057
Zn -7.081106 -32.573089 -7.084614
Zn -4.248664 -32.573089 -4.252172
Zn -7.081106 -32.573089 -1.419729
Zn -4.248664 -32.573089 1.412713
Zn -7.081106 -32.573089 4.245156
Zn -4.248664 -32.573089 7.077598
Zn -7.081106 -32.573089 9.910041
Zn -4.248664 -32.573089 12.742483
Zn -7.081106 -32.573089 15.574926
Zn -4.248664 -32.573089 18.407368
Zn -4.248664 -26.908204 -26.911712
Zn -4.248664 -29.740647 -24.079270
Zn -7.081106 -26.908204 -24.079270
Zn -7.081106 -29.740647 -21.246827
Zn -4.248664 -26.908204 -21.246827
Zn -4.248664 -29.740647 -18.414385
Zn -7.081106 -26.908204 -18.414385
Zn -7.081106 -29.740647 -15.581942
Zn -4.248664 -26.908204 -15.581942
Zn -4.248664 -29.740647 -12.749499
Zn -7.081106 -26.908204 -12.749499
Zn -7.081106 -29.740647 -9.917057
Zn -4.248664 -26.908204 -9.917057
Zn -4.248664 -29.740647 -7.084614
Zn -7.081106 -26.908204 -7.084614
Zn -7.081106 -29.740647 -4.252172
Zn -4.248664 -26.908204 -4.252172
Zn -4.248664 -29.740647 -1.419729
Zn -7.081106 -26.908204 -1.419729
Zn -7.081106 -29.740647 1.412713
Zn -4.248664 -26.908204 1.412713
Zn -4.248664 -29.740647 4.245156
Zn -7.081106 -26.908204 4.245156
Zn -7.081106 -29.740647 7.077598
Zn -4.248664 -26.908204 7.077598
Zn -4.248664 -29.740647 9.910041
Zn -7.081106 -26.908204 9.910041
Zn -7.081106 -29.740647 12.742483
Zn -4.248664 -26.908204 12.742483
Zn -4.248664 -29.740647 15.574926
Zn -7.081106 -26.908204 15.574926
Zn -7.081106 -29.740647 18.407368
Zn -4.248664 -26.908204 18.407368
Zn -4.248664 -29.740647 21.239811
Zn -7.081106 -26.908204 21.239811
Zn -4.248664 -26.908204 24.072254
Zn -4.248664 -21.243319 -32.576597
Zn -4.248664 -24.075762 -29.744155
Zn -7.081106 -21.243319 -29.744155
Zn -7.081106 -24.075762 -26.911712
Zn -4.248664 -21.243319 -26.911712
Zn -4.248664 -24.075762 -24.079270
Zn -7.081106 -21.243319 -24.079270
Zn -7.081106 -24.075762 -21.246827
Zn -4.248664 -21.243319 -21.246827
Zn -4.248664 -24.075762 -18.414385
Zn -7.081106 -21.243319 -18.414385
Zn -7.081106 -24.075762 -15.581942
Zn -4.248664 -21.243319 -15.581942
Zn -4.248664 -24.075762 -12.749499
Zn -7.081106 -21.243319 -12.749499
Zn -7.081106 -24.075762 -9.917057
Zn -4.248664 -21.243319 -9.917057
Zn -4.248664 -24.075762 -7.084614
Zn -7.081106 -21.243319 -7.084614
Zn -7.081106 -24.075762 -4.252172
Zn -4.248664 -21.243319 -4.252172
Zn -4.248664 -24.075762 -1.419729
Zn -7.081106 -21.243319 -1.419729
Zn -7.081106 -24.075762 1.412713
Zn -4.248664 -21.243319 1.412713
Zn -4.248664 -24.075762 4.245156
Zn -7.081106 -21.243319 4.245156
Zn -7.081106 -24.075762 7.077598
Zn -4.248664 -21.243319 7.077598
Zn -4.248664 -24.075762 9.910041
Zn -7.081106 -21.243319 9.910041
Zn -7.081106 -24.075762 12.742483
Zn -4.248664 -21.243319 12.742483
Zn -4.248664 -24.075762 15.574926
Zn -7.081106 -21.243319 15.574926
Zn -7.081106 -24.075762 18.407368
Zn -4.248664 -21.243319 18.407368
Zn -4.248664 -24.075762 21.239811
Zn -7.081106 -21.243319 21.239811
Zn -7.081106 -24.075762 24.072254
Zn -4.248664 -21.243319 24.072254
Zn -4.248664 -24.075762 26.904696
Zn -7.081106 -21.243319 26.904696
Zn -4.248664 -21.243319 29.737139
Zn -7.081106 -18.410877 -32.576597
Zn -4.248664 -15.578434 -32.576597
Zn -4.248664 -18.410877 -29.744155
Zn -7.081106 -15.578434 -29.744155
Zn -7.081106 -18.410877 -26.911712
Zn -4.248664 -15.578434 -26.911712
Zn -4.248664 -18.410877 -24.079270
Zn -7.081106 -15.578434 -24.079270
Zn -7.081106 -18.410877 -21.246827
Zn -4.248664 -15.578434 -21.246827
Zn -4.248664 -18.410877 -18.414385
Zn -7.081106 -15.578434 -18.414385
Zn -7.081106 -18.410877 -15.581942
Zn -4.248664 -15.578434 -15.581942
Zn -4.248664 -18.410877 -12.749499
Zn -7.081106 -15.578434 -12.749499
Zn -7.081106 -18.410877 -9.917057
Zn -4.248664 -15.578434 -9.917057
Zn -4.248664 -18.410877 -7.084614
Zn -7.081106 -15.578434 -7.084614
Zn -7.081106 -18.410877 -4.252172
Zn -4.248664 -15.578434 -4.252172
Zn -4.248664 -18.410877 -1.419729
Zn -7.081106 -15.578434 -1.419729
Zn -7.081106 -18.410877 1.412713
Zn -4.248664 -15.578434 1.412713
Zn -4.248664 -18.410877 4.245156
Zn -7.081106 -15.578434 4.245156
Zn -7.081106 -18.410877 7.077598
Zn -4.248664 -15.578434 7.077598
Zn -4.248664 -18.410877 9.910041
Zn -7.081106 -15.578434 9.910041
Zn -7.081106 -18.410877 12.742483
Zn -4.248664 -15.578434 12.742483
Zn -4.248664 -18.410877 15.574926
Zn -7.081106 -15.578434 15.574926
Zn -7.081106 -18.410877 18.407368
Zn -4.248664 -15.578434 18.407368
Zn -4.248664 -18.410877 21.239811
Zn -7.081106 -15.578434 21.239811
Zn -7.081106 -18.410877 24.072254
Zn -4.248664 -15.578434 24.072254
Zn -4.248664 -18.410877 26.904696
Zn -7.081106 -15.578434 26.904696
Zn -7.081106 -18.410877 29.737139
Zn -4.248664 -15.578434 29.737139
Zn -4.248664 -18.410877 32.569581
Zn -7.081106 -15.578434 32.569581
Zn -7.081106 -12.745991 -32.576597
Zn -4.248664 -9.913549 -32.576597
Zn -4.248664 -12.745991 -29.744155
Zn -7.081106 -9.913549 -29.744155
Zn -7.081106 -12.745991 -26.911712
Zn -4.248664 -9.913549 -26.911712
Zn -4.248664 -12.745991 -24.079270
Zn -7.081106 -9.913549 -24.079270
Zn -7.081106 -12.745991 -21.246827
Zn -4.248664 -9.913549 -21.246827
Zn -4.248664 -12.745991 -18.414385
Zn -7.081106 -9.913549 -18.414385
Zn -7.081106 -12.745991 -15.581942
Zn -4.248664 -9.913549 -15.581942
Zn -4.248664 -12.745991 -12.749499
Zn -7.081106 -9.913549 -12.749499
Zn -7.081106 -12.745991 -9.917057
Zn -4.248664 -9.913549 -9.917057
Zn -4.248664 -12.745991 -7.084614
Zn -7.081106 -9.913549 -7.084614
Zn -7.081106 -12.745991 -4.252172
Zn -4.248664 -9.913549 -4.252172
Zn -4.248664 -12.745991 -1.419729
Zn -7.081106 -9.913549 -1.419729
Zn -7.081106 -12.745991 1.412713
Zn -4.248664 -9.913549 1.412713
Zn -4.248664 -12.745991 4.245156
Zn -7.081106 -9.913549 4.245156
Zn -7.081106 -12.745991 7.077598
Zn -4.248664 -9.913549 7.077598
Zn -4.248664 -12.745991 9.910041
Zn -7.081106 -9.913549 9.910041
Zn -7.081106 -12.745991 12.742483
Zn -4.248664 -9.913549 12.742483
Zn -4.248664 -12.745991 15.574926
Zn -7.081106 -9.913549 15.574926
Zn -7.081106 -12.745991 18.407368
Zn -4.248664 -9.913549 18.407368
Zn -4.248664 -12.745991 21.239811
Zn -7.081106 -9.913549 21.239811
Zn -7.081106 -12.745991 24.072254
Zn -4.248664 -9.913549 24.072254
Zn -4.248664 -12.745991 26.904696
Zn -7.081106 -9.913549 26.904696
Zn -7.081106 -12.745991 29.737139
Zn -4.248664 -9.913549 29.737139
Zn -4.248664 -12.745991 32.569581
Zn -7.081106 -9.913549 32.569581
Zn -7.081106 -7.081106 -32.576597
Zn -4.248664 -4.248664 -32.576597
Zn -4.248664 -7.081106 -29.744155
Zn -7.081106 -4.248664 -29.744155
Zn -7.081106 -7.081106 -26.911712
Zn -4.248664 -4.248664 -26.911712
Zn -4.248664 -7.081106 -24.079270
Zn -7.081106 -4.248664 -24.079270
Zn -7.081106 -7.081106 -21.246827
Zn -4.248664 -4.248664 -21.246827
Zn -4.248664 -7.081106 -18.414385
Zn -7.081106 -4.248664 -18.414385
Zn -7.081106 -7.081106 -15.581942
Zn -4.248664 -4.248664 -15.581942
Zn -4.248664 -7.081106 -12.749499
Zn -7.081106 -4.248664 -12.749499
Zn -7.081106 -7.081106 -9.917057
Zn -4.248664 -4.248664 -9.917057
Zn -4.248664 -7.081106 -7.084614
Zn -7.081106 -4.248664 -7.084614
Zn -7.081106 -7.081106 -4.252172
Zn -4.248664 -4.248664 -4.252172
Zn -4.248664 -7.081106 -1.419729
Zn -7.081106 -4.248664 -1.419729
Zn -7.081106 -7.081106 1.412713
Zn -4.248664 -4.248664 1.412713
Zn -4.248664 -7.081106 4.245156
Zn -7.081106 -4.248664 4.245156
Zn -7.081106 -7.081106 7.077598
Zn -4.248664 -4.248664 7.077598
Zn -4.248664 -7.081106 9.910041
Zn -7.081106 -4.248664 9.910041
Zn -7.081106 -7.081106 12.742483
Zn -4.248664 -4.248664 12.742483
Zn -4.248664 -7.081106 15.574926
Zn -7.081106 -4.248664 15.574926
Zn -7.081106 -7.081106 18.407368
Zn -4.248664 -4.248664 18.407368
Zn -4.248664 -7.081106 21.239811
Zn -7.081106 -4.248664 21.239811
Zn -7.081106 -7.081106 24.072254
Zn -4.248664 -4.248664 24.072254
Zn -4.248664 -7.081106 26.904696
Zn -7.081106 -4.248664 26.904696
Zn -7.081106 -7.081106 29.737139
Zn -4.248664 -4.248664 29.737139
Zn -4.248664 -7.081106 32.569581
Zn -7.081106 -4.248664 32.569581
Zn -7.081106 -1.416221 -32.576597
Zn -4.248664 1.416221 -32.576597
Zn -4.248664 -1.416221 -29.744155
Zn -7.081106 1.416221 -29.744155
Zn -7.081106 -1.416221 -26.911712
Zn -4.248664 1.416221 -26.911712
Zn -4.248664 -1.416221 -24.079270
Zn -7.081106 1.416221 -24.079270
Zn -7.081106 -1.416221 -21.246827
Zn -4.248664 1.416221 -21.246827
Zn -4.248664 -1.416221 -18.414385
Zn -7.081106 1.416221 -18.414385
Zn -7.081106 -1.416221 -15.581942
Zn -4.248664 1.416221 -15.581942
Zn -4.248664 -1.416221 -12.749499
Zn -7.081106 1.416221 -12.749499
Zn -7.081106 -1.416221 -9.917057
Zn -4.248664 1.416221 -9.917057
Zn -4.248664 -1.416221 -7.084614
Zn -7.081106 1.416221 -7.084614
Zn -7.081106 -1.416221 -4.252172
Zn -4.248664 1.416221 -4.252172
Zn -4.248664 -1.416221 -1.419729
Zn -7.081106 1.416221 -1.419729
Zn -7.081106 -1.416221 1.412713
Zn -4.248664 1.416221 1.412713
Zn -4.248664 -1.416221 4.245156
Zn -7.081106 1.416221 4.245156
Zn -7.081106 -1.416221 7.077598
Zn -4.248664 1.416221 7.077598
Zn -4.248664 -1.416221 9.910041
Zn -7.081106 1.416221 9.910041
Zn -7.081106 -1.416221 12.742483
Zn -4.248664 1.416221 12.742483
Zn -4.248664 -1.416221 15.574926
Zn -7.081106 1.416221 15.574926
Zn -7.081106 -1.416221 18.407368
Zn -4.248664 1.416221 18.407368
Zn -4.248664 -1.416221 21.239811
Zn -7.081106 1.416221 21.239811
Zn -7.081106 -1.416221 24.072254
Zn -4.248664 1.416221 24.072254
Zn -4.248664 -1.416221 26.904696
Zn -7.081106 1.416221 26.904696
Zn -7.081106 -1.416221 29.737139
Zn -4.248664 1.416221 29.737139
Zn -4.248664 -1.416221 32.569581
Zn -7.081106 1.416221 32.569581
Zn -7.081106 4.248664 -32.576597
Zn -4.248664 7.081106 -32.576597
Zn -4.248664 4.248664 -29.744155
Zn -7.081106 7.081106 -29.744155
Zn -7.081106 4.248664 -26.911712
Zn -4.248664 7.081106 -26.911712
Zn -4.248664 4.248664 -24.079270
Zn -7.081106 7.081106 -24.079270
Zn -7.081106 4.248664 -21.246827
Zn -4.248664 7.081106 -21.246827
Zn -4.248664 4.248664 -18.414385
Zn -7.081106 7.081106 -18.414385
Zn -7.081106 4.248664 -15.581942
Zn -4.248664 7.081106 -15.581942
Zn -4.248664 4.248664 -12.749499
Zn -7.081106 7.081106 -12.749499
Zn -7.081106 4.248664 -9.917057
Zn -4.248664 7.081106 -9.917057
Zn -4.248664 4.248664 -7.084614
Zn -7.081106 7.081106 -7.084614
Zn -7.081106 4.248664 -4.252172
Zn -4.248664 7.081106 -4.252172
Zn -4.248664 4.248664 -1.419729
Zn -7.081106 7.081106 -1.419729
Zn -7.081106 4.248664 1.412713
Zn -4.248664 7.081106 1.412713
Zn -4.248664 4.248664 4.245156
Zn -7.081106 7.081106 4.245156
Zn -7.081106 4.248664 7.077598
Zn -4.248664 7.081106 7.077598
Zn -4.248664 4.248664 9.910041
Zn -7.081106 7.081106 9.910041
Zn -7.081106 4.248664 12.742483
Zn -4.248664 7.081106 12.742483
Zn -4.248664 4.248664 15.574926
Zn -7.081106 7.081106 15.574926
Zn -7.081106 4.248664 18.407368
Zn -4.248664 7.081106 18.407368
Zn -4.248664 4.248664 21.239811
Zn -7.081106 7.081106 21.239811
Zn -7.081106 4.248664 24.072254
Zn -4.248664 7.081106 24.072254
Zn -4.248664 4.248664 26.904696
Zn -7.081106 7.081106 26.904696
Zn -7.081106 4.248664 29.737139
Zn -4.248664 7.081106 29.737139
Zn -4.248664 4.248664 32.569581
Zn -7.081106 7.081106 32.569581
Zn -7.081106 9.913549 -32.576597
Zn -4.248664 12.745991 -32.576597
Zn -4.248664 9.913549 -29.744155
Zn -7.081106 12.745991 -29.744155
Zn -7.081106 9.913549 -26.911712
Zn -4.248664 12.745991 -26.911712
Zn -4.248664 9.913549 -24.079270
Zn -7.081106 12.745991 -24.079270
Zn -7.081106 9.913549 -21.246827
Zn -4.248664 12.745991 -21.246827
Zn -4.248664 9.913549 -18.414385
Zn -7.081106 12.745991 -18.414385
Zn -7.081106 9.913549 -15.581942
Zn -4.248664 12.745991 -15.581942
Zn -4.248664 9.913549 -12.749499
Zn -7.081106 12.745991 -12.749499
Zn -7.081106 9.913549 -9.917057
Zn -4.248664 12.745991 -9.917057
Zn -4.248664 9.913549 -7.084614
Zn -7.081106 12.745991 -7.084614
Zn -7.081106 9.913549 -4.252172
Zn -4.248664 12.745991 -4.252172
Zn -4.248664 9.913549 -1.419729
Zn -7.081106 12.745991 -1.419729
Zn -7.081106 9.913549 1.412713
Zn -4.248664 12.745991 1.412713
Zn -4.248664 9.913549 4.245156
Zn -7.081106 12.745991 4.245156
Zn -7.081106 9.913549 7.077598
Zn -4.248664 12.745991 7.077598
Zn -4.248664 9.913549 9.910041
Zn -7.081106 12.745991 9.910041
Zn -7.081106 9.913549 12.742483
Zn -4.248664 12.745991 12.742483
Zn -4.248664 9.913549 15.574926
Zn -7.081106 12.745991 15.574926
Zn -7.081106 9.913549 18.407368
Zn -4.248664 12.745991 18.407368
Zn -4.248664 9.913549 21.239811
Zn -7.081106 12.745991 21.239811
Zn -7.081106 9.913549 24.072254
Zn -4.248664 12.745991 24.072254
Zn -4.248664 9.913549 26.904696
Zn -7.081106 12.745991 26.904696
Zn -7.081106 9.913549 29.737139
Zn -4.248664 12.745991 29.737139
Zn -4.248664 9.913549 32.569581
Zn -7.081106 12.745991 32.569581
Zn -7.081106 15.578434 -32.576597
Zn -4.248664 18.410877 -32.576597
Zn -4.248664 15.578434 -29.744155
Zn -7.081106 18.410877 -29.744155
Zn -7.081106 15.578434 -26.911712
Zn -4.248664 18.410877 -26.911712
Zn -4.248664 15.578434 -24.079270
Zn -7.081106 18.410877 -24.079270
Zn -7.081106 15.578434 -21.246827
Zn -4.248664 18.410877 -21.246827
Zn -4.248664 15.578434 -18.414385
Zn -7.081106 18.410877 -18.414385
Zn -7.081106 15.578434 -15.581942
Zn -4.248664 18.410877 -15.581942
Zn -4.248664 15.578434 -12.749499
Zn -7.081106 18.410877 -12.749499
Zn -7.081106 15.578434 -9.917057
Zn -4.248664 18.410877 -9.917057
Zn -4.248664 15.578434 -7.084614
Zn -7.081106 18.410877 -7.084614
Zn -7.081106 15.578434 -4.252172
Zn -4.248664 18.410877 -4.252172
Zn -4.248664 15.578434 -1.419729
Zn -7.081106 18.410877 -1.419729
Zn -7.081106 15.578434 1.412713
Zn -4.248664 18.410877 1.412713
Zn -4.248664 15.578434 4.245156
Zn -7.081106 18.410877 4.245156
Zn -7.081106 15.578434 7.077598
Zn -4.248664 18.410877 7.077598
Zn -4.248664 15.578434 9.910041
Zn -7.081106 18.410877 9.910041
Zn -7.081106 15.578434 12.742483
Zn -4.248664 18.410877 12.742483
Zn -4.248664 15.578434 15.574926
Zn -7.081106 18.410877 15.574926
Zn -7.081106 15.578434 18.407368
Zn -4.248664 18.410877 18.407368
Zn -4.248664 15.578434 21.239811
Zn -7.081106 18.410877 21.239811
Zn -7.081106 15.578434 24.072254
Zn -4.248664 18.410877 24.072254
Zn -4.248664 15.578434 26.904696
Zn -7.081106 18.410877 26.904696
Zn -7.081106 15.578434 29.737139
Zn -4.248664 18.410877 29.737139
Zn -4.248664 15.578434 32.569581
Zn -7.081106 18.410877 32.569581
Zn -4.248664 21.243319 -29.744155
Zn -7.081106 21.243319 -26.911712
Zn -4.248664 24.075762 -26.911712
Zn -4.248664 21.243319 -24.079270
Zn -7.081106 24.075762 -24.079270
Zn -7.081106 21.243319 -21.246827
Zn -4.248664 24.075762 -21.246827
Zn -4.248664 21.243319 -18.414385
Zn -7.081106 24.075762 -18.414385
Zn -7.081106 21.243319 -15.581942
Zn -4.248664 24.075762 -15.581942
Zn -4.248664 21.243319 -12.749499
Zn -7.081106 24.075762 -12.749499
Zn -7.081106 21.243319 -9.917057
Zn -4.248664 24.075762 -9.917057
Zn -4.248664 21.243319 -7.084614
Zn -7.081106 24.075762 -7.084614
Zn -7.081106 21.243319 -4.252172
Zn -4.248664 24.075762 -4.252172
Zn -4.248664 21.243319 -1.419729
Zn -7.081106 24.075762 -1.419729
Zn -7.081106 21.243319 1.412713
Zn -4.248664 24.075762 1.412713
Zn -4.248664 21.243319 4.245156
Zn -7.081106 24.075762 4.245156
Zn -7.081106 21.243319 7.077598
Zn -4.248664 24.075762 7.077598
Zn -4.248664 21.243319 9.910041
Zn -7.081106 24.075762 9.910041
Zn -7.081106 21.243319 12.742483
Zn -4.248664 24.075762 12.742483
Zn -4.248664 21.243319 15.574926
Zn -7.081106 24.075762 15.574926
Zn -7.081106 21.243319 18.407368
Zn -4.248664 24.075762 18.407368
Zn -4.248664 21.243319 21.239811
Zn -7.081106 24.075762 21.239811
Zn -7.081106 21.243319 24.072254
Zn -4.248664 24.075762 24.072254
Zn -4.248664 21.243319 26.904696
Zn -7.081106 24.075762 26.904696
Zn -7.081106 21.243319 29.737139
Zn -4.248664 24.075762 29.737139
Zn -4.248664 21.243319 32.569581
Zn -4.248664 26.908204 -24.079270
Zn -7.081106 26.908204 -21.246827
Zn -4.248664 29.740647 -21.246827
Zn -4.248664 26.908204 -18.414385
Zn -7.081106 29.740647 -18.414385
Zn -7.081106 26.908204 -15.581942
Zn -4.248664 29.740647 -15.581942
Zn -4.248664 26.908204 -12.749499
Zn -7.081106 29.740647 -12.749499
Zn -7.081106 26.908204 -9.917057
Zn -4.248664 29.740647 -9.917057
Zn -4.248664 26.908204 -7.084614
Zn -7.081106 29.740647 -7.084614
Zn -7.081106 26.908204 -4.252172
Zn -4.248664 29.740647 -4.252172
Zn -4.248664 26.908204 -1.419729
Zn -7.081106 29.740647 -1.419729
Zn -7.081106 26.908204 1.412713
Zn -4.248664 29.740647 1.412713
Zn -4.248664 26.908204 4.245156
Zn -7.081106 29.740647 4.245156
Zn -7.081106 26.908204 7.077598
Zn -4.248664 29.740647 7.077598
Zn -4.248664 26.908204 9.910041
Zn -7.081106 29.740647 9.910041
Zn -7.081106 26.908204 12.742483
Zn -4.248664 29.740647 12.742483
Zn -4.248664 26.908204 15.574926
Zn -7.081106 29.740647 15.574926
Zn -7.081106 26.908204 18.407368
Zn -4.248664 29.740647 18.407368
Zn -4.248664 26.908204 21.239811
Zn -7.081106 29.740647 21.239811
Zn -7.081106 26.908204 24.072254
Zn -4.248664 29.740647 24.072254
Zn -4.248664 26.908204 26.904696
Zn -4.248664 32.573089 -18.414385
Zn -7.081106 32.573089 -15.581942
Zn -4.248664 32.573089 -12.749499
Zn -7.081106 32.573089 -9.917057
Zn -4.248664 32.573089 -7.084614
Zn -7.081106 32.573089 -4.252172
Zn -4.248664 32.573089 -1.419729
Zn -7.081106 32.573089 1.412713
Zn -4.248664 32.573089 4.245156
Zn -7.081106 32.573089 7.077598
Zn -4.248664 32.573089 9.910041
Zn -7.081106 32.573089 12.742483
Zn -4.248664 32.573089 15.574926
Zn -7.081106 32.573089 18.407368
Zn -4.248664 32.573089 21.239811
Zn -1.416221 -32.573089 -24.079270
Zn 1.416221 -32.573089 -21.246827
Zn -1.416221 -32.573089 -18.414385
Zn 1.416221 -32.573089 -15.581942
Zn -1.416221 -32.573089 -12.749499
Zn 1.416221 -32.573089 -9.917057
Zn -1.416221 -32.573089 -7.084614
Zn 1.416221 -32.573089 -4.252172
Zn -1.416221 -32.573089 -1.419729
Zn 1.416221 -32.573089 1.412713
Zn -1.416221 -32.573089 4.245156
Zn 1.416221 -32.573089 7.077598
Zn -1.416221 -32.573089 9.910041
Zn 1.416221 -32.573089 12.742483
Zn -1.416221 -32.573089 15.574926
Zn 1.416221 -32.573089 18.407368
Zn -1.416221 -32.573089 21.239811
Zn 1.416221 -32.573089 24.072254
Zn -1.416221 -26.908204 -29.744155
Zn -1.416221 -29.740647 -26.911712
Zn 1.416221 -26.908204 -26.911712
Zn 1.416221 -29.740647 -24.079270
Zn -1.416221 -26.908204 -24.079270
Zn -1.416221 -29.740647 -21.246827
Zn 1.416221 -26.908204 -21.246827
Zn 1.416221 -29.740647 -18.414385
Zn -1.416221 -26.908204 -18.414385
Zn -1.416221 -29.740647 -15.581942
Zn 1.416221 -26.908204 -15.581942
Zn 1.416221 -29.740647 -12.749499
Zn -1.416221 -26.908204 -12.749499
Zn -1.416221 -29.740647 -9.917057
Zn 1.416221 -26.908204 -9.917057
Zn 1.416221 -29.740647 -7.084614
Zn -1.416221 -26.908204 -7.084614
Zn -1.416221 -29.740647 -4.252172
Zn 1.416221 -26.908204 -4.252172
Zn 1.416221 -29.740647 -1.419729
Zn -1.416221 -26.908204 -1.419729
Zn -1.416221 -29.740647 1.412713
Zn 1.416221 -26.908204 1.412713
Zn 1.416221 -29.740647 4.245156
Zn -1.416221 -26.908204 4.245156
Zn -1.416221 -29.740647 7.077598
Zn 1.416221 -26.908204 7.077598
Zn 1.416221 -29.740647 9.910041
Zn -1.416221 -26.908204 9.910041
Zn -1.416221 -29.740647 12.742483
Zn 1.416221 -26.908204 12.742483
Zn 1.416221 -29.740647 15.574926
Zn -1.416221 -26.908204 15.574926
Zn -1.416221 -29.740647 18.407368
Zn 1.416221 -26.908204 18.407368
Zn 1.416221 -29.740647 21.239811
Zn -1.416221 -26.908204 21.239811
Zn -1.416221 -29.740647 24.072254
Zn 1.416221 -26.908204 24.072254
Zn 1.416221 -29.740647 26.904696
Zn -1.416221 -26.908204 26.904696
Zn 1.416221 -26.908204 29.737139
Zn -1.416221 -24.075762 -32.576597
Zn 1.416221 -21.243319 -32.576597
Zn 1.416221 -24.075762 -29.744155
Zn -1.416221 -21.243319 -29.744155
Zn -1.416221 -24.075762 -26.911712
Zn 1.416221 -21.243319 -26.911712
Zn 1.416221 -24.075762 -24.079270
Zn -1.416221 -21.243319 -24.079270
Zn -1.416221 -24.075762 -21.246827
Zn 1.416221 -21.243319 -21.246827
Zn 1.416221 -24.075762 -18.414385
Zn -1.416221 -21.243319 -18.414385
Zn -1.416221 -24.075762 -15.581942
Zn 1.416221 -21.243319 -15.581942
Zn 1.416221 -24.075762 -12.749499
Zn -1.416221 -21.243319 -12.749499
Zn -1.416221 -24.075762 -9.917057
Zn 1.416221 -21.243319 -9.917057
Zn 1.416221 -24.075762 -7.084614
Zn -1.416221 -21.243319 -7.084614
Zn -1.416221 -24.075762 -4.252172
Zn 1.416221 -21.243319 -4.252172
Zn 1.416221 -24.075762 -1.419729
Zn -1.416221 -21.243319 -1.419729
Zn -1.416221 -24.075762 1.412713
Zn 1.416221 -21.243319 1.412713
Zn 1.416221 -24.075762 4.245156
Zn -1.416221 -21.243319 4.245156
Zn -1.416221 -24.075762 7.077598
Zn 1.416221 -21.243319 7.077598
Zn 1.416221 -24.075762 9.910041
Zn -1.416221 -21.243319 9.910041
Zn -1.416221 -24.075762 12.742483
Zn 1.416221 -21.243319 12.742483
Zn 1.416221 -24.075762 15.574926
Zn -1.416221 -21.243319 15.574926
Zn -1.416221 -24.075762 18.407368
Zn 1.416221 -21.243319 18.407368
Zn 1.416221 -24.075762 21.239811
Zn -1.416221 -21.243319 21.239811
Zn -1.416221 -24.075762 24.072254
Zn 1.416221 -21.243319 24.072254
Zn 1.416221 -24.075762 26.904696
Zn -1.416221 -21.243319 26.904696
Zn -1.416221 -24.075762 29.737139
Zn 1.416221 -21.243319 29.737139
Zn 1.416221 -24.075762 32.569581
Zn -1.416221 -21.243319 32.569581
Zn -1.416221 -18.410877 -32.576597
Zn 1.416221 -15.578434 -32.576597
Zn 1.416221 -18.410877 -29.744155
Zn -1.416221 -15.578434 -29.744155
Zn -1.416221 -18.410877 -26.911712
Zn 1.416221 -15.578434 -26.911712
Zn 1.416221 -18.410877 -24.079270
Zn -1.416221 -15.578434 -24.079270
Zn -1.416221 -18.410877 -21.246827
Zn 1.416221 -15.578434 -21.246827
Zn 1.416221 -18.410877 -18.414385
Zn -1.416221 -15.578434 -18.414385
Zn -1.416221 -18.410877 -15.581942
Zn 1.416221 -15.578434 -15.581942
Zn 1.416221 -18.410877 -12.749499
Zn -1.416221 -15.578434 -12.749499
Zn -1.416221 -18.410877 -9.917057
Zn 1.416221 -15.578434 -9.917057
Zn 1.416221 -18.410877 -7.084614
Zn -1.416221 -15.578434 -7.084614
Zn -1.416221 -18.410877 -4.252172
Zn 1.416221 -15.578434 -4.252172
Zn 1.416221 -18.410877 -1.419729
Zn -1.416221 -15.578434 -1.419729
Zn -1.416221 -18.410877 1.412713
Zn 1.416221 -15.578434 1.412713
Zn 1.416221 -18.410877 4.245156
Zn -1.416221 -15.578434 4.245156
Zn -1.416221 -18.410877 7.077598
Zn 1.416221 -15.578434 7.077598
Zn 1.416221 -18.410877 9.910041
Zn -1.416221 -15.578434 9.910041
Zn -1.416221 -18.410877 12.742483
Zn 1.416221 -15.578434 12.742483
Zn 1.416221 -18.410877 15.574926
Zn -1.416221 -15.578434 15.574926
Zn -1.416221 -18.410877 18.407368
Zn 1.416221 -15.578434 18.407368
Zn 1.416221 -18.410877 21.239811
Zn -1.416221 -15.578434 21.239811
Zn -1.416221 -18.410877 24.072254
Zn 1.416221 -15.578434 24.072254
Zn 1.416221 -18.410877 26.904696
Zn -1.416221 -15.578434 26.904696
Zn -1.416221 -18.410877 29.737139
Zn 1.416221 -15.578434 29.737139
Zn 1.416221 -18.410877 32.569581
Zn -1.416221 -15.578434 32.569581
Zn -1.416221 -12.745991 -32.576597
Zn 1.416221 -9.913549 -32.576597
Zn 1.416221 -12.745991 -29.744155
Zn -1.416221 -9.913549 -29.744155
Zn -1.416221 -12.745991 -26.911712
Zn 1.416221 -9.913549 -26.911712
Zn 1.416221 -12.745991 -24.079270
Zn -1.416221 -9.913549 -24.079270
Zn -1.416221 -12.745991 -21.246827
Zn 1.416221 -9.913549 -21.246827
Zn 1.416221 -12.745991 -18.414385
Zn -1.416221 -9.913549 -18.414385
Zn -1.416221 -12.745991 -15.581942
Zn 1.416221 -9.913549 -15.581942
Zn 1.416221 -12.745991 -12.749499
Zn -1.416221 -9.913549 -12.749499
Zn -1.416221 -12.745991 -9.917057
Zn 1.416221 -9.913549 -9.917057
Zn 1.416221 -12.745991 -7.084614
Zn -1.416221 -9.913549 -7.084614
Zn -1.416221 -12.745991 -4.252172
Zn 1.416221 -9.913549 -4.252172
Zn 1.416221 -12.745991 -1.419729
Zn -1.416221 -9.913549 -1.419729
Zn -1.416221 -12.745991 1.412713
Zn 1.416221 -9.913549 1.412713
Zn 1.416221 -12.745991 4.245156
Zn -1.416221 -9.913549 4.245156
Zn -1.416221 -12.745991 7.077598
Zn 1.416221 -9.913549 7.077598
Zn 1.416221 -12.745991 9.910041
Zn -1.416221 -9.913549 9.910041
Zn -1.416221 -12.745991 12.742483
Zn 1.416221 -9.913549 12.742483
Zn 1.416221 -12.745991 15.574926
Zn -1.416221 -9.913549 15.574926
Zn -1.416221 -12.745991 18.407368
Zn 1.416221 -9.913549 18.407368
Zn 1.416221 -12.745991 21.239811
Zn -1.416221 -9.913549 21.239811
Zn -1.416221 -12.745991 24.072254
Zn 1.416221 -9.913549 24.072254
Zn 1.416221 -12.745991 26.904696
Zn -1.416221 -9.913549 26.904696
Zn -1.416221 -12.745991 29.737139
Zn 1.416221 -9.913549 29.737139
Zn 1.416221 -12.745991 32.569581
Zn -1.416221 -9.913549 32.569581
Zn -1.416221 -7.081106 -32.576597
Zn 1.416221 -4.248664 -32.576597
Zn 1.416221 -7.081106 -29.744155
Zn -1.416221 -4.248664 -29.744155
Zn -1.416221 -7.081106 -26.911712
Zn 1.416221 -4.248664 -26.911712
Zn 1.416221 -7.081106 -24.079270
Zn -1.416221 -4.248664 -24.079270
Zn -1.416221 -7.081106 -21.246827
Zn 1.416221 -4.248664 -21.246827
Zn 1.416221 -7.081106 -18.414385
Zn -1.416221 -4.248664 -18.414385
Zn -1.416221 -7.081106 -15.581942
Zn 1.416221 -4.248664 -15.581942
Zn 1.416221 -7.081106 -12.749499
Zn -1.416221 -4.248664 -12.749499
Zn -1.416221 -7.081106 -9.917057
Zn 1.416221 -4.248664 -9.917057
Zn 1.416221 -7.081106 -7.084614
Zn -1.416221 -4.248664 -7.084614
Zn -1.416221 -7.081106 -4.252172
Zn 1.416221 -4.248664 -4.252172
Zn 1.416221 -7.081106 -1.419729
Zn -1.416221 -4.248664 -1.419729
Zn -1.416221 -7.081106 1.412713
Zn 1.416221 -4.248664 1.412713
Zn 1.416221 -7.081106 4.245156
Zn -1.416221 -4.248664 4.245156
Zn -1.416221 -7.081106 7.077598
Zn 1.416221 -4.248664 7.077598
Zn 1.416221 -7.081106 9.910041
Zn -1.416221 -4.248664 9.910041
Zn -1.416221 -7.081106 12.742483
Zn 1.416221 -4.248664 12.742483
Zn 1.416221 -7.081106 15.574926
Zn -1.416221 -4.248664 15.574926
Zn -1.416221 -7.081106 18.407368
Zn 1.416221 -4.248664 18.407368
Zn 1.416221 -7.081106 21.239811
Zn -1.416221 -4.248664 21.239811
Zn -1.416221 -7.081106 24.072254
Zn 1.416221 -4.248664 24.072254
Zn 1.416221 -7.081106 26.904696
Zn -1.416221 -4.248664 26.904696
Zn -1.416221 -7.081106 29.737139
Zn 1.416221 -4.248664 29.737139
Zn 1.416221 -7.081106 32.569581
Zn -1.416221 -4.248664 32.569581
Zn -1.416221 -1.416221 -32.576597
Zn 1.416221 1.416221 -32.576597
Zn 1.416221 -1.416221 -29.744155
Zn -1.416221 1.416221 -29.744155
Zn -1.416221 -1.416221 -26.911712
Zn 1.416221 1.416221 -26.911712
Zn 1.416221 -1.416221 -24.079270
Zn -1.416221 1.416221 -24.079270
Zn -1.416221 -1.416221 -21.246827
Zn 1.416221 1.416221 -21.246827
Zn 1.416221 -1.416221 -18.414385
Zn -1.416221 1.416221 -18.414385
Zn -1.416221 -1.416221 -15.581942
Zn 1.416221 1.416221 -15.581942
Zn 1.416221 -1.416221 -12.749499
Zn -1.416221 1.416221 -12.749499
Zn -1.416221 -1.416221 -9.917057
Zn 1.416221 1.416221 -9.917057
Zn 1.416221 -1.416221 -7.084614
Zn -1.416221 1.416221 -7.084614
Zn -1.416221 -1.416221 -4.252172
Zn 1.416221 1.416221 -4.252172
Zn 1.416221 -1.416221 -1.419729
Zn -1.416221 1.416221 -1.419729
Zn -1.416221 -1.416221 1.412713
Zn 1.416221 1.416221 1.412713
Zn 1.416221 -1.416221 4.245156
Zn -1.416221 1.416221 4.245156
Zn -1.416221 -1.416221 7.077598
Zn 1.416221 1.416221 7.077598
Zn 1.416221 -1.416221 9.910041
Zn -1.416221 1.416221 9.910041
Zn -1.416221 -1.416221 12.742483
Zn 1.416221 1.416221 12.742483
Zn 1.416221 -1.416221 15.574926
Zn -1.416221 1.416221 15.574926
Zn -1.416221 -1.416221 18.407368
Zn 1.416221 1.416221 18.407368
Zn 1.416221 -1.416221 21.239811
Zn -1.416221 1.416221 21.239811
Zn -1.416221 -1.416221 24.072254
Zn 1.416221 1.416221 24.072254
Zn 1.416221 -1.416221 26.904696
Zn -1.416221 1.416221 26.904696
Zn -1.416221 -1.416221 29.737139
Zn 1.416221 1.416221 29.737139
Zn 1.416221 -1.416221 32.569581
Zn -1.416221 1.416221 32.569581
Zn -1.416221 4.248664 -32.576597
Zn 1.416221 7.081106 -32.576597
Zn 1.416221 4.248664 -29.744155
Zn -1.416221 7.081106 -29.744155
Zn -1.416221 4.248664 -26.911712
Zn 1.416221 7.081106 -26.911712
Zn 1.416221 4.248664 -24.079270
Zn -1.416221 7.081106 -24.079270
Zn -1.416221 4.248664 -21.246827
Zn 1.416221 7.081106 -21.246827
Zn 1.416221 4.248664 -18.414385
Zn -1.416221 7.081106 -18.414385
Zn -1.416221 4.248664 -15.581942
Zn 1.416221 7.081106 -15.581942
Zn 1.416221 4.248664 -12.749499
Zn -1.416221 7.081106 -12.749499
Zn -1.416221 4.248664 -9.917057
Zn 1.416221 7.081106 -9.917057
Zn 1.416221 4.248664 -7.084614
Zn -1.416221 7.081106 -7.084614
Zn -1.416221 4.248664 -4.252172
Zn 1.416221 7.081106 -4.252172
Zn 1.416221 4.248664 -1.419729
Zn -1.416221 7.081106 -1.419729
Zn -1.416221 4.248664 1.412713
Zn 1.416221 7.081106 1.412713
Zn 1.416221 4.248664 4.245156
Zn -1.416221 7.081106 4.245156
Zn -1.416221 4.248664 7.077598
Zn 1.416221 7.081106 7.077598
Zn 1.416221 4.248664 9.910041
Zn -1.416221 7.081106 9.910041
Zn -1.416221 4.248664 12.742483
Zn 1.416221 7.081106 12.742483
Zn 1.416221 4.248664 15.574926
Zn -1.416221 7.081106 15.574926
Zn -1.416221 4.248664 18.407368
Zn 1.416221 7.081106 18.407368
Zn 1.416221 4.248664 21.239811
Zn -1.416221 7.081106 21.239811
Zn -1.416221 4.248664 24.072254
Zn 1.416221 7.081106 24.072254
Zn 1.416221 4.248664 26.904696
Zn -1.416221 7.081106 26.904696
Zn -1.416221 4.248664 29.737139
Zn 1.416221 7.081106 29.737139
Zn 1.416221 4.248664 32.569581
Zn -1.416221 7.081106 32.569581
Zn -1.416221 9.913549 -32.576597
Zn 1.416221 12.745991 -32.576597
Zn 1.416221 9.913549 -29.744155
Zn -1.416221 12.745991 -29.744155
Zn -1.416221 9.913549 -26.911712
Zn 1.416221 12.745991 -26.911712
Zn 1.416221 9.913549 -24.079270
Zn -1.416221 12.745991 -24.079270
Zn -1.416221 9.913549 -21.246827
Zn 1.416221 12.745991 -21.246827
Zn 1.416221 9.913549 -18.414385
Zn -1.416221 12.745991 -18.414385
Zn -1.416221 9.913549 -15.581942
Zn 1.416221 12.745991 -15.581942
Zn 1.416221 9.913549 -12.749499
Zn -1.416221 12.745991 -12.749499
Zn -1.416221 9.913549 -9.917057
Zn 1.416221 12.745991 -9.917057
Zn 1.416221 9.913549 -7.084614
Zn -1.416221 12.745991 -7.084614
Zn -1.416221 9.913549 -4.252172
Zn 1.416221 12.745991 -4.252172
Zn 1.416221 9.913549 -1.419729
Zn -1.416221 12.745991 -1.419729
Zn -1.416221 9.913549 1.412713
Zn 1.416221 12.745991 1.412713
Zn 1.416221 9.913549 4.245156
Zn -1.416221 12.745991 4.245156
Zn -1.416221 9.913549 7.077598
Zn 1.416221 12.745991 7.077598
Zn 1.416221 9.913549 9.910041
Zn -1.416221 12.745991 9.910041
Zn -1.416221 9.913549 12.742483
Zn 1.416221 12.745991 12.742483
Zn 1.416221 9.913549 15.574926
Zn -1.416221 12.745991 15.574926
Zn -1.416221 9.913549 18.407368
Zn 1.416221 12.745991 18.407368
Zn 1.416221 9.913549 21.239811
Zn -1.416221 12.745991 21.239811
Zn -1.416221 9.913549 24.072254
Zn 1.416221 12.745991 24.072254
Zn 1.416221 9.913549 26.904696
Zn -1.416221 12.745991 26.904696
Zn -1.416221 9.913549 29.737139
Zn 1.416221 12.745991 29.737139
Zn 1.416221 9.913549 32.569581
Zn -1.416221 12.745991 32.569581
Zn -1.416221 15.578434 -32.576597
Zn 1.416221 18.410877 -32.576597
Zn 1.416221 15.578434 -29.744155
Zn -1.416221 18.410877 -29.744155
Zn -1.416221 15.578434 -26.911712
Zn 1.416221 18.410877 -26.911712
Zn 1.416221 15.578434 -24.079270
Zn -1.416221 18.410877 -24.079270
Zn -1.416221 15.578434 -21.246827
Zn 1.416221 18.410877 -21.246827
Zn 1.416221 15.578434 -18.414385
Zn -1.416221 18.410877 -18.414385
Zn -1.416221 15.578434 -15.581942
Zn 1.416221 18.410877 -15.581942
Zn 1.416221 15.578434 -12.749499
Zn -1.416221 18.410877 -12.749499
Zn -1.416221 15.578434 -9.917057
Zn 1.416221 18.410877 -9.917057
Zn 1.416221 15.578434 -7.084614
Zn -1.416221 18.410877 -7.084614
Zn -1.416221 15.578434 -4.252172
Zn 1.416221 18.410877 -4.252172
Zn 1.416221 15.578434 -1.419729
Zn -1.416221 18.410877 -1.419729
Zn -1.416221 15.578434 1.412713
Zn 1.416221 18.410877 1.412713
Zn 1.416221 15.578434 4.245156
Zn -1.416221 18.410877 4.245156
Zn -1.416221 15.578434 7.077598
Zn 1.416221 18.410877 7.077598
Zn 1.416221 15.578434 9.910041
Zn -1.416221 18.410877 9.910041
Zn -1.416221 15.578434 12.742483
Zn 1.416221 18.410877 12.742483
Zn 1.416221 15.578434 15.574926
Zn -1.416221 18.410877 15.574926
Zn -1.416221 15.578434 18.407368
Zn 1.416221 18.410877 18.407368
Zn 1.416221 15.578434 21.239811
Zn -1.416221 18.410877 21.239811
Zn -1.416221 15.578434 24.072254
Zn 1.416221 18.410877 24.072254
Zn 1.416221 15.578434 26.904696
Zn -1.416221 18.410877 26.904696
Zn -1.416221 15.578434 29.737139
Zn 1.416221 18.410877 29.737139
Zn 1.416221 15.578434 32.569581
Zn -1.416221 18.410877 32.569581
Zn -1.416221 21.243319 -32.576597
Zn 1.416221 24.075762 -32.576597
Zn 1.416221 21.243319 -29.744155
Zn -1.416221 24.075762 -29.744155
Zn -1.416221 21.243319 -26.911712
Zn 1.416221 24.075762 -26.911712
Zn 1.416221 21.243319 -24.079270
Zn -1.416221 24.075762 -24.079270
Zn -1.416221 21.243319 -21.246827
Zn 1.416221 24.075762 -21.246827
Zn 1.416221 21.243319 -18.414385
Zn -1.416221 24.075762 -18.414385
Zn -1.416221 21.243319 -15.581942
Zn 1.416221 24.075762 -15.581942
Zn 1.416221 21.243319 -12.749499
Zn -1.416221 24.075762 -12.749499
Zn -1.416221 21.243319 -9.917057
Zn 1.416221 24.075762 -9.917057
Zn 1.416221 21.243319 -7.084614
Zn -1.416221 24.075762 -7.084614
Zn -1.416221 21.243319 -4.252172
Zn 1.416221 24.075762 -4.252172
Zn 1.416221 21.243319 -1.419729
Zn -1.416221 24.075762 -1.419729
Zn -1.416221 21.243319 1.412713
Zn 1.416221 24.075762 1.412713
Zn 1.416221 21.243319 4.245156
Zn -1.416221 24.075762 4.245156
Zn -1.416221 21.243319 7.077598
Zn 1.416221 24.075762 7.077598
Zn 1.416221 21.243319 9.910041
Zn -1.416221 24.075762 9.910041
Zn -1.416221 21.243319 12.742483
Zn 1.416221 24.075762 12.742483
Zn 1.416221 21.243319 15.574926
Zn -1.416221 24.075762 15.574926
Zn -1.416221 21.243319 18.407368
Zn 1.416221 24.075762 18.407368
Zn 1.416221 21.243319 21.239811
Zn -1.416221 24.075762 21.239811
Zn -1.416221 21.243319 24.072254
Zn 1.416221 24.075762 24.072254
Zn 1.416221 21.243319 26.904696
Zn -1.416221 24.075762 26.904696
Zn -1.416221 21.243319 29.737139
Zn 1.416221 24.075762 29.737139
Zn 1.416221 21.243319 32.569581
Zn -1.416221 24.075762 32.569581
Zn 1.416221 26.908204 -29.744155
Zn -1.416221 26.908204 -26.911712
Zn 1.416221 29.740647 -26.911712
Zn 1.416221 26.908204 -24.079270
Zn -1.416221 29.740647 -24.079270
Zn -1.416221 26.908204 -21.246827
Zn 1.416221 29.740647 -21.246827
Zn 1.416221 26.908204 -18.414385
Zn -1.416221 29.740647 -18.414385
Zn -1.416221 26.908204 -15.581942
Zn 1.416221 29.740647 -15.581942
Zn 1.416221 26.908204 -12.749499
Zn -1.416221 29.740647 -12.749499
Zn -1.416221 26.908204 -9.917057
Zn 1.416221 29.740647 -9.917057
Zn 1.416221 26.908204 -7.084614
Zn -1.416221 29.740647 -7.084614
Zn -1.416221 26.908204 -4.252172
Zn 1.416221 29.740647 -4.252172
Zn 1.416221 26.908204 -1.419729
Zn -1.416221 29.740647 -1.419729
Zn -1.416221 26.908204 1.412713
Zn 1.416221 29.740647 1.412713
Zn 1.416221 26.908204 4.245156
Zn -1.416221 29.740647 4.245156
Zn -1.416221 26.908204 7.077598
Zn 1.416221 29.740647 7.077598
Zn 1.416221 26.908204 9.910041
Zn -1.416221 29.740647 9.910041
Zn -1.416221 26.908204 12.742483
Zn 1.416221 29.740647 12.742483
Zn 1.416221 26.908204 15.574926
Zn -1.416221 29.740647 15.574926
Zn -1.416221 26.908204 18.407368
Zn 1.416221 29.740647 18.407368
Zn 1.416221 26.908204 21.239811
Zn -1.416221 29.740647 21.239811
Zn -1.416221 26.908204 24.072254
Zn 1.416221 29.740647 24.072254
Zn 1.416221 26.908204 26.904696
Zn -1.416221 29.740647 26.904696
Zn -1.416221 26.908204 29.737139
Zn 1.416221 32.573089 -24.079270
Zn -1.416221 32.573089 -21.246827
Zn 1.416221 32.573089 -18.414385
Zn -1.416221 32.573089 -15.581942
Zn 1.416221 32.573089 -12.749499
Zn -1.416221 32.573089 -9.917057
Zn 1.416221 32.573089 -7.084614
Zn -1.416221 32.573089 -4.252172
Zn 1.416221 32.573089 -1.419729
Zn -1.416221 32.573089 1.412713
Zn 1.416221 32.573089 4.245156
Zn -1.416221 32.573089 7.077598
Zn 1.416221 32.573089 9.910041
Zn -1.416221 32.573089 12.742483
Zn 1.416221 32.573089 15.574926
Zn -1.416221 32.573089 18.407368
Zn 1.416221 32.573089 21.239811
Zn -1.416221 32.573089 24.072254
Zn 4.248664 -32.573089 -18.414385
Zn 7.081106 -32.573089 -15.581942
Zn 4.248664 -32.573089 -12.749499
Zn 7.081106 -32.573089 -9.917057
Zn 4.248664 -32.573089 -7.084614
Zn 7.081106 -32.573089 -4.252172
Zn 4.248664 -32.573089 -1.419729
Zn 7.081106 -32.573089 1.412713
Zn 4.248664 -32.573089 4.245156
Zn 7.081106 -32.573089 7.077598
Zn 4.248664 -32.573089 9.910041
Zn 7.081106 -32.573089 12.742483
Zn 4.248664 -32.573089 15.574926
Zn 7.081106 -32.573089 18.407368
Zn 4.248664 -32.573089 21.239811
Zn 4.248664 -26.908204 -24.079270
Zn 4.248664 -29.740647 -21.246827
Zn 7.081106 -26.908204 -21.246827
Zn 7.081106 -29.740647 -18.414385
Zn 4.248664 -26.908204 -18.414385
Zn 4.248664 -29.740647 -15.581942
Zn 7.081106 -26.908204 -15.581942
Zn 7.081106 -29.740647 -12.749499
Zn 4.248664 -26.908204 -12.749499
Zn 4.248664 -29.740647 -9.917057
Zn 7.081106 -26.908204 -9.917057
Zn 7.081106 -29.740647 -7.084614
Zn 4.248664 -26.908204 -7.084614
Zn 4.248664 -29.740647 -4.252172
Zn 7.081106 -26.908204 -4.252172
Zn 7.081106 -29.740647 -1.419729
Zn 4.248664 -26.908204 -1.419729
Zn 4.248664 -29.740647 1.412713
Zn 7.081106 -26.908204 1.412713
Zn 7.081106 -29.740647 4.245156
Zn 4.248664 -26.908204 4.245156
Zn 4.248664 -29.740647 7.077598
Zn 7.081106 -26.908204 7.077598
Zn 7.081106 -29.740647 9.910041
Zn 4.248664 -26.908204 9.910041
Zn 4.248664 -29.740647 12.742483
Zn 7.081106 -26.908204 12.742483
Zn 7.081106 -29.740647 15.574926
Zn 4.248664 -26.908204 15.574926
Zn 4.248664 -29.740647 18.407368
Zn 7.081106 -26.908204 18.407368
Zn 7.081106 -29.740647 21.239811
Zn 4.248664 -26.908204 21.239811
Zn 4.248664 -29.740647 24.072254
Zn 7.081106 -26.908204 24.072254
Zn 4.248664 -26.908204 26.904696
Zn 4.248664 -21.243319 -29.744155
Zn 4.248664 -24.075762 -26.911712
Zn 7.081106 -21.243319 -26.911712
Zn 7.081106 -24.075762 -24.079270
Zn 4.248664 -21.243319 -24.079270
Zn 4.248664 -24.075762 -21.246827
Zn 7.081106 -21.243319 -21.246827
Zn 7.081106 -24.075762 -18.414385
Zn 4.248664 -21.243319 -18.414385
Zn 4.248664 -24.075762 -15.581942
Zn 7.081106 -21.243319 -15.581942
Zn 7.081106 -24.075762 -12.749499
Zn 4.248664 -21.243319 -12.749499
Zn 4.248664 -24.075762 -9.917057
Zn 7.081106 -21.243319 -9.917057
Zn 7.081106 -24.075762 -7.084614
Zn 4.248664 -21.243319 -7.084614
Zn 4.248664 -24.075762 -4.252172
Zn 7.081106 -21.243319 -4.252172
Zn 7.081106 -24.075762 -1.419729
Zn 4.248664 -21.243319 -1.419729
Zn 4.248664 -24.075762 1.412713
Zn 7.081106 -21.243319 1.412713
Zn 7.081106 -24.075762 4.245156
Zn 4.248664 -21.243319 4.245156
Zn 4.248664 -24.075762 7.077598
Zn 7.081106 -21.243319 7.077598
Zn 7.081106 -24.075762 9.910041
Zn 4.248664 -21.243319 9.910041
Zn 4.248664 -24.075762 12.742483
Zn 7.081106 -21.243319 12.742483
Zn 7.081106 -24.075762 15.574926
Zn 4.248664 -21.243319 15.574926
Zn 4.248664 -24.075762 18.407368
Zn 7.081106 -21.243319 18.407368
Zn 7.081106 -24.075762 21.239811
Zn 4.248664 -21.243319 21.239811
Zn 4.248664 -24.075762 24.072254
Zn 7.081106 -21.243319 24.072254
Zn 7.081106 -24.075762 26.904696
Zn 4.248664 -21.243319 26.904696
Zn 4.248664 -24.075762 29.737139
Zn 7.081106 -21.243319 29.737139
Zn 4.248664 -21.243319 32.569581
Zn 4.248664 -18.410877 -32.576597
Zn 7.081106 -15.578434 -32.576597
Zn 7.081106 -18.410877 -29.744155
Zn 4.248664 -15.578434 -29.744155
Zn 4.248664 -18.410877 -26.911712
Zn 7.081106 -15.578434 -26.911712
Zn 7.081106 -18.410877 -24.079270
Zn 4.248664 -15.578434 -24.079270
Zn 4.248664 -18.410877 -21.246827
Zn 7.081106 -15.578434 -21.246827
Zn 7.081106 -18.410877 -18.414385
Zn 4.248664 -15.578434 -18.414385
Zn 4.248664 -18.410877 -15.581942
Zn 7.081106 -15.578434 -15.581942
Zn 7.081106 -18.410877 -12.749499
Zn 4.248664 -15.578434 -12.749499
Zn 4.248664 -18.410877 -9.917057
Zn 7.081106 -15.578434 -9.917057
Zn 7.081106 -18.410877 -7.084614
Zn 4.248664 -15.578434 -7.084614
Zn 4.248664 -18.410877 -4.252172
Zn 7.081106 -15.578434 -4.252172
Zn 7.081106 -18.410877 -1.419729
Zn 4.248664 -15.578434 -1.419729
Zn 4.248664 -18.410877 1.412713
Zn 7.081106 -15.578434 1.412713
Zn 7.081106 -18.410877 4.245156
Zn 4.248664 -15.578434 4.245156
Zn 4.248664 -18.410877 7.077598
Zn 7.081106 -15.578434 7.077598
Zn 7.081106 -18.410877 9.910041
Zn 4.248664 -15.578434 9.910041
Zn 4.248664 -18.410877 12.742483
Zn 7.081106 -15.578434 12.742483
Zn 7.081106 -18.410877 15.574926
Zn 4.248664 -15.578434 15.574926
Zn 4.248664 -18.410877 18.407368
Zn 7.081106 -15.578434 18.407368
Zn 7.081106 -18.410877 21.239811
Zn 4.248664 -15.578434 21.239811
Zn 4.248664 -18.410877 24.072254
Zn 7.081106 -15.578434 24.072254
Zn 7.081106 -18.410877 26.904696
Zn 4.248664 -15.578434 26.904696
Zn 4.248664 -18.410877 29.737139
Zn 7.081106 -15.578434 29.737139
Zn 7.081106 -18.410877 32.569581
Zn 4.248664 -15.578434 32.569581
Zn 4.248664 -12.745991 -32.576597
Zn 7.081106 -9.913549 -32.576597
Zn 7.081106 -12.745991 -29.744155
Zn 4.248664 -9.913549 -29.744155
Zn 4.248664 -12.745991 -26.911712
Zn 7.081106 -9.913549 -26.911712
Zn 7.081106 -12.745991 -24.079270
Zn 4.248664 -9.913549 -24.079270
Zn 4.248664 -12.745991 -21.246827
Zn 7.081106 -9.913549 -21.246827
Zn 7.081106 -12.745991 -18.414385
Zn 4.248664 -9.913549 -18.414385
Zn 4.248664 -12.745991 -15.581942
Zn 7.081106 -9.913549 -15.581942
Zn 7.081106 -12.745991 -12.749499
Zn 4.248664 -9.913549 -12.749499
Zn 4.248664 -12.745991 -9.917057
Zn 7.081106 -9.913549 -9.917057
Zn 7.081106 -12.745991 -7.084614
Zn 4.248664 -9.913549 -7.084614
Zn 4.248664 -12.745991 -4.252172
Zn 7.081106 -9.913549 -4.252172
Zn 7.081106 -12.745991 -1.419729
Zn 4.248664 -9.913549 -1.419729
Zn 4.248664 -12.745991 1.412713
Zn 7.081106 -9.913549 1.412713
Zn 7.081106 -12.745991 4.245156
Zn 4.248664 -9.913549 4.245156
Zn 4.248664 -12.745991 7.077598
Zn 7.081106 -9.913549 7.077598
Zn 7.081106 -12.745991 9.910041
Zn 4.248664 -9.913549 9.910041
Zn 4.248664 -12.745991 12.742483
Zn 7.081106 -9.913549 12.742483
Zn 7.081106 -12.745991 15.574926
Zn 4.248664 -9.913549 15.574926
Zn 4.248664 -12.745991 18.407368
Zn 7.081106 -9.913549 18.407368
Zn 7.081106 -12.745991 21.239811
Zn 4.248664 -9.913549 21.239811
Zn 4.248664 -12.745991 24.072254
Zn 7.081106 -9.913549 24.072254
Zn 7.081106 -12.745991 26.904696
Zn 4.248664 -9.913549 26.904696
Zn 4.248664 -12.745991 29.737139
Zn 7.081106 -9.913549 29.737139
Zn 7.081106 -12.745991 32.569581
Zn 4.248664 -9.913549 32.569581
Zn 4.248664 -7.081106 -32.576597
Zn 7.081106 -4.248664 -32.576597
Zn 7.081106 -7.081106 -29.744155
Zn 4.248664 -4.248664 -29.744155
Zn 4.248664 -7.081106 -26.911712
Zn 7.081106 -4.248664 -26.911712
Zn 7.081106 -7.081106 -24.079270
Zn 4.248664 -4.248664 -24.079270
Zn 4.248664 -7.081106 -21.246827
Zn 7.081106 -4.248664 -21.246827
Zn 7.081106 -7.081106 -18.414385
Zn 4.248664 -4.248664 -18.414385
Zn 4.248664 -7.081106 -15.581942
Zn 7.081106 -4.248664 -15.581942
Zn 7.081106 -7.081106 -12.749499
Zn 4.248664 -4.248664 -12.749499
Zn 4.248664 -7.081106 -9.917057
Zn 7.081106 -4.248664 -9.917057
Zn 7.081106 -7.081106 -7.084614
Zn 4.248664 -4.248664 -7.084614
Zn 4.248664 -7.081106 -4.252172
Zn 7.081106 -4.248664 -4.252172
Zn 7.081106 -7.081106 -1.419729
Zn 4.248664 -4.248664 -1.419729
Zn 4.248664 -7.081106 1.412713
Zn 7.081106 -4.248664 1.412713
Zn 7.081106 -7.081106 4.245156
Zn 4.248664 -4.248664 4.245156
Zn 4.248664 -7.081106 7.077598
Zn 7.081106 -4.248664 7.077598
Zn 7.081106 -7.081106 9.910041
Zn 4.248664 -4.248664 9.910041
Zn 4.248664 -7.081106 12.742483
Zn 7.081106 -4.248664 12.742483
Zn 7.081106 -7.081106 15.574926
Zn 4.248664 -4.248664 15.574926
Zn 4.248664 -7.081106 18.407368
Zn 7.081106 -4.248664 18.407368
Zn 7.081106 -7.081106 21.239811
Zn 4.248664 -4.248664 21.239811
Zn 4.248664 -7.081106 24.072254
Zn 7.081106 -4.248664 24.072254
Zn 7.081106 -7.081106 26.904696
Zn 4.248664 -4.248664 26.904696
Zn 4.248664 -7.081106 29.737139
Zn 7.081106 -4.248664 29.737139
Zn 7.081106 -7.081106 32.569581
Zn 4.248664 -4.248664 32.569581
Zn 4.248664 -1.416221 -32.576597
Zn 7.081106 1.416221 -32.576597
Zn 7.081106 -1.416221 -29.744155
Zn 4.248664 1.416221 -29.744155
Zn 4.248664 -1.416221 -26.911712
Zn 7.081106 1.416221 -26.911712
Zn 7.081106 -1.416221 -24.079270
Zn 4.248664 1.416221 -24.079270
Zn 4.248664 -1.416221 -21.246827
Zn 7.081106 1.416221 -21.246827
Zn 7.081106 -1.416221 -18.414385
Zn 4.248664 1.416221 -18.414385
Zn 4.248664 -1.416221 -15.581942
Zn 7.081106 1.416221 -15.581942
Zn 7.081106 -1.416221 -12.749499
Zn 4.248664 1.416221 -12.749499
Zn 4.248664 -1.416221 -9.917057
Zn 7.081106 1.416221 -9.917057
Zn 7.081106 -1.416221 -7.084614
Zn 4.248664 1.416221 -7.084614
Zn 4.248664 -1.416221 -4.252172
Zn 7.081106 1.416221 -4.252172
Zn 7.081106 -1.416221 -1.419729
Zn 4.248664 1.416221 -1.419729
Zn 4.248664 -1.416221 1.412713
Zn 7.081106 1.416221 1.412713
Zn 7.081106 -1.416221 4.245156
Zn 4.248664 1.416221 4.245156
Zn 4.248664 -1.416221 7.077598
Zn 7.081106 1.416221 7.077598
Zn 7.081106 -1.416221 9.910041
Zn 4.248664 1.416221 9.910041
Zn 4.248664 -1.416221 12.742483
Zn 7.081106 1.416221 12.742483
Zn 7.081106 -1.416221 15.574926
Zn 4.248664 1.416221 15.574926
Zn 4.248664 -1.416221 18.407368
Zn 7.081106 1.416221 18.407368
Zn 7.081106 -1.416221 21.239811
Zn 4.248664 1.416221 21.239811
Zn 4.248664 -1.416221 24.072254
Zn 7.081106 1.416221 24.072254
Zn 7.081106 -1.416221 26.904696
Zn 4.248664 1.416221 26.904696
Zn 4.248664 -1.416221 29.737139
Zn 7.081106 1.416221 29.737139
Zn 7.081106 -1.416221 32.569581
Zn 4.248664 1.416221 32.569581
Zn 4.248664 4.248664 -32.576597
Zn 7.081106 7.081106 -32.576597
Zn 7.081106 4.248664 -29.744155
Zn 4.248664 7.081106 -29.744155
Zn 4.248664 4.248664 -26.911712
Zn 7.081106 7.081106 -26.911712
Zn 7.081106 4.248664 -24.079270
Zn 4.248664 7.081106 -24.079270
Zn 4.248664 4.248664 -21.246827
Zn 7.081106 7.081106 -21.246827
Zn 7.081106 4.248664 -18.414385
Zn 4.248664 7.081106 -18.414385
Zn 4.248664 4.248664 -15.581942
Zn 7.081106 7.081106 -15.581942
Zn 7.081106 4.248664 -12.749499
Zn 4.248664 7.081106 -12.749499
Zn 4.248664 4.248664 -9.917057
Zn 7.081106 7.081106 -9.917057
Zn 7.081106 4.248664 -7.084614
Zn 4.248664 7.081106 -7.084614
Zn 4.248664 4.248664 -4.252172
Zn 7.081106 7.081106 -4.252172
Zn 7.081106 4.248664 -1.419729
Zn 4.248664 7.081106 -1.419729
Zn 4.248664 4.248664 1.412713
Zn 7.081106 7.081106 1.412713
Zn 7.081106 4.248664 4.245156
Zn 4.248664 7.081106 4.245156
Zn 4.248664 4.248664 7.077598
Zn 7.081106 7.081106 7.077598
Zn 7.081106 4.248664 9.910041
Zn 4.248664 7.081106 9.910041
Zn 4.248664 4.248664 12.742483
Zn 7.081106 7.081106 12.742483
Zn 7.081106 4.248664 15.574926
Zn 4.248664 7.081106 15.574926
Zn 4.248664 4.248664 18.407368
Zn 7.081106 7.081106 18.407368
Zn 7.081106 4.248664 21.239811
Zn 4.248664 7.081106 21.239811
Zn 4.248664 4.248664 24.072254
Zn 7.081106 7.081106 24.072254
Zn 7.081106 4.248664 26.904696
Zn 4.248664 7.081106 26.904696
Zn 4.248664 4.248664 29.737139
Zn 7.081106 7.081106 29.737139
Zn 7.081106 4.248664 32.569581
Zn 4.248664 7.081106 32.569581
Zn 4.248664 9.913549 -32.576597
Zn 7.081106 12.745991 -32.576597
Zn 7.081106 9.913549 -29.744155
Zn 4.248664 12.745991 -29.744155
Zn 4.248664 9.913549 -26.911712
Zn 7.081106 12.745991 -26.911712
Zn 7.081106 9.913549 -24.079270
Zn 4.248664 12.745991 -24.079270
Zn 4.248664 9.913549 -21.246827
Zn 7.081106 12.745991 -21.246827
Zn 7.081106 9.913549 -18.414385
Zn 4.248664 12.745991 -18.414385
Zn 4.248664 9.913549 -15.581942
Zn 7.081106 12.745991 -15.581942
Zn 7.081106 9.913549 -12.749499
Zn 4.248664 12.745991 -12.749499
Zn 4.248664 9.913549 -9.917057
Zn 7.081106 12.745991 -9.917057
Zn 7.081106 9.913549 -7.084614
Zn 4.248664 12.745991 -7.084614
Zn 4.248664 9.913549 -4.252172
Zn 7.081106 12.745991 -4.252172
Zn 7.081106 9.913549 -1.419729
Zn 4.248664 12.745991 -1.419729
Zn 4.248664 9.913549 1.412713
Zn 7.081106 12.745991 1.412713
Zn 7.081106 9.913549 4.245156
Zn 4.248664 12.745991 4.245156
Zn 4.248664 9.913549 7.077598
Zn 7.081106 12.745991 7.077598
Zn 7.081106 9.913549 9.910041
Zn 4.248664 12.745991 9.910041
Zn 4.248664 9.913549 12.742483
Zn 7.081106 12.745991 12.742483
Zn 7.081106 9.913549 15.574926
Zn 4.248664 12.745991 15.574926
Zn 4.248664 9.913549 18.407368
Zn 7.081106 12.745991 18.407368
Zn 7.081106 9.913549 21.239811
Zn 4.248664 12.745991 21.239811
Zn 4.248664 9.913549 24.072254
Zn 7.081106 12.745991 24.072254
Zn 7.081106 9.913549 26.904696
Zn 4.248664 12.745991 26.904696
Zn 4.248664 9.913549 29.737139
Zn 7.081106 12.745991 29.737139
Zn 7.081106 9.913549 32.569581
Zn 4.248664 12.745991 32.569581
Zn 4.248664 15.578434 -32.576597
Zn 7.081106 18.410877 -32.576597
Zn 7.081106 15.578434 -29.744155
Zn 4.248664 18.410877 -29.744155
Zn 4.248664 15.578434 -26.911712
Zn 7.081106 18.410877 -26.911712
Zn 7.081106 15.578434 -24.079270
Zn 4.248664 18.410877 -24.079270
Zn 4.248664 15.578434 -21.246827
Zn 7.081106 18.410877 -21.246827
Zn 7.081106 15.578434 -18.414385
Zn 4.248664 18.410877 -18.414385
Zn 4.248664 15.578434 -15.581942
Zn 7.081106 18.410877 -15.581942
Zn 7.081106 15.578434 -12.749499
Zn 4.248664 18.410877 -12.749499
Zn 4.248664 15.578434 -9.917057
Zn 7.081106 18.410877 -9.917057
Zn 7.081106 15.578434 -7.084614
Zn 4.248664 18.410877 -7.084614
Zn 4.248664 15.578434 -4.252172
Zn 7.081106 18.410877 -4.252172
Zn 7.081106 15.578434 -1.419729
Zn 4.248664 18.410877 -1.419729
Zn 4.248664 15.578434 1.412713
Zn 7.081106 18.410877 1.412713
Zn 7.081106 15.578434 4.245156
Zn 4.248664 18.410877 4.245156
Zn 4.248664 15.578434 7.077598
Zn 7.081106 18.410877 7.077598
Zn 7.081106 15.578434 9.910041
Zn 4.248664 18.410877 9.910041
Zn 4.248664 15.578434 12.742483
Zn 7.081106 18.410877 12.742483
Zn 7.081106 15.578434 15.574926
Zn 4.248664 18.410877 15.574926
Zn 4.248664 15.578434 18.407368
Zn 7.081106 18.410877 18.407368
Zn 7.081106 15.578434 21.239811
Zn 4.248664 18.410877 21.239811
Zn 4.248664 15.578434 24.072254
Zn 7.081106 18.410877 24.072254
Zn 7.081106 15.578434 26.904696
Zn 4.248664 18.410877 26.904696
Zn 4.248664 15.578434 29.737139
Zn 7.081106 18.410877 29.737139
Zn 7.081106 15.578434 32.569581
Zn 4.248664 18.410877 32.569581
Zn 4.248664 21.243319 -32.576597
Zn 7.081106 21.243319 -29.744155
Zn 4.248664 24.075762 -29.744155
Zn 4.248664 21.243319 -26.911712
Zn 7.081106 24.075762 -26.911712
Zn 7.081106 21.243319 -24.079270
Zn 4.248664 24.075762 -24.079270
Zn 4.248664 21.243319 -21.246827
Zn 7.081106 24.075762 -21.246827
Zn 7.081106 21.243319 -18.414385
Zn 4.248664 24.075762 -18.414385
Zn 4.248664 21.243319 -15.581942
Zn 7.081106 24.075762 -15.581942
Zn 7.081106 21.243319 -12.749499
Zn 4.248664 24.075762 -12.749499
Zn 4.248664 21.243319 -9.917057
Zn 7.081106 24.075762 -9.917057
Zn 7.081106 21.243319 -7.084614
Zn 4.248664 24.075762 -7.084614
Zn 4.248664 21.243319 -4.252172
Zn 7.081106 24.075762 -4.252172
Zn 7.081106 21.243319 -1.419729
Zn 4.248664 24.075762 -1.419729
Zn 4.248664 21.243319 1.412713
Zn 7.081106 24.075762 1.412713
Zn 7.081106 21.243319 4.245156
Zn 4.248664 24.075762 4.245156
Zn 4.248664 21.243319 7.077598
Zn 7.081106 24.075762 7.077598
Zn 7.081106 21.243319 9.910041
Zn 4.248664 24.075762 9.910041
Zn 4.248664 21.243319 12.742483
Zn 7.081106 24.075762 12.742483
Zn 7.081106 21.243319 15.574926
Zn 4.248664 24.075762 15.574926
Zn 4.248664 21.243319 18.407368
Zn 7.081106 24.075762 18.407368
Zn 7.081106 21.243319 21.239811
Zn 4.248664 24.075762 21.239811
Zn 4.248664 21.243319 24.072254
Zn 7.081106 24.075762 24.072254
Zn 7.081106 21.243319 26.904696
Zn 4.248664 24.075762 26.904696
Zn 4.248664 21.243319 29.737139
Zn 4.248664 26.908204 -26.911712
Zn 7.081106 26.908204 -24.079270
Zn 4.248664 29.740647 -24.079270
Zn 4.248664 26.908204 -21.246827
Zn 7.081106 29.740647 -21.246827
Zn 7.081106 26.908204 -18.414385
Zn 4.248664 29.740647 -18.414385
Zn 4.248664 26.908204 -15.581942
Zn 7.081106 29.740647 -15.581942
Zn 7.081106 26.908204 -12.749499
Zn 4.248664 29.740647 -12.749499
Zn 4.248664 26.908204 -9.917057
Zn 7.081106 29.740647 -9.917057
Zn 7.081106 26.908204 -7.084614
Zn 4.248664 29.740647 -7.084614
Zn 4.248664 26.908204 -4.252172
Zn 7.081106 29.740647 -4.252172
Zn 7.081106 26.908204 -1.419729
Zn 4.248664 29.740647 -1.419729
Zn 4.248664 26.908204 1.412713
Zn 7.081106 29.740647 1.412713
Zn 7.081106 26.908204 4.245156
Zn 4.248664 29.740647 4.245156
Zn 4.248664 26.908204 7.077598
Zn 7.081106 29.740647 7.077598
Zn 7.081106 26.908204 9.910041
Zn 4.248664 29.740647 9.910041
Zn 4.248664 26.908204 12.742483
Zn 7.081106 29.740647 12.742483
Zn 7.081106 26.908204 15.574926
Zn 4.248664 29.740647 15.574926
Zn 4.248664 26.908204 18.407368
Zn 7.081106 29.740647 18.407368
Zn 7.081106 26.908204 21.239811
Zn 4.248664 29.740647 21.239811
Zn 4.248664 26.908204 24.072254
Zn 4.248664 32.573089 -21.246827
Zn 7.081106 32.573089 -18.414385
Zn 4.248664 32.573089 -15.581942
Zn 7.081106 32.573089 -12.749499
Zn 4.248664 32.573089 -9.917057
Zn 7.081106 32.573089 -7.084614
Zn 4.248664 32.573089 -4.252172
Zn 7.081106 32.573089 -1.419729
Zn 4.248664 32.573089 1.412713
Zn 7.081106 32.573089 4.245156
Zn 4.248664 32.573089 7.077598
Zn 7.081106 32.573089 9.910041
Zn 4.248664 32.573089 12.742483
Zn 7.081106 32.573089 15.574926
Zn 4.248664 32.573089 18.407368
Zn 9.913549 -32.573089 -12.749499
Zn 12.745991 -32.573089 -9.917057
Zn 9.913549 -32.573089 -7.084614
Zn 12.745991 -32.573089 -4.252172
Zn 9.913549 -32.573089 -1.419729
Zn 12.745991 -32.573089 1.412713
Zn 9.913549 -32.573089 4.245156
Zn 12.745991 -32.573089 7.077598
Zn 9.913549 -32.573089 9.910041
Zn 12.745991 -32.573089 12.742483
Zn 9.913549 -32.573089 15.574926
Zn 9.913549 -26.908204 -18.414385
Zn 9.913549 -29.740647 -15.581942
Zn 12.745991 -26.908204 -15.581942
Zn 12.745991 -29.740647 -12.749499
Zn 9.913549 -26.908204 -12.749499
Zn 9.913549 -29.740647 -9.917057
Zn 12.745991 -26.908204 -9.917057
Zn 12.745991 -29.740647 -7.084614
Zn 9.913549 -26.908204 -7.084614
Zn 9.913549 -29.740647 -4.252172
Zn 12.745991 -26.908204 -4.252172
Zn 12.745991 -29.740647 -1.419729
Zn 9.913549 -26.908204 -1.419729
Zn 9.913549 -29.740647 1.412713
Zn 12.745991 -26.908204 1.412713
Zn 12.745991 -29.740647 4.245156
Zn 9.913549 -26.908204 4.245156
Zn 9.913549 -29.740647 7.077598
Zn 12.745991 -26.908204 7.077598
Zn 12.745991 -29.740647 9.910041
Zn 9.913549 -26.908204 9.910041
Zn 9.913549 -29.740647 12.742483
Zn 12.745991 -26.908204 12.742483
Zn 12.745991 -29.740647 15.574926
Zn 9.913549 -26.908204 15.574926
Zn 9.913549 -29.740647 18.407368
Zn 12.745991 -26.908204 18.407368
Zn 9.913549 -26.908204 21.239811
Zn 9.913549 -21.243319 -24.079270
Zn 9.913549 -24.075762 -21.246827
Zn 12.745991 -21.243319 -21.246827
Zn 12.745991 -24.075762 -18.414385
Zn 9.913549 -21.243319 -18.414385
Zn 9.913549 -24.075762 -15.581942
Zn 12.745991 -21.243319 -15.581942
Zn 12.745991 -24.075762 -12.749499
Zn 9.913549 -21.243319 -12.749499
Zn 9.913549 -24.075762 -9.917057
Zn 12.745991 -21.243319 -9.917057
Zn 12.745991 -24.075762 -7.084614
Zn 9.913549 -21.243319 -7.084614
Zn 9.913549 -24.075762 -4.252172
Zn 12.745991 -21.243319 -4.252172
Zn 12.745991 -24.075762 -1.419729
Zn 9.913549 -21.243319 -1.419729
Zn 9.913549 -24.075762 1.412713
Zn 12.745991 -21.243319 1.412713
Zn 12.745991 -24.075762 4.245156
Zn 9.913549 -21.243319 4.245156
Zn 9.913549 -24.075762 7.077598
Zn 12.745991 -21.243319 7.077598
Zn 12.745991 -24.075762 9.910041
Zn 9.913549 -21.243319 9.910041
Zn 9.913549 -24.075762 12.742483
Zn 12.745991 -21.243319 12.742483
Zn 12.745991 -24.075762 15.574926
Zn 9.913549 -21.243319 15.574926
Zn 9.913549 -24.075762 18.407368
Zn 12.745991 -21.243319 18.407368
Zn 12.745991 -24.075762 21.239811
Zn 9.913549 -21.243319 21.239811
Zn 9.913549 -24.075762 24.072254
Zn 12.745991 -21.243319 24.072254
Zn 9.913549 -21.243319 26.904696
Zn 9.913549 -15.578434 -29.744155
Zn 9.913549 -18.410877 -26.911712
Zn 12.745991 -15.578434 -26.911712
Zn 12.745991 -18.410877 -24.079270
Zn 9.913549 -15.578434 -24.079270
Zn 9.913549 -18.410877 -21.246827
Zn 12.745991 -15.578434 -21.246827
Zn 12.745991 -18.410877 -18.414385
Zn 9.913549 -15.578434 -18.414385
Zn 9.913549 -18.410877 -15.581942
Zn 12.745991 -15.578434 -15.581942
Zn 12.745991 -18.410877 -12.749499
Zn 9.913549 -15.578434 -12.749499
Zn 9.913549 -18.410877 -9.917057
Zn 12.745991 -15.578434 -9.917057
Zn 12.745991 -18.410877 -7.084614
Zn 9.913549 -15.578434 -7.084614
Zn 9.913549 -18.410877 -4.252172
Zn 12.745991 -15.578434 -4.252172
Zn 12.745991 -18.410877 -1.419729
Zn 9.913549 -15.578434 -1.419729
Zn 9.913549 -18.410877 1.412713
Zn 12.745991 -15.578434 1.412713
Zn 12.745991 -18.410877 4.245156
Zn 9.913549 -15.578434 4.245156
Zn 9.913549 -18.410877 7.077598
Zn 12.745991 -15.578434 7.077598
Zn 12.745991 -18.410877 9.910041
Zn 9.913549 -15.578434 9.910041
Zn 9.913549 -18.410877 12.742483
Zn 12.745991 -15.578434 12.742483
Zn 12.745991 -18.410877 15.574926
Zn 9.913549 -15.578434 15.574926
Zn 9.913549 -18.410877 18.407368
Zn 12.745991 -15.578434 18.407368
Zn 12.745991 -18.410877 21.239811
Zn 9.913549 -15.578434 21.239811
Zn 9.913549 -18.410877 24.072254
Zn 12.745991 -15.578434 24.072254
Zn 12.745991 -18.410877 26.904696
Zn 9.913549 -15.578434 26.904696
Zn 9.913549 -18.410877 29.737139
Zn 12.745991 -15.578434 29.737139
Zn 9.913549 -15.578434 32.569581
Zn 9.913549 -12.745991 -32.576597
Zn 12.745991 -9.913549 -32.576597
Zn 12.745991 -12.745991 -29.744155
Zn 9.913549 -9.913549 -29.744155
Zn 9.913549 -12.745991 -26.911712
Zn 12.745991 -9.913549 -26.911712
Zn 12.745991 -12.745991 -24.079270
Zn 9.913549 -9.913549 -24.079270
Zn 9.913549 -12.745991 -21.246827
Zn 12.745991 -9.913549 -21.246827
Zn 12.745991 -12.745991 -18.414385
Zn 9.913549 -9.913549 -18.414385
Zn 9.913549 -12.745991 -15.581942
Zn 12.745991 -9.913549 -15.581942
Zn 12.745991 -12.745991 -12.749499
Zn 9.913549 -9.913549 -12.749499
Zn 9.913549 -12.745991 -9.917057
Zn 12.745991 -9.913549 -9.917057
Zn 12.745991 -12.745991 -7.084614
Zn 9.913549 -9.913549 -7.084614
Zn 9.913549 -12.745991 -4.252172
Zn 12.745991 -9.913549 -4.252172
Zn 12.745991 -12.745991 -1.419729
Zn 9.913549 -9.913549 -1.419729
Zn 9.913549 -12.745991 1.412713
Zn 12.745991 -9.913549 1.412713
Zn 12.745991 -12.745991 4.245156
Zn 9.913549 -9.913549 4.245156
Zn 9.913549 -12.745991 7.077598
Zn 12.745991 -9.913549 7.077598
Zn 12.745991 -12.745991 9.910041
Zn 9.913549 -9.913549 9.910041
Zn 9.913549 -12.745991 12.742483
Zn 12.745991 -9.913549 12.742483
Zn 12.745991 -12.745991 15.574926
Zn 9.913549 -9.913549 15.574926
Zn 9.913549 -12.745991 18.407368
Zn 12.745991 -9.913549 18.407368
Zn 12.745991 -12.745991 21.239811
Zn 9.913549 -9.913549 21.239811
Zn 9.913549 -12.745991 24.072254
Zn 12.745991 -9.913549 24.072254
Zn 12.745991 -12.745991 26.904696
Zn 9.913549 -9.913549 26.904696
Zn 9.913549 -12.745991 29.737139
Zn 12.745991 -9.913549 29.737139
Zn 12.745991 -12.745991 32.569581
Zn 9.913549 -9.913549 32.569581
Zn 9.913549 -7.081106 -32.576597
Zn 12.745991 -4.248664 -32.576597
Zn 12.745991 -7.081106 -29.744155
Zn 9.913549 -4.248664 -29.744155
Zn 9.913549 -7.081106 -26.911712
Zn 12.745991 -4.248664 -26.911712
Zn 12.745991 -7.081106 -24.079270
Zn 9.913549 -4.248664 -24.079270
Zn 9.913549 -7.081106 -21.246827
Zn 12.745991 -4.248664 -21.246827
Zn 12.745991 -7.081106 -18.414385
Zn 9.913549 -4.248664 -18.414385
Zn 9.913549 -7.081106 -15.581942
Zn 12.745991 -4.248664 -15.581942
Zn 12.745991 -7.081106 -12.749499
Zn 9.913549 -4.248664 -12.749499
Zn 9.913549 -7.081106 -9.917057
Zn 12.745991 -4.248664 -9.917057
Zn 12.745991 -7.081106 -7.084614
Zn 9.913549 -4.248664 -7.084614
Zn 9.913549 -7.081106 -4.252172
Zn 12.745991 -4.248664 -4.252172
Zn 12.745991 -7.081106 -1.419729
Zn 9.913549 -4.248664 -1.419729
Zn 9.913549 -7.081106 1.412713
Zn 12.745991 -4.248664 1.412713
Zn 12.745991 -7.081106 4.245156
Zn 9.913549 -4.248664 4.245156
Zn 9.913549 -7.081106 7.077598
Zn 12.745991 -4.248664 7.077598
Zn 12.745991 -7.081106 9.910041
Zn 9.913549 -4.248664 9.910041
Zn 9.913549 -7.081106 12.742483
Zn 12.745991 -4.248664 12.742483
Zn 12.745991 -7.081106 15.574926
Zn 9.913549 -4.248664 15.574926
Zn 9.913549 -7.081106 18.407368
Zn 12.745991 -4.248664 18.407368
Zn 12.745991 -7.081106 21.239811
Zn 9.913549 -4.248664 21.239811
Zn 9.913549 -7.081106 24.072254
Zn 12.745991 -4.248664 24.072254
Zn 12.745991 -7.081106 26.904696
Zn 9.913549 -4.248664 26.904696
Zn 9.913549 -7.081106 29.737139
Zn 12.745991 -4.248664 29.737139
Zn 12.745991 -7.081106 32.569581
Zn 9.913549 -4.248664 32.569581
Zn 9.913549 -1.416221 -32.576597
Zn 12.745991 1.416221 -32.576597
Zn 12.745991 -1.416221 -29.744155
Zn 9.913549 1.416221 -29.744155
Zn 9.913549 -1.416221 -26.911712
Zn 12.745991 1.416221 -26.911712
Zn 12.745991 -1.416221 -24.079270
Zn 9.913549 1.416221 -24.079270
Zn 9.913549 -1.416221 -21.246827
Zn 12.745991 1.416221 -21.246827
Zn 12.745991 -1.416221 -18.414385
Zn 9.913549 1.416221 -18.414385
Zn 9.913549 -1.416221 -15.581942
Zn 12.745991 1.416221 -15.581942
Zn 12.745991 -1.416221 -12.749499
Zn 9.913549 1.416221 -12.749499
Zn 9.913549 -1.416221 -9.917057
Zn 12.745991 1.416221 -9.917057
Zn 12.745991 -1.416221 -7.084614
Zn 9.913549 1.416221 -7.084614
Zn 9.913549 -1.416221 -4.252172
Zn 12.745991 1.416221 -4.252172
Zn 12.745991 -1.416221 -1.419729
Zn 9.913549 1.416221 -1.419729
Zn 9.913549 -1.416221 1.412713
Zn 12.745991 1.416221 1.412713
Zn 12.745991 -1.416221 4.245156
Zn 9.913549 1.416221 4.245156
Zn 9.913549 -1.416221 7.077598
Zn 12.745991 1.416221 7.077598
Zn 12.745991 -1.416221 9.910041
Zn 9.913549 1.416221 9.910041
Zn 9.913549 -1.416221 12.742483
Zn 12.745991 1.416221 12.742483
Zn 12.745991 -1.416221 15.574926
Zn 9.913549 1.416221 15.574926
Zn 9.913549 -1.416221 18.407368
Zn 12.745991 1.416221 18.407368
Zn 12.745991 -1.416221 21.239811
Zn 9.913549 1.416221 21.239811
Zn 9.913549 -1.416221 24.072254
Zn 12.745991 1.416221 24.072254
Zn 12.745991 -1.416221 26.904696
Zn 9.913549 1.416221 26.904696
Zn 9.913549 -1.416221 29.737139
Zn 12.745991 1.416221 29.737139
Zn 12.745991 -1.416221 32.569581
Zn 9.913549 1.416221 32.569581
Zn 9.913549 4.248664 -32.576597
Zn 12.745991 7.081106 -32.576597
Zn 12.745991 4.248664 -29.744155
Zn 9.913549 7.081106 -29.744155
Zn 9.913549 4.248664 -26.911712
Zn 12.745991 7.081106 -26.911712
Zn 12.745991 4.248664 -24.079270
Zn 9.913549 7.081106 -24.079270
Zn 9.913549 4.248664 -21.246827
Zn 12.745991 7.081106 -21.246827
Zn 12.745991 4.248664 -18.414385
Zn 9.913549 7.081106 -18.414385
Zn 9.913549 4.248664 -15.581942
Zn 12.745991 7.081106 -15.581942
Zn 12.745991 4.248664 -12.749499
Zn 9.913549 7.081106 -12.749499
Zn 9.913549 4.248664 -9.917057
Zn 12.745991 7.081106 -9.917057
Zn 12.745991 4.248664 -7.084614
Zn 9.913549 7.081106 -7.084614
Zn 9.913549 4.248664 -4.252172
Zn 12.745991 7.081106 -4.252172
Zn 12.745991 4.248664 -1.419729
Zn 9.913549 7.081106 -1.419729
Zn 9.913549 4.248664 1.412713
Zn 12.745991 7.081106 1.412713
Zn 12.745991 4.248664 4.245156
Zn 9.913549 7.081106 4.245156
Zn 9.913549 4.248664 7.077598
Zn 12.745991 7.081106 7.077598
Zn 12.745991 4.248664 9.910041
Zn 9.913549 7.081106 9.910041
Zn 9.913549 4.248664 12.742483
Zn 12.745991 7.081106 12.742483
Zn 12.745991 4.248664 15.574926
Zn 9.913549 7.081106 15.574926
Zn 9.913549 4.248664 18.407368
Zn 12.745991 7.081106 18.407368
Zn 12.745991 4.248664 21.239811
Zn 9.913549 7.081106 21.239811
Zn 9.913549 4.248664 24.072254
Zn 12.745991 7.081106 24.072254
Zn 12.745991 4.248664 26.904696
Zn 9.913549 7.081106 26.904696
Zn 9.913549 4.248664 29.737139
Zn 12.745991 7.081106 29.737139
Zn 12.745991 4.248664 32.569581
Zn 9.913549 7.081106 32.569581
Zn 9.913549 9.913549 -32.576597
Zn 12.745991 12.745991 -32.576597
Zn 12.745991 9.913549 -29.744155
Zn 9.913549 12.745991 -29.744155
Zn 9.913549 9.913549 -26.911712
Zn 12.745991 12.745991 -26.911712
Zn 12.745991 9.913549 -24.079270
Zn 9.913549 12.745991 -24.079270
Zn 9.913549 9.913549 -21.246827
Zn 12.745991 12.745991 -21.246827
Zn 12.745991 9.913549 -18.414385
Zn 9.913549 12.745991 -18.414385
Zn 9.913549 9.913549 -15.581942
Zn 12.745991 12.745991 -15.581942
Zn 12.745991 9.913549 -12.749499
Zn 9.913549 12.745991 -12.749499
Zn 9.913549 9.913549 -9.917057
Zn 12.745991 12.745991 -9.917057
Zn 12.745991 9.913549 -7.084614
Zn 9.913549 12.745991 -7.084614
Zn 9.913549 9.913549 -4.252172
Zn 12.745991 12.745991 -4.252172
Zn 12.745991 9.913549 -1.419729
Zn 9.913549 12.745991 -1.419729
Zn 9.913549 9.913549 1.412713
Zn 12.745991 12.745991 1.412713
Zn 12.745991 9.913549 4.245156
Zn 9.913549 12.745991 4.245156
Zn 9.913549 9.913549 7.077598
Zn 12.745991 12.745991 7.077598
Zn 12.745991 9.913549 9.910041
Zn 9.913549 12.745991 9.910041
Zn 9.913549 9.913549 12.742483
Zn 12.745991 12.745991 12.742483
Zn 12.745991 9.913549 15.574926
Zn 9.913549 12.745991 15.574926
Zn 9.913549 9.913549 18.407368
Zn 12.745991 12.745991 18.407368
Zn 12.745991 9.913549 21.239811
Zn 9.913549 12.745991 21.239811
Zn 9.913549 9.913549 24.072254
Zn 12.745991 12.745991 24.072254
Zn 12.745991 9.913549 26.904696
Zn 9.913549 12.745991 26.904696
Zn 9.913549 9.913549 29.737139
Zn 12.745991 12.745991 29.737139
Zn 12.745991 9.913549 32.569581
Zn 9.913549 12.745991 32.569581
Zn 9.913549 15.578434 -32.576597
Zn 12.745991 15.578434 -29.744155
Zn 9.913549 18.410877 -29.744155
Zn 9.913549 15.578434 -26.911712
Zn 12.745991 18.410877 -26.911712
Zn 12.745991 15.578434 -24.079270
Zn 9.913549 18.410877 -24.079270
Zn 9.913549 15.578434 -21.246827
Zn 12.745991 18.410877 -21.246827
Zn 12.745991 15.578434 -18.414385
Zn 9.913549 18.410877 -18.414385
Zn 9.913549 15.578434 -15.581942
Zn 12.745991 18.410877 -15.581942
Zn 12.745991 15.578434 -12.749499
Zn 9.913549 18.410877 -12.749499
Zn 9.913549 15.578434 -9.917057
Zn 12.745991 18.410877 -9.917057
Zn 12.745991 15.578434 -7.084614
Zn 9.913549 18.410877 -7.084614
Zn 9.913549 15.578434 -4.252172
Zn 12.745991 18.410877 -4.252172
Zn 12.745991 15.578434 -1.419729
Zn 9.913549 18.410877 -1.419729
Zn 9.913549 15.578434 1.412713
Zn 12.745991 18.410877 1.412713
Zn 12.745991 15.578434 4.245156
Zn 9.913549 18.410877 4.245156
Zn 9.913549 15.578434 7.077598
Zn 12.745991 18.410877 7.077598
Zn 12.745991 15.578434 9.910041
Zn 9.913549 18.410877 9.910041
Zn 9.913549 15.578434 12.742483
Zn 12.745991 18.410877 12.742483
Zn 12.745991 15.578434 15.574926
Zn 9.913549 18.410877 15.574926
Zn 9.913549 15.578434 18.407368
Zn 12.745991 18.410877 18.407368
Zn 12.745991 15.578434 21.239811
Zn 9.913549 18.410877 21.239811
Zn 9.913549 15.578434 24.072254
Zn 12.745991 18.410877 24.072254
Zn 12.745991 15.578434 26.904696
Zn 9.913549 18.410877 26.904696
Zn 9.913549 15.578434 29.737139
Zn 9.913549 21.243319 -26.911712
Zn 12.745991 21.243319 -24.079270
Zn 9.913549 24.075762 -24.079270
Zn 9.913549 21.243319 -21.246827
Zn 12.745991 24.075762 -21.246827
Zn 12.745991 21.243319 -18.414385
Zn 9.913549 24.075762 -18.414385
Zn 9.913549 21.243319 -15.581942
Zn 12.745991 24.075762 -15.581942
Zn 12.745991 21.243319 -12.749499
Zn 9.913549 24.075762 -12.749499
Zn 9.913549 21.243319 -9.917057
Zn 12.745991 24.075762 -9.917057
Zn 12.745991 21.243319 -7.084614
Zn 9.913549 24.075762 -7.084614
Zn 9.913549 21.243319 -4.252172
Zn 12.745991 24.075762 -4.252172
Zn 12.745991 21.243319 -1.419729
Zn 9.913549 24.075762 -1.419729
Zn 9.913549 21.243319 1.412713
Zn 12.745991 24.075762 1.412713
Zn 12.745991 21.243319 4.245156
Zn 9.913549 24.075762 4.245156
Zn 9.913549 21.243319 7.077598
Zn 12.745991 24.075762 7.077598
Zn 12.745991 21.243319 9.910041
Zn 9.913549 24.075762 9.910041
Zn 9.913549 21.243319 12.742483
Zn 12.745991 24.075762 12.742483
Zn 12.745991 21.243319 15.574926
Zn 9.913549 24.075762 15.574926
Zn 9.913549 21.243319 18.407368
Zn 12.745991 24.075762 18.407368
Zn 12.745991 21.243319 21.239811
Zn 9.913549 24.075762 21.239811
Zn 9.913549 21.243319 24.072254
Zn 9.913549 26.908204 -21.246827
Zn 12.745991 26.908204 -18.414385
Zn 9.913549 29.740647 -18.414385
Zn 9.913549 26.908204 -15.581942
Zn 12.745991 29.740647 -15.581942
Zn 12.745991 26.908204 -12.749499
Zn 9.913549 29.740647 -12.749499
Zn 9.913549 26.908204 -9.917057
Zn 12.745991 29.740647 -9.917057
Zn 12.745991 26.908204 -7.084614
Zn 9.913549 29.740647 -7.084614
Zn 9.913549 26.908204 -4.252172
Zn 12.745991 29.740647 -4.252172
Zn 12.745991 26.908204 -1.419729
Zn 9.913549 29.740647 -1.419729
Zn 9.913549 26.908204 1.412713
Zn 12.745991 29.740647 1.412713
Zn 12.745991 26.908204 4.245156
Zn 9.913549 29.740647 4.245156
Zn 9.913549 26.908204 7.077598
Zn 12.745991 29.740647 7.077598
Zn 12.745991 26.908204 9.910041
Zn 9.913549 29.740647 9.910041
Zn 9.913549 26.908204 12.742483
Zn 12.745991 29.740647 12.742483
Zn 12.745991 26.908204 15.574926
Zn 9.913549 29.740647 15.574926
Zn 9.913549 26.908204 18.407368
Zn 9.913549 32.573089 -15.581942
Zn 12.745991 32.573089 -12.749499
Zn 9.913549 32.573089 -9.917057
Zn 12.745991 32.573089 -7.084614
Zn 9.913549 32.573089 -4.252172
Zn 12.745991 32.573089 -1.419729
Zn 9.913549 32.573089 1.412713
Zn 12.745991 32.573089 4.245156
Zn 9.913549 32.573089 7.077598
Zn 12.745991 32.573089 9.910041
Zn 9.913549 32.573089 12.742483
Zn 15.578434 -32.573089 -7.084614
Zn 18.410877 -32.573089 -4.252172
Zn 15.578434 -32.573089 -1.419729
Zn 18.410877 -32.573089 1.412713
Zn 15.578434 -32.573089 4.245156
Zn 18.410877 -32.573089 7.077598
Zn 15.578434 -32.573089 9.910041
Zn 15.578434 -26.908204 -12.749499
Zn 15.578434 -29.740647 -9.917057
Zn 18.410877 -26.908204 -9.917057
Zn 18.410877 -29.740647 -7.084614
Zn 15.578434 -26.908204 -7.084614
Zn 15.578434 -29.740647 -4.252172
Zn 18.410877 -26.908204 -4.252172
Zn 18.410877 -29.740647 -1.419729
Zn 15.578434 -26.908204 -1.419729
Zn 15.578434 -29.740647 1.412713
Zn 18.410877 -26.908204 1.412713
Zn 18.410877 -29.740647 4.245156
Zn 15.578434 -26.908204 4.245156
Zn 15.578434 -29.740647 7.077598
Zn 18.410877 -26.908204 7.077598
Zn 18.410877 -29.740647 9.910041
Zn 15.578434 -26.908204 9.910041
Zn 15.578434 -29.740647 12.742483
Zn 18.410877 -26.908204 12.742483
Zn 15.578434 -26.908204 15.574926
Zn 15.578434 -21.243319 -18.414385
Zn 15.578434 -24.075762 -15.581942
Zn 18.410877 -21.243319 -15.581942
Zn 18.410877 -24.075762 -12.749499
Zn 15.578434 -21.243319 -12.749499
Zn 15.578434 -24.075762 -9.917057
Zn 18.410877 -21.243319 -9.917057
Zn 18.410877 -24.075762 -7.084614
Zn 15.578434 -21.243319 -7.084614
Zn 15.578434 -24.075762 -4.252172
Zn 18.410877 -21.243319 -4.252172
Zn 18.410877 -24.075762 -1.419729
Zn 15.578434 -21.243319 -1.419729
Zn 15.578434 -24.075762 1.412713
Zn 18.410877 -21.243319 1.412713
Zn 18.410877 -24.075762 4.245156
Zn 15.578434 -21.243319 4.245156
Zn 15.578434 -24.075762 7.077598
Zn 18.410877 -21.243319 7.077598
Zn 18.410877 -24.075762 9.910041
Zn 15.578434 -21.243319 9.910041
Zn 15.578434 -24.075762 12.742483
Zn 18.410877 -21.243319 12.742483
Zn 18.410877 -24.075762 15.574926
Zn 15.578434 -21.243319 15.574926
Zn 15.578434 -24.075762 18.407368
Zn 18.410877 -21.243319 18.407368
Zn 15.578434 -21.243319 21.239811
Zn 15.578434 -15.578434 -24.079270
Zn 15.578434 -18.410877 -21.246827
Zn 18.410877 -15.578434 -21.246827
Zn 18.410877 -18.410877 -18.414385
Zn 15.578434 -15.578434 -18.414385
Zn 15.578434 -18.410877 -15.581942
Zn 18.410877 -15.578434 -15.581942
Zn 18.410877 -18.410877 -12.749499
Zn 15.578434 -15.578434 -12.749499
Zn 15.578434 -18.410877 -9.917057
Zn 18.410877 -15.578434 -9.917057
Zn 18.410877 -18.410877 -7.084614
Zn 15.578434 -15.578434 -7.084614
Zn 15.578434 -18.410877 -4.252172
Zn 18.410877 -15.578434 -4.252172
Zn 18.410877 -18.410877 -1.419729
Zn 15.578434 -15.578434 -1.419729
Zn 15.578434 -18.410877 1.412713
Zn 18.410877 -15.578434 1.412713
Zn 18.410877 -18.410877 4.245156
Zn 15.578434 -15.578434 4.245156
Zn 15.578434 -18.410877 7.077598
Zn 18.410877 -15.578434 7.077598
Zn 18.410877 -18.410877 9.910041
Zn 15.578434 -15.578434 9.910041
Zn 15.578434 -18.410877 12.742483
Zn 18.410877 -15.578434 12.742483
Zn 18.410877 -18.410877 15.574926
Zn 15.578434 -15.578434 15.574926
Zn 15.578434 -18.410877 18.407368
Zn 18.410877 -15.578434 18.407368
Zn 18.410877 -18.410877 21.239811
Zn 15.578434 -15.578434 21.239811
Zn 15.578434 -18.410877 24.072254
Zn 18.410877 -15.578434 24.072254
Zn 15.578434 -15.578434 26.904696
Zn 15.578434 -9.913549 -29.744155
Zn 15.578434 -12.745991 -26.911712
Zn 18.410877 -9.913549 -26.911712
Zn 18.410877 -12.745991 -24.079270
Zn 15.578434 -9.913549 -24.079270
Zn 15.578434 -12.745991 -21.246827
Zn 18.410877 -9.913549 -21.246827
Zn 18.410877 -12.745991 -18.414385
Zn 15.578434 -9.913549 -18.414385
Zn 15.578434 -12.745991 -15.581942
Zn 18.410877 -9.913549 -15.581942
Zn 18.410877 -12.745991 -12.749499
Zn 15.578434 -9.913549 -12.749499
Zn 15.578434 -12.745991 -9.917057
Zn 18.410877 -9.913549 -9.917057
Zn 18.410877 -12.745991 -7.084614
Zn 15.578434 -9.913549 -7.084614
Zn 15.578434 -12.745991 -4.252172
Zn 18.410877 -9.913549 -4.252172
Zn 18.410877 -12.745991 -1.419729
Zn 15.578434 -9.913549 -1.419729
Zn 15.578434 -12.745991 1.412713
Zn 18.410877 -9.913549 1.412713
Zn 18.410877 -12.745991 4.245156
Zn 15.578434 -9.913549 4.245156
Zn 15.578434 -12.745991 7.077598
Zn 18.410877 -9.913549 7.077598
Zn 18.410877 -12.745991 9.910041
Zn 15.578434 -9.913549 9.910041
Zn 15.578434 -12.745991 12.742483
Zn 18.410877 -9.913549 12.742483
Zn 18.410877 -12.745991 15.574926
Zn 15.578434 -9.913549 15.574926
Zn 15.578434 -12.745991 18.407368
Zn 18.410877 -9.913549 18.407368
Zn 18.410877 -12.745991 21.239811
Zn 15.578434 -9.913549 21.239811
Zn 15.578434 -12.745991 24.072254
Zn 18.410877 -9.913549 24.072254
Zn 18.410877 -12.745991 26.904696
Zn 15.578434 -9.913549 26.904696
Zn 15.578434 -12.745991 29.737139
Zn 18.410877 -9.913549 29.737139
Zn 15.578434 -9.913549 32.569581
Zn 15.578434 -7.081106 -32.576597
Zn 18.410877 -4.248664 -32.576597
Zn 18.410877 -7.081106 -29.744155
Zn 15.578434 -4.248664 -29.744155
Zn 15.578434 -7.081106 -26.911712
Zn 18.410877 -4.248664 -26.911712
Zn 18.410877 -7.081106 -24.079270
Zn 15.578434 -4.248664 -24.079270
Zn 15.578434 -7.081106 -21.246827
Zn 18.410877 -4.248664 -21.246827
Zn 18.410877 -7.081106 -18.414385
Zn 15.578434 -4.248664 -18.414385
Zn 15.578434 -7.081106 -15.581942
Zn 18.410877 -4.248664 -15.581942
Zn 18.410877 -7.081106 -12.749499
Zn 15.578434 -4.248664 -12.749499
Zn 15.578434 -7.081106 -9.917057
Zn 18.410877 -4.248664 -9.917057
Zn 18.410877 -7.081106 -7.084614
Zn 15.578434 -4.248664 -7.084614
Zn 15.578434 -7.081106 -4.252172
Zn 18.410877 -4.248664 -4.252172
Zn 18.410877 -7.081106 -1.419729
Zn 15.578434 -4.248664 -1.419729
Zn 15.578434 -7.081106 1.412713
Zn 18.410877 -4.248664 1.412713
Zn 18.410877 -7.081106 4.245156
Zn 15.578434 -4.248664 4.245156
Zn 15.578434 -7.081106 7.077598
Zn 18.410877 -4.248664 7.077598
Zn 18.410877 -7.081106 9.910041
Zn 15.578434 -4.248664 9.910041
Zn 15.578434 -7.081106 12.742483
Zn 18.410877 -4.248664 12.742483
Zn 18.410877 -7.081106 15.574926
Zn 15.578434 -4.248664 15.574926
Zn 15.578434 -7.081106 18.407368
Zn 18.410877 -4.248664 18.407368
Zn 18.410877 -7.081106 21.239811
Zn 15.578434 -4.248664 21.239811
Zn 15.578434 -7.081106 24.072254
Zn 18.410877 -4.248664 24.072254
Zn 18.410877 -7.081106 26.904696
Zn 15.578434 -4.248664 26.904696
Zn 15.578434 -7.081106 29.737139
Zn 18.410877 -4.248664 29.737139
Zn 18.410877 -7.081106 32.569581
Zn 15.578434 -4.248664 32.569581
Zn 15.578434 -1.416221 -32.576597
Zn 18.410877 1.416221 -32.576597
Zn 18.410877 -1.416221 -29.744155
Zn 15.578434 1.416221 -29.744155
Zn 15.578434 -1.416221 -26.911712
Zn 18.410877 1.416221 -26.911712
Zn 18.410877 -1.416221 -24.079270
Zn 15.578434 1.416221 -24.079270
Zn 15.578434 -1.416221 -21.246827
Zn 18.410877 1.416221 -21.246827
Zn 18.410877 -1.416221 -18.414385
Zn 15.578434 1.416221 -18.414385
Zn 15.578434 -1.416221 -15.581942
Zn 18.410877 1.416221 -15.581942
Zn 18.410877 -1.416221 -12.749499
Zn 15.578434 1.416221 -12.749499
Zn 15.578434 -1.416221 -9.917057
Zn 18.410877 1.416221 -9.917057
Zn 18.410877 -1.416221 -7.084614
Zn 15.578434 1.416221 -7.084614
Zn 15.578434 -1.416221 -4.252172
Zn 18.410877 1.416221 -4.252172
Zn 18.410877 -1.416221 -1.419729
Zn 15.578434 1.416221 -1.419729
Zn 15.578434 -1.416221 1.412713
Zn 18.410877 1.416221 1.412713
Zn 18.410877 -1.416221 4.245156
Zn 15.578434 1.416221 4.245156
Zn 15.578434 -1.416221 7.077598
Zn 18.410877 1.416221 7.077598
Zn 18.410877 -1.416221 9.910041
Zn 15.578434 1.416221 9.910041
Zn 15.578434 -1.416221 12.742483
Zn 18.410877 1.416221 12.742483
Zn 18.410877 -1.416221 15.574926
Zn 15.578434 1.416221 15.574926
Zn 15.578434 -1.416221 18.407368
Zn 18.410877 1.416221 18.407368
Zn 18.410877 -1.416221 21.239811
Zn 15.578434 1.416221 21.239811
Zn 15.578434 -1.416221 24.072254
Zn 18.410877 1.416221 24.072254
Zn 18.410877 -1.416221 26.904696
Zn 15.578434 1.416221 26.904696
Zn 15.578434 -1.416221 29.737139
Zn 18.410877 1.416221 29.737139
Zn 18.410877 -1.416221 32.569581
Zn 15.578434 1.416221 32.569581
Zn 15.578434 4.248664 -32.576597
Zn 18.410877 7.081106 -32.576597
Zn 18.410877 4.248664 -29.744155
Zn 15.578434 7.081106 -29.744155
Zn 15.578434 4.248664 -26.911712
Zn 18.410877 7.081106 -26.911712
Zn 18.410877 4.248664 -24.079270
Zn 15.578434 7.081106 -24.079270
Zn 15.578434 4.248664 -21.246827
Zn 18.410877 7.081106 -21.246827
Zn 18.410877 4.248664 -18.414385
Zn 15.578434 7.081106 -18.414385
Zn 15.578434 4.248664 -15.581942
Zn 18.410877 7.081106 -15.581942
Zn 18.410877 4.248664 -12.749499
Zn 15.578434 7.081106 -12.749499
Zn 15.578434 4.248664 -9.917057
Zn 18.410877 7.081106 -9.917057
Zn 18.410877 4.248664 -7.084614
Zn 15.578434 7.081106 -7.084614
Zn 15.578434 4.248664 -4.252172
Zn 18.410877 7.081106 -4.252172
Zn 18.410877 4.248664 -1.419729
Zn 15.578434 7.081106 -1.419729
Zn 15.578434 4.248664 1.412713
Zn 18.410877 7.081106 1.412713
Zn 18.410877 4.248664 4.245156
Zn 15.578434 7.081106 4.245156
Zn 15.578434 4.248664 7.077598
Zn 18.410877 7.081106 7.077598
Zn 18.410877 4.248664 9.910041
Zn 15.578434 7.081106 9.910041
Zn 15.578434 4.248664 12.742483
Zn 18.410877 7.081106 12.742483
Zn 18.410877 4.248664 15.574926
Zn 15.578434 7.081106 15.574926
Zn 15.578434 4.248664 18.407368
Zn 18.410877 7.081106 18.407368
Zn 18.410877 4.248664 21.239811
Zn 15.578434 7.081106 21.239811
Zn 15.578434 4.248664 24.072254
Zn 18.410877 7.081106 24.072254
Zn 18.410877 4.248664 26.904696
Zn 15.578434 7.081106 26.904696
Zn 15.578434 4.248664 29.737139
Zn 18.410877 7.081106 29.737139
Zn 18.410877 4.248664 32.569581
Zn 15.578434 7.081106 32.569581
Zn 15.578434 9.913549 -32.576597
Zn 18.410877 9.913549 -29.744155
Zn 15.578434 12.745991 -29.744155
Zn 15.578434 9.913549 -26.911712
Zn 18.410877 12.745991 -26.911712
Zn 18.410877 9.913549 -24.079270
Zn 15.578434 12.745991 -24.079270
Zn 15.578434 9.913549 -21.246827
Zn 18.410877 12.745991 -21.246827
Zn 18.410877 9.913549 -18.414385
Zn 15.578434 12.745991 -18.414385
Zn 15.578434 9.913549 -15.581942
Zn 18.410877 12.745991 -15.581942
Zn 18.410877 9.913549 -12.749499
Zn 15.578434 12.745991 -12.749499
Zn 15.578434 9.913549 -9.917057
Zn 18.410877 12.745991 -9.917057
Zn 18.410877 9.913549 -7.084614
Zn 15.578434 12.745991 -7.084614
Zn 15.578434 9.913549 -4.252172
Zn 18.410877 12.745991 -4.252172
Zn 18.410877 9.913549 -1.419729
Zn 15.578434 12.745991 -1.419729
Zn 15.578434 9.913549 1.412713
Zn 18.410877 12.745991 1.412713
Zn 18.410877 9.913549 4.245156
Zn 15.578434 12.745991 4.245156
Zn 15.578434 9.913549 7.077598
Zn 18.410877 12.745991 7.077598
Zn 18.410877 9.913549 9.910041
Zn 15.578434 12.745991 9.910041
Zn 15.578434 9.913549 12.742483
Zn 18.410877 12.745991 12.742483
Zn 18.410877 9.913549 15.574926
Zn 15.578434 12.745991 15.574926
Zn 15.578434 9.913549 18.407368
Zn 18.410877 12.745991 18.407368
Zn 18.410877 9.913549 21.239811
Zn 15.578434 12.745991 21.239811
Zn 15.578434 9.913549 24.072254
Zn 18.410877 12.745991 24.072254
Zn 18.410877 9.913549 26.904696
Zn 15.578434 12.745991 26.904696
Zn 15.578434 9.913549 29.737139
Zn 15.578434 15.578434 -26.911712
Zn 18.410877 15.578434 -24.079270
Zn 15.578434 18.410877 -24.079270
Zn 15.578434 15.578434 -21.246827
Zn 18.410877 18.410877 -21.246827
Zn 18.410877 15.578434 -18.414385
Zn 15.578434 18.410877 -18.414385
Zn 15.578434 15.578434 -15.581942
Zn 18.410877 18.410877 -15.581942
Zn 18.410877 15.578434 -12.749499
Zn 15.578434 18.410877 -12.749499
Zn 15.578434 15.578434 -9.917057
Zn 18.410877 18.410877 -9.917057
Zn 18.410877 15.578434 -7.084614
Zn 15.578434 18.410877 -7.084614
Zn 15.578434 15.578434 -4.252172
Zn 18.410877 18.410877 -4.252172
Zn 18.410877 15.578434 -1.419729
Zn 15.578434 18.410877 -1.419729
Zn 15.578434 15.578434 1.412713
Zn 18.410877 18.410877 1.412713
Zn 18.410877 15.578434 4.245156
Zn 15.578434 18.410877 4.245156
Zn 15.578434 15.578434 7.077598
Zn 18.410877 18.410877 7.077598
Zn 18.410877 15.578434 9.910041
Zn 15.578434 18.410877 9.910041
Zn 15.578434 15.578434 12.742483
Zn 18.410877 18.410877 12.742483
Zn 18.410877 15.578434 15.574926
Zn 15.578434 18.410877 15.574926
Zn 15.578434 15.578434 18.407368
Zn 18.410877 18.410877 18.407368
Zn 18.410877 15.578434 21.239811
Zn 15.578434 18.410877 21.239811
Zn 15.578434 15.578434 24.072254
Zn 15.578434 21.243319 -21.246827
Zn 18.410877 21.243319 -18.414385
Zn 15.578434 24.075762 -18.414385
Zn 15.578434 21.243319 -15.581942
Zn 18.410877 24.075762 -15.581942
Zn 18.410877 21.243319 -12.749499
Zn 15.578434 24.075762 -12.749499
Zn 15.578434 21.243319 -9.917057
Zn 18.410877 24.075762 -9.917057
Zn 18.410877 21.243319 -7.084614
Zn 15.578434 24.075762 -7.084614
Zn 15.578434 21.243319 -4.252172
Zn 18.410877 24.075762 -4.252172
Zn 18.410877 21.243319 -1.419729
Zn 15.578434 24.075762 -1.419729
Zn 15.578434 21.243319 1.412713
Zn 18.410877 24.075762 1.412713
Zn 18.410877 21.243319 4.245156
Zn 15.578434 24.075762 4.245156
Zn 15.578434 21.243319 7.077598
Zn 18.410877 24.075762 7.077598
Zn 18.410877 21.243319 9.910041
Zn 15.578434 24.075762 9.910041
Zn 15.578434 21.243319 12.742483
Zn 18.410877 24.075762 12.742483
Zn 18.410877 21.243319 15.574926
Zn 15.578434 24.075762 15.574926
Zn 15.578434 21.243319 18.407368
Zn 15.578434 26.908204 -15.581942
Zn 18.410877 26.908204 -12.749499
Zn 15.578434 29.740647 -12.749499
Zn 15.578434 26.908204 -9.917057
Zn 18.410877 29.740647 -9.917057
Zn 18.410877 26.908204 -7.084614
Zn 15.578434 29.740647 -7.084614
Zn 15.578434 26.908204 -4.252172
Zn 18.410877 29.740647 -4.252172
Zn 18.410877 26.908204 -1.419729
Zn 15.578434 29.740647 -1.419729
Zn 15.578434 26.908204 1.412713
Zn 18.410877 29.740647 1.412713
Zn 18.410877 26.908204 4.245156
Zn 15.578434 29.740647 4.245156
Zn 15.578434 26.908204 7.077598
Zn 18.410877 29.740647 7.077598
Zn 18.410877 26.908204 9.910041
Zn 15.578434 29.740647 9.910041
Zn 15.578434 26.908204 12.742483
Zn 15.578434 32.573089 -9.917057
Zn 18.410877 32.573089 -7.084614
Zn 15.578434 32.573089 -4.252172
Zn 18.410877 32.573089 -1.419729
Zn 15.578434 32.573089 1.412713
Zn 18.410877 32.573089 4.245156
Zn 15.578434 32.573089 7.077598
Zn 21.243319 -32.573089 -1.419729
Zn 24.075762 -32.573089 1.412713
Zn 21.243319 -32.573089 4.245156
Zn 21.243319 -26.908204 -7.084614
Zn 21.243319 -29.740647 -4.252172
Zn 24.075762 -26.908204 -4.252172
Zn 24.075762 -29.740647 -1.419729
Zn 21.243319 -26.908204 -1.419729
Zn 21.243319 -29.740647 1.412713
Zn 24.075762 -26.908204 1.412713
Zn 24.075762 -29.740647 4.245156
Zn 21.243319 -26.908204 4.245156
Zn 21.243319 -29.740647 7.077598
Zn 24.075762 -26.908204 7.077598
Zn 21.243319 -26.908204 9.910041
Zn 21.243319 -21.243319 -12.749499
Zn 21.243319 -24.075762 -9.917057
Zn 24.075762 -21.243319 -9.917057
Zn 24.075762 -24.075762 -7.084614
Zn 21.243319 -21.243319 -7.084614
Zn 21.243319 -24.075762 -4.252172
Zn 24.075762 -21.243319 -4.252172
Zn 24.075762 -24.075762 -1.419729
Zn 21.243319 -21.243319 -1.419729
Zn 21.243319 -24.075762 1.412713
Zn 24.075762 -21.243319 1.412713
Zn 24.075762 -24.075762 4.245156
Zn 21.243319 -21.243319 4.245156
Zn 21.243319 -24.075762 7.077598
Zn 24.075762 -21.243319 7.077598
Zn 24.075762 -24.075762 9.910041
Zn 21.243319 -21.243319 9.910041
Zn 21.243319 -24.075762 12.742483
Zn 24.075762 -21.243319 12.742483
Zn 21.243319 -21.243319 15.574926
Zn 21.243319 -15.578434 -18.414385
Zn 21.243319 -18.410877 -15.581942
Zn 24.075762 -15.578434 -15.581942
Zn 24.075762 -18.410877 -12.749499
Zn 21.243319 -15.578434 -12.749499
Zn 21.243319 -18.410877 -9.917057
Zn 24.075762 -15.578434 -9.917057
Zn 24.075762 -18.410877 -7.084614
Zn 21.243319 -15.578434 -7.084614
Zn 21.243319 -18.410877 -4.252172
Zn 24.075762 -15.578434 -4.252172
Zn 24.075762 -18.410877 -1.419729
Zn 21.243319 -15.578434 -1.419729
Zn 21.243319 -18.410877 1.412713
Zn 24.075762 -15.578434 1.412713
Zn 24.075762 -18.410877 4.245156
Zn 21.243319 -15.578434 4.245156
Zn 21.243319 -18.410877 7.077598
Zn 24.075762 -15.578434 7.077598
Zn 24.075762 -18.410877 9.910041
Zn 21.243319 -15.578434 9.910041
Zn 21.243319 -18.410877 12.742483
Zn 24.075762 -15.578434 12.742483
Zn 24.075762 -18.410877 15.574926
Zn 21.243319 -15.578434 15.574926
Zn 21.243319 -18.410877 18.407368
Zn 24.075762 -15.578434 18.407368
Zn 21.243319 -15.578434 21.239811
Zn 21.243319 -9.913549 -24.079270
Zn 21.243319 -12.745991 -21.246827
Zn 24.075762 -9.913549 -21.246827
Zn 24.075762 -12.745991 -18.414385
Zn 21.243319 -9.913549 -18.414385
Zn 21.243319 -12.745991 -15.581942
Zn 24.075762 -9.913549 -15.581942
Zn 24.075762 -12.745991 -12.749499
Zn 21.243319 -9.913549 -12.749499
Zn 21.243319 -12.745991 -9.917057
Zn 24.075762 -9.913549 -9.917057
Zn 24.075762 -12.745991 -7.084614
Zn 21.243319 -9.913549 -7.084614
Zn 21.243319 -12.745991 -4.252172
Zn 24.075762 -9.913549 -4.252172
Zn 24.075762 -12.745991 -1.419729
Zn 21.243319 -9.913549 -1.419729
Zn 21.243319 -12.745991 1.412713
Zn 24.075762 -9.913549 1.412713
Zn 24.075762 -12.745991 4.245156
Zn 21.243319 -9.913549 4.245156
Zn 21.243319 -12.745991 7.077598
Zn 24.075762 -9.913549 7.077598
Zn 24.075762 -12.745991 9.910041
Zn 21.243319 -9.913549 9.910041
Zn 21.243319 -12.745991 12.742483
Zn 24.075762 -9.913549 12.742483
Zn 24.075762 -12.745991 15.574926
Zn 21.243319 -9.913549 15.574926
Zn 21.243319 -12.745991 18.407368
Zn 24.075762 -9.913549 18.407368
Zn 24.075762 -12.745991 21.239811
Zn 21.243319 -9.913549 21.239811
Zn 21.243319 -12.745991 24.072254
Zn 24.075762 -9.913549 24.072254
Zn 21.243319 -9.913549 26.904696
Zn 21.243319 -4.248664 -29.744155
Zn 21.243319 -7.081106 -26.911712
Zn 24.075762 -4.248664 -26.911712
Zn 24.075762 -7.081106 -24.079270
Zn 21.243319 -4.248664 -24.079270
Zn 21.243319 -7.081106 -21.246827
Zn 24.075762 -4.248664 -21.246827
Zn 24.075762 -7.081106 -18.414385
Zn 21.243319 -4.248664 -18.414385
Zn 21.243319 -7.081106 -15.581942
Zn 24.075762 -4.248664 -15.581942
Zn 24.075762 -7.081106 -12.749499
Zn 21.243319 -4.248664 -12.749499
Zn 21.243319 -7.081106 -9.917057
Zn 24.075762 -4.248664 -9.917057
Zn 24.075762 -7.081106 -7.084614
Zn 21.243319 -4.248664 -7.084614
Zn 21.243319 -7.081106 -4.252172
Zn 24.075762 -4.248664 -4.252172
Zn 24.075762 -7.081106 -1.419729
Zn 21.243319 -4.248664 -1.419729
Zn 21.243319 -7.081106 1.412713
Zn 24.075762 -4.248664 1.412713
Zn 24.075762 -7.081106 4.245156
Zn 21.243319 -4.248664 4.245156
Zn 21.243319 -7.081106 7.077598
Zn 24.075762 -4.248664 7.077598
Zn 24.075762 -7.081106 9.910041
Zn 21.243319 -4.248664 9.910041
Zn 21.243319 -7.081106 12.742483
Zn 24.075762 -4.248664 12.742483
Zn 24.075762 -7.081106 15.574926
Zn 21.243319 -4.248664 15.574926
Zn 21.243319 -7.081106 18.407368
Zn 24.075762 -4.248664 18.407368
Zn 24.075762 -7.081106 21.239811
Zn 21.243319 -4.248664 21.239811
Zn 21.243319 -7.081106 24.072254
Zn 24.075762 -4.248664 24.072254
Zn 24.075762 -7.081106 26.904696
Zn 21.243319 -4.248664 26.904696
Zn 21.243319 -7.081106 29.737139
Zn 24.075762 -4.248664 29.737139
Zn 21.243319 -4.248664 32.569581
Zn 21.243319 -1.416221 -32.576597
Zn 24.075762 1.416221 -32.576597
Zn 24.075762 -1.416221 -29.744155
Zn 21.243319 1.416221 -29.744155
Zn 21.243319 -1.416221 -26.911712
Zn 24.075762 1.416221 -26.911712
Zn 24.075762 -1.416221 -24.079270
Zn 21.243319 1.416221 -24.079270
Zn 21.243319 -1.416221 -21.246827
Zn 24.075762 1.416221 -21.246827
Zn 24.075762 -1.416221 -18.414385
Zn 21.243319 1.416221 -18.414385
Zn 21.243319 -1.416221 -15.581942
Zn 24.075762 1.416221 -15.581942
Zn 24.075762 -1.416221 -12.749499
Zn 21.243319 1.416221 -12.749499
Zn 21.243319 -1.416221 -9.917057
Zn 24.075762 1.416221 -9.917057
Zn 24.075762 -1.416221 -7.084614
Zn 21.243319 1.416221 -7.084614
Zn 21.243319 -1.416221 -4.252172
Zn 24.075762 1.416221 -4.252172
Zn 24.075762 -1.416221 -1.419729
Zn 21.243319 1.416221 -1.419729
Zn 21.243319 -1.416221 1.412713
Zn 24.075762 1.416221 1.412713
Zn 24.075762 -1.416221 4.245156
Zn 21.243319 1.416221 4.245156
Zn 21.243319 -1.416221 7.077598
Zn 24.075762 1.416221 7.077598
Zn 24.075762 -1.416221 9.910041
Zn 21.243319 1.416221 9.910041
Zn 21.243319 -1.416221 12.742483
Zn 24.075762 1.416221 12.742483
Zn 24.075762 -1.416221 15.574926
Zn 21.243319 1.416221 15.574926
Zn 21.243319 -1.416221 18.407368
Zn 24.075762 1.416221 18.407368
Zn 24.075762 -1.416221 21.239811
Zn 21.243319 1.416221 21.239811
Zn 21.243319 -1.416221 24.072254
Zn 24.075762 1.416221 24.072254
Zn 24.075762 -1.416221 26.904696
Zn 21.243319 1.416221 26.904696
Zn 21.243319 -1.416221 29.737139
Zn 24.075762 1.416221 29.737139
Zn 24.075762 -1.416221 32.569581
Zn 21.243319 1.416221 32.569581
Zn 21.243319 4.248664 -32.576597
Zn 24.075762 4.248664 -29.744155
Zn 21.243319 7.081106 -29.744155
Zn 21.243319 4.248664 -26.911712
Zn 24.075762 7.081106 -26.911712
Zn 24.075762 4.248664 -24.079270
Zn 21.243319 7.081106 -24.079270
Zn 21.243319 4.248664 -21.246827
Zn 24.075762 7.081106 -21.246827
Zn 24.075762 4.248664 -18.414385
Zn 21.243319 7.081106 -18.414385
Zn 21.243319 4.248664 -15.581942
Zn 24.075762 7.081106 -15.581942
Zn 24.075762 4.248664 -12.749499
Zn 21.243319 7.081106 -12.749499
Zn 21.243319 4.248664 -9.917057
Zn 24.075762 7.081106 -9.917057
Zn 24.075762 4.248664 -7.084614
Zn 21.243319 7.081106 -7.084614
Zn 21.243319 4.248664 -4.252172
Zn 24.075762 7.081106 -4.252172
Zn 24.075762 4.248664 -1.419729
Zn 21.243319 7.081106 -1.419729
Zn 21.243319 4.248664 1.412713
Zn 24.075762 7.081106 1.412713
Zn 24.075762 4.248664 4.245156
Zn 21.243319 7.081106 4.245156
Zn 21.243319 4.248664 7.077598
Zn 24.075762 7.081106 7.077598
Zn 24.075762 4.248664 9.910041
Zn 21.243319 7.081106 9.910041
Zn 21.243319 4.248664 12.742483
Zn 24.075762 7.081106 12.742483
Zn 24.075762 4.248664 15.574926
Zn 21.243319 7.081106 15.574926
Zn 21.243319 4.248664 18.407368
Zn 24.075762 7.081106 18.407368
Zn 24.075762 4.248664 21.239811
Zn 21.243319 7.081106 21.239811
Zn 21.243319 4.248664 24.072254
Zn 24.075762 7.081106 24.072254
Zn 24.075762 4.248664 26.904696
Zn 21.243319 7.081106 26.904696
Zn 21.243319 4.248664 29.737139
Zn 21.243319 9.913549 -26.911712
Zn 24.075762 9.913549 -24.079270
Zn 21.243319 12.745991 -24.079270
Zn 21.243319 9.913549 -21.246827
Zn 24.075762 12.745991 -21.246827
Zn 24.075762 9.913549 -18.414385
Zn 21.243319 12.745991 -18.414385
Zn 21.243319 9.913549 -15.581942
Zn 24.075762 12.745991 -15.581942
Zn 24.075762 9.913549 -12.749499
Zn 21.243319 12.745991 -12.749499
Zn 21.243319 9.913549 -9.917057
Zn 24.075762 12.745991 -9.917057
Zn 24.075762 9.913549 -7.084614
Zn 21.243319 12.745991 -7.084614
Zn 21.243319 9.913549 -4.252172
Zn 24.075762 12.745991 -4.252172
Zn 24.075762 9.913549 -1.419729
Zn 21.243319 12.745991 -1.419729
Zn 21.243319 9.913549 1.412713
Zn 24.075762 12.745991 1.412713
Zn 24.075762 9.913549 4.245156
Zn 21.243319 12.745991 4.245156
Zn 21.243319 9.913549 7.077598
Zn 24.075762 12.745991 7.077598
Zn 24.075762 9.913549 9.910041
Zn 21.243319 12.745991 9.910041
Zn 21.243319 9.913549 12.742483
Zn 24.075762 12.745991 12.742483
Zn 24.075762 9.913549 15.574926
Zn 21.243319 12.745991 15.574926
Zn 21.243319 9.913549 18.407368
Zn 24.075762 12.745991 18.407368
Zn 24.075762 9.913549 21.239811
Zn 21.243319 12.745991 21.239811
Zn 21.243319 9.913549 24.072254
Zn 21.243319 15.578434 -21.246827
Zn 24.075762 15.578434 -18.414385
Zn 21.243319 18.410877 -18.414385
Zn 21.243319 15.578434 -15.581942
Zn 24.075762 18.410877 -15.581942
Zn 24.075762 15.578434 -12.749499
Zn 21.243319 18.410877 -12.749499
Zn 21.243319 15.578434 -9.917057
Zn 24.075762 18.410877 -9.917057
Zn 24.075762 15.578434 -7.084614
Zn 21.243319 18.410877 -7.084614
Zn 21.243319 15.578434 -4.252172
Zn 24.075762 18.410877 -4.252172
Zn 24.075762 15.578434 -1.419729
Zn 21.243319 18.410877 -1.419729
Zn 21.243319 15.578434 1.412713
Zn 24.075762 18.410877 1.412713
Zn 24.075762 15.578434 4.245156
Zn 21.243319 18.410877 4.245156
Zn 21.243319 15.578434 7.077598
Zn 24.075762 18.410877 7.077598
Zn 24.075762 15.578434 9.910041
Zn 21.243319 18.410877 9.910041
Zn 21.243319 15.578434 12.742483
Zn 24.075762 18.410877 12.742483
Zn 24.075762 15.578434 15.574926
Zn 21.243319 18.410877 15.574926
Zn 21.243319 15.578434 18.407368
Zn 21.243319 21.243319 -15.581942
Zn 24.075762 21.243319 -12.749499
Zn 21.243319 24.075762 -12.749499
Zn 21.243319 21.243319 -9.917057
Zn 24.075762 24.075762 -9.917057
Zn 24.075762 21.243319 -7.084614
Zn 21.243319 24.075762 -7.084614
Zn 21.243319 21.243319 -4.252172
Zn 24.075762 24.075762 -4.252172
Zn 24.075762 21.243319 -1.419729
Zn 21.243319 24.075762 -1.419729
Zn 21.243319 21.243319 1.412713
Zn 24.075762 24.075762 1.412713
Zn 24.075762 21.243319 4.245156
Zn 21.243319 24.075762 4.245156
Zn 21.243319 21.243319 7.077598
Zn 24.075762 24.075762 7.077598
Zn 24.075762 21.243319 9.910041
Zn 21.243319 24.075762 9.910041
Zn 21.243319 21.243319 12.742483
Zn 21.243319 26.908204 -9.917057
Zn 24.075762 26.908204 -7.084614
Zn 21.243319 29.740647 -7.084614
Zn 21.243319 26.908204 -4.252172
Zn 24.075762 29.740647 -4.252172
Zn 24.075762 26.908204 -1.419729
Zn 21.243319 29.740647 -1.419729
Zn 21.243319 26.908204 1.412713
Zn 24.075762 29.740647 1.412713
Zn 24.075762 26.908204 4.245156
Zn 21.243319 29.740647 4.245156
Zn 21.243319 26.908204 7.077598
Zn 21.243319 32.573089 -4.252172
Zn 24.075762 32.573089 -1.419729
Zn 21.243319 32.573089 1.412713
Zn 26.908204 -26.908204 -1.419729
Zn 26.908204 -29.740647 1.412713
Zn 29.740647 -26.908204 1.412713
Zn 26.908204 -26.908204 4.245156
Zn 26.908204 -21.243319 -7.084614
Zn 26.908204 -24.075762 -4.252172
Zn 29.740647 -21.243319 -4.252172
Zn 29.740647 -24.075762 -1.419729
Zn 26.908204 -21.243319 -1.419729
Zn 26.908204 -24.075762 1.412713
Zn 29.740647 -21.243319 1.412713
Zn 29.740647 -24.075762 4.245156
Zn 26.908204 -21.243319 4.245156
Zn 26.908204 -24.075762 7.077598
Zn 29.740647 -21.243319 7.077598
Zn 26.908204 -21.243319 9.910041
Zn 26.908204 -15.578434 -12.749499
Zn 26.908204 -18.410877 -9.917057
Zn 29.740647 -15.578434 -9.917057
Zn 29.740647 -18.410877 -7.084614
Zn 26.908204 -15.578434 -7.084614
Zn 26.908204 -18.410877 -4.252172
Zn 29.740647 -15.578434 -4.252172
Zn 29.740647 -18.410877 -1.419729
Zn 26.908204 -15.578434 -1.419729
Zn 26.908204 -18.410877 1.412713
Zn 29.740647 -15.578434 1.412713
Zn 29.740647 -18.410877 4.245156
Zn 26.908204 -15.578434 4.245156
Zn 26.908204 -18.410877 7.077598
Zn 29.740647 -15.578434 7.077598
Zn 29.740647 -18.410877 9.910041
Zn 26.908204 -15.578434 9.910041
Zn 26.908204 -18.410877 12.742483
Zn 29.740647 -15.578434 12.742483
Zn 26.908204 -15.578434 15.574926
Zn 26.908204 -9.913549 -18.414385
Zn 26.908204 -12.745991 -15.581942
Zn 29.740647 -9.913549 -15.581942
Zn 29.740647 -12.745991 -12.749499
Zn 26.908204 -9.913549 -12.749499
Zn 26.908204 -12.745991 -9.917057
Zn 29.740647 -9.913549 -9.917057
Zn 29.740647 -12.745991 -7.084614
Zn 26.908204 -9.913549 -7.084614
Zn 26.908204 -12.745991 -4.252172
Zn 29.740647 -9.913549 -4.252172
Zn 29.740647 -12.745991 -1.419729
Zn 26.908204 -9.913549 -1.419729
Zn 26.908204 -12.745991 1.412713
Zn 29.740647 -9.913549 1.412713
Zn 29.740647 -12.745991 4.245156
Zn 26.908204 -9.913549 4.245156
Zn 26.908204 -12.745991 7.077598
Zn 29.740647 -9.913549 7.077598
Zn 29.740647 -12.745991 9.910041
Zn 26.908204 -9.913549 9.910041
Zn 26.908204 -12.745991 12.742483
Zn 29.740647 -9.913549 12.742483
Zn 29.740647 -12.745991 15.574926
Zn 26.908204 -9.913549 15.574926
Zn 26.908204 -12.745991 18.407368
Zn 29.740647 -9.913549 18.407368
Zn 26.908204 -9.913549 21.239811
Zn 26.908204 -4.248664 -24.079270
Zn 26.908204 -7.081106 -21.246827
Zn 29.740647 -4.248664 -21.246827
Zn 29.740647 -7.081106 -18.414385
Zn 26.908204 -4.248664 -18.414385
Zn 26.908204 -7.081106 -15.581942
Zn 29.740647 -4.248664 -15.581942
Zn 29.740647 -7.081106 -12.749499
Zn 26.908204 -4.248664 -12.749499
Zn 26.908204 -7.081106 -9.917057
Zn 29.740647 -4.248664 -9.917057
Zn 29.740647 -7.081106 -7.084614
Zn 26.908204 -4.248664 -7.084614
Zn 26.908204 -7.081106 -4.252172
Zn 29.740647 -4.248664 -4.252172
Zn 29.740647 -7.081106 -1.419729
Zn 26.908204 -4.248664 -1.419729
Zn 26.908204 -7.081106 1.412713
Zn 29.740647 -4.248664 1.412713
Zn 29.740647 -7.081106 4.245156
Zn 26.908204 -4.248664 4.245156
Zn 26.908204 -7.081106 7.077598
Zn 29.740647 -4.248664 7.077598
Zn 29.740647 -7.081106 9.910041
Zn 26.908204 -4.248664 9.910041
Zn 26.908204 -7.081106 12.742483
Zn 29.740647 -4.248664 12.742483
Zn 29.740647 -7.081106 15.574926
Zn 26.908204 -4.248664 15.574926
Zn 26.908204 -7.081106 18.407368
Zn 29.740647 -4.248664 18.407368
Zn 29.740647 -7.081106 21.239811
Zn 26.908204 -4.248664 21.239811
Zn 26.908204 -7.081106 24.072254
Zn 29.740647 -4.248664 24.072254
Zn 26.908204 -4.248664 26.904696
Zn 26.908204 1.416221 -29.744155
Zn 26.908204 -1.416221 -26.911712
Zn 29.740647 1.416221 -26.911712
Zn 29.740647 -1.416221 -24.079270
Zn 26.908204 1.416221 -24.079270
Zn 26.908204 -1.416221 -21.246827
Zn 29.740647 1.416221 -21.246827
Zn 29.740647 -1.416221 -18.414385
Zn 26.908204 1.416221 -18.414385
Zn 26.908204 -1.416221 -15.581942
Zn 29.740647 1.416221 -15.581942
Zn 29.740647 -1.416221 -12.749499
Zn 26.908204 1.416221 -12.749499
Zn 26.908204 -1.416221 -9.917057
Zn 29.740647 1.416221 -9.917057
Zn 29.740647 -1.416221 -7.084614
Zn 26.908204 1.416221 -7.084614
Zn 26.908204 -1.416221 -4.252172
Zn 29.740647 1.416221 -4.252172
Zn 29.740647 -1.416221 -1.419729
Zn 26.908204 1.416221 -1.419729
Zn 26.908204 -1.416221 1.412713
Zn 29.740647 1.416221 1.412713
Zn 29.740647 -1.416221 4.245156
Zn 26.908204 1.416221 4.245156
Zn 26.908204 -1.416221 7.077598
Zn 29.740647 1.416221 7.077598
Zn 29.740647 -1.416221 9.910041
Zn 26.908204 1.416221 9.910041
Zn 26.908204 -1.416221 12.742483
Zn 29.740647 1.416221 12.742483
Zn 29.740647 -1.416221 15.574926
Zn 26.908204 1.416221 15.574926
Zn 26.908204 -1.416221 18.407368
Zn 29.740647 1.416221 18.407368
Zn 29.740647 -1.416221 21.239811
Zn 26.908204 1.416221 21.239811
Zn 26.908204 -1.416221 24.072254
Zn 29.740647 1.416221 24.072254
Zn 29.740647 -1.416221 26.904696
Zn 26.908204 1.416221 26.904696
Zn 26.908204 -1.416221 29.737139
Zn 26.908204 4.248664 -26.911712
Zn 29.740647 4.248664 -24.079270
Zn 26.908204 7.081106 -24.079270
Zn 26.908204 4.248664 -21.246827
Zn 29.740647 7.081106 -21.246827
Zn 29.740647 4.248664 -18.414385
Zn 26.908204 7.081106 -18.414385
Zn 26.908204 4.248664 -15.581942
Zn 29.740647 7.081106 -15.581942
Zn 29.740647 4.248664 -12.749499
Zn 26.908204 7.081106 -12.749499
Zn 26.908204 4.248664 -9.917057
Zn 29.740647 7.081106 -9.917057
Zn 29.740647 4.248664 -7.084614
Zn 26.908204 7.081106 -7.084614
Zn 26.908204 4.248664 -4.252172
Zn 29.740647 7.081106 -4.252172
Zn 29.740647 4.248664 -1.419729
Zn 26.908204 7.081106 -1.419729
Zn 26.908204 4.248664 1.412713
Zn 29.740647 7.081106 1.412713
Zn 29.740647 4.248664 4.245156
Zn 26.908204 7.081106 4.245156
Zn 26.908204 4.248664 7.077598
Zn 29.740647 7.081106 7.077598
Zn 29.740647 4.248664 9.910041
Zn 26.908204 7.081106 9.910041
Zn 26.908204 4.248664 12.742483
Zn 29.740647 7.081106 12.742483
Zn 29.740647 4.248664 15.574926
Zn 26.908204 7.081106 15.574926
Zn 26.908204 4.248664 18.407368
Zn 29.740647 7.081106 18.407368
Zn 29.740647 4.248664 21.239811
Zn 26.908204 7.081106 21.239811
Zn 26.908204 4.248664 24.072254
Zn 26.908204 9.913549 -21.246827
Zn 29.740647 9.913549 -18.414385
Zn 26.908204 12.745991 -18.414385
Zn 26.908204 9.913549 -15.581942
Zn 29.740647 12.745991 -15.581942
Zn 29.740647 9.913549 -12.749499
Zn 26.908204 12.745991 -12.749499
Zn 26.908204 9.913549 -9.917057
Zn 29.740647 12.745991 -9.917057
Zn 29.740647 9.913549 -7.084614
Zn 26.908204 12.745991 -7.084614
Zn 26.908204 9.913549 -4.252172
Zn 29.740647 12.745991 -4.252172
Zn 29.740647 9.913549 -1.419729
Zn 26.908204 12.745991 -1.419729
Zn 26.908204 9.913549 1.412713
Zn 29.740647 12.745991 1.412713
Zn 29.740647 9.913549 4.245156
Zn 26.908204 12.745991 4.245156
Zn 26.908204 9.913549 7.077598
Zn 29.740647 12.745991 7.077598
Zn 29.740647 9.913549 9.910041
Zn 26.908204 12.745991 9.910041
Zn 26.908204 9.913549 12.742483
Zn 29.740647 12.745991 12.742483
Zn 29.740647 9.913549 15.574926
Zn 26.908204 12.745991 15.574926
Zn 26.908204 9.913549 18.407368
Zn 26.908204 15.578434 -15.581942
Zn 29.740647 15.578434 -12.749499
Zn 26.908204 18.410877 -12.749499
Zn 26.908204 15.578434 -9.917057
Zn 29.740647 18.410877 -9.917057
Zn 29.740647 15.578434 -7.084614
Zn 26.908204 18.410877 -7.084614
Zn 26.908204 15.578434 -4.252172
Zn 29.740647 18.410877 -4.252172
Zn 29.740647 15.578434 -1.419729
Zn 26.908204 18.410877 -1.419729
Zn 26.908204 15.578434 1.412713
Zn 29.740647 18.410877 1.412713
Zn 29.740647 15.578434 4.245156
Zn 26.908204 18.410877 4.245156
Zn 26.908204 15.578434 7.077598
Zn 29.740647 18.410877 7.077598
Zn 29.740647 15.578434 9.910041
Zn 26.908204 18.410877 9.910041
Zn 26.908204 15.578434 12.742483
Zn 26.908204 21.243319 -9.917057
Zn 29.740647 21.243319 -7.084614
Zn 26.908204 24.075762 -7.084614
Zn 26.908204 21.243319 -4.252172
Zn 29.740647 24.075762 -4.252172
Zn 29.740647 21.243319 -1.419729
Zn 26.908204 24.075762 -1.419729
Zn 26.908204 21.243319 1.412713
Zn 29.740647 24.075762 1.412713
Zn 29.740647 21.243319 4.245156
Zn 26.908204 24.075762 4.245156
Zn 26.908204 21.243319 7.077598
Zn 26.908204 26.908204 -4.252172
Zn 29.740647 26.908204 -1.419729
Zn 26.908204 29.740647 -1.419729
Zn 26.908204 26.908204 1.412713
Zn 32.573089 -21.243319 -1.419729
Zn 32.573089 -24.075762 1.412713
Zn 32.573089 -21.243319 4.245156
Zn 32.573089 -15.578434 -7.084614
Zn 32.573089 -18.410877 -4.252172
Zn 32.573089 -15.578434 -1.419729
Zn 32.573089 -18.410877 1.412713
Zn 32.573089 -15.578434 4.245156
Zn 32.573089 -18.410877 7.077598
Zn 32.573089 -15.578434 9.910041
Zn 32.573089 -9.913549 -12.749499
Zn 32.573089 -12.745991 -9.917057
Zn 32.573089 -9.913549 -7.084614
Zn 32.573089 -12.745991 -4.252172
Zn 32.573089 -9.913549 -1.419729
Zn 32.573089 -12.745991 1.412713
Zn 32.573089 -9.913549 4.245156
Zn 32.573089 -12.745991 7.077598
Zn 32.573089 -9.913549 9.910041
Zn 32.573089 -12.745991 12.742483
Zn 32.573089 -9.913549 15.574926
Zn 32.573089 -4.248664 -18.414385
Zn 32.573089 -7.081106 -15.581942
Zn 32.573089 -4.248664 -12.749499
Zn 32.573089 -7.081106 -9.917057
Zn 32.573089 -4.248664 -7.084614
Zn 32.573089 -7.081106 -4.252172
Zn 32.573089 -4.248664 -1.419729
Zn 32.573089 -7.081106 1.412713
Zn 32.573089 -4.248664 4.245156
Zn 32.573089 -7.081106 7.077598
Zn 32.573089 -4.248664 9.910041
Zn 32.573089 -7.081106 12.742483
Zn 32.573089 -4.248664 15.574926
Zn 32.573089 -7.081106 18.407368
Zn 32.573089 -4.248664 21.239811
Zn 32.573089 1.416221 -24.079270
Zn 32.573089 -1.416221 -21.246827
Zn 32.573089 1.416221 -18.414385
Zn 32.573089 -1.416221 -15.581942
Zn 32.573089 1.416221 -12.749499
Zn 32.573089 -1.416221 -9.917057
Zn 32.573089 1.416221 -7.084614
Zn 32.573089 -1.416221 -4.252172
Zn 32.573089 1.416221 -1.419729
Zn 32.573089 -1.416221 1.412713
Zn 32.573089 1.416221 4.245156
Zn 32.573089 -1.416221 7.077598
Zn 32.573089 1.416221 9.910041
Zn 32.573089 -1.416221 12.742483
Zn 32.573089 1.416221 15.574926
Zn 32.573089 -1.416221 18.407368
Zn 32.573089 1.416221 21.239811
Zn 32.573089 -1.416221 24.072254
Zn 32.573089 4.248664 -21.246827
Zn 32.573089 7.081106 -18.414385
Zn 32.573089 4.248664 -15.581942
Zn 32.573089 7.081106 -12.749499
Zn 32.573089 4.248664 -9.917057
Zn 32.573089 7.081106 -7.084614
Zn 32.573089 4.248664 -4.252172
Zn 32.573089 7.081106 -1.419729
Zn 32.573089 4.248664 1.412713
Zn 32.573089 7.081106 4.245156
Zn 32.573089 4.248664 7.077598
Zn 32.573089 7.081106 9.910041
Zn 32.573089 4.248664 12.742483
Zn 32.573089 7.081106 15.574926
Zn 32.573089 4.248664 18.407368
Zn 32.573089 9.913549 -15.581942
Zn 32.573089 12.745991 -12.749499
Zn 32.573089 9.913549 -9.917057
Zn 32.573089 12.745991 -7.084614
Zn 32.573089 9.913549 -4.252172
Zn 32.573089 12.745991 -1.419729
Zn 32.573089 9.913549 1.412713
Zn 32.573089 12.745991 4.245156
Zn 32.573089 9.913549 7.077598
Zn 32.573089 12.745991 9.910041
Zn 32.573089 9.913549 12.742483
Zn 32.573089 15.578434 -9.917057
Zn 32.573089 18.410877 -7.084614
Zn 32.573089 15.578434 -4.252172
Zn 32.573089 18.410877 -1.419729
Zn 32.573089 15.578434 1.412713
Zn 32.573089 18.410877 4.245156
Zn 32.573089 15.578434 7.077598
Zn 32.573089 21.243319 -4.252172
Zn 32.573089 24.075762 -1.419729
Zn 32.573089 21.243319 1.412713
Se -31.156868 -25.491983 -0.003508
Se -31.156868 -19.827098 -5.668393
Se -31.156868 -19.827098 -0.003508
Se -31.156868 -22.659540 -2.835951
Se -31.156868 -19.827098 5.661377
Se -31.156868 -22.659540 2.828935
Se -31.156868 -14.162213 -11.333278
Se -31.156868 -14.162213 -5.668393
Se -31.156868 -16.994655 -8.500836
Se -31.156868 -14.162213 -0.003508
Se -31.156868 -16.994655 -2.835951
Se -31.156868 -14.162213 5.661377
Se -31.156868 -16.994655 2.828935
Se -31.156868 -14.162213 11.326262
Se -31.156868 -16.994655 8.493820
Se -31.156868 -8.497328 -16.998163
Se -31.156868 -8.497328 -11.333278
Se -31.156868 -11.329770 -14.165721
Se -31.156868 -8.497328 -5.668393
Se -31.156868 -11.329770 -8.500836
Se -31.156868 -8.497328 -0.003508
Se -31.156868 -11.329770 -2.835951
Se -31.156868 -8.497328 5.661377
Se -31.156868 -11.329770 2.828935
Se -31.156868 -8.497328 11.326262
Se -31.156868 -11.329770 8.493820
Se -31.156868 -8.497328 16.991147
Se -31.156868 -11.329770 14.158705
Se -31.156868 -2.832443 -22.663048
Se -31.156868 -2.832443 -16.998163
Se -31.156868 -5.664885 -19.830606
Se -31.156868 -2.832443 -11.333278
Se -31.156868 -5.664885 -14.165721
Se -31.156868 -2.832443 -5.668393
Se -31.156868 -5.664885 -8.500836
Se -31.156868 -2.832443 -0.003508
Se -31.156868 -5.664885 -2.835951
Se -31.156868 -2.832443 5.661377
Se -31.156868 -5.664885 2.828935
Se -31.156868 -2.832443 11.326262
Se -31.156868 -5.664885 8.493820
Se -31.156868 -2.832443 16.991147
Se -31.156868 -5.664885 14.158705
Se -31.156868 -2.832443 22.656032
Se -31.156868 -5.664885 19.823590
Se -31.156868 2.832443 -22.663048
Se -31.156868 -0.000000 -25.495491
Se -31.156868 2.832443 -16.998163
Se -31.156868 -0.000000 -19.830606
Se -31.156868 2.832443 -11.333278
Se -31.156868 -0.000000 -14.165721
Se -31.156868 2.832443 -5.668393
Se -31.156868 -0.000000 -8.500836
Se -31.156868 2.832443 -0.003508
Se -31.156868 -0.000000 -2.835951
Se -31.156868 2.832443 5.661377
Se -31.156868 -0.000000 2.828935
Se -31.156868 2.832443 11.326262
Se -31.156868 -0.000000 8.493820
Se -31.156868 2.832443 16.991147
Se -31.156868 -0.000000 14.158705
Se -31.156868 2.832443 22.656032
Se -31.156868 -0.000000 19.823590
Se -31.156868 -0.000000 25.488475
Se -31.156868 8.497328 -16.998163
Se -31.156868 5.664885 -19.830606
Se -31.156868 8.497328 -11.333278
Se -31.156868 5.664885 -14.165721
Se -31.156868 8.497328 -5.668393
Se -31.156868 5.664885 -8.500836
Se -31.156868 8.497328 -0.003508
Se -31.156868 5.664885 -2.835951
Se -31.156868 8.497328 5.661377
Se -31.156868 5.664885 2.828935
Se -31.156868 8.497328 11.326262
Se -31.156868 5.664885 8.493820
Se -31.156868 8.497328 16.991147
Se -31.156868 5.664885 14.158705
Se -31.156868 5.664885 19.823590
Se -31.156868 14.162213 -11.333278
Se -31.156868 11.329770 -14.165721
Se -31.156868 14.162213 -5.668393
Se -31.156868 11.329770 -8.500836
Se -31.156868 14.162213 -0.003508
Se -31.156868 11.329770 -2.835951
Se -31.156868 14.162213 5.661377
Se -31.156868 11.329770 2.828935
Se -31.156868 14.162213 11.326262
Se -31.156868 11.329770 8.493820
Se -31.156868 11.329770 14.158705
Se -31.156868 19.827098 -5.668393
Se -31.156868 16.994655 -8.500836
Se -31.156868 19.827098 -0.003508
Se -31.156868 16.994655 -2.835951
Se -31.156868 19.827098 5.661377
Se -31.156868 16.994655 2.828935
Se -31.156868 16.994655 8.493820
Se -31.156868 25.491983 -0.003508
Se -31.156868 22.659540 -2.835951
Se -31.156868 22.659540 2.828935
Se -25.491983 -31.156868 -0.003508
Se -25.491983 -25.491983 -5.668393
Se -28.324425 -28.324425 -0.003508
Se -28.324425 -25.491983 -2.835951
Se -25.491983 -25.491983 -0.003508
Se -25.491983 -28.324425 -2.835951
Se -28.324425 -25.491983 2.828935
Se -25.491983 -25.491983 5.661377
Se -25.491983 -28.324425 2.828935
Se -25.491983 -19.827098 -11.333278
Se -28.324425 -22.659540 -5.668393
Se -28.324425 -19.827098 -8.500836
Se -25.491983 -19.827098 -5.668393
Se -25.491983 -22.659540 -8.500836
Se -28.324425 -22.659540 -0.003508
Se -28.324425 -19.827098 -2.835951
Se -25.491983 -19.827098 -0.003508
Se -25.491983 -22.659540 -2.835951
Se -28.324425 -22.659540 5.661377
Se -28.324425 -19.827098 2.828935
Se -25.491983 -19.827098 5.661377
Se -25.491983 -22.659540 2.828935
Se -28.324425 -19.827098 8.493820
Se -25.491983 -19.827098 11.326262
Se -25.491983 -22.659540 8.493820
Se -25.491983 -14.162213 -16.998163
Se -28.324425 -16.994655 -11.333278
Se -28.324425 -14.162213 -14.165721
Se -25.491983 -14.162213 -11.333278
Se -25.491983 -16.994655 -14.165721
Se -28.324425 -16.994655 -5.668393
Se -28.324425 -14.162213 -8.500836
Se -25.491983 -14.162213 -5.668393
Se -25.491983 -16.994655 -8.500836
Se -28.324425 -16.994655 -0.003508
Se -28.324425 -14.162213 -2.835951
Se -25.491983 -14.162213 -0.003508
Se -25.491983 -16.994655 -2.835951
Se -28.324425 -16.994655 5.661377
Se -28.324425 -14.162213 2.828935
Se -25.491983 -14.162213 5.661377
Se -25.491983 -16.994655 2.828935
Se -28.324425 -16.994655 11.326262
Se -28.324425 -14.162213 8.493820
Se -25.491983 -14.162213 11.326262
Se -25.491983 -16.994655 8.493820
Se -28.324425 -14.162213 14.158705
Se -25.491983 -14.162213 16.991147
Se -25.491983 -16.994655 14.158705
Se -25.491983 -8.497328 -22.663048
Se -28.324425 -11.329770 -16.998163
Se -28.324425 -8.497328 -19.830606
Se -25.491983 -8.497328 -16.998163
Se -25.491983 -11.329770 -19.830606
Se -28.324425 -11.329770 -11.333278
Se -28.324425 -8.497328 -14.165721
Se -25.491983 -8.497328 -11.333278
Se -25.491983 -11.329770 -14.165721
Se -28.324425 -11.329770 -5.668393
Se -28.324425 -8.497328 -8.500836
Se -25.491983 -8.497328 -5.668393
Se -25.491983 -11.329770 -8.500836
Se -28.324425 -11.329770 -0.003508
Se -28.324425 -8.497328 -2.835951
Se -25.491983 -8.497328 -0.003508
Se -25.491983 -11.329770 -2.835951
Se -28.324425 -11.329770 5.661377
Se -28.324425 -8.497328 2.828935
Se -25.491983 -8.497328 5.661377
Se -25.491983 -11.329770 2.828935
Se -28.324425 -11.329770 11.326262
Se -28.324425 -8.497328 8.493820
Se -25.491983 -8.497328 11.326262
Se -25.491983 -11.329770 8.493820
Se -28.324425 -11.329770 16.991147
Se -28.324425 -8.497328 14.158705
Se -25.491983 -8.497328 16.991147
Se -25.491983 -11.329770 14.158705
Se -28.324425 -8.497328 19.823590
Se -25.491983 -8.497328 22.656032
Se -25.491983 -11.329770 19.823590
Se -25.491983 -2.832443 -28.327933
Se -28.324425 -5.664885 -22.663048
Se -28.324425 -2.832443 -25.495491
Se -25.491983 -2.832443 -22.663048
Se -25.491983 -5.664885 -25.495491
Se -28.324425 -5.664885 -16.998163
Se -28.324425 -2.832443 -19.830606
Se -25.491983 -2.832443 -16.998163
Se -25.491983 -5.664885 -19.830606
Se -28.324425 -5.664885 -11.333278
Se -28.324425 -2.832443 -14.165721
Se -25.491983 -2.832443 -11.333278
Se -25.491983 -5.664885 -14.165721
Se -28.324425 -5.664885 -5.668393
Se -28.324425 -2.832443 -8.500836
Se -25.491983 -2.832443 -5.668393
Se -25.491983 -5.664885 -8.500836
Se -28.324425 -5.664885 -0.003508
Se -28.324425 -2.832443 -2.835951
Se -25.491983 -2.832443 -0.003508
Se -25.491983 -5.664885 -2.835951
Se -28.324425 -5.664885 5.661377
Se -28.324425 -2.832443 2.828935
Se -25.491983 -2.832443 5.661377
Se -25.491983 -5.664885 2.828935
Se -28.324425 -5.664885 11.326262
Se -28.324425 -2.832443 8.493820
Se -25.491983 -2.832443 11.326262
Se -25.491983 -5.664885 8.493820
Se -28.324425 -5.664885 16.991147
Se -28.324425 -2.832443 14.158705
Se -25.491983 -2.832443 16.991147
Se -25.491983 -5.664885 14.158705
Se -28.324425 -5.664885 22.656032
Se -28.324425 -2.832443 19.823590
Se -25.491983 -2.832443 22.656032
Se -25.491983 -5.664885 19.823590
Se -28.324425 -2.832443 25.488475
Se -25.491983 -2.832443 28.320917
Se -25.491983 -5.664885 25.488475
Se -28.324425 -0.000000 -28.327933
Se -25.491983 2.832443 -28.327933
Se -25.491983 -0.000000 -31.160376
Se -28.324425 -0.000000 -22.663048
Se -28.324425 2.832443 -25.495491
Se -25.491983 2.832443 -22.663048
Se -25.491983 -0.000000 -25.495491
Se -28.324425 -0.000000 -16.998163
Se -28.324425 2.832443 -19.830606
Se -25.491983 2.832443 -16.998163
Se -25.491983 -0.000000 -19.830606
Se -28.324425 -0.000000 -11.333278
Se -28.324425 2.832443 -14.165721
Se -25.491983 2.832443 -11.333278
Se -25.491983 -0.000000 -14.165721
Se -28.324425 -0.000000 -5.668393
Se -28.324425 2.832443 -8.500836
Se -25.491983 2.832443 -5.668393
Se -25.491983 -0.000000 -8.500836
Se -28.324425 -0.000000 -0.003508
Se -28.324425 2.832443 -2.835951
Se -25.491983 2.832443 -0.003508
Se -25.491983 -0.000000 -2.835951
Se -28.324425 -0.000000 5.661377
Se -28.324425 2.832443 2.828935
Se -25.491983 2.832443 5.661377
Se -25.491983 -0.000000 2.828935
Se -28.324425 -0.000000 11.326262
Se -28.324425 2.832443 8.493820
Se -25.491983 2.832443 11.326262
Se -25.491983 -0.000000 8.493820
Se -28.324425 -0.000000 16.991147
Se -28.324425 2.832443 14.158705
Se -25.491983 2.832443 16.991147
Se -25.491983 -0.000000 14.158705
Se -28.324425 -0.000000 22.656032
Se -28.324425 2.832443 19.823590
Se -25.491983 2.832443 22.656032
Se -25.491983 -0.000000 19.823590
Se -28.324425 -0.000000 28.320917
Se -28.324425 2.832443 25.488475
Se -25.491983 2.832443 28.320917
Se -25.491983 -0.000000 25.488475
Se -25.491983 -0.000000 31.153360
Se -28.324425 5.664885 -22.663048
Se -25.491983 8.497328 -22.663048
Se -25.491983 5.664885 -25.495491
Se -28.324425 5.664885 -16.998163
Se -28.324425 8.497328 -19.830606
Se -25.491983 8.497328 -16.998163
Se -25.491983 5.664885 -19.830606
Se -28.324425 5.664885 -11.333278
Se -28.324425 8.497328 -14.165721
Se -25.491983 8.497328 -11.333278
Se -25.491983 5.664885 -14.165721
Se -28.324425 5.664885 -5.668393
Se -28.324425 8.497328 -8.500836
Se -25.491983 8.497328 -5.668393
Se -25.491983 5.664885 -8.500836
Se -28.324425 5.664885 -0.003508
Se -28.324425 8.497328 -2.835951
Se -25.491983 8.497328 -0.003508
Se -25.491983 5.664885 -2.835951
Se -28.324425 5.664885 5.661377
Se -28.324425 8.497328 2.828935
Se -25.491983 8.497328 5.661377
Se -25.491983 5.664885 2.828935
Se -28.324425 5.664885 11.326262
Se -28.324425 8.497328 8.493820
Se -25.491983 8.497328 11.326262
Se -25.491983 5.664885 8.493820
Se -28.324425 5.664885 16.991147
Se -28.324425 8.497328 14.158705
Se -25.491983 8.497328 16.991147
Se -25.491983 5.664885 14.158705
Se -28.324425 5.664885 22.656032
Se -28.324425 8.497328 19.823590
Se -25.491983 8.497328 22.656032
Se -25.491983 5.664885 19.823590
Se -25.491983 5.664885 25.488475
Se -28.324425 11.329770 -16.998163
Se -25.491983 14.162213 -16.998163
Se -25.491983 11.329770 -19.830606
Se -28.324425 11.329770 -11.333278
Se -28.324425 14.162213 -14.165721
Se -25.491983 14.162213 -11.333278
Se -25.491983 11.329770 -14.165721
Se -28.324425 11.329770 -5.668393
Se -28.324425 14.162213 -8.500836
Se -25.491983 14.162213 -5.668393
Se -25.491983 11.329770 -8.500836
Se -28.324425 11.329770 -0.003508
Se -28.324425 14.162213 -2.835951
Se -25.491983 14.162213 -0.003508
Se -25.491983 11.329770 -2.835951
Se -28.324425 11.329770 5.661377
Se -28.324425 14.162213 2.828935
Se -25.491983 14.162213 5.661377
Se -25.491983 11.329770 2.828935
Se -28.324425 11.329770 11.326262
Se -28.324425 14.162213 8.493820
Se -25.491983 14.162213 11.326262
Se -25.491983 11.329770 8.493820
Se -28.324425 11.329770 16.991147
Se -28.324425 14.162213 14.158705
Se -25.491983 14.162213 16.991147
Se -25.491983 11.329770 14.158705
Se -25.491983 11.329770 19.823590
Se -28.324425 16.994655 -11.333278
Se -25.491983 19.827098 -11.333278
Se -25.491983 16.994655 -14.165721
Se -28.324425 16.994655 -5.668393
Se -28.324425 19.827098 -8.500836
Se -25.491983 19.827098 -5.668393
Se -25.491983 16.994655 -8.500836
Se -28.324425 16.994655 -0.003508
Se -28.324425 19.827098 -2.835951
Se -25.491983 19.827098 -0.003508
Se -25.491983 16.994655 -2.835951
Se -28.324425 16.994655 5.661377
Se -28.324425 19.827098 2.828935
Se -25.491983 19.827098 5.661377
Se -25.491983 16.994655 2.828935
Se -28.324425 16.994655 11.326262
Se -28.324425 19.827098 8.493820
Se -25.491983 19.827098 11.326262
Se -25.491983 16.994655 8.493820
Se -25.491983 16.994655 14.158705
Se -28.324425 22.659540 -5.668393
Se -25.491983 25.491983 -5.668393
Se -25.491983 22.659540 -8.500836
Se -28.324425 22.659540 -0.003508
Se -28.324425 25.491983 -2.835951
Se -25.491983 25.491983 -0.003508
Se -25.491983 22.659540 -2.835951
Se -28.324425 22.659540 5.661377
Se -28.324425 25.491983 2.828935
Se -25.491983 25.491983 5.661377
Se -25.491983 22.659540 2.828935
Se -25.491983 22.659540 8.493820
Se -28.324425 28.324425 -0.003508
Se -25.491983 31.156868 -0.003508
Se -25.491983 28.324425 -2.835951
Se -25.491983 28.324425 2.828935
Se -19.827098 -31.156868 -5.668393
Se -22.659540 -31.156868 -2.835951
Se -19.827098 -31.156868 -0.003508
Se -22.659540 -31.156868 2.828935
Se -19.827098 -31.156868 5.661377
Se -19.827098 -25.491983 -11.333278
Se -22.659540 -28.324425 -5.668393
Se -22.659540 -25.491983 -8.500836
Se -19.827098 -25.491983 -5.668393
Se -19.827098 -28.324425 -8.500836
Se -22.659540 -28.324425 -0.003508
Se -22.659540 -25.491983 -2.835951
Se -19.827098 -25.491983 -0.003508
Se -19.827098 -28.324425 -2.835951
Se -22.659540 -28.324425 5.661377
Se -22.659540 -25.491983 2.828935
Se -19.827098 -25.491983 5.661377
Se -19.827098 -28.324425 2.828935
Se -22.659540 -25.491983 8.493820
Se -19.827098 -25.491983 11.326262
Se -19.827098 -28.324425 8.493820
Se -19.827098 -19.827098 -16.998163
Se -22.659540 -22.659540 -11.333278
Se -22.659540 -19.827098 -14.165721
Se -19.827098 -19.827098 -11.333278
Se -19.827098 -22.659540 -14.165721
Se -22.659540 -22.659540 -5.668393
Se -22.659540 -19.827098 -8.500836
Se -19.827098 -19.827098 -5.668393
Se -19.827098 -22.659540 -8.500836
Se -22.659540 -22.659540 -0.003508
Se -22.659540 -19.827098 -2.835951
Se -19.827098 -19.827098 -0.003508
Se -19.827098 -22.659540 -2.835951
Se -22.659540 -22.659540 5.661377
Se -22.659540 -19.827098 2.828935
Se -19.827098 -19.827098 5.661377
Se -19.827098 -22.659540 2.828935
Se -22.659540 -22.659540 11.326262
Se -22.659540 -19.827098 8.493820
Se -19.827098 -19.827098 11.326262
Se -19.827098 -22.659540 8.493820
Se -22.659540 -19.827098 14.158705
Se -19.827098 -19.827098 16.991147
Se -19.827098 -22.659540 14.158705
Se -19.827098 -14.162213 -22.663048
Se -22.659540 -16.994655 -16.998163
Se -22.659540 -14.162213 -19.830606
Se -19.827098 -14.162213 -16.998163
Se -19.827098 -16.994655 -19.830606
Se -22.659540 -16.994655 -11.333278
Se -22.659540 -14.162213 -14.165721
Se -19.827098 -14.162213 -11.333278
Se -19.827098 -16.994655 -14.165721
Se -22.659540 -16.994655 -5.668393
Se -22.659540 -14.162213 -8.500836
Se -19.827098 -14.162213 -5.668393
Se -19.827098 -16.994655 -8.500836
Se -22.659540 -16.994655 -0.003508
Se -22.659540 -14.162213 -2.835951
Se -19.827098 -14.162213 -0.003508
Se -19.827098 -16.994655 -2.835951
Se -22.659540 -16.994655 5.661377
Se -22.659540 -14.162213 2.828935
Se -19.827098 -14.162213 5.661377
Se -19.827098 -16.994655 2.828935
Se -22.659540 -16.994655 11.326262
Se -22.659540 -14.162213 8.493820
Se -19.827098 -14.162213 11.326262
Se -19.827098 -16.994655 8.493820
Se -22.659540 -16.994655 16.991147
Se -22.659540 -14.162213 14.158705
Se -19.827098 -14.162213 16.991147
Se -19.827098 -16.994655 14.158705
Se -22.659540 -14.162213 19.823590
Se -19.827098 -14.162213 22.656032
Se -19.827098 -16.994655 19.823590
Se -19.827098 -8.497328 -28.327933
Se -22.659540 -11.329770 -22.663048
Se -22.659540 -8.497328 -25.495491
Se -19.827098 -8.497328 -22.663048
Se -19.827098 -11.329770 -25.495491
Se -22.659540 -11.329770 -16.998163
Se -22.659540 -8.497328 -19.830606
Se -19.827098 -8.497328 -16.998163
Se -19.827098 -11.329770 -19.830606
Se -22.659540 -11.329770 -11.333278
Se -22.659540 -8.497328 -14.165721
Se -19.827098 -8.497328 -11.333278
Se -19.827098 -11.329770 -14.165721
Se -22.659540 -11.329770 -5.668393
Se -22.659540 -8.497328 -8.500836
Se -19.827098 -8.497328 -5.668393
Se -19.827098 -11.329770 -8.500836
Se -22.659540 -11.329770 -0.003508
Se -22.659540 -8.497328 -2.835951
Se -19.827098 -8.497328 -0.003508
Se -19.827098 -11.329770 -2.835951
Se -22.659540 -11.329770 5.661377
Se -22.659540 -8.497328 2.828935
Se -19.827098 -8.497328 5.661377
Se -19.827098 -11.329770 2.828935
Se -22.659540 -11.329770 11.326262
Se -22.659540 -8.497328 8.493820
Se -19.827098 -8.497328 11.326262
Se -19.827098 -11.329770 8.493820
Se -22.659540 -11.329770 16.991147
Se -22.659540 -8.497328 14.158705
Se -19.827098 -8.497328 16.991147
Se -19.827098 -11.329770 14.158705
Se -22.659540 -11.329770 22.656032
Se -22.659540 -8.497328 19.823590
Se -19.827098 -8.497328 22.656032
Se -19.827098 -11.329770 19.823590
Se -22.659540 -8.497328 25.488475
Se -19.827098 -8.497328 28.320917
Se -19.827098 -11.329770 25.488475
Se -22.659540 -5.664885 -28.327933
Se -22.659540 -2.832443 -31.160376
Se -19.827098 -2.832443 -28.327933
Se -19.827098 -5.664885 -31.160376
Se -22.659540 -5.664885 -22.663048
Se -22.659540 -2.832443 -25.495491
Se -19.827098 -2.832443 -22.663048
Se -19.827098 -5.664885 -25.495491
Se -22.659540 -5.664885 -16.998163
Se -22.659540 -2.832443 -19.830606
Se -19.827098 -2.832443 -16.998163
Se -19.827098 -5.664885 -19.830606
Se -22.659540 -5.664885 -11.333278
Se -22.659540 -2.832443 -14.165721
Se -19.827098 -2.832443 -11.333278
Se -19.827098 -5.664885 -14.165721
Se -22.659540 -5.664885 -5.668393
Se -22.659540 -2.832443 -8.500836
Se -19.827098 -2.832443 -5.668393
Se -19.827098 -5.664885 -8.500836
Se -22.659540 -5.664885 -0.003508
Se -22.659540 -2.832443 -2.835951
Se -19.827098 -2.832443 -0.003508
Se -19.827098 -5.664885 -2.835951
Se -22.659540 -5.664885 5.661377
Se -22.659540 -2.832443 2.828935
Se -19.827098 -2.832443 5.661377
Se -19.827098 -5.664885 2.828935
Se -22.659540 -5.664885 11.326262
Se -22.659540 -2.832443 8.493820
Se -19.827098 -2.832443 11.326262
Se -19.827098 -5.664885 8.493820
Se -22.659540 -5.664885 16.991147
Se -22.659540 -2.832443 14.158705
Se -19.827098 -2.832443 16.991147
Se -19.827098 -5.664885 14.158705
Se -22.659540 -5.664885 22.656032
Se -22.659540 -2.832443 19.823590
Se -19.827098 -2.832443 22.656032
Se -19.827098 -5.664885 19.823590
Se -22.659540 -5.664885 28.320917
Se -22.659540 -2.832443 25.488475
Se -19.827098 -2.832443 28.320917
Se -19.827098 -5.664885 25.488475
Se -22.659540 -2.832443 31.153360
Se -19.827098 -5.664885 31.153360
Se -22.659540 -0.000000 -28.327933
Se -22.659540 2.832443 -31.160376
Se -19.827098 2.832443 -28.327933
Se -19.827098 -0.000000 -31.160376
Se -22.659540 -0.000000 -22.663048
Se -22.659540 2.832443 -25.495491
Se -19.827098 2.832443 -22.663048
Se -19.827098 -0.000000 -25.495491
Se -22.659540 -0.000000 -16.998163
Se -22.659540 2.832443 -19.830606
Se -19.827098 2.832443 -16.998163
Se -19.827098 -0.000000 -19.830606
Se -22.659540 -0.000000 -11.333278
Se -22.659540 2.832443 -14.165721
Se -19.827098 2.832443 -11.333278
Se -19.827098 -0.000000 -14.165721
Se -22.659540 -0.000000 -5.668393
Se -22.659540 2.832443 -8.500836
Se -19.827098 2.832443 -5.668393
Se -19.827098 -0.000000 -8.500836
Se -22.659540 -0.000000 -0.003508
Se -22.659540 2.832443 -2.835951
Se -19.827098 2.832443 -0.003508
Se -19.827098 -0.000000 -2.835951
Se -22.659540 -0.000000 5.661377
Se -22.659540 2.832443 2.828935
Se -19.827098 2.832443 5.661377
Se -19.827098 -0.000000 2.828935
Se -22.659540 -0.000000 11.326262
Se -22.659540 2.832443 8.493820
Se -19.827098 2.832443 11.326262
Se -19.827098 -0.000000 8.493820
Se -22.659540 -0.000000 16.991147
Se -22.659540 2.832443 14.158705
Se -19.827098 2.832443 16.991147
Se -19.827098 -0.000000 14.158705
Se -22.659540 -0.000000 22.656032
Se -22.659540 2.832443 19.823590
Se -19.827098 2.832443 22.656032
Se -19.827098 -0.000000 19.823590
Se -22.659540 -0.000000 28.320917
Se -22.659540 2.832443 25.488475
Se -19.827098 2.832443 28.320917
Se -19.827098 -0.000000 25.488475
Se -22.659540 2.832443 31.153360
Se -19.827098 -0.000000 31.153360
Se -22.659540 5.664885 -28.327933
Se -19.827098 8.497328 -28.327933
Se -19.827098 5.664885 -31.160376
Se -22.659540 5.664885 -22.663048
Se -22.659540 8.497328 -25.495491
Se -19.827098 8.497328 -22.663048
Se -19.827098 5.664885 -25.495491
Se -22.659540 5.664885 -16.998163
Se -22.659540 8.497328 -19.830606
Se -19.827098 8.497328 -16.998163
Se -19.827098 5.664885 -19.830606
Se -22.659540 5.664885 -11.333278
Se -22.659540 8.497328 -14.165721
Se -19.827098 8.497328 -11.333278
Se -19.827098 5.664885 -14.165721
Se -22.659540 5.664885 -5.668393
Se -22.659540 8.497328 -8.500836
Se -19.827098 8.497328 -5.668393
Se -19.827098 5.664885 -8.500836
Se -22.659540 5.664885 -0.003508
Se -22.659540 8.497328 -2.835951
Se -19.827098 8.497328 -0.003508
Se -19.827098 5.664885 -2.835951
Se -22.659540 5.664885 5.661377
Se -22.659540 8.497328 2.828935
Se -19.827098 8.497328 5.661377
Se -19.827098 5.664885 2.828935
Se -22.659540 5.664885 11.326262
Se -22.659540 8.497328 8.493820
Se -19.827098 8.497328 11.326262
Se -19.827098 5.664885 8.493820
Se -22.659540 5.664885 16.991147
Se -22.659540 8.497328 14.158705
Se -19.827098 8.497328 16.991147
Se -19.827098 5.664885 14.158705
Se -22.659540 5.664885 22.656032
Se -22.659540 8.497328 19.823590
Se -19.827098 8.497328 22.656032
Se -19.827098 5.664885 19.823590
Se -22.659540 5.664885 28.320917
Se -22.659540 8.497328 25.488475
Se -19.827098 8.497328 28.320917
Se -19.827098 5.664885 25.488475
Se -19.827098 5.664885 31.153360
Se -22.659540 11.329770 -22.663048
Se -19.827098 14.162213 -22.663048
Se -19.827098 11.329770 -25.495491
Se -22.659540 11.329770 -16.998163
Se -22.659540 14.162213 -19.830606
Se -19.827098 14.162213 -16.998163
Se -19.827098 11.329770 -19.830606
Se -22.659540 11.329770 -11.333278
Se -22.659540 14.162213 -14.165721
Se -19.827098 14.162213 -11.333278
Se -19.827098 11.329770 -14.165721
Se -22.659540 11.329770 -5.668393
Se -22.659540 14.162213 -8.500836
Se -19.827098 14.162213 -5.668393
Se -19.827098 11.329770 -8.500836
Se -22.659540 11.329770 -0.003508
Se -22.659540 14.162213 -2.835951
Se -19.827098 14.162213 -0.003508
Se -19.827098 11.329770 -2.835951
Se -22.659540 11.329770 5.661377
Se -22.659540 14.162213 2.828935
Se -19.827098 14.162213 5.661377
Se -19.827098 11.329770 2.828935
Se -22.659540 11.329770 11.326262
Se -22.659540 14.162213 8.493820
Se -19.827098 14.162213 11.326262
Se -19.827098 11.329770 8.493820
Se -22.659540 11.329770 16.991147
Se -22.659540 14.162213 14.158705
Se -19.827098 14.162213 16.991147
Se -19.827098 11.329770 14.158705
Se -22.659540 11.329770 22.656032
Se -22.659540 14.162213 19.823590
Se -19.827098 14.162213 22.656032
Se -19.827098 11.329770 19.823590
Se -19.827098 11.329770 25.488475
Se -22.659540 16.994655 -16.998163
Se -19.827098 19.827098 -16.998163
Se -19.827098 16.994655 -19.830606
Se -22.659540 16.994655 -11.333278
Se -22.659540 19.827098 -14.165721
Se -19.827098 19.827098 -11.333278
Se -19.827098 16.994655 -14.165721
Se -22.659540 16.994655 -5.668393
Se -22.659540 19.827098 -8.500836
Se -19.827098 19.827098 -5.668393
Se -19.827098 16.994655 -8.500836
Se -22.659540 16.994655 -0.003508
Se -22.659540 19.827098 -2.835951
Se -19.827098 19.827098 -0.003508
Se -19.827098 16.994655 -2.835951
Se -22.659540 16.994655 5.661377
Se -22.659540 19.827098 2.828935
Se -19.827098 19.827098 5.661377
Se -19.827098 16.994655 2.828935
Se -22.659540 16.994655 11.326262
Se -22.659540 19.827098 8.493820
Se -19.827098 19.827098 11.326262
Se -19.827098 16.994655 8.493820
Se -22.659540 16.994655 16.991147
Se -22.659540 19.827098 14.158705
Se -19.827098 19.827098 16.991147
Se -19.827098 16.994655 14.158705
Se -19.827098 16.994655 19.823590
Se -22.659540 22.659540 -11.333278
Se -19.827098 25.491983 -11.333278
Se -19.827098 22.659540 -14.165721
Se -22.659540 22.659540 -5.668393
Se -22.659540 25.491983 -8.500836
Se -19.827098 25.491983 -5.668393
Se -19.827098 22.659540 -8.500836
Se -22.659540 22.659540 -0.003508
Se -22.659540 25.491983 -2.835951
Se -19.827098 25.491983 -0.003508
Se -19.827098 22.659540 -2.835951
Se -22.659540 22.659540 5.661377
Se -22.659540 25.491983 2.828935
Se -19.827098 25.491983 5.661377
Se -19.827098 22.659540 2.828935
Se -22.659540 22.659540 11.326262
Se -22.659540 25.491983 8.493820
Se -19.827098 25.491983 11.326262
Se -19.827098 22.659540 8.493820
Se -19.827098 22.659540 14.158705
Se -22.659540 28.324425 -5.668393
Se -19.827098 31.156868 -5.668393
Se -19.827098 28.324425 -8.500836
Se -22.659540 28.324425 -0.003508
Se -22.659540 31.156868 -2.835951
Se -19.827098 31.156868 -0.003508
Se -19.827098 28.324425 -2.835951
Se -22.659540 28.324425 5.661377
Se -22.659540 31.156868 2.828935
Se -19.827098 31.156868 5.661377
Se -19.827098 28.324425 2.828935
Se -19.827098 28.324425 8.493820
Se -14.162213 -31.156868 -11.333278
Se -16.994655 -31.156868 -8.500836
Se -14.162213 -31.156868 -5.668393
Se -16.994655 -31.156868 -2.835951
Se -14.162213 -31.156868 -0.003508
Se -16.994655 -31.156868 2.828935
Se -14.162213 -31.156868 5.661377
Se -16.994655 -31.156868 8.493820
Se -14.162213 -31.156868 11.326262
Se -14.162213 -25.491983 -16.998163
Se -16.994655 -28.324425 -11.333278
Se -16.994655 -25.491983 -14.165721
Se -14.162213 -25.491983 -11.333278
Se -14.162213 -28.324425 -14.165721
Se -16.994655 -28.324425 -5.668393
Se -16.994655 -25.491983 -8.500836
Se -14.162213 -25.491983 -5.668393
Se -14.162213 -28.324425 -8.500836
Se -16.994655 -28.324425 -0.003508
Se -16.994655 -25.491983 -2.835951
Se -14.162213 -25.491983 -0.003508
Se -14.162213 -28.324425 -2.835951
Se -16.994655 -28.324425 5.661377
Se -16.994655 -25.491983 2.828935
Se -14.162213 -25.491983 5.661377
Se -14.162213 -28.324425 2.828935
Se -16.994655 -28.324425 11.326262
Se -16.994655 -25.491983 8.493820
Se -14.162213 -25.491983 11.326262
Se -14.162213 -28.324425 8.493820
Se -16.994655 -25.491983 14.158705
Se -14.162213 -25.491983 16.991147
Se -14.162213 -28.324425 14.158705
Se -14.162213 -19.827098 -22.663048
Se -16.994655 -22.659540 -16.998163
Se -16.994655 -19.827098 -19.830606
Se -14.162213 -19.827098 -16.998163
Se -14.162213 -22.659540 -19.830606
Se -16.994655 -22.659540 -11.333278
Se -16.994655 -19.827098 -14.165721
Se -14.162213 -19.827098 -11.333278
Se -14.162213 -22.659540 -14.165721
Se -16.994655 -22.659540 -5.668393
Se -16.994655 -19.827098 -8.500836
Se -14.162213 -19.827098 -5.668393
Se -14.162213 -22.659540 -8.500836
Se -16.994655 -22.659540 -0.003508
Se -16.994655 -19.827098 -2.835951
Se -14.162213 -19.827098 -0.003508
Se -14.162213 -22.659540 -2.835951
Se -16.994655 -22.659540 5.661377
Se -16.994655 -19.827098 2.828935
Se -14.162213 -19.827098 5.661377
Se -14.162213 -22.659540 2.828935
Se -16.994655 -22.659540 11.326262
Se -16.994655 -19.827098 8.493820
Se -14.162213 -19.827098 11.326262
Se -14.162213 -22.659540 8.493820
Se -16.994655 -22.659540 16.991147
Se -16.994655 -19.827098 14.158705
Se -14.162213 -19.827098 16.991147
Se -14.162213 -22.659540 14.158705
Se -16.994655 -19.827098 19.823590
Se -14.162213 -19.827098 22.656032
Se -14.162213 -22.659540 19.823590
Se -14.162213 -14.162213 -28.327933
Se -16.994655 -16.994655 -22.663048
Se -16.994655 -14.162213 -25.495491
Se -14.162213 -14.162213 -22.663048
Se -14.162213 -16.994655 -25.495491
Se -16.994655 -16.994655 -16.998163
Se -16.994655 -14.162213 -19.830606
Se -14.162213 -14.162213 -16.998163
Se -14.162213 -16.994655 -19.830606
Se -16.994655 -16.994655 -11.333278
Se -16.994655 -14.162213 -14.165721
Se -14.162213 -14.162213 -11.333278
Se -14.162213 -16.994655 -14.165721
Se -16.994655 -16.994655 -5.668393
Se -16.994655 -14.162213 -8.500836
Se -14.162213 -14.162213 -5.668393
Se -14.162213 -16.994655 -8.500836
Se -16.994655 -16.994655 -0.003508
Se -16.994655 -14.162213 -2.835951
Se -14.162213 -14.162213 -0.003508
Se -14.162213 -16.994655 -2.835951
Se -16.994655 -16.994655 5.661377
Se -16.994655 -14.162213 2.828935
Se -14.162213 -14.162213 5.661377
Se -14.162213 -16.994655 2.828935
Se -16.994655 -16.994655 11.326262
Se -16.994655 -14.162213 8.493820
Se -14.162213 -14.162213 11.326262
Se -14.162213 -16.994655 8.493820
Se -16.994655 -16.994655 16.991147
Se -16.994655 -14.162213 14.158705
Se -14.162213 -14.162213 16.991147
Se -14.162213 -16.994655 14.158705
Se -16.994655 -16.994655 22.656032
Se -16.994655 -14.162213 19.823590
Se -14.162213 -14.162213 22.656032
Se -14.162213 -16.994655 19.823590
Se -16.994655 -14.162213 25.488475
Se -14.162213 -14.162213 28.320917
Se -14.162213 -16.994655 25.488475
Se -16.994655 -11.329770 -28.327933
Se -16.994655 -8.497328 -31.160376
Se -14.162213 -8.497328 -28.327933
Se -14.162213 -11.329770 -31.160376
Se -16.994655 -11.329770 -22.663048
Se -16.994655 -8.497328 -25.495491
Se -14.162213 -8.497328 -22.663048
Se -14.162213 -11.329770 -25.495491
Se -16.994655 -11.329770 -16.998163
Se -16.994655 -8.497328 -19.830606
Se -14.162213 -8.497328 -16.998163
Se -14.162213 -11.329770 -19.830606
Se -16.994655 -11.329770 -11.333278
Se -16.994655 -8.497328 -14.165721
Se -14.162213 -8.497328 -11.333278
Se -14.162213 -11.329770 -14.165721
Se -16.994655 -11.329770 -5.668393
Se -16.994655 -8.497328 -8.500836
Se -14.162213 -8.497328 -5.668393
Se -14.162213 -11.329770 -8.500836
Se -16.994655 -11.329770 -0.003508
Se -16.994655 -8.497328 -2.835951
Se -14.162213 -8.497328 -0.003508
Se -14.162213 -11.329770 -2.835951
Se -16.994655 -11.329770 5.661377
Se -16.994655 -8.497328 2.828935
Se -14.162213 -8.497328 5.661377
Se -14.162213 -11.329770 2.828935
Se -16.994655 -11.329770 11.326262
Se -16.994655 -8.497328 8.493820
Se -14.162213 -8.497328 11.326262
Se -14.162213 -11.329770 8.493820
Se -16.994655 -11.329770 16.991147
Se -16.994655 -8.497328 14.158705
Se -14.162213 -8.497328 16.991147
Se -14.162213 -11.329770 14.158705
Se -16.994655 -11.329770 22.656032
Se -16.994655 -8.497328 19.823590
Se -14.162213 -8.497328 22.656032
Se -14.162213 -11.329770 19.823590
Se -16.994655 -11.329770 28.320917
Se -16.994655 -8.497328 25.488475
Se -14.162213 -8.497328 28.320917
Se -14.162213 -11.329770 25.488475
Se -16.994655 -8.497328 31.153360
Se -14.162213 -11.329770 31.153360
Se -16.994655 -5.664885 -28.327933
Se -16.994655 -2.832443 -31.160376
Se -14.162213 -2.832443 -28.327933
Se -14.162213 -5.664885 -31.160376
Se -16.994655 -5.664885 -22.663048
Se -16.994655 -2.832443 -25.495491
Se -14.162213 -2.832443 -22.663048
Se -14.162213 -5.664885 -25.495491
Se -16.994655 -5.664885 -16.998163
Se -16.994655 -2.832443 -19.830606
Se -14.162213 -2.832443 -16.998163
Se -14.162213 -5.664885 -19.830606
Se -16.994655 -5.664885 -11.333278
Se -16.994655 -2.832443 -14.165721
Se -14.162213 -2.832443 -11.333278
Se -14.162213 -5.664885 -14.165721
Se -16.994655 -5.664885 -5.668393
Se -16.994655 -2.832443 -8.500836
Se -14.162213 -2.832443 -5.668393
Se -14.162213 -5.664885 -8.500836
Se -16.994655 -5.664885 -0.003508
Se -16.994655 -2.832443 -2.835951
Se -14.162213 -2.832443 -0.003508
Se -14.162213 -5.664885 -2.835951
Se -16.994655 -5.664885 5.661377
Se -16.994655 -2.832443 2.828935
Se -14.162213 -2.832443 5.661377
Se -14.162213 -5.664885 2.828935
Se -16.994655 -5.664885 11.326262
Se -16.994655 -2.832443 8.493820
Se -14.162213 -2.832443 11.326262
Se -14.162213 -5.664885 8.493820
Se -16.994655 -5.664885 16.991147
Se -16.994655 -2.832443 14.158705
Se -14.162213 -2.832443 16.991147
Se -14.162213 -5.664885 14.158705
Se -16.994655 -5.664885 22.656032
Se -16.994655 -2.832443 19.823590
Se -14.162213 -2.832443 22.656032
Se -14.162213 -5.664885 19.823590
Se -16.994655 -5.664885 28.320917
Se -16.994655 -2.832443 25.488475
Se -14.162213 -2.832443 28.320917
Se -14.162213 -5.664885 25.488475
Se -16.994655 -2.832443 31.153360
Se -14.162213 -5.664885 31.153360
Se -16.994655 -0.000000 -28.327933
Se -16.994655 2.832443 -31.160376
Se -14.162213 2.832443 -28.327933
Se -14.162213 -0.000000 -31.160376
Se -16.994655 -0.000000 -22.663048
Se -16.994655 2.832443 -25.495491
Se -14.162213 2.832443 -22.663048
Se -14.162213 -0.000000 -25.495491
Se -16.994655 -0.000000 -16.998163
Se -16.994655 2.832443 -19.830606
Se -14.162213 2.832443 -16.998163
Se -14.162213 -0.000000 -19.830606
Se -16.994655 -0.000000 -11.333278
Se -16.994655 2.832443 -14.165721
Se -14.162213 2.832443 -11.333278
Se -14.162213 -0.000000 -14.165721
Se -16.994655 -0.000000 -5.668393
Se -16.994655 2.832443 -8.500836
Se -14.162213 2.832443 -5.668393
Se -14.162213 -0.000000 -8.500836
Se -16.994655 -0.000000 -0.003508
Se -16.994655 2.832443 -2.835951
Se -14.162213 2.832443 -0.003508
Se -14.162213 -0.000000 -2.835951
Se -16.994655 -0.000000 5.661377
Se -16.994655 2.832443 2.828935
Se -14.162213 2.832443 5.661377
Se -14.162213 -0.000000 2.828935
Se -16.994655 -0.000000 11.326262
Se -16.994655 2.832443 8.493820
Se -14.162213 2.832443 11.326262
Se -14.162213 -0.000000 8.493820
Se -16.994655 -0.000000 16.991147
Se -16.994655 2.832443 14.158705
Se -14.162213 2.832443 16.991147
Se -14.162213 -0.000000 14.158705
Se -16.994655 -0.000000 22.656032
Se -16.994655 2.832443 19.823590
Se -14.162213 2.832443 22.656032
Se -14.162213 -0.000000 19.823590
Se -16.994655 -0.000000 28.320917
Se -16.994655 2.832443 25.488475
Se -14.162213 2.832443 28.320917
Se -14.162213 -0.000000 25.488475
Se -16.994655 2.832443 31.153360
Se -14.162213 -0.000000 31.153360
Se -16.994655 5.664885 -28.327933
Se -16.994655 8.497328 -31.160376
Se -14.162213 8.497328 -28.327933
Se -14.162213 5.664885 -31.160376
Se -16.994655 5.664885 -22.663048
Se -16.994655 8.497328 -25.495491
Se -14.162213 8.497328 -22.663048
Se -14.162213 5.664885 -25.495491
Se -16.994655 5.664885 -16.998163
Se -16.994655 8.497328 -19.830606
Se -14.162213 8.497328 -16.998163
Se -14.162213 5.664885 -19.830606
Se -16.994655 5.664885 -11.333278
Se -16.994655 8.497328 -14.165721
Se -14.162213 8.497328 -11.333278
Se -14.162213 5.664885 -14.165721
Se -16.994655 5.664885 -5.668393
Se -16.994655 8.497328 -8.500836
Se -14.162213 8.497328 -5.668393
Se -14.162213 5.664885 -8.500836
Se -16.994655 5.664885 -0.003508
Se -16.994655 8.497328 -2.835951
Se -14.162213 8.497328 -0.003508
Se -14.162213 5.664885 -2.835951
Se -16.994655 5.664885 5.661377
Se -16.994655 8.497328 2.828935
Se -14.162213 8.497328 5.661377
Se -14.162213 5.664885 2.828935
Se -16.994655 5.664885 11.326262
Se -16.994655 8.497328 8.493820
Se -14.162213 8.497328 11.326262
Se -14.162213 5.664885 8.493820
Se -16.994655 5.664885 16.991147
Se -16.994655 8.497328 14.158705
Se -14.162213 8.497328 16.991147
Se -14.162213 5.664885 14.158705
Se -16.994655 5.664885 22.656032
Se -16.994655 8.497328 19.823590
Se -14.162213 8.497328 22.656032
Se -14.162213 5.664885 19.823590
Se -16.994655 5.664885 28.320917
Se -16.994655 8.497328 25.488475
Se -14.162213 8.497328 28.320917
Se -14.162213 5.664885 25.488475
Se -16.994655 8.497328 31.153360
Se -14.162213 5.664885 31.153360
Se -16.994655 11.329770 -28.327933
Se -14.162213 14.162213 -28.327933
Se -14.162213 11.329770 -31.160376
Se -16.994655 11.329770 -22.663048
Se -16.994655 14.162213 -25.495491
Se -14.162213 14.162213 -22.663048
Se -14.162213 11.329770 -25.495491
Se -16.994655 11.329770 -16.998163
Se -16.994655 14.162213 -19.830606
Se -14.162213 14.162213 -16.998163
Se -14.162213 11.329770 -19.830606
Se -16.994655 11.329770 -11.333278
Se -16.994655 14.162213 -14.165721
Se -14.162213 14.162213 -11.333278
Se -14.162213 11.329770 -14.165721
Se -16.994655 11.329770 -5.668393
Se -16.994655 14.162213 -8.500836
Se -14.162213 14.162213 -5.668393
Se -14.162213 11.329770 -8.500836
Se -16.994655 11.329770 -0.003508
Se -16.994655 14.162213 -2.835951
Se -14.162213 14.162213 -0.003508
Se -14.162213 11.329770 -2.835951
Se -16.994655 11.329770 5.661377
Se -16.994655 14.162213 2.828935
Se -14.162213 14.162213 5.661377
Se -14.162213 11.329770 2.828935
Se -16.994655 11.329770 11.326262
Se -16.994655 14.162213 8.493820
Se -14.162213 14.162213 11.326262
Se -14.162213 11.329770 8.493820
Se -16.994655 11.329770 16.991147
Se -16.994655 14.162213 14.158705
Se -14.162213 14.162213 16.991147
Se -14.162213 11.329770 14.158705
Se -16.994655 11.329770 22.656032
Se -16.994655 14.162213 19.823590
Se -14.162213 14.162213 22.656032
Se -14.162213 11.329770 19.823590
Se -16.994655 11.329770 28.320917
Se -16.994655 14.162213 25.488475
Se -14.162213 14.162213 28.320917
Se -14.162213 11.329770 25.488475
Se -14.162213 11.329770 31.153360
Se -16.994655 16.994655 -22.663048
Se -14.162213 19.827098 -22.663048
Se -14.162213 16.994655 -25.495491
Se -16.994655 16.994655 -16.998163
Se -16.994655 19.827098 -19.830606
Se -14.162213 19.827098 -16.998163
Se -14.162213 16.994655 -19.830606
Se -16.994655 16.994655 -11.333278
Se -16.994655 19.827098 -14.165721
Se -14.162213 19.827098 -11.333278
Se -14.162213 16.994655 -14.165721
Se -16.994655 16.994655 -5.668393
Se -16.994655 19.827098 -8.500836
Se -14.162213 19.827098 -5.668393
Se -14.162213 16.994655 -8.500836
Se -16.994655 16.994655 -0.003508
Se -16.994655 19.827098 -2.835951
Se -14.162213 19.827098 -0.003508
Se -14.162213 16.994655 -2.835951
Se -16.994655 16.994655 5.661377
Se -16.994655 19.827098 2.828935
Se -14.162213 19.827098 5.661377
Se -14.162213 16.994655 2.828935
Se -16.994655 16.994655 11.326262
Se -16.994655 19.827098 8.493820
Se -14.162213 19.827098 11.326262
Se -14.162213 16.994655 8.493820
Se -16.994655 16.994655 16.991147
Se -16.994655 19.827098 14.158705
Se -14.162213 19.827098 16.991147
Se -14.162213 16.994655 14.158705
Se -16.994655 16.994655 22.656032
Se -16.994655 19.827098 19.823590
Se -14.162213 19.827098 22.656032
Se -14.162213 16.994655 19.823590
Se -14.162213 16.994655 25.488475
Se -16.994655 22.659540 -16.998163
Se -14.162213 25.491983 -16.998163
Se -14.162213 22.659540 -19.830606
Se -16.994655 22.659540 -11.333278
Se -16.994655 25.491983 -14.165721
Se -14.162213 25.491983 -11.333278
Se -14.162213 22.659540 -14.165721
Se -16.994655 22.659540 -5.668393
Se -16.994655 25.491983 -8.500836
Se -14.162213 25.491983 -5.668393
Se -14.162213 22.659540 -8.500836
Se -16.994655 22.659540 -0.003508
Se -16.994655 25.491983 -2.835951
Se -14.162213 25.491983 -0.003508
Se -14.162213 22.659540 -2.835951
Se -16.994655 22.659540 5.661377
Se -16.994655 25.491983 2.828935
Se -14.162213 25.491983 5.661377
Se -14.162213 22.659540 2.828935
Se -16.994655 22.659540 11.326262
Se -16.994655 25.491983 8.493820
Se -14.162213 25.491983 11.326262
Se -14.162213 22.659540 8.493820
Se -16.994655 22.659540 16.991147
Se -16.994655 25.491983 14.158705
Se -14.162213 25.491983 16.991147
Se -14.162213 22.659540 14.158705
Se -14.162213 22.659540 19.823590
Se -16.994655 28.324425 -11.333278
Se -14.162213 31.156868 -11.333278
Se -14.162213 28.324425 -14.165721
Se -16.994655 28.324425 -5.668393
Se -16.994655 31.156868 -8.500836
Se -14.162213 31.156868 -5.668393
Se -14.162213 28.324425 -8.500836
Se -16.994655 28.324425 -0.003508
Se -16.994655 31.156868 -2.835951
Se -14.162213 31.156868 -0.003508
Se -14.162213 28.324425 -2.835951
Se -16.994655 28.324425 5.661377
Se -16.994655 31.156868 2.828935
Se -14.162213 31.156868 5.661377
Se -14.162213 28.324425 2.828935
Se -16.994655 28.324425 11.326262
Se -16.994655 31.156868 8.493820
Se -14.162213 31.156868 11.326262
Se -14.162213 28.324425 8.493820
Se -14.162213 28.324425 14.158705
Se -8.497328 -31.156868 -16.998163
Se -11.329770 -31.156868 -14.165721
Se -8.497328 -31.156868 -11.333278
Se -11.329770 -31.156868 -8.500836
Se -8.497328 -31.156868 -5.668393
Se -11.329770 -31.156868 -2.835951
Se -8.497328 -31.156868 -0.003508
Se -11.329770 -31.156868 2.828935
Se -8.497328 -31.156868 5.661377
Se -11.329770 -31.156868 8.493820
Se -8.497328 -31.156868 11.326262
Se -11.329770 -31.156868 14.158705
Se -8.497328 -31.156868 16.991147
Se -8.497328 -25.491983 -22.663048
Se -11.329770 -28.324425 -16.998163
Se -11.329770 -25.491983 -19.830606
Se -8.497328 -25.491983 -16.998163
Se -8.497328 -28.324425 -19.830606
Se -11.329770 -28.324425 -11.333278
Se -11.329770 -25.491983 -14.165721
Se -8.497328 -25.491983 -11.333278
Se -8.497328 -28.324425 -14.165721
Se -11.329770 -28.324425 -5.668393
Se -11.329770 -25.491983 -8.500836
Se -8.497328 -25.491983 -5.668393
Se -8.497328 -28.324425 -8.500836
Se -11.329770 -28.324425 -0.003508
Se -11.329770 -25.491983 -2.835951
Se -8.497328 -25.491983 -0.003508
Se -8.497328 -28.324425 -2.835951
Se -11.329770 -28.324425 5.661377
Se -11.329770 -25.491983 2.828935
Se -8.497328 -25.491983 5.661377
Se -8.497328 -28.324425 2.828935
Se -11.329770 -28.324425 11.326262
Se -11.329770 -25.491983 8.493820
Se -8.497328 -25.491983 11.326262
Se -8.497328 -28.324425 8.493820
Se -11.329770 -28.324425 16.991147
Se -11.329770 -25.491983 14.158705
Se -8.497328 -25.491983 16.991147
Se -8.497328 -28.324425 14.158705
Se -11.329770 -25.491983 19.823590
Se -8.497328 -25.491983 22.656032
Se -8.497328 -28.324425 19.823590
Se -8.497328 -19.827098 -28.327933
Se -11.329770 -22.659540 -22.663048
Se -11.329770 -19.827098 -25.495491
Se -8.497328 -19.827098 -22.663048
Se -8.497328 -22.659540 -25.495491
Se -11.329770 -22.659540 -16.998163
Se -11.329770 -19.827098 -19.830606
Se -8.497328 -19.827098 -16.998163
Se -8.497328 -22.659540 -19.830606
Se -11.329770 -22.659540 -11.333278
Se -11.329770 -19.827098 -14.165721
Se -8.497328 -19.827098 -11.333278
Se -8.497328 -22.659540 -14.165721
Se -11.329770 -22.659540 -5.668393
Se -11.329770 -19.827098 -8.500836
Se -8.497328 -19.827098 -5.668393
Se -8.497328 -22.659540 -8.500836
Se -11.329770 -22.659540 -0.003508
Se -11.329770 -19.827098 -2.835951
Se -8.497328 -19.827098 -0.003508
Se -8.497328 -22.659540 -2.835951
Se -11.329770 -22.659540 5.661377
Se -11.329770 -19.827098 2.828935
Se -8.497328 -19.827098 5.661377
Se -8.497328 -22.659540 2.828935
Se -11.329770 -22.659540 11.326262
Se -11.329770 -19.827098 8.493820
Se -8.497328 -19.827098 11.326262
Se -8.497328 -22.659540 8.493820
Se -11.329770 -22.659540 16.991147
Se -11.329770 -19.827098 14.158705
Se -8.497328 -19.827098 16.991147
Se -8.497328 -22.659540 14.158705
Se -11.329770 -22.659540 22.656032
Se -11.329770 -19.827098 19.823590
Se -8.497328 -19.827098 22.656032
Se -8.497328 -22.659540 19.823590
Se -11.329770 -19.827098 25.488475
Se -8.497328 -19.827098 28.320917
Se -8.497328 -22.659540 25.488475
Se -11.329770 -16.994655 -28.327933
Se -11.329770 -14.162213 -31.160376
Se -8.497328 -14.162213 -28.327933
Se -8.497328 -16.994655 -31.160376
Se -11.329770 -16.994655 -22.663048
Se -11.329770 -14.162213 -25.495491
Se -8.497328 -14.162213 -22.663048
Se -8.497328 -16.994655 -25.495491
Se -11.329770 -16.994655 -16.998163
Se -11.329770 -14.162213 -19.830606
Se -8.497328 -14.162213 -16.998163
Se -8.497328 -16.994655 -19.830606
Se -11.329770 -16.994655 -11.333278
Se -11.329770 -14.162213 -14.165721
Se -8.497328 -14.162213 -11.333278
Se -8.497328 -16.994655 -14.165721
Se -11.329770 -16.994655 -5.668393
Se -11.329770 -14.162213 -8.500836
Se -8.497328 -14.162213 -5.668393
Se -8.497328 -16.994655 -8.500836
Se -11.329770 -16.994655 -0.003508
Se -11.329770 -14.162213 -2.835951
Se -8.497328 -14.162213 -0.003508
Se -8.497328 -16.994655 -2.835951
Se -11.329770 -16.994655 5.661377
Se -11.329770 -14.162213 2.828935
Se -8.497328 -14.162213 5.661377
Se -8.497328 -16.994655 2.828935
Se -11.329770 -16.994655 11.326262
Se -11.329770 -14.162213 8.493820
Se -8.497328 -14.162213 11.326262
Se -8.497328 -16.994655 8.493820
Se -11.329770 -16.994655 16.991147
Se -11.329770 -14.162213 14.158705
Se -8.497328 -14.162213 16.991147
Se -8.497328 -16.994655 14.158705
Se -11.329770 -16.994655 22.656032
Se -11.329770 -14.162213 19.823590
Se -8.497328 -14.162213 22.656032
Se -8.497328 -16.994655 19.823590
Se -11.329770 -16.994655 28.320917
Se -11.329770 -14.162213 25.488475
Se -8.497328 -14.162213 28.320917
Se -8.497328 -16.994655 25.488475
Se -11.329770 -14.162213 31.153360
Se -8.497328 -16.994655 31.153360
Se -11.329770 -11.329770 -28.327933
Se -11.329770 -8.497328 -31.160376
Se -8.497328 -8.497328 -28.327933
Se -8.497328 -11.329770 -31.160376
Se -11.329770 -11.329770 -22.663048
Se -11.329770 -8.497328 -25.495491
Se -8.497328 -8.497328 -22.663048
Se -8.497328 -11.329770 -25.495491
Se -11.329770 -11.329770 -16.998163
Se -11.329770 -8.497328 -19.830606
Se -8.497328 -8.497328 -16.998163
Se -8.497328 -11.329770 -19.830606
Se -11.329770 -11.329770 -11.333278
Se -11.329770 -8.497328 -14.165721
Se -8.497328 -8.497328 -11.333278
Se -8.497328 -11.329770 -14.165721
Se -11.329770 -11.329770 -5.668393
Se -11.329770 -8.497328 -8.500836
Se -8.497328 -8.497328 -5.668393
Se -8.497328 -11.329770 -8.500836
Se -11.329770 -11.329770 -0.003508
Se -11.329770 -8.497328 -2.835951
Se -8.497328 -8.497328 -0.003508
Se -8.497328 -11.329770 -2.835951
Se -11.329770 -11.329770 5.661377
Se -11.329770 -8.497328 2.828935
Se -8.497328 -8.497328 5.661377
Se -8.497328 -11.329770 2.828935
Se -11.329770 -11.329770 11.326262
Se -11.329770 -8.497328 8.493820
Se -8.497328 -8.497328 11.326262
Se -8.497328 -11.329770 8.493820
Se -11.329770 -11.329770 16.991147
Se -11.329770 -8.497328 14.158705
Se -8.497328 -8.497328 16.991147
Se -8.497328 -11.329770 14.158705
Se -11.329770 -11.329770 22.656032
Se -11.329770 -8.497328 19.823590
Se -8.497328 -8.497328 22.656032
Se -8.497328 -11.329770 19.823590
Se -11.329770 -11.329770 28.320917
Se -11.329770 -8.497328 25.488475
Se -8.497328 -8.497328 28.320917
Se -8.497328 -11.329770 25.488475
Se -11.329770 -8.497328 31.153360
Se -8.497328 -11.329770 31.153360
Se -11.329770 -5.664885 -28.327933
Se -11.329770 -2.832443 -31.160376
Se -8.497328 -2.832443 -28.327933
Se -8.497328 -5.664885 -31.160376
Se -11.329770 -5.664885 -22.663048
Se -11.329770 -2.832443 -25.495491
Se -8.497328 -2.832443 -22.663048
Se -8.497328 -5.664885 -25.495491
Se -11.329770 -5.664885 -16.998163
Se -11.329770 -2.832443 -19.830606
Se -8.497328 -2.832443 -16.998163
Se -8.497328 -5.664885 -19.830606
Se -11.329770 -5.664885 -11.333278
Se -11.329770 -2.832443 -14.165721
Se -8.497328 -2.832443 -11.333278
Se -8.497328 -5.664885 -14.165721
Se -11.329770 -5.664885 -5.668393
Se -11.329770 -2.832443 -8.500836
Se -8.497328 -2.832443 -5.668393
Se -8.497328 -5.664885 -8.500836
Se -11.329770 -5.664885 -0.003508
Se -11.329770 -2.832443 -2.835951
Se -8.497328 -2.832443 -0.003508
Se -8.497328 -5.664885 -2.835951
Se -11.329770 -5.664885 5.661377
Se -11.329770 -2.832443 2.828935
Se -8.497328 -2.832443 5.661377
Se -8.497328 -5.664885 2.828935
Se -11.329770 -5.664885 11.326262
Se -11.329770 -2.832443 8.493820
Se -8.497328 -2.832443 11.326262
Se -8.497328 -5.664885 8.493820
Se -11.329770 -5.664885 16.991147
Se -11.329770 -2.832443 14.158705
Se -8.497328 -2.832443 16.991147
Se -8.497328 -5.664885 14.158705
Se -11.329770 -5.664885 22.656032
Se -11.329770 -2.832443 19.823590
Se -8.497328 -2.832443 22.656032
Se -8.497328 -5.664885 19.823590
Se -11.329770 -5.664885 28.320917
Se -11.329770 -2.832443 25.488475
Se -8.497328 -2.832443 28.320917
Se -8.497328 -5.664885 25.488475
Se -11.329770 -2.832443 31.153360
Se -8.497328 -5.664885 31.153360
Se -11.329770 -0.000000 -28.327933
Se -11.329770 2.832443 -31.160376
Se -8.497328 2.832443 -28.327933
Se -8.497328 -0.000000 -31.160376
Se -11.329770 -0.000000 -22.663048
Se -11.329770 2.832443 -25.495491
Se -8.497328 2.832443 -22.663048
Se -8.497328 -0.000000 -25.495491
Se -11.329770 -0.000000 -16.998163
Se -11.329770 2.832443 -19.830606
Se -8.497328 2.832443 -16.998163
Se -8.497328 -0.000000 -19.830606
Se -11.329770 -0.000000 -11.333278
Se -11.329770 2.832443 -14.165721
Se -8.497328 2.832443 -11.333278
Se -8.497328 -0.000000 -14.165721
Se -11.329770 -0.000000 -5.668393
Se -11.329770 2.832443 -8.500836
Se -8.497328 2.832443 -5.668393
Se -8.497328 -0.000000 -8.500836
Se -11.329770 -0.000000 -0.003508
Se -11.329770 2.832443 -2.835951
Se -8.497328 2.832443 -0.003508
Se -8.497328 -0.000000 -2.835951
Se -11.329770 -0.000000 5.661377
Se -11.329770 2.832443 2.828935
Se -8.497328 2.832443 5.661377
Se -8.497328 -0.000000 2.828935
Se -11.329770 -0.000000 11.326262
Se -11.329770 2.832443 8.493820
Se -8.497328 2.832443 11.326262
Se -8.497328 -0.000000 8.493820
Se -11.329770 -0.000000 16.991147
Se -11.329770 2.832443 14.158705
Se -8.497328 2.832443 16.991147
Se -8.497328 -0.000000 14.158705
Se -11.329770 -0.000000 22.656032
Se -11.329770 2.832443 19.823590
Se -8.497328 2.832443 22.656032
Se -8.497328 -0.000000 19.823590
Se -11.329770 -0.000000 28.320917
Se -11.329770 2.832443 25.488475
Se -8.497328 2.832443 28.320917
Se -8.497328 -0.000000 25.488475
Se -11.329770 2.832443 31.153360
Se -8.497328 -0.000000 31.153360
Se -11.329770 5.664885 -28.327933
Se -11.329770 8.497328 -31.160376
Se -8.497328 8.497328 -28.327933
Se -8.497328 5.664885 -31.160376
Se -11.329770 5.664885 -22.663048
Se -11.329770 8.497328 -25.495491
Se -8.497328 8.497328 -22.663048
Se -8.497328 5.664885 -25.495491
Se -11.329770 5.664885 -16.998163
Se -11.329770 8.497328 -19.830606
Se -8.497328 8.497328 -16.998163
Se -8.497328 5.664885 -19.830606
Se -11.329770 5.664885 -11.333278
Se -11.329770 8.497328 -14.165721
Se -8.497328 8.497328 -11.333278
Se -8.497328 5.664885 -14.165721
Se -11.329770 5.664885 -5.668393
Se -11.329770 8.497328 -8.500836
Se -8.497328 8.497328 -5.668393
Se -8.497328 5.664885 -8.500836
Se -11.329770 5.664885 -0.003508
Se -11.329770 8.497328 -2.835951
Se -8.497328 8.497328 -0.003508
Se -8.497328 5.664885 -2.835951
Se -11.329770 5.664885 5.661377
Se -11.329770 8.497328 2.828935
Se -8.497328 8.497328 5.661377
Se -8.497328 5.664885 2.828935
Se -11.329770 5.664885 11.326262
Se -11.329770 8.497328 8.493820
Se -8.497328 8.497328 11.326262
Se -8.497328 5.664885 8.493820
Se -11.329770 5.664885 16.991147
Se -11.329770 8.497328 14.158705
Se -8.497328 8.497328 16.991147
Se -8.497328 5.664885 14.158705
Se -11.329770 5.664885 22.656032
Se -11.329770 8.497328 19.823590
Se -8.497328 8.497328 22.656032
Se -8.497328 5.664885 19.823590
Se -11.329770 5.664885 28.320917
Se -11.329770 8.497328 25.488475
Se -8.497328 8.497328 28.320917
Se -8.497328 5.664885 25.488475
Se -11.329770 8.497328 31.153360
Se -8.497328 5.664885 31.153360
Se -11.329770 11.329770 -28.327933
Se -11.329770 14.162213 -31.160376
Se -8.497328 14.162213 -28.327933
Se -8.497328 11.329770 -31.160376
Se -11.329770 11.329770 -22.663048
Se -11.329770 14.162213 -25.495491
Se -8.497328 14.162213 -22.663048
Se -8.497328 11.329770 -25.495491
Se -11.329770 11.329770 -16.998163
Se -11.329770 14.162213 -19.830606
Se -8.497328 14.162213 -16.998163
Se -8.497328 11.329770 -19.830606
Se -11.329770 11.329770 -11.333278
Se -11.329770 14.162213 -14.165721
Se -8.497328 14.162213 -11.333278
Se -8.497328 11.329770 -14.165721
Se -11.329770 11.329770 -5.668393
Se -11.329770 14.162213 -8.500836
Se -8.497328 14.162213 -5.668393
Se -8.497328 11.329770 -8.500836
Se -11.329770 11.329770 -0.003508
Se -11.329770 14.162213 -2.835951
Se -8.497328 14.162213 -0.003508
Se -8.497328 11.329770 -2.835951
Se -11.329770 11.329770 5.661377
Se -11.329770 14.162213 2.828935
Se -8.497328 14.162213 5.661377
Se -8.497328 11.329770 2.828935
Se -11.329770 11.329770 11.326262
Se -11.329770 14.162213 8.493820
Se -8.497328 14.162213 11.326262
Se -8.497328 11.329770 8.493820
Se -11.329770 11.329770 16.991147
Se -11.329770 14.162213 14.158705
Se -8.497328 14.162213 16.991147
Se -8.497328 11.329770 14.158705
Se -11.329770 11.329770 22.656032
Se -11.329770 14.162213 19.823590
Se -8.497328 14.162213 22.656032
Se -8.497328 11.329770 19.823590
Se -11.329770 11.329770 28.320917
Se -11.329770 14.162213 25.488475
Se -8.497328 14.162213 28.320917
Se -8.497328 11.329770 25.488475
Se -11.329770 14.162213 31.153360
Se -8.497328 11.329770 31.153360
Se -11.329770 16.994655 -28.327933
Se -8.497328 19.827098 -28.327933
Se -8.497328 16.994655 -31.160376
Se -11.329770 16.994655 -22.663048
Se -11.329770 19.827098 -25.495491
Se -8.497328 19.827098 -22.663048
Se -8.497328 16.994655 -25.495491
Se -11.329770 16.994655 -16.998163
Se -11.329770 19.827098 -19.830606
Se -8.497328 19.827098 -16.998163
Se -8.497328 16.994655 -19.830606
Se -11.329770 16.994655 -11.333278
Se -11.329770 19.827098 -14.165721
Se -8.497328 19.827098 -11.333278
Se -8.497328 16.994655 -14.165721
Se -11.329770 16.994655 -5.668393
Se -11.329770 19.827098 -8.500836
Se -8.497328 19.827098 -5.668393
Se -8.497328 16.994655 -8.500836
Se -11.329770 16.994655 -0.003508
Se -11.329770 19.827098 -2.835951
Se -8.497328 19.827098 -0.003508
Se -8.497328 16.994655 -2.835951
Se -11.329770 16.994655 5.661377
Se -11.329770 19.827098 2.828935
Se -8.497328 19.827098 5.661377
Se -8.497328 16.994655 2.828935
Se -11.329770 16.994655 11.326262
Se -11.329770 19.827098 8.493820
Se -8.497328 19.827098 11.326262
Se -8.497328 16.994655 8.493820
Se -11.329770 16.994655 16.991147
Se -11.329770 19.827098 14.158705
Se -8.497328 19.827098 16.991147
Se -8.497328 16.994655 14.158705
Se -11.329770 16.994655 22.656032
Se -11.329770 19.827098 19.823590
Se -8.497328 19.827098 22.656032
Se -8.497328 16.994655 19.823590
Se -11.329770 16.994655 28.320917
Se -11.329770 19.827098 25.488475
Se -8.497328 19.827098 28.320917
Se -8.497328 16.994655 25.488475
Se -8.497328 16.994655 31.153360
Se -11.329770 22.659540 -22.663048
Se -8.497328 25.491983 -22.663048
Se -8.497328 22.659540 -25.495491
Se -11.329770 22.659540 -16.998163
Se -11.329770 25.491983 -19.830606
Se -8.497328 25.491983 -16.998163
Se -8.497328 22.659540 -19.830606
Se -11.329770 22.659540 -11.333278
Se -11.329770 25.491983 -14.165721
Se -8.497328 25.491983 -11.333278
Se -8.497328 22.659540 -14.165721
Se -11.329770 22.659540 -5.668393
Se -11.329770 25.491983 -8.500836
Se -8.497328 25.491983 -5.668393
Se -8.497328 22.659540 -8.500836
Se -11.329770 22.659540 -0.003508
Se -11.329770 25.491983 -2.835951
Se -8.497328 25.491983 -0.003508
Se -8.497328 22.659540 -2.835951
Se -11.329770 22.659540 5.661377
Se -11.329770 25.491983 2.828935
Se -8.497328 25.491983 5.661377
Se -8.497328 22.659540 2.828935
Se -11.329770 22.659540 11.326262
Se -11.329770 25.491983 8.493820
Se -8.497328 25.491983 11.326262
Se -8.497328 22.659540 8.493820
Se -11.329770 22.659540 16.991147
Se -11.329770 25.491983 14.158705
Se -8.497328 25.491983 16.991147
Se -8.497328 22.659540 14.158705
Se -11.329770 22.659540 22.656032
Se -11.329770 25.491983 19.823590
Se -8.497328 25.491983 22.656032
Se -8.497328 22.659540 19.823590
Se -8.497328 22.659540 25.488475
Se -11.329770 28.324425 -16.998163
Se -8.497328 31.156868 -16.998163
Se -8.497328 28.324425 -19.830606
Se -11.329770 28.324425 -11.333278
Se -11.329770 31.156868 -14.165721
Se -8.497328 31.156868 -11.333278
Se -8.497328 28.324425 -14.165721
Se -11.329770 28.324425 -5.668393
Se -11.329770 31.156868 -8.500836
Se -8.497328 31.156868 -5.668393
Se -8.497328 28.324425 -8.500836
Se -11.329770 28.324425 -0.003508
Se -11.329770 31.156868 -2.835951
Se -8.497328 31.156868 -0.003508
Se -8.497328 28.324425 -2.835951
Se -11.329770 28.324425 5.661377
Se -11.329770 31.156868 2.828935
Se -8.497328 31.156868 5.661377
Se -8.497328 28.324425 2.828935
Se -11.329770 28.324425 11.326262
Se -11.329770 31.156868 8.493820
Se -8.497328 31.156868 11.326262
Se -8.497328 28.324425 8.493820
Se -11.329770 28.324425 16.991147
Se -11.329770 31.156868 14.158705
Se -8.497328 31.156868 16.991147
Se -8.497328 28.324425 14.158705
Se -8.497328 28.324425 19.823590
Se -2.832443 -31.156868 -22.663048
Se -5.664885 -31.156868 -19.830606
Se -2.832443 -31.156868 -16.998163
Se -5.664885 -31.156868 -14.165721
Se -2.832443 -31.156868 -11.333278
Se -5.664885 -31.156868 -8.500836
Se -2.832443 -31.156868 -5.668393
Se -5.664885 -31.156868 -2.835951
Se -2.832443 -31.156868 -0.003508
Se -5.664885 -31.156868 2.828935
Se -2.832443 -31.156868 5.661377
Se -5.664885 -31.156868 8.493820
Se -2.832443 -31.156868 11.326262
Se -5.664885 -31.156868 14.158705
Se -2.832443 -31.156868 16.991147
Se -5.664885 -31.156868 19.823590
Se -2.832443 -31.156868 22.656032
Se -2.832443 -25.491983 -28.327933
Se -5.664885 -28.324425 -22.663048
Se -5.664885 -25.491983 -25.495491
Se -2.832443 -25.491983 -22.663048
Se -2.832443 -28.324425 -25.495491
Se -5.664885 -28.324425 -16.998163
Se -5.664885 -25.491983 -19.830606
Se -2.832443 -25.491983 -16.998163
Se -2.832443 -28.324425 -19.830606
Se -5.664885 -28.324425 -11.333278
Se -5.664885 -25.491983 -14.165721
Se -2.832443 -25.491983 -11.333278
Se -2.832443 -28.324425 -14.165721
Se -5.664885 -28.324425 -5.668393
Se -5.664885 -25.491983 -8.500836
Se -2.832443 -25.491983 -5.668393
Se -2.832443 -28.324425 -8.500836
Se -5.664885 -28.324425 -0.003508
Se -5.664885 -25.491983 -2.835951
Se -2.832443 -25.491983 -0.003508
Se -2.832443 -28.324425 -2.835951
Se -5.664885 -28.324425 5.661377
Se -5.664885 -25.491983 2.828935
Se -2.832443 -25.491983 5.661377
Se -2.832443 -28.324425 2.828935
Se -5.664885 -28.324425 11.326262
Se -5.664885 -25.491983 8.493820
Se -2.832443 -25.491983 11.326262
Se -2.832443 -28.324425 8.493820
Se -5.664885 -28.324425 16.991147
Se -5.664885 -25.491983 14.158705
Se -2.832443 -25.491983 16.991147
Se -2.832443 -28.324425 14.158705
Se -5.664885 -28.324425 22.656032
Se -5.664885 -25.491983 19.823590
Se -2.832443 -25.491983 22.656032
Se -2.832443 -28.324425 19.823590
Se -5.664885 -25.491983 25.488475
Se -2.832443 -25.491983 28.320917
Se -2.832443 -28.324425 25.488475
Se -5.664885 -22.659540 -28.327933
Se -5.664885 -19.827098 -31.160376
Se -2.832443 -19.827098 -28.327933
Se -2.832443 -22.659540 -31.160376
Se -5.664885 -22.659540 -22.663048
Se -5.664885 -19.827098 -25.495491
Se -2.832443 -19.827098 -22.663048
Se -2.832443 -22.659540 -25.495491
Se -5.664885 -22.659540 -16.998163
Se -5.664885 -19.827098 -19.830606
Se -2.832443 -19.827098 -16.998163
Se -2.832443 -22.659540 -19.830606
Se -5.664885 -22.659540 -11.333278
Se -5.664885 -19.827098 -14.165721
Se -2.832443 -19.827098 -11.333278
Se -2.832443 -22.659540 -14.165721
Se -5.664885 -22.659540 -5.668393
Se -5.664885 -19.827098 -8.500836
Se -2.832443 -19.827098 -5.668393
Se -2.832443 -22.659540 -8.500836
Se -5.664885 -22.659540 -0.003508
Se -5.664885 -19.827098 -2.835951
Se -2.832443 -19.827098 -0.003508
Se -2.832443 -22.659540 -2.835951
Se -5.664885 -22.659540 5.661377
Se -5.664885 -19.827098 2.828935
Se -2.832443 -19.827098 5.661377
Se -2.832443 -22.659540 2.828935
Se -5.664885 -22.659540 11.326262
Se -5.664885 -19.827098 8.493820
Se -2.832443 -19.827098 11.326262
Se -2.832443 -22.659540 8.493820
Se -5.664885 -22.659540 16.991147
Se -5.664885 -19.827098 14.158705
Se -2.832443 -19.827098 16.991147
Se -2.832443 -22.659540 14.158705
Se -5.664885 -22.659540 22.656032
Se -5.664885 -19.827098 19.823590
Se -2.832443 -19.827098 22.656032
Se -2.832443 -22.659540 19.823590
Se -5.664885 -22.659540 28.320917
Se -5.664885 -19.827098 25.488475
Se -2.832443 -19.827098 28.320917
Se -2.832443 -22.659540 25.488475
Se -5.664885 -19.827098 31.153360
Se -2.832443 -22.659540 31.153360
Se -5.664885 -16.994655 -28.327933
Se -5.664885 -14.162213 -31.160376
Se -2.832443 -14.162213 -28.327933
Se -2.832443 -16.994655 -31.160376
Se -5.664885 -16.994655 -22.663048
Se -5.664885 -14.162213 -25.495491
Se -2.832443 -14.162213 -22.663048
Se -2.832443 -16.994655 -25.495491
Se -5.664885 -16.994655 -16.998163
Se -5.664885 -14.162213 -19.830606
Se -2.832443 -14.162213 -16.998163
Se -2.832443 -16.994655 -19.830606
Se -5.664885 -16.994655 -11.333278
Se -5.664885 -14.162213 -14.165721
Se -2.832443 -14.162213 -11.333278
Se -2.832443 -16.994655 -14.165721
Se -5.664885 -16.994655 -5.668393
Se -5.664885 -14.162213 -8.500836
Se -2.832443 -14.162213 -5.668393
Se -2.832443 -16.994655 -8.500836
Se -5.664885 -16.994655 -0.003508
Se -5.664885 -14.162213 -2.835951
Se -2.832443 -14.162213 -0.003508
Se -2.832443 -16.994655 -2.835951
Se -5.664885 -16.994655 5.661377
Se -5.664885 -14.162213 2.828935
Se -2.832443 -14.162213 5.661377
Se -2.832443 -16.994655 2.828935
Se -5.664885 -16.994655 11.326262
Se -5.664885 -14.162213 8.493820
Se -2.832443 -14.162213 11.326262
Se -2.832443 -16.994655 8.493820
Se -5.664885 -16.994655 16.991147
Se -5.664885 -14.162213 14.158705
Se -2.832443 -14.162213 16.991147
Se -2.832443 -16.994655 14.158705
Se -5.664885 -16.994655 22.656032
Se -5.664885 -14.162213 19.823590
Se -2.832443 -14.162213 22.656032
Se -2.832443 -16.994655 19.823590
Se -5.664885 -16.994655 28.320917
Se -5.664885 -14.162213 25.488475
Se -2.832443 -14.162213 28.320917
Se -2.832443 -16.994655 25.488475
Se -5.664885 -14.162213 31.153360
Se -2.832443 -16.994655 31.153360
Se -5.664885 -11.329770 -28.327933
Se -5.664885 -8.497328 -31.160376
Se -2.832443 -8.497328 -28.327933
Se -2.832443 -11.329770 -31.160376
Se -5.664885 -11.329770 -22.663048
Se -5.664885 -8.497328 -25.495491
Se -2.832443 -8.497328 -22.663048
Se -2.832443 -11.329770 -25.495491
Se -5.664885 -11.329770 -16.998163
Se -5.664885 -8.497328 -19.830606
Se -2.832443 -8.497328 -16.998163
Se -2.832443 -11.329770 -19.830606
Se -5.664885 -11.329770 -11.333278
Se -5.664885 -8.497328 -14.165721
Se -2.832443 -8.497328 -11.333278
Se -2.832443 -11.329770 -14.165721
Se -5.664885 -11.329770 -5.668393
Se -5.664885 -8.497328 -8.500836
Se -2.832443 -8.497328 -5.668393
Se -2.832443 -11.329770 -8.500836
Se -5.664885 -11.329770 -0.003508
Se -5.664885 -8.497328 -2.835951
Se -2.832443 -8.497328 -0.003508
Se -2.832443 -11.329770 -2.835951
Se -5.664885 -11.329770 5.661377
Se -5.664885 -8.497328 2.828935
Se -2.832443 -8.497328 5.661377
Se -2.832443 -11.329770 2.828935
Se -5.664885 -11.329770 11.326262
Se -5.664885 -8.497328 8.493820
Se -2.832443 -8.497328 11.326262
Se -2.832443 -11.329770 8.493820
Se -5.664885 -11.329770 16.991147
Se -5.664885 -8.497328 14.158705
Se -2.832443 -8.497328 16.991147
Se -2.832443 -11.329770 14.158705
Se -5.664885 -11.329770 22.656032
Se -5.664885 -8.497328 19.823590
Se -2.832443 -8.497328 22.656032
Se -2.832443 -11.329770 19.823590
Se -5.664885 -11.329770 28.320917
Se -5.664885 -8.497328 25.488475
Se -2.832443 -8.497328 28.320917
Se -2.832443 -11.329770 25.488475
Se -5.664885 -8.497328 31.153360
Se -2.832443 -11.329770 31.153360
Se -5.664885 -5.664885 -28.327933
Se -5.664885 -2.832443 -31.160376
Se -2.832443 -2.832443 -28.327933
Se -2.832443 -5.664885 -31.160376
Se -5.664885 -5.664885 -22.663048
Se -5.664885 -2.832443 -25.495491
Se -2.832443 -2.832443 -22.663048
Se -2.832443 -5.664885 -25.495491
Se -5.664885 -5.664885 -16.998163
Se -5.664885 -2.832443 -19.830606
Se -2.832443 -2.832443 -16.998163
Se -2.832443 -5.664885 -19.830606
Se -5.664885 -5.664885 -11.333278
Se -5.664885 -2.832443 -14.165721
Se -2.832443 -2.832443 -11.333278
Se -2.832443 -5.664885 -14.165721
Se -5.664885 -5.664885 -5.668393
Se -5.664885 -2.832443 -8.500836
Se -2.832443 -2.832443 -5.668393
Se -2.832443 -5.664885 -8.500836
Se -5.664885 -5.664885 -0.003508
Se -5.664885 -2.832443 -2.835951
Se -2.832443 -2.832443 -0.003508
Se -2.832443 -5.664885 -2.835951
Se -5.664885 -5.664885 5.661377
Se -5.664885 -2.832443 2.828935
Se -2.832443 -2.832443 5.661377
Se -2.832443 -5.664885 2.828935
Se -5.664885 -5.664885 11.326262
Se -5.664885 -2.832443 8.493820
Se -2.832443 -2.832443 11.326262
Se -2.832443 -5.664885 8.493820
Se -5.664885 -5.664885 16.991147
Se -5.664885 -2.832443 14.158705
Se -2.832443 -2.832443 16.991147
Se -2.832443 -5.664885 14.158705
Se -5.664885 -5.664885 22.656032
Se -5.664885 -2.832443 19.823590
Se -2.832443 -2.832443 22.656032
Se -2.832443 -5.664885 19.823590
Se -5.664885 -5.664885 28.320917
Se -5.664885 -2.832443 25.488475
Se -2.832443 -2.832443 28.320917
Se -2.832443 -5.664885 25.488475
Se -5.664885 -2.832443 31.153360
Se -2.832443 -5.664885 31.153360
Se -5.664885 -0.000000 -28.327933
Se -5.664885 2.832443 -31.160376
Se -2.832443 2.832443 -28.327933
Se -2.832443 -0.000000 -31.160376
Se -5.664885 -0.000000 -22.663048
Se -5.664885 2.832443 -25.495491
Se -2.832443 2.832443 -22.663048
Se -2.832443 -0.000000 -25.495491
Se -5.664885 -0.000000 -16.998163
Se -5.664885 2.832443 -19.830606
Se -2.832443 2.832443 -16.998163
Se -2.832443 -0.000000 -19.830606
Se -5.664885 -0.000000 -11.333278
Se -5.664885 2.832443 -14.165721
Se -2.832443 2.832443 -11.333278
Se -2.832443 -0.000000 -14.165721
Se -5.664885 -0.000000 -5.668393
Se -5.664885 2.832443 -8.500836
Se -2.832443 2.832443 -5.668393
Se -2.832443 -0.000000 -8.500836
Se -5.664885 -0.000000 -0.003508
Se -5.664885 2.832443 -2.835951
Se -2.832443 2.832443 -0.003508
Se -2.832443 -0.000000 -2.835951
Se -5.664885 -0.000000 5.661377
Se -5.664885 2.832443 2.828935
Se -2.832443 2.832443 5.661377
Se -2.832443 -0.000000 2.828935
Se -5.664885 -0.000000 11.326262
Se -5.664885 2.832443 8.493820
Se -2.832443 2.832443 11.326262
Se -2.832443 -0.000000 8.493820
Se -5.664885 -0.000000 16.991147
Se -5.664885 2.832443 14.158705
Se -2.832443 2.832443 16.991147
Se -2.832443 -0.000000 14.158705
Se -5.664885 -0.000000 22.656032
Se -5.664885 2.832443 19.823590
Se -2.832443 2.832443 22.656032
Se -2.832443 -0.000000 19.823590
Se -5.664885 -0.000000 28.320917
Se -5.664885 2.832443 25.488475
Se -2.832443 2.832443 28.320917
Se -2.832443 -0.000000 25.488475
Se -5.664885 2.832443 31.153360
Se -2.832443 -0.000000 31.153360
Se -5.664885 5.664885 -28.327933
Se -5.664885 8.497328 -31.160376
Se -2.832443 8.497328 -28.327933
Se -2.832443 5.664885 -31.160376
Se -5.664885 5.664885 -22.663048
Se -5.664885 8.497328 -25.495491
Se -2.832443 8.497328 -22.663048
Se -2.832443 5.664885 -25.495491
Se -5.664885 5.664885 -16.998163
Se -5.664885 8.497328 -19.830606
Se -2.832443 8.497328 -16.998163
Se -2.832443 5.664885 -19.830606
Se -5.664885 5.664885 -11.333278
Se -5.664885 8.497328 -14.165721
Se -2.832443 8.497328 -11.333278
Se -2.832443 5.664885 -14.165721
Se -5.664885 5.664885 -5.668393
Se -5.664885 8.497328 -8.500836
Se -2.832443 8.497328 -5.668393
Se -2.832443 5.664885 -8.500836
Se -5.664885 5.664885 -0.003508
Se -5.664885 8.497328 -2.835951
Se -2.832443 8.497328 -0.003508
Se -2.832443 5.664885 -2.835951
Se -5.664885 5.664885 5.661377
Se -5.664885 8.497328 2.828935
Se -2.832443 8.497328 5.661377
Se -2.832443 5.664885 2.828935
Se -5.664885 5.664885 11.326262
Se -5.664885 8.497328 8.493820
Se -2.832443 8.497328 11.326262
Se -2.832443 5.664885 8.493820
Se -5.664885 5.664885 16.991147
Se -5.664885 8.497328 14.158705
Se -2.832443 8.497328 16.991147
Se -2.832443 5.664885 14.158705
Se -5.664885 5.664885 22.656032
Se -5.664885 8.497328 19.823590
Se -2.832443 8.497328 22.656032
Se -2.832443 5.664885 19.823590
Se -5.664885 5.664885 28.320917
Se -5.664885 8.497328 25.488475
Se -2.832443 8.497328 28.320917
Se -2.832443 5.664885 25.488475
Se -5.664885 8.497328 31.153360
Se -2.832443 5.664885 31.153360
Se -5.664885 11.329770 -28.327933
Se -5.664885 14.162213 -31.160376
Se -2.832443 14.162213 -28.327933
Se -2.832443 11.329770 -31.160376
Se -5.664885 11.329770 -22.663048
Se -5.664885 14.162213 -25.495491
Se -2.832443 14.162213 -22.663048
Se -2.832443 11.329770 -25.495491
Se -5.664885 11.329770 -16.998163
Se -5.664885 14.162213 -19.830606
Se -2.832443 14.162213 -16.998163
Se -2.832443 11.329770 -19.830606
Se -5.664885 11.329770 -11.333278
Se -5.664885 14.162213 -14.165721
Se -2.832443 14.162213 -11.333278
Se -2.832443 11.329770 -14.165721
Se -5.664885 11.329770 -5.668393
Se -5.664885 14.162213 -8.500836
Se -2.832443 14.162213 -5.668393
Se -2.832443 11.329770 -8.500836
Se -5.664885 11.329770 -0.003508
Se -5.664885 14.162213 -2.835951
Se -2.832443 14.162213 -0.003508
Se -2.832443 11.329770 -2.835951
Se -5.664885 11.329770 5.661377
Se -5.664885 14.162213 2.828935
Se -2.832443 14.162213 5.661377
Se -2.832443 11.329770 2.828935
Se -5.664885 11.329770 11.326262
Se -5.664885 14.162213 8.493820
Se -2.832443 14.162213 11.326262
Se -2.832443 11.329770 8.493820
Se -5.664885 11.329770 16.991147
Se -5.664885 14.162213 14.158705
Se -2.832443 14.162213 16.991147
Se -2.832443 11.329770 14.158705
Se -5.664885 11.329770 22.656032
Se -5.664885 14.162213 19.823590
Se -2.832443 14.162213 22.656032
Se -2.832443 11.329770 19.823590
Se -5.664885 11.329770 28.320917
Se -5.664885 14.162213 25.488475
Se -2.832443 14.162213 28.320917
Se -2.832443 11.329770 25.488475
Se -5.664885 14.162213 31.153360
Se -2.832443 11.329770 31.153360
Se -5.664885 16.994655 -28.327933
Se -5.664885 19.827098 -31.160376
Se -2.832443 19.827098 -28.327933
Se -2.832443 16.994655 -31.160376
Se -5.664885 16.994655 -22.663048
Se -5.664885 19.827098 -25.495491
Se -2.832443 19.827098 -22.663048
Se -2.832443 16.994655 -25.495491
Se -5.664885 16.994655 -16.998163
Se -5.664885 19.827098 -19.830606
Se -2.832443 19.827098 -16.998163
Se -2.832443 16.994655 -19.830606
Se -5.664885 16.994655 -11.333278
Se -5.664885 19.827098 -14.165721
Se -2.832443 19.827098 -11.333278
Se -2.832443 16.994655 -14.165721
Se -5.664885 16.994655 -5.668393
Se -5.664885 19.827098 -8.500836
Se -2.832443 19.827098 -5.668393
Se -2.832443 16.994655 -8.500836
Se -5.664885 16.994655 -0.003508
Se -5.664885 19.827098 -2.835951
Se -2.832443 19.827098 -0.003508
Se -2.832443 16.994655 -2.835951
Se -5.664885 16.994655 5.661377
Se -5.664885 19.827098 2.828935
Se -2.832443 19.827098 5.661377
Se -2.832443 16.994655 2.828935
Se -5.664885 16.994655 11.326262
Se -5.664885 19.827098 8.493820
Se -2.832443 19.827098 11.326262
Se -2.832443 16.994655 8.493820
Se -5.664885 16.994655 16.991147
Se -5.664885 19.827098 14.158705
Se -2.832443 19.827098 16.991147
Se -2.832443 16.994655 14.158705
Se -5.664885 16.994655 22.656032
Se -5.664885 19.827098 19.823590
Se -2.832443 19.827098 22.656032
Se -2.832443 16.994655 19.823590
Se -5.664885 16.994655 28.320917
Se -5.664885 19.827098 25.488475
Se -2.832443 19.827098 28.320917
Se -2.832443 16.994655 25.488475
Se -5.664885 19.827098 31.153360
Se -2.832443 16.994655 31.153360
Se -5.664885 22.659540 -28.327933
Se -2.832443 25.491983 -28.327933
Se -2.832443 22.659540 -31.160376
Se -5.664885 22.659540 -22.663048
Se -5.664885 25.491983 -25.495491
Se -2.832443 25.491983 -22.663048
Se -2.832443 22.659540 -25.495491
Se -5.664885 22.659540 -16.998163
Se -5.664885 25.491983 -19.830606
Se -2.832443 25.491983 -16.998163
Se -2.832443 22.659540 -19.830606
Se -5.664885 22.659540 -11.333278
Se -5.664885 25.491983 -14.165721
Se -2.832443 25.491983 -11.333278
Se -2.832443 22.659540 -14.165721
Se -5.664885 22.659540 -5.668393
Se -5.664885 25.491983 -8.500836
Se -2.832443 25.491983 -5.668393
Se -2.832443 22.659540 -8.500836
Se -5.664885 22.659540 -0.003508
Se -5.664885 25.491983 -2.835951
Se -2.832443 25.491983 -0.003508
Se -2.832443 22.659540 -2.835951
Se -5.664885 22.659540 5.661377
Se -5.664885 25.491983 2.828935
Se -2.832443 25.491983 5.661377
Se -2.832443 22.659540 2.828935
Se -5.664885 22.659540 11.326262
Se -5.664885 25.491983 8.493820
Se -2.832443 25.491983 11.326262
Se -2.832443 22.659540 8.493820
Se -5.664885 22.659540 16.991147
Se -5.664885 25.491983 14.158705
Se -2.832443 25.491983 16.991147
Se -2.832443 22.659540 14.158705
Se -5.664885 22.659540 22.656032
Se -5.664885 25.491983 19.823590
Se -2.832443 25.491983 22.656032
Se -2.832443 22.659540 19.823590
Se -5.664885 22.659540 28.320917
Se -5.664885 25.491983 25.488475
Se -2.832443 25.491983 28.320917
Se -2.832443 22.659540 25.488475
Se -2.832443 22.659540 31.153360
Se -5.664885 28.324425 -22.663048
Se -2.832443 31.156868 -22.663048
Se -2.832443 28.324425 -25.495491
Se -5.664885 28.324425 -16.998163
Se -5.664885 31.156868 -19.830606
Se -2.832443 31.156868 -16.998163
Se -2.832443 28.324425 -19.830606
Se -5.664885 28.324425 -11.333278
Se -5.664885 31.156868 -14.165721
Se -2.832443 31.156868 -11.333278
Se -2.832443 28.324425 -14.165721
Se -5.664885 28.324425 -5.668393
Se -5.664885 31.156868 -8.500836
Se -2.832443 31.156868 -5.668393
Se -2.832443 28.324425 -8.500836
Se -5.664885 28.324425 -0.003508
Se -5.664885 31.156868 -2.835951
Se -2.832443 31.156868 -0.003508
Se -2.832443 28.324425 -2.835951
Se -5.664885 28.324425 5.661377
Se -5.664885 31.156868 2.828935
Se -2.832443 31.156868 5.661377
Se -2.832443 28.324425 2.828935
Se -5.664885 28.324425 11.326262
Se -5.664885 31.156868 8.493820
Se -2.832443 31.156868 11.326262
Se -2.832443 28.324425 8.493820
Se -5.664885 28.324425 16.991147
Se -5.664885 31.156868 14.158705
Se -2.832443 31.156868 16.991147
Se -2.832443 28.324425 14.158705
Se -5.664885 28.324425 22.656032
Se -5.664885 31.156868 19.823590
Se -2.832443 31.156868 22.656032
Se -2.832443 28.324425 19.823590
Se -2.832443 28.324425 25.488475
Se -0.000000 -31.156868 -25.495491
Se 2.832443 -31.156868 -22.663048
Se -0.000000 -31.156868 -19.830606
Se 2.832443 -31.156868 -16.998163
Se -0.000000 -31.156868 -14.165721
Se 2.832443 -31.156868 -11.333278
Se -0.000000 -31.156868 -8.500836
Se 2.832443 -31.156868 -5.668393
Se -0.000000 -31.156868 -2.835951
Se 2.832443 -31.156868 -0.003508
Se -0.000000 -31.156868 2.828935
Se 2.832443 -31.156868 5.661377
Se -0.000000 -31.156868 8.493820
Se 2.832443 -31.156868 11.326262
Se -0.000000 -31.156868 14.158705
Se 2.832443 -31.156868 16.991147
Se -0.000000 -31.156868 19.823590
Se 2.832443 -31.156868 22.656032
Se -0.000000 -31.156868 25.488475
Se -0.000000 -28.324425 -28.327933
Se -0.000000 -25.491983 -31.160376
Se 2.832443 -25.491983 -28.327933
Se -0.000000 -28.324425 -22.663048
Se -0.000000 -25.491983 -25.495491
Se 2.832443 -25.491983 -22.663048
Se 2.832443 -28.324425 -25.495491
Se -0.000000 -28.324425 -16.998163
Se -0.000000 -25.491983 -19.830606
Se 2.832443 -25.491983 -16.998163
Se 2.832443 -28.324425 -19.830606
Se -0.000000 -28.324425 -11.333278
Se -0.000000 -25.491983 -14.165721
Se 2.832443 -25.491983 -11.333278
Se 2.832443 -28.324425 -14.165721
Se -0.000000 -28.324425 -5.668393
Se -0.000000 -25.491983 -8.500836
Se 2.832443 -25.491983 -5.668393
Se 2.832443 -28.324425 -8.500836
Se -0.000000 -28.324425 -0.003508
Se -0.000000 -25.491983 -2.835951
Se 2.832443 -25.491983 -0.003508
Se 2.832443 -28.324425 -2.835951
Se -0.000000 -28.324425 5.661377
Se -0.000000 -25.491983 2.828935
Se 2.832443 -25.491983 5.661377
Se 2.832443 -28.324425 2.828935
Se -0.000000 -28.324425 11.326262
Se -0.000000 -25.491983 8.493820
Se 2.832443 -25.491983 11.326262
Se 2.832443 -28.324425 8.493820
Se -0.000000 -28.324425 16.991147
Se -0.000000 -25.491983 14.158705
Se 2.832443 -25.491983 16.991147
Se 2.832443 -28.324425 14.158705
Se -0.000000 -28.324425 22.656032
Se -0.000000 -25.491983 19.823590
Se 2.832443 -25.491983 22.656032
Se 2.832443 -28.324425 19.823590
Se -0.000000 -28.324425 28.320917
Se -0.000000 -25.491983 25.488475
Se 2.832443 -25.491983 28.320917
Se 2.832443 -28.324425 25.488475
Se -0.000000 -25.491983 31.153360
Se -0.000000 -22.659540 -28.327933
Se -0.000000 -19.827098 -31.160376
Se 2.832443 -19.827098 -28.327933
Se 2.832443 -22.659540 -31.160376
Se -0.000000 -22.659540 -22.663048
Se -0.000000 -19.827098 -25.495491
Se 2.832443 -19.827098 -22.663048
Se 2.832443 -22.659540 -25.495491
Se -0.000000 -22.659540 -16.998163
Se -0.000000 -19.827098 -19.830606
Se 2.832443 -19.827098 -16.998163
Se 2.832443 -22.659540 -19.830606
Se -0.000000 -22.659540 -11.333278
Se -0.000000 -19.827098 -14.165721
Se 2.832443 -19.827098 -11.333278
Se 2.832443 -22.659540 -14.165721
Se -0.000000 -22.659540 -5.668393
Se -0.000000 -19.827098 -8.500836
Se 2.832443 -19.827098 -5.668393
Se 2.832443 -22.659540 -8.500836
Se -0.000000 -22.659540 -0.003508
Se -0.000000 -19.827098 -2.835951
Se 2.832443 -19.827098 -0.003508
Se 2.832443 -22.659540 -2.835951
Se -0.000000 -22.659540 5.661377
Se -0.000000 -19.827098 2.828935
Se 2.832443 -19.827098 5.661377
Se 2.832443 -22.659540 2.828935
Se -0.000000 -22.659540 11.326262
Se -0.000000 -19.827098 8.493820
Se 2.832443 -19.827098 11.326262
Se 2.832443 -22.659540 8.493820
Se -0.000000 -22.659540 16.991147
Se -0.000000 -19.827098 14.158705
Se 2.832443 -19.827098 16.991147
Se 2.832443 -22.659540 14.158705
Se -0.000000 -22.659540 22.656032
Se -0.000000 -19.827098 19.823590
Se 2.832443 -19.827098 22.656032
Se 2.832443 -22.659540 19.823590
Se -0.000000 -22.659540 28.320917
Se -0.000000 -19.827098 25.488475
Se 2.832443 -19.827098 28.320917
Se 2.832443 -22.659540 25.488475
Se -0.000000 -19.827098 31.153360
Se 2.832443 -22.659540 31.153360
Se -0.000000 -16.994655 -28.327933
Se -0.000000 -14.162213 -31.160376
Se 2.832443 -14.162213 -28.327933
Se 2.832443 -16.994655 -31.160376
Se -0.000000 -16.994655 -22.663048
Se -0.000000 -14.162213 -25.495491
Se 2.832443 -14.162213 -22.663048
Se 2.832443 -16.994655 -25.495491
Se -0.000000 -16.994655 -16.998163
Se -0.000000 -14.162213 -19.830606
Se 2.832443 -14.162213 -16.998163
Se 2.832443 -16.994655 -19.830606
Se -0.000000 -16.994655 -11.333278
Se -0.000000 -14.162213 -14.165721
Se 2.832443 -14.162213 -11.333278
Se 2.832443 -16.994655 -14.165721
Se -0.000000 -16.994655 -5.668393
Se -0.000000 -14.162213 -8.500836
Se 2.832443 -14.162213 -5.668393
Se 2.832443 -16.994655 -8.500836
Se -0.000000 -16.994655 -0.003508
Se -0.000000 -14.162213 -2.835951
Se 2.832443 -14.162213 -0.003508
Se 2.832443 -16.994655 -2.835951
Se -0.000000 -16.994655 5.661377
Se -0.000000 -14.162213 2.828935
Se 2.832443 -14.162213 5.661377
Se 2.832443 -16.994655 2.828935
Se -0.000000 -16.994655 11.326262
Se -0.000000 -14.162213 8.493820
Se 2.832443 -14.162213 11.326262
Se 2.832443 -16.994655 8.493820
Se -0.000000 -16.994655 16.991147
Se -0.000000 -14.162213 14.158705
Se 2.832443 -14.162213 16.991147
Se 2.832443 -16.994655 14.158705
Se -0.000000 -16.994655 22.656032
Se -0.000000 -14.162213 19.823590
Se 2.832443 -14.162213 22.656032
Se 2.832443 -16.994655 19.823590
Se -0.000000 -16.994655 28.320917
Se -0.000000 -14.162213 25.488475
Se 2.832443 -14.162213 28.320917
Se 2.832443 -16.994655 25.488475
Se -0.000000 -14.162213 31.153360
Se 2.832443 -16.994655 31.153360
Se -0.000000 -11.329770 -28.327933
Se -0.000000 -8.497328 -31.160376
Se 2.832443 -8.497328 -28.327933
Se 2.832443 -11.329770 -31.160376
Se -0.000000 -11.329770 -22.663048
Se -0.000000 -8.497328 -25.495491
Se 2.832443 -8.497328 -22.663048
Se 2.832443 -11.329770 -25.495491
Se -0.000000 -11.329770 -16.998163
Se -0.000000 -8.497328 -19.830606
Se 2.832443 -8.497328 -16.998163
Se 2.832443 -11.329770 -19.830606
Se -0.000000 -11.329770 -11.333278
Se -0.000000 -8.497328 -14.165721
Se 2.832443 -8.497328 -11.333278
Se 2.832443 -11.329770 -14.165721
Se -0.000000 -11.329770 -5.668393
Se -0.000000 -8.497328 -8.500836
Se 2.832443 -8.497328 -5.668393
Se 2.832443 -11.329770 -8.500836
Se -0.000000 -11.329770 -0.003508
Se -0.000000 -8.497328 -2.835951
Se 2.832443 -8.497328 -0.003508
Se 2.832443 -11.329770 -2.835951
Se -0.000000 -11.329770 5.661377
Se -0.000000 -8.497328 2.828935
Se 2.832443 -8.497328 5.661377
Se 2.832443 -11.329770 2.828935
Se -0.000000 -11.329770 11.326262
Se -0.000000 -8.497328 8.493820
Se 2.832443 -8.497328 11.326262
Se 2.832443 -11.329770 8.493820
Se -0.000000 -11.329770 16.991147
Se -0.000000 -8.497328 14.158705
Se 2.832443 -8.497328 16.991147
Se 2.832443 -11.329770 14.158705
Se -0.000000 -11.329770 22.656032
Se -0.000000 -8.497328 19.823590
Se 2.832443 -8.497328 22.656032
Se 2.832443 -11.329770 19.823590
Se -0.000000 -11.329770 28.320917
Se -0.000000 -8.497328 25.488475
Se 2.832443 -8.497328 28.320917
Se 2.832443 -11.329770 25.488475
Se -0.000000 -8.497328 31.153360
Se 2.832443 -11.329770 31.153360
Se -0.000000 -5.664885 -28.327933
Se -0.000000 -2.832443 -31.160376
Se 2.832443 -2.832443 -28.327933
Se 2.832443 -5.664885 -31.160376
Se -0.000000 -5.664885 -22.663048
Se -0.000000 -2.832443 -25.495491
Se 2.832443 -2.832443 -22.663048
Se 2.832443 -5.664885 -25.495491
Se -0.000000 -5.664885 -16.998163
Se -0.000000 -2.832443 -19.830606
Se 2.832443 -2.832443 -16.998163
Se 2.832443 -5.664885 -19.830606
Se -0.000000 -5.664885 -11.333278
Se -0.000000 -2.832443 -14.165721
Se 2.832443 -2.832443 -11.333278
Se 2.832443 -5.664885 -14.165721
Se -0.000000 -5.664885 -5.668393
Se -0.000000 -2.832443 -8.500836
Se 2.832443 -2.832443 -5.668393
Se 2.832443 -5.664885 -8.500836
Se -0.000000 -5.664885 -0.003508
Se -0.000000 -2.832443 -2.835951
Se 2.832443 -2.832443 -0.003508
Se 2.832443 -5.664885 -2.835951
Se -0.000000 -5.664885 5.661377
Se -0.000000 -2.832443 2.828935
Se 2.832443 -2.832443 5.661377
Se 2.832443 -5.664885 2.828935
Se -0.000000 -5.664885 11.326262
Se -0.000000 -2.832443 8.493820
Se 2.832443 -2.832443 11.326262
Se 2.832443 -5.664885 8.493820
Se -0.000000 -5.664885 16.991147
Se -0.000000 -2.832443 14.158705
Se 2.832443 -2.832443 16.991147
Se 2.832443 -5.664885 14.158705
Se -0.000000 -5.664885 22.656032
Se -0.000000 -2.832443 19.823590
Se 2.832443 -2.832443 22.656032
Se 2.832443 -5.664885 19.823590
Se -0.000000 -5.664885 28.320917
Se -0.000000 -2.832443 25.488475
Se 2.832443 -2.832443 28.320917
Se 2.832443 -5.664885 25.488475
Se -0.000000 -2.832443 31.153360
Se 2.832443 -5.664885 31.153360
Se -0.000000 -0.000000 -28.327933
Se -0.000000 2.832443 -31.160376
Se 2.832443 2.832443 -28.327933
Se 2.832443 -0.000000 -31.160376
Se -0.000000 -0.000000 -22.663048
Se -0.000000 2.832443 -25.495491
Se 2.832443 2.832443 -22.663048
Se 2.832443 -0.000000 -25.495491
Se -0.000000 -0.000000 -16.998163
Se -0.000000 2.832443 -19.830606
Se 2.832443 2.832443 -16.998163
Se 2.832443 -0.000000 -19.830606
Se -0.000000 -0.000000 -11.333278
Se -0.000000 2.832443 -14.165721
Se 2.832443 2.832443 -11.333278
Se 2.832443 -0.000000 -14.165721
Se -0.000000 -0.000000 -5.668393
Se -0.000000 2.832443 -8.500836
Se 2.832443 2.832443 -5.668393
Se 2.832443 -0.000000 -8.500836
Se -0.000000 -0.000000 -0.003508
Se -0.000000 2.832443 -2.835951
Se 2.832443 2.832443 -0.003508
Se 2.832443 -0.000000 -2.835951
Se -0.000000 -0.000000 5.661377
Se -0.000000 2.832443 2.828935
Se 2.832443 2.832443 5.661377
Se 2.832443 -0.000000 2.828935
Se -0.000000 -0.000000 11.326262
Se -0.000000 2.832443 8.493820
Se 2.832443 2.832443 11.326262
Se 2.832443 -0.000000 8.493820
Se -0.000000 -0.000000 16.991147
Se -0.000000 2.832443 14.158705
Se 2.832443 2.832443 16.991147
Se 2.832443 -0.000000 14.158705
Se -0.000000 -0.000000 22.656032
Se -0.000000 2.832443 19.823590
Se 2.832443 2.832443 22.656032
Se 2.832443 -0.000000 19.823590
Se -0.000000 -0.000000 28.320917
Se -0.000000 2.832443 25.488475
Se 2.832443 2.832443 28.320917
Se 2.832443 -0.000000 25.488475
Se -0.000000 2.832443 31.153360
Se 2.832443 -0.000000 31.153360
Se -0.000000 5.664885 -28.327933
Se -0.000000 8.497328 -31.160376
Se 2.832443 8.497328 -28.327933
Se 2.832443 5.664885 -31.160376
Se -0.000000 5.664885 -22.663048
Se -0.000000 8.497328 -25.495491
Se 2.832443 8.497328 -22.663048
Se 2.832443 5.664885 -25.495491
Se -0.000000 5.664885 -16.998163
Se -0.000000 8.497328 -19.830606
Se 2.832443 8.497328 -16.998163
Se 2.832443 5.664885 -19.830606
Se -0.000000 5.664885 -11.333278
Se -0.000000 8.497328 -14.165721
Se 2.832443 8.497328 -11.333278
Se 2.832443 5.664885 -14.165721
Se -0.000000 5.664885 -5.668393
Se -0.000000 8.497328 -8.500836
Se 2.832443 8.497328 -5.668393
Se 2.832443 5.664885 -8.500836
Se -0.000000 5.664885 -0.003508
Se -0.000000 8.497328 -2.835951
Se 2.832443 8.497328 -0.003508
Se 2.832443 5.664885 -2.835951
Se -0.000000 5.664885 5.661377
Se -0.000000 8.497328 2.828935
Se 2.832443 8.497328 5.661377
Se 2.832443 5.664885 2.828935
Se -0.000000 5.664885 11.326262
Se -0.000000 8.497328 8.493820
Se 2.832443 8.497328 11.326262
Se 2.832443 5.664885 8.493820
Se -0.000000 5.664885 16.991147
Se -0.000000 8.497328 14.158705
Se 2.832443 8.497328 16.991147
Se 2.832443 5.664885 14.158705
Se -0.000000 5.664885 22.656032
Se -0.000000 8.497328 19.823590
Se 2.832443 8.497328 22.656032
Se 2.832443 5.664885 19.823590
Se -0.000000 5.664885 28.320917
Se -0.000000 8.497328 25.488475
Se 2.832443 8.497328 28.320917
Se 2.832443 5.664885 25.488475
Se -0.000000 8.497328 31.153360
Se 2.832443 5.664885 31.153360
Se -0.000000 11.329770 -28.327933
Se -0.000000 14.162213 -31.160376
Se 2.832443 14.162213 -28.327933
Se 2.832443 11.329770 -31.160376
Se -0.000000 11.329770 -22.663048
Se -0.000000 14.162213 -25.495491
Se 2.832443 14.162213 -22.663048
Se 2.832443 11.329770 -25.495491
Se -0.000000 11.329770 -16.998163
Se -0.000000 14.162213 -19.830606
Se 2.832443 14.162213 -16.998163
Se 2.832443 11.329770 -19.830606
Se -0.000000 11.329770 -11.333278
Se -0.000000 14.162213 -14.165721
Se 2.832443 14.162213 -11.333278
Se 2.832443 11.329770 -14.165721
Se -0.000000 11.329770 -5.668393
Se -0.000000 14.162213 -8.500836
Se 2.832443 14.162213 -5.668393
Se 2.832443 11.329770 -8.500836
Se -0.000000 11.329770 -0.003508
Se -0.000000 14.162213 -2.835951
Se 2.832443 14.162213 -0.003508
Se 2.832443 11.329770 -2.835951
Se -0.000000 11.329770 5.661377
Se -0.000000 14.162213 2.828935
Se 2.832443 14.162213 5.661377
Se 2.832443 11.329770 2.828935
Se -0.000000 11.329770 11.326262
Se -0.000000 14.162213 8.493820
Se 2.832443 14.162213 11.326262
Se 2.832443 11.329770 8.493820
Se -0.000000 11.329770 16.991147
Se -0.000000 14.162213 14.158705
Se 2.832443 14.162213 16.991147
Se 2.832443 11.329770 14.158705
Se -0.000000 11.329770 22.656032
Se -0.000000 14.162213 19.823590
Se 2.832443 14.162213 22.656032
Se 2.832443 11.329770 19.823590
Se -0.000000 11.329770 28.320917
Se -0.000000 14.162213 25.488475
Se 2.832443 14.162213 28.320917
Se 2.832443 11.329770 25.488475
Se -0.000000 14.162213 31.153360
Se 2.832443 11.329770 31.153360
Se -0.000000 16.994655 -28.327933
Se -0.000000 19.827098 -31.160376
Se 2.832443 19.827098 -28.327933
Se 2.832443 16.994655 -31.160376
Se -0.000000 16.994655 -22.663048
Se -0.000000 19.827098 -25.495491
Se 2.832443 19.827098 -22.663048
Se 2.832443 16.994655 -25.495491
Se -0.000000 16.994655 -16.998163
Se -0.000000 19.827098 -19.830606
Se 2.832443 19.827098 -16.998163
Se 2.832443 16.994655 -19.830606
Se -0.000000 16.994655 -11.333278
Se -0.000000 19.827098 -14.165721
Se 2.832443 19.827098 -11.333278
Se 2.832443 16.994655 -14.165721
Se -0.000000 16.994655 -5.668393
Se -0.000000 19.827098 -8.500836
Se 2.832443 19.827098 -5.668393
Se 2.832443 16.994655 -8.500836
Se -0.000000 16.994655 -0.003508
Se -0.000000 19.827098 -2.835951
Se 2.832443 19.827098 -0.003508
Se 2.832443 16.994655 -2.835951
Se -0.000000 16.994655 5.661377
Se -0.000000 19.827098 2.828935
Se 2.832443 19.827098 5.661377
Se 2.832443 16.994655 2.828935
Se -0.000000 16.994655 11.326262
Se -0.000000 19.827098 8.493820
Se 2.832443 19.827098 11.326262
Se 2.832443 16.994655 8.493820
Se -0.000000 16.994655 16.991147
Se -0.000000 19.827098 14.158705
Se 2.832443 19.827098 16.991147
Se 2.832443 16.994655 14.158705
Se -0.000000 16.994655 22.656032
Se -0.000000 19.827098 19.823590
Se 2.832443 19.827098 22.656032
Se 2.832443 16.994655 19.823590
Se -0.000000 16.994655 28.320917
Se -0.000000 19.827098 25.488475
Se 2.832443 19.827098 28.320917
Se 2.832443 16.994655 25.488475
Se -0.000000 19.827098 31.153360
Se 2.832443 16.994655 31.153360
Se -0.000000 22.659540 -28.327933
Se -0.000000 25.491983 -31.160376
Se 2.832443 25.491983 -28.327933
Se 2.832443 22.659540 -31.160376
Se -0.000000 22.659540 -22.663048
Se -0.000000 25.491983 -25.495491
Se 2.832443 25.491983 -22.663048
Se 2.832443 22.659540 -25.495491
Se -0.000000 22.659540 -16.998163
Se -0.000000 25.491983 -19.830606
Se 2.832443 25.491983 -16.998163
Se 2.832443 22.659540 -19.830606
Se -0.000000 22.659540 -11.333278
Se -0.000000 25.491983 -14.165721
Se 2.832443 25.491983 -11.333278
Se 2.832443 22.659540 -14.165721
Se -0.000000 22.659540 -5.668393
Se -0.000000 25.491983 -8.500836
Se 2.832443 25.491983 -5.668393
Se 2.832443 22.659540 -8.500836
Se -0.000000 22.659540 -0.003508
Se -0.000000 25.491983 -2.835951
Se 2.832443 25.491983 -0.003508
Se 2.832443 22.659540 -2.835951
Se -0.000000 22.659540 5.661377
Se -0.000000 25.491983 2.828935
Se 2.832443 25.491983 5.661377
Se 2.832443 22.659540 2.828935
Se -0.000000 22.659540 11.326262
Se -0.000000 25.491983 8.493820
Se 2.832443 25.491983 11.326262
Se 2.832443 22.659540 8.493820
Se -0.000000 22.659540 16.991147
Se -0.000000 25.491983 14.158705
Se 2.832443 25.491983 16.991147
Se 2.832443 22.659540 14.158705
Se -0.000000 22.659540 22.656032
Se -0.000000 25.491983 19.823590
Se 2.832443 25.491983 22.656032
Se 2.832443 22.659540 19.823590
Se -0.000000 22.659540 28.320917
Se -0.000000 25.491983 25.488475
Se 2.832443 25.491983 28.320917
Se 2.832443 22.659540 25.488475
Se -0.000000 25.491983 31.153360
Se 2.832443 22.659540 31.153360
Se -0.000000 28.324425 -28.327933
Se -0.000000 28.324425 -22.663048
Se -0.000000 31.156868 -25.495491
Se 2.832443 31.156868 -22.663048
Se 2.832443 28.324425 -25.495491
Se -0.000000 28.324425 -16.998163
Se -0.000000 31.156868 -19.830606
Se 2.832443 31.156868 -16.998163
Se 2.832443 28.324425 -19.830606
Se -0.000000 28.324425 -11.333278
Se -0.000000 31.156868 -14.165721
Se 2.832443 31.156868 -11.333278
Se 2.832443 28.324425 -14.165721
Se -0.000000 28.324425 -5.668393
Se -0.000000 31.156868 -8.500836
Se 2.832443 31.156868 -5.668393
Se 2.832443 28.324425 -8.500836
Se -0.000000 28.324425 -0.003508
Se -0.000000 31.156868 -2.835951
Se 2.832443 31.156868 -0.003508
Se 2.832443 28.324425 -2.835951
Se -0.000000 28.324425 5.661377
Se -0.000000 31.156868 2.828935
Se 2.832443 31.156868 5.661377
Se 2.832443 28.324425 2.828935
Se -0.000000 28.324425 11.326262
Se -0.000000 31.156868 8.493820
Se 2.832443 31.156868 11.326262
Se 2.832443 28.324425 8.493820
Se -0.000000 28.324425 16.991147
Se -0.000000 31.156868 14.158705
Se 2.832443 31.156868 16.991147
Se 2.832443 28.324425 14.158705
Se -0.000000 28.324425 22.656032
Se -0.000000 31.156868 19.823590
Se 2.832443 31.156868 22.656032
Se 2.832443 28.324425 19.823590
Se -0.000000 28.324425 28.320917
Se -0.000000 31.156868 25.488475
Se 2.832443 28.324425 25.488475
Se 5.664885 -31.156868 -19.830606
Se 8.497328 -31.156868 -16.998163
Se 5.664885 -31.156868 -14.165721
Se 8.497328 -31.156868 -11.333278
Se 5.664885 -31.156868 -8.500836
Se 8.497328 -31.156868 -5.668393
Se 5.664885 -31.156868 -2.835951
Se 8.497328 -31.156868 -0.003508
Se 5.664885 -31.156868 2.828935
Se 8.497328 -31.156868 5.661377
Se 5.664885 -31.156868 8.493820
Se 8.497328 -31.156868 11.326262
Se 5.664885 -31.156868 14.158705
Se 8.497328 -31.156868 16.991147
Se 5.664885 -31.156868 19.823590
Se 5.664885 -28.324425 -22.663048
Se 5.664885 -25.491983 -25.495491
Se 8.497328 -25.491983 -22.663048
Se 5.664885 -28.324425 -16.998163
Se 5.664885 -25.491983 -19.830606
Se 8.497328 -25.491983 -16.998163
Se 8.497328 -28.324425 -19.830606
Se 5.664885 -28.324425 -11.333278
Se 5.664885 -25.491983 -14.165721
Se 8.497328 -25.491983 -11.333278
Se 8.497328 -28.324425 -14.165721
Se 5.664885 -28.324425 -5.668393
Se 5.664885 -25.491983 -8.500836
Se 8.497328 -25.491983 -5.668393
Se 8.497328 -28.324425 -8.500836
Se 5.664885 -28.324425 -0.003508
Se 5.664885 -25.491983 -2.835951
Se 8.497328 -25.491983 -0.003508
Se 8.497328 -28.324425 -2.835951
Se 5.664885 -28.324425 5.661377
Se 5.664885 -25.491983 2.828935
Se 8.497328 -25.491983 5.661377
Se 8.497328 -28.324425 2.828935
Se 5.664885 -28.324425 11.326262
Se 5.664885 -25.491983 8.493820
Se 8.497328 -25.491983 11.326262
Se 8.497328 -28.324425 8.493820
Se 5.664885 -28.324425 16.991147
Se 5.664885 -25.491983 14.158705
Se 8.497328 -25.491983 16.991147
Se 8.497328 -28.324425 14.158705
Se 5.664885 -28.324425 22.656032
Se 5.664885 -25.491983 19.823590
Se 8.497328 -25.491983 22.656032
Se 8.497328 -28.324425 19.823590
Se 5.664885 -25.491983 25.488475
Se 5.664885 -22.659540 -28.327933
Se 5.664885 -19.827098 -31.160376
Se 8.497328 -19.827098 -28.327933
Se 5.664885 -22.659540 -22.663048
Se 5.664885 -19.827098 -25.495491
Se 8.497328 -19.827098 -22.663048
Se 8.497328 -22.659540 -25.495491
Se 5.664885 -22.659540 -16.998163
Se 5.664885 -19.827098 -19.830606
Se 8.497328 -19.827098 -16.998163
Se 8.497328 -22.659540 -19.830606
Se 5.664885 -22.659540 -11.333278
Se 5.664885 -19.827098 -14.165721
Se 8.497328 -19.827098 -11.333278
Se 8.497328 -22.659540 -14.165721
Se 5.664885 -22.659540 -5.668393
Se 5.664885 -19.827098 -8.500836
Se 8.497328 -19.827098 -5.668393
Se 8.497328 -22.659540 -8.500836
Se 5.664885 -22.659540 -0.003508
Se 5.664885 -19.827098 -2.835951
Se 8.497328 -19.827098 -0.003508
Se 8.497328 -22.659540 -2.835951
Se 5.664885 -22.659540 5.661377
Se 5.664885 -19.827098 2.828935
Se 8.497328 -19.827098 5.661377
Se 8.497328 -22.659540 2.828935
Se 5.664885 -22.659540 11.326262
Se 5.664885 -19.827098 8.493820
Se 8.497328 -19.827098 11.326262
Se 8.497328 -22.659540 8.493820
Se 5.664885 -22.659540 16.991147
Se 5.664885 -19.827098 14.158705
Se 8.497328 -19.827098 16.991147
Se 8.497328 -22.659540 14.158705
Se 5.664885 -22.659540 22.656032
Se 5.664885 -19.827098 19.823590
Se 8.497328 -19.827098 22.656032
Se 8.497328 -22.659540 19.823590
Se 5.664885 -22.659540 28.320917
Se 5.664885 -19.827098 25.488475
Se 8.497328 -19.827098 28.320917
Se 8.497328 -22.659540 25.488475
Se 5.664885 -19.827098 31.153360
Se 5.664885 -16.994655 -28.327933
Se 5.664885 -14.162213 -31.160376
Se 8.497328 -14.162213 -28.327933
Se 8.497328 -16.994655 -31.160376
Se 5.664885 -16.994655 -22.663048
Se 5.664885 -14.162213 -25.495491
Se 8.497328 -14.162213 -22.663048
Se 8.497328 -16.994655 -25.495491
Se 5.664885 -16.994655 -16.998163
Se 5.664885 -14.162213 -19.830606
Se 8.497328 -14.162213 -16.998163
Se 8.497328 -16.994655 -19.830606
Se 5.664885 -16.994655 -11.333278
Se 5.664885 -14.162213 -14.165721
Se 8.497328 -14.162213 -11.333278
Se 8.497328 -16.994655 -14.165721
Se 5.664885 -16.994655 -5.668393
Se 5.664885 -14.162213 -8.500836
Se 8.497328 -14.162213 -5.668393
Se 8.497328 -16.994655 -8.500836
Se 5.664885 -16.994655 -0.003508
Se 5.664885 -14.162213 -2.835951
Se 8.497328 -14.162213 -0.003508
Se 8.497328 -16.994655 -2.835951
Se 5.664885 -16.994655 5.661377
Se 5.664885 -14.162213 2.828935
Se 8.497328 -14.162213 5.661377
Se 8.497328 -16.994655 2.828935
Se 5.664885 -16.994655 11.326262
Se 5.664885 -14.162213 8.493820
Se 8.497328 -14.162213 11.326262
Se 8.497328 -16.994655 8.493820
Se 5.664885 -16.994655 16.991147
Se 5.664885 -14.162213 14.158705
Se 8.497328 -14.162213 16.991147
Se 8.497328 -16.994655 14.158705
Se 5.664885 -16.994655 22.656032
Se 5.664885 -14.162213 19.823590
Se 8.497328 -14.162213 22.656032
Se 8.497328 -16.994655 19.823590
Se 5.664885 -16.994655 28.320917
Se 5.664885 -14.162213 25.488475
Se 8.497328 -14.162213 28.320917
Se 8.497328 -16.994655 25.488475
Se 5.664885 -14.162213 31.153360
Se 8.497328 -16.994655 31.153360
Se 5.664885 -11.329770 -28.327933
Se 5.664885 -8.497328 -31.160376
Se 8.497328 -8.497328 -28.327933
Se 8.497328 -11.329770 -31.160376
Se 5.664885 -11.329770 -22.663048
Se 5.664885 -8.497328 -25.495491
Se 8.497328 -8.497328 -22.663048
Se 8.497328 -11.329770 -25.495491
Se 5.664885 -11.329770 -16.998163
Se 5.664885 -8.497328 -19.830606
Se 8.497328 -8.497328 -16.998163
Se 8.497328 -11.329770 -19.830606
Se 5.664885 -11.329770 -11.333278
Se 5.664885 -8.497328 -14.165721
Se 8.497328 -8.497328 -11.333278
Se 8.497328 -11.329770 -14.165721
Se 5.664885 -11.329770 -5.668393
Se 5.664885 -8.497328 -8.500836
Se 8.497328 -8.497328 -5.668393
Se 8.497328 -11.329770 -8.500836
Se 5.664885 -11.329770 -0.003508
Se 5.664885 -8.497328 -2.835951
Se 8.497328 -8.497328 -0.003508
Se 8.497328 -11.329770 -2.835951
Se 5.664885 -11.329770 5.661377
Se 5.664885 -8.497328 2.828935
Se 8.497328 -8.497328 5.661377
Se 8.497328 -11.329770 2.828935
Se 5.664885 -11.329770 11.326262
Se 5.664885 -8.497328 8.493820
Se 8.497328 -8.497328 11.326262
Se 8.497328 -11.329770 8.493820
Se 5.664885 -11.329770 16.991147
Se 5.664885 -8.497328 14.158705
Se 8.497328 -8.497328 16.991147
Se 8.497328 -11.329770 14.158705
Se 5.664885 -11.329770 22.656032
Se 5.664885 -8.497328 19.823590
Se 8.497328 -8.497328 22.656032
Se 8.497328 -11.329770 19.823590
Se 5.664885 -11.329770 28.320917
Se 5.664885 -8.497328 25.488475
Se 8.497328 -8.497328 28.320917
Se 8.497328 -11.329770 25.488475
Se 5.664885 -8.497328 31.153360
Se 8.497328 -11.329770 31.153360
Se 5.664885 -5.664885 -28.327933
Se 5.664885 -2.832443 -31.160376
Se 8.497328 -2.832443 -28.327933
Se 8.497328 -5.664885 -31.160376
Se 5.664885 -5.664885 -22.663048
Se 5.664885 -2.832443 -25.495491
Se 8.497328 -2.832443 -22.663048
Se 8.497328 -5.664885 -25.495491
Se 5.664885 -5.664885 -16.998163
Se 5.664885 -2.832443 -19.830606
Se 8.497328 -2.832443 -16.998163
Se 8.497328 -5.664885 -19.830606
Se 5.664885 -5.664885 -11.333278
Se 5.664885 -2.832443 -14.165721
Se 8.497328 -2.832443 -11.333278
Se 8.497328 -5.664885 -14.165721
Se 5.664885 -5.664885 -5.668393
Se 5.664885 -2.832443 -8.500836
Se 8.497328 -2.832443 -5.668393
Se 8.497328 -5.664885 -8.500836
Se 5.664885 -5.664885 -0.003508
Se 5.664885 -2.832443 -2.835951
Se 8.497328 -2.832443 -0.003508
Se 8.497328 -5.664885 -2.835951
Se 5.664885 -5.664885 5.661377
Se 5.664885 -2.832443 2.828935
Se 8.497328 -2.832443 5.661377
Se 8.497328 -5.664885 2.828935
Se 5.664885 -5.664885 11.326262
Se 5.664885 -2.832443 8.493820
Se 8.497328 -2.832443 11.326262
Se 8.497328 -5.664885 8.493820
Se 5.664885 -5.664885 16.991147
Se 5.664885 -2.832443 14.158705
Se 8.497328 -2.832443 16.991147
Se 8.497328 -5.664885 14.158705
Se 5.664885 -5.664885 22.656032
Se 5.664885 -2.832443 19.823590
Se 8.497328 -2.832443 22.656032
Se 8.497328 -5.664885 19.823590
Se 5.664885 -5.664885 28.320917
Se 5.664885 -2.832443 25.488475
Se 8.497328 -2.832443 28.320917
Se 8.497328 -5.664885 25.488475
Se 5.664885 -2.832443 31.153360
Se 8.497328 -5.664885 31.153360
Se 5.664885 -0.000000 -28.327933
Se 5.664885 2.832443 -31.160376
Se 8.497328 2.832443 -28.327933
Se 8.497328 -0.000000 -31.160376
Se 5.664885 -0.000000 -22.663048
Se 5.664885 2.832443 -25.495491
Se 8.497328 2.832443 -22.663048
Se 8.497328 -0.000000 -25.495491
Se 5.664885 -0.000000 -16.998163
Se 5.664885 2.832443 -19.830606
Se 8.497328 2.832443 -16.998163
Se 8.497328 -0.000000 -19.830606
Se 5.664885 -0.000000 -11.333278
Se 5.664885 2.832443 -14.165721
Se 8.497328 2.832443 -11.333278
Se 8.497328 -0.000000 -14.165721
Se 5.664885 -0.000000 -5.668393
Se 5.664885 2.832443 -8.500836
Se 8.497328 2.832443 -5.668393
Se 8.497328 -0.000000 -8.500836
Se 5.664885 -0.000000 -0.003508
Se 5.664885 2.832443 -2.835951
Se 8.497328 2.832443 -0.003508
Se 8.497328 -0.000000 -2.835951
Se 5.664885 -0.000000 5.661377
Se 5.664885 2.832443 2.828935
Se 8.497328 2.832443 5.661377
Se 8.497328 -0.000000 2.828935
Se 5.664885 -0.000000 11.326262
Se 5.664885 2.832443 8.493820
Se 8.497328 2.832443 11.326262
Se 8.497328 -0.000000 8.493820
Se 5.664885 -0.000000 16.991147
Se 5.664885 2.832443 14.158705
Se 8.497328 2.832443 16.991147
Se 8.497328 -0.000000 14.158705
Se 5.664885 -0.000000 22.656032
Se 5.664885 2.832443 19.823590
Se 8.497328 2.832443 22.656032
Se 8.497328 -0.000000 19.823590
Se 5.664885 -0.000000 28.320917
Se 5.664885 2.832443 25.488475
Se 8.497328 2.832443 28.320917
Se 8.497328 -0.000000 25.488475
Se 5.664885 2.832443 31.153360
Se 8.497328 -0.000000 31.153360
Se 5.664885 5.664885 -28.327933
Se 5.664885 8.497328 -31.160376
Se 8.497328 8.497328 -28.327933
Se 8.497328 5.664885 -31.160376
Se 5.664885 5.664885 -22.663048
Se 5.664885 8.497328 -25.495491
Se 8.497328 8.497328 -22.663048
Se 8.497328 5.664885 -25.495491
Se 5.664885 5.664885 -16.998163
Se 5.664885 8.497328 -19.830606
Se 8.497328 8.497328 -16.998163
Se 8.497328 5.664885 -19.830606
Se 5.664885 5.664885 -11.333278
Se 5.664885 8.497328 -14.165721
Se 8.497328 8.497328 -11.333278
Se 8.497328 5.664885 -14.165721
Se 5.664885 5.664885 -5.668393
Se 5.664885 8.497328 -8.500836
Se 8.497328 8.497328 -5.668393
Se 8.497328 5.664885 -8.500836
Se 5.664885 5.664885 -0.003508
Se 5.664885 8.497328 -2.835951
Se 8.497328 8.497328 -0.003508
Se 8.497328 5.664885 -2.835951
Se 5.664885 5.664885 5.661377
Se 5.664885 8.497328 2.828935
Se 8.497328 8.497328 5.661377
Se 8.497328 5.664885 2.828935
Se 5.664885 5.664885 11.326262
Se 5.664885 8.497328 8.493820
Se 8.497328 8.497328 11.326262
Se 8.497328 5.664885 8.493820
Se 5.664885 5.664885 16.991147
Se 5.664885 8.497328 14.158705
Se 8.497328 8.497328 16.991147
Se 8.497328 5.664885 14.158705
Se 5.664885 5.664885 22.656032
Se 5.664885 8.497328 19.823590
Se 8.497328 8.497328 22.656032
Se 8.497328 5.664885 19.823590
Se 5.664885 5.664885 28.320917
Se 5.664885 8.497328 25.488475
Se 8.497328 8.497328 28.320917
Se 8.497328 5.664885 25.488475
Se 5.664885 8.497328 31.153360
Se 8.497328 5.664885 31.153360
Se 5.664885 11.329770 -28.327933
Se 5.664885 14.162213 -31.160376
Se 8.497328 14.162213 -28.327933
Se 8.497328 11.329770 -31.160376
Se 5.664885 11.329770 -22.663048
Se 5.664885 14.162213 -25.495491
Se 8.497328 14.162213 -22.663048
Se 8.497328 11.329770 -25.495491
Se 5.664885 11.329770 -16.998163
Se 5.664885 14.162213 -19.830606
Se 8.497328 14.162213 -16.998163
Se 8.497328 11.329770 -19.830606
Se 5.664885 11.329770 -11.333278
Se 5.664885 14.162213 -14.165721
Se 8.497328 14.162213 -11.333278
Se 8.497328 11.329770 -14.165721
Se 5.664885 11.329770 -5.668393
Se 5.664885 14.162213 -8.500836
Se 8.497328 14.162213 -5.668393
Se 8.497328 11.329770 -8.500836
Se 5.664885 11.329770 -0.003508
Se 5.664885 14.162213 -2.835951
Se 8.497328 14.162213 -0.003508
Se 8.497328 11.329770 -2.835951
Se 5.664885 11.329770 5.661377
Se 5.664885 14.162213 2.828935
Se 8.497328 14.162213 5.661377
Se 8.497328 11.329770 2.828935
Se 5.664885 11.329770 11.326262
Se 5.664885 14.162213 8.493820
Se 8.497328 14.162213 11.326262
Se 8.497328 11.329770 8.493820
Se 5.664885 11.329770 16.991147
Se 5.664885 14.162213 14.158705
Se 8.497328 14.162213 16.991147
Se 8.497328 11.329770 14.158705
Se 5.664885 11.329770 22.656032
Se 5.664885 14.162213 19.823590
Se 8.497328 14.162213 22.656032
Se 8.497328 11.329770 19.823590
Se 5.664885 11.329770 28.320917
Se 5.664885 14.162213 25.488475
Se 8.497328 14.162213 28.320917
Se 8.497328 11.329770 25.488475
Se 5.664885 14.162213 31.153360
Se 8.497328 11.329770 31.153360
Se 5.664885 16.994655 -28.327933
Se 5.664885 19.827098 -31.160376
Se 8.497328 19.827098 -28.327933
Se 8.497328 16.994655 -31.160376
Se 5.664885 16.994655 -22.663048
Se 5.664885 19.827098 -25.495491
Se 8.497328 19.827098 -22.663048
Se 8.497328 16.994655 -25.495491
Se 5.664885 16.994655 -16.998163
Se 5.664885 19.827098 -19.830606
Se 8.497328 19.827098 -16.998163
Se 8.497328 16.994655 -19.830606
Se 5.664885 16.994655 -11.333278
Se 5.664885 19.827098 -14.165721
Se 8.497328 19.827098 -11.333278
Se 8.497328 16.994655 -14.165721
Se 5.664885 16.994655 -5.668393
Se 5.664885 19.827098 -8.500836
Se 8.497328 19.827098 -5.668393
Se 8.497328 16.994655 -8.500836
Se 5.664885 16.994655 -0.003508
Se 5.664885 19.827098 -2.835951
Se 8.497328 19.827098 -0.003508
Se 8.497328 16.994655 -2.835951
Se 5.664885 16.994655 5.661377
Se 5.664885 19.827098 2.828935
Se 8.497328 19.827098 5.661377
Se 8.497328 16.994655 2.828935
Se 5.664885 16.994655 11.326262
Se 5.664885 19.827098 8.493820
Se 8.497328 19.827098 11.326262
Se 8.497328 16.994655 8.493820
Se 5.664885 16.994655 16.991147
Se 5.664885 19.827098 14.158705
Se 8.497328 19.827098 16.991147
Se 8.497328 16.994655 14.158705
Se 5.664885 16.994655 22.656032
Se 5.664885 19.827098 19.823590
Se 8.497328 19.827098 22.656032
Se 8.497328 16.994655 19.823590
Se 5.664885 16.994655 28.320917
Se 5.664885 19.827098 25.488475
Se 8.497328 19.827098 28.320917
Se 8.497328 16.994655 25.488475
Se 5.664885 19.827098 31.153360
Se 8.497328 16.994655 31.153360
Se 5.664885 22.659540 -28.327933
Se 5.664885 22.659540 -22.663048
Se 5.664885 25.491983 -25.495491
Se 8.497328 25.491983 -22.663048
Se 8.497328 22.659540 -25.495491
Se 5.664885 22.659540 -16.998163
Se 5.664885 25.491983 -19.830606
Se 8.497328 25.491983 -16.998163
Se 8.497328 22.659540 -19.830606
Se 5.664885 22.659540 -11.333278
Se 5.664885 25.491983 -14.165721
Se 8.497328 25.491983 -11.333278
Se 8.497328 22.659540 -14.165721
Se 5.664885 22.659540 -5.668393
Se 5.664885 25.491983 -8.500836
Se 8.497328 25.491983 -5.668393
Se 8.497328 22.659540 -8.500836
Se 5.664885 22.659540 -0.003508
Se 5.664885 25.491983 -2.835951
Se 8.497328 25.491983 -0.003508
Se 8.497328 22.659540 -2.835951
Se 5.664885 22.659540 5.661377
Se 5.664885 25.491983 2.828935
Se 8.497328 25.491983 5.661377
Se 8.497328 22.659540 2.828935
Se 5.664885 22.659540 11.326262
Se 5.664885 25.491983 8.493820
Se 8.497328 25.491983 11.326262
Se 8.497328 22.659540 8.493820
Se 5.664885 22.659540 16.991147
Se 5.664885 25.491983 14.158705
Se 8.497328 25.491983 16.991147
Se 8.497328 22.659540 14.158705
Se 5.664885 22.659540 22.656032
Se 5.664885 25.491983 19.823590
Se 8.497328 25.491983 22.656032
Se 8.497328 22.659540 19.823590
Se 5.664885 22.659540 28.320917
Se 5.664885 25.491983 25.488475
Se 8.497328 22.659540 25.488475
Se 5.664885 28.324425 -22.663048
Se 5.664885 28.324425 -16.998163
Se 5.664885 31.156868 -19.830606
Se 8.497328 31.156868 -16.998163
Se 8.497328 28.324425 -19.830606
Se 5.664885 28.324425 -11.333278
Se 5.664885 31.156868 -14.165721
Se 8.497328 31.156868 -11.333278
Se 8.497328 28.324425 -14.165721
Se 5.664885 28.324425 -5.668393
Se 5.664885 31.156868 -8.500836
Se 8.497328 31.156868 -5.668393
Se 8.497328 28.324425 -8.500836
Se 5.664885 28.324425 -0.003508
Se 5.664885 31.156868 -2.835951
Se 8.497328 31.156868 -0.003508
Se 8.497328 28.324425 -2.835951
Se 5.664885 28.324425 5.661377
Se 5.664885 31.156868 2.828935
Se 8.497328 31.156868 5.661377
Se 8.497328 28.324425 2.828935
Se 5.664885 28.324425 11.326262
Se 5.664885 31.156868 8.493820
Se 8.497328 31.156868 11.326262
Se 8.497328 28.324425 8.493820
Se 5.664885 28.324425 16.991147
Se 5.664885 31.156868 14.158705
Se 8.497328 31.156868 16.991147
Se 8.497328 28.324425 14.158705
Se 5.664885 28.324425 22.656032
Se 5.664885 31.156868 19.823590
Se 8.497328 28.324425 19.823590
Se 11.329770 -31.156868 -14.165721
Se 14.162213 -31.156868 -11.333278
Se 11.329770 -31.156868 -8.500836
Se 14.162213 -31.156868 -5.668393
Se 11.329770 -31.156868 -2.835951
Se 14.162213 -31.156868 -0.003508
Se 11.329770 -31.156868 2.828935
Se 14.162213 -31.156868 5.661377
Se 11.329770 -31.156868 8.493820
Se 14.162213 -31.156868 11.326262
Se 11.329770 -31.156868 14.158705
Se 11.329770 -28.324425 -16.998163
Se 11.329770 -25.491983 -19.830606
Se 14.162213 -25.491983 -16.998163
Se 11.329770 -28.324425 -11.333278
Se 11.329770 -25.491983 -14.165721
Se 14.162213 -25.491983 -11.333278
Se 14.162213 -28.324425 -14.165721
Se 11.329770 -28.324425 -5.668393
Se 11.329770 -25.491983 -8.500836
Se 14.162213 -25.491983 -5.668393
Se 14.162213 -28.324425 -8.500836
Se 11.329770 -28.324425 -0.003508
Se 11.329770 -25.491983 -2.835951
Se 14.162213 -25.491983 -0.003508
Se 14.162213 -28.324425 -2.835951
Se 11.329770 -28.324425 5.661377
Se 11.329770 -25.491983 2.828935
Se 14.162213 -25.491983 5.661377
Se 14.162213 -28.324425 2.828935
Se 11.329770 -28.324425 11.326262
Se 11.329770 -25.491983 8.493820
Se 14.162213 -25.491983 11.326262
Se 14.162213 -28.324425 8.493820
Se 11.329770 -28.324425 16.991147
Se 11.329770 -25.491983 14.158705
Se 14.162213 -25.491983 16.991147
Se 14.162213 -28.324425 14.158705
Se 11.329770 -25.491983 19.823590
Se 11.329770 -22.659540 -22.663048
Se 11.329770 -19.827098 -25.495491
Se 14.162213 -19.827098 -22.663048
Se 11.329770 -22.659540 -16.998163
Se 11.329770 -19.827098 -19.830606
Se 14.162213 -19.827098 -16.998163
Se 14.162213 -22.659540 -19.830606
Se 11.329770 -22.659540 -11.333278
Se 11.329770 -19.827098 -14.165721
Se 14.162213 -19.827098 -11.333278
Se 14.162213 -22.659540 -14.165721
Se 11.329770 -22.659540 -5.668393
Se 11.329770 -19.827098 -8.500836
Se 14.162213 -19.827098 -5.668393
Se 14.162213 -22.659540 -8.500836
Se 11.329770 -22.659540 -0.003508
Se 11.329770 -19.827098 -2.835951
Se 14.162213 -19.827098 -0.003508
Se 14.162213 -22.659540 -2.835951
Se 11.329770 -22.659540 5.661377
Se 11.329770 -19.827098 2.828935
Se 14.162213 -19.827098 5.661377
Se 14.162213 -22.659540 2.828935
Se 11.329770 -22.659540 11.326262
Se 11.329770 -19.827098 8.493820
Se 14.162213 -19.827098 11.326262
Se 14.162213 -22.659540 8.493820
Se 11.329770 -22.659540 16.991147
Se 11.329770 -19.827098 14.158705
Se 14.162213 -19.827098 16.991147
Se 14.162213 -22.659540 14.158705
Se 11.329770 -22.659540 22.656032
Se 11.329770 -19.827098 19.823590
Se 14.162213 -19.827098 22.656032
Se 14.162213 -22.659540 19.823590
Se 11.329770 -19.827098 25.488475
Se 11.329770 -16.994655 -28.327933
Se 11.329770 -14.162213 -31.160376
Se 14.162213 -14.162213 -28.327933
Se 11.329770 -16.994655 -22.663048
Se 11.329770 -14.162213 -25.495491
Se 14.162213 -14.162213 -22.663048
Se 14.162213 -16.994655 -25.495491
Se 11.329770 -16.994655 -16.998163
Se 11.329770 -14.162213 -19.830606
Se 14.162213 -14.162213 -16.998163
Se 14.162213 -16.994655 -19.830606
Se 11.329770 -16.994655 -11.333278
Se 11.329770 -14.162213 -14.165721
Se 14.162213 -14.162213 -11.333278
Se 14.162213 -16.994655 -14.165721
Se 11.329770 -16.994655 -5.668393
Se 11.329770 -14.162213 -8.500836
Se 14.162213 -14.162213 -5.668393
Se 14.162213 -16.994655 -8.500836
Se 11.329770 -16.994655 -0.003508
Se 11.329770 -14.162213 -2.835951
Se 14.162213 -14.162213 -0.003508
Se 14.162213 -16.994655 -2.835951
Se 11.329770 -16.994655 5.661377
Se 11.329770 -14.162213 2.828935
Se 14.162213 -14.162213 5.661377
Se 14.162213 -16.994655 2.828935
Se 11.329770 -16.994655 11.326262
Se 11.329770 -14.162213 8.493820
Se 14.162213 -14.162213 11.326262
Se 14.162213 -16.994655 8.493820
Se 11.329770 -16.994655 16.991147
Se 11.329770 -14.162213 14.158705
Se 14.162213 -14.162213 16.991147
Se 14.162213 -16.994655 14.158705
Se 11.329770 -16.994655 22.656032
Se 11.329770 -14.162213 19.823590
Se 14.162213 -14.162213 22.656032
Se 14.162213 -16.994655 19.823590
Se 11.329770 -16.994655 28.320917
Se 11.329770 -14.162213 25.488475
Se 14.162213 -14.162213 28.320917
Se 14.162213 -16.994655 25.488475
Se 11.329770 -14.162213 31.153360
Se 11.329770 -11.329770 -28.327933
Se 11.329770 -8.497328 -31.160376
Se 14.162213 -8.497328 -28.327933
Se 14.162213 -11.329770 -31.160376
Se 11.329770 -11.329770 -22.663048
Se 11.329770 -8.497328 -25.495491
Se 14.162213 -8.497328 -22.663048
Se 14.162213 -11.329770 -25.495491
Se 11.329770 -11.329770 -16.998163
Se 11.329770 -8.497328 -19.830606
Se 14.162213 -8.497328 -16.998163
Se 14.162213 -11.329770 -19.830606
Se 11.329770 -11.329770 -11.333278
Se 11.329770 -8.497328 -14.165721
Se 14.162213 -8.497328 -11.333278
Se 14.162213 -11.329770 -14.165721
Se 11.329770 -11.329770 -5.668393
Se 11.329770 -8.497328 -8.500836
Se 14.162213 -8.497328 -5.668393
Se 14.162213 -11.329770 -8.500836
Se 11.329770 -11.329770 -0.003508
Se 11.329770 -8.497328 -2.835951
Se 14.162213 -8.497328 -0.003508
Se 14.162213 -11.329770 -2.835951
Se 11.329770 -11.329770 5.661377
Se 11.329770 -8.497328 2.828935
Se 14.162213 -8.497328 5.661377
Se 14.162213 -11.329770 2.828935
Se 11.329770 -11.329770 11.326262
Se 11.329770 -8.497328 8.493820
Se 14.162213 -8.497328 11.326262
Se 14.162213 -11.329770 8.493820
Se 11.329770 -11.329770 16.991147
Se 11.329770 -8.497328 14.158705
Se 14.162213 -8.497328 16.991147
Se 14.162213 -11.329770 14.158705
Se 11.329770 -11.329770 22.656032
Se 11.329770 -8.497328 19.823590
Se 14.162213 -8.497328 22.656032
Se 14.162213 -11.329770 19.823590
Se 11.329770 -11.329770 28.320917
Se 11.329770 -8.497328 25.488475
Se 14.162213 -8.497328 28.320917
Se 14.162213 -11.329770 25.488475
Se 11.329770 -8.497328 31.153360
Se 14.162213 -11.329770 31.153360
Se 11.329770 -5.664885 -28.327933
Se 11.329770 -2.832443 -31.160376
Se 14.162213 -2.832443 -28.327933
Se 14.162213 -5.664885 -31.160376
Se 11.329770 -5.664885 -22.663048
Se 11.329770 -2.832443 -25.495491
Se 14.162213 -2.832443 -22.663048
Se 14.162213 -5.664885 -25.495491
Se 11.329770 -5.664885 -16.998163
Se 11.329770 -2.832443 -19.830606
Se 14.162213 -2.832443 -16.998163
Se 14.162213 -5.664885 -19.830606
Se 11.329770 -5.664885 -11.333278
Se 11.329770 -2.832443 -14.165721
Se 14.162213 -2.832443 -11.333278
Se 14.162213 -5.664885 -14.165721
Se 11.329770 -5.664885 -5.668393
Se 11.329770 -2.832443 -8.500836
Se 14.162213 -2.832443 -5.668393
Se 14.162213 -5.664885 -8.500836
Se 11.329770 -5.664885 -0.003508
Se 11.329770 -2.832443 -2.835951
Se 14.162213 -2.832443 -0.003508
Se 14.162213 -5.664885 -2.835951
Se 11.329770 -5.664885 5.661377
Se 11.329770 -2.832443 2.828935
Se 14.162213 -2.832443 5.661377
Se 14.162213 -5.664885 2.828935
Se 11.329770 -5.664885 11.326262
Se 11.329770 -2.832443 8.493820
Se 14.162213 -2.832443 11.326262
Se 14.162213 -5.664885 8.493820
Se 11.329770 -5.664885 16.991147
Se 11.329770 -2.832443 14.158705
Se 14.162213 -2.832443 16.991147
Se 14.162213 -5.664885 14.158705
Se 11.329770 -5.664885 22.656032
Se 11.329770 -2.832443 19.823590
Se 14.162213 -2.832443 22.656032
Se 14.162213 -5.664885 19.823590
Se 11.329770 -5.664885 28.320917
Se 11.329770 -2.832443 25.488475
Se 14.162213 -2.832443 28.320917
Se 14.162213 -5.664885 25.488475
Se 11.329770 -2.832443 31.153360
Se 14.162213 -5.664885 31.153360
Se 11.329770 -0.000000 -28.327933
Se 11.329770 2.832443 -31.160376
Se 14.162213 2.832443 -28.327933
Se 14.162213 -0.000000 -31.160376
Se 11.329770 -0.000000 -22.663048
Se 11.329770 2.832443 -25.495491
Se 14.162213 2.832443 -22.663048
Se 14.162213 -0.000000 -25.495491
Se 11.329770 -0.000000 -16.998163
Se 11.329770 2.832443 -19.830606
Se 14.162213 2.832443 -16.998163
Se 14.162213 -0.000000 -19.830606
Se 11.329770 -0.000000 -11.333278
Se 11.329770 2.832443 -14.165721
Se 14.162213 2.832443 -11.333278
Se 14.162213 -0.000000 -14.165721
Se 11.329770 -0.000000 -5.668393
Se 11.329770 2.832443 -8.500836
Se 14.162213 2.832443 -5.668393
Se 14.162213 -0.000000 -8.500836
Se 11.329770 -0.000000 -0.003508
Se 11.329770 2.832443 -2.835951
Se 14.162213 2.832443 -0.003508
Se 14.162213 -0.000000 -2.835951
Se 11.329770 -0.000000 5.661377
Se 11.329770 2.832443 2.828935
Se 14.162213 2.832443 5.661377
Se 14.162213 -0.000000 2.828935
Se 11.329770 -0.000000 11.326262
Se 11.329770 2.832443 8.493820
Se 14.162213 2.832443 11.326262
Se 14.162213 -0.000000 8.493820
Se 11.329770 -0.000000 16.991147
Se 11.329770 2.832443 14.158705
Se 14.162213 2.832443 16.991147
Se 14.162213 -0.000000 14.158705
Se 11.329770 -0.000000 22.656032
Se 11.329770 2.832443 19.823590
Se 14.162213 2.832443 22.656032
Se 14.162213 -0.000000 19.823590
Se 11.329770 -0.000000 28.320917
Se 11.329770 2.832443 25.488475
Se 14.162213 2.832443 28.320917
Se 14.162213 -0.000000 25.488475
Se 11.329770 2.832443 31.153360
Se 14.162213 -0.000000 31.153360
Se 11.329770 5.664885 -28.327933
Se 11.329770 8.497328 -31.160376
Se 14.162213 8.497328 -28.327933
Se 14.162213 5.664885 -31.160376
Se 11.329770 5.664885 -22.663048
Se 11.329770 8.497328 -25.495491
Se 14.162213 8.497328 -22.663048
Se 14.162213 5.664885 -25.495491
Se 11.329770 5.664885 -16.998163
Se 11.329770 8.497328 -19.830606
Se 14.162213 8.497328 -16.998163
Se 14.162213 5.664885 -19.830606
Se 11.329770 5.664885 -11.333278
Se 11.329770 8.497328 -14.165721
Se 14.162213 8.497328 -11.333278
Se 14.162213 5.664885 -14.165721
Se 11.329770 5.664885 -5.668393
Se 11.329770 8.497328 -8.500836
Se 14.162213 8.497328 -5.668393
Se 14.162213 5.664885 -8.500836
Se 11.329770 5.664885 -0.003508
Se 11.329770 8.497328 -2.835951
Se 14.162213 8.497328 -0.003508
Se 14.162213 5.664885 -2.835951
Se 11.329770 5.664885 5.661377
Se 11.329770 8.497328 2.828935
Se 14.162213 8.497328 5.661377
Se 14.162213 5.664885 2.828935
Se 11.329770 5.664885 11.326262
Se 11.329770 8.497328 8.493820
Se 14.162213 8.497328 11.326262
Se 14.162213 5.664885 8.493820
Se 11.329770 5.664885 16.991147
Se 11.329770 8.497328 14.158705
Se 14.162213 8.497328 16.991147
Se 14.162213 5.664885 14.158705
Se 11.329770 5.664885 22.656032
Se 11.329770 8.497328 19.823590
Se 14.162213 8.497328 22.656032
Se 14.162213 5.664885 19.823590
Se 11.329770 5.664885 28.320917
Se 11.329770 8.497328 25.488475
Se 14.162213 8.497328 28.320917
Se 14.162213 5.664885 25.488475
Se 11.329770 8.497328 31.153360
Se 14.162213 5.664885 31.153360
Se 11.329770 11.329770 -28.327933
Se 11.329770 14.162213 -31.160376
Se 14.162213 14.162213 -28.327933
Se 14.162213 11.329770 -31.160376
Se 11.329770 11.329770 -22.663048
Se 11.329770 14.162213 -25.495491
Se 14.162213 14.162213 -22.663048
Se 14.162213 11.329770 -25.495491
Se 11.329770 11.329770 -16.998163
Se 11.329770 14.162213 -19.830606
Se 14.162213 14.162213 -16.998163
Se 14.162213 11.329770 -19.830606
Se 11.329770 11.329770 -11.333278
Se 11.329770 14.162213 -14.165721
Se 14.162213 14.162213 -11.333278
Se 14.162213 11.329770 -14.165721
Se 11.329770 11.329770 -5.668393
Se 11.329770 14.162213 -8.500836
Se 14.162213 14.162213 -5.668393
Se 14.162213 11.329770 -8.500836
Se 11.329770 11.329770 -0.003508
Se 11.329770 14.162213 -2.835951
Se 14.162213 14.162213 -0.003508
Se 14.162213 11.329770 -2.835951
Se 11.329770 11.329770 5.661377
Se 11.329770 14.162213 2.828935
Se 14.162213 14.162213 5.661377
Se 14.162213 11.329770 2.828935
Se 11.329770 11.329770 11.326262
Se 11.329770 14.162213 8.493820
Se 14.162213 14.162213 11.326262
Se 14.162213 11.329770 8.493820
Se 11.329770 11.329770 16.991147
Se 11.329770 14.162213 14.158705
Se 14.162213 14.162213 16.991147
Se 14.162213 11.329770 14.158705
Se 11.329770 11.329770 22.656032
Se 11.329770 14.162213 19.823590
Se 14.162213 14.162213 22.656032
Se 14.162213 11.329770 19.823590
Se 11.329770 11.329770 28.320917
Se 11.329770 14.162213 25.488475
Se 14.162213 14.162213 28.320917
Se 14.162213 11.329770 25.488475
Se 11.329770 14.162213 31.153360
Se 14.162213 11.329770 31.153360
Se 11.329770 16.994655 -28.327933
Se 11.329770 16.994655 -22.663048
Se 11.329770 19.827098 -25.495491
Se 14.162213 19.827098 -22.663048
Se 14.162213 16.994655 -25.495491
Se 11.329770 16.994655 -16.998163
Se 11.329770 19.827098 -19.830606
Se 14.162213 19.827098 -16.998163
Se 14.162213 16.994655 -19.830606
Se 11.329770 16.994655 -11.333278
Se 11.329770 19.827098 -14.165721
Se 14.162213 19.827098 -11.333278
Se 14.162213 16.994655 -14.165721
Se 11.329770 16.994655 -5.668393
Se 11.329770 19.827098 -8.500836
Se 14.162213 19.827098 -5.668393
Se 14.162213 16.994655 -8.500836
Se 11.329770 16.994655 -0.003508
Se 11.329770 19.827098 -2.835951
Se 14.162213 19.827098 -0.003508
Se 14.162213 16.994655 -2.835951
Se 11.329770 16.994655 5.661377
Se 11.329770 19.827098 2.828935
Se 14.162213 19.827098 5.661377
Se 14.162213 16.994655 2.828935
Se 11.329770 16.994655 11.326262
Se 11.329770 19.827098 8.493820
Se 14.162213 19.827098 11.326262
Se 14.162213 16.994655 8.493820
Se 11.329770 16.994655 16.991147
Se 11.329770 19.827098 14.158705
Se 14.162213 19.827098 16.991147
Se 14.162213 16.994655 14.158705
Se 11.329770 16.994655 22.656032
Se 11.329770 19.827098 19.823590
Se 14.162213 19.827098 22.656032
Se 14.162213 16.994655 19.823590
Se 11.329770 16.994655 28.320917
Se 11.329770 19.827098 25.488475
Se 14.162213 16.994655 25.488475
Se 11.329770 22.659540 -22.663048
Se 11.329770 22.659540 -16.998163
Se 11.329770 25.491983 -19.830606
Se 14.162213 25.491983 -16.998163
Se 14.162213 22.659540 -19.830606
Se 11.329770 22.659540 -11.333278
Se 11.329770 25.491983 -14.165721
Se 14.162213 25.491983 -11.333278
Se 14.162213 22.659540 -14.165721
Se 11.329770 22.659540 -5.668393
Se 11.329770 25.491983 -8.500836
Se 14.162213 25.491983 -5.668393
Se 14.162213 22.659540 -8.500836
Se 11.329770 22.659540 -0.003508
Se 11.329770 25.491983 -2.835951
Se 14.162213 25.491983 -0.003508
Se 14.162213 22.659540 -2.835951
Se 11.329770 22.659540 5.661377
Se 11.329770 25.491983 2.828935
Se 14.162213 25.491983 5.661377
Se 14.162213 22.659540 2.828935
Se 11.329770 22.659540 11.326262
Se 11.329770 25.491983 8.493820
Se 14.162213 25.491983 11.326262
Se 14.162213 22.659540 8.493820
Se 11.329770 22.659540 16.991147
Se 11.329770 25.491983 14.158705
Se 14.162213 25.491983 16.991147
Se 14.162213 22.659540 14.158705
Se 11.329770 22.659540 22.656032
Se 11.329770 25.491983 19.823590
Se 14.162213 22.659540 19.823590
Se 11.329770 28.324425 -16.998163
Se 11.329770 28.324425 -11.333278
Se 11.329770 31.156868 -14.165721
Se 14.162213 31.156868 -11.333278
Se 14.162213 28.324425 -14.165721
Se 11.329770 28.324425 -5.668393
Se 11.329770 31.156868 -8.500836
Se 14.162213 31.156868 -5.668393
Se 14.162213 28.324425 -8.500836
Se 11.329770 28.324425 -0.003508
Se 11.329770 31.156868 -2.835951
Se 14.162213 31.156868 -0.003508
Se 14.162213 28.324425 -2.835951
Se 11.329770 28.324425 5.661377
Se 11.329770 31.156868 2.828935
Se 14.162213 31.156868 5.661377
Se 14.162213 28.324425 2.828935
Se 11.329770 28.324425 11.326262
Se 11.329770 31.156868 8.493820
Se 14.162213 31.156868 11.326262
Se 14.162213 28.324425 8.493820
Se 11.329770 28.324425 16.991147
Se 11.329770 31.156868 14.158705
Se 14.162213 28.324425 14.158705
Se 16.994655 -31.156868 -8.500836
Se 19.827098 -31.156868 -5.668393
Se 16.994655 -31.156868 -2.835951
Se 19.827098 -31.156868 -0.003508
Se 16.994655 -31.156868 2.828935
Se 19.827098 -31.156868 5.661377
Se 16.994655 -31.156868 8.493820
Se 16.994655 -28.324425 -11.333278
Se 16.994655 -25.491983 -14.165721
Se 19.827098 -25.491983 -11.333278
Se 16.994655 -28.324425 -5.668393
Se 16.994655 -25.491983 -8.500836
Se 19.827098 -25.491983 -5.668393
Se 19.827098 -28.324425 -8.500836
Se 16.994655 -28.324425 -0.003508
Se 16.994655 -25.491983 -2.835951
Se 19.827098 -25.491983 -0.003508
Se 19.827098 -28.324425 -2.835951
Se 16.994655 -28.324425 5.661377
Se 16.994655 -25.491983 2.828935
Se 19.827098 -25.491983 5.661377
Se 19.827098 -28.324425 2.828935
Se 16.994655 -28.324425 11.326262
Se 16.994655 -25.491983 8.493820
Se 19.827098 -25.491983 11.326262
Se 19.827098 -28.324425 8.493820
Se 16.994655 -25.491983 14.158705
Se 16.994655 -22.659540 -16.998163
Se 16.994655 -19.827098 -19.830606
Se 19.827098 -19.827098 -16.998163
Se 16.994655 -22.659540 -11.333278
Se 16.994655 -19.827098 -14.165721
Se 19.827098 -19.827098 -11.333278
Se 19.827098 -22.659540 -14.165721
Se 16.994655 -22.659540 -5.668393
Se 16.994655 -19.827098 -8.500836
Se 19.827098 -19.827098 -5.668393
Se 19.827098 -22.659540 -8.500836
Se 16.994655 -22.659540 -0.003508
Se 16.994655 -19.827098 -2.835951
Se 19.827098 -19.827098 -0.003508
Se 19.827098 -22.659540 -2.835951
Se 16.994655 -22.659540 5.661377
Se 16.994655 -19.827098 2.828935
Se 19.827098 -19.827098 5.661377
Se 19.827098 -22.659540 2.828935
Se 16.994655 -22.659540 11.326262
Se 16.994655 -19.827098 8.493820
Se 19.827098 -19.827098 11.326262
Se 19.827098 -22.659540 8.493820
Se 16.994655 -22.659540 16.991147
Se 16.994655 -19.827098 14.158705
Se 19.827098 -19.827098 16.991147
Se 19.827098 -22.659540 14.158705
Se 16.994655 -19.827098 19.823590
Se 16.994655 -16.994655 -22.663048
Se 16.994655 -14.162213 -25.495491
Se 19.827098 -14.162213 -22.663048
Se 16.994655 -16.994655 -16.998163
Se 16.994655 -14.162213 -19.830606
Se 19.827098 -14.162213 -16.998163
Se 19.827098 -16.994655 -19.830606
Se 16.994655 -16.994655 -11.333278
Se 16.994655 -14.162213 -14.165721
Se 19.827098 -14.162213 -11.333278
Se 19.827098 -16.994655 -14.165721
Se 16.994655 -16.994655 -5.668393
Se 16.994655 -14.162213 -8.500836
Se 19.827098 -14.162213 -5.668393
Se 19.827098 -16.994655 -8.500836
Se 16.994655 -16.994655 -0.003508
Se 16.994655 -14.162213 -2.835951
Se 19.827098 -14.162213 -0.003508
Se 19.827098 -16.994655 -2.835951
Se 16.994655 -16.994655 5.661377
Se 16.994655 -14.162213 2.828935
Se 19.827098 -14.162213 5.661377
Se 19.827098 -16.994655 2.828935
Se 16.994655 -16.994655 11.326262
Se 16.994655 -14.162213 8.493820
Se 19.827098 -14.162213 11.326262
Se 19.827098 -16.994655 8.493820
Se 16.994655 -16.994655 16.991147
Se 16.994655 -14.162213 14.158705
Se 19.827098 -14.162213 16.991147
Se 19.827098 -16.994655 14.158705
Se 16.994655 -16.994655 22.656032
Se 16.994655 -14.162213 19.823590
Se 19.827098 -14.162213 22.656032
Se 19.827098 -16.994655 19.823590
Se 16.994655 -14.162213 25.488475
Se 16.994655 -11.329770 -28.327933
Se 16.994655 -8.497328 -31.160376
Se 19.827098 -8.497328 -28.327933
Se 16.994655 -11.329770 -22.663048
Se 16.994655 -8.497328 -25.495491
Se 19.827098 -8.497328 -22.663048
Se 19.827098 -11.329770 -25.495491
Se 16.994655 -11.329770 -16.998163
Se 16.994655 -8.497328 -19.830606
Se 19.827098 -8.497328 -16.998163
Se 19.827098 -11.329770 -19.830606
Se 16.994655 -11.329770 -11.333278
Se 16.994655 -8.497328 -14.165721
Se 19.827098 -8.497328 -11.333278
Se 19.827098 -11.329770 -14.165721
Se 16.994655 -11.329770 -5.668393
Se 16.994655 -8.497328 -8.500836
Se 19.827098 -8.497328 -5.668393
Se 19.827098 -11.329770 -8.500836
Se 16.994655 -11.329770 -0.003508
Se 16.994655 -8.497328 -2.835951
Se 19.827098 -8.497328 -0.003508
Se 19.827098 -11.329770 -2.835951
Se 16.994655 -11.329770 5.661377
Se 16.994655 -8.497328 2.828935
Se 19.827098 -8.497328 5.661377
Se 19.827098 -11.329770 2.828935
Se 16.994655 -11.329770 11.326262
Se 16.994655 -8.497328 8.493820
Se 19.827098 -8.497328 11.326262
Se 19.827098 -11.329770 8.493820
Se 16.994655 -11.329770 16.991147
Se 16.994655 -8.497328 14.158705
Se 19.827098 -8.497328 16.991147
Se 19.827098 -11.329770 14.158705
Se 16.994655 -11.329770 22.656032
Se 16.994655 -8.497328 19.823590
Se 19.827098 -8.497328 22.656032
Se 19.827098 -11.329770 19.823590
Se 16.994655 -11.329770 28.320917
Se 16.994655 -8.497328 25.488475
Se 19.827098 -8.497328 28.320917
Se 19.827098 -11.329770 25.488475
Se 16.994655 -8.497328 31.153360
Se 16.994655 -5.664885 -28.327933
Se 16.994655 -2.832443 -31.160376
Se 19.827098 -2.832443 -28.327933
Se 19.827098 -5.664885 -31.160376
Se 16.994655 -5.664885 -22.663048
Se 16.994655 -2.832443 -25.495491
Se 19.827098 -2.832443 -22.663048
Se 19.827098 -5.664885 -25.495491
Se 16.994655 -5.664885 -16.998163
Se 16.994655 -2.832443 -19.830606
Se 19.827098 -2.832443 -16.998163
Se 19.827098 -5.664885 -19.830606
Se 16.994655 -5.664885 -11.333278
Se 16.994655 -2.832443 -14.165721
Se 19.827098 -2.832443 -11.333278
Se 19.827098 -5.664885 -14.165721
Se 16.994655 -5.664885 -5.668393
Se 16.994655 -2.832443 -8.500836
Se 19.827098 -2.832443 -5.668393
Se 19.827098 -5.664885 -8.500836
Se 16.994655 -5.664885 -0.003508
Se 16.994655 -2.832443 -2.835951
Se 19.827098 -2.832443 -0.003508
Se 19.827098 -5.664885 -2.835951
Se 16.994655 -5.664885 5.661377
Se 16.994655 -2.832443 2.828935
Se 19.827098 -2.832443 5.661377
Se 19.827098 -5.664885 2.828935
Se 16.994655 -5.664885 11.326262
Se 16.994655 -2.832443 8.493820
Se 19.827098 -2.832443 11.326262
Se 19.827098 -5.664885 8.493820
Se 16.994655 -5.664885 16.991147
Se 16.994655 -2.832443 14.158705
Se 19.827098 -2.832443 16.991147
Se 19.827098 -5.664885 14.158705
Se 16.994655 -5.664885 22.656032
Se 16.994655 -2.832443 19.823590
Se 19.827098 -2.832443 22.656032
Se 19.827098 -5.664885 19.823590
Se 16.994655 -5.664885 28.320917
Se 16.994655 -2.832443 25.488475
Se 19.827098 -2.832443 28.320917
Se 19.827098 -5.664885 25.488475
Se 16.994655 -2.832443 31.153360
Se 19.827098 -5.664885 31.153360
Se 16.994655 -0.000000 -28.327933
Se 16.994655 2.832443 -31.160376
Se 19.827098 2.832443 -28.327933
Se 19.827098 -0.000000 -31.160376
Se 16.994655 -0.000000 -22.663048
Se 16.994655 2.832443 -25.495491
Se 19.827098 2.832443 -22.663048
Se 19.827098 -0.000000 -25.495491
Se 16.994655 -0.000000 -16.998163
Se 16.994655 2.832443 -19.830606
Se 19.827098 2.832443 -16.998163
Se 19.827098 -0.000000 -19.830606
Se 16.994655 -0.000000 -11.333278
Se 16.994655 2.832443 -14.165721
Se 19.827098 2.832443 -11.333278
Se 19.827098 -0.000000 -14.165721
Se 16.994655 -0.000000 -5.668393
Se 16.994655 2.832443 -8.500836
Se 19.827098 2.832443 -5.668393
Se 19.827098 -0.000000 -8.500836
Se 16.994655 -0.000000 -0.003508
Se 16.994655 2.832443 -2.835951
Se 19.827098 2.832443 -0.003508
Se 19.827098 -0.000000 -2.835951
Se 16.994655 -0.000000 5.661377
Se 16.994655 2.832443 2.828935
Se 19.827098 2.832443 5.661377
Se 19.827098 -0.000000 2.828935
Se 16.994655 -0.000000 11.326262
Se 16.994655 2.832443 8.493820
Se 19.827098 2.832443 11.326262
Se 19.827098 -0.000000 8.493820
Se 16.994655 -0.000000 16.991147
Se 16.994655 2.832443 14.158705
Se 19.827098 2.832443 16.991147
Se 19.827098 -0.000000 14.158705
Se 16.994655 -0.000000 22.656032
Se 16.994655 2.832443 19.823590
Se 19.827098 2.832443 22.656032
Se 19.827098 -0.000000 19.823590
Se 16.994655 -0.000000 28.320917
Se 16.994655 2.832443 25.488475
Se 19.827098 2.832443 28.320917
Se 19.827098 -0.000000 25.488475
Se 16.994655 2.832443 31.153360
Se 19.827098 -0.000000 31.153360
Se 16.994655 5.664885 -28.327933
Se 16.994655 8.497328 -31.160376
Se 19.827098 8.497328 -28.327933
Se 19.827098 5.664885 -31.160376
Se 16.994655 5.664885 -22.663048
Se 16.994655 8.497328 -25.495491
Se 19.827098 8.497328 -22.663048
Se 19.827098 5.664885 -25.495491
Se 16.994655 5.664885 -16.998163
Se 16.994655 8.497328 -19.830606
Se 19.827098 8.497328 -16.998163
Se 19.827098 5.664885 -19.830606
Se 16.994655 5.664885 -11.333278
Se 16.994655 8.497328 -14.165721
Se 19.827098 8.497328 -11.333278
Se 19.827098 5.664885 -14.165721
Se 16.994655 5.664885 -5.668393
Se 16.994655 8.497328 -8.500836
Se 19.827098 8.497328 -5.668393
Se 19.827098 5.664885 -8.500836
Se 16.994655 5.664885 -0.003508
Se 16.994655 8.497328 -2.835951
Se 19.827098 8.497328 -0.003508
Se 19.827098 5.664885 -2.835951
Se 16.994655 5.664885 5.661377
Se 16.994655 8.497328 2.828935
Se 19.827098 8.497328 5.661377
Se 19.827098 5.664885 2.828935
Se 16.994655 5.664885 11.326262
Se 16.994655 8.497328 8.493820
Se 19.827098 8.497328 11.326262
Se 19.827098 5.664885 8.493820
Se 16.994655 5.664885 16.991147
Se 16.994655 8.497328 14.158705
Se 19.827098 8.497328 16.991147
Se 19.827098 5.664885 14.158705
Se 16.994655 5.664885 22.656032
Se 16.994655 8.497328 19.823590
Se 19.827098 8.497328 22.656032
Se 19.827098 5.664885 19.823590
Se 16.994655 5.664885 28.320917
Se 16.994655 8.497328 25.488475
Se 19.827098 8.497328 28.320917
Se 19.827098 5.664885 25.488475
Se 16.994655 8.497328 31.153360
Se 19.827098 5.664885 31.153360
Se 16.994655 11.329770 -28.327933
Se 16.994655 11.329770 -22.663048
Se 16.994655 14.162213 -25.495491
Se 19.827098 14.162213 -22.663048
Se 19.827098 11.329770 -25.495491
Se 16.994655 11.329770 -16.998163
Se 16.994655 14.162213 -19.830606
Se 19.827098 14.162213 -16.998163
Se 19.827098 11.329770 -19.830606
Se 16.994655 11.329770 -11.333278
Se 16.994655 14.162213 -14.165721
Se 19.827098 14.162213 -11.333278
Se 19.827098 11.329770 -14.165721
Se 16.994655 11.329770 -5.668393
Se 16.994655 14.162213 -8.500836
Se 19.827098 14.162213 -5.668393
Se 19.827098 11.329770 -8.500836
Se 16.994655 11.329770 -0.003508
Se 16.994655 14.162213 -2.835951
Se 19.827098 14.162213 -0.003508
Se 19.827098 11.329770 -2.835951
Se 16.994655 11.329770 5.661377
Se 16.994655 14.162213 2.828935
Se 19.827098 14.162213 5.661377
Se 19.827098 11.329770 2.828935
Se 16.994655 11.329770 11.326262
Se 16.994655 14.162213 8.493820
Se 19.827098 14.162213 11.326262
Se 19.827098 11.329770 8.493820
Se 16.994655 11.329770 16.991147
Se 16.994655 14.162213 14.158705
Se 19.827098 14.162213 16.991147
Se 19.827098 11.329770 14.158705
Se 16.994655 11.329770 22.656032
Se 16.994655 14.162213 19.823590
Se 19.827098 14.162213 22.656032
Se 19.827098 11.329770 19.823590
Se 16.994655 11.329770 28.320917
Se 16.994655 14.162213 25.488475
Se 19.827098 11.329770 25.488475
Se 16.994655 16.994655 -22.663048
Se 16.994655 16.994655 -16.998163
Se 16.994655 19.827098 -19.830606
Se 19.827098 19.827098 -16.998163
Se 19.827098 16.994655 -19.830606
Se 16.994655 16.994655 -11.333278
Se 16.994655 19.827098 -14.165721
Se 19.827098 19.827098 -11.333278
Se 19.827098 16.994655 -14.165721
Se 16.994655 16.994655 -5.668393
Se 16.994655 19.827098 -8.500836
Se 19.827098 19.827098 -5.668393
Se 19.827098 16.994655 -8.500836
Se 16.994655 16.994655 -0.003508
Se 16.994655 19.827098 -2.835951
Se 19.827098 19.827098 -0.003508
Se 19.827098 16.994655 -2.835951
Se 16.994655 16.994655 5.661377
Se 16.994655 19.827098 2.828935
Se 19.827098 19.827098 5.661377
Se 19.827098 16.994655 2.828935
Se 16.994655 16.994655 11.326262
Se 16.994655 19.827098 8.493820
Se 19.827098 19.827098 11.326262
Se 19.827098 16.994655 8.493820
Se 16.994655 16.994655 16.991147
Se 16.994655 19.827098 14.158705
Se 19.827098 19.827098 16.991147
Se 19.827098 16.994655 14.158705
Se 16.994655 16.994655 22.656032
Se 16.994655 19.827098 19.823590
Se 19.827098 16.994655 19.823590
Se 16.994655 22.659540 -16.998163
Se 16.994655 22.659540 -11.333278
Se 16.994655 25.491983 -14.165721
Se 19.827098 25.491983 -11.333278
Se 19.827098 22.659540 -14.165721
Se 16.994655 22.659540 -5.668393
Se 16.994655 25.491983 -8.500836
Se 19.827098 25.491983 -5.668393
Se 19.827098 22.659540 -8.500836
Se 16.994655 22.659540 -0.003508
Se 16.994655 25.491983 -2.835951
Se 19.827098 25.491983 -0.003508
Se 19.827098 22.659540 -2.835951
Se 16.994655 22.659540 5.661377
Se 16.994655 25.491983 2.828935
Se 19.827098 25.491983 5.661377
Se 19.827098 22.659540 2.828935
Se 16.994655 22.659540 11.326262
Se 16.994655 25.491983 8.493820
Se 19.827098 25.491983 11.326262
Se 19.827098 22.659540 8.493820
Se 16.994655 22.659540 16.991147
Se 16.994655 25.491983 14.158705
Se 19.827098 22.659540 14.158705
Se 16.994655 28.324425 -11.333278
Se 16.994655 28.324425 -5.668393
Se 16.994655 31.156868 -8.500836
Se 19.827098 31.156868 -5.668393
Se 19.827098 28.324425 -8.500836
Se 16.994655 28.324425 -0.003508
Se 16.994655 31.156868 -2.835951
Se 19.827098 31.156868 -0.003508
Se 19.827098 28.324425 -2.835951
Se 16.994655 28.324425 5.661377
Se 16.994655 31.156868 2.828935
Se 19.827098 31.156868 5.661377
Se 19.827098 28.324425 2.828935
Se 16.994655 28.324425 11.326262
Se 16.994655 31.156868 8.493820
Se 19.827098 28.324425 8.493820
Se 22.659540 -31.156868 -2.835951
Se 25.491983 -31.156868 -0.003508
Se 22.659540 -31.156868 2.828935
Se 22.659540 -28.324425 -5.668393
Se 22.659540 -25.491983 -8.500836
Se 25.491983 -25.491983 -5.668393
Se 22.659540 -28.324425 -0.003508
Se 22.659540 -25.491983 -2.835951
Se 25.491983 -25.491983 -0.003508
Se 25.491983 -28.324425 -2.835951
Se 22.659540 -28.324425 5.661377
Se 22.659540 -25.491983 2.828935
Se 25.491983 -25.491983 5.661377
Se 25.491983 -28.324425 2.828935
Se 22.659540 -25.491983 8.493820
Se 22.659540 -22.659540 -11.333278
Se 22.659540 -19.827098 -14.165721
Se 25.491983 -19.827098 -11.333278
Se 22.659540 -22.659540 -5.668393
Se 22.659540 -19.827098 -8.500836
Se 25.491983 -19.827098 -5.668393
Se 25.491983 -22.659540 -8.500836
Se 22.659540 -22.659540 -0.003508
Se 22.659540 -19.827098 -2.835951
Se 25.491983 -19.827098 -0.003508
Se 25.491983 -22.659540 -2.835951
Se 22.659540 -22.659540 5.661377
Se 22.659540 -19.827098 2.828935
Se 25.491983 -19.827098 5.661377
Se 25.491983 -22.659540 2.828935
Se 22.659540 -22.659540 11.326262
Se 22.659540 -19.827098 8.493820
Se 25.491983 -19.827098 11.326262
Se 25.491983 -22.659540 8.493820
Se 22.659540 -19.827098 14.158705
Se 22.659540 -16.994655 -16.998163
Se 22.659540 -14.162213 -19.830606
Se 25.491983 -14.162213 -16.998163
Se 22.659540 -16.994655 -11.333278
Se 22.659540 -14.162213 -14.165721
Se 25.491983 -14.162213 -11.333278
Se 25.491983 -16.994655 -14.165721
Se 22.659540 -16.994655 -5.668393
Se 22.659540 -14.162213 -8.500836
Se 25.491983 -14.162213 -5.668393
Se 25.491983 -16.994655 -8.500836
Se 22.659540 -16.994655 -0.003508
Se 22.659540 -14.162213 -2.835951
Se 25.491983 -14.162213 -0.003508
Se 25.491983 -16.994655 -2.835951
Se 22.659540 -16.994655 5.661377
Se 22.659540 -14.162213 2.828935
Se 25.491983 -14.162213 5.661377
Se 25.491983 -16.994655 2.828935
Se 22.659540 -16.994655 11.326262
Se 22.659540 -14.162213 8.493820
Se 25.491983 -14.162213 11.326262
Se 25.491983 -16.994655 8.493820
Se 22.659540 -16.994655 16.991147
Se 22.659540 -14.162213 14.158705
Se 25.491983 -14.162213 16.991147
Se 25.491983 -16.994655 14.158705
Se 22.659540 -14.162213 19.823590
Se 22.659540 -11.329770 -22.663048
Se 22.659540 -8.497328 -25.495491
Se 25.491983 -8.497328 -22.663048
Se 22.659540 -11.329770 -16.998163
Se 22.659540 -8.497328 -19.830606
Se 25.491983 -8.497328 -16.998163
Se 25.491983 -11.329770 -19.830606
Se 22.659540 -11.329770 -11.333278
Se 22.659540 -8.497328 -14.165721
Se 25.491983 -8.497328 -11.333278
Se 25.491983 -11.329770 -14.165721
Se 22.659540 -11.329770 -5.668393
Se 22.659540 -8.497328 -8.500836
Se 25.491983 -8.497328 -5.668393
Se 25.491983 -11.329770 -8.500836
Se 22.659540 -11.329770 -0.003508
Se 22.659540 -8.497328 -2.835951
Se 25.491983 -8.497328 -0.003508
Se 25.491983 -11.329770 -2.835951
Se 22.659540 -11.329770 5.661377
Se 22.659540 -8.497328 2.828935
Se 25.491983 -8.497328 5.661377
Se 25.491983 -11.329770 2.828935
Se 22.659540 -11.329770 11.326262
Se 22.659540 -8.497328 8.493820
Se 25.491983 -8.497328 11.326262
Se 25.491983 -11.329770 8.493820
Se 22.659540 -11.329770 16.991147
Se 22.659540 -8.497328 14.158705
Se 25.491983 -8.497328 16.991147
Se 25.491983 -11.329770 14.158705
Se 22.659540 -11.329770 22.656032
Se 22.659540 -8.497328 19.823590
Se 25.491983 -8.497328 22.656032
Se 25.491983 -11.329770 19.823590
Se 22.659540 -8.497328 25.488475
Se 22.659540 -5.664885 -28.327933
Se 22.659540 -2.832443 -31.160376
Se 25.491983 -2.832443 -28.327933
Se 22.659540 -5.664885 -22.663048
Se 22.659540 -2.832443 -25.495491
Se 25.491983 -2.832443 -22.663048
Se 25.491983 -5.664885 -25.495491
Se 22.659540 -5.664885 -16.998163
Se 22.659540 -2.832443 -19.830606
Se 25.491983 -2.832443 -16.998163
Se 25.491983 -5.664885 -19.830606
Se 22.659540 -5.664885 -11.333278
Se 22.659540 -2.832443 -14.165721
Se 25.491983 -2.832443 -11.333278
Se 25.491983 -5.664885 -14.165721
Se 22.659540 -5.664885 -5.668393
Se 22.659540 -2.832443 -8.500836
Se 25.491983 -2.832443 -5.668393
Se 25.491983 -5.664885 -8.500836
Se 22.659540 -5.664885 -0.003508
Se 22.659540 -2.832443 -2.835951
Se 25.491983 -2.832443 -0.003508
Se 25.491983 -5.664885 -2.835951
Se 22.659540 -5.664885 5.661377
Se 22.659540 -2.832443 2.828935
Se 25.491983 -2.832443 5.661377
Se 25.491983 -5.664885 2.828935
Se 22.659540 -5.664885 11.326262
Se 22.659540 -2.832443 8.493820
Se 25.491983 -2.832443 11.326262
Se 25.491983 -5.664885 8.493820
Se 22.659540 -5.664885 16.991147
Se 22.659540 -2.832443 14.158705
Se 25.491983 -2.832443 16.991147
Se 25.491983 -5.664885 14.158705
Se 22.659540 -5.664885 22.656032
Se 22.659540 -2.832443 19.823590
Se 25.491983 -2.832443 22.656032
Se 25.491983 -5.664885 19.823590
Se 22.659540 -5.664885 28.320917
Se 22.659540 -2.832443 25.488475
Se 25.491983 -2.832443 28.320917
Se 25.491983 -5.664885 25.488475
Se 22.659540 -2.832443 31.153360
Se 22.659540 -0.000000 -28.327933
Se 22.659540 2.832443 -31.160376
Se 25.491983 2.832443 -28.327933
Se 25.491983 -0.000000 -31.160376
Se 22.659540 -0.000000 -22.663048
Se 22.659540 2.832443 -25.495491
Se 25.491983 2.832443 -22.663048
Se 25.491983 -0.000000 -25.495491
Se 22.659540 -0.000000 -16.998163
Se 22.659540 2.832443 -19.830606
Se 25.491983 2.832443 -16.998163
Se 25.491983 -0.000000 -19.830606
Se 22.659540 -0.000000 -11.333278
Se 22.659540 2.832443 -14.165721
Se 25.491983 2.832443 -11.333278
Se 25.491983 -0.000000 -14.165721
Se 22.659540 -0.000000 -5.668393
Se 22.659540 2.832443 -8.500836
Se 25.491983 2.832443 -5.668393
Se 25.491983 -0.000000 -8.500836
Se 22.659540 -0.000000 -0.003508
Se 22.659540 2.832443 -2.835951
Se 25.491983 2.832443 -0.003508
Se 25.491983 -0.000000 -2.835951
Se 22.659540 -0.000000 5.661377
Se 22.659540 2.832443 2.828935
Se 25.491983 2.832443 5.661377
Se 25.491983 -0.000000 2.828935
Se 22.659540 -0.000000 11.326262
Se 22.659540 2.832443 8.493820
Se 25.491983 2.832443 11.326262
Se 25.491983 -0.000000 8.493820
Se 22.659540 -0.000000 16.991147
Se 22.659540 2.832443 14.158705
Se 25.491983 2.832443 16.991147
Se 25.491983 -0.000000 14.158705
Se 22.659540 -0.000000 22.656032
Se 22.659540 2.832443 19.823590
Se 25.491983 2.832443 22.656032
Se 25.491983 -0.000000 19.823590
Se 22.659540 -0.000000 28.320917
Se 22.659540 2.832443 25.488475
Se 25.491983 2.832443 28.320917
Se 25.491983 -0.000000 25.488475
Se 22.659540 2.832443 31.153360
Se 25.491983 -0.000000 31.153360
Se 22.659540 5.664885 -28.327933
Se 22.659540 5.664885 -22.663048
Se 22.659540 8.497328 -25.495491
Se 25.491983 8.497328 -22.663048
Se 25.491983 5.664885 -25.495491
Se 22.659540 5.664885 -16.998163
Se 22.659540 8.497328 -19.830606
Se 25.491983 8.497328 -16.998163
Se 25.491983 5.664885 -19.830606
Se 22.659540 5.664885 -11.333278
Se 22.659540 8.497328 -14.165721
Se 25.491983 8.497328 -11.333278
Se 25.491983 5.664885 -14.165721
Se 22.659540 5.664885 -5.668393
Se 22.659540 8.497328 -8.500836
Se 25.491983 8.497328 -5.668393
Se 25.491983 5.664885 -8.500836
Se 22.659540 5.664885 -0.003508
Se 22.659540 8.497328 -2.835951
Se 25.491983 8.497328 -0.003508
Se 25.491983 5.664885 -2.835951
Se 22.659540 5.664885 5.661377
Se 22.659540 8.497328 2.828935
Se 25.491983 8.497328 5.661377
Se 25.491983 5.664885 2.828935
Se 22.659540 5.664885 11.326262
Se 22.659540 8.497328 8.493820
Se 25.491983 8.497328 11.326262
Se 25.491983 5.664885 8.493820
Se 22.659540 5.664885 16.991147
Se 22.659540 8.497328 14.158705
Se 25.491983 8.497328 16.991147
Se 25.491983 5.664885 14.158705
Se 22.659540 5.664885 22.656032
Se 22.659540 8.497328 19.823590
Se 25.491983 8.497328 22.656032
Se 25.491983 5.664885 19.823590
Se 22.659540 5.664885 28.320917
Se 22.659540 8.497328 25.488475
Se 25.491983 5.664885 25.488475
Se 22.659540 11.329770 -22.663048
Se 22.659540 11.329770 -16.998163
Se 22.659540 14.162213 -19.830606
Se 25.491983 14.162213 -16.998163
Se 25.491983 11.329770 -19.830606
Se 22.659540 11.329770 -11.333278
Se 22.659540 14.162213 -14.165721
Se 25.491983 14.162213 -11.333278
Se 25.491983 11.329770 -14.165721
Se 22.659540 11.329770 -5.668393
Se 22.659540 14.162213 -8.500836
Se 25.491983 14.162213 -5.668393
Se 25.491983 11.329770 -8.500836
Se 22.659540 11.329770 -0.003508
Se 22.659540 14.162213 -2.835951
Se 25.491983 14.162213 -0.003508
Se 25.491983 11.329770 -2.835951
Se 22.659540 11.329770 5.661377
Se 22.659540 14.162213 2.828935
Se 25.491983 14.162213 5.661377
Se 25.491983 11.329770 2.828935
Se 22.659540 11.329770 11.326262
Se 22.659540 14.162213 8.493820
Se 25.491983 14.162213 11.326262
Se 25.491983 11.329770 8.493820
Se 22.659540 11.329770 16.991147
Se 22.659540 14.162213 14.158705
Se 25.491983 14.162213 16.991147
Se 25.491983 11.329770 14.158705
Se 22.659540 11.329770 22.656032
Se 22.659540 14.162213 19.823590
Se 25.491983 11.329770 19.823590
Se 22.659540 16.994655 -16.998163
Se 22.659540 16.994655 -11.333278
Se 22.659540 19.827098 -14.165721
Se 25.491983 19.827098 -11.333278
Se 25.491983 16.994655 -14.165721
Se 22.659540 16.994655 -5.668393
Se 22.659540 19.827098 -8.500836
Se 25.491983 19.827098 -5.668393
Se 25.491983 16.994655 -8.500836
Se 22.659540 16.994655 -0.003508
Se 22.659540 19.827098 -2.835951
Se 25.491983 19.827098 -0.003508
Se 25.491983 16.994655 -2.835951
Se 22.659540 16.994655 5.661377
Se 22.659540 19.827098 2.828935
Se 25.491983 19.827098 5.661377
Se 25.491983 16.994655 2.828935
Se 22.659540 16.994655 11.326262
Se 22.659540 19.827098 8.493820
Se 25.491983 19.827098 11.326262
Se 25.491983 16.994655 8.493820
Se 22.659540 16.994655 16.991147
Se 22.659540 19.827098 14.158705
Se 25.491983 16.994655 14.158705
Se 22.659540 22.659540 -11.333278
Se 22.659540 22.659540 -5.668393
Se 22.659540 25.491983 -8.500836
Se 25.491983 25.491983 -5.668393
Se 25.491983 22.659540 -8.500836
Se 22.659540 22.659540 -0.003508
Se 22.659540 25.491983 -2.835951
Se 25.491983 25.491983 -0.003508
Se 25.491983 22.659540 -2.835951
Se 22.659540 22.659540 5.661377
Se 22.659540 25.491983 2.828935
Se 25.491983 25.491983 5.661377
Se 25.491983 22.659540 2.828935
Se 22.659540 22.659540 11.326262
Se 22.659540 25.491983 8.493820
Se 25.491983 22.659540 8.493820
Se 22.659540 28.324425 -5.668393
Se 22.659540 28.324425 -0.003508
Se 22.659540 31.156868 -2.835951
Se 25.491983 31.156868 -0.003508
Se 25.491983 28.324425 -2.835951
Se 22.659540 28.324425 5.661377
Se 22.659540 31.156868 2.828935
Se 25.491983 28.324425 2.828935
Se 28.324425 -28.324425 -0.003508
Se 28.324425 -25.491983 -2.835951
Se 31.156868 -25.491983 -0.003508
Se 28.324425 -25.491983 2.828935
Se 28.324425 -22.659540 -5.668393
Se 28.324425 -19.827098 -8.500836
Se 31.156868 -19.827098 -5.668393
Se 28.324425 -22.659540 -0.003508
Se 28.324425 -19.827098 -2.835951
Se 31.156868 -19.827098 -0.003508
Se 31.156868 -22.659540 -2.835951
Se 28.324425 -22.659540 5.661377
Se 28.324425 -19.827098 2.828935
Se 31.156868 -19.827098 5.661377
Se 31.156868 -22.659540 2.828935
Se 28.324425 -19.827098 8.493820
Se 28.324425 -16.994655 -11.333278
Se 28.324425 -14.162213 -14.165721
Se 31.156868 -14.162213 -11.333278
Se 28.324425 -16.994655 -5.668393
Se 28.324425 -14.162213 -8.500836
Se 31.156868 -14.162213 -5.668393
Se 31.156868 -16.994655 -8.500836
Se 28.324425 -16.994655 -0.003508
Se 28.324425 -14.162213 -2.835951
Se 31.156868 -14.162213 -0.003508
Se 31.156868 -16.994655 -2.835951
Se 28.324425 -16.994655 5.661377
Se 28.324425 -14.162213 2.828935
Se 31.156868 -14.162213 5.661377
Se 31.156868 -16.994655 2.828935
Se 28.324425 -16.994655 11.326262
Se 28.324425 -14.162213 8.493820
Se 31.156868 -14.162213 11.326262
Se 31.156868 -16.994655 8.493820
Se 28.324425 -14.162213 14.158705
Se 28.324425 -11.329770 -16.998163
Se 28.324425 -8.497328 -19.830606
Se 31.156868 -8.497328 -16.998163
Se 28.324425 -11.329770 -11.333278
Se 28.324425 -8.497328 -14.165721
Se 31.156868 -8.497328 -11.333278
Se 31.156868 -11.329770 -14.165721
Se 28.324425 -11.329770 -5.668393
Se 28.324425 -8.497328 -8.500836
Se 31.156868 -8.497328 -5.668393
Se 31.156868 -11.329770 -8.500836
Se 28.324425 -11.329770 -0.003508
Se 28.324425 -8.497328 -2.835951
Se 31.156868 -8.497328 -0.003508
Se 31.156868 -11.329770 -2.835951
Se 28.324425 -11.329770 5.661377
Se 28.324425 -8.497328 2.828935
Se 31.156868 -8.497328 5.661377
Se 31.156868 -11.329770 2.828935
Se 28.324425 -11.329770 11.326262
Se 28.324425 -8.497328 8.493820
Se 31.156868 -8.497328 11.326262
Se 31.156868 -11.329770 8.493820
Se 28.324425 -11.329770 16.991147
Se 28.324425 -8.497328 14.158705
Se 31.156868 -8.497328 16.991147
Se 31.156868 -11.329770 14.158705
Se 28.324425 -8.497328 19.823590
Se 28.324425 -5.664885 -22.663048
Se 28.324425 -2.832443 -25.495491
Se 31.156868 -2.832443 -22.663048
Se 28.324425 -5.664885 -16.998163
Se 28.324425 -2.832443 -19.830606
Se 31.156868 -2.832443 -16.998163
Se 31.156868 -5.664885 -19.830606
Se 28.324425 -5.664885 -11.333278
Se 28.324425 -2.832443 -14.165721
Se 31.156868 -2.832443 -11.333278
Se 31.156868 -5.664885 -14.165721
Se 28.324425 -5.664885 -5.668393
Se 28.324425 -2.832443 -8.500836
Se 31.156868 -2.832443 -5.668393
Se 31.156868 -5.664885 -8.500836
Se 28.324425 -5.664885 -0.003508
Se 28.324425 -2.832443 -2.835951
Se 31.156868 -2.832443 -0.003508
Se 31.156868 -5.664885 -2.835951
Se 28.324425 -5.664885 5.661377
Se 28.324425 -2.832443 2.828935
Se 31.156868 -2.832443 5.661377
Se 31.156868 -5.664885 2.828935
Se 28.324425 -5.664885 11.326262
Se 28.324425 -2.832443 8.493820
Se 31.156868 -2.832443 11.326262
Se 31.156868 -5.664885 8.493820
Se 28.324425 -5.664885 16.991147
Se 28.324425 -2.832443 14.158705
Se 31.156868 -2.832443 16.991147
Se 31.156868 -5.664885 14.158705
Se 28.324425 -5.664885 22.656032
Se 28.324425 -2.832443 19.823590
Se 31.156868 -2.832443 22.656032
Se 31.156868 -5.664885 19.823590
Se 28.324425 -2.832443 25.488475
Se 28.324425 -0.000000 -28.327933
Se 28.324425 -0.000000 -22.663048
Se 28.324425 2.832443 -25.495491
Se 31.156868 2.832443 -22.663048
Se 31.156868 -0.000000 -25.495491
Se 28.324425 -0.000000 -16.998163
Se 28.324425 2.832443 -19.830606
Se 31.156868 2.832443 -16.998163
Se 31.156868 -0.000000 -19.830606
Se 28.324425 -0.000000 -11.333278
Se 28.324425 2.832443 -14.165721
Se 31.156868 2.832443 -11.333278
Se 31.156868 -0.000000 -14.165721
Se 28.324425 -0.000000 -5.668393
Se 28.324425 2.832443 -8.500836
Se 31.156868 2.832443 -5.668393
Se 31.156868 -0.000000 -8.500836
Se 28.324425 -0.000000 -0.003508
Se 28.324425 2.832443 -2.835951
Se 31.156868 2.832443 -0.003508
Se 31.156868 -0.000000 -2.835951
Se 28.324425 -0.000000 5.661377
Se 28.324425 2.832443 2.828935
Se 31.156868 2.832443 5.661377
Se 31.156868 -0.000000 2.828935
Se 28.324425 -0.000000 11.326262
Se 28.324425 2.832443 8.493820
Se 31.156868 2.832443 11.326262
Se 31.156868 -0.000000 8.493820
Se 28.324425 -0.000000 16.991147
Se 28.324425 2.832443 14.158705
Se 31.156868 2.832443 16.991147
Se 31.156868 -0.000000 14.158705
Se 28.324425 -0.000000 22.656032
Se 28.324425 2.832443 19.823590
Se 31.156868 2.832443 22.656032
Se 31.156868 -0.000000 19.823590
Se 28.324425 -0.000000 28.320917
Se 28.324425 2.832443 25.488475
Se 31.156868 -0.000000 25.488475
Se 28.324425 5.664885 -22.663048
Se 28.324425 5.664885 -16.998163
Se 28.324425 8.497328 -19.830606
Se 31.156868 8.497328 -16.998163
Se 31.156868 5.664885 -19.830606
Se 28.324425 5.664885 -11.333278
Se 28.324425 8.497328 -14.165721
Se 31.156868 8.497328 -11.333278
Se 31.156868 5.664885 -14.165721
Se 28.324425 5.664885 -5.668393
Se 28.324425 8.497328 -8.500836
Se 31.156868 8.497328 -5.668393
Se 31.156868 5.664885 -8.500836
Se 28.324425 5.664885 -0.003508
Se 28.324425 8.497328 -2.835951
Se 31.156868 8.497328 -0.003508
Se 31.156868 5.664885 -2.835951
Se 28.324425 5.664885 5.661377
Se 28.324425 8.497328 2.828935
Se 31.156868 8.497328 5.661377
Se 31.156868 5.664885 2.828935
Se 28.324425 5.664885 11.326262
Se 28.324425 8.497328 8.493820
Se 31.156868 8.497328 11.326262
Se 31.156868 5.664885 8.493820
Se 28.324425 5.664885 16.991147
Se 28.324425 8.497328 14.158705
Se 31.156868 8.497328 16.991147
Se 31.156868 5.664885 14.158705
Se 28.324425 5.664885 22.656032
Se 28.324425 8.497328 19.823590
Se 31.156868 5.664885 19.823590
Se 28.324425 11.329770 -16.998163
Se 28.324425 11.329770 -11.333278
Se 28.324425 14.162213 -14.165721
Se 31.156868 14.162213 -11.333278
Se 31.156868 11.329770 -14.165721
Se 28.324425 11.329770 -5.668393
Se 28.324425 14.162213 -8.500836
Se 31.156868 14.162213 -5.668393
Se 31.156868 11.329770 -8.500836
Se 28.324425 11.329770 -0.003508
Se 28.324425 14.162213 -2.835951
Se 31.156868 14.162213 -0.003508
Se 31.156868 11.329770 -2.835951
Se 28.324425 11.329770 5.661377
Se 28.324425 14.162213 2.828935
Se 31.156868 14.162213 5.661377
Se 31.156868 11.329770 2.828935
Se 28.324425 11.329770 11.326262
Se 28.324425 14.162213 8.493820
Se 31.156868 14.162213 11.326262
Se 31.156868 11.329770 8.493820
Se 28.324425 11.329770 16.991147
Se 28.324425 14.162213 14.158705
Se 31.156868 11.329770 14.158705
Se 28.324425 16.994655 -11.333278
Se 28.324425 16.994655 -5.668393
Se 28.324425 19.827098 -8.500836
Se 31.156868 19.827098 -5.668393
Se 31.156868 16.994655 -8.500836
Se 28.324425 16.994655 -0.003508
Se 28.324425 19.827098 -2.835951
Se 31.156868 19.827098 -0.003508
Se 31.156868 16.994655 -2.835951
Se 28.324425 16.994655 5.661377
Se 28.324425 19.827098 2.828935
Se 31.156868 19.827098 5.661377
Se 31.156868 16.994655 2.828935
Se 28.324425 16.994655 11.326262
Se 28.324425 19.827098 8.493820
Se 31.156868 16.994655 8.493820
Se 28.324425 22.659540 -5.668393
Se 28.324425 22.659540 -0.003508
Se 28.324425 25.491983 -2.835951
Se 31.156868 25.491983 -0.003508
Se 31.156868 22.659540 -2.835951
Se 28.324425 22.659540 5.661377
Se 28.324425 25.491983 2.828935
Se 31.156868 22.659540 2.828935
Se 28.324425 28.324425 -0.003508
Cl -33.989310 -22.659540 -0.003508
Cl -33.989310 -19.827098 -2.835951
Cl -33.989310 -19.827098 2.828935
Cl -33.989310 -16.994655 -5.668393
Cl -33.989310 -14.162213 -8.500836
Cl -33.989310 -16.994655 -0.003508
Cl -33.989310 -14.162213 -2.835951
Cl -33.989310 -16.994655 5.661377
Cl -33.989310 -14.162213 2.828935
Cl -33.989310 -14.162213 8.493820
Cl -33.989310 -11.329770 -11.333278
Cl -33.989310 -8.497328 -14.165721
Cl -33.989310 -11.329770 -5.668393
Cl -33.989310 -8.497328 -8.500836
Cl -33.989310 -11.329770 -0.003508
Cl -33.989310 -8.497328 -2.835951
Cl -33.989310 -11.329770 5.661377
Cl -33.989310 -8.497328 2.828935
Cl -33.989310 -11.329770 11.326262
Cl -33.989310 -8.497328 8.493820
Cl -33.989310 -8.497328 14.158705
Cl -33.989310 -5.664885 -16.998163
Cl -33.989310 -2.832443 -19.830606
Cl -33.989310 -5.664885 -11.333278
Cl -33.989310 -2.832443 -14.165721
Cl -33.989310 -5.664885 -5.668393
Cl -33.989310 -2.832443 -8.500836
Cl -33.989310 -5.664885 -0.003508
Cl -33.989310 -2.832443 -2.835951
Cl -33.989310 -5.664885 5.661377
Cl -33.989310 -2.832443 2.828935
Cl -33.989310 -5.664885 11.326262
Cl -33.989310 -2.832443 8.493820
Cl -33.989310 -5.664885 16.991147
Cl -33.989310 -2.832443 14.158705
Cl -33.989310 -2.832443 19.823590
Cl -33.989310 -0.000000 -22.663048
Cl -33.989310 -0.000000 -16.998163
Cl -33.989310 2.832443 -19.830606
Cl -33.989310 -0.000000 -11.333278
Cl -33.989310 2.832443 -14.165721
Cl -33.989310 -0.000000 -5.668393
Cl -33.989310 2.832443 -8.500836
Cl -33.989310 -0.000000 -0.003508
Cl -33.989310 2.832443 -2.835951
Cl -33.989310 -0.000000 5.661377
Cl -33.989310 2.832443 2.828935
Cl -33.989310 -0.000000 11.326262
Cl -33.989310 2.832443 8.493820
Cl -33.989310 -0.000000 16.991147
Cl -33.989310 2.832443 14.158705
Cl -33.989310 -0.000000 22.656032
Cl -33.989310 2.832443 19.823590
Cl -33.989310 5.664885 -16.998163
Cl -33.989310 5.664885 -11.333278
Cl -33.989310 8.497328 -14.165721
Cl -33.989310 5.664885 -5.668393
Cl -33.989310 8.497328 -8.500836
Cl -33.989310 5.664885 -0.003508
Cl -33.989310 8.497328 -2.835951
Cl -33.989310 5.664885 5.661377
Cl -33.989310 8.497328 2.828935
Cl -33.989310 5.664885 11.326262
Cl -33.989310 8.497328 8.493820
Cl -33.989310 5.664885 16.991147
Cl -33.989310 8.497328 14.158705
Cl -33.989310 11.329770 -11.333278
Cl -33.989310 11.329770 -5.668393
Cl -33.989310 14.162213 -8.500836
Cl -33.989310 11.329770 -0.003508
Cl -33.989310 14.162213 -2.835951
Cl -33.989310 11.329770 5.661377
Cl -33.989310 14.162213 2.828935
Cl -33.989310 11.329770 11.326262
Cl -33.989310 14.162213 8.493820
Cl -33.989310 16.994655 -5.668393
Cl -33.989310 16.994655 -0.003508
Cl -33.989310 19.827098 -2.835951
Cl -33.989310 16.994655 5.661377
Cl -33.989310 19.827098 2.828935
Cl -33.989310 22.659540 -0.003508
Cl -22.659540 -33.989310 -0.003508
Cl -19.827098 -33.989310 -2.835951
Cl -19.827098 -33.989310 2.828935
Cl -19.827098 -2.832443 -33.992819
Cl -19.827098 -2.832443 33.985802
Cl -22.659540 -0.000000 -33.992819
Cl -19.827098 2.832443 -33.992819
Cl -22.659540 -0.000000 33.985802
Cl -19.827098 2.832443 33.985802
Cl -22.659540 33.989310 -0.003508
Cl -19.827098 33.989310 -2.835951
Cl -19.827098 33.989310 2.828935
Cl -16.994655 -33.989310 -5.668393
Cl -14.162213 -33.989310 -8.500836
Cl -16.994655 -33.989310 -0.003508
Cl -14.162213 -33.989310 -2.835951
Cl -16.994655 -33.989310 5.661377
Cl -14.162213 -33.989310 2.828935
Cl -14.162213 -33.989310 8.493820
Cl -14.162213 -8.497328 -33.992819
Cl -14.162213 -8.497328 33.985802
Cl -16.994655 -5.664885 -33.992819
Cl -14.162213 -2.832443 -33.992819
Cl -16.994655 -5.664885 33.985802
Cl -14.162213 -2.832443 33.985802
Cl -16.994655 -0.000000 -33.992819
Cl -14.162213 2.832443 -33.992819
Cl -16.994655 -0.000000 33.985802
Cl -14.162213 2.832443 33.985802
Cl -16.994655 5.664885 -33.992819
Cl -14.162213 8.497328 -33.992819
Cl -16.994655 5.664885 33.985802
Cl -14.162213 8.497328 33.985802
Cl -16.994655 33.989310 -5.668393
Cl -14.162213 33.989310 -8.500836
Cl -16.994655 33.989310 -0.003508
Cl -14.162213 33.989310 -2.835951
Cl -16.994655 33.989310 5.661377
Cl -14.162213 33.989310 2.828935
Cl -14.162213 33.989310 8.493820
Cl -11.329770 -33.989310 -11.333278
Cl -8.497328 -33.989310 -14.165721
Cl -11.329770 -33.989310 -5.668393
Cl -8.497328 -33.989310 -8.500836
Cl -11.329770 -33.989310 -0.003508
Cl -8.497328 -33.989310 -2.835951
Cl -11.329770 -33.989310 5.661377
Cl -8.497328 -33.989310 2.828935
Cl -11.329770 -33.989310 11.326262
Cl -8.497328 -33.989310 8.493820
Cl -8.497328 -33.989310 14.158705
Cl -8.497328 -14.162213 -33.992819
Cl -8.497328 -14.162213 33.985802
Cl -11.329770 -11.329770 -33.992819
Cl -8.497328 -8.497328 -33.992819
Cl -11.329770 -11.329770 33.985802
Cl -8.497328 -8.497328 33.985802
Cl -11.329770 -5.664885 -33.992819
Cl -8.497328 -2.832443 -33.992819
Cl -11.329770 -5.664885 33.985802
Cl -8.497328 -2.832443 33.985802
Cl -11.329770 -0.000000 -33.992819
Cl -8.497328 2.832443 -33.992819
Cl -11.329770 -0.000000 33.985802
Cl -8.497328 2.832443 33.985802
Cl -11.329770 5.664885 -33.992819
Cl -8.497328 8.497328 -33.992819
Cl -11.329770 5.664885 33.985802
Cl -8.497328 8.497328 33.985802
Cl -11.329770 11.329770 -33.992819
Cl -8.497328 14.162213 -33.992819
Cl -11.329770 11.329770 33.985802
Cl -8.497328 14.162213 33.985802
Cl -11.329770 33.989310 -11.333278
Cl -8.497328 33.989310 -14.165721
Cl -11.329770 33.989310 -5.668393
Cl -8.497328 33.989310 -8.500836
Cl -11.329770 33.989310 -0.003508
Cl -8.497328 33.989310 -2.835951
Cl -11.329770 33.989310 5.661377
Cl -8.497328 33.989310 2.828935
Cl -11.329770 33.989310 11.326262
Cl -8.497328 33.989310 8.493820
Cl -8.497328 33.989310 14.158705
Cl -5.664885 -33.989310 -16.998163
Cl -2.832443 -33.989310 -19.830606
Cl -5.664885 -33.989310 -11.333278
Cl -2.832443 -33.989310 -14.165721
Cl -5.664885 -33.989310 -5.668393
Cl -2.832443 -33.989310 -8.500836
Cl -5.664885 -33.989310 -0.003508
Cl -2.832443 -33.989310 -2.835951
Cl -5.664885 -33.989310 5.661377
Cl -2.832443 -33.989310 2.828935
Cl -5.664885 -33.989310 11.326262
Cl -2.832443 -33.989310 8.493820
Cl -5.664885 -33.989310 16.991147
Cl -2.832443 -33.989310 14.158705
Cl -2.832443 -33.989310 19.823590
Cl -2.832443 -19.827098 -33.992819
Cl -2.832443 -19.827098 33.985802
Cl -5.664885 -16.994655 -33.992819
Cl -2.832443 -14.162213 -33.992819
Cl -5.664885 -16.994655 33.985802
Cl -2.832443 -14.162213 33.985802
Cl -5.664885 -11.329770 -33.992819
Cl -2.832443 -8.497328 -33.992819
Cl -5.664885 -11.329770 33.985802
Cl -2.832443 -8.497328 33.985802
Cl -5.664885 -5.664885 -33.992819
Cl -2.832443 -2.832443 -33.992819
Cl -5.664885 -5.664885 33.985802
Cl -2.832443 -2.832443 33.985802
Cl -5.664885 -0.000000 -33.992819
Cl -2.832443 2.832443 -33.992819
Cl -5.664885 -0.000000 33.985802
Cl -2.832443 2.832443 33.985802
Cl -5.664885 5.664885 -33.992819
Cl -2.832443 8.497328 -33.992819
Cl -5.664885 5.664885 33.985802
Cl -2.832443 8.497328 33.985802
Cl -5.664885 11.329770 -33.992819
Cl -2.832443 14.162213 -33.992819
Cl -5.664885 11.329770 33.985802
Cl -2.832443 14.162213 33.985802
Cl -5.664885 16.994655 -33.992819
Cl -2.832443 19.827098 -33.992819
Cl -5.664885 16.994655 33.985802
Cl -2.832443 19.827098 33.985802
Cl -5.664885 33.989310 -16.998163
Cl -2.832443 33.989310 -19.830606
Cl -5.664885 33.989310 -11.333278
Cl -2.832443 33.989310 -14.165721
Cl -5.664885 33.989310 -5.668393
Cl -2.832443 33.989310 -8.500836
Cl -5.664885 33.989310 -0.003508
Cl -2.832443 33.989310 -2.835951
Cl -5.664885 33.989310 5.661377
Cl -2.832443 33.989310 2.828935
Cl -5.664885 33.989310 11.326262
Cl -2.832443 33.989310 8.493820
Cl -5.664885 33.989310 16.991147
Cl -2.832443 33.989310 14.158705
Cl -2.832443 33.989310 19.823590
Cl -0.000000 -33.989310 -22.663048
Cl -0.000000 -33.989310 -16.998163
Cl 2.832443 -33.989310 -19.830606
Cl -0.000000 -33.989310 -11.333278
Cl 2.832443 -33.989310 -14.165721
Cl -0.000000 -33.989310 -5.668393
Cl 2.832443 -33.989310 -8.500836
Cl -0.000000 -33.989310 -0.003508
Cl 2.832443 -33.989310 -2.835951
Cl -0.000000 -33.989310 5.661377
Cl 2.832443 -33.989310 2.828935
Cl -0.000000 -33.989310 11.326262
Cl 2.832443 -33.989310 8.493820
Cl -0.000000 -33.989310 16.991147
Cl 2.832443 -33.989310 14.158705
Cl -0.000000 -33.989310 22.656032
Cl 2.832443 -33.989310 19.823590
Cl -0.000000 -22.659540 -33.992819
Cl 2.832443 -19.827098 -33.992819
Cl -0.000000 -22.659540 33.985802
Cl 2.832443 -19.827098 33.985802
Cl -0.000000 -16.994655 -33.992819
Cl 2.832443 -14.162213 -33.992819
Cl -0.000000 -16.994655 33.985802
Cl 2.832443 -14.162213 33.985802
Cl -0.000000 -11.329770 -33.992819
Cl 2.832443 -8.497328 -33.992819
Cl -0.000000 -11.329770 33.985802
Cl 2.832443 -8.497328 33.985802
Cl -0.000000 -5.664885 -33.992819
Cl 2.832443 -2.832443 -33.992819
Cl -0.000000 -5.664885 33.985802
Cl 2.832443 -2.832443 33.985802
Cl -0.000000 -0.000000 -33.992819
Cl 2.832443 2.832443 -33.992819
Cl -0.000000 -0.000000 33.985802
Cl 2.832443 2.832443 33.985802
Cl -0.000000 5.664885 -33.992819
Cl 2.832443 8.497328 -33.992819
Cl -0.000000 5.664885 33.985802
Cl 2.832443 8.497328 33.985802
Cl -0.000000 11.329770 -33.992819
Cl 2.832443 14.162213 -33.992819
Cl -0.000000 11.329770 33.985802
Cl 2.832443 14.162213 33.985802
Cl -0.000000 16.994655 -33.992819
Cl 2.832443 19.827098 -33.992819
Cl -0.000000 16.994655 33.985802
Cl 2.832443 19.827098 33.985802
Cl -0.000000 22.659540 -33.992819
Cl -0.000000 22.659540 33.985802
Cl -0.000000 33.989310 -22.663048
Cl -0.000000 33.989310 -16.998163
Cl 2.832443 33.989310 -19.830606
Cl -0.000000 33.989310 -11.333278
Cl 2.832443 33.989310 -14.165721
Cl -0.000000 33.989310 -5.668393
Cl 2.832443 33.989310 -8.500836
Cl -0.000000 33.989310 -0.003508
Cl 2.832443 33.989310 -2.835951
Cl -0.000000 33.989310 5.661377
Cl 2.832443 33.989310 2.828935
Cl -0.000000 33.989310 11.326262
Cl 2.832443 33.989310 8.493820
Cl -0.000000 33.989310 16.991147
Cl 2.832443 33.989310 14.158705
Cl -0.000000 33.989310 22.656032
Cl 2.832443 33.989310 19.823590
Cl 5.664885 -33.989310 -16.998163
Cl 5.664885 -33.989310 -11.333278
Cl 8.497328 -33.989310 -14.165721
Cl 5.664885 -33.989310 -5.668393
Cl 8.497328 -33.989310 -8.500836
Cl 5.664885 -33.989310 -0.003508
Cl 8.497328 -33.989310 -2.835951
Cl 5.664885 -33.989310 5.661377
Cl 8.497328 -33.989310 2.828935
Cl 5.664885 -33.989310 11.326262
Cl 8.497328 -33.989310 8.493820
Cl 5.664885 -33.989310 16.991147
Cl 8.497328 -33.989310 14.158705
Cl 5.664885 -16.994655 -33.992819
Cl 8.497328 -14.162213 -33.992819
Cl 5.664885 -16.994655 33.985802
Cl 8.497328 -14.162213 33.985802
Cl 5.664885 -11.329770 -33.992819
Cl 8.497328 -8.497328 -33.992819
Cl 5.664885 -11.329770 33.985802
Cl 8.497328 -8.497328 33.985802
Cl 5.664885 -5.664885 -33.992819
Cl 8.497328 -2.832443 -33.992819
Cl 5.664885 -5.664885 33.985802
Cl 8.497328 -2.832443 33.985802
Cl 5.664885 -0.000000 -33.992819
Cl 8.497328 2.832443 -33.992819
Cl 5.664885 -0.000000 33.985802
Cl 8.497328 2.832443 33.985802
Cl 5.664885 5.664885 -33.992819
Cl 8.497328 8.497328 -33.992819
Cl 5.664885 5.664885 33.985802
Cl 8.497328 8.497328 33.985802
Cl 5.664885 11.329770 -33.992819
Cl 8.497328 14.162213 -33.992819
Cl 5.664885 11.329770 33.985802
Cl 8.497328 14.162213 33.985802
Cl 5.664885 16.994655 -33.992819
Cl 5.664885 16.994655 33.985802
Cl 5.664885 33.989310 -16.998163
Cl 5.664885 33.989310 -11.333278
Cl 8.497328 33.989310 -14.165721
Cl 5.664885 33.989310 -5.668393
Cl 8.497328 33.989310 -8.500836
Cl 5.664885 33.989310 -0.003508
Cl 8.497328 33.989310 -2.835951
Cl 5.664885 33.989310 5.661377
Cl 8.497328 33.989310 2.828935
Cl 5.664885 33.989310 11.326262
Cl 8.497328 33.989310 8.493820
Cl 5.664885 33.989310 16.991147
Cl 8.497328 33.989310 14.158705
Cl 11.329770 -33.989310 -11.333278
Cl 11.329770 -33.989310 -5.668393
Cl 14.162213 -33.989310 -8.500836
Cl 11.329770 -33.989310 -0.003508
Cl 14.162213 -33.989310 -2.835951
Cl 11.329770 -33.989310 5.661377
Cl 14.162213 -33.989310 2.828935
Cl 11.329770 -33.989310 11.326262
Cl 14.162213 -33.989310 8.493820
Cl 11.329770 -11.329770 -33.992819
Cl 14.162213 -8.497328 -33.992819
Cl 11.329770 -11.329770 33.985802
Cl 14.162213 -8.497328 33.985802
Cl 11.329770 -5.664885 -33.992819
Cl 14.162213 -2.832443 -33.992819
Cl 11.329770 -5.664885 33.985802
Cl 14.162213 -2.832443 33.985802
Cl 11.329770 -0.000000 -33.992819
Cl 14.162213 2.832443 -33.992819
Cl 11.329770 -0.000000 33.985802
Cl 14.162213 2.832443 33.985802
Cl 11.329770 5.664885 -33.992819
Cl 14.162213 8.497328 -33.992819
Cl 11.329770 5.664885 33.985802
Cl 14.162213 8.497328 33.985802
Cl 11.329770 11.329770 -33.992819
Cl 11.329770 11.329770 33.985802
Cl 11.329770 33.989310 -11.333278
Cl 11.329770 33.989310 -5.668393
Cl 14.162213 33.989310 -8.500836
Cl 11.329770 33.989310 -0.003508
Cl 14.162213 33.989310 -2.835951
Cl 11.329770 33.989310 5.661377
Cl 14.162213 33.989310 2.828935
Cl 11.329770 33.989310 11.326262
Cl 14.162213 33.989310 8.493820
Cl 16.994655 -33.989310 -5.668393
Cl 16.994655 -33.989310 -0.003508
Cl 19.827098 -33.989310 -2.835951
Cl 16.994655 -33.989310 5.661377
Cl 19.827098 -33.989310 2.828935
Cl 16.994655 -5.664885 -33.992819
Cl 19.827098 -2.832443 -33.992819
Cl 16.994655 -5.664885 33.985802
Cl 19.827098 -2.832443 33.985802
Cl 16.994655 -0.000000 -33.992819
Cl 19.827098 2.832443 -33.992819
Cl 16.994655 -0.000000 33.985802
Cl 19.827098 2.832443 33.985802
Cl 16.994655 5.664885 -33.992819
Cl 16.994655 5.664885 33.985802
Cl 16.994655 33.989310 -5.668393
Cl 16.994655 33.989310 -0.003508
Cl 19.827098 33.989310 -2.835951
Cl 16.994655 33.989310 5.661377
Cl 19.827098 33.989310 2.828935
Cl 22.659540 -33.989310 -0.003508
Cl 22.659540 -0.000000 -33.992819
Cl 22.659540 -0.000000 33.985802
Cl 22.659540 33.989310 -0.003508
Cl 33.989310 -22.659540 -0.003508
Cl 33.989310 -19.827098 -2.835951
Cl 33.989310 -19.827098 2.828935
Cl 33.989310 -16.994655 -5.668393
Cl 33.989310 -14.162213 -8.500836
Cl 33.989310 -16.994655 -0.003508
Cl 33.989310 -14.162213 -2.835951
Cl 33.989310 -16.994655 5.661377
Cl 33.989310 -14.162213 2.828935
Cl 33.989310 -14.162213 8.493820
Cl 33.989310 -11.329770 -11.333278
Cl 33.989310 -8.497328 -14.165721
Cl 33.989310 -11.329770 -5.668393
Cl 33.989310 -8.497328 -8.500836
Cl 33.989310 -11.329770 -0.003508
Cl 33.989310 -8.497328 -2.835951
Cl 33.989310 -11.329770 5.661377
Cl 33.989310 -8.497328 2.828935
Cl 33.989310 -11.329770 11.326262
Cl 33.989310 -8.497328 8.493820
Cl 33.989310 -8.497328 14.158705
Cl 33.989310 -5.664885 -16.998163
Cl 33.989310 -2.832443 -19.830606
Cl 33.989310 -5.664885 -11.333278
Cl 33.989310 -2.832443 -14.165721
Cl 33.989310 -5.664885 -5.668393
Cl 33.989310 -2.832443 -8.500836
Cl 33.989310 -5.664885 -0.003508
Cl 33.989310 -2.832443 -2.835951
Cl 33.989310 -5.664885 5.661377
Cl 33.989310 -2.832443 2.828935
Cl 33.989310 -5.664885 11.326262
Cl 33.989310 -2.832443 8.493820
Cl 33.989310 -5.664885 16.991147
Cl 33.989310 -2.832443 14.158705
Cl 33.989310 -2.832443 19.823590
Cl 33.989310 -0.000000 -22.663048
Cl 33.989310 -0.000000 -16.998163
Cl 33.989310 2.832443 -19.830606
Cl 33.989310 -0.000000 -11.333278
Cl 33.989310 2.832443 -14.165721
Cl 33.989310 -0.000000 -5.668393
Cl 33.989310 2.832443 -8.500836
Cl 33.989310 -0.000000 -0.003508
Cl 33.989310 2.832443 -2.835951
Cl 33.989310 -0.000000 5.661377
Cl 33.989310 2.832443 2.828935
Cl 33.989310 -0.000000 11.326262
Cl 33.989310 2.832443 8.493820
Cl 33.989310 -0.000000 16.991147
Cl 33.989310 2.832443 14.158705
Cl 33.989310 -0.000000 22.656032
Cl 33.989310 2.832443 19.823590
Cl 33.989310 5.664885 -16.998163
Cl 33.989310 5.664885 -11.333278
Cl 33.989310 8.497328 -14.165721
Cl 33.989310 5.664885 -5.668393
Cl 33.989310 8.497328 -8.500836
Cl 33.989310 5.664885 -0.003508
Cl 33.989310 8.497328 -2.835951
Cl 33.989310 5.664885 5.661377
Cl 33.989310 8.497328 2.828935
Cl 33.989310 5.664885 11.326262
Cl 33.989310 8.497328 8.493820
Cl 33.989310 5.664885 16.991147
Cl 33.989310 8.497328 14.158705
Cl 33.989310 11.329770 -11.333278
Cl 33.989310 11.329770 -5.668393
Cl 33.989310 14.162213 -8.500836
Cl 33.989310 11.329770 -0.003508
Cl 33.989310 14.162213 -2.835951
Cl 33.989310 11.329770 5.661377
Cl 33.989310 14.162213 2.828935
Cl 33.989310 11.329770 11.326262
Cl 33.989310 14.162213 8.493820
Cl 33.989310 16.994655 -5.668393
Cl 33.989310 16.994655 -0.003508
Cl 33.989310 19.827098 -2.835951
Cl 33.989310 16.994655 5.661377
Cl 33.989310 19.827098 2.828935
Cl 33.989310 22.659540 -0.003508
Cl -19.827098 -19.827098 -19.830606
Cl -19.827098 19.827098 19.823590
Cl 19.827098 -19.827098 19.823590
Cl 19.827098 19.827098 -19.830606
Cl -31.156868 -25.491983 -2.835951
Cl -31.156868 2.832443 25.488475
Cl 2.832443 -31.156868 25.488475
Cl 2.832443 25.491983 -31.160376
Cl -2.832443 -25.491983 -31.160376
Cl -2.832443 31.156868 25.488475
Cl 31.156868 -2.832443 25.488475
Cl 31.156868 25.491983 -2.835951
