64
CsPbCl3-Cs-Cs20Pb8Cl36-clean
Cs -5.768592 -5.768592 0.088748
Cs -5.768592 -0.088748 -5.591097
Cs -5.768592 -0.088748 0.088748
Cs -5.768592 -0.088748 5.768592
Cs -5.768592 5.591097 0.088748
Cs -0.088748 -5.768592 -5.591097
Cs -0.088748 -5.768592 0.088748
Cs -0.088748 -5.768592 5.768592
Cs -0.088748 -0.088748 -5.591097
Cs -0.088748 -0.088748 0.088748
Cs -0.088748 -0.088748 5.768592
Cs -0.088748 5.591097 -5.591097
Cs -0.088748 5.591097 0.088748
Cs -0.088748 5.591097 5.768592
Cs 5.591097 -5.768592 0.088748
Cs 5.591097 -0.088748 -5.591097
Cs 5.591097 -0.088748 0.088748
Cs 5.591097 -0.088748 5.768592
Cs 5.591097 5.591097 -5.591097
Cs 5.591097 5.591097 0.088748
Pb -2.928670 -2.928670 -2.751175
Pb -2.928670 -2.928670 2.928670
Pb -2.928670 2.751175 -2.751175
Pb -2.928670 2.751175 2.928670
Pb 2.751175 -2.928670 -2.751175
Pb 2.751175 -2.928670 2.928670
Pb 2.751175 2.751175 -2.751175
Pb 2.751175 2.751175 2.928670
Cl -5.768592 -2.928670 -2.751175
Cl -2.928670 -5.768592 -2.751175
Cl -2.928670 -2.928670 -5.591097
Cl -5.768592 -2.928670 2.928670
Cl -2.928670 -5.768592 2.928670
Cl -2.928670 -2.928670 0.088748
Cl -2.928670 -2.928670 5.768592
Cl -5.768592 2.751175 -2.751175
Cl -2.928670 -0.088748 -2.751175
Cl -2.928670 2.751175 -5.591097
Cl -5.768592 2.751175 2.928670
Cl -2.928670 -0.088748 2.928670
Cl -2.928670 2.751175 0.088748
Cl -2.928670 2.751175 5.768592
Cl -2.928670 5.591097 -2.751175
Cl -2.928670 5.591097 2.928670
Cl -0.088748 -2.928670 -2.751175
Cl 2.751175 -5.768592 -2.751175
Cl 2.751175 -2.928670 -5.591097
Cl -0.088748 -2.928670 2.928670
Cl 2.751175 -5.768592 2.928670
Cl 2.751175 -2.928670 0.088748
Cl 2.751175 -2.928670 5.768592
Cl -0.088748 2.751175 -2.751175
Cl 2.751175 -0.088748 -2.751175
Cl 2.751175 2.751175 -5.591097
Cl -0.088748 2.751175 2.928670
Cl 2.751175 -0.088748 2.928670
Cl 2.751175 2.751175 0.088748
Cl 2.751175 2.751175 5.768592
Cl 2.751175 5.591097 -2.751175
Cl 2.751175 5.591097 2.928670
Cl 5.591097 -2.928670 -2.751175
Cl 5.591097 -2.928670 2.928670
Cl 5.591097 2.751175 -2.751175
Cl 5.591097 2.751175 2.928670
