98
AlAs-As-Al40As31Cl27-clean
Al -4.173061 -4.260000 -1.391020
Al -4.173061 -1.420000 -4.231020
Al -7.013061 -1.420000 -1.391020
Al -4.173061 1.420000 -1.391020
Al -4.173061 -1.420000 1.448980
Al -7.013061 1.420000 1.448980
Al -4.173061 1.420000 4.288980
Al -4.173061 4.260000 1.448980
Al -1.333061 -4.260000 -4.231020
Al -1.333061 -7.100000 -1.391020
Al 1.506939 -4.260000 -1.391020
Al 1.506939 -7.100000 1.448980
Al -1.333061 -4.260000 1.448980
Al 1.506939 -4.260000 4.288980
Al -1.333061 -1.420000 -7.071020
Al 1.506939 1.420000 -7.071020
Al 1.506939 -1.420000 -4.231020
Al -1.333061 1.420000 -4.231020
Al -1.333061 -1.420000 -1.391020
Al 1.506939 1.420000 -1.391020
Al 1.506939 -1.420000 1.448980
Al -1.333061 1.420000 1.448980
Al -1.333061 -1.420000 4.288980
Al 1.506939 1.420000 4.288980
Al 1.506939 -1.420000 7.128980
Al -1.333061 1.420000 7.128980
Al 1.506939 4.260000 -4.231020
Al -1.333061 4.260000 -1.391020
Al 1.506939 7.100000 -1.391020
Al 1.506939 4.260000 1.448980
Al -1.333061 7.100000 1.448980
Al -1.333061 4.260000 4.288980
Al 4.346939 -4.260000 1.448980
Al 4.346939 1.420000 -4.231020
Al 4.346939 -1.420000 -1.391020
Al 7.186939 1.420000 -1.391020
Al 7.186939 -1.420000 1.448980
Al 4.346939 1.420000 1.448980
Al 4.346939 -1.420000 4.288980
Al 4.346939 4.260000 -1.391020
As -5.593061 -2.840000 -2.811020
As -2.753061 -2.840000 -5.651020
As -2.753061 -5.680000 -2.811020
As -2.753061 -2.840000 0.028980
As -2.753061 0.000000 -2.811020
As -5.593061 0.000000 0.028980
As -5.593061 2.840000 2.868980
As -2.753061 2.840000 0.028980
As -2.753061 0.000000 2.868980
As -2.753061 2.840000 5.708980
As -2.753061 5.680000 2.868980
As 0.086939 -2.840000 -2.811020
As 0.086939 -5.680000 0.028980
As 0.086939 -2.840000 2.868980
As 2.926939 -2.840000 0.028980
As 2.926939 -5.680000 2.868980
As 2.926939 -2.840000 5.708980
As 0.086939 0.000000 -5.651020
As 0.086939 2.840000 -2.811020
As 2.926939 2.840000 -5.651020
As 2.926939 0.000000 -2.811020
As 0.086939 0.000000 0.028980
As 0.086939 2.840000 2.868980
As 2.926939 2.840000 0.028980
As 2.926939 0.000000 2.868980
As 0.086939 0.000000 5.708980
As 2.926939 5.680000 -2.811020
As 0.086939 5.680000 0.028980
As 5.766939 -2.840000 2.868980
As 5.766939 2.840000 -2.811020
As 5.766939 0.000000 0.028980
Cl -8.433061 -2.840000 0.028980
Cl 8.606939 2.840000 0.028980
Cl 2.926939 -8.520000 0.028980
Cl -2.753061 8.520000 0.028980
Cl -2.753061 0.000000 -8.491020
Cl 0.086939 -2.840000 8.548980
Cl 2.926939 0.000000 -8.491020
Cl 0.086939 2.840000 8.548980
Cl -8.433061 2.840000 0.028980
Cl -2.753061 -8.520000 0.028980
Cl 2.926939 8.520000 0.028980
Cl 8.606939 -2.840000 0.028980
Cl -5.593061 0.000000 5.708980
Cl 0.086939 -5.680000 -5.651020
Cl 0.086939 5.680000 -5.651020
Cl 5.766939 0.000000 5.708980
Cl -8.433061 0.000000 -2.811020
Cl 0.086939 -8.520000 2.868980
Cl 0.086939 8.520000 2.868980
Cl 8.606939 0.000000 -2.811020
Cl -8.433061 0.000000 2.868980
Cl 0.086939 -8.520000 -2.811020
Cl 0.086939 2.840000 -8.491020
Cl 2.926939 0.000000 8.548980
Cl 0.086939 -2.840000 -8.491020
Cl -2.753061 0.000000 8.548980
Cl 0.086939 8.520000 -2.811020
