771
ZnTe-Te-Zn360Te309Cl102-clean
Zn -10.662945 -10.682761 -4.595311
Zn -10.662945 -13.738376 -1.539697
Zn -13.718560 -10.682761 -1.539697
Zn -10.662945 -10.682761 1.515918
Zn -10.662945 -4.571532 -10.706541
Zn -13.718560 -7.627147 -4.595311
Zn -10.662945 -7.627147 -7.650926
Zn -13.718560 -4.571532 -7.650926
Zn -10.662945 -4.571532 -4.595311
Zn -13.718560 -7.627147 1.515918
Zn -10.662945 -7.627147 -1.539697
Zn -13.718560 -4.571532 -1.539697
Zn -10.662945 -4.571532 1.515918
Zn -10.662945 -7.627147 4.571532
Zn -13.718560 -4.571532 4.571532
Zn -10.662945 -4.571532 7.627147
Zn -13.718560 -1.515918 -10.706541
Zn -10.662945 -1.515918 -13.762155
Zn -10.662945 1.539697 -10.706541
Zn -13.718560 -1.515918 -4.595311
Zn -10.662945 -1.515918 -7.650926
Zn -13.718560 1.539697 -7.650926
Zn -10.662945 1.539697 -4.595311
Zn -13.718560 -1.515918 1.515918
Zn -10.662945 -1.515918 -1.539697
Zn -13.718560 1.539697 -1.539697
Zn -10.662945 1.539697 1.515918
Zn -13.718560 -1.515918 7.627147
Zn -10.662945 -1.515918 4.571532
Zn -13.718560 1.539697 4.571532
Zn -10.662945 1.539697 7.627147
Zn -10.662945 -1.515918 10.682761
Zn -13.718560 1.539697 10.682761
Zn -10.662945 1.539697 13.738376
Zn -13.718560 4.595311 -4.595311
Zn -10.662945 4.595311 -7.650926
Zn -10.662945 7.650926 -4.595311
Zn -13.718560 4.595311 1.515918
Zn -10.662945 4.595311 -1.539697
Zn -13.718560 7.650926 -1.539697
Zn -10.662945 7.650926 1.515918
Zn -13.718560 4.595311 7.627147
Zn -10.662945 4.595311 4.571532
Zn -13.718560 7.650926 4.571532
Zn -10.662945 7.650926 7.627147
Zn -10.662945 4.595311 10.682761
Zn -13.718560 10.706541 1.515918
Zn -10.662945 10.706541 -1.539697
Zn -10.662945 13.762155 1.515918
Zn -10.662945 10.706541 4.571532
Zn -4.551716 -10.682761 -10.706541
Zn -7.607331 -13.738376 -4.595311
Zn -4.551716 -13.738376 -7.650926
Zn -7.607331 -10.682761 -7.650926
Zn -4.551716 -10.682761 -4.595311
Zn -7.607331 -13.738376 1.515918
Zn -4.551716 -13.738376 -1.539697
Zn -7.607331 -10.682761 -1.539697
Zn -4.551716 -10.682761 1.515918
Zn -4.551716 -13.738376 4.571532
Zn -7.607331 -10.682761 4.571532
Zn -4.551716 -10.682761 7.627147
Zn -7.607331 -7.627147 -10.706541
Zn -4.551716 -7.627147 -13.762155
Zn -7.607331 -4.571532 -13.762155
Zn -4.551716 -4.571532 -10.706541
Zn -7.607331 -7.627147 -4.595311
Zn -4.551716 -7.627147 -7.650926
Zn -7.607331 -4.571532 -7.650926
Zn -4.551716 -4.571532 -4.595311
Zn -7.607331 -7.627147 1.515918
Zn -4.551716 -7.627147 -1.539697
Zn -7.607331 -4.571532 -1.539697
Zn -4.551716 -4.571532 1.515918
Zn -7.607331 -7.627147 7.627147
Zn -4.551716 -7.627147 4.571532
Zn -7.607331 -4.571532 4.571532
Zn -4.551716 -4.571532 7.627147
Zn -4.551716 -7.627147 10.682761
Zn -7.607331 -4.571532 10.682761
Zn -4.551716 -4.571532 13.738376
Zn -7.607331 -1.515918 -10.706541
Zn -4.551716 -1.515918 -13.762155
Zn -7.607331 1.539697 -13.762155
Zn -4.551716 1.539697 -10.706541
Zn -7.607331 -1.515918 -4.595311
Zn -4.551716 -1.515918 -7.650926
Zn -7.607331 1.539697 -7.650926
Zn -4.551716 1.539697 -4.595311
Zn -7.607331 -1.515918 1.515918
Zn -4.551716 -1.515918 -1.539697
Zn -7.607331 1.539697 -1.539697
Zn -4.551716 1.539697 1.515918
Zn -7.607331 -1.515918 7.627147
Zn -4.551716 -1.515918 4.571532
Zn -7.607331 1.539697 4.571532
Zn -4.551716 1.539697 7.627147
Zn -7.607331 -1.515918 13.738376
Zn -4.551716 -1.515918 10.682761
Zn -7.607331 1.539697 10.682761
Zn -4.551716 1.539697 13.738376
Zn -7.607331 4.595311 -10.706541
Zn -4.551716 4.595311 -13.762155
Zn -4.551716 7.650926 -10.706541
Zn -7.607331 4.595311 -4.595311
Zn -4.551716 4.595311 -7.650926
Zn -7.607331 7.650926 -7.650926
Zn -4.551716 7.650926 -4.595311
Zn -7.607331 4.595311 1.515918
Zn -4.551716 4.595311 -1.539697
Zn -7.607331 7.650926 -1.539697
Zn -4.551716 7.650926 1.515918
Zn -7.607331 4.595311 7.627147
Zn -4.551716 4.595311 4.571532
Zn -7.607331 7.650926 4.571532
Zn -4.551716 7.650926 7.627147
Zn -7.607331 4.595311 13.738376
Zn -4.551716 4.595311 10.682761
Zn -7.607331 7.650926 10.682761
Zn -4.551716 7.650926 13.738376
Zn -7.607331 10.706541 -4.595311
Zn -4.551716 10.706541 -7.650926
Zn -4.551716 13.762155 -4.595311
Zn -7.607331 10.706541 1.515918
Zn -4.551716 10.706541 -1.539697
Zn -7.607331 13.762155 -1.539697
Zn -4.551716 13.762155 1.515918
Zn -7.607331 10.706541 7.627147
Zn -4.551716 10.706541 4.571532
Zn -7.607331 13.762155 4.571532
Zn -4.551716 13.762155 7.627147
Zn -4.551716 10.706541 10.682761
Zn -1.496102 -13.738376 -10.706541
Zn -1.496102 -10.682761 -13.762155
Zn 1.559513 -10.682761 -10.706541
Zn -1.496102 -13.738376 -4.595311
Zn 1.559513 -13.738376 -7.650926
Zn -1.496102 -10.682761 -7.650926
Zn 1.559513 -10.682761 -4.595311
Zn -1.496102 -13.738376 1.515918
Zn 1.559513 -13.738376 -1.539697
Zn -1.496102 -10.682761 -1.539697
Zn 1.559513 -10.682761 1.515918
Zn -1.496102 -13.738376 7.627147
Zn 1.559513 -13.738376 4.571532
Zn -1.496102 -10.682761 4.571532
Zn 1.559513 -10.682761 7.627147
Zn 1.559513 -13.738376 10.682761
Zn -1.496102 -10.682761 10.682761
Zn 1.559513 -10.682761 13.738376
Zn -1.496102 -7.627147 -10.706541
Zn 1.559513 -7.627147 -13.762155
Zn -1.496102 -4.571532 -13.762155
Zn 1.559513 -4.571532 -10.706541
Zn -1.496102 -7.627147 -4.595311
Zn 1.559513 -7.627147 -7.650926
Zn -1.496102 -4.571532 -7.650926
Zn 1.559513 -4.571532 -4.595311
Zn -1.496102 -7.627147 1.515918
Zn 1.559513 -7.627147 -1.539697
Zn -1.496102 -4.571532 -1.539697
Zn 1.559513 -4.571532 1.515918
Zn -1.496102 -7.627147 7.627147
Zn 1.559513 -7.627147 4.571532
Zn -1.496102 -4.571532 4.571532
Zn 1.559513 -4.571532 7.627147
Zn -1.496102 -7.627147 13.738376
Zn 1.559513 -7.627147 10.682761
Zn -1.496102 -4.571532 10.682761
Zn 1.559513 -4.571532 13.738376
Zn -1.496102 -1.515918 -10.706541
Zn 1.559513 -1.515918 -13.762155
Zn -1.496102 1.539697 -13.762155
Zn 1.559513 1.539697 -10.706541
Zn -1.496102 -1.515918 -4.595311
Zn 1.559513 -1.515918 -7.650926
Zn -1.496102 1.539697 -7.650926
Zn 1.559513 1.539697 -4.595311
Zn -1.496102 -1.515918 1.515918
Zn 1.559513 -1.515918 -1.539697
Zn -1.496102 1.539697 -1.539697
Zn 1.559513 1.539697 1.515918
Zn -1.496102 -1.515918 7.627147
Zn 1.559513 -1.515918 4.571532
Zn -1.496102 1.539697 4.571532
Zn 1.559513 1.539697 7.627147
Zn -1.496102 -1.515918 13.738376
Zn 1.559513 -1.515918 10.682761
Zn -1.496102 1.539697 10.682761
Zn 1.559513 1.539697 13.738376
Zn -1.496102 4.595311 -10.706541
Zn 1.559513 4.595311 -13.762155
Zn -1.496102 7.650926 -13.762155
Zn 1.559513 7.650926 -10.706541
Zn -1.496102 4.595311 -4.595311
Zn 1.559513 4.595311 -7.650926
Zn -1.496102 7.650926 -7.650926
Zn 1.559513 7.650926 -4.595311
Zn -1.496102 4.595311 1.515918
Zn 1.559513 4.595311 -1.539697
Zn -1.496102 7.650926 -1.539697
Zn 1.559513 7.650926 1.515918
Zn -1.496102 4.595311 7.627147
Zn 1.559513 4.595311 4.571532
Zn -1.496102 7.650926 4.571532
Zn 1.559513 7.650926 7.627147
Zn -1.496102 4.595311 13.738376
Zn 1.559513 4.595311 10.682761
Zn -1.496102 7.650926 10.682761
Zn 1.559513 7.650926 13.738376
Zn -1.496102 10.706541 -10.706541
Zn 1.559513 10.706541 -13.762155
Zn 1.559513 13.762155 -10.706541
Zn -1.496102 10.706541 -4.595311
Zn 1.559513 10.706541 -7.650926
Zn -1.496102 13.762155 -7.650926
Zn 1.559513 13.762155 -4.595311
Zn -1.496102 10.706541 1.515918
Zn 1.559513 10.706541 -1.539697
Zn -1.496102 13.762155 -1.539697
Zn 1.559513 13.762155 1.515918
Zn -1.496102 10.706541 7.627147
Zn 1.559513 10.706541 4.571532
Zn -1.496102 13.762155 4.571532
Zn 1.559513 13.762155 7.627147
Zn -1.496102 10.706541 13.738376
Zn 1.559513 10.706541 10.682761
Zn -1.496102 13.762155 10.682761
Zn 4.615127 -13.738376 -4.595311
Zn 4.615127 -10.682761 -7.650926
Zn 7.670742 -10.682761 -4.595311
Zn 4.615127 -13.738376 1.515918
Zn 7.670742 -13.738376 -1.539697
Zn 4.615127 -10.682761 -1.539697
Zn 7.670742 -10.682761 1.515918
Zn 4.615127 -13.738376 7.627147
Zn 7.670742 -13.738376 4.571532
Zn 4.615127 -10.682761 4.571532
Zn 7.670742 -10.682761 7.627147
Zn 4.615127 -10.682761 10.682761
Zn 4.615127 -7.627147 -10.706541
Zn 4.615127 -4.571532 -13.762155
Zn 7.670742 -4.571532 -10.706541
Zn 4.615127 -7.627147 -4.595311
Zn 7.670742 -7.627147 -7.650926
Zn 4.615127 -4.571532 -7.650926
Zn 7.670742 -4.571532 -4.595311
Zn 4.615127 -7.627147 1.515918
Zn 7.670742 -7.627147 -1.539697
Zn 4.615127 -4.571532 -1.539697
Zn 7.670742 -4.571532 1.515918
Zn 4.615127 -7.627147 7.627147
Zn 7.670742 -7.627147 4.571532
Zn 4.615127 -4.571532 4.571532
Zn 7.670742 -4.571532 7.627147
Zn 4.615127 -7.627147 13.738376
Zn 7.670742 -7.627147 10.682761
Zn 4.615127 -4.571532 10.682761
Zn 7.670742 -4.571532 13.738376
Zn 4.615127 -1.515918 -10.706541
Zn 7.670742 -1.515918 -13.762155
Zn 4.615127 1.539697 -13.762155
Zn 7.670742 1.539697 -10.706541
Zn 4.615127 -1.515918 -4.595311
Zn 7.670742 -1.515918 -7.650926
Zn 4.615127 1.539697 -7.650926
Zn 7.670742 1.539697 -4.595311
Zn 4.615127 -1.515918 1.515918
Zn 7.670742 -1.515918 -1.539697
Zn 4.615127 1.539697 -1.539697
Zn 7.670742 1.539697 1.515918
Zn 4.615127 -1.515918 7.627147
Zn 7.670742 -1.515918 4.571532
Zn 4.615127 1.539697 4.571532
Zn 7.670742 1.539697 7.627147
Zn 4.615127 -1.515918 13.738376
Zn 7.670742 -1.515918 10.682761
Zn 4.615127 1.539697 10.682761
Zn 7.670742 1.539697 13.738376
Zn 4.615127 4.595311 -10.706541
Zn 7.670742 4.595311 -13.762155
Zn 4.615127 7.650926 -13.762155
Zn 7.670742 7.650926 -10.706541
Zn 4.615127 4.595311 -4.595311
Zn 7.670742 4.595311 -7.650926
Zn 4.615127 7.650926 -7.650926
Zn 7.670742 7.650926 -4.595311
Zn 4.615127 4.595311 1.515918
Zn 7.670742 4.595311 -1.539697
Zn 4.615127 7.650926 -1.539697
Zn 7.670742 7.650926 1.515918
Zn 4.615127 4.595311 7.627147
Zn 7.670742 4.595311 4.571532
Zn 4.615127 7.650926 4.571532
Zn 7.670742 7.650926 7.627147
Zn 4.615127 4.595311 13.738376
Zn 7.670742 4.595311 10.682761
Zn 4.615127 7.650926 10.682761
Zn 4.615127 10.706541 -10.706541
Zn 4.615127 10.706541 -4.595311
Zn 7.670742 10.706541 -7.650926
Zn 4.615127 13.762155 -7.650926
Zn 7.670742 13.762155 -4.595311
Zn 4.615127 10.706541 1.515918
Zn 7.670742 10.706541 -1.539697
Zn 4.615127 13.762155 -1.539697
Zn 7.670742 13.762155 1.515918
Zn 4.615127 10.706541 7.627147
Zn 7.670742 10.706541 4.571532
Zn 4.615127 13.762155 4.571532
Zn 10.726356 -13.738376 1.515918
Zn 10.726356 -10.682761 -1.539697
Zn 13.781971 -10.682761 1.515918
Zn 10.726356 -10.682761 4.571532
Zn 10.726356 -7.627147 -4.595311
Zn 10.726356 -4.571532 -7.650926
Zn 13.781971 -4.571532 -4.595311
Zn 10.726356 -7.627147 1.515918
Zn 13.781971 -7.627147 -1.539697
Zn 10.726356 -4.571532 -1.539697
Zn 13.781971 -4.571532 1.515918
Zn 10.726356 -7.627147 7.627147
Zn 13.781971 -7.627147 4.571532
Zn 10.726356 -4.571532 4.571532
Zn 13.781971 -4.571532 7.627147
Zn 10.726356 -4.571532 10.682761
Zn 10.726356 -1.515918 -10.706541
Zn 10.726356 1.539697 -13.762155
Zn 13.781971 1.539697 -10.706541
Zn 10.726356 -1.515918 -4.595311
Zn 13.781971 -1.515918 -7.650926
Zn 10.726356 1.539697 -7.650926
Zn 13.781971 1.539697 -4.595311
Zn 10.726356 -1.515918 1.515918
Zn 13.781971 -1.515918 -1.539697
Zn 10.726356 1.539697 -1.539697
Zn 13.781971 1.539697 1.515918
Zn 10.726356 -1.515918 7.627147
Zn 13.781971 -1.515918 4.571532
Zn 10.726356 1.539697 4.571532
Zn 13.781971 1.539697 7.627147
Zn 10.726356 -1.515918 13.738376
Zn 13.781971 -1.515918 10.682761
Zn 10.726356 1.539697 10.682761
Zn 10.726356 4.595311 -10.706541
Zn 10.726356 4.595311 -4.595311
Zn 13.781971 4.595311 -7.650926
Zn 10.726356 7.650926 -7.650926
Zn 13.781971 7.650926 -4.595311
Zn 10.726356 4.595311 1.515918
Zn 13.781971 4.595311 -1.539697
Zn 10.726356 7.650926 -1.539697
Zn 13.781971 7.650926 1.515918
Zn 10.726356 4.595311 7.627147
Zn 13.781971 4.595311 4.571532
Zn 10.726356 7.650926 4.571532
Zn 10.726356 10.706541 -4.595311
Zn 10.726356 10.706541 1.515918
Zn 13.781971 10.706541 -1.539697
Zn 10.726356 13.762155 -1.539697
Te -12.190753 -9.154954 -3.067504
Te -9.135138 -9.154954 -6.123119
Te -9.135138 -12.210569 -3.067504
Te -12.190753 -12.210569 -0.011890
Te -12.190753 -9.154954 3.043725
Te -9.135138 -9.154954 -0.011890
Te -9.135138 -12.210569 3.043725
Te -9.135138 -9.154954 6.099340
Te -12.190753 -3.043725 -9.178733
Te -9.135138 -3.043725 -12.234348
Te -9.135138 -6.099340 -9.178733
Te -12.190753 -6.099340 -6.123119
Te -12.190753 -3.043725 -3.067504
Te -9.135138 -3.043725 -6.123119
Te -9.135138 -6.099340 -3.067504
Te -12.190753 -6.099340 -0.011890
Te -12.190753 -3.043725 3.043725
Te -9.135138 -3.043725 -0.011890
Te -9.135138 -6.099340 3.043725
Te -12.190753 -6.099340 6.099340
Te -12.190753 -3.043725 9.154954
Te -9.135138 -3.043725 6.099340
Te -9.135138 -6.099340 9.154954
Te -9.135138 -3.043725 12.210569
Te -12.190753 0.011890 -12.234348
Te -12.190753 3.067504 -9.178733
Te -9.135138 3.067504 -12.234348
Te -9.135138 0.011890 -9.178733
Te -12.190753 0.011890 -6.123119
Te -12.190753 3.067504 -3.067504
Te -9.135138 3.067504 -6.123119
Te -9.135138 0.011890 -3.067504
Te -12.190753 0.011890 -0.011890
Te -12.190753 3.067504 3.043725
Te -9.135138 3.067504 -0.011890
Te -9.135138 0.011890 3.043725
Te -12.190753 0.011890 6.099340
Te -12.190753 3.067504 9.154954
Te -9.135138 3.067504 6.099340
Te -9.135138 0.011890 9.154954
Te -12.190753 0.011890 12.210569
Te -9.135138 3.067504 12.210569
Te -9.135138 6.123119 -9.178733
Te -12.190753 6.123119 -6.123119
Te -12.190753 9.178733 -3.067504
Te -9.135138 9.178733 -6.123119
Te -9.135138 6.123119 -3.067504
Te -12.190753 6.123119 -0.011890
Te -12.190753 9.178733 3.043725
Te -9.135138 9.178733 -0.011890
Te -9.135138 6.123119 3.043725
Te -12.190753 6.123119 6.099340
Te -9.135138 9.178733 6.099340
Te -9.135138 6.123119 9.154954
Te -9.135138 12.234348 -3.067504
Te -12.190753 12.234348 -0.011890
Te -9.135138 12.234348 3.043725
Te -6.079524 -9.154954 -9.178733
Te -3.023909 -9.154954 -12.234348
Te -3.023909 -12.210569 -9.178733
Te -6.079524 -12.210569 -6.123119
Te -6.079524 -9.154954 -3.067504
Te -3.023909 -9.154954 -6.123119
Te -3.023909 -12.210569 -3.067504
Te -6.079524 -12.210569 -0.011890
Te -6.079524 -9.154954 3.043725
Te -3.023909 -9.154954 -0.011890
Te -3.023909 -12.210569 3.043725
Te -6.079524 -12.210569 6.099340
Te -6.079524 -9.154954 9.154954
Te -3.023909 -9.154954 6.099340
Te -3.023909 -12.210569 9.154954
Te -3.023909 -9.154954 12.210569
Te -6.079524 -6.099340 -12.234348
Te -6.079524 -3.043725 -9.178733
Te -3.023909 -3.043725 -12.234348
Te -3.023909 -6.099340 -9.178733
Te -6.079524 -6.099340 -6.123119
Te -6.079524 -3.043725 -3.067504
Te -3.023909 -3.043725 -6.123119
Te -3.023909 -6.099340 -3.067504
Te -6.079524 -6.099340 -0.011890
Te -6.079524 -3.043725 3.043725
Te -3.023909 -3.043725 -0.011890
Te -3.023909 -6.099340 3.043725
Te -6.079524 -6.099340 6.099340
Te -6.079524 -3.043725 9.154954
Te -3.023909 -3.043725 6.099340
Te -3.023909 -6.099340 9.154954
Te -6.079524 -6.099340 12.210569
Te -3.023909 -3.043725 12.210569
Te -6.079524 0.011890 -12.234348
Te -6.079524 3.067504 -9.178733
Te -3.023909 3.067504 -12.234348
Te -3.023909 0.011890 -9.178733
Te -6.079524 0.011890 -6.123119
Te -6.079524 3.067504 -3.067504
Te -3.023909 3.067504 -6.123119
Te -3.023909 0.011890 -3.067504
Te -6.079524 0.011890 -0.011890
Te -6.079524 3.067504 3.043725
Te -3.023909 3.067504 -0.011890
Te -3.023909 0.011890 3.043725
Te -6.079524 0.011890 6.099340
Te -6.079524 3.067504 9.154954
Te -3.023909 3.067504 6.099340
Te -3.023909 0.011890 9.154954
Te -6.079524 0.011890 12.210569
Te -3.023909 3.067504 12.210569
Te -6.079524 6.123119 -12.234348
Te -6.079524 9.178733 -9.178733
Te -3.023909 9.178733 -12.234348
Te -3.023909 6.123119 -9.178733
Te -6.079524 6.123119 -6.123119
Te -6.079524 9.178733 -3.067504
Te -3.023909 9.178733 -6.123119
Te -3.023909 6.123119 -3.067504
Te -6.079524 6.123119 -0.011890
Te -6.079524 9.178733 3.043725
Te -3.023909 9.178733 -0.011890
Te -3.023909 6.123119 3.043725
Te -6.079524 6.123119 6.099340
Te -6.079524 9.178733 9.154954
Te -3.023909 9.178733 6.099340
Te -3.023909 6.123119 9.154954
Te -6.079524 6.123119 12.210569
Te -3.023909 9.178733 12.210569
Te -3.023909 12.234348 -9.178733
Te -6.079524 12.234348 -6.123119
Te -3.023909 12.234348 -3.067504
Te -6.079524 12.234348 -0.011890
Te -3.023909 12.234348 3.043725
Te -6.079524 12.234348 6.099340
Te -3.023909 12.234348 9.154954
Te 0.031705 -12.210569 -12.234348
Te 0.031705 -9.154954 -9.178733
Te 3.087320 -9.154954 -12.234348
Te 3.087320 -12.210569 -9.178733
Te 0.031705 -12.210569 -6.123119
Te 0.031705 -9.154954 -3.067504
Te 3.087320 -9.154954 -6.123119
Te 3.087320 -12.210569 -3.067504
Te 0.031705 -12.210569 -0.011890
Te 0.031705 -9.154954 3.043725
Te 3.087320 -9.154954 -0.011890
Te 3.087320 -12.210569 3.043725
Te 0.031705 -12.210569 6.099340
Te 0.031705 -9.154954 9.154954
Te 3.087320 -9.154954 6.099340
Te 3.087320 -12.210569 9.154954
Te 0.031705 -12.210569 12.210569
Te 3.087320 -9.154954 12.210569
Te 0.031705 -6.099340 -12.234348
Te 0.031705 -3.043725 -9.178733
Te 3.087320 -3.043725 -12.234348
Te 3.087320 -6.099340 -9.178733
Te 0.031705 -6.099340 -6.123119
Te 0.031705 -3.043725 -3.067504
Te 3.087320 -3.043725 -6.123119
Te 3.087320 -6.099340 -3.067504
Te 0.031705 -6.099340 -0.011890
Te 0.031705 -3.043725 3.043725
Te 3.087320 -3.043725 -0.011890
Te 3.087320 -6.099340 3.043725
Te 0.031705 -6.099340 6.099340
Te 0.031705 -3.043725 9.154954
Te 3.087320 -3.043725 6.099340
Te 3.087320 -6.099340 9.154954
Te 0.031705 -6.099340 12.210569
Te 3.087320 -3.043725 12.210569
Te 0.031705 0.011890 -12.234348
Te 0.031705 3.067504 -9.178733
Te 3.087320 3.067504 -12.234348
Te 3.087320 0.011890 -9.178733
Te 0.031705 0.011890 -6.123119
Te 0.031705 3.067504 -3.067504
Te 3.087320 3.067504 -6.123119
Te 3.087320 0.011890 -3.067504
Te 0.031705 0.011890 -0.011890
Te 0.031705 3.067504 3.043725
Te 3.087320 3.067504 -0.011890
Te 3.087320 0.011890 3.043725
Te 0.031705 0.011890 6.099340
Te 0.031705 3.067504 9.154954
Te 3.087320 3.067504 6.099340
Te 3.087320 0.011890 9.154954
Te 0.031705 0.011890 12.210569
Te 3.087320 3.067504 12.210569
Te 0.031705 6.123119 -12.234348
Te 0.031705 9.178733 -9.178733
Te 3.087320 9.178733 -12.234348
Te 3.087320 6.123119 -9.178733
Te 0.031705 6.123119 -6.123119
Te 0.031705 9.178733 -3.067504
Te 3.087320 9.178733 -6.123119
Te 3.087320 6.123119 -3.067504
Te 0.031705 6.123119 -0.011890
Te 0.031705 9.178733 3.043725
Te 3.087320 9.178733 -0.011890
Te 3.087320 6.123119 3.043725
Te 0.031705 6.123119 6.099340
Te 0.031705 9.178733 9.154954
Te 3.087320 9.178733 6.099340
Te 3.087320 6.123119 9.154954
Te 0.031705 6.123119 12.210569
Te 3.087320 9.178733 12.210569
Te 0.031705 12.234348 -12.234348
Te 3.087320 12.234348 -9.178733
Te 0.031705 12.234348 -6.123119
Te 3.087320 12.234348 -3.067504
Te 0.031705 12.234348 -0.011890
Te 3.087320 12.234348 3.043725
Te 0.031705 12.234348 6.099340
Te 3.087320 12.234348 9.154954
Te 0.031705 12.234348 12.210569
Te 6.142935 -9.154954 -9.178733
Te 6.142935 -12.210569 -6.123119
Te 6.142935 -9.154954 -3.067504
Te 9.198549 -9.154954 -6.123119
Te 9.198549 -12.210569 -3.067504
Te 6.142935 -12.210569 -0.011890
Te 6.142935 -9.154954 3.043725
Te 9.198549 -9.154954 -0.011890
Te 9.198549 -12.210569 3.043725
Te 6.142935 -12.210569 6.099340
Te 6.142935 -9.154954 9.154954
Te 9.198549 -9.154954 6.099340
Te 6.142935 -6.099340 -12.234348
Te 6.142935 -3.043725 -9.178733
Te 9.198549 -3.043725 -12.234348
Te 9.198549 -6.099340 -9.178733
Te 6.142935 -6.099340 -6.123119
Te 6.142935 -3.043725 -3.067504
Te 9.198549 -3.043725 -6.123119
Te 9.198549 -6.099340 -3.067504
Te 6.142935 -6.099340 -0.011890
Te 6.142935 -3.043725 3.043725
Te 9.198549 -3.043725 -0.011890
Te 9.198549 -6.099340 3.043725
Te 6.142935 -6.099340 6.099340
Te 6.142935 -3.043725 9.154954
Te 9.198549 -3.043725 6.099340
Te 9.198549 -6.099340 9.154954
Te 6.142935 -6.099340 12.210569
Te 9.198549 -3.043725 12.210569
Te 6.142935 0.011890 -12.234348
Te 6.142935 3.067504 -9.178733
Te 9.198549 3.067504 -12.234348
Te 9.198549 0.011890 -9.178733
Te 6.142935 0.011890 -6.123119
Te 6.142935 3.067504 -3.067504
Te 9.198549 3.067504 -6.123119
Te 9.198549 0.011890 -3.067504
Te 6.142935 0.011890 -0.011890
Te 6.142935 3.067504 3.043725
Te 9.198549 3.067504 -0.011890
Te 9.198549 0.011890 3.043725
Te 6.142935 0.011890 6.099340
Te 6.142935 3.067504 9.154954
Te 9.198549 3.067504 6.099340
Te 9.198549 0.011890 9.154954
Te 6.142935 0.011890 12.210569
Te 9.198549 3.067504 12.210569
Te 6.142935 6.123119 -12.234348
Te 6.142935 9.178733 -9.178733
Te 9.198549 6.123119 -9.178733
Te 6.142935 6.123119 -6.123119
Te 6.142935 9.178733 -3.067504
Te 9.198549 9.178733 -6.123119
Te 9.198549 6.123119 -3.067504
Te 6.142935 6.123119 -0.011890
Te 6.142935 9.178733 3.043725
Te 9.198549 9.178733 -0.011890
Te 9.198549 6.123119 3.043725
Te 6.142935 6.123119 6.099340
Te 6.142935 9.178733 9.154954
Te 9.198549 9.178733 6.099340
Te 9.198549 6.123119 9.154954
Te 6.142935 6.123119 12.210569
Te 6.142935 12.234348 -6.123119
Te 9.198549 12.234348 -3.067504
Te 6.142935 12.234348 -0.011890
Te 9.198549 12.234348 3.043725
Te 6.142935 12.234348 6.099340
Te 12.254164 -9.154954 -3.067504
Te 12.254164 -12.210569 -0.011890
Te 12.254164 -9.154954 3.043725
Te 12.254164 -3.043725 -9.178733
Te 12.254164 -6.099340 -6.123119
Te 12.254164 -3.043725 -3.067504
Te 12.254164 -6.099340 -0.011890
Te 12.254164 -3.043725 3.043725
Te 12.254164 -6.099340 6.099340
Te 12.254164 -3.043725 9.154954
Te 12.254164 0.011890 -12.234348
Te 12.254164 3.067504 -9.178733
Te 12.254164 0.011890 -6.123119
Te 12.254164 3.067504 -3.067504
Te 12.254164 0.011890 -0.011890
Te 12.254164 3.067504 3.043725
Te 12.254164 0.011890 6.099340
Te 12.254164 3.067504 9.154954
Te 12.254164 0.011890 12.210569
Te 12.254164 6.123119 -6.123119
Te 12.254164 9.178733 -3.067504
Te 12.254164 6.123119 -0.011890
Te 12.254164 9.178733 3.043725
Te 12.254164 6.123119 6.099340
Te 12.254164 12.234348 -0.011890
Cl -15.246367 -9.154954 -0.011890
Cl -15.246367 -3.043725 -6.123119
Cl -15.246367 -6.099340 -3.067504
Cl -15.246367 -3.043725 -0.011890
Cl -15.246367 -6.099340 3.043725
Cl -15.246367 -3.043725 6.099340
Cl -15.246367 0.011890 -9.178733
Cl -15.246367 3.067504 -6.123119
Cl -15.246367 0.011890 -3.067504
Cl -15.246367 3.067504 -0.011890
Cl -15.246367 0.011890 3.043725
Cl -15.246367 3.067504 6.099340
Cl -15.246367 0.011890 9.154954
Cl -15.246367 6.123119 -3.067504
Cl -15.246367 9.178733 -0.011890
Cl -15.246367 6.123119 3.043725
Cl -9.135138 -15.266183 -0.011890
Cl -9.135138 0.011890 -15.289962
Cl -9.135138 0.011890 15.266183
Cl -9.135138 15.289962 -0.011890
Cl -6.079524 -15.266183 -3.067504
Cl -3.023909 -15.266183 -6.123119
Cl -6.079524 -15.266183 3.043725
Cl -3.023909 -15.266183 -0.011890
Cl -3.023909 -15.266183 6.099340
Cl -6.079524 -3.043725 -15.289962
Cl -3.023909 -6.099340 -15.289962
Cl -6.079524 -3.043725 15.266183
Cl -3.023909 -6.099340 15.266183
Cl -6.079524 3.067504 -15.289962
Cl -3.023909 0.011890 -15.289962
Cl -6.079524 3.067504 15.266183
Cl -3.023909 0.011890 15.266183
Cl -3.023909 6.123119 -15.289962
Cl -3.023909 6.123119 15.266183
Cl -6.079524 15.289962 -3.067504
Cl -3.023909 15.289962 -6.123119
Cl -6.079524 15.289962 3.043725
Cl -3.023909 15.289962 -0.011890
Cl -3.023909 15.289962 6.099340
Cl 0.031705 -15.266183 -9.178733
Cl 0.031705 -15.266183 -3.067504
Cl 3.087320 -15.266183 -6.123119
Cl 0.031705 -15.266183 3.043725
Cl 3.087320 -15.266183 -0.011890
Cl 0.031705 -15.266183 9.154954
Cl 3.087320 -15.266183 6.099340
Cl 0.031705 -9.154954 -15.289962
Cl 0.031705 -9.154954 15.266183
Cl 0.031705 -3.043725 -15.289962
Cl 3.087320 -6.099340 -15.289962
Cl 0.031705 -3.043725 15.266183
Cl 3.087320 -6.099340 15.266183
Cl 0.031705 3.067504 -15.289962
Cl 3.087320 0.011890 -15.289962
Cl 0.031705 3.067504 15.266183
Cl 3.087320 0.011890 15.266183
Cl 0.031705 9.178733 -15.289962
Cl 3.087320 6.123119 -15.289962
Cl 0.031705 9.178733 15.266183
Cl 3.087320 6.123119 15.266183
Cl 0.031705 15.289962 -9.178733
Cl 0.031705 15.289962 -3.067504
Cl 3.087320 15.289962 -6.123119
Cl 0.031705 15.289962 3.043725
Cl 3.087320 15.289962 -0.011890
Cl 0.031705 15.289962 9.154954
Cl 3.087320 15.289962 6.099340
Cl 6.142935 -15.266183 -3.067504
Cl 6.142935 -15.266183 3.043725
Cl 9.198549 -15.266183 -0.011890
Cl 6.142935 -3.043725 -15.289962
Cl 6.142935 -3.043725 15.266183
Cl 6.142935 3.067504 -15.289962
Cl 9.198549 0.011890 -15.289962
Cl 6.142935 3.067504 15.266183
Cl 9.198549 0.011890 15.266183
Cl 6.142935 15.289962 -3.067504
Cl 6.142935 15.289962 3.043725
Cl 9.198549 15.289962 -0.011890
Cl 15.309778 -9.154954 -0.011890
Cl 15.309778 -3.043725 -6.123119
Cl 15.309778 -6.099340 -3.067504
Cl 15.309778 -3.043725 -0.011890
Cl 15.309778 -6.099340 3.043725
Cl 15.309778 -3.043725 6.099340
Cl 15.309778 0.011890 -9.178733
Cl 15.309778 3.067504 -6.123119
Cl 15.309778 0.011890 -3.067504
Cl 15.309778 3.067504 -0.011890
Cl 15.309778 0.011890 3.043725
Cl 15.309778 3.067504 6.099340
Cl 15.309778 0.011890 9.154954
Cl 15.309778 6.123119 -3.067504
Cl 15.309778 9.178733 -0.011890
Cl 15.309778 6.123119 3.043725
Cl -9.135138 -9.154954 -9.178733
Cl -9.135138 9.178733 9.154954
Cl 9.198549 -9.154954 9.154954
Cl 9.198549 9.178733 -9.178733
Cl -12.190753 -12.210569 -3.067504
Cl -12.190753 3.067504 12.210569
