2274
InP-P-In1000P863Cl411-clean
In -22.148910 -16.251448 -13.298173
In -22.148910 -13.299471 -16.250150
In -22.148910 -10.347495 -13.298173
In -22.148910 -13.299471 -10.346197
In -22.148910 -10.347495 -7.394221
In -22.148910 -7.395519 -10.346197
In -22.148910 -4.443542 -7.394221
In -22.148910 -7.395519 -4.442244
In -22.148910 -4.443542 -1.490268
In -22.148910 -1.491566 -4.442244
In -22.148910 1.460410 -1.490268
In -22.148910 -1.491566 1.461709
In -22.148910 1.460410 4.413685
In -22.148910 4.412387 1.461709
In -22.148910 7.364363 4.413685
In -22.148910 4.412387 7.365661
In -22.148910 7.364363 10.317638
In -22.148910 10.316340 7.365661
In -22.148910 13.268316 10.317638
In -22.148910 10.316340 13.269614
In -22.148910 13.268316 16.221591
In -22.148910 16.220292 13.269614
In -16.244957 -22.155401 -13.298173
In -16.244957 -16.251448 -19.202126
In -16.244957 -19.203424 -16.250150
In -19.196934 -16.251448 -16.250150
In -19.196934 -19.203424 -13.298173
In -16.244957 -16.251448 -13.298173
In -16.244957 -19.203424 -10.346197
In -19.196934 -16.251448 -10.346197
In -16.244957 -16.251448 -7.394221
In -16.244957 -13.299471 -22.154102
In -19.196934 -13.299471 -19.202126
In -16.244957 -10.347495 -19.202126
In -16.244957 -13.299471 -16.250150
In -19.196934 -10.347495 -16.250150
In -19.196934 -13.299471 -13.298173
In -16.244957 -10.347495 -13.298173
In -16.244957 -13.299471 -10.346197
In -19.196934 -10.347495 -10.346197
In -19.196934 -13.299471 -7.394221
In -16.244957 -10.347495 -7.394221
In -16.244957 -13.299471 -4.442244
In -19.196934 -10.347495 -4.442244
In -16.244957 -10.347495 -1.490268
In -16.244957 -7.395519 -16.250150
In -19.196934 -7.395519 -13.298173
In -16.244957 -4.443542 -13.298173
In -16.244957 -7.395519 -10.346197
In -19.196934 -4.443542 -10.346197
In -19.196934 -7.395519 -7.394221
In -16.244957 -4.443542 -7.394221
In -16.244957 -7.395519 -4.442244
In -19.196934 -4.443542 -4.442244
In -19.196934 -7.395519 -1.490268
In -16.244957 -4.443542 -1.490268
In -16.244957 -7.395519 1.461709
In -19.196934 -4.443542 1.461709
In -16.244957 -4.443542 4.413685
In -16.244957 -1.491566 -10.346197
In -19.196934 -1.491566 -7.394221
In -16.244957 1.460410 -7.394221
In -16.244957 -1.491566 -4.442244
In -19.196934 1.460410 -4.442244
In -19.196934 -1.491566 -1.490268
In -16.244957 1.460410 -1.490268
In -16.244957 -1.491566 1.461709
In -19.196934 1.460410 1.461709
In -19.196934 -1.491566 4.413685
In -16.244957 1.460410 4.413685
In -16.244957 -1.491566 7.365661
In -19.196934 1.460410 7.365661
In -16.244957 1.460410 10.317638
In -16.244957 4.412387 -4.442244
In -19.196934 4.412387 -1.490268
In -16.244957 7.364363 -1.490268
In -16.244957 4.412387 1.461709
In -19.196934 7.364363 1.461709
In -19.196934 4.412387 4.413685
In -16.244957 7.364363 4.413685
In -16.244957 4.412387 7.365661
In -19.196934 7.364363 7.365661
In -19.196934 4.412387 10.317638
In -16.244957 7.364363 10.317638
In -16.244957 4.412387 13.269614
In -19.196934 7.364363 13.269614
In -16.244957 7.364363 16.221591
In -16.244957 10.316340 1.461709
In -19.196934 10.316340 4.413685
In -16.244957 13.268316 4.413685
In -16.244957 10.316340 7.365661
In -19.196934 13.268316 7.365661
In -19.196934 10.316340 10.317638
In -16.244957 13.268316 10.317638
In -16.244957 10.316340 13.269614
In -19.196934 13.268316 13.269614
In -19.196934 10.316340 16.221591
In -16.244957 13.268316 16.221591
In -16.244957 10.316340 19.173567
In -19.196934 13.268316 19.173567
In -16.244957 13.268316 22.125543
In -16.244957 16.220292 7.365661
In -19.196934 16.220292 10.317638
In -16.244957 19.172269 10.317638
In -16.244957 16.220292 13.269614
In -19.196934 19.172269 13.269614
In -19.196934 16.220292 16.221591
In -16.244957 19.172269 16.221591
In -16.244957 16.220292 19.173567
In -16.244957 22.124245 13.269614
In -13.292981 -22.155401 -16.250150
In -10.341004 -22.155401 -13.298173
In -13.292981 -22.155401 -10.346197
In -10.341004 -22.155401 -7.394221
In -13.292981 -16.251448 -22.154102
In -13.292981 -19.203424 -19.202126
In -10.341004 -16.251448 -19.202126
In -10.341004 -19.203424 -16.250150
In -13.292981 -16.251448 -16.250150
In -13.292981 -19.203424 -13.298173
In -10.341004 -16.251448 -13.298173
In -10.341004 -19.203424 -10.346197
In -13.292981 -16.251448 -10.346197
In -13.292981 -19.203424 -7.394221
In -10.341004 -16.251448 -7.394221
In -10.341004 -19.203424 -4.442244
In -13.292981 -16.251448 -4.442244
In -10.341004 -16.251448 -1.490268
In -10.341004 -13.299471 -22.154102
In -13.292981 -10.347495 -22.154102
In -13.292981 -13.299471 -19.202126
In -10.341004 -10.347495 -19.202126
In -10.341004 -13.299471 -16.250150
In -13.292981 -10.347495 -16.250150
In -13.292981 -13.299471 -13.298173
In -10.341004 -10.347495 -13.298173
In -10.341004 -13.299471 -10.346197
In -13.292981 -10.347495 -10.346197
In -13.292981 -13.299471 -7.394221
In -10.341004 -10.347495 -7.394221
In -10.341004 -13.299471 -4.442244
In -13.292981 -10.347495 -4.442244
In -13.292981 -13.299471 -1.490268
In -10.341004 -10.347495 -1.490268
In -10.341004 -13.299471 1.461709
In -13.292981 -10.347495 1.461709
In -10.341004 -10.347495 4.413685
In -10.341004 -7.395519 -22.154102
In -13.292981 -7.395519 -19.202126
In -10.341004 -4.443542 -19.202126
In -10.341004 -7.395519 -16.250150
In -13.292981 -4.443542 -16.250150
In -13.292981 -7.395519 -13.298173
In -10.341004 -4.443542 -13.298173
In -10.341004 -7.395519 -10.346197
In -13.292981 -4.443542 -10.346197
In -13.292981 -7.395519 -7.394221
In -10.341004 -4.443542 -7.394221
In -10.341004 -7.395519 -4.442244
In -13.292981 -4.443542 -4.442244
In -13.292981 -7.395519 -1.490268
In -10.341004 -4.443542 -1.490268
In -10.341004 -7.395519 1.461709
In -13.292981 -4.443542 1.461709
In -13.292981 -7.395519 4.413685
In -10.341004 -4.443542 4.413685
In -10.341004 -7.395519 7.365661
In -13.292981 -4.443542 7.365661
In -10.341004 -4.443542 10.317638
In -10.341004 -1.491566 -16.250150
In -13.292981 -1.491566 -13.298173
In -10.341004 1.460410 -13.298173
In -10.341004 -1.491566 -10.346197
In -13.292981 1.460410 -10.346197
In -13.292981 -1.491566 -7.394221
In -10.341004 1.460410 -7.394221
In -10.341004 -1.491566 -4.442244
In -13.292981 1.460410 -4.442244
In -13.292981 -1.491566 -1.490268
In -10.341004 1.460410 -1.490268
In -10.341004 -1.491566 1.461709
In -13.292981 1.460410 1.461709
In -13.292981 -1.491566 4.413685
In -10.341004 1.460410 4.413685
In -10.341004 -1.491566 7.365661
In -13.292981 1.460410 7.365661
In -13.292981 -1.491566 10.317638
In -10.341004 1.460410 10.317638
In -10.341004 -1.491566 13.269614
In -13.292981 1.460410 13.269614
In -10.341004 1.460410 16.221591
In -10.341004 4.412387 -10.346197
In -13.292981 4.412387 -7.394221
In -10.341004 7.364363 -7.394221
In -10.341004 4.412387 -4.442244
In -13.292981 7.364363 -4.442244
In -13.292981 4.412387 -1.490268
In -10.341004 7.364363 -1.490268
In -10.341004 4.412387 1.461709
In -13.292981 7.364363 1.461709
In -13.292981 4.412387 4.413685
In -10.341004 7.364363 4.413685
In -10.341004 4.412387 7.365661
In -13.292981 7.364363 7.365661
In -13.292981 4.412387 10.317638
In -10.341004 7.364363 10.317638
In -10.341004 4.412387 13.269614
In -13.292981 7.364363 13.269614
In -13.292981 4.412387 16.221591
In -10.341004 7.364363 16.221591
In -10.341004 4.412387 19.173567
In -13.292981 7.364363 19.173567
In -10.341004 7.364363 22.125543
In -10.341004 10.316340 -4.442244
In -13.292981 10.316340 -1.490268
In -10.341004 13.268316 -1.490268
In -10.341004 10.316340 1.461709
In -13.292981 13.268316 1.461709
In -13.292981 10.316340 4.413685
In -10.341004 13.268316 4.413685
In -10.341004 10.316340 7.365661
In -13.292981 13.268316 7.365661
In -13.292981 10.316340 10.317638
In -10.341004 13.268316 10.317638
In -10.341004 10.316340 13.269614
In -13.292981 13.268316 13.269614
In -13.292981 10.316340 16.221591
In -10.341004 13.268316 16.221591
In -10.341004 10.316340 19.173567
In -13.292981 13.268316 19.173567
In -13.292981 10.316340 22.125543
In -10.341004 13.268316 22.125543
In -10.341004 16.220292 1.461709
In -13.292981 16.220292 4.413685
In -10.341004 19.172269 4.413685
In -10.341004 16.220292 7.365661
In -13.292981 19.172269 7.365661
In -13.292981 16.220292 10.317638
In -10.341004 19.172269 10.317638
In -10.341004 16.220292 13.269614
In -13.292981 19.172269 13.269614
In -13.292981 16.220292 16.221591
In -10.341004 19.172269 16.221591
In -10.341004 16.220292 19.173567
In -13.292981 19.172269 19.173567
In -13.292981 16.220292 22.125543
In -10.341004 22.124245 7.365661
In -13.292981 22.124245 10.317638
In -10.341004 22.124245 13.269614
In -13.292981 22.124245 16.221591
In -7.389028 -22.155401 -10.346197
In -4.437052 -22.155401 -7.394221
In -7.389028 -22.155401 -4.442244
In -4.437052 -22.155401 -1.490268
In -7.389028 -16.251448 -16.250150
In -7.389028 -19.203424 -13.298173
In -4.437052 -16.251448 -13.298173
In -4.437052 -19.203424 -10.346197
In -7.389028 -16.251448 -10.346197
In -7.389028 -19.203424 -7.394221
In -4.437052 -16.251448 -7.394221
In -4.437052 -19.203424 -4.442244
In -7.389028 -16.251448 -4.442244
In -7.389028 -19.203424 -1.490268
In -4.437052 -16.251448 -1.490268
In -4.437052 -19.203424 1.461709
In -7.389028 -16.251448 1.461709
In -4.437052 -16.251448 4.413685
In -7.389028 -10.347495 -22.154102
In -7.389028 -13.299471 -19.202126
In -4.437052 -10.347495 -19.202126
In -4.437052 -13.299471 -16.250150
In -7.389028 -10.347495 -16.250150
In -7.389028 -13.299471 -13.298173
In -4.437052 -10.347495 -13.298173
In -4.437052 -13.299471 -10.346197
In -7.389028 -10.347495 -10.346197
In -7.389028 -13.299471 -7.394221
In -4.437052 -10.347495 -7.394221
In -4.437052 -13.299471 -4.442244
In -7.389028 -10.347495 -4.442244
In -7.389028 -13.299471 -1.490268
In -4.437052 -10.347495 -1.490268
In -4.437052 -13.299471 1.461709
In -7.389028 -10.347495 1.461709
In -7.389028 -13.299471 4.413685
In -4.437052 -10.347495 4.413685
In -4.437052 -13.299471 7.365661
In -7.389028 -10.347495 7.365661
In -4.437052 -10.347495 10.317638
In -4.437052 -7.395519 -22.154102
In -7.389028 -4.443542 -22.154102
In -7.389028 -7.395519 -19.202126
In -4.437052 -4.443542 -19.202126
In -4.437052 -7.395519 -16.250150
In -7.389028 -4.443542 -16.250150
In -7.389028 -7.395519 -13.298173
In -4.437052 -4.443542 -13.298173
In -4.437052 -7.395519 -10.346197
In -7.389028 -4.443542 -10.346197
In -7.389028 -7.395519 -7.394221
In -4.437052 -4.443542 -7.394221
In -4.437052 -7.395519 -4.442244
In -7.389028 -4.443542 -4.442244
In -7.389028 -7.395519 -1.490268
In -4.437052 -4.443542 -1.490268
In -4.437052 -7.395519 1.461709
In -7.389028 -4.443542 1.461709
In -7.389028 -7.395519 4.413685
In -4.437052 -4.443542 4.413685
In -4.437052 -7.395519 7.365661
In -7.389028 -4.443542 7.365661
In -7.389028 -7.395519 10.317638
In -4.437052 -4.443542 10.317638
In -4.437052 -7.395519 13.269614
In -7.389028 -4.443542 13.269614
In -4.437052 -4.443542 16.221591
In -4.437052 -1.491566 -22.154102
In -7.389028 -1.491566 -19.202126
In -4.437052 1.460410 -19.202126
In -4.437052 -1.491566 -16.250150
In -7.389028 1.460410 -16.250150
In -7.389028 -1.491566 -13.298173
In -4.437052 1.460410 -13.298173
In -4.437052 -1.491566 -10.346197
In -7.389028 1.460410 -10.346197
In -7.389028 -1.491566 -7.394221
In -4.437052 1.460410 -7.394221
In -4.437052 -1.491566 -4.442244
In -7.389028 1.460410 -4.442244
In -7.389028 -1.491566 -1.490268
In -4.437052 1.460410 -1.490268
In -4.437052 -1.491566 1.461709
In -7.389028 1.460410 1.461709
In -7.389028 -1.491566 4.413685
In -4.437052 1.460410 4.413685
In -4.437052 -1.491566 7.365661
In -7.389028 1.460410 7.365661
In -7.389028 -1.491566 10.317638
In -4.437052 1.460410 10.317638
In -4.437052 -1.491566 13.269614
In -7.389028 1.460410 13.269614
In -7.389028 -1.491566 16.221591
In -4.437052 1.460410 16.221591
In -4.437052 -1.491566 19.173567
In -7.389028 1.460410 19.173567
In -4.437052 1.460410 22.125543
In -4.437052 4.412387 -16.250150
In -7.389028 4.412387 -13.298173
In -4.437052 7.364363 -13.298173
In -4.437052 4.412387 -10.346197
In -7.389028 7.364363 -10.346197
In -7.389028 4.412387 -7.394221
In -4.437052 7.364363 -7.394221
In -4.437052 4.412387 -4.442244
In -7.389028 7.364363 -4.442244
In -7.389028 4.412387 -1.490268
In -4.437052 7.364363 -1.490268
In -4.437052 4.412387 1.461709
In -7.389028 7.364363 1.461709
In -7.389028 4.412387 4.413685
In -4.437052 7.364363 4.413685
In -4.437052 4.412387 7.365661
In -7.389028 7.364363 7.365661
In -7.389028 4.412387 10.317638
In -4.437052 7.364363 10.317638
In -4.437052 4.412387 13.269614
In -7.389028 7.364363 13.269614
In -7.389028 4.412387 16.221591
In -4.437052 7.364363 16.221591
In -4.437052 4.412387 19.173567
In -7.389028 7.364363 19.173567
In -7.389028 4.412387 22.125543
In -4.437052 7.364363 22.125543
In -4.437052 10.316340 -10.346197
In -7.389028 10.316340 -7.394221
In -4.437052 13.268316 -7.394221
In -4.437052 10.316340 -4.442244
In -7.389028 13.268316 -4.442244
In -7.389028 10.316340 -1.490268
In -4.437052 13.268316 -1.490268
In -4.437052 10.316340 1.461709
In -7.389028 13.268316 1.461709
In -7.389028 10.316340 4.413685
In -4.437052 13.268316 4.413685
In -4.437052 10.316340 7.365661
In -7.389028 13.268316 7.365661
In -7.389028 10.316340 10.317638
In -4.437052 13.268316 10.317638
In -4.437052 10.316340 13.269614
In -7.389028 13.268316 13.269614
In -7.389028 10.316340 16.221591
In -4.437052 13.268316 16.221591
In -4.437052 10.316340 19.173567
In -7.389028 13.268316 19.173567
In -7.389028 10.316340 22.125543
In -4.437052 16.220292 -4.442244
In -7.389028 16.220292 -1.490268
In -4.437052 19.172269 -1.490268
In -4.437052 16.220292 1.461709
In -7.389028 19.172269 1.461709
In -7.389028 16.220292 4.413685
In -4.437052 19.172269 4.413685
In -4.437052 16.220292 7.365661
In -7.389028 19.172269 7.365661
In -7.389028 16.220292 10.317638
In -4.437052 19.172269 10.317638
In -4.437052 16.220292 13.269614
In -7.389028 19.172269 13.269614
In -7.389028 16.220292 16.221591
In -4.437052 22.124245 1.461709
In -7.389028 22.124245 4.413685
In -4.437052 22.124245 7.365661
In -7.389028 22.124245 10.317638
In -1.485075 -22.155401 -4.442244
In 1.466901 -22.155401 -1.490268
In -1.485075 -22.155401 1.461709
In 1.466901 -22.155401 4.413685
In -1.485075 -16.251448 -10.346197
In -1.485075 -19.203424 -7.394221
In 1.466901 -16.251448 -7.394221
In 1.466901 -19.203424 -4.442244
In -1.485075 -16.251448 -4.442244
In -1.485075 -19.203424 -1.490268
In 1.466901 -16.251448 -1.490268
In 1.466901 -19.203424 1.461709
In -1.485075 -16.251448 1.461709
In -1.485075 -19.203424 4.413685
In 1.466901 -16.251448 4.413685
In 1.466901 -19.203424 7.365661
In -1.485075 -16.251448 7.365661
In 1.466901 -16.251448 10.317638
In -1.485075 -10.347495 -16.250150
In -1.485075 -13.299471 -13.298173
In 1.466901 -10.347495 -13.298173
In 1.466901 -13.299471 -10.346197
In -1.485075 -10.347495 -10.346197
In -1.485075 -13.299471 -7.394221
In 1.466901 -10.347495 -7.394221
In 1.466901 -13.299471 -4.442244
In -1.485075 -10.347495 -4.442244
In -1.485075 -13.299471 -1.490268
In 1.466901 -10.347495 -1.490268
In 1.466901 -13.299471 1.461709
In -1.485075 -10.347495 1.461709
In -1.485075 -13.299471 4.413685
In 1.466901 -10.347495 4.413685
In 1.466901 -13.299471 7.365661
In -1.485075 -10.347495 7.365661
In -1.485075 -13.299471 10.317638
In 1.466901 -10.347495 10.317638
In 1.466901 -13.299471 13.269614
In -1.485075 -10.347495 13.269614
In 1.466901 -10.347495 16.221591
In -1.485075 -4.443542 -22.154102
In -1.485075 -7.395519 -19.202126
In 1.466901 -4.443542 -19.202126
In 1.466901 -7.395519 -16.250150
In -1.485075 -4.443542 -16.250150
In -1.485075 -7.395519 -13.298173
In 1.466901 -4.443542 -13.298173
In 1.466901 -7.395519 -10.346197
In -1.485075 -4.443542 -10.346197
In -1.485075 -7.395519 -7.394221
In 1.466901 -4.443542 -7.394221
In 1.466901 -7.395519 -4.442244
In -1.485075 -4.443542 -4.442244
In -1.485075 -7.395519 -1.490268
In 1.466901 -4.443542 -1.490268
In 1.466901 -7.395519 1.461709
In -1.485075 -4.443542 1.461709
In -1.485075 -7.395519 4.413685
In 1.466901 -4.443542 4.413685
In 1.466901 -7.395519 7.365661
In -1.485075 -4.443542 7.365661
In -1.485075 -7.395519 10.317638
In 1.466901 -4.443542 10.317638
In 1.466901 -7.395519 13.269614
In -1.485075 -4.443542 13.269614
In -1.485075 -7.395519 16.221591
In 1.466901 -4.443542 16.221591
In 1.466901 -7.395519 19.173567
In -1.485075 -4.443542 19.173567
In 1.466901 -4.443542 22.125543
In 1.466901 -1.491566 -22.154102
In -1.485075 1.460410 -22.154102
In -1.485075 -1.491566 -19.202126
In 1.466901 1.460410 -19.202126
In 1.466901 -1.491566 -16.250150
In -1.485075 1.460410 -16.250150
In -1.485075 -1.491566 -13.298173
In 1.466901 1.460410 -13.298173
In 1.466901 -1.491566 -10.346197
In -1.485075 1.460410 -10.346197
In -1.485075 -1.491566 -7.394221
In 1.466901 1.460410 -7.394221
In 1.466901 -1.491566 -4.442244
In -1.485075 1.460410 -4.442244
In -1.485075 -1.491566 -1.490268
In 1.466901 1.460410 -1.490268
In 1.466901 -1.491566 1.461709
In -1.485075 1.460410 1.461709
In -1.485075 -1.491566 4.413685
In 1.466901 1.460410 4.413685
In 1.466901 -1.491566 7.365661
In -1.485075 1.460410 7.365661
In -1.485075 -1.491566 10.317638
In 1.466901 1.460410 10.317638
In 1.466901 -1.491566 13.269614
In -1.485075 1.460410 13.269614
In -1.485075 -1.491566 16.221591
In 1.466901 1.460410 16.221591
In 1.466901 -1.491566 19.173567
In -1.485075 1.460410 19.173567
In -1.485075 -1.491566 22.125543
In 1.466901 1.460410 22.125543
In 1.466901 4.412387 -22.154102
In -1.485075 4.412387 -19.202126
In 1.466901 7.364363 -19.202126
In 1.466901 4.412387 -16.250150
In -1.485075 7.364363 -16.250150
In -1.485075 4.412387 -13.298173
In 1.466901 7.364363 -13.298173
In 1.466901 4.412387 -10.346197
In -1.485075 7.364363 -10.346197
In -1.485075 4.412387 -7.394221
In 1.466901 7.364363 -7.394221
In 1.466901 4.412387 -4.442244
In -1.485075 7.364363 -4.442244
In -1.485075 4.412387 -1.490268
In 1.466901 7.364363 -1.490268
In 1.466901 4.412387 1.461709
In -1.485075 7.364363 1.461709
In -1.485075 4.412387 4.413685
In 1.466901 7.364363 4.413685
In 1.466901 4.412387 7.365661
In -1.485075 7.364363 7.365661
In -1.485075 4.412387 10.317638
In 1.466901 7.364363 10.317638
In 1.466901 4.412387 13.269614
In -1.485075 7.364363 13.269614
In -1.485075 4.412387 16.221591
In 1.466901 7.364363 16.221591
In 1.466901 4.412387 19.173567
In -1.485075 7.364363 19.173567
In -1.485075 4.412387 22.125543
In 1.466901 10.316340 -16.250150
In -1.485075 10.316340 -13.298173
In 1.466901 13.268316 -13.298173
In 1.466901 10.316340 -10.346197
In -1.485075 13.268316 -10.346197
In -1.485075 10.316340 -7.394221
In 1.466901 13.268316 -7.394221
In 1.466901 10.316340 -4.442244
In -1.485075 13.268316 -4.442244
In -1.485075 10.316340 -1.490268
In 1.466901 13.268316 -1.490268
In 1.466901 10.316340 1.461709
In -1.485075 13.268316 1.461709
In -1.485075 10.316340 4.413685
In 1.466901 13.268316 4.413685
In 1.466901 10.316340 7.365661
In -1.485075 13.268316 7.365661
In -1.485075 10.316340 10.317638
In 1.466901 13.268316 10.317638
In 1.466901 10.316340 13.269614
In -1.485075 13.268316 13.269614
In -1.485075 10.316340 16.221591
In 1.466901 16.220292 -10.346197
In -1.485075 16.220292 -7.394221
In 1.466901 19.172269 -7.394221
In 1.466901 16.220292 -4.442244
In -1.485075 19.172269 -4.442244
In -1.485075 16.220292 -1.490268
In 1.466901 19.172269 -1.490268
In 1.466901 16.220292 1.461709
In -1.485075 19.172269 1.461709
In -1.485075 16.220292 4.413685
In 1.466901 19.172269 4.413685
In 1.466901 16.220292 7.365661
In -1.485075 19.172269 7.365661
In -1.485075 16.220292 10.317638
In 1.466901 22.124245 -4.442244
In -1.485075 22.124245 -1.490268
In 1.466901 22.124245 1.461709
In -1.485075 22.124245 4.413685
In 4.418878 -22.155401 1.461709
In 7.370854 -22.155401 4.413685
In 4.418878 -22.155401 7.365661
In 7.370854 -22.155401 10.317638
In 4.418878 -16.251448 -4.442244
In 4.418878 -19.203424 -1.490268
In 7.370854 -16.251448 -1.490268
In 7.370854 -19.203424 1.461709
In 4.418878 -16.251448 1.461709
In 4.418878 -19.203424 4.413685
In 7.370854 -16.251448 4.413685
In 7.370854 -19.203424 7.365661
In 4.418878 -16.251448 7.365661
In 4.418878 -19.203424 10.317638
In 7.370854 -16.251448 10.317638
In 7.370854 -19.203424 13.269614
In 4.418878 -16.251448 13.269614
In 7.370854 -16.251448 16.221591
In 4.418878 -10.347495 -10.346197
In 4.418878 -13.299471 -7.394221
In 7.370854 -10.347495 -7.394221
In 7.370854 -13.299471 -4.442244
In 4.418878 -10.347495 -4.442244
In 4.418878 -13.299471 -1.490268
In 7.370854 -10.347495 -1.490268
In 7.370854 -13.299471 1.461709
In 4.418878 -10.347495 1.461709
In 4.418878 -13.299471 4.413685
In 7.370854 -10.347495 4.413685
In 7.370854 -13.299471 7.365661
In 4.418878 -10.347495 7.365661
In 4.418878 -13.299471 10.317638
In 7.370854 -10.347495 10.317638
In 7.370854 -13.299471 13.269614
In 4.418878 -10.347495 13.269614
In 4.418878 -13.299471 16.221591
In 7.370854 -10.347495 16.221591
In 7.370854 -13.299471 19.173567
In 4.418878 -10.347495 19.173567
In 7.370854 -10.347495 22.125543
In 4.418878 -4.443542 -16.250150
In 4.418878 -7.395519 -13.298173
In 7.370854 -4.443542 -13.298173
In 7.370854 -7.395519 -10.346197
In 4.418878 -4.443542 -10.346197
In 4.418878 -7.395519 -7.394221
In 7.370854 -4.443542 -7.394221
In 7.370854 -7.395519 -4.442244
In 4.418878 -4.443542 -4.442244
In 4.418878 -7.395519 -1.490268
In 7.370854 -4.443542 -1.490268
In 7.370854 -7.395519 1.461709
In 4.418878 -4.443542 1.461709
In 4.418878 -7.395519 4.413685
In 7.370854 -4.443542 4.413685
In 7.370854 -7.395519 7.365661
In 4.418878 -4.443542 7.365661
In 4.418878 -7.395519 10.317638
In 7.370854 -4.443542 10.317638
In 7.370854 -7.395519 13.269614
In 4.418878 -4.443542 13.269614
In 4.418878 -7.395519 16.221591
In 7.370854 -4.443542 16.221591
In 7.370854 -7.395519 19.173567
In 4.418878 -4.443542 19.173567
In 4.418878 -7.395519 22.125543
In 7.370854 -4.443542 22.125543
In 4.418878 1.460410 -22.154102
In 4.418878 -1.491566 -19.202126
In 7.370854 1.460410 -19.202126
In 7.370854 -1.491566 -16.250150
In 4.418878 1.460410 -16.250150
In 4.418878 -1.491566 -13.298173
In 7.370854 1.460410 -13.298173
In 7.370854 -1.491566 -10.346197
In 4.418878 1.460410 -10.346197
In 4.418878 -1.491566 -7.394221
In 7.370854 1.460410 -7.394221
In 7.370854 -1.491566 -4.442244
In 4.418878 1.460410 -4.442244
In 4.418878 -1.491566 -1.490268
In 7.370854 1.460410 -1.490268
In 7.370854 -1.491566 1.461709
In 4.418878 1.460410 1.461709
In 4.418878 -1.491566 4.413685
In 7.370854 1.460410 4.413685
In 7.370854 -1.491566 7.365661
In 4.418878 1.460410 7.365661
In 4.418878 -1.491566 10.317638
In 7.370854 1.460410 10.317638
In 7.370854 -1.491566 13.269614
In 4.418878 1.460410 13.269614
In 4.418878 -1.491566 16.221591
In 7.370854 1.460410 16.221591
In 7.370854 -1.491566 19.173567
In 4.418878 1.460410 19.173567
In 4.418878 -1.491566 22.125543
In 7.370854 4.412387 -22.154102
In 4.418878 7.364363 -22.154102
In 4.418878 4.412387 -19.202126
In 7.370854 7.364363 -19.202126
In 7.370854 4.412387 -16.250150
In 4.418878 7.364363 -16.250150
In 4.418878 4.412387 -13.298173
In 7.370854 7.364363 -13.298173
In 7.370854 4.412387 -10.346197
In 4.418878 7.364363 -10.346197
In 4.418878 4.412387 -7.394221
In 7.370854 7.364363 -7.394221
In 7.370854 4.412387 -4.442244
In 4.418878 7.364363 -4.442244
In 4.418878 4.412387 -1.490268
In 7.370854 7.364363 -1.490268
In 7.370854 4.412387 1.461709
In 4.418878 7.364363 1.461709
In 4.418878 4.412387 4.413685
In 7.370854 7.364363 4.413685
In 7.370854 4.412387 7.365661
In 4.418878 7.364363 7.365661
In 4.418878 4.412387 10.317638
In 7.370854 7.364363 10.317638
In 7.370854 4.412387 13.269614
In 4.418878 7.364363 13.269614
In 4.418878 4.412387 16.221591
In 7.370854 10.316340 -22.154102
In 4.418878 10.316340 -19.202126
In 7.370854 13.268316 -19.202126
In 7.370854 10.316340 -16.250150
In 4.418878 13.268316 -16.250150
In 4.418878 10.316340 -13.298173
In 7.370854 13.268316 -13.298173
In 7.370854 10.316340 -10.346197
In 4.418878 13.268316 -10.346197
In 4.418878 10.316340 -7.394221
In 7.370854 13.268316 -7.394221
In 7.370854 10.316340 -4.442244
In 4.418878 13.268316 -4.442244
In 4.418878 10.316340 -1.490268
In 7.370854 13.268316 -1.490268
In 7.370854 10.316340 1.461709
In 4.418878 13.268316 1.461709
In 4.418878 10.316340 4.413685
In 7.370854 13.268316 4.413685
In 7.370854 10.316340 7.365661
In 4.418878 13.268316 7.365661
In 4.418878 10.316340 10.317638
In 7.370854 16.220292 -16.250150
In 4.418878 16.220292 -13.298173
In 7.370854 19.172269 -13.298173
In 7.370854 16.220292 -10.346197
In 4.418878 19.172269 -10.346197
In 4.418878 16.220292 -7.394221
In 7.370854 19.172269 -7.394221
In 7.370854 16.220292 -4.442244
In 4.418878 19.172269 -4.442244
In 4.418878 16.220292 -1.490268
In 7.370854 19.172269 -1.490268
In 7.370854 16.220292 1.461709
In 4.418878 19.172269 1.461709
In 4.418878 16.220292 4.413685
In 7.370854 22.124245 -10.346197
In 4.418878 22.124245 -7.394221
In 7.370854 22.124245 -4.442244
In 4.418878 22.124245 -1.490268
In 10.322830 -22.155401 7.365661
In 13.274807 -22.155401 10.317638
In 10.322830 -22.155401 13.269614
In 13.274807 -22.155401 16.221591
In 10.322830 -16.251448 1.461709
In 10.322830 -19.203424 4.413685
In 13.274807 -16.251448 4.413685
In 13.274807 -19.203424 7.365661
In 10.322830 -16.251448 7.365661
In 10.322830 -19.203424 10.317638
In 13.274807 -16.251448 10.317638
In 13.274807 -19.203424 13.269614
In 10.322830 -16.251448 13.269614
In 10.322830 -19.203424 16.221591
In 13.274807 -16.251448 16.221591
In 13.274807 -19.203424 19.173567
In 10.322830 -16.251448 19.173567
In 13.274807 -16.251448 22.125543
In 10.322830 -10.347495 -4.442244
In 10.322830 -13.299471 -1.490268
In 13.274807 -10.347495 -1.490268
In 13.274807 -13.299471 1.461709
In 10.322830 -10.347495 1.461709
In 10.322830 -13.299471 4.413685
In 13.274807 -10.347495 4.413685
In 13.274807 -13.299471 7.365661
In 10.322830 -10.347495 7.365661
In 10.322830 -13.299471 10.317638
In 13.274807 -10.347495 10.317638
In 13.274807 -13.299471 13.269614
In 10.322830 -10.347495 13.269614
In 10.322830 -13.299471 16.221591
In 13.274807 -10.347495 16.221591
In 13.274807 -13.299471 19.173567
In 10.322830 -10.347495 19.173567
In 10.322830 -13.299471 22.125543
In 13.274807 -10.347495 22.125543
In 10.322830 -4.443542 -10.346197
In 10.322830 -7.395519 -7.394221
In 13.274807 -4.443542 -7.394221
In 13.274807 -7.395519 -4.442244
In 10.322830 -4.443542 -4.442244
In 10.322830 -7.395519 -1.490268
In 13.274807 -4.443542 -1.490268
In 13.274807 -7.395519 1.461709
In 10.322830 -4.443542 1.461709
In 10.322830 -7.395519 4.413685
In 13.274807 -4.443542 4.413685
In 13.274807 -7.395519 7.365661
In 10.322830 -4.443542 7.365661
In 10.322830 -7.395519 10.317638
In 13.274807 -4.443542 10.317638
In 13.274807 -7.395519 13.269614
In 10.322830 -4.443542 13.269614
In 10.322830 -7.395519 16.221591
In 13.274807 -4.443542 16.221591
In 13.274807 -7.395519 19.173567
In 10.322830 -4.443542 19.173567
In 10.322830 -7.395519 22.125543
In 10.322830 1.460410 -16.250150
In 10.322830 -1.491566 -13.298173
In 13.274807 1.460410 -13.298173
In 13.274807 -1.491566 -10.346197
In 10.322830 1.460410 -10.346197
In 10.322830 -1.491566 -7.394221
In 13.274807 1.460410 -7.394221
In 13.274807 -1.491566 -4.442244
In 10.322830 1.460410 -4.442244
In 10.322830 -1.491566 -1.490268
In 13.274807 1.460410 -1.490268
In 13.274807 -1.491566 1.461709
In 10.322830 1.460410 1.461709
In 10.322830 -1.491566 4.413685
In 13.274807 1.460410 4.413685
In 13.274807 -1.491566 7.365661
In 10.322830 1.460410 7.365661
In 10.322830 -1.491566 10.317638
In 13.274807 1.460410 10.317638
In 13.274807 -1.491566 13.269614
In 10.322830 1.460410 13.269614
In 10.322830 -1.491566 16.221591
In 10.322830 7.364363 -22.154102
In 10.322830 4.412387 -19.202126
In 13.274807 7.364363 -19.202126
In 13.274807 4.412387 -16.250150
In 10.322830 7.364363 -16.250150
In 10.322830 4.412387 -13.298173
In 13.274807 7.364363 -13.298173
In 13.274807 4.412387 -10.346197
In 10.322830 7.364363 -10.346197
In 10.322830 4.412387 -7.394221
In 13.274807 7.364363 -7.394221
In 13.274807 4.412387 -4.442244
In 10.322830 7.364363 -4.442244
In 10.322830 4.412387 -1.490268
In 13.274807 7.364363 -1.490268
In 13.274807 4.412387 1.461709
In 10.322830 7.364363 1.461709
In 10.322830 4.412387 4.413685
In 13.274807 7.364363 4.413685
In 13.274807 4.412387 7.365661
In 10.322830 7.364363 7.365661
In 10.322830 4.412387 10.317638
In 13.274807 10.316340 -22.154102
In 10.322830 13.268316 -22.154102
In 10.322830 10.316340 -19.202126
In 13.274807 13.268316 -19.202126
In 13.274807 10.316340 -16.250150
In 10.322830 13.268316 -16.250150
In 10.322830 10.316340 -13.298173
In 13.274807 13.268316 -13.298173
In 13.274807 10.316340 -10.346197
In 10.322830 13.268316 -10.346197
In 10.322830 10.316340 -7.394221
In 13.274807 13.268316 -7.394221
In 13.274807 10.316340 -4.442244
In 10.322830 13.268316 -4.442244
In 10.322830 10.316340 -1.490268
In 13.274807 13.268316 -1.490268
In 13.274807 10.316340 1.461709
In 10.322830 13.268316 1.461709
In 10.322830 10.316340 4.413685
In 13.274807 16.220292 -22.154102
In 10.322830 16.220292 -19.202126
In 13.274807 19.172269 -19.202126
In 13.274807 16.220292 -16.250150
In 10.322830 19.172269 -16.250150
In 10.322830 16.220292 -13.298173
In 13.274807 19.172269 -13.298173
In 13.274807 16.220292 -10.346197
In 10.322830 19.172269 -10.346197
In 10.322830 16.220292 -7.394221
In 13.274807 19.172269 -7.394221
In 13.274807 16.220292 -4.442244
In 10.322830 19.172269 -4.442244
In 10.322830 16.220292 -1.490268
In 13.274807 22.124245 -16.250150
In 10.322830 22.124245 -13.298173
In 13.274807 22.124245 -10.346197
In 10.322830 22.124245 -7.394221
In 16.226783 -22.155401 13.269614
In 16.226783 -16.251448 7.365661
In 16.226783 -19.203424 10.317638
In 19.178760 -16.251448 10.317638
In 19.178760 -19.203424 13.269614
In 16.226783 -16.251448 13.269614
In 16.226783 -19.203424 16.221591
In 19.178760 -16.251448 16.221591
In 16.226783 -16.251448 19.173567
In 16.226783 -10.347495 1.461709
In 16.226783 -13.299471 4.413685
In 19.178760 -10.347495 4.413685
In 19.178760 -13.299471 7.365661
In 16.226783 -10.347495 7.365661
In 16.226783 -13.299471 10.317638
In 19.178760 -10.347495 10.317638
In 19.178760 -13.299471 13.269614
In 16.226783 -10.347495 13.269614
In 16.226783 -13.299471 16.221591
In 19.178760 -10.347495 16.221591
In 19.178760 -13.299471 19.173567
In 16.226783 -10.347495 19.173567
In 16.226783 -13.299471 22.125543
In 16.226783 -4.443542 -4.442244
In 16.226783 -7.395519 -1.490268
In 19.178760 -4.443542 -1.490268
In 19.178760 -7.395519 1.461709
In 16.226783 -4.443542 1.461709
In 16.226783 -7.395519 4.413685
In 19.178760 -4.443542 4.413685
In 19.178760 -7.395519 7.365661
In 16.226783 -4.443542 7.365661
In 16.226783 -7.395519 10.317638
In 19.178760 -4.443542 10.317638
In 19.178760 -7.395519 13.269614
In 16.226783 -4.443542 13.269614
In 16.226783 -7.395519 16.221591
In 16.226783 1.460410 -10.346197
In 16.226783 -1.491566 -7.394221
In 19.178760 1.460410 -7.394221
In 19.178760 -1.491566 -4.442244
In 16.226783 1.460410 -4.442244
In 16.226783 -1.491566 -1.490268
In 19.178760 1.460410 -1.490268
In 19.178760 -1.491566 1.461709
In 16.226783 1.460410 1.461709
In 16.226783 -1.491566 4.413685
In 19.178760 1.460410 4.413685
In 19.178760 -1.491566 7.365661
In 16.226783 1.460410 7.365661
In 16.226783 -1.491566 10.317638
In 16.226783 7.364363 -16.250150
In 16.226783 4.412387 -13.298173
In 19.178760 7.364363 -13.298173
In 19.178760 4.412387 -10.346197
In 16.226783 7.364363 -10.346197
In 16.226783 4.412387 -7.394221
In 19.178760 7.364363 -7.394221
In 19.178760 4.412387 -4.442244
In 16.226783 7.364363 -4.442244
In 16.226783 4.412387 -1.490268
In 19.178760 7.364363 -1.490268
In 19.178760 4.412387 1.461709
In 16.226783 7.364363 1.461709
In 16.226783 4.412387 4.413685
In 16.226783 13.268316 -22.154102
In 16.226783 10.316340 -19.202126
In 19.178760 13.268316 -19.202126
In 19.178760 10.316340 -16.250150
In 16.226783 13.268316 -16.250150
In 16.226783 10.316340 -13.298173
In 19.178760 13.268316 -13.298173
In 19.178760 10.316340 -10.346197
In 16.226783 13.268316 -10.346197
In 16.226783 10.316340 -7.394221
In 19.178760 13.268316 -7.394221
In 19.178760 10.316340 -4.442244
In 16.226783 13.268316 -4.442244
In 16.226783 10.316340 -1.490268
In 16.226783 16.220292 -19.202126
In 19.178760 16.220292 -16.250150
In 16.226783 19.172269 -16.250150
In 16.226783 16.220292 -13.298173
In 19.178760 19.172269 -13.298173
In 19.178760 16.220292 -10.346197
In 16.226783 19.172269 -10.346197
In 16.226783 16.220292 -7.394221
In 16.226783 22.124245 -13.298173
In 22.130736 -16.251448 13.269614
In 22.130736 -10.347495 7.365661
In 22.130736 -13.299471 10.317638
In 22.130736 -10.347495 13.269614
In 22.130736 -13.299471 16.221591
In 22.130736 -4.443542 1.461709
In 22.130736 -7.395519 4.413685
In 22.130736 -4.443542 7.365661
In 22.130736 -7.395519 10.317638
In 22.130736 1.460410 -4.442244
In 22.130736 -1.491566 -1.490268
In 22.130736 1.460410 1.461709
In 22.130736 -1.491566 4.413685
In 22.130736 7.364363 -10.346197
In 22.130736 4.412387 -7.394221
In 22.130736 7.364363 -4.442244
In 22.130736 4.412387 -1.490268
In 22.130736 13.268316 -16.250150
In 22.130736 10.316340 -13.298173
In 22.130736 13.268316 -10.346197
In 22.130736 10.316340 -7.394221
In 22.130736 16.220292 -13.298173
P -20.672922 -14.775460 -17.726138
P -20.672922 -17.727436 -14.774161
P -20.672922 -14.775460 -11.822185
P -20.672922 -11.823483 -14.774161
P -20.672922 -8.871507 -11.822185
P -20.672922 -11.823483 -8.870209
P -20.672922 -8.871507 -5.918232
P -20.672922 -5.919530 -8.870209
P -20.672922 -2.967554 -5.918232
P -20.672922 -5.919530 -2.966256
P -20.672922 -2.967554 -0.014280
P -20.672922 -0.015578 -2.966256
P -20.672922 2.936399 -0.014280
P -20.672922 -0.015578 2.937697
P -20.672922 2.936399 5.889673
P -20.672922 5.888375 2.937697
P -20.672922 8.840351 5.889673
P -20.672922 5.888375 8.841650
P -20.672922 8.840351 11.793626
P -20.672922 11.792328 8.841650
P -20.672922 14.744304 11.793626
P -20.672922 11.792328 14.745602
P -20.672922 14.744304 17.697579
P -20.672922 17.696281 14.745602
P -17.720945 -20.679412 -14.774161
P -14.768969 -20.679412 -17.726138
P -14.768969 -20.679412 -11.822185
P -17.720945 -14.775460 -20.678114
P -14.768969 -17.727436 -20.678114
P -17.720945 -17.727436 -17.726138
P -17.720945 -14.775460 -14.774161
P -14.768969 -14.775460 -17.726138
P -14.768969 -17.727436 -14.774161
P -17.720945 -17.727436 -11.822185
P -17.720945 -14.775460 -8.870209
P -14.768969 -14.775460 -11.822185
P -14.768969 -17.727436 -8.870209
P -14.768969 -14.775460 -5.918232
P -14.768969 -11.823483 -20.678114
P -17.720945 -11.823483 -17.726138
P -17.720945 -8.871507 -14.774161
P -14.768969 -8.871507 -17.726138
P -14.768969 -11.823483 -14.774161
P -17.720945 -11.823483 -11.822185
P -17.720945 -8.871507 -8.870209
P -14.768969 -8.871507 -11.822185
P -14.768969 -11.823483 -8.870209
P -17.720945 -11.823483 -5.918232
P -17.720945 -8.871507 -2.966256
P -14.768969 -8.871507 -5.918232
P -14.768969 -11.823483 -2.966256
P -14.768969 -8.871507 -0.014280
P -14.768969 -5.919530 -14.774161
P -17.720945 -5.919530 -11.822185
P -17.720945 -2.967554 -8.870209
P -14.768969 -2.967554 -11.822185
P -14.768969 -5.919530 -8.870209
P -17.720945 -5.919530 -5.918232
P -17.720945 -2.967554 -2.966256
P -14.768969 -2.967554 -5.918232
P -14.768969 -5.919530 -2.966256
P -17.720945 -5.919530 -0.014280
P -17.720945 -2.967554 2.937697
P -14.768969 -2.967554 -0.014280
P -14.768969 -5.919530 2.937697
P -14.768969 -2.967554 5.889673
P -14.768969 -0.015578 -8.870209
P -17.720945 -0.015578 -5.918232
P -17.720945 2.936399 -2.966256
P -14.768969 2.936399 -5.918232
P -14.768969 -0.015578 -2.966256
P -17.720945 -0.015578 -0.014280
P -17.720945 2.936399 2.937697
P -14.768969 2.936399 -0.014280
P -14.768969 -0.015578 2.937697
P -17.720945 -0.015578 5.889673
P -17.720945 2.936399 8.841650
P -14.768969 2.936399 5.889673
P -14.768969 -0.015578 8.841650
P -14.768969 2.936399 11.793626
P -14.768969 5.888375 -2.966256
P -17.720945 5.888375 -0.014280
P -17.720945 8.840351 2.937697
P -14.768969 8.840351 -0.014280
P -14.768969 5.888375 2.937697
P -17.720945 5.888375 5.889673
P -17.720945 8.840351 8.841650
P -14.768969 8.840351 5.889673
P -14.768969 5.888375 8.841650
P -17.720945 5.888375 11.793626
P -17.720945 8.840351 14.745602
P -14.768969 8.840351 11.793626
P -14.768969 5.888375 14.745602
P -14.768969 8.840351 17.697579
P -14.768969 11.792328 2.937697
P -17.720945 11.792328 5.889673
P -17.720945 14.744304 8.841650
P -14.768969 14.744304 5.889673
P -14.768969 11.792328 8.841650
P -17.720945 11.792328 11.793626
P -17.720945 14.744304 14.745602
P -14.768969 14.744304 11.793626
P -14.768969 11.792328 14.745602
P -17.720945 11.792328 17.697579
P -17.720945 14.744304 20.649555
P -14.768969 14.744304 17.697579
P -14.768969 11.792328 20.649555
P -14.768969 17.696281 8.841650
P -17.720945 17.696281 11.793626
P -17.720945 20.648257 14.745602
P -14.768969 20.648257 11.793626
P -14.768969 17.696281 14.745602
P -17.720945 17.696281 17.697579
P -14.768969 20.648257 17.697579
P -14.768969 17.696281 20.649555
P -11.816993 -20.679412 -14.774161
P -11.816993 -20.679412 -8.870209
P -8.865016 -20.679412 -11.822185
P -8.865016 -20.679412 -5.918232
P -11.816993 -14.775460 -20.678114
P -11.816993 -17.727436 -17.726138
P -11.816993 -14.775460 -14.774161
P -8.865016 -14.775460 -17.726138
P -8.865016 -17.727436 -14.774161
P -11.816993 -17.727436 -11.822185
P -11.816993 -14.775460 -8.870209
P -8.865016 -14.775460 -11.822185
P -8.865016 -17.727436 -8.870209
P -11.816993 -17.727436 -5.918232
P -11.816993 -14.775460 -2.966256
P -8.865016 -14.775460 -5.918232
P -8.865016 -17.727436 -2.966256
P -8.865016 -14.775460 -0.014280
P -11.816993 -8.871507 -20.678114
P -8.865016 -11.823483 -20.678114
P -11.816993 -11.823483 -17.726138
P -11.816993 -8.871507 -14.774161
P -8.865016 -8.871507 -17.726138
P -8.865016 -11.823483 -14.774161
P -11.816993 -11.823483 -11.822185
P -11.816993 -8.871507 -8.870209
P -8.865016 -8.871507 -11.822185
P -8.865016 -11.823483 -8.870209
P -11.816993 -11.823483 -5.918232
P -11.816993 -8.871507 -2.966256
P -8.865016 -8.871507 -5.918232
P -8.865016 -11.823483 -2.966256
P -11.816993 -11.823483 -0.014280
P -11.816993 -8.871507 2.937697
P -8.865016 -8.871507 -0.014280
P -8.865016 -11.823483 2.937697
P -8.865016 -8.871507 5.889673
P -8.865016 -5.919530 -20.678114
P -11.816993 -5.919530 -17.726138
P -11.816993 -2.967554 -14.774161
P -8.865016 -2.967554 -17.726138
P -8.865016 -5.919530 -14.774161
P -11.816993 -5.919530 -11.822185
P -11.816993 -2.967554 -8.870209
P -8.865016 -2.967554 -11.822185
P -8.865016 -5.919530 -8.870209
P -11.816993 -5.919530 -5.918232
P -11.816993 -2.967554 -2.966256
P -8.865016 -2.967554 -5.918232
P -8.865016 -5.919530 -2.966256
P -11.816993 -5.919530 -0.014280
P -11.816993 -2.967554 2.937697
P -8.865016 -2.967554 -0.014280
P -8.865016 -5.919530 2.937697
P -11.816993 -5.919530 5.889673
P -11.816993 -2.967554 8.841650
P -8.865016 -2.967554 5.889673
P -8.865016 -5.919530 8.841650
P -8.865016 -2.967554 11.793626
P -8.865016 -0.015578 -14.774161
P -11.816993 -0.015578 -11.822185
P -11.816993 2.936399 -8.870209
P -8.865016 2.936399 -11.822185
P -8.865016 -0.015578 -8.870209
P -11.816993 -0.015578 -5.918232
P -11.816993 2.936399 -2.966256
P -8.865016 2.936399 -5.918232
P -8.865016 -0.015578 -2.966256
P -11.816993 -0.015578 -0.014280
P -11.816993 2.936399 2.937697
P -8.865016 2.936399 -0.014280
P -8.865016 -0.015578 2.937697
P -11.816993 -0.015578 5.889673
P -11.816993 2.936399 8.841650
P -8.865016 2.936399 5.889673
P -8.865016 -0.015578 8.841650
P -11.816993 -0.015578 11.793626
P -11.816993 2.936399 14.745602
P -8.865016 2.936399 11.793626
P -8.865016 -0.015578 14.745602
P -8.865016 2.936399 17.697579
P -8.865016 5.888375 -8.870209
P -11.816993 5.888375 -5.918232
P -11.816993 8.840351 -2.966256
P -8.865016 8.840351 -5.918232
P -8.865016 5.888375 -2.966256
P -11.816993 5.888375 -0.014280
P -11.816993 8.840351 2.937697
P -8.865016 8.840351 -0.014280
P -8.865016 5.888375 2.937697
P -11.816993 5.888375 5.889673
P -11.816993 8.840351 8.841650
P -8.865016 8.840351 5.889673
P -8.865016 5.888375 8.841650
P -11.816993 5.888375 11.793626
P -11.816993 8.840351 14.745602
P -8.865016 8.840351 11.793626
P -8.865016 5.888375 14.745602
P -11.816993 5.888375 17.697579
P -11.816993 8.840351 20.649555
P -8.865016 8.840351 17.697579
P -8.865016 5.888375 20.649555
P -8.865016 11.792328 -2.966256
P -11.816993 11.792328 -0.014280
P -11.816993 14.744304 2.937697
P -8.865016 14.744304 -0.014280
P -8.865016 11.792328 2.937697
P -11.816993 11.792328 5.889673
P -11.816993 14.744304 8.841650
P -8.865016 14.744304 5.889673
P -8.865016 11.792328 8.841650
P -11.816993 11.792328 11.793626
P -11.816993 14.744304 14.745602
P -8.865016 14.744304 11.793626
P -8.865016 11.792328 14.745602
P -11.816993 11.792328 17.697579
P -11.816993 14.744304 20.649555
P -8.865016 14.744304 17.697579
P -8.865016 11.792328 20.649555
P -8.865016 17.696281 2.937697
P -11.816993 17.696281 5.889673
P -11.816993 20.648257 8.841650
P -8.865016 20.648257 5.889673
P -8.865016 17.696281 8.841650
P -11.816993 17.696281 11.793626
P -11.816993 20.648257 14.745602
P -8.865016 20.648257 11.793626
P -8.865016 17.696281 14.745602
P -11.816993 17.696281 17.697579
P -5.913040 -20.679412 -8.870209
P -5.913040 -20.679412 -2.966256
P -2.961063 -20.679412 -5.918232
P -2.961063 -20.679412 -0.014280
P -5.913040 -14.775460 -14.774161
P -5.913040 -17.727436 -11.822185
P -5.913040 -14.775460 -8.870209
P -2.961063 -14.775460 -11.822185
P -2.961063 -17.727436 -8.870209
P -5.913040 -17.727436 -5.918232
P -5.913040 -14.775460 -2.966256
P -2.961063 -14.775460 -5.918232
P -2.961063 -17.727436 -2.966256
P -5.913040 -17.727436 -0.014280
P -5.913040 -14.775460 2.937697
P -2.961063 -14.775460 -0.014280
P -2.961063 -17.727436 2.937697
P -2.961063 -14.775460 5.889673
P -5.913040 -8.871507 -20.678114
P -5.913040 -11.823483 -17.726138
P -5.913040 -8.871507 -14.774161
P -2.961063 -8.871507 -17.726138
P -2.961063 -11.823483 -14.774161
P -5.913040 -11.823483 -11.822185
P -5.913040 -8.871507 -8.870209
P -2.961063 -8.871507 -11.822185
P -2.961063 -11.823483 -8.870209
P -5.913040 -11.823483 -5.918232
P -5.913040 -8.871507 -2.966256
P -2.961063 -8.871507 -5.918232
P -2.961063 -11.823483 -2.966256
P -5.913040 -11.823483 -0.014280
P -5.913040 -8.871507 2.937697
P -2.961063 -8.871507 -0.014280
P -2.961063 -11.823483 2.937697
P -5.913040 -11.823483 5.889673
P -5.913040 -8.871507 8.841650
P -2.961063 -8.871507 5.889673
P -2.961063 -11.823483 8.841650
P -2.961063 -8.871507 11.793626
P -5.913040 -2.967554 -20.678114
P -2.961063 -5.919530 -20.678114
P -5.913040 -5.919530 -17.726138
P -5.913040 -2.967554 -14.774161
P -2.961063 -2.967554 -17.726138
P -2.961063 -5.919530 -14.774161
P -5.913040 -5.919530 -11.822185
P -5.913040 -2.967554 -8.870209
P -2.961063 -2.967554 -11.822185
P -2.961063 -5.919530 -8.870209
P -5.913040 -5.919530 -5.918232
P -5.913040 -2.967554 -2.966256
P -2.961063 -2.967554 -5.918232
P -2.961063 -5.919530 -2.966256
P -5.913040 -5.919530 -0.014280
P -5.913040 -2.967554 2.937697
P -2.961063 -2.967554 -0.014280
P -2.961063 -5.919530 2.937697
P -5.913040 -5.919530 5.889673
P -5.913040 -2.967554 8.841650
P -2.961063 -2.967554 5.889673
P -2.961063 -5.919530 8.841650
P -5.913040 -5.919530 11.793626
P -5.913040 -2.967554 14.745602
P -2.961063 -2.967554 11.793626
P -2.961063 -5.919530 14.745602
P -2.961063 -2.967554 17.697579
P -2.961063 -0.015578 -20.678114
P -5.913040 -0.015578 -17.726138
P -5.913040 2.936399 -14.774161
P -2.961063 2.936399 -17.726138
P -2.961063 -0.015578 -14.774161
P -5.913040 -0.015578 -11.822185
P -5.913040 2.936399 -8.870209
P -2.961063 2.936399 -11.822185
P -2.961063 -0.015578 -8.870209
P -5.913040 -0.015578 -5.918232
P -5.913040 2.936399 -2.966256
P -2.961063 2.936399 -5.918232
P -2.961063 -0.015578 -2.966256
P -5.913040 -0.015578 -0.014280
P -5.913040 2.936399 2.937697
P -2.961063 2.936399 -0.014280
P -2.961063 -0.015578 2.937697
P -5.913040 -0.015578 5.889673
P -5.913040 2.936399 8.841650
P -2.961063 2.936399 5.889673
P -2.961063 -0.015578 8.841650
P -5.913040 -0.015578 11.793626
P -5.913040 2.936399 14.745602
P -2.961063 2.936399 11.793626
P -2.961063 -0.015578 14.745602
P -5.913040 -0.015578 17.697579
P -5.913040 2.936399 20.649555
P -2.961063 2.936399 17.697579
P -2.961063 -0.015578 20.649555
P -2.961063 5.888375 -14.774161
P -5.913040 5.888375 -11.822185
P -5.913040 8.840351 -8.870209
P -2.961063 8.840351 -11.822185
P -2.961063 5.888375 -8.870209
P -5.913040 5.888375 -5.918232
P -5.913040 8.840351 -2.966256
P -2.961063 8.840351 -5.918232
P -2.961063 5.888375 -2.966256
P -5.913040 5.888375 -0.014280
P -5.913040 8.840351 2.937697
P -2.961063 8.840351 -0.014280
P -2.961063 5.888375 2.937697
P -5.913040 5.888375 5.889673
P -5.913040 8.840351 8.841650
P -2.961063 8.840351 5.889673
P -2.961063 5.888375 8.841650
P -5.913040 5.888375 11.793626
P -5.913040 8.840351 14.745602
P -2.961063 8.840351 11.793626
P -2.961063 5.888375 14.745602
P -5.913040 5.888375 17.697579
P -5.913040 8.840351 20.649555
P -2.961063 8.840351 17.697579
P -2.961063 5.888375 20.649555
P -2.961063 11.792328 -8.870209
P -5.913040 11.792328 -5.918232
P -5.913040 14.744304 -2.966256
P -2.961063 14.744304 -5.918232
P -2.961063 11.792328 -2.966256
P -5.913040 11.792328 -0.014280
P -5.913040 14.744304 2.937697
P -2.961063 14.744304 -0.014280
P -2.961063 11.792328 2.937697
P -5.913040 11.792328 5.889673
P -5.913040 14.744304 8.841650
P -2.961063 14.744304 5.889673
P -2.961063 11.792328 8.841650
P -5.913040 11.792328 11.793626
P -5.913040 14.744304 14.745602
P -2.961063 14.744304 11.793626
P -2.961063 11.792328 14.745602
P -5.913040 11.792328 17.697579
P -2.961063 17.696281 -2.966256
P -5.913040 17.696281 -0.014280
P -5.913040 20.648257 2.937697
P -2.961063 20.648257 -0.014280
P -2.961063 17.696281 2.937697
P -5.913040 17.696281 5.889673
P -5.913040 20.648257 8.841650
P -2.961063 20.648257 5.889673
P -2.961063 17.696281 8.841650
P -5.913040 17.696281 11.793626
P -0.009087 -20.679412 -2.966256
P -0.009087 -20.679412 2.937697
P 2.942889 -20.679412 -0.014280
P 2.942889 -20.679412 5.889673
P -0.009087 -14.775460 -8.870209
P -0.009087 -17.727436 -5.918232
P -0.009087 -14.775460 -2.966256
P 2.942889 -14.775460 -5.918232
P 2.942889 -17.727436 -2.966256
P -0.009087 -17.727436 -0.014280
P -0.009087 -14.775460 2.937697
P 2.942889 -14.775460 -0.014280
P 2.942889 -17.727436 2.937697
P -0.009087 -17.727436 5.889673
P -0.009087 -14.775460 8.841650
P 2.942889 -14.775460 5.889673
P 2.942889 -17.727436 8.841650
P 2.942889 -14.775460 11.793626
P -0.009087 -8.871507 -14.774161
P -0.009087 -11.823483 -11.822185
P -0.009087 -8.871507 -8.870209
P 2.942889 -8.871507 -11.822185
P 2.942889 -11.823483 -8.870209
P -0.009087 -11.823483 -5.918232
P -0.009087 -8.871507 -2.966256
P 2.942889 -8.871507 -5.918232
P 2.942889 -11.823483 -2.966256
P -0.009087 -11.823483 -0.014280
P -0.009087 -8.871507 2.937697
P 2.942889 -8.871507 -0.014280
P 2.942889 -11.823483 2.937697
P -0.009087 -11.823483 5.889673
P -0.009087 -8.871507 8.841650
P 2.942889 -8.871507 5.889673
P 2.942889 -11.823483 8.841650
P -0.009087 -11.823483 11.793626
P -0.009087 -8.871507 14.745602
P 2.942889 -8.871507 11.793626
P 2.942889 -11.823483 14.745602
P 2.942889 -8.871507 17.697579
P -0.009087 -2.967554 -20.678114
P -0.009087 -5.919530 -17.726138
P -0.009087 -2.967554 -14.774161
P 2.942889 -2.967554 -17.726138
P 2.942889 -5.919530 -14.774161
P -0.009087 -5.919530 -11.822185
P -0.009087 -2.967554 -8.870209
P 2.942889 -2.967554 -11.822185
P 2.942889 -5.919530 -8.870209
P -0.009087 -5.919530 -5.918232
P -0.009087 -2.967554 -2.966256
P 2.942889 -2.967554 -5.918232
P 2.942889 -5.919530 -2.966256
P -0.009087 -5.919530 -0.014280
P -0.009087 -2.967554 2.937697
P 2.942889 -2.967554 -0.014280
P 2.942889 -5.919530 2.937697
P -0.009087 -5.919530 5.889673
P -0.009087 -2.967554 8.841650
P 2.942889 -2.967554 5.889673
P 2.942889 -5.919530 8.841650
P -0.009087 -5.919530 11.793626
P -0.009087 -2.967554 14.745602
P 2.942889 -2.967554 11.793626
P 2.942889 -5.919530 14.745602
P -0.009087 -5.919530 17.697579
P -0.009087 -2.967554 20.649555
P 2.942889 -2.967554 17.697579
P 2.942889 -5.919530 20.649555
P -0.009087 2.936399 -20.678114
P 2.942889 -0.015578 -20.678114
P -0.009087 -0.015578 -17.726138
P -0.009087 2.936399 -14.774161
P 2.942889 2.936399 -17.726138
P 2.942889 -0.015578 -14.774161
P -0.009087 -0.015578 -11.822185
P -0.009087 2.936399 -8.870209
P 2.942889 2.936399 -11.822185
P 2.942889 -0.015578 -8.870209
P -0.009087 -0.015578 -5.918232
P -0.009087 2.936399 -2.966256
P 2.942889 2.936399 -5.918232
P 2.942889 -0.015578 -2.966256
P -0.009087 -0.015578 -0.014280
P -0.009087 2.936399 2.937697
P 2.942889 2.936399 -0.014280
P 2.942889 -0.015578 2.937697
P -0.009087 -0.015578 5.889673
P -0.009087 2.936399 8.841650
P 2.942889 2.936399 5.889673
P 2.942889 -0.015578 8.841650
P -0.009087 -0.015578 11.793626
P -0.009087 2.936399 14.745602
P 2.942889 2.936399 11.793626
P 2.942889 -0.015578 14.745602
P -0.009087 -0.015578 17.697579
P -0.009087 2.936399 20.649555
P 2.942889 2.936399 17.697579
P 2.942889 -0.015578 20.649555
P 2.942889 5.888375 -20.678114
P -0.009087 5.888375 -17.726138
P -0.009087 8.840351 -14.774161
P 2.942889 8.840351 -17.726138
P 2.942889 5.888375 -14.774161
P -0.009087 5.888375 -11.822185
P -0.009087 8.840351 -8.870209
P 2.942889 8.840351 -11.822185
P 2.942889 5.888375 -8.870209
P -0.009087 5.888375 -5.918232
P -0.009087 8.840351 -2.966256
P 2.942889 8.840351 -5.918232
P 2.942889 5.888375 -2.966256
P -0.009087 5.888375 -0.014280
P -0.009087 8.840351 2.937697
P 2.942889 8.840351 -0.014280
P 2.942889 5.888375 2.937697
P -0.009087 5.888375 5.889673
P -0.009087 8.840351 8.841650
P 2.942889 8.840351 5.889673
P 2.942889 5.888375 8.841650
P -0.009087 5.888375 11.793626
P -0.009087 8.840351 14.745602
P 2.942889 8.840351 11.793626
P 2.942889 5.888375 14.745602
P -0.009087 5.888375 17.697579
P 2.942889 11.792328 -14.774161
P -0.009087 11.792328 -11.822185
P -0.009087 14.744304 -8.870209
P 2.942889 14.744304 -11.822185
P 2.942889 11.792328 -8.870209
P -0.009087 11.792328 -5.918232
P -0.009087 14.744304 -2.966256
P 2.942889 14.744304 -5.918232
P 2.942889 11.792328 -2.966256
P -0.009087 11.792328 -0.014280
P -0.009087 14.744304 2.937697
P 2.942889 14.744304 -0.014280
P 2.942889 11.792328 2.937697
P -0.009087 11.792328 5.889673
P -0.009087 14.744304 8.841650
P 2.942889 14.744304 5.889673
P 2.942889 11.792328 8.841650
P -0.009087 11.792328 11.793626
P 2.942889 17.696281 -8.870209
P -0.009087 17.696281 -5.918232
P -0.009087 20.648257 -2.966256
P 2.942889 20.648257 -5.918232
P 2.942889 17.696281 -2.966256
P -0.009087 17.696281 -0.014280
P -0.009087 20.648257 2.937697
P 2.942889 20.648257 -0.014280
P 2.942889 17.696281 2.937697
P -0.009087 17.696281 5.889673
P 5.894866 -20.679412 2.937697
P 5.894866 -20.679412 8.841650
P 8.846842 -20.679412 5.889673
P 8.846842 -20.679412 11.793626
P 5.894866 -14.775460 -2.966256
P 5.894866 -17.727436 -0.014280
P 5.894866 -14.775460 2.937697
P 8.846842 -14.775460 -0.014280
P 8.846842 -17.727436 2.937697
P 5.894866 -17.727436 5.889673
P 5.894866 -14.775460 8.841650
P 8.846842 -14.775460 5.889673
P 8.846842 -17.727436 8.841650
P 5.894866 -17.727436 11.793626
P 5.894866 -14.775460 14.745602
P 8.846842 -14.775460 11.793626
P 8.846842 -17.727436 14.745602
P 8.846842 -14.775460 17.697579
P 5.894866 -8.871507 -8.870209
P 5.894866 -11.823483 -5.918232
P 5.894866 -8.871507 -2.966256
P 8.846842 -8.871507 -5.918232
P 8.846842 -11.823483 -2.966256
P 5.894866 -11.823483 -0.014280
P 5.894866 -8.871507 2.937697
P 8.846842 -8.871507 -0.014280
P 8.846842 -11.823483 2.937697
P 5.894866 -11.823483 5.889673
P 5.894866 -8.871507 8.841650
P 8.846842 -8.871507 5.889673
P 8.846842 -11.823483 8.841650
P 5.894866 -11.823483 11.793626
P 5.894866 -8.871507 14.745602
P 8.846842 -8.871507 11.793626
P 8.846842 -11.823483 14.745602
P 5.894866 -11.823483 17.697579
P 5.894866 -8.871507 20.649555
P 8.846842 -8.871507 17.697579
P 8.846842 -11.823483 20.649555
P 5.894866 -2.967554 -14.774161
P 5.894866 -5.919530 -11.822185
P 5.894866 -2.967554 -8.870209
P 8.846842 -2.967554 -11.822185
P 8.846842 -5.919530 -8.870209
P 5.894866 -5.919530 -5.918232
P 5.894866 -2.967554 -2.966256
P 8.846842 -2.967554 -5.918232
P 8.846842 -5.919530 -2.966256
P 5.894866 -5.919530 -0.014280
P 5.894866 -2.967554 2.937697
P 8.846842 -2.967554 -0.014280
P 8.846842 -5.919530 2.937697
P 5.894866 -5.919530 5.889673
P 5.894866 -2.967554 8.841650
P 8.846842 -2.967554 5.889673
P 8.846842 -5.919530 8.841650
P 5.894866 -5.919530 11.793626
P 5.894866 -2.967554 14.745602
P 8.846842 -2.967554 11.793626
P 8.846842 -5.919530 14.745602
P 5.894866 -5.919530 17.697579
P 5.894866 -2.967554 20.649555
P 8.846842 -2.967554 17.697579
P 8.846842 -5.919530 20.649555
P 5.894866 2.936399 -20.678114
P 5.894866 -0.015578 -17.726138
P 5.894866 2.936399 -14.774161
P 8.846842 2.936399 -17.726138
P 8.846842 -0.015578 -14.774161
P 5.894866 -0.015578 -11.822185
P 5.894866 2.936399 -8.870209
P 8.846842 2.936399 -11.822185
P 8.846842 -0.015578 -8.870209
P 5.894866 -0.015578 -5.918232
P 5.894866 2.936399 -2.966256
P 8.846842 2.936399 -5.918232
P 8.846842 -0.015578 -2.966256
P 5.894866 -0.015578 -0.014280
P 5.894866 2.936399 2.937697
P 8.846842 2.936399 -0.014280
P 8.846842 -0.015578 2.937697
P 5.894866 -0.015578 5.889673
P 5.894866 2.936399 8.841650
P 8.846842 2.936399 5.889673
P 8.846842 -0.015578 8.841650
P 5.894866 -0.015578 11.793626
P 5.894866 2.936399 14.745602
P 8.846842 2.936399 11.793626
P 8.846842 -0.015578 14.745602
P 5.894866 -0.015578 17.697579
P 5.894866 8.840351 -20.678114
P 8.846842 5.888375 -20.678114
P 5.894866 5.888375 -17.726138
P 5.894866 8.840351 -14.774161
P 8.846842 8.840351 -17.726138
P 8.846842 5.888375 -14.774161
P 5.894866 5.888375 -11.822185
P 5.894866 8.840351 -8.870209
P 8.846842 8.840351 -11.822185
P 8.846842 5.888375 -8.870209
P 5.894866 5.888375 -5.918232
P 5.894866 8.840351 -2.966256
P 8.846842 8.840351 -5.918232
P 8.846842 5.888375 -2.966256
P 5.894866 5.888375 -0.014280
P 5.894866 8.840351 2.937697
P 8.846842 8.840351 -0.014280
P 8.846842 5.888375 2.937697
P 5.894866 5.888375 5.889673
P 5.894866 8.840351 8.841650
P 8.846842 8.840351 5.889673
P 8.846842 5.888375 8.841650
P 5.894866 5.888375 11.793626
P 8.846842 11.792328 -20.678114
P 5.894866 11.792328 -17.726138
P 5.894866 14.744304 -14.774161
P 8.846842 14.744304 -17.726138
P 8.846842 11.792328 -14.774161
P 5.894866 11.792328 -11.822185
P 5.894866 14.744304 -8.870209
P 8.846842 14.744304 -11.822185
P 8.846842 11.792328 -8.870209
P 5.894866 11.792328 -5.918232
P 5.894866 14.744304 -2.966256
P 8.846842 14.744304 -5.918232
P 8.846842 11.792328 -2.966256
P 5.894866 11.792328 -0.014280
P 5.894866 14.744304 2.937697
P 8.846842 14.744304 -0.014280
P 8.846842 11.792328 2.937697
P 5.894866 11.792328 5.889673
P 8.846842 17.696281 -14.774161
P 5.894866 17.696281 -11.822185
P 5.894866 20.648257 -8.870209
P 8.846842 20.648257 -11.822185
P 8.846842 17.696281 -8.870209
P 5.894866 17.696281 -5.918232
P 5.894866 20.648257 -2.966256
P 8.846842 20.648257 -5.918232
P 8.846842 17.696281 -2.966256
P 5.894866 17.696281 -0.014280
P 11.798819 -20.679412 8.841650
P 11.798819 -20.679412 14.745602
P 14.750795 -20.679412 11.793626
P 14.750795 -20.679412 17.697579
P 11.798819 -14.775460 2.937697
P 11.798819 -17.727436 5.889673
P 11.798819 -14.775460 8.841650
P 14.750795 -14.775460 5.889673
P 14.750795 -17.727436 8.841650
P 11.798819 -17.727436 11.793626
P 11.798819 -14.775460 14.745602
P 14.750795 -14.775460 11.793626
P 14.750795 -17.727436 14.745602
P 11.798819 -17.727436 17.697579
P 11.798819 -14.775460 20.649555
P 14.750795 -14.775460 17.697579
P 14.750795 -17.727436 20.649555
P 11.798819 -8.871507 -2.966256
P 11.798819 -11.823483 -0.014280
P 11.798819 -8.871507 2.937697
P 14.750795 -8.871507 -0.014280
P 14.750795 -11.823483 2.937697
P 11.798819 -11.823483 5.889673
P 11.798819 -8.871507 8.841650
P 14.750795 -8.871507 5.889673
P 14.750795 -11.823483 8.841650
P 11.798819 -11.823483 11.793626
P 11.798819 -8.871507 14.745602
P 14.750795 -8.871507 11.793626
P 14.750795 -11.823483 14.745602
P 11.798819 -11.823483 17.697579
P 11.798819 -8.871507 20.649555
P 14.750795 -8.871507 17.697579
P 14.750795 -11.823483 20.649555
P 11.798819 -2.967554 -8.870209
P 11.798819 -5.919530 -5.918232
P 11.798819 -2.967554 -2.966256
P 14.750795 -2.967554 -5.918232
P 14.750795 -5.919530 -2.966256
P 11.798819 -5.919530 -0.014280
P 11.798819 -2.967554 2.937697
P 14.750795 -2.967554 -0.014280
P 14.750795 -5.919530 2.937697
P 11.798819 -5.919530 5.889673
P 11.798819 -2.967554 8.841650
P 14.750795 -2.967554 5.889673
P 14.750795 -5.919530 8.841650
P 11.798819 -5.919530 11.793626
P 11.798819 -2.967554 14.745602
P 14.750795 -2.967554 11.793626
P 14.750795 -5.919530 14.745602
P 11.798819 -5.919530 17.697579
P 11.798819 2.936399 -14.774161
P 11.798819 -0.015578 -11.822185
P 11.798819 2.936399 -8.870209
P 14.750795 2.936399 -11.822185
P 14.750795 -0.015578 -8.870209
P 11.798819 -0.015578 -5.918232
P 11.798819 2.936399 -2.966256
P 14.750795 2.936399 -5.918232
P 14.750795 -0.015578 -2.966256
P 11.798819 -0.015578 -0.014280
P 11.798819 2.936399 2.937697
P 14.750795 2.936399 -0.014280
P 14.750795 -0.015578 2.937697
P 11.798819 -0.015578 5.889673
P 11.798819 2.936399 8.841650
P 14.750795 2.936399 5.889673
P 14.750795 -0.015578 8.841650
P 11.798819 -0.015578 11.793626
P 11.798819 8.840351 -20.678114
P 11.798819 5.888375 -17.726138
P 11.798819 8.840351 -14.774161
P 14.750795 8.840351 -17.726138
P 14.750795 5.888375 -14.774161
P 11.798819 5.888375 -11.822185
P 11.798819 8.840351 -8.870209
P 14.750795 8.840351 -11.822185
P 14.750795 5.888375 -8.870209
P 11.798819 5.888375 -5.918232
P 11.798819 8.840351 -2.966256
P 14.750795 8.840351 -5.918232
P 14.750795 5.888375 -2.966256
P 11.798819 5.888375 -0.014280
P 11.798819 8.840351 2.937697
P 14.750795 8.840351 -0.014280
P 14.750795 5.888375 2.937697
P 11.798819 5.888375 5.889673
P 11.798819 14.744304 -20.678114
P 14.750795 11.792328 -20.678114
P 11.798819 11.792328 -17.726138
P 11.798819 14.744304 -14.774161
P 14.750795 14.744304 -17.726138
P 14.750795 11.792328 -14.774161
P 11.798819 11.792328 -11.822185
P 11.798819 14.744304 -8.870209
P 14.750795 14.744304 -11.822185
P 14.750795 11.792328 -8.870209
P 11.798819 11.792328 -5.918232
P 11.798819 14.744304 -2.966256
P 14.750795 14.744304 -5.918232
P 14.750795 11.792328 -2.966256
P 11.798819 11.792328 -0.014280
P 14.750795 17.696281 -20.678114
P 11.798819 17.696281 -17.726138
P 11.798819 20.648257 -14.774161
P 14.750795 20.648257 -17.726138
P 14.750795 17.696281 -14.774161
P 11.798819 17.696281 -11.822185
P 11.798819 20.648257 -8.870209
P 14.750795 20.648257 -11.822185
P 14.750795 17.696281 -8.870209
P 11.798819 17.696281 -5.918232
P 17.702771 -20.679412 14.745602
P 17.702771 -14.775460 8.841650
P 17.702771 -17.727436 11.793626
P 17.702771 -14.775460 14.745602
P 20.654748 -14.775460 11.793626
P 20.654748 -17.727436 14.745602
P 17.702771 -17.727436 17.697579
P 17.702771 -14.775460 20.649555
P 20.654748 -14.775460 17.697579
P 17.702771 -8.871507 2.937697
P 17.702771 -11.823483 5.889673
P 17.702771 -8.871507 8.841650
P 20.654748 -8.871507 5.889673
P 20.654748 -11.823483 8.841650
P 17.702771 -11.823483 11.793626
P 17.702771 -8.871507 14.745602
P 20.654748 -8.871507 11.793626
P 20.654748 -11.823483 14.745602
P 17.702771 -11.823483 17.697579
P 17.702771 -2.967554 -2.966256
P 17.702771 -5.919530 -0.014280
P 17.702771 -2.967554 2.937697
P 20.654748 -2.967554 -0.014280
P 20.654748 -5.919530 2.937697
P 17.702771 -5.919530 5.889673
P 17.702771 -2.967554 8.841650
P 20.654748 -2.967554 5.889673
P 20.654748 -5.919530 8.841650
P 17.702771 -5.919530 11.793626
P 17.702771 2.936399 -8.870209
P 17.702771 -0.015578 -5.918232
P 17.702771 2.936399 -2.966256
P 20.654748 2.936399 -5.918232
P 20.654748 -0.015578 -2.966256
P 17.702771 -0.015578 -0.014280
P 17.702771 2.936399 2.937697
P 20.654748 2.936399 -0.014280
P 20.654748 -0.015578 2.937697
P 17.702771 -0.015578 5.889673
P 17.702771 8.840351 -14.774161
P 17.702771 5.888375 -11.822185
P 17.702771 8.840351 -8.870209
P 20.654748 8.840351 -11.822185
P 20.654748 5.888375 -8.870209
P 17.702771 5.888375 -5.918232
P 17.702771 8.840351 -2.966256
P 20.654748 8.840351 -5.918232
P 20.654748 5.888375 -2.966256
P 17.702771 5.888375 -0.014280
P 17.702771 14.744304 -20.678114
P 17.702771 11.792328 -17.726138
P 17.702771 14.744304 -14.774161
P 20.654748 14.744304 -17.726138
P 20.654748 11.792328 -14.774161
P 17.702771 11.792328 -11.822185
P 17.702771 14.744304 -8.870209
P 20.654748 14.744304 -11.822185
P 20.654748 11.792328 -8.870209
P 17.702771 11.792328 -5.918232
P 17.702771 17.696281 -17.726138
P 17.702771 20.648257 -14.774161
P 20.654748 17.696281 -14.774161
P 17.702771 17.696281 -11.822185
Cl -23.624898 -14.775460 -14.774161
Cl -23.624898 -11.823483 -11.822185
Cl -23.624898 -8.871507 -8.870209
Cl -23.624898 -5.919530 -5.918232
Cl -23.624898 -2.967554 -2.966256
Cl -23.624898 -0.015578 -0.014280
Cl -23.624898 2.936399 2.937697
Cl -23.624898 5.888375 5.889673
Cl -23.624898 8.840351 8.841650
Cl -23.624898 11.792328 11.793626
Cl -23.624898 14.744304 14.745602
Cl -14.768969 -23.631389 -14.774161
Cl -14.768969 -14.775460 -23.630091
Cl -14.768969 14.744304 23.601532
Cl -14.768969 23.600233 14.745602
Cl -11.816993 -23.631389 -11.822185
Cl -8.865016 -23.631389 -8.870209
Cl -11.816993 -11.823483 -23.630091
Cl -8.865016 -8.871507 -23.630091
Cl -8.865016 8.840351 23.601532
Cl -11.816993 11.792328 23.601532
Cl -8.865016 23.600233 8.841650
Cl -11.816993 23.600233 11.793626
Cl -5.913040 -23.631389 -5.918232
Cl -2.961063 -23.631389 -2.966256
Cl -5.913040 -5.919530 -23.630091
Cl -2.961063 -2.967554 -23.630091
Cl -2.961063 2.936399 23.601532
Cl -5.913040 5.888375 23.601532
Cl -2.961063 23.600233 2.937697
Cl -5.913040 23.600233 5.889673
Cl -0.009087 -23.631389 -0.014280
Cl 2.942889 -23.631389 2.937697
Cl 2.942889 -2.967554 23.601532
Cl -0.009087 -0.015578 -23.630091
Cl 2.942889 2.936399 -23.630091
Cl -0.009087 -0.015578 23.601532
Cl 2.942889 23.600233 -2.966256
Cl -0.009087 23.600233 -0.014280
Cl 5.894866 -23.631389 5.889673
Cl 8.846842 -23.631389 8.841650
Cl 8.846842 -8.871507 23.601532
Cl 5.894866 -5.919530 23.601532
Cl 5.894866 5.888375 -23.630091
Cl 8.846842 8.840351 -23.630091
Cl 8.846842 23.600233 -8.870209
Cl 5.894866 23.600233 -5.918232
Cl 11.798819 -23.631389 11.793626
Cl 14.750795 -23.631389 14.745602
Cl 14.750795 -14.775460 23.601532
Cl 11.798819 -11.823483 23.601532
Cl 11.798819 11.792328 -23.630091
Cl 14.750795 14.744304 -23.630091
Cl 14.750795 23.600233 -14.774161
Cl 11.798819 23.600233 -11.822185
Cl 23.606724 -14.775460 14.745602
Cl 23.606724 -8.871507 8.841650
Cl 23.606724 -11.823483 11.793626
Cl 23.606724 -2.967554 2.937697
Cl 23.606724 -5.919530 5.889673
Cl 23.606724 2.936399 -2.966256
Cl 23.606724 -0.015578 -0.014280
Cl 23.606724 8.840351 -8.870209
Cl 23.606724 5.888375 -5.918232
Cl 23.606724 14.744304 -14.774161
Cl 23.606724 11.792328 -11.822185
Cl -11.816993 -11.823483 5.889673
Cl -11.816993 5.888375 -11.822185
Cl 5.894866 -11.823483 -11.822185
Cl 8.846842 8.840351 11.793626
Cl -17.720945 11.792328 23.601532
Cl -17.720945 23.600233 11.793626
Cl 23.606724 -17.727436 11.793626
Cl 17.702771 23.600233 -11.822185
Cl 11.798819 -17.727436 23.601532
Cl 11.798819 23.600233 -17.726138
Cl 23.606724 11.792328 -17.726138
Cl 23.606724 -11.823483 17.697579
Cl -11.816993 23.600233 17.697579
Cl -23.624898 -17.727436 -11.822185
Cl -23.624898 -11.823483 -17.726138
Cl -11.816993 -23.631389 -17.726138
Cl -2.961063 -2.967554 23.601532
Cl -2.961063 23.600233 -2.966256
Cl 23.606724 -2.967554 -2.966256
Cl 23.606724 5.888375 -0.014280
Cl 2.942889 -23.631389 8.841650
Cl 8.846842 2.936399 -23.630091
Cl 2.942889 8.840351 -23.630091
Cl 2.942889 23.600233 2.937697
Cl -23.624898 8.840351 2.937697
Cl -23.624898 2.936399 8.841650
Cl 8.846842 -23.631389 2.937697
Cl 8.846842 -2.967554 23.601532
Cl -2.961063 8.840351 23.601532
Cl -8.865016 -23.631389 -2.966256
Cl -2.961063 -8.871507 -23.630091
Cl -8.865016 -2.967554 -23.630091
Cl -23.624898 -2.967554 -8.870209
Cl -23.624898 -8.871507 -2.966256
Cl -2.961063 -23.631389 -8.870209
Cl 23.606724 -2.967554 8.841650
Cl 14.750795 14.744304 -0.014280
Cl -2.961063 -11.823483 14.745602
Cl -2.961063 14.744304 -11.822185
Cl 14.750795 -2.967554 -11.822185
Cl -11.816993 -2.967554 14.745602
Cl -11.816993 14.744304 -2.966256
Cl 14.750795 -11.823483 -2.966256
Cl 23.606724 14.744304 -8.870209
Cl -2.961063 17.696281 14.745602
Cl 11.798819 -23.631389 17.697579
Cl 11.798819 17.696281 -23.630091
Cl 17.702771 11.792328 -23.630091
Cl 14.750795 -0.015578 14.745602
Cl -23.624898 11.792328 17.697579
Cl -23.624898 17.696281 11.793626
Cl 17.702771 -23.631389 11.793626
Cl -17.720945 -23.631389 -11.822185
Cl -17.720945 -11.823483 -23.630091
Cl -11.816993 -17.727436 -23.630091
Cl 17.702771 -11.823483 23.601532
Cl -11.816993 17.696281 23.601532
Cl -11.816993 5.888375 23.601532
Cl -11.816993 23.600233 5.889673
Cl 23.606724 -11.823483 5.889673
Cl 5.894866 -11.823483 23.601532
Cl 5.894866 23.600233 -11.822185
Cl 23.606724 5.888375 -11.822185
Cl 8.846842 23.600233 -2.966256
Cl -23.624898 2.936399 -2.966256
Cl -23.624898 -2.967554 2.937697
Cl 2.942889 -23.631389 -2.966256
Cl 2.942889 2.936399 23.601532
Cl -2.961063 -23.631389 2.937697
Cl 2.942889 -2.967554 -23.630091
Cl -2.961063 2.936399 -23.630091
Cl -2.961063 23.600233 8.841650
Cl -17.720945 -14.775460 -2.966256
Cl -17.720945 -2.967554 -14.774161
Cl -2.961063 -17.727436 -14.774161
Cl 17.702771 5.888375 5.889673
Cl 2.942889 -17.727436 14.745602
Cl 2.942889 14.744304 -17.726138
Cl 14.750795 2.936399 -17.726138
Cl 8.846842 14.744304 5.889673
Cl -17.720945 2.936399 14.745602
Cl -17.720945 14.744304 2.937697
Cl 14.750795 -17.727436 2.937697
Cl 2.942889 8.840351 17.697579
Cl -2.961063 -17.727436 8.841650
Cl -2.961063 8.840351 -17.726138
Cl 8.846842 -2.967554 -17.726138
Cl 17.702771 -5.919530 17.697579
Cl -17.720945 -2.967554 8.841650
Cl -17.720945 8.840351 -2.966256
Cl 8.846842 -17.727436 -2.966256
Cl 14.750795 20.648257 -5.918232
Cl -11.816993 -17.727436 -0.014280
Cl -11.816993 -0.015578 -17.726138
Cl -0.009087 -11.823483 -17.726138
Cl -5.913040 14.744304 20.649555
Cl -8.865016 -0.015578 20.649555
Cl -8.865016 20.648257 -0.014280
Cl 20.654748 -8.871507 -0.014280
Cl 20.654748 11.792328 -2.966256
Cl -0.009087 -8.871507 20.649555
Cl -0.009087 20.648257 -8.870209
Cl 20.654748 -0.015578 -8.870209
Cl 2.942889 17.696281 8.841650
Cl 8.846842 2.936399 17.697579
Cl -17.720945 -8.871507 2.937697
Cl -17.720945 2.936399 -8.870209
Cl 2.942889 -17.727436 -8.870209
Cl -14.768969 -20.679412 -5.918232
Cl -14.768969 -5.919530 -20.678114
Cl -5.913040 -14.775460 -20.678114
Cl 23.606724 17.696281 -11.822185
Cl -8.865016 -8.871507 11.793626
Cl -8.865016 11.792328 -8.870209
Cl 11.798819 -8.871507 -8.870209
Cl 23.606724 -5.919530 11.793626
Cl -5.913040 -5.919530 17.697579
Cl -5.913040 17.696281 -5.918232
Cl 17.702771 -5.919530 -5.918232
Cl -8.865016 23.600233 14.745602
Cl 8.846842 -23.631389 14.745602
Cl 14.750795 8.840351 -23.630091
Cl 8.846842 14.744304 -23.630091
Cl 11.798819 -5.919530 23.601532
Cl -23.624898 14.744304 8.841650
Cl -23.624898 8.840351 14.745602
Cl 14.750795 -23.631389 8.841650
Cl 23.606724 2.936399 2.937697
Cl -23.624898 -8.871507 -14.774161
Cl -23.624898 -14.775460 -8.870209
Cl -8.865016 -23.631389 -14.774161
Cl 14.750795 8.840351 5.889673
Cl 8.846842 -17.727436 20.649555
Cl 8.846842 20.648257 -17.726138
Cl 20.654748 8.840351 -17.726138
Cl 8.846842 20.648257 -0.014280
Cl -17.720945 8.840351 20.649555
Cl -17.720945 20.648257 8.841650
Cl 20.654748 -17.727436 8.841650
Cl 2.942889 11.792328 14.745602
Cl -5.913040 -17.727436 5.889673
Cl -5.913040 5.888375 -17.726138
Cl 5.894866 -5.919530 -17.726138
Cl 17.702771 -0.015578 11.793626
Cl 17.702771 17.696281 -5.918232
Cl -14.768969 2.936399 17.697579
Cl -14.768969 17.696281 2.937697
Cl 17.702771 -14.775460 2.937697
Cl 2.942889 -14.775460 17.697579
Cl 2.942889 17.696281 -14.774161
Cl 17.702771 2.936399 -14.774161
Cl 11.798819 5.888375 11.793626
Cl -14.768969 -5.919530 8.841650
Cl -14.768969 8.840351 -5.918232
Cl 8.846842 -14.775460 -5.918232
Cl -8.865016 14.744304 23.601532
Cl -14.768969 -23.631389 -8.870209
Cl -8.865016 -14.775460 -23.630091
Cl -14.768969 -8.871507 -23.630091
Cl 20.654748 -11.823483 20.649555
Cl -0.009087 23.600233 5.889673
Cl -23.624898 -5.919530 -0.014280
Cl -23.624898 -0.015578 -5.918232
Cl -0.009087 -23.631389 -5.918232
Cl -5.913040 -23.631389 -0.014280
Cl -5.913040 -0.015578 -23.630091
Cl -0.009087 -5.919530 -23.630091
Cl 14.750795 23.600233 -8.870209
Cl -0.009087 5.888375 23.601532
Cl -0.009087 -5.919530 23.601532
Cl -0.009087 23.600233 -5.918232
Cl 23.606724 -0.015578 -5.918232
Cl 23.606724 8.840351 -2.966256
Cl -8.865016 2.936399 23.601532
Cl -8.865016 23.600233 2.937697
Cl 23.606724 -8.871507 2.937697
Cl -11.816993 20.648257 20.649555
Cl 5.894866 -23.631389 11.793626
Cl 5.894866 11.792328 -23.630091
Cl 11.798819 5.888375 -23.630091
Cl -20.672922 -20.679412 -11.822185
Cl -20.672922 -11.823483 -20.678114
Cl -11.816993 -20.679412 -20.678114
Cl 14.750795 -8.871507 23.601532
Cl -23.624898 5.888375 11.793626
Cl -23.624898 11.792328 5.889673
Cl 11.798819 -23.631389 5.889673
Cl -5.913040 23.600233 11.793626
Cl -23.624898 -11.823483 -5.918232
Cl -23.624898 -5.919530 -11.822185
Cl -5.913040 -23.631389 -11.822185
Cl 23.606724 -0.015578 5.889673
Cl 5.894866 -0.015578 23.601532
Cl -23.624898 -0.015578 5.889673
Cl -23.624898 5.888375 -0.014280
Cl 5.894866 -23.631389 -0.014280
Cl 23.606724 -8.871507 14.745602
Cl -0.009087 -23.631389 5.889673
Cl -0.009087 5.888375 -23.630091
Cl 5.894866 -0.015578 -23.630091
Cl 20.654748 20.648257 -11.822185
Cl -11.816993 -14.775460 2.937697
Cl -11.816993 2.936399 -14.774161
Cl 2.942889 -11.823483 -14.774161
Cl 8.846842 17.696281 2.937697
Cl -5.913040 -11.823483 11.793626
Cl -5.913040 11.792328 -11.822185
Cl 11.798819 -5.919530 -11.822185
Cl -2.961063 14.744304 17.697579
Cl -17.720945 -11.823483 -0.014280
Cl -17.720945 -0.015578 -11.822185
Cl -0.009087 -17.727436 -11.822185
Cl 2.942889 14.744304 11.793626
Cl 8.846842 -14.775460 23.601532
Cl 8.846842 23.600233 -14.774161
Cl 23.606724 8.840351 -14.774161
Cl 11.798819 -0.015578 17.697579
Cl -20.672922 11.792328 20.649555
Cl -20.672922 20.648257 11.793626
Cl 20.654748 -20.679412 11.793626
Cl 14.750795 11.792328 2.937697
Cl -17.720945 -17.727436 -5.918232
Cl -17.720945 -5.919530 -17.726138
Cl -5.913040 -17.727436 -17.726138
Cl -17.720945 -0.015578 11.793626
Cl -17.720945 11.792328 -0.014280
Cl 11.798819 -17.727436 -0.014280
Cl 17.702771 2.936399 8.841650
Cl -0.009087 -17.727436 11.793626
Cl -0.009087 11.792328 -17.726138
Cl 11.798819 -0.015578 -17.726138
Cl 5.894866 5.888375 17.697579
Cl 11.798819 -20.679412 20.649555
Cl 11.798819 20.648257 -20.678114
Cl 20.654748 11.792328 -20.678114
Cl 8.846842 11.792328 8.841650
Cl -14.768969 8.840351 23.601532
Cl -14.768969 23.600233 8.841650
Cl 23.606724 -14.775460 8.841650
Cl 23.606724 11.792328 -5.918232
Cl -5.913040 -0.015578 23.601532
Cl -5.913040 23.600233 -0.014280
Cl 23.606724 -5.919530 -0.014280
Cl 5.894866 23.600233 -0.014280
Cl 2.942889 -8.871507 23.601532
Cl 2.942889 23.600233 -8.870209
Cl 23.606724 2.936399 -8.870209
Cl -5.913040 11.792328 23.601532
Cl -11.816993 -23.631389 -5.918232
Cl -11.816993 -5.919530 -23.630091
Cl -5.913040 -11.823483 -23.630091
Cl 11.798819 23.600233 -5.918232
Cl -8.865016 20.648257 17.697579
Cl -8.865016 -5.919530 14.745602
Cl -8.865016 14.744304 -5.918232
Cl 14.750795 -8.871507 -5.918232
Cl 20.654748 -5.919530 14.745602
Cl -5.913040 -20.679412 2.937697
Cl -5.913040 2.936399 -20.678114
Cl 2.942889 -5.919530 -20.678114
Cl 14.750795 -5.919530 20.649555
Cl -20.672922 -5.919530 2.937697
Cl -20.672922 2.936399 -5.918232
Cl 2.942889 -20.679412 -5.918232
Cl -0.009087 20.648257 8.841650
Cl -20.672922 5.888375 14.745602
Cl -20.672922 14.744304 5.889673
Cl 14.750795 -20.679412 5.889673
Cl 5.894866 -20.679412 14.745602
Cl 5.894866 14.744304 -20.678114
Cl 14.750795 5.888375 -20.678114
Cl 20.654748 8.840351 -0.014280
Cl 14.750795 17.696281 -2.966256
Cl -0.009087 -11.823483 17.697579
Cl -0.009087 17.696281 -11.822185
Cl 17.702771 -0.015578 -11.822185
Cl -0.009087 8.840351 20.649555
Cl -11.816993 -8.871507 8.841650
Cl -11.816993 8.840351 -8.870209
Cl 8.846842 -11.823483 -8.870209
Cl -11.816993 -0.015578 17.697579
Cl -11.816993 17.696281 -0.014280
Cl 17.702771 -11.823483 -0.014280
Cl 5.894866 17.696281 5.889673
Cl -8.865016 -14.775460 5.889673
Cl -8.865016 5.888375 -14.774161
Cl 5.894866 -8.871507 -14.774161
Cl 20.654748 17.696281 -8.870209
Cl -20.672922 -17.727436 -8.870209
Cl -20.672922 -8.871507 -17.726138
Cl -8.865016 -20.679412 -17.726138
Cl 20.654748 -0.015578 8.841650
Cl -5.913040 20.648257 14.745602
Cl -11.816993 -20.679412 -2.966256
Cl -11.816993 -2.967554 -20.678114
Cl -2.961063 -11.823483 -20.678114
Cl 8.846842 -0.015578 20.649555
Cl -20.672922 -0.015578 8.841650
Cl -20.672922 8.840351 -0.014280
Cl 8.846842 -20.679412 -0.014280
Cl 5.894866 -14.775460 20.649555
Cl 5.894866 20.648257 -14.774161
Cl 20.654748 5.888375 -14.774161
Cl 20.654748 5.888375 2.937697
Cl -14.768969 5.888375 20.649555
Cl -14.768969 20.648257 5.889673
Cl 20.654748 -14.775460 5.889673
Cl -0.009087 14.744304 14.745602
Cl -20.672922 -11.823483 -2.966256
Cl -20.672922 -2.967554 -11.822185
Cl -2.961063 -20.679412 -11.822185
Cl 11.798819 8.840351 8.841650
Cl -2.961063 -5.919530 20.649555
Cl -2.961063 20.648257 -5.918232
Cl 20.654748 -2.967554 -5.918232
Cl 14.750795 -2.967554 17.697579
Cl -0.009087 -20.679412 8.841650
Cl -0.009087 8.840351 -20.678114
Cl 8.846842 -0.015578 -20.678114
Cl 17.702771 14.744304 -2.966256
Cl -17.720945 -5.919530 5.889673
Cl -17.720945 5.888375 -5.918232
Cl 5.894866 -17.727436 -5.918232
Cl 8.846842 5.888375 14.745602
Cl -2.961063 -14.775460 11.793626
Cl -2.961063 11.792328 -14.774161
Cl 11.798819 -2.967554 -14.774161
Cl 11.798819 17.696281 -0.014280
Cl -14.768969 -14.775460 -0.014280
Cl -14.768969 -0.015578 -14.774161
Cl -0.009087 -14.775460 -14.774161
Cl 20.654748 -8.871507 17.697579
Cl -8.865016 17.696281 20.649555
Cl -14.768969 -2.967554 11.793626
Cl -14.768969 11.792328 -2.966256
Cl 11.798819 -14.775460 -2.966256
Cl 8.846842 -20.679412 17.697579
Cl 8.846842 17.696281 -20.678114
Cl 17.702771 8.840351 -20.678114
Cl 14.750795 2.936399 11.793626
Cl -20.672922 8.840351 17.697579
Cl -20.672922 17.696281 8.841650
Cl 17.702771 -20.679412 8.841650
Cl 5.894866 11.792328 11.793626
Cl 2.942889 20.648257 5.889673
