1271
HgTe-Te-Hg588Te493Cl190-reconstructed
Hg -18.118210 -11.533064 -1.650169
Hg -18.118210 -11.533064 4.929799
Hg -18.118210 -4.953096 -8.230138
Hg -18.118210 -8.243080 -4.940153
Hg -18.118210 -4.953096 -1.650169
Hg -18.118210 -8.243080 1.639815
Hg -18.118210 -4.953096 4.929799
Hg -18.118210 -4.953096 11.509768
Hg -18.118210 -1.663112 -11.520122
Hg -18.118210 1.626873 -8.230138
Hg -18.118210 -1.663112 -4.940153
Hg -18.118210 1.626873 -1.650169
Hg -18.118210 -1.663112 1.639815
Hg -18.118210 1.626873 4.929799
Hg -18.118210 -1.663112 8.219784
Hg -18.118210 1.626873 11.509768
Hg -18.118210 4.916857 -11.520122
Hg -18.118210 4.916857 -4.940153
Hg -18.118210 8.206841 -1.650169
Hg -18.118210 4.916857 1.639815
Hg -18.118210 8.206841 4.929799
Hg -18.118210 4.916857 8.219784
Hg -18.118210 11.496825 -4.940153
Hg -18.118210 11.496825 1.639815
Hg -11.538241 -18.113033 -1.650169
Hg -11.538241 -18.113033 4.929799
Hg -11.538241 -14.823048 -4.940153
Hg -14.828225 -11.533064 -4.940153
Hg -14.828225 -14.823048 -1.650169
Hg -11.538241 -11.533064 -1.650169
Hg -11.538241 -14.823048 1.639815
Hg -14.828225 -11.533064 1.639815
Hg -14.828225 -14.823048 4.929799
Hg -11.538241 -11.533064 4.929799
Hg -14.828225 -11.533064 8.219784
Hg -11.538241 -11.533064 11.509768
Hg -11.538241 -4.953096 -14.810106
Hg -11.538241 -8.243080 -11.520122
Hg -14.828225 -8.243080 -8.230138
Hg -11.538241 -4.953096 -8.230138
Hg -11.538241 -8.243080 -4.940153
Hg -14.828225 -4.953096 -4.940153
Hg -14.828225 -8.243080 -1.650169
Hg -11.538241 -4.953096 -1.650169
Hg -11.538241 -8.243080 1.639815
Hg -14.828225 -4.953096 1.639815
Hg -14.828225 -8.243080 4.929799
Hg -11.538241 -4.953096 4.929799
Hg -11.538241 -8.243080 8.219784
Hg -14.828225 -4.953096 8.219784
Hg -14.828225 -8.243080 11.509768
Hg -11.538241 -4.953096 11.509768
Hg -14.828225 -4.953096 14.799752
Hg -11.538241 -4.953096 18.089736
Hg -11.538241 -1.663112 -18.100090
Hg -14.828225 -1.663112 -14.810106
Hg -11.538241 1.626873 -14.810106
Hg -11.538241 -1.663112 -11.520122
Hg -14.828225 1.626873 -11.520122
Hg -14.828225 -1.663112 -8.230138
Hg -11.538241 1.626873 -8.230138
Hg -11.538241 -1.663112 -4.940153
Hg -14.828225 1.626873 -4.940153
Hg -14.828225 -1.663112 -1.650169
Hg -11.538241 1.626873 -1.650169
Hg -11.538241 -1.663112 1.639815
Hg -14.828225 1.626873 1.639815
Hg -14.828225 -1.663112 4.929799
Hg -11.538241 1.626873 4.929799
Hg -11.538241 -1.663112 8.219784
Hg -14.828225 1.626873 8.219784
Hg -14.828225 -1.663112 11.509768
Hg -11.538241 1.626873 11.509768
Hg -11.538241 -1.663112 14.799752
Hg -14.828225 1.626873 14.799752
Hg -11.538241 1.626873 18.089736
Hg -11.538241 4.916857 -18.100090
Hg -14.828225 4.916857 -14.810106
Hg -11.538241 4.916857 -11.520122
Hg -14.828225 8.206841 -11.520122
Hg -14.828225 4.916857 -8.230138
Hg -11.538241 8.206841 -8.230138
Hg -11.538241 4.916857 -4.940153
Hg -14.828225 8.206841 -4.940153
Hg -14.828225 4.916857 -1.650169
Hg -11.538241 8.206841 -1.650169
Hg -11.538241 4.916857 1.639815
Hg -14.828225 8.206841 1.639815
Hg -14.828225 4.916857 4.929799
Hg -11.538241 8.206841 4.929799
Hg -11.538241 4.916857 8.219784
Hg -14.828225 4.916857 11.509768
Hg -11.538241 8.206841 11.509768
Hg -11.538241 11.496825 -11.520122
Hg -14.828225 11.496825 -8.230138
Hg -11.538241 11.496825 -4.940153
Hg -14.828225 14.786809 -4.940153
Hg -14.828225 11.496825 -1.650169
Hg -11.538241 14.786809 -1.650169
Hg -11.538241 11.496825 1.639815
Hg -14.828225 14.786809 1.639815
Hg -14.828225 11.496825 4.929799
Hg -11.538241 11.496825 8.219784
Hg -11.538241 18.076794 -4.940153
Hg -11.538241 18.076794 1.639815
Hg -4.958273 -18.113033 -8.230138
Hg -8.248257 -18.113033 -4.940153
Hg -4.958273 -18.113033 -1.650169
Hg -8.248257 -18.113033 1.639815
Hg -4.958273 -18.113033 4.929799
Hg -8.248257 -18.113033 8.219784
Hg -4.958273 -18.113033 11.509768
Hg -4.958273 -11.533064 -14.810106
Hg -8.248257 -11.533064 -11.520122
Hg -8.248257 -14.823048 -8.230138
Hg -4.958273 -11.533064 -8.230138
Hg -4.958273 -14.823048 -4.940153
Hg -8.248257 -11.533064 -4.940153
Hg -8.248257 -14.823048 -1.650169
Hg -4.958273 -11.533064 -1.650169
Hg -4.958273 -14.823048 1.639815
Hg -8.248257 -11.533064 1.639815
Hg -8.248257 -14.823048 4.929799
Hg -4.958273 -11.533064 4.929799
Hg -4.958273 -14.823048 8.219784
Hg -8.248257 -11.533064 8.219784
Hg -8.248257 -14.823048 11.509768
Hg -4.958273 -11.533064 11.509768
Hg -4.958273 -14.823048 14.799752
Hg -8.248257 -11.533064 14.799752
Hg -4.958273 -11.533064 18.089736
Hg -4.958273 -8.243080 -18.100090
Hg -8.248257 -4.953096 -18.100090
Hg -4.958273 -4.953096 -14.810106
Hg -4.958273 -8.243080 -11.520122
Hg -8.248257 -4.953096 -11.520122
Hg -8.248257 -8.243080 -8.230138
Hg -4.958273 -4.953096 -8.230138
Hg -4.958273 -8.243080 -4.940153
Hg -8.248257 -4.953096 -4.940153
Hg -8.248257 -8.243080 -1.650169
Hg -4.958273 -4.953096 -1.650169
Hg -4.958273 -8.243080 1.639815
Hg -8.248257 -4.953096 1.639815
Hg -8.248257 -8.243080 4.929799
Hg -4.958273 -4.953096 4.929799
Hg -4.958273 -8.243080 8.219784
Hg -8.248257 -4.953096 8.219784
Hg -8.248257 -8.243080 11.509768
Hg -4.958273 -4.953096 11.509768
Hg -4.958273 -8.243080 14.799752
Hg -8.248257 -4.953096 14.799752
Hg -8.248257 -8.243080 18.089736
Hg -4.958273 -4.953096 18.089736
Hg -4.958273 -1.663112 -18.100090
Hg -8.248257 1.626873 -18.100090
Hg -8.248257 -1.663112 -14.810106
Hg -4.958273 1.626873 -14.810106
Hg -4.958273 -1.663112 -11.520122
Hg -8.248257 1.626873 -11.520122
Hg -8.248257 -1.663112 -8.230138
Hg -4.958273 1.626873 -8.230138
Hg -4.958273 -1.663112 -4.940153
Hg -8.248257 1.626873 -4.940153
Hg -8.248257 -1.663112 -1.650169
Hg -4.958273 1.626873 -1.650169
Hg -4.958273 -1.663112 1.639815
Hg -8.248257 1.626873 1.639815
Hg -8.248257 -1.663112 4.929799
Hg -4.958273 1.626873 4.929799
Hg -4.958273 -1.663112 8.219784
Hg -8.248257 1.626873 8.219784
Hg -8.248257 -1.663112 11.509768
Hg -4.958273 1.626873 11.509768
Hg -4.958273 -1.663112 14.799752
Hg -8.248257 1.626873 14.799752
Hg -8.248257 -1.663112 18.089736
Hg -4.958273 1.626873 18.089736
Hg -4.958273 4.916857 -18.100090
Hg -8.248257 8.206841 -18.100090
Hg -8.248257 4.916857 -14.810106
Hg -4.958273 8.206841 -14.810106
Hg -4.958273 4.916857 -11.520122
Hg -8.248257 8.206841 -11.520122
Hg -8.248257 4.916857 -8.230138
Hg -4.958273 8.206841 -8.230138
Hg -4.958273 4.916857 -4.940153
Hg -8.248257 8.206841 -4.940153
Hg -8.248257 4.916857 -1.650169
Hg -4.958273 8.206841 -1.650169
Hg -4.958273 4.916857 1.639815
Hg -8.248257 8.206841 1.639815
Hg -8.248257 4.916857 4.929799
Hg -4.958273 8.206841 4.929799
Hg -4.958273 4.916857 8.219784
Hg -8.248257 8.206841 8.219784
Hg -8.248257 4.916857 11.509768
Hg -4.958273 8.206841 11.509768
Hg -4.958273 4.916857 14.799752
Hg -8.248257 8.206841 14.799752
Hg -8.248257 4.916857 18.089736
Hg -4.958273 8.206841 18.089736
Hg -4.958273 11.496825 -18.100090
Hg -8.248257 11.496825 -14.810106
Hg -4.958273 14.786809 -14.810106
Hg -4.958273 11.496825 -11.520122
Hg -8.248257 14.786809 -11.520122
Hg -8.248257 11.496825 -8.230138
Hg -4.958273 14.786809 -8.230138
Hg -4.958273 11.496825 -4.940153
Hg -8.248257 14.786809 -4.940153
Hg -8.248257 11.496825 -1.650169
Hg -4.958273 14.786809 -1.650169
Hg -4.958273 11.496825 1.639815
Hg -8.248257 14.786809 1.639815
Hg -8.248257 11.496825 4.929799
Hg -4.958273 14.786809 4.929799
Hg -4.958273 11.496825 8.219784
Hg -8.248257 14.786809 8.219784
Hg -4.958273 14.786809 11.509768
Hg -4.958273 11.496825 14.799752
Hg -4.958273 18.076794 -11.520122
Hg -8.248257 18.076794 -8.230138
Hg -4.958273 18.076794 -4.940153
Hg -8.248257 18.076794 -1.650169
Hg -4.958273 18.076794 1.639815
Hg -8.248257 18.076794 4.929799
Hg -4.958273 18.076794 8.219784
Hg -1.668289 -18.113033 -11.520122
Hg 1.621696 -18.113033 -8.230138
Hg -1.668289 -18.113033 -4.940153
Hg 1.621696 -18.113033 -1.650169
Hg -1.668289 -18.113033 1.639815
Hg 1.621696 -18.113033 4.929799
Hg -1.668289 -18.113033 8.219784
Hg 1.621696 -18.113033 11.509768
Hg -1.668289 -11.533064 -18.100090
Hg -1.668289 -14.823048 -14.810106
Hg 1.621696 -11.533064 -14.810106
Hg 1.621696 -14.823048 -11.520122
Hg -1.668289 -11.533064 -11.520122
Hg -1.668289 -14.823048 -8.230138
Hg 1.621696 -11.533064 -8.230138
Hg 1.621696 -14.823048 -4.940153
Hg -1.668289 -11.533064 -4.940153
Hg -1.668289 -14.823048 -1.650169
Hg 1.621696 -11.533064 -1.650169
Hg 1.621696 -14.823048 1.639815
Hg -1.668289 -11.533064 1.639815
Hg -1.668289 -14.823048 4.929799
Hg 1.621696 -11.533064 4.929799
Hg 1.621696 -14.823048 8.219784
Hg -1.668289 -11.533064 8.219784
Hg -1.668289 -14.823048 11.509768
Hg 1.621696 -11.533064 11.509768
Hg 1.621696 -14.823048 14.799752
Hg -1.668289 -11.533064 14.799752
Hg 1.621696 -11.533064 18.089736
Hg 1.621696 -8.243080 -18.100090
Hg -1.668289 -4.953096 -18.100090
Hg -1.668289 -8.243080 -14.810106
Hg 1.621696 -4.953096 -14.810106
Hg 1.621696 -8.243080 -11.520122
Hg -1.668289 -4.953096 -11.520122
Hg -1.668289 -8.243080 -8.230138
Hg 1.621696 -4.953096 -8.230138
Hg 1.621696 -8.243080 -4.940153
Hg -1.668289 -4.953096 -4.940153
Hg -1.668289 -8.243080 -1.650169
Hg 1.621696 -4.953096 -1.650169
Hg 1.621696 -8.243080 1.639815
Hg -1.668289 -4.953096 1.639815
Hg -1.668289 -8.243080 4.929799
Hg 1.621696 -4.953096 4.929799
Hg 1.621696 -8.243080 8.219784
Hg -1.668289 -4.953096 8.219784
Hg -1.668289 -8.243080 11.509768
Hg 1.621696 -4.953096 11.509768
Hg 1.621696 -8.243080 14.799752
Hg -1.668289 -4.953096 14.799752
Hg -1.668289 -8.243080 18.089736
Hg 1.621696 -4.953096 18.089736
Hg 1.621696 -1.663112 -18.100090
Hg -1.668289 1.626873 -18.100090
Hg -1.668289 -1.663112 -14.810106
Hg 1.621696 1.626873 -14.810106
Hg 1.621696 -1.663112 -11.520122
Hg -1.668289 1.626873 -11.520122
Hg -1.668289 -1.663112 -8.230138
Hg 1.621696 1.626873 -8.230138
Hg 1.621696 -1.663112 -4.940153
Hg -1.668289 1.626873 -4.940153
Hg -1.668289 -1.663112 -1.650169
Hg 1.621696 1.626873 -1.650169
Hg 1.621696 -1.663112 1.639815
Hg -1.668289 1.626873 1.639815
Hg -1.668289 -1.663112 4.929799
Hg 1.621696 1.626873 4.929799
Hg 1.621696 -1.663112 8.219784
Hg -1.668289 1.626873 8.219784
Hg -1.668289 -1.663112 11.509768
Hg 1.621696 1.626873 11.509768
Hg 1.621696 -1.663112 14.799752
Hg -1.668289 1.626873 14.799752
Hg -1.668289 -1.663112 18.089736
Hg 1.621696 1.626873 18.089736
Hg 1.621696 4.916857 -18.100090
Hg -1.668289 8.206841 -18.100090
Hg -1.668289 4.916857 -14.810106
Hg 1.621696 8.206841 -14.810106
Hg 1.621696 4.916857 -11.520122
Hg -1.668289 8.206841 -11.520122
Hg -1.668289 4.916857 -8.230138
Hg 1.621696 8.206841 -8.230138
Hg 1.621696 4.916857 -4.940153
Hg -1.668289 8.206841 -4.940153
Hg -1.668289 4.916857 -1.650169
Hg 1.621696 8.206841 -1.650169
Hg 1.621696 4.916857 1.639815
Hg -1.668289 8.206841 1.639815
Hg -1.668289 4.916857 4.929799
Hg 1.621696 8.206841 4.929799
Hg 1.621696 4.916857 8.219784
Hg -1.668289 8.206841 8.219784
Hg -1.668289 4.916857 11.509768
Hg 1.621696 8.206841 11.509768
Hg 1.621696 4.916857 14.799752
Hg -1.668289 8.206841 14.799752
Hg -1.668289 4.916857 18.089736
Hg 1.621696 8.206841 18.089736
Hg 1.621696 11.496825 -18.100090
Hg -1.668289 11.496825 -14.810106
Hg 1.621696 14.786809 -14.810106
Hg 1.621696 11.496825 -11.520122
Hg -1.668289 14.786809 -11.520122
Hg -1.668289 11.496825 -8.230138
Hg 1.621696 14.786809 -8.230138
Hg 1.621696 11.496825 -4.940153
Hg -1.668289 14.786809 -4.940153
Hg -1.668289 11.496825 -1.650169
Hg 1.621696 14.786809 -1.650169
Hg 1.621696 11.496825 1.639815
Hg -1.668289 14.786809 1.639815
Hg -1.668289 11.496825 4.929799
Hg 1.621696 14.786809 4.929799
Hg 1.621696 11.496825 8.219784
Hg -1.668289 14.786809 8.219784
Hg -1.668289 11.496825 11.509768
Hg 1.621696 14.786809 11.509768
Hg 1.621696 11.496825 14.799752
Hg -1.668289 14.786809 14.799752
Hg -1.668289 11.496825 18.089736
Hg 1.621696 18.076794 -11.520122
Hg -1.668289 18.076794 -8.230138
Hg 1.621696 18.076794 -4.940153
Hg -1.668289 18.076794 -1.650169
Hg 1.621696 18.076794 1.639815
Hg -1.668289 18.076794 4.929799
Hg 1.621696 18.076794 8.219784
Hg -1.668289 18.076794 11.509768
Hg 4.911680 -18.113033 -11.520122
Hg 4.911680 -18.113033 -4.940153
Hg 8.201664 -18.113033 -1.650169
Hg 4.911680 -18.113033 1.639815
Hg 8.201664 -18.113033 4.929799
Hg 4.911680 -18.113033 8.219784
Hg 4.911680 -11.533064 -18.100090
Hg 4.911680 -14.823048 -14.810106
Hg 8.201664 -14.823048 -11.520122
Hg 4.911680 -11.533064 -11.520122
Hg 4.911680 -14.823048 -8.230138
Hg 8.201664 -11.533064 -8.230138
Hg 8.201664 -14.823048 -4.940153
Hg 4.911680 -11.533064 -4.940153
Hg 4.911680 -14.823048 -1.650169
Hg 8.201664 -11.533064 -1.650169
Hg 8.201664 -14.823048 1.639815
Hg 4.911680 -11.533064 1.639815
Hg 4.911680 -14.823048 4.929799
Hg 8.201664 -11.533064 4.929799
Hg 4.911680 -11.533064 8.219784
Hg 4.911680 -14.823048 11.509768
Hg 8.201664 -11.533064 11.509768
Hg 8.201664 -8.243080 -18.100090
Hg 4.911680 -4.953096 -18.100090
Hg 4.911680 -8.243080 -14.810106
Hg 8.201664 -4.953096 -14.810106
Hg 8.201664 -8.243080 -11.520122
Hg 4.911680 -4.953096 -11.520122
Hg 4.911680 -8.243080 -8.230138
Hg 8.201664 -4.953096 -8.230138
Hg 8.201664 -8.243080 -4.940153
Hg 4.911680 -4.953096 -4.940153
Hg 4.911680 -8.243080 -1.650169
Hg 8.201664 -4.953096 -1.650169
Hg 8.201664 -8.243080 1.639815
Hg 4.911680 -4.953096 1.639815
Hg 4.911680 -8.243080 4.929799
Hg 8.201664 -4.953096 4.929799
Hg 8.201664 -8.243080 8.219784
Hg 4.911680 -4.953096 8.219784
Hg 4.911680 -8.243080 11.509768
Hg 8.201664 -4.953096 11.509768
Hg 8.201664 -8.243080 14.799752
Hg 4.911680 -4.953096 14.799752
Hg 4.911680 -8.243080 18.089736
Hg 8.201664 -4.953096 18.089736
Hg 8.201664 -1.663112 -18.100090
Hg 4.911680 1.626873 -18.100090
Hg 4.911680 -1.663112 -14.810106
Hg 8.201664 1.626873 -14.810106
Hg 8.201664 -1.663112 -11.520122
Hg 4.911680 1.626873 -11.520122
Hg 4.911680 -1.663112 -8.230138
Hg 8.201664 1.626873 -8.230138
Hg 8.201664 -1.663112 -4.940153
Hg 4.911680 1.626873 -4.940153
Hg 4.911680 -1.663112 -1.650169
Hg 8.201664 1.626873 -1.650169
Hg 8.201664 -1.663112 1.639815
Hg 4.911680 1.626873 1.639815
Hg 4.911680 -1.663112 4.929799
Hg 8.201664 1.626873 4.929799
Hg 8.201664 -1.663112 8.219784
Hg 4.911680 1.626873 8.219784
Hg 4.911680 -1.663112 11.509768
Hg 8.201664 1.626873 11.509768
Hg 8.201664 -1.663112 14.799752
Hg 4.911680 1.626873 14.799752
Hg 4.911680 -1.663112 18.089736
Hg 8.201664 1.626873 18.089736
Hg 8.201664 4.916857 -18.100090
Hg 4.911680 8.206841 -18.100090
Hg 4.911680 4.916857 -14.810106
Hg 8.201664 4.916857 -11.520122
Hg 4.911680 8.206841 -11.520122
Hg 4.911680 4.916857 -8.230138
Hg 8.201664 8.206841 -8.230138
Hg 8.201664 4.916857 -4.940153
Hg 4.911680 8.206841 -4.940153
Hg 4.911680 4.916857 -1.650169
Hg 8.201664 8.206841 -1.650169
Hg 8.201664 4.916857 1.639815
Hg 4.911680 8.206841 1.639815
Hg 4.911680 4.916857 4.929799
Hg 8.201664 8.206841 4.929799
Hg 8.201664 4.916857 8.219784
Hg 4.911680 8.206841 8.219784
Hg 4.911680 4.916857 11.509768
Hg 8.201664 8.206841 11.509768
Hg 8.201664 4.916857 14.799752
Hg 4.911680 8.206841 14.799752
Hg 4.911680 4.916857 18.089736
Hg 4.911680 11.496825 -14.810106
Hg 8.201664 11.496825 -11.520122
Hg 4.911680 11.496825 -8.230138
Hg 8.201664 14.786809 -8.230138
Hg 8.201664 11.496825 -4.940153
Hg 4.911680 14.786809 -4.940153
Hg 4.911680 11.496825 -1.650169
Hg 8.201664 14.786809 -1.650169
Hg 8.201664 11.496825 1.639815
Hg 4.911680 14.786809 1.639815
Hg 4.911680 11.496825 4.929799
Hg 8.201664 14.786809 4.929799
Hg 8.201664 11.496825 8.219784
Hg 4.911680 14.786809 8.219784
Hg 4.911680 11.496825 11.509768
Hg 8.201664 11.496825 14.799752
Hg 4.911680 14.786809 14.799752
Hg 4.911680 11.496825 18.089736
Hg 4.911680 18.076794 -8.230138
Hg 8.201664 18.076794 -4.940153
Hg 4.911680 18.076794 -1.650169
Hg 8.201664 18.076794 1.639815
Hg 4.911680 18.076794 4.929799
Hg 8.201664 18.076794 8.219784
Hg 4.911680 18.076794 11.509768
Hg 11.491648 -18.113033 -4.940153
Hg 11.491648 -18.113033 1.639815
Hg 11.491648 -11.533064 -11.520122
Hg 11.491648 -14.823048 -8.230138
Hg 14.781632 -14.823048 -4.940153
Hg 11.491648 -11.533064 -4.940153
Hg 11.491648 -14.823048 -1.650169
Hg 14.781632 -11.533064 -1.650169
Hg 14.781632 -14.823048 1.639815
Hg 11.491648 -11.533064 1.639815
Hg 11.491648 -14.823048 4.929799
Hg 11.491648 -11.533064 8.219784
Hg 11.491648 -4.953096 -18.100090
Hg 11.491648 -8.243080 -14.810106
Hg 14.781632 -4.953096 -14.810106
Hg 14.781632 -8.243080 -11.520122
Hg 11.491648 -4.953096 -11.520122
Hg 11.491648 -8.243080 -8.230138
Hg 14.781632 -4.953096 -8.230138
Hg 14.781632 -8.243080 -4.940153
Hg 11.491648 -4.953096 -4.940153
Hg 11.491648 -8.243080 -1.650169
Hg 14.781632 -4.953096 -1.650169
Hg 14.781632 -8.243080 1.639815
Hg 11.491648 -4.953096 1.639815
Hg 11.491648 -8.243080 4.929799
Hg 14.781632 -4.953096 4.929799
Hg 14.781632 -8.243080 8.219784
Hg 11.491648 -4.953096 8.219784
Hg 14.781632 -4.953096 11.509768
Hg 11.491648 -4.953096 14.799752
Hg 11.491648 1.626873 -18.100090
Hg 11.491648 -1.663112 -14.810106
Hg 14.781632 1.626873 -14.810106
Hg 14.781632 -1.663112 -11.520122
Hg 11.491648 1.626873 -11.520122
Hg 11.491648 -1.663112 -8.230138
Hg 14.781632 1.626873 -8.230138
Hg 14.781632 -1.663112 -4.940153
Hg 11.491648 1.626873 -4.940153
Hg 11.491648 -1.663112 -1.650169
Hg 14.781632 1.626873 -1.650169
Hg 14.781632 -1.663112 1.639815
Hg 11.491648 1.626873 1.639815
Hg 11.491648 -1.663112 4.929799
Hg 14.781632 1.626873 4.929799
Hg 14.781632 -1.663112 8.219784
Hg 11.491648 1.626873 8.219784
Hg 11.491648 -1.663112 11.509768
Hg 14.781632 1.626873 11.509768
Hg 14.781632 -1.663112 14.799752
Hg 11.491648 1.626873 14.799752
Hg 11.491648 -1.663112 18.089736
Hg 11.491648 4.916857 -14.810106
Hg 11.491648 8.206841 -11.520122
Hg 11.491648 4.916857 -8.230138
Hg 14.781632 8.206841 -8.230138
Hg 14.781632 4.916857 -4.940153
Hg 11.491648 8.206841 -4.940153
Hg 11.491648 4.916857 -1.650169
Hg 14.781632 8.206841 -1.650169
Hg 14.781632 4.916857 1.639815
Hg 11.491648 8.206841 1.639815
Hg 11.491648 4.916857 4.929799
Hg 14.781632 8.206841 4.929799
Hg 14.781632 4.916857 8.219784
Hg 11.491648 8.206841 8.219784
Hg 11.491648 4.916857 11.509768
Hg 14.781632 4.916857 14.799752
Hg 11.491648 8.206841 14.799752
Hg 11.491648 4.916857 18.089736
Hg 14.781632 11.496825 -4.940153
Hg 11.491648 14.786809 -4.940153
Hg 11.491648 11.496825 -1.650169
Hg 14.781632 14.786809 -1.650169
Hg 14.781632 11.496825 1.639815
Hg 11.491648 14.786809 1.639815
Hg 11.491648 11.496825 4.929799
Hg 14.781632 14.786809 4.929799
Hg 14.781632 11.496825 8.219784
Hg 11.491648 14.786809 8.219784
Hg 11.491648 11.496825 11.509768
Hg 11.491648 18.076794 -1.650169
Hg 11.491648 18.076794 4.929799
Hg 18.071617 -11.533064 -4.940153
Hg 18.071617 -11.533064 1.639815
Hg 18.071617 -4.953096 -11.520122
Hg 18.071617 -8.243080 -8.230138
Hg 18.071617 -4.953096 -4.940153
Hg 18.071617 -8.243080 -1.650169
Hg 18.071617 -4.953096 1.639815
Hg 18.071617 -8.243080 4.929799
Hg 18.071617 -4.953096 8.219784
Hg 18.071617 1.626873 -11.520122
Hg 18.071617 -1.663112 -8.230138
Hg 18.071617 1.626873 -4.940153
Hg 18.071617 -1.663112 -1.650169
Hg 18.071617 1.626873 1.639815
Hg 18.071617 -1.663112 4.929799
Hg 18.071617 1.626873 8.219784
Hg 18.071617 -1.663112 11.509768
Hg 18.071617 4.916857 -8.230138
Hg 18.071617 8.206841 -4.940153
Hg 18.071617 4.916857 -1.650169
Hg 18.071617 8.206841 1.639815
Hg 18.071617 4.916857 4.929799
Hg 18.071617 8.206841 8.219784
Hg 18.071617 4.916857 11.509768
Hg 18.071617 11.496825 -1.650169
Hg 18.071617 11.496825 4.929799
Te -16.473218 -13.178056 -3.295161
Te -16.473218 -9.888072 -0.005177
Te -16.473218 -13.178056 3.284807
Te -16.473218 -9.888072 6.574791
Te -16.473218 -3.308104 -6.585145
Te -16.473218 -6.598088 -3.295161
Te -16.473218 -3.308104 -0.005177
Te -16.473218 -6.598088 3.284807
Te -16.473218 -3.308104 6.574791
Te -16.473218 -6.598088 9.864776
Te -16.473218 -3.308104 13.154760
Te -16.473218 3.271865 -13.165114
Te -16.473218 -0.018120 -9.875130
Te -16.473218 3.271865 -6.585145
Te -16.473218 -0.018120 -3.295161
Te -16.473218 3.271865 -0.005177
Te -16.473218 -0.018120 3.284807
Te -16.473218 3.271865 6.574791
Te -16.473218 -0.018120 9.864776
Te -16.473218 3.271865 13.154760
Te -16.473218 6.561849 -9.875130
Te -16.473218 9.851833 -6.585145
Te -16.473218 6.561849 -3.295161
Te -16.473218 9.851833 -0.005177
Te -16.473218 6.561849 3.284807
Te -16.473218 13.141817 -3.295161
Te -16.473218 13.141817 3.284807
Te -9.893249 -16.468041 -6.585145
Te -13.183233 -16.468041 3.284807
Te -9.893249 -16.468041 -0.005177
Te -9.893249 -16.468041 6.574791
Te -13.183233 -9.888072 -3.295161
Te -9.893249 -9.888072 -6.585145
Te -9.893249 -13.178056 -3.295161
Te -13.183233 -13.178056 -0.005177
Te -13.183233 -9.888072 3.284807
Te -9.893249 -9.888072 -0.005177
Te -9.893249 -13.178056 3.284807
Te -13.183233 -13.178056 6.574791
Te -13.183233 -9.888072 9.864776
Te -9.893249 -9.888072 6.574791
Te -9.893249 -13.178056 9.864776
Te -9.893249 -9.888072 13.154760
Te -13.183233 -3.308104 -16.455098
Te -13.183233 -3.308104 -9.875130
Te -9.893249 -3.308104 -13.165114
Te -9.893249 -6.598088 -9.875130
Te -13.183233 -6.598088 -6.585145
Te -13.183233 -3.308104 -3.295161
Te -9.893249 -3.308104 -6.585145
Te -9.893249 -6.598088 -3.295161
Te -13.183233 -6.598088 -0.005177
Te -13.183233 -3.308104 3.284807
Te -9.893249 -3.308104 -0.005177
Te -9.893249 -6.598088 3.284807
Te -13.183233 -6.598088 6.574791
Te -13.183233 -3.308104 9.864776
Te -9.893249 -3.308104 6.574791
Te -9.893249 -6.598088 9.864776
Te -13.183233 -6.598088 13.154760
Te -13.183233 -3.308104 16.444744
Te -9.893249 -3.308104 13.154760
Te -9.893249 -6.598088 16.444744
Te -13.183233 3.271865 -16.455098
Te -9.893249 -0.018120 -16.455098
Te -13.183233 -0.018120 -13.165114
Te -13.183233 3.271865 -9.875130
Te -9.893249 3.271865 -13.165114
Te -9.893249 -0.018120 -9.875130
Te -13.183233 -0.018120 -6.585145
Te -13.183233 3.271865 -3.295161
Te -9.893249 3.271865 -6.585145
Te -9.893249 -0.018120 -3.295161
Te -13.183233 -0.018120 -0.005177
Te -13.183233 3.271865 3.284807
Te -9.893249 3.271865 -0.005177
Te -9.893249 -0.018120 3.284807
Te -13.183233 -0.018120 6.574791
Te -13.183233 3.271865 9.864776
Te -9.893249 3.271865 6.574791
Te -9.893249 -0.018120 9.864776
Te -13.183233 -0.018120 13.154760
Te -9.893249 3.271865 13.154760
Te -9.893249 -0.018120 16.444744
Te -9.893249 6.561849 -16.455098
Te -13.183233 6.561849 -13.165114
Te -13.183233 9.851833 -9.875130
Te -9.893249 9.851833 -13.165114
Te -9.893249 6.561849 -9.875130
Te -13.183233 6.561849 -6.585145
Te -13.183233 9.851833 -3.295161
Te -9.893249 9.851833 -6.585145
Te -9.893249 6.561849 -3.295161
Te -13.183233 6.561849 -0.005177
Te -13.183233 9.851833 3.284807
Te -9.893249 9.851833 -0.005177
Te -9.893249 6.561849 3.284807
Te -13.183233 6.561849 6.574791
Te -9.893249 9.851833 6.574791
Te -9.893249 6.561849 9.864776
Te -9.893249 13.141817 -9.875130
Te -13.183233 13.141817 -6.585145
Te -13.183233 16.431802 -3.295161
Te -9.893249 16.431802 -6.585145
Te -9.893249 13.141817 -3.295161
Te -13.183233 13.141817 -0.005177
Te -9.893249 16.431802 -0.005177
Te -9.893249 13.141817 3.284807
Te -6.603265 -16.468041 -3.295161
Te -3.313281 -16.468041 -6.585145
Te -6.603265 -16.468041 3.284807
Te -3.313281 -16.468041 -0.005177
Te -6.603265 -16.468041 9.864776
Te -3.313281 -16.468041 6.574791
Te -3.313281 -16.468041 13.154760
Te -3.313281 -13.178056 -16.455098
Te -6.603265 -9.888072 -9.875130
Te -3.313281 -9.888072 -13.165114
Te -3.313281 -13.178056 -9.875130
Te -6.603265 -13.178056 -6.585145
Te -6.603265 -9.888072 -3.295161
Te -3.313281 -9.888072 -6.585145
Te -3.313281 -13.178056 -3.295161
Te -6.603265 -13.178056 -0.005177
Te -6.603265 -9.888072 3.284807
Te -3.313281 -9.888072 -0.005177
Te -3.313281 -13.178056 3.284807
Te -6.603265 -13.178056 6.574791
Te -6.603265 -9.888072 9.864776
Te -3.313281 -9.888072 6.574791
Te -3.313281 -13.178056 9.864776
Te -6.603265 -13.178056 13.154760
Te -6.603265 -9.888072 16.444744
Te -3.313281 -9.888072 13.154760
Te -3.313281 -13.178056 16.444744
Te -6.603265 -3.308104 -16.455098
Te -3.313281 -6.598088 -16.455098
Te -6.603265 -6.598088 -13.165114
Te -6.603265 -3.308104 -9.875130
Te -3.313281 -3.308104 -13.165114
Te -3.313281 -6.598088 -9.875130
Te -6.603265 -6.598088 -6.585145
Te -6.603265 -3.308104 -3.295161
Te -3.313281 -3.308104 -6.585145
Te -3.313281 -6.598088 -3.295161
Te -6.603265 -6.598088 -0.005177
Te -6.603265 -3.308104 3.284807
Te -3.313281 -3.308104 -0.005177
Te -3.313281 -6.598088 3.284807
Te -6.603265 -6.598088 6.574791
Te -6.603265 -3.308104 9.864776
Te -3.313281 -3.308104 6.574791
Te -3.313281 -6.598088 9.864776
Te -6.603265 -6.598088 13.154760
Te -6.603265 -3.308104 16.444744
Te -3.313281 -3.308104 13.154760
Te -3.313281 -6.598088 16.444744
Te -6.603265 3.271865 -16.455098
Te -3.313281 -0.018120 -16.455098
Te -6.603265 -0.018120 -13.165114
Te -6.603265 3.271865 -9.875130
Te -3.313281 3.271865 -13.165114
Te -3.313281 -0.018120 -9.875130
Te -6.603265 -0.018120 -6.585145
Te -6.603265 3.271865 -3.295161
Te -3.313281 3.271865 -6.585145
Te -3.313281 -0.018120 -3.295161
Te -6.603265 -0.018120 -0.005177
Te -6.603265 3.271865 3.284807
Te -3.313281 3.271865 -0.005177
Te -3.313281 -0.018120 3.284807
Te -6.603265 -0.018120 6.574791
Te -6.603265 3.271865 9.864776
Te -3.313281 3.271865 6.574791
Te -3.313281 -0.018120 9.864776
Te -6.603265 -0.018120 13.154760
Te -6.603265 3.271865 16.444744
Te -3.313281 3.271865 13.154760
Te -3.313281 -0.018120 16.444744
Te -6.603265 9.851833 -16.455098
Te -3.313281 6.561849 -16.455098
Te -6.603265 6.561849 -13.165114
Te -6.603265 9.851833 -9.875130
Te -3.313281 9.851833 -13.165114
Te -3.313281 6.561849 -9.875130
Te -6.603265 6.561849 -6.585145
Te -6.603265 9.851833 -3.295161
Te -3.313281 9.851833 -6.585145
Te -3.313281 6.561849 -3.295161
Te -6.603265 6.561849 -0.005177
Te -6.603265 9.851833 3.284807
Te -3.313281 9.851833 -0.005177
Te -3.313281 6.561849 3.284807
Te -6.603265 6.561849 6.574791
Te -6.603265 9.851833 9.864776
Te -3.313281 9.851833 6.574791
Te -3.313281 6.561849 9.864776
Te -6.603265 6.561849 13.154760
Te -3.313281 9.851833 13.154760
Te -3.313281 6.561849 16.444744
Te -3.313281 13.141817 -16.455098
Te -6.603265 13.141817 -13.165114
Te -6.603265 16.431802 -9.875130
Te -3.313281 16.431802 -13.165114
Te -3.313281 13.141817 -9.875130
Te -6.603265 13.141817 -6.585145
Te -6.603265 16.431802 -3.295161
Te -3.313281 16.431802 -6.585145
Te -3.313281 13.141817 -3.295161
Te -6.603265 13.141817 -0.005177
Te -6.603265 16.431802 3.284807
Te -3.313281 16.431802 -0.005177
Te -3.313281 13.141817 3.284807
Te -6.603265 13.141817 6.574791
Te -6.603265 16.431802 9.864776
Te -3.313281 16.431802 6.574791
Te -3.313281 13.141817 9.864776
Te -3.313281 13.141817 16.444744
Te -0.023297 -16.468041 -9.875130
Te 3.266688 -16.468041 -13.165114
Te -0.023297 -16.468041 -3.295161
Te 3.266688 -16.468041 -6.585145
Te -0.023297 -16.468041 3.284807
Te 3.266688 -16.468041 -0.005177
Te -0.023297 -16.468041 9.864776
Te 3.266688 -16.468041 6.574791
Te 3.266688 -16.468041 13.154760
Te -0.023297 -9.888072 -16.455098
Te 3.266688 -13.178056 -16.455098
Te -0.023297 -13.178056 -13.165114
Te -0.023297 -9.888072 -9.875130
Te 3.266688 -9.888072 -13.165114
Te 3.266688 -13.178056 -9.875130
Te -0.023297 -13.178056 -6.585145
Te -0.023297 -9.888072 -3.295161
Te 3.266688 -9.888072 -6.585145
Te 3.266688 -13.178056 -3.295161
Te -0.023297 -13.178056 -0.005177
Te -0.023297 -9.888072 3.284807
Te 3.266688 -9.888072 -0.005177
Te 3.266688 -13.178056 3.284807
Te -0.023297 -13.178056 6.574791
Te -0.023297 -9.888072 9.864776
Te 3.266688 -9.888072 6.574791
Te 3.266688 -13.178056 9.864776
Te -0.023297 -13.178056 13.154760
Te -0.023297 -9.888072 16.444744
Te 3.266688 -9.888072 13.154760
Te -0.023297 -3.308104 -16.455098
Te 3.266688 -6.598088 -16.455098
Te -0.023297 -6.598088 -13.165114
Te -0.023297 -3.308104 -9.875130
Te 3.266688 -3.308104 -13.165114
Te 3.266688 -6.598088 -9.875130
Te -0.023297 -6.598088 -6.585145
Te -0.023297 -3.308104 -3.295161
Te 3.266688 -3.308104 -6.585145
Te 3.266688 -6.598088 -3.295161
Te -0.023297 -6.598088 -0.005177
Te -0.023297 -3.308104 3.284807
Te 3.266688 -3.308104 -0.005177
Te 3.266688 -6.598088 3.284807
Te -0.023297 -6.598088 6.574791
Te -0.023297 -3.308104 9.864776
Te 3.266688 -3.308104 6.574791
Te 3.266688 -6.598088 9.864776
Te -0.023297 -6.598088 13.154760
Te -0.023297 -3.308104 16.444744
Te 3.266688 -3.308104 13.154760
Te 3.266688 -6.598088 16.444744
Te -0.023297 3.271865 -16.455098
Te 3.266688 -0.018120 -16.455098
Te -0.023297 -0.018120 -13.165114
Te -0.023297 3.271865 -9.875130
Te 3.266688 3.271865 -13.165114
Te 3.266688 -0.018120 -9.875130
Te -0.023297 -0.018120 -6.585145
Te -0.023297 3.271865 -3.295161
Te 3.266688 3.271865 -6.585145
Te 3.266688 -0.018120 -3.295161
Te -0.023297 -0.018120 -0.005177
Te -0.023297 3.271865 3.284807
Te 3.266688 3.271865 -0.005177
Te 3.266688 -0.018120 3.284807
Te -0.023297 -0.018120 6.574791
Te -0.023297 3.271865 9.864776
Te 3.266688 3.271865 6.574791
Te 3.266688 -0.018120 9.864776
Te -0.023297 -0.018120 13.154760
Te -0.023297 3.271865 16.444744
Te 3.266688 3.271865 13.154760
Te 3.266688 -0.018120 16.444744
Te -0.023297 9.851833 -16.455098
Te 3.266688 6.561849 -16.455098
Te -0.023297 6.561849 -13.165114
Te -0.023297 9.851833 -9.875130
Te 3.266688 9.851833 -13.165114
Te 3.266688 6.561849 -9.875130
Te -0.023297 6.561849 -6.585145
Te -0.023297 9.851833 -3.295161
Te 3.266688 9.851833 -6.585145
Te 3.266688 6.561849 -3.295161
Te -0.023297 6.561849 -0.005177
Te -0.023297 9.851833 3.284807
Te 3.266688 9.851833 -0.005177
Te 3.266688 6.561849 3.284807
Te -0.023297 6.561849 6.574791
Te -0.023297 9.851833 9.864776
Te 3.266688 9.851833 6.574791
Te 3.266688 6.561849 9.864776
Te -0.023297 6.561849 13.154760
Te -0.023297 9.851833 16.444744
Te 3.266688 9.851833 13.154760
Te 3.266688 6.561849 16.444744
Te 3.266688 13.141817 -16.455098
Te -0.023297 13.141817 -13.165114
Te -0.023297 16.431802 -9.875130
Te 3.266688 13.141817 -9.875130
Te -0.023297 13.141817 -6.585145
Te -0.023297 16.431802 -3.295161
Te 3.266688 16.431802 -6.585145
Te 3.266688 13.141817 -3.295161
Te -0.023297 13.141817 -0.005177
Te -0.023297 16.431802 3.284807
Te 3.266688 16.431802 -0.005177
Te 3.266688 13.141817 3.284807
Te -0.023297 13.141817 6.574791
Te -0.023297 16.431802 9.864776
Te 3.266688 16.431802 6.574791
Te 3.266688 13.141817 9.864776
Te -0.023297 13.141817 13.154760
Te 3.266688 16.431802 13.154760
Te 3.266688 13.141817 16.444744
Te 6.556672 -16.468041 -9.875130
Te 6.556672 -16.468041 -3.295161
Te 9.846656 -16.468041 -6.585145
Te 6.556672 -16.468041 3.284807
Te 9.846656 -16.468041 -0.005177
Te 6.556672 -9.888072 -16.455098
Te 6.556672 -13.178056 -13.165114
Te 6.556672 -9.888072 -9.875130
Te 9.846656 -9.888072 -13.165114
Te 9.846656 -13.178056 -9.875130
Te 6.556672 -13.178056 -6.585145
Te 6.556672 -9.888072 -3.295161
Te 9.846656 -9.888072 -6.585145
Te 9.846656 -13.178056 -3.295161
Te 6.556672 -13.178056 -0.005177
Te 6.556672 -9.888072 3.284807
Te 9.846656 -9.888072 -0.005177
Te 9.846656 -13.178056 3.284807
Te 6.556672 -13.178056 6.574791
Te 6.556672 -9.888072 9.864776
Te 9.846656 -9.888072 6.574791
Te 6.556672 -3.308104 -16.455098
Te 9.846656 -6.598088 -16.455098
Te 6.556672 -6.598088 -13.165114
Te 6.556672 -3.308104 -9.875130
Te 9.846656 -3.308104 -13.165114
Te 9.846656 -6.598088 -9.875130
Te 6.556672 -6.598088 -6.585145
Te 6.556672 -3.308104 -3.295161
Te 9.846656 -3.308104 -6.585145
Te 9.846656 -6.598088 -3.295161
Te 6.556672 -6.598088 -0.005177
Te 6.556672 -3.308104 3.284807
Te 9.846656 -3.308104 -0.005177
Te 9.846656 -6.598088 3.284807
Te 6.556672 -6.598088 6.574791
Te 6.556672 -3.308104 9.864776
Te 9.846656 -3.308104 6.574791
Te 9.846656 -6.598088 9.864776
Te 6.556672 -6.598088 13.154760
Te 6.556672 -3.308104 16.444744
Te 9.846656 -3.308104 13.154760
Te 6.556672 3.271865 -16.455098
Te 9.846656 -0.018120 -16.455098
Te 6.556672 -0.018120 -13.165114
Te 6.556672 3.271865 -9.875130
Te 9.846656 3.271865 -13.165114
Te 9.846656 -0.018120 -9.875130
Te 6.556672 -0.018120 -6.585145
Te 6.556672 3.271865 -3.295161
Te 9.846656 3.271865 -6.585145
Te 9.846656 -0.018120 -3.295161
Te 6.556672 -0.018120 -0.005177
Te 6.556672 3.271865 3.284807
Te 9.846656 3.271865 -0.005177
Te 9.846656 -0.018120 3.284807
Te 6.556672 -0.018120 6.574791
Te 6.556672 3.271865 9.864776
Te 9.846656 3.271865 6.574791
Te 9.846656 -0.018120 9.864776
Te 6.556672 -0.018120 13.154760
Te 6.556672 3.271865 16.444744
Te 9.846656 3.271865 13.154760
Te 9.846656 -0.018120 16.444744
Te 6.556672 6.561849 -13.165114
Te 6.556672 9.851833 -9.875130
Te 9.846656 6.561849 -9.875130
Te 6.556672 6.561849 -6.585145
Te 6.556672 9.851833 -3.295161
Te 9.846656 9.851833 -6.585145
Te 9.846656 6.561849 -3.295161
Te 6.556672 6.561849 -0.005177
Te 6.556672 9.851833 3.284807
Te 9.846656 9.851833 -0.005177
Te 9.846656 6.561849 3.284807
Te 6.556672 6.561849 6.574791
Te 6.556672 9.851833 9.864776
Te 9.846656 9.851833 6.574791
Te 9.846656 6.561849 9.864776
Te 6.556672 6.561849 13.154760
Te 6.556672 9.851833 16.444744
Te 9.846656 9.851833 13.154760
Te 9.846656 6.561849 16.444744
Te 6.556672 13.141817 -6.585145
Te 6.556672 16.431802 -3.295161
Te 9.846656 13.141817 -3.295161
Te 6.556672 13.141817 -0.005177
Te 6.556672 16.431802 3.284807
Te 9.846656 16.431802 -0.005177
Te 9.846656 13.141817 3.284807
Te 6.556672 13.141817 6.574791
Te 6.556672 16.431802 9.864776
Te 9.846656 16.431802 6.574791
Te 9.846656 13.141817 9.864776
Te 6.556672 13.141817 13.154760
Te 13.136640 -16.468041 -3.295161
Te 13.136640 -16.468041 3.284807
Te 13.136640 -9.888072 -9.875130
Te 13.136640 -13.178056 -6.585145
Te 13.136640 -9.888072 -3.295161
Te 16.426625 -9.888072 -6.585145
Te 16.426625 -13.178056 -3.295161
Te 13.136640 -13.178056 -0.005177
Te 13.136640 -9.888072 3.284807
Te 16.426625 -9.888072 -0.005177
Te 13.136640 -3.308104 -16.455098
Te 13.136640 -6.598088 -13.165114
Te 13.136640 -3.308104 -9.875130
Te 16.426625 -3.308104 -13.165114
Te 16.426625 -6.598088 -9.875130
Te 13.136640 -6.598088 -6.585145
Te 13.136640 -3.308104 -3.295161
Te 16.426625 -3.308104 -6.585145
Te 16.426625 -6.598088 -3.295161
Te 13.136640 -6.598088 -0.005177
Te 13.136640 -3.308104 3.284807
Te 16.426625 -3.308104 -0.005177
Te 16.426625 -6.598088 3.284807
Te 13.136640 -6.598088 6.574791
Te 13.136640 -3.308104 9.864776
Te 16.426625 -3.308104 6.574791
Te 16.426625 -6.598088 9.864776
Te 13.136640 -3.308104 16.444744
Te 13.136640 3.271865 -16.455098
Te 13.136640 -0.018120 -13.165114
Te 13.136640 3.271865 -9.875130
Te 16.426625 -0.018120 -9.875130
Te 13.136640 -0.018120 -6.585145
Te 13.136640 3.271865 -3.295161
Te 16.426625 3.271865 -6.585145
Te 16.426625 -0.018120 -3.295161
Te 13.136640 -0.018120 -0.005177
Te 13.136640 3.271865 3.284807
Te 16.426625 3.271865 -0.005177
Te 16.426625 -0.018120 3.284807
Te 13.136640 -0.018120 6.574791
Te 13.136640 3.271865 9.864776
Te 16.426625 3.271865 6.574791
Te 16.426625 -0.018120 9.864776
Te 13.136640 -0.018120 13.154760
Te 13.136640 3.271865 16.444744
Te 16.426625 3.271865 13.154760
Te 13.136640 6.561849 -6.585145
Te 13.136640 9.851833 -3.295161
Te 16.426625 9.851833 -6.585145
Te 16.426625 6.561849 -3.295161
Te 13.136640 6.561849 -0.005177
Te 13.136640 9.851833 3.284807
Te 16.426625 9.851833 -0.005177
Te 16.426625 6.561849 3.284807
Te 13.136640 6.561849 6.574791
Te 13.136640 9.851833 9.864776
Te 16.426625 9.851833 6.574791
Te 16.426625 6.561849 9.864776
Te 13.136640 6.561849 13.154760
Te 13.136640 16.431802 -3.295161
Te 13.136640 13.141817 -0.005177
Te 13.136640 16.431802 3.284807
Te 16.426625 13.141817 3.284807
Te 13.136640 13.141817 6.574791
Cl -19.763202 -9.888072 -3.295161
Cl -16.473218 -9.888072 -6.585145
Cl -19.763202 -9.888072 3.284807
Cl -19.763202 -3.308104 -9.875130
Cl -16.473218 -3.308104 -13.165114
Cl -16.473218 -6.598088 -9.875130
Cl -19.763202 -6.598088 -6.585145
Cl -19.763202 -3.308104 -3.295161
Cl -19.763202 -6.598088 -0.005177
Cl -19.763202 -3.308104 3.284807
Cl -19.763202 -6.598088 6.574791
Cl -19.763202 -3.308104 9.864776
Cl -19.763202 3.271865 -9.875130
Cl -19.763202 -0.018120 -6.585145
Cl -19.763202 3.271865 -3.295161
Cl -19.763202 -0.018120 -0.005177
Cl -19.763202 3.271865 3.284807
Cl -19.763202 -0.018120 6.574791
Cl -19.763202 3.271865 9.864776
Cl -19.763202 6.561849 -6.585145
Cl -19.763202 9.851833 -3.295161
Cl -19.763202 6.561849 -0.005177
Cl -19.763202 9.851833 3.284807
Cl -19.763202 6.561849 6.574791
Cl -16.473218 9.851833 6.574791
Cl -16.473218 6.561849 9.864776
Cl -13.183233 -16.468041 -3.295161
Cl -9.893249 -19.758025 -3.295161
Cl -9.893249 -19.758025 3.284807
Cl -13.183233 -9.888072 -9.875130
Cl -9.893249 -9.888072 -13.165114
Cl -9.893249 -13.178056 -9.875130
Cl -13.183233 -13.178056 -6.585145
Cl -9.893249 -3.308104 -19.745082
Cl -9.893249 -6.598088 -16.455098
Cl -13.183233 -6.598088 -13.165114
Cl -9.893249 -3.308104 19.734728
Cl -9.893249 3.271865 -19.745082
Cl -13.183233 3.271865 16.444744
Cl -9.893249 3.271865 19.734728
Cl -13.183233 9.851833 9.864776
Cl -13.183233 6.561849 13.154760
Cl -9.893249 9.851833 13.154760
Cl -9.893249 6.561849 16.444744
Cl -13.183233 16.431802 3.284807
Cl -13.183233 13.141817 6.574791
Cl -9.893249 16.431802 6.574791
Cl -9.893249 13.141817 9.864776
Cl -9.893249 19.721786 -3.295161
Cl -9.893249 19.721786 3.284807
Cl -6.603265 -16.468041 -9.875130
Cl -3.313281 -16.468041 -13.165114
Cl -3.313281 -19.758025 -9.875130
Cl -6.603265 -19.758025 -6.585145
Cl -3.313281 -19.758025 -3.295161
Cl -6.603265 -19.758025 -0.005177
Cl -3.313281 -19.758025 3.284807
Cl -6.603265 -19.758025 6.574791
Cl -3.313281 -19.758025 9.864776
Cl -6.603265 -9.888072 -16.455098
Cl -3.313281 -9.888072 -19.745082
Cl -6.603265 -13.178056 -13.165114
Cl -3.313281 -9.888072 19.734728
Cl -6.603265 -6.598088 -19.745082
Cl -3.313281 -3.308104 -19.745082
Cl -6.603265 -6.598088 19.734728
Cl -3.313281 -3.308104 19.734728
Cl -6.603265 -0.018120 -19.745082
Cl -3.313281 3.271865 -19.745082
Cl -6.603265 -0.018120 19.734728
Cl -3.313281 3.271865 19.734728
Cl -6.603265 6.561849 -19.745082
Cl -3.313281 9.851833 -19.745082
Cl -6.603265 9.851833 16.444744
Cl -6.603265 6.561849 19.734728
Cl -3.313281 9.851833 19.734728
Cl -6.603265 13.141817 13.154760
Cl -3.313281 16.431802 13.154760
Cl -3.313281 19.721786 -9.875130
Cl -6.603265 19.721786 -6.585145
Cl -3.313281 19.721786 -3.295161
Cl -6.603265 19.721786 -0.005177
Cl -3.313281 19.721786 3.284807
Cl -6.603265 19.721786 6.574791
Cl -3.313281 19.721786 9.864776
Cl 3.266688 -19.758025 -9.875130
Cl -0.023297 -19.758025 -6.585145
Cl 3.266688 -19.758025 -3.295161
Cl -0.023297 -19.758025 -0.005177
Cl 3.266688 -19.758025 3.284807
Cl -0.023297 -19.758025 6.574791
Cl 3.266688 -19.758025 9.864776
Cl 3.266688 -9.888072 -19.745082
Cl 3.266688 -13.178056 16.444744
Cl 3.266688 -9.888072 19.734728
Cl -0.023297 -6.598088 -19.745082
Cl 3.266688 -3.308104 -19.745082
Cl -0.023297 -6.598088 19.734728
Cl 3.266688 -3.308104 19.734728
Cl -0.023297 -0.018120 -19.745082
Cl 3.266688 3.271865 -19.745082
Cl -0.023297 -0.018120 19.734728
Cl 3.266688 3.271865 19.734728
Cl -0.023297 6.561849 -19.745082
Cl 3.266688 9.851833 -19.745082
Cl -0.023297 6.561849 19.734728
Cl 3.266688 9.851833 19.734728
Cl 3.266688 16.431802 -13.165114
Cl 3.266688 19.721786 -9.875130
Cl -0.023297 19.721786 -6.585145
Cl 3.266688 19.721786 -3.295161
Cl -0.023297 19.721786 -0.005177
Cl 3.266688 19.721786 3.284807
Cl -0.023297 19.721786 6.574791
Cl 3.266688 19.721786 9.864776
Cl 6.556672 -19.758025 -6.585145
Cl 9.846656 -19.758025 -3.295161
Cl 6.556672 -19.758025 -0.005177
Cl 9.846656 -19.758025 3.284807
Cl 6.556672 -19.758025 6.574791
Cl 6.556672 -16.468041 9.864776
Cl 9.846656 -16.468041 6.574791
Cl 9.846656 -13.178056 9.864776
Cl 6.556672 -13.178056 13.154760
Cl 6.556672 -9.888072 16.444744
Cl 9.846656 -9.888072 13.154760
Cl 6.556672 -6.598088 -19.745082
Cl 9.846656 -3.308104 -19.745082
Cl 9.846656 -6.598088 16.444744
Cl 6.556672 -6.598088 19.734728
Cl 9.846656 -3.308104 19.734728
Cl 6.556672 -0.018120 -19.745082
Cl 9.846656 3.271865 -19.745082
Cl 6.556672 -0.018120 19.734728
Cl 9.846656 3.271865 19.734728
Cl 6.556672 6.561849 -19.745082
Cl 6.556672 9.851833 -16.455098
Cl 9.846656 6.561849 -16.455098
Cl 9.846656 9.851833 -13.165114
Cl 6.556672 6.561849 19.734728
Cl 6.556672 13.141817 -13.165114
Cl 6.556672 16.431802 -9.875130
Cl 9.846656 13.141817 -9.875130
Cl 9.846656 16.431802 -6.585145
Cl 6.556672 19.721786 -6.585145
Cl 9.846656 19.721786 -3.295161
Cl 6.556672 19.721786 -0.005177
Cl 9.846656 19.721786 3.284807
Cl 6.556672 19.721786 6.574791
Cl 16.426625 -13.178056 3.284807
Cl 13.136640 -13.178056 6.574791
Cl 13.136640 -9.888072 9.864776
Cl 16.426625 -9.888072 6.574791
Cl 13.136640 -6.598088 13.154760
Cl 16.426625 -3.308104 13.154760
Cl 16.426625 3.271865 -13.165114
Cl 13.136640 6.561849 -13.165114
Cl 13.136640 9.851833 -9.875130
Cl 16.426625 6.561849 -9.875130
Cl 13.136640 13.141817 -6.585145
Cl 16.426625 13.141817 -3.295161
Cl 19.716609 -9.888072 -3.295161
Cl 19.716609 -9.888072 3.284807
Cl 19.716609 -3.308104 -9.875130
Cl 19.716609 -6.598088 -6.585145
Cl 19.716609 -3.308104 -3.295161
Cl 19.716609 -6.598088 -0.005177
Cl 19.716609 -3.308104 3.284807
Cl 19.716609 -6.598088 6.574791
Cl 19.716609 -3.308104 9.864776
Cl 19.716609 3.271865 -9.875130
Cl 19.716609 -0.018120 -6.585145
Cl 19.716609 3.271865 -3.295161
Cl 19.716609 -0.018120 -0.005177
Cl 19.716609 3.271865 3.284807
Cl 19.716609 -0.018120 6.574791
Cl 19.716609 3.271865 9.864776
Cl 19.716609 6.561849 -6.585145
Cl 19.716609 9.851833 -3.295161
Cl 19.716609 6.561849 -0.005177
Cl 19.716609 9.851833 3.284807
Cl 19.716609 6.561849 6.574791
Cl -6.603265 -16.468041 13.154760
Cl -6.603265 13.141817 -16.455098
Cl 13.136640 -6.598088 -16.455098
Cl 16.426625 13.141817 6.574791
Cl -16.473218 -6.598088 13.154760
Cl -16.473218 13.141817 -6.585145
Cl 6.556672 13.141817 16.444744
Cl 13.136640 -16.468041 -6.585145
