510
AlP-P-Al204P153Cl153-reconstructed
Al -9.534961 -9.551049 -6.842863
Al -9.534961 -6.816049 -9.577863
Al -12.269961 -6.816049 -6.842863
Al -9.534961 -4.081049 -6.842863
Al -9.534961 -6.816049 -4.107863
Al -12.269961 -4.081049 -4.107863
Al -9.534961 -4.081049 -1.372863
Al -9.534961 -1.346049 -4.107863
Al -12.269961 -1.346049 -1.372863
Al -9.534961 1.388951 -1.372863
Al -9.534961 -1.346049 1.362137
Al -12.269961 1.388951 1.362137
Al -9.534961 1.388951 4.097137
Al -9.534961 4.123951 1.362137
Al -12.269961 4.123951 4.097137
Al -9.534961 6.858951 4.097137
Al -9.534961 4.123951 6.832137
Al -12.269961 6.858951 6.832137
Al -9.534961 6.858951 9.567137
Al -9.534961 9.593951 6.832137
Al -6.799961 -9.551049 -9.577863
Al -6.799961 -12.286049 -6.842863
Al -4.064961 -9.551049 -6.842863
Al -4.064961 -12.286049 -4.107863
Al -6.799961 -9.551049 -4.107863
Al -4.064961 -9.551049 -1.372863
Al -6.799961 -6.816049 -12.312863
Al -4.064961 -4.081049 -12.312863
Al -4.064961 -6.816049 -9.577863
Al -6.799961 -4.081049 -9.577863
Al -6.799961 -6.816049 -6.842863
Al -4.064961 -4.081049 -6.842863
Al -4.064961 -6.816049 -4.107863
Al -6.799961 -4.081049 -4.107863
Al -6.799961 -6.816049 -1.372863
Al -4.064961 -4.081049 -1.372863
Al -4.064961 -6.816049 1.362137
Al -6.799961 -4.081049 1.362137
Al -4.064961 -4.081049 4.097137
Al -4.064961 -1.346049 -9.577863
Al -6.799961 -1.346049 -6.842863
Al -4.064961 1.388951 -6.842863
Al -4.064961 -1.346049 -4.107863
Al -6.799961 1.388951 -4.107863
Al -6.799961 -1.346049 -1.372863
Al -4.064961 1.388951 -1.372863
Al -4.064961 -1.346049 1.362137
Al -6.799961 1.388951 1.362137
Al -6.799961 -1.346049 4.097137
Al -4.064961 1.388951 4.097137
Al -4.064961 -1.346049 6.832137
Al -6.799961 1.388951 6.832137
Al -4.064961 1.388951 9.567137
Al -4.064961 4.123951 -4.107863
Al -6.799961 4.123951 -1.372863
Al -4.064961 6.858951 -1.372863
Al -4.064961 4.123951 1.362137
Al -6.799961 6.858951 1.362137
Al -6.799961 4.123951 4.097137
Al -4.064961 6.858951 4.097137
Al -4.064961 4.123951 6.832137
Al -6.799961 6.858951 6.832137
Al -6.799961 4.123951 9.567137
Al -4.064961 6.858951 9.567137
Al -4.064961 4.123951 12.302137
Al -6.799961 6.858951 12.302137
Al -4.064961 9.593951 1.362137
Al -6.799961 9.593951 4.097137
Al -4.064961 12.328951 4.097137
Al -4.064961 9.593951 6.832137
Al -6.799961 12.328951 6.832137
Al -6.799961 9.593951 9.567137
Al -1.329961 -9.551049 -4.107863
Al -1.329961 -12.286049 -1.372863
Al 1.405039 -9.551049 -1.372863
Al 1.405039 -12.286049 1.362137
Al -1.329961 -9.551049 1.362137
Al 1.405039 -9.551049 4.097137
Al -1.329961 -4.081049 -9.577863
Al -1.329961 -6.816049 -6.842863
Al 1.405039 -4.081049 -6.842863
Al 1.405039 -6.816049 -4.107863
Al -1.329961 -4.081049 -4.107863
Al -1.329961 -6.816049 -1.372863
Al 1.405039 -4.081049 -1.372863
Al 1.405039 -6.816049 1.362137
Al -1.329961 -4.081049 1.362137
Al -1.329961 -6.816049 4.097137
Al 1.405039 -4.081049 4.097137
Al 1.405039 -6.816049 6.832137
Al -1.329961 -4.081049 6.832137
Al 1.405039 -4.081049 9.567137
Al -1.329961 -1.346049 -12.312863
Al 1.405039 1.388951 -12.312863
Al 1.405039 -1.346049 -9.577863
Al -1.329961 1.388951 -9.577863
Al -1.329961 -1.346049 -6.842863
Al 1.405039 1.388951 -6.842863
Al 1.405039 -1.346049 -4.107863
Al -1.329961 1.388951 -4.107863
Al -1.329961 -1.346049 -1.372863
Al 1.405039 1.388951 -1.372863
Al 1.405039 -1.346049 1.362137
Al -1.329961 1.388951 1.362137
Al -1.329961 -1.346049 4.097137
Al 1.405039 1.388951 4.097137
Al 1.405039 -1.346049 6.832137
Al -1.329961 1.388951 6.832137
Al -1.329961 -1.346049 9.567137
Al 1.405039 1.388951 9.567137
Al 1.405039 -1.346049 12.302137
Al -1.329961 1.388951 12.302137
Al 1.405039 4.123951 -9.577863
Al -1.329961 4.123951 -6.842863
Al 1.405039 6.858951 -6.842863
Al 1.405039 4.123951 -4.107863
Al -1.329961 6.858951 -4.107863
Al -1.329961 4.123951 -1.372863
Al 1.405039 6.858951 -1.372863
Al 1.405039 4.123951 1.362137
Al -1.329961 6.858951 1.362137
Al -1.329961 4.123951 4.097137
Al 1.405039 6.858951 4.097137
Al 1.405039 4.123951 6.832137
Al -1.329961 6.858951 6.832137
Al -1.329961 4.123951 9.567137
Al 1.405039 9.593951 -4.107863
Al -1.329961 9.593951 -1.372863
Al 1.405039 12.328951 -1.372863
Al 1.405039 9.593951 1.362137
Al -1.329961 12.328951 1.362137
Al -1.329961 9.593951 4.097137
Al 4.140039 -9.551049 1.362137
Al 4.140039 -12.286049 4.097137
Al 6.875039 -9.551049 4.097137
Al 6.875039 -12.286049 6.832137
Al 4.140039 -9.551049 6.832137
Al 6.875039 -9.551049 9.567137
Al 4.140039 -4.081049 -4.107863
Al 4.140039 -6.816049 -1.372863
Al 6.875039 -4.081049 -1.372863
Al 6.875039 -6.816049 1.362137
Al 4.140039 -4.081049 1.362137
Al 4.140039 -6.816049 4.097137
Al 6.875039 -4.081049 4.097137
Al 6.875039 -6.816049 6.832137
Al 4.140039 -4.081049 6.832137
Al 4.140039 -6.816049 9.567137
Al 6.875039 -4.081049 9.567137
Al 6.875039 -6.816049 12.302137
Al 4.140039 -4.081049 12.302137
Al 4.140039 1.388951 -9.577863
Al 4.140039 -1.346049 -6.842863
Al 6.875039 1.388951 -6.842863
Al 6.875039 -1.346049 -4.107863
Al 4.140039 1.388951 -4.107863
Al 4.140039 -1.346049 -1.372863
Al 6.875039 1.388951 -1.372863
Al 6.875039 -1.346049 1.362137
Al 4.140039 1.388951 1.362137
Al 4.140039 -1.346049 4.097137
Al 6.875039 1.388951 4.097137
Al 6.875039 -1.346049 6.832137
Al 4.140039 1.388951 6.832137
Al 4.140039 -1.346049 9.567137
Al 4.140039 4.123951 -12.312863
Al 6.875039 6.858951 -12.312863
Al 6.875039 4.123951 -9.577863
Al 4.140039 6.858951 -9.577863
Al 4.140039 4.123951 -6.842863
Al 6.875039 6.858951 -6.842863
Al 6.875039 4.123951 -4.107863
Al 4.140039 6.858951 -4.107863
Al 4.140039 4.123951 -1.372863
Al 6.875039 6.858951 -1.372863
Al 6.875039 4.123951 1.362137
Al 4.140039 6.858951 1.362137
Al 4.140039 4.123951 4.097137
Al 6.875039 9.593951 -9.577863
Al 4.140039 9.593951 -6.842863
Al 6.875039 12.328951 -6.842863
Al 6.875039 9.593951 -4.107863
Al 4.140039 12.328951 -4.107863
Al 4.140039 9.593951 -1.372863
Al 9.610039 -9.551049 6.832137
Al 9.610039 -4.081049 1.362137
Al 9.610039 -6.816049 4.097137
Al 12.345039 -4.081049 4.097137
Al 12.345039 -6.816049 6.832137
Al 9.610039 -4.081049 6.832137
Al 9.610039 -6.816049 9.567137
Al 9.610039 1.388951 -4.107863
Al 9.610039 -1.346049 -1.372863
Al 12.345039 1.388951 -1.372863
Al 12.345039 -1.346049 1.362137
Al 9.610039 1.388951 1.362137
Al 9.610039 -1.346049 4.097137
Al 9.610039 6.858951 -9.577863
Al 9.610039 4.123951 -6.842863
Al 12.345039 6.858951 -6.842863
Al 12.345039 4.123951 -4.107863
Al 9.610039 6.858951 -4.107863
Al 9.610039 4.123951 -1.372863
Al 9.610039 9.593951 -6.842863
P -10.902461 -8.183549 -8.210363
P -8.167461 -8.183549 -5.475363
P -8.167461 -5.448549 -8.210363
P -10.902461 -5.448549 -5.475363
P -10.902461 -2.713549 -2.740363
P -8.167461 -2.713549 -5.475363
P -8.167461 -5.448549 -2.740363
P -8.167461 -2.713549 -0.005363
P -8.167461 0.021451 -2.740363
P -10.902461 0.021451 -0.005363
P -10.902461 2.756451 2.729637
P -8.167461 2.756451 -0.005363
P -8.167461 0.021451 2.729637
P -8.167461 2.756451 5.464637
P -8.167461 5.491451 2.729637
P -10.902461 5.491451 5.464637
P -10.902461 8.226451 8.199637
P -8.167461 8.226451 5.464637
P -8.167461 5.491451 8.199637
P -5.432461 -8.183549 -8.210363
P -5.432461 -10.918549 -5.475363
P -5.432461 -8.183549 -2.740363
P -2.697461 -8.183549 -5.475363
P -2.697461 -10.918549 -2.740363
P -2.697461 -8.183549 -0.005363
P -5.432461 -5.448549 -10.945363
P -5.432461 -2.713549 -8.210363
P -2.697461 -2.713549 -10.945363
P -2.697461 -5.448549 -8.210363
P -5.432461 -5.448549 -5.475363
P -5.432461 -2.713549 -2.740363
P -2.697461 -2.713549 -5.475363
P -2.697461 -5.448549 -2.740363
P -5.432461 -5.448549 -0.005363
P -5.432461 -2.713549 2.729637
P -2.697461 -2.713549 -0.005363
P -2.697461 -5.448549 2.729637
P -2.697461 -2.713549 5.464637
P -2.697461 0.021451 -8.210363
P -5.432461 0.021451 -5.475363
P -5.432461 2.756451 -2.740363
P -2.697461 2.756451 -5.475363
P -2.697461 0.021451 -2.740363
P -5.432461 0.021451 -0.005363
P -5.432461 2.756451 2.729637
P -2.697461 2.756451 -0.005363
P -2.697461 0.021451 2.729637
P -5.432461 0.021451 5.464637
P -5.432461 2.756451 8.199637
P -2.697461 2.756451 5.464637
P -2.697461 0.021451 8.199637
P -2.697461 2.756451 10.934637
P -2.697461 5.491451 -2.740363
P -5.432461 5.491451 -0.005363
P -5.432461 8.226451 2.729637
P -2.697461 8.226451 -0.005363
P -2.697461 5.491451 2.729637
P -5.432461 5.491451 5.464637
P -5.432461 8.226451 8.199637
P -2.697461 8.226451 5.464637
P -2.697461 5.491451 8.199637
P -5.432461 5.491451 10.934637
P -2.697461 10.961451 2.729637
P -5.432461 10.961451 5.464637
P 0.037539 -8.183549 -2.740363
P 0.037539 -10.918549 -0.005363
P 0.037539 -8.183549 2.729637
P 2.772539 -8.183549 -0.005363
P 2.772539 -10.918549 2.729637
P 2.772539 -8.183549 5.464637
P 0.037539 -2.713549 -8.210363
P 0.037539 -5.448549 -5.475363
P 0.037539 -2.713549 -2.740363
P 2.772539 -2.713549 -5.475363
P 2.772539 -5.448549 -2.740363
P 0.037539 -5.448549 -0.005363
P 0.037539 -2.713549 2.729637
P 2.772539 -2.713549 -0.005363
P 2.772539 -5.448549 2.729637
P 0.037539 -5.448549 5.464637
P 0.037539 -2.713549 8.199637
P 2.772539 -2.713549 5.464637
P 2.772539 -5.448549 8.199637
P 2.772539 -2.713549 10.934637
P 0.037539 0.021451 -10.945363
P 0.037539 2.756451 -8.210363
P 2.772539 2.756451 -10.945363
P 2.772539 0.021451 -8.210363
P 0.037539 0.021451 -5.475363
P 0.037539 2.756451 -2.740363
P 2.772539 2.756451 -5.475363
P 2.772539 0.021451 -2.740363
P 0.037539 0.021451 -0.005363
P 0.037539 2.756451 2.729637
P 2.772539 2.756451 -0.005363
P 2.772539 0.021451 2.729637
P 0.037539 0.021451 5.464637
P 0.037539 2.756451 8.199637
P 2.772539 2.756451 5.464637
P 2.772539 0.021451 8.199637
P 0.037539 0.021451 10.934637
P 2.772539 5.491451 -8.210363
P 0.037539 5.491451 -5.475363
P 0.037539 8.226451 -2.740363
P 2.772539 8.226451 -5.475363
P 2.772539 5.491451 -2.740363
P 0.037539 5.491451 -0.005363
P 0.037539 8.226451 2.729637
P 2.772539 8.226451 -0.005363
P 2.772539 5.491451 2.729637
P 0.037539 5.491451 5.464637
P 2.772539 10.961451 -2.740363
P 0.037539 10.961451 -0.005363
P 5.507539 -8.183549 2.729637
P 5.507539 -10.918549 5.464637
P 5.507539 -8.183549 8.199637
P 8.242539 -8.183549 5.464637
P 5.507539 -2.713549 -2.740363
P 5.507539 -5.448549 -0.005363
P 5.507539 -2.713549 2.729637
P 8.242539 -2.713549 -0.005363
P 8.242539 -5.448549 2.729637
P 5.507539 -5.448549 5.464637
P 5.507539 -2.713549 8.199637
P 8.242539 -2.713549 5.464637
P 8.242539 -5.448549 8.199637
P 5.507539 -5.448549 10.934637
P 5.507539 2.756451 -8.210363
P 5.507539 0.021451 -5.475363
P 5.507539 2.756451 -2.740363
P 8.242539 2.756451 -5.475363
P 8.242539 0.021451 -2.740363
P 5.507539 0.021451 -0.005363
P 5.507539 2.756451 2.729637
P 8.242539 2.756451 -0.005363
P 8.242539 0.021451 2.729637
P 5.507539 0.021451 5.464637
P 5.507539 5.491451 -10.945363
P 5.507539 8.226451 -8.210363
P 8.242539 5.491451 -8.210363
P 5.507539 5.491451 -5.475363
P 5.507539 8.226451 -2.740363
P 8.242539 8.226451 -5.475363
P 8.242539 5.491451 -2.740363
P 5.507539 5.491451 -0.005363
P 5.507539 10.961451 -5.475363
P 10.977539 -8.183549 8.199637
P 10.977539 -2.713549 2.729637
P 10.977539 -5.448549 5.464637
P 10.977539 2.756451 -2.740363
P 10.977539 0.021451 -0.005363
P 10.977539 8.226451 -8.210363
P 10.977539 5.491451 -5.475363
Cl -8.167461 -8.183549 -10.945363
Cl -8.167461 -10.918549 -8.210363
Cl -8.167461 8.226451 10.934637
Cl -8.167461 10.961451 8.199637
Cl 8.242539 -10.918549 8.199637
Cl 8.242539 -8.183549 10.934637
Cl 8.242539 8.226451 -10.945363
Cl 8.242539 10.961451 -8.210363
Cl -13.637461 8.226451 5.464637
Cl -8.167461 -13.653549 -5.475363
Cl 8.242539 13.696451 -5.475363
Cl 13.712539 -8.183549 5.464637
Cl -13.637461 -5.448549 -8.210363
Cl -5.432461 13.696451 8.199637
Cl 5.507539 -13.653549 8.199637
Cl 13.712539 5.491451 -8.210363
Cl -5.432461 -8.183549 -13.680363
Cl -8.167461 5.491451 13.669637
Cl 8.242539 -5.448549 13.669637
Cl 5.507539 8.226451 -13.680363
Cl -13.637461 -5.448549 -2.740363
Cl -5.432461 13.696451 2.729637
Cl 5.507539 -13.653549 2.729637
Cl 13.712539 5.491451 -2.740363
Cl -13.637461 2.756451 5.464637
Cl -2.697461 -13.653549 -5.475363
Cl 2.772539 13.696451 -5.475363
Cl 13.712539 -2.713549 5.464637
Cl -5.432461 -2.713549 -13.680363
Cl -2.697461 5.491451 13.669637
Cl 2.772539 -5.448549 13.669637
Cl 5.507539 2.756451 -13.680363
Cl -13.637461 2.756451 -0.005363
Cl -2.697461 -13.653549 -0.005363
Cl 2.772539 13.696451 -0.005363
Cl 13.712539 -2.713549 -0.005363
Cl -2.697461 0.021451 -13.680363
Cl 2.772539 0.021451 -13.680363
Cl 0.037539 -2.713549 13.669637
Cl 0.037539 2.756451 13.669637
Cl -13.637461 -2.713549 -0.005363
Cl 2.772539 -13.653549 -0.005363
Cl -2.697461 13.696451 -0.005363
Cl 13.712539 2.756451 -0.005363
Cl -5.432461 -5.448549 5.464637
Cl -5.432461 5.491451 -5.475363
Cl 5.507539 -5.448549 -5.475363
Cl 5.507539 5.491451 5.464637
Cl -10.902461 0.021451 -5.475363
Cl 0.037539 -10.918549 5.464637
Cl 0.037539 10.961451 5.464637
Cl 10.977539 0.021451 -5.475363
Cl -5.432461 0.021451 10.934637
Cl 0.037539 -5.448549 -10.945363
Cl 0.037539 5.491451 -10.945363
Cl 5.507539 0.021451 10.934637
Cl -8.167461 -8.183549 -0.005363
Cl -8.167461 8.226451 -0.005363
Cl 8.242539 -8.183549 -0.005363
Cl 8.242539 8.226451 -0.005363
Cl -13.637461 5.491451 8.199637
Cl -5.432461 -13.653549 -8.210363
Cl 5.507539 13.696451 -8.210363
Cl 13.712539 -5.448549 8.199637
Cl -8.167461 -5.448549 -13.680363
Cl -5.432461 8.226451 13.669637
Cl 5.507539 -8.183549 13.669637
Cl 8.242539 5.491451 -13.680363
Cl -13.637461 -8.183549 -5.475363
Cl -8.167461 13.696451 5.464637
Cl 8.242539 -13.653549 5.464637
Cl 13.712539 8.226451 -5.475363
Cl -8.167461 -2.713549 5.464637
Cl 2.772539 -8.183549 -5.475363
Cl -2.697461 8.226451 -5.475363
Cl 8.242539 2.756451 5.464637
Cl -8.167461 0.021451 -8.210363
Cl 0.037539 -8.183549 8.199637
Cl 0.037539 8.226451 8.199637
Cl 8.242539 0.021451 -8.210363
Cl -2.697461 -5.448549 -13.680363
Cl -5.432461 2.756451 13.669637
Cl 5.507539 -2.713549 13.669637
Cl 2.772539 5.491451 -13.680363
Cl -13.637461 5.491451 2.729637
Cl -5.432461 -13.653549 -2.740363
Cl 5.507539 13.696451 -2.740363
Cl 13.712539 -5.448549 2.729637
Cl -13.637461 -2.713549 -5.475363
Cl -2.697461 13.696451 5.464637
Cl 2.772539 -13.653549 5.464637
Cl 13.712539 2.756451 -5.475363
Cl -10.902461 5.491451 10.934637
Cl -5.432461 -10.918549 -10.945363
Cl 5.507539 10.961451 -10.945363
Cl 10.977539 -5.448549 10.934637
Cl -13.637461 0.021451 2.729637
Cl 0.037539 -13.653549 -2.740363
Cl 0.037539 13.696451 -2.740363
Cl 13.712539 0.021451 2.729637
Cl -10.902461 -10.918549 -5.475363
Cl -10.902461 10.961451 5.464637
Cl 10.977539 -10.918549 5.464637
Cl 10.977539 10.961451 -5.475363
Cl -10.902461 -5.448549 -10.945363
Cl -5.432461 10.961451 10.934637
Cl 5.507539 -10.918549 10.934637
Cl 10.977539 5.491451 -10.945363
Cl 2.772539 -2.713549 -10.945363
Cl -2.697461 2.756451 -10.945363
Cl -2.697461 -2.713549 10.934637
Cl 2.772539 2.756451 10.934637
Cl -5.432461 -8.183549 2.729637
Cl -8.167461 5.491451 -2.740363
Cl 8.242539 -5.448549 -2.740363
Cl 5.507539 8.226451 2.729637
Cl -8.167461 0.021451 8.199637
Cl 0.037539 -8.183549 -8.210363
Cl 0.037539 8.226451 -8.210363
Cl 8.242539 0.021451 8.199637
Cl -13.637461 0.021451 -2.740363
Cl 0.037539 -13.653549 2.729637
Cl 0.037539 13.696451 2.729637
Cl 13.712539 0.021451 -2.740363
Cl -10.902461 -5.448549 -0.005363
Cl -5.432461 10.961451 -0.005363
Cl 5.507539 -10.918549 -0.005363
Cl 10.977539 5.491451 -0.005363
Cl -5.432461 2.756451 -8.210363
Cl -2.697461 -5.448549 8.199637
Cl 2.772539 5.491451 8.199637
Cl 5.507539 -2.713549 -8.210363
Cl 0.037539 -2.713549 -13.680363
Cl 0.037539 2.756451 -13.680363
Cl 2.772539 0.021451 13.669637
Cl -2.697461 0.021451 13.669637
Cl -10.902461 8.226451 2.729637
Cl -8.167461 -10.918549 -2.740363
Cl 8.242539 10.961451 -2.740363
Cl 10.977539 -8.183549 2.729637
Cl -10.902461 2.756451 8.199637
Cl -2.697461 -10.918549 -8.210363
Cl 2.772539 10.961451 -8.210363
Cl 10.977539 -2.713549 8.199637
Cl -8.167461 -2.713549 -10.945363
Cl -2.697461 8.226451 10.934637
Cl 2.772539 -8.183549 10.934637
Cl 8.242539 2.756451 -10.945363
Cl -10.902461 2.756451 -2.740363
Cl -10.902461 -2.713549 2.729637
Cl 2.772539 -10.918549 -2.740363
Cl 2.772539 10.961451 2.729637
Cl -2.697461 -10.918549 2.729637
