      64
 i =       27, E =      -949.7180179458
 Pb         8.9196494872        8.9196407696        8.9196442299
 Br         6.0648884348        9.2196427148        9.2196430560
 Br         9.2196428424        6.0648883796        9.2196455594
 Br         9.2196510722        9.2196350380        6.0648855807
 Cs         6.7114648990        6.7114830432       11.9737798862
 Pb         8.9221697549        8.9221657445       15.0363804869
 Br         6.0788910248        9.2142773551       14.7633269711
 Br         9.2142759591        6.0788997076       14.7633394604
 Br         9.1545530010        9.1545511529       12.0138510876
 Br         9.2643722403        9.2643739105       17.9454900022
 Cs         6.7114695891       11.9737668321        6.7114741290
 Pb         8.9221704714       15.0363762281        8.9221558469
 Br         6.0788975910       14.7633196874        9.2142718897
 Br         9.1545573382       12.0138570889        9.1545420003
 Br         9.2142702504       14.7633375289        6.0788912742
 Cs         6.7659157964       11.9773909040       11.9773859810
 Pb         8.8854131379       15.0406109084       15.0406065144
 Br         6.0936873912       14.7965733292       14.7965571727
 Br         9.1631557105       12.0355996902       14.8221841042
 Br         9.1631683668       14.8221802719       12.0355931938
 Cs         6.7783400388       11.9454242607       17.3289237118
 Br         9.2302424072       14.7227506610       17.9561266835
 Br         9.2643768927       17.9454945855        9.2643673436
 Cs         6.7783514927       17.3289229946       11.9454175725
 Br         9.2302641613       17.9561306639       14.7227356063
 Cs        11.9737817859        6.7114626336        6.7114800978
 Pb        15.0363855711        8.9221696837        8.9221607085
 Br        12.0138559508        9.1545479782        9.1545495987
 Br        14.7633402213        6.0788913302        9.2142765111
 Br        14.7633436204        9.2142705360        6.0788946914
 Cs        11.9774005028        6.7659158716       11.9773986386
 Pb        15.0406191215        8.8854223203       15.0406168102
 Br        12.0355796556        9.1631595855       14.8221808112
 Br        14.7965767101        6.0936914168       14.7965803428
 Br        14.8221888022        9.1631569840       12.0355992993
 Cs        11.9454412183        6.7783574422       17.3289351994
 Br        14.7227349484        9.2302849435       17.9561303125
 Cs        11.9773980230       11.9773917606        6.7659094096
 Pb        15.0406192382       15.0406296388        8.8854173928
 Br        12.0355901072       14.8221845501        9.1631350064
 Br        14.8221856380       12.0355863356        9.1631411605
 Br        14.7965949710       14.7966038638        6.0936864194
 Cs        11.9544228741       11.9544149718       11.9544081333
 Pb        15.0266045544       15.0266005447       15.0265970728
 Br        12.1268140694       14.9066197368       14.9066442338
 Br        14.9066040287       12.1268119121       14.9065904883
 Br        14.9065609106       14.9065949847       12.1268111384
 Cs        11.9357204564       11.9357235770       17.2297999960
 Br        15.0309152161       15.0308055261       18.1032958361
 Cs        11.9454334119       17.3289428598        6.7783435882
 Br        14.7227518022       17.9561185525        9.2302744575
 Cs        11.9357165171       17.2297994988       11.9357194678
 Br        15.0308878621       18.1032981578       15.0308148804
 Cs        11.7371718202       17.3070893744       17.3070859592
 Br        17.9454950165        9.2643775419        9.2643685624
 Cs        17.3289262951        6.7783432665       11.9454284801
 Br        17.9561127620        9.2302542467       14.7227676015
 Cs        17.3289428092       11.9454464417        6.7783489469
 Br        17.9561208638       14.7227521735        9.2302834927
 Cs        17.2298004704       11.9357298570       11.9357175658
 Br        18.1033093018       15.0308444128       15.0307730067
 Cs        17.3070432187       11.7372537708       17.3070911166
 Cs        17.3070566329       17.3070536588       11.7372978930
 Cs        17.4026439673       17.4025782220       17.4025628925
