892
AlSb-Al-Al373Sb300Cl219-clean
Al -15.459386 -9.283265 -12.371326
Al -15.459386 -12.378265 -9.276326
Al -15.459386 -9.283265 -6.181326
Al -15.459386 -6.188265 -9.276326
Al -15.459386 -3.093265 -6.181326
Al -15.459386 -6.188265 -3.086326
Al -15.459386 -3.093265 0.008674
Al -15.459386 0.001735 -3.086326
Al -15.459386 3.096735 0.008674
Al -15.459386 0.001735 3.103674
Al -15.459386 3.096735 6.198674
Al -15.459386 6.191735 3.103674
Al -15.459386 9.286735 6.198674
Al -15.459386 6.191735 9.293674
Al -15.459386 9.286735 12.388674
Al -15.459386 12.381735 9.293674
Al -9.269386 -15.473265 -12.371326
Al -12.364386 -15.473265 -9.276326
Al -9.269386 -15.473265 -6.181326
Al -9.269386 -12.378265 -15.466326
Al -12.364386 -9.283265 -15.466326
Al -12.364386 -12.378265 -12.371326
Al -9.269386 -9.283265 -12.371326
Al -9.269386 -12.378265 -9.276326
Al -12.364386 -9.283265 -9.276326
Al -12.364386 -12.378265 -6.181326
Al -9.269386 -9.283265 -6.181326
Al -9.269386 -12.378265 -3.086326
Al -12.364386 -9.283265 -3.086326
Al -9.269386 -9.283265 0.008674
Al -9.269386 -6.188265 -15.466326
Al -12.364386 -6.188265 -12.371326
Al -9.269386 -3.093265 -12.371326
Al -9.269386 -6.188265 -9.276326
Al -12.364386 -3.093265 -9.276326
Al -12.364386 -6.188265 -6.181326
Al -9.269386 -3.093265 -6.181326
Al -9.269386 -6.188265 -3.086326
Al -12.364386 -3.093265 -3.086326
Al -12.364386 -6.188265 0.008674
Al -9.269386 -3.093265 0.008674
Al -9.269386 -6.188265 3.103674
Al -12.364386 -3.093265 3.103674
Al -9.269386 -3.093265 6.198674
Al -9.269386 0.001735 -9.276326
Al -12.364386 0.001735 -6.181326
Al -9.269386 3.096735 -6.181326
Al -9.269386 0.001735 -3.086326
Al -12.364386 3.096735 -3.086326
Al -12.364386 0.001735 0.008674
Al -9.269386 3.096735 0.008674
Al -9.269386 0.001735 3.103674
Al -12.364386 3.096735 3.103674
Al -12.364386 0.001735 6.198674
Al -9.269386 3.096735 6.198674
Al -9.269386 0.001735 9.293674
Al -12.364386 3.096735 9.293674
Al -9.269386 3.096735 12.388674
Al -9.269386 6.191735 -3.086326
Al -12.364386 6.191735 0.008674
Al -9.269386 9.286735 0.008674
Al -9.269386 6.191735 3.103674
Al -12.364386 9.286735 3.103674
Al -12.364386 6.191735 6.198674
Al -9.269386 9.286735 6.198674
Al -9.269386 6.191735 9.293674
Al -12.364386 9.286735 9.293674
Al -12.364386 6.191735 12.388674
Al -9.269386 9.286735 12.388674
Al -9.269386 6.191735 15.483674
Al -12.364386 9.286735 15.483674
Al -9.269386 12.381735 3.103674
Al -12.364386 12.381735 6.198674
Al -9.269386 15.476735 6.198674
Al -9.269386 12.381735 9.293674
Al -12.364386 15.476735 9.293674
Al -12.364386 12.381735 12.388674
Al -9.269386 15.476735 12.388674
Al -9.269386 12.381735 15.483674
Al -6.174386 -15.473265 -9.276326
Al -3.079386 -15.473265 -6.181326
Al -6.174386 -15.473265 -3.086326
Al -3.079386 -15.473265 0.008674
Al -6.174386 -9.283265 -15.466326
Al -6.174386 -12.378265 -12.371326
Al -3.079386 -9.283265 -12.371326
Al -3.079386 -12.378265 -9.276326
Al -6.174386 -9.283265 -9.276326
Al -6.174386 -12.378265 -6.181326
Al -3.079386 -9.283265 -6.181326
Al -3.079386 -12.378265 -3.086326
Al -6.174386 -9.283265 -3.086326
Al -6.174386 -12.378265 0.008674
Al -3.079386 -9.283265 0.008674
Al -3.079386 -12.378265 3.103674
Al -6.174386 -9.283265 3.103674
Al -3.079386 -9.283265 6.198674
Al -3.079386 -6.188265 -15.466326
Al -6.174386 -3.093265 -15.466326
Al -6.174386 -6.188265 -12.371326
Al -3.079386 -3.093265 -12.371326
Al -3.079386 -6.188265 -9.276326
Al -6.174386 -3.093265 -9.276326
Al -6.174386 -6.188265 -6.181326
Al -3.079386 -3.093265 -6.181326
Al -3.079386 -6.188265 -3.086326
Al -6.174386 -3.093265 -3.086326
Al -6.174386 -6.188265 0.008674
Al -3.079386 -3.093265 0.008674
Al -3.079386 -6.188265 3.103674
Al -6.174386 -3.093265 3.103674
Al -6.174386 -6.188265 6.198674
Al -3.079386 -3.093265 6.198674
Al -3.079386 -6.188265 9.293674
Al -6.174386 -3.093265 9.293674
Al -3.079386 -3.093265 12.388674
Al -3.079386 0.001735 -15.466326
Al -6.174386 0.001735 -12.371326
Al -3.079386 3.096735 -12.371326
Al -3.079386 0.001735 -9.276326
Al -6.174386 3.096735 -9.276326
Al -6.174386 0.001735 -6.181326
Al -3.079386 3.096735 -6.181326
Al -3.079386 0.001735 -3.086326
Al -6.174386 3.096735 -3.086326
Al -6.174386 0.001735 0.008674
Al -3.079386 3.096735 0.008674
Al -3.079386 0.001735 3.103674
Al -6.174386 3.096735 3.103674
Al -6.174386 0.001735 6.198674
Al -3.079386 3.096735 6.198674
Al -3.079386 0.001735 9.293674
Al -6.174386 3.096735 9.293674
Al -6.174386 0.001735 12.388674
Al -3.079386 3.096735 12.388674
Al -3.079386 0.001735 15.483674
Al -6.174386 3.096735 15.483674
Al -3.079386 6.191735 -9.276326
Al -6.174386 6.191735 -6.181326
Al -3.079386 9.286735 -6.181326
Al -3.079386 6.191735 -3.086326
Al -6.174386 9.286735 -3.086326
Al -6.174386 6.191735 0.008674
Al -3.079386 9.286735 0.008674
Al -3.079386 6.191735 3.103674
Al -6.174386 9.286735 3.103674
Al -6.174386 6.191735 6.198674
Al -3.079386 9.286735 6.198674
Al -3.079386 6.191735 9.293674
Al -6.174386 9.286735 9.293674
Al -6.174386 6.191735 12.388674
Al -3.079386 9.286735 12.388674
Al -3.079386 6.191735 15.483674
Al -6.174386 9.286735 15.483674
Al -3.079386 12.381735 -3.086326
Al -6.174386 12.381735 0.008674
Al -3.079386 15.476735 0.008674
Al -3.079386 12.381735 3.103674
Al -6.174386 15.476735 3.103674
Al -6.174386 12.381735 6.198674
Al -3.079386 15.476735 6.198674
Al -3.079386 12.381735 9.293674
Al -6.174386 15.476735 9.293674
Al -6.174386 12.381735 12.388674
Al 0.015614 -15.473265 -3.086326
Al 3.110614 -15.473265 0.008674
Al 0.015614 -15.473265 3.103674
Al 3.110614 -15.473265 6.198674
Al 0.015614 -9.283265 -9.276326
Al 0.015614 -12.378265 -6.181326
Al 3.110614 -9.283265 -6.181326
Al 3.110614 -12.378265 -3.086326
Al 0.015614 -9.283265 -3.086326
Al 0.015614 -12.378265 0.008674
Al 3.110614 -9.283265 0.008674
Al 3.110614 -12.378265 3.103674
Al 0.015614 -9.283265 3.103674
Al 0.015614 -12.378265 6.198674
Al 3.110614 -9.283265 6.198674
Al 3.110614 -12.378265 9.293674
Al 0.015614 -9.283265 9.293674
Al 3.110614 -9.283265 12.388674
Al 0.015614 -3.093265 -15.466326
Al 0.015614 -6.188265 -12.371326
Al 3.110614 -3.093265 -12.371326
Al 3.110614 -6.188265 -9.276326
Al 0.015614 -3.093265 -9.276326
Al 0.015614 -6.188265 -6.181326
Al 3.110614 -3.093265 -6.181326
Al 3.110614 -6.188265 -3.086326
Al 0.015614 -3.093265 -3.086326
Al 0.015614 -6.188265 0.008674
Al 3.110614 -3.093265 0.008674
Al 3.110614 -6.188265 3.103674
Al 0.015614 -3.093265 3.103674
Al 0.015614 -6.188265 6.198674
Al 3.110614 -3.093265 6.198674
Al 3.110614 -6.188265 9.293674
Al 0.015614 -3.093265 9.293674
Al 0.015614 -6.188265 12.388674
Al 3.110614 -3.093265 12.388674
Al 3.110614 -6.188265 15.483674
Al 0.015614 -3.093265 15.483674
Al 3.110614 0.001735 -15.466326
Al 0.015614 3.096735 -15.466326
Al 0.015614 0.001735 -12.371326
Al 3.110614 3.096735 -12.371326
Al 3.110614 0.001735 -9.276326
Al 0.015614 3.096735 -9.276326
Al 0.015614 0.001735 -6.181326
Al 3.110614 3.096735 -6.181326
Al 3.110614 0.001735 -3.086326
Al 0.015614 3.096735 -3.086326
Al 0.015614 0.001735 0.008674
Al 3.110614 3.096735 0.008674
Al 3.110614 0.001735 3.103674
Al 0.015614 3.096735 3.103674
Al 0.015614 0.001735 6.198674
Al 3.110614 3.096735 6.198674
Al 3.110614 0.001735 9.293674
Al 0.015614 3.096735 9.293674
Al 0.015614 0.001735 12.388674
Al 3.110614 3.096735 12.388674
Al 3.110614 0.001735 15.483674
Al 0.015614 3.096735 15.483674
Al 3.110614 6.191735 -15.466326
Al 0.015614 6.191735 -12.371326
Al 3.110614 9.286735 -12.371326
Al 3.110614 6.191735 -9.276326
Al 0.015614 9.286735 -9.276326
Al 0.015614 6.191735 -6.181326
Al 3.110614 9.286735 -6.181326
Al 3.110614 6.191735 -3.086326
Al 0.015614 9.286735 -3.086326
Al 0.015614 6.191735 0.008674
Al 3.110614 9.286735 0.008674
Al 3.110614 6.191735 3.103674
Al 0.015614 9.286735 3.103674
Al 0.015614 6.191735 6.198674
Al 3.110614 9.286735 6.198674
Al 3.110614 6.191735 9.293674
Al 0.015614 9.286735 9.293674
Al 0.015614 6.191735 12.388674
Al 3.110614 12.381735 -9.276326
Al 0.015614 12.381735 -6.181326
Al 3.110614 15.476735 -6.181326
Al 3.110614 12.381735 -3.086326
Al 0.015614 15.476735 -3.086326
Al 0.015614 12.381735 0.008674
Al 3.110614 15.476735 0.008674
Al 3.110614 12.381735 3.103674
Al 0.015614 15.476735 3.103674
Al 0.015614 12.381735 6.198674
Al 6.205614 -15.473265 3.103674
Al 9.300614 -15.473265 6.198674
Al 6.205614 -15.473265 9.293674
Al 9.300614 -15.473265 12.388674
Al 6.205614 -9.283265 -3.086326
Al 6.205614 -12.378265 0.008674
Al 9.300614 -9.283265 0.008674
Al 9.300614 -12.378265 3.103674
Al 6.205614 -9.283265 3.103674
Al 6.205614 -12.378265 6.198674
Al 9.300614 -9.283265 6.198674
Al 9.300614 -12.378265 9.293674
Al 6.205614 -9.283265 9.293674
Al 6.205614 -12.378265 12.388674
Al 9.300614 -9.283265 12.388674
Al 9.300614 -12.378265 15.483674
Al 6.205614 -9.283265 15.483674
Al 6.205614 -3.093265 -9.276326
Al 6.205614 -6.188265 -6.181326
Al 9.300614 -3.093265 -6.181326
Al 9.300614 -6.188265 -3.086326
Al 6.205614 -3.093265 -3.086326
Al 6.205614 -6.188265 0.008674
Al 9.300614 -3.093265 0.008674
Al 9.300614 -6.188265 3.103674
Al 6.205614 -3.093265 3.103674
Al 6.205614 -6.188265 6.198674
Al 9.300614 -3.093265 6.198674
Al 9.300614 -6.188265 9.293674
Al 6.205614 -3.093265 9.293674
Al 6.205614 -6.188265 12.388674
Al 9.300614 -3.093265 12.388674
Al 9.300614 -6.188265 15.483674
Al 6.205614 -3.093265 15.483674
Al 6.205614 3.096735 -15.466326
Al 6.205614 0.001735 -12.371326
Al 9.300614 3.096735 -12.371326
Al 9.300614 0.001735 -9.276326
Al 6.205614 3.096735 -9.276326
Al 6.205614 0.001735 -6.181326
Al 9.300614 3.096735 -6.181326
Al 9.300614 0.001735 -3.086326
Al 6.205614 3.096735 -3.086326
Al 6.205614 0.001735 0.008674
Al 9.300614 3.096735 0.008674
Al 9.300614 0.001735 3.103674
Al 6.205614 3.096735 3.103674
Al 6.205614 0.001735 6.198674
Al 9.300614 3.096735 6.198674
Al 9.300614 0.001735 9.293674
Al 6.205614 3.096735 9.293674
Al 6.205614 0.001735 12.388674
Al 9.300614 6.191735 -15.466326
Al 6.205614 9.286735 -15.466326
Al 6.205614 6.191735 -12.371326
Al 9.300614 9.286735 -12.371326
Al 9.300614 6.191735 -9.276326
Al 6.205614 9.286735 -9.276326
Al 6.205614 6.191735 -6.181326
Al 9.300614 9.286735 -6.181326
Al 9.300614 6.191735 -3.086326
Al 6.205614 9.286735 -3.086326
Al 6.205614 6.191735 0.008674
Al 9.300614 9.286735 0.008674
Al 9.300614 6.191735 3.103674
Al 6.205614 9.286735 3.103674
Al 6.205614 6.191735 6.198674
Al 9.300614 12.381735 -15.466326
Al 6.205614 12.381735 -12.371326
Al 9.300614 15.476735 -12.371326
Al 9.300614 12.381735 -9.276326
Al 6.205614 15.476735 -9.276326
Al 6.205614 12.381735 -6.181326
Al 9.300614 15.476735 -6.181326
Al 9.300614 12.381735 -3.086326
Al 6.205614 15.476735 -3.086326
Al 6.205614 12.381735 0.008674
Al 12.395614 -15.473265 9.293674
Al 12.395614 -9.283265 3.103674
Al 12.395614 -12.378265 6.198674
Al 15.490614 -9.283265 6.198674
Al 15.490614 -12.378265 9.293674
Al 12.395614 -9.283265 9.293674
Al 12.395614 -12.378265 12.388674
Al 15.490614 -9.283265 12.388674
Al 12.395614 -9.283265 15.483674
Al 12.395614 -3.093265 -3.086326
Al 12.395614 -6.188265 0.008674
Al 15.490614 -3.093265 0.008674
Al 15.490614 -6.188265 3.103674
Al 12.395614 -3.093265 3.103674
Al 12.395614 -6.188265 6.198674
Al 15.490614 -3.093265 6.198674
Al 15.490614 -6.188265 9.293674
Al 12.395614 -3.093265 9.293674
Al 12.395614 -6.188265 12.388674
Al 12.395614 3.096735 -9.276326
Al 12.395614 0.001735 -6.181326
Al 15.490614 3.096735 -6.181326
Al 15.490614 0.001735 -3.086326
Al 12.395614 3.096735 -3.086326
Al 12.395614 0.001735 0.008674
Al 15.490614 3.096735 0.008674
Al 15.490614 0.001735 3.103674
Al 12.395614 3.096735 3.103674
Al 12.395614 0.001735 6.198674
Al 12.395614 9.286735 -15.466326
Al 12.395614 6.191735 -12.371326
Al 15.490614 9.286735 -12.371326
Al 15.490614 6.191735 -9.276326
Al 12.395614 9.286735 -9.276326
Al 12.395614 6.191735 -6.181326
Al 15.490614 9.286735 -6.181326
Al 15.490614 6.191735 -3.086326
Al 12.395614 9.286735 -3.086326
Al 12.395614 6.191735 0.008674
Al 12.395614 12.381735 -12.371326
Al 15.490614 12.381735 -9.276326
Al 12.395614 15.476735 -9.276326
Al 12.395614 12.381735 -6.181326
Sb -13.911886 -13.925765 -10.823826
Sb -13.911886 -10.830765 -13.918826
Sb -13.911886 -7.735765 -10.823826
Sb -13.911886 -10.830765 -7.728826
Sb -13.911886 -7.735765 -4.633826
Sb -13.911886 -4.640765 -7.728826
Sb -13.911886 -1.545765 -4.633826
Sb -13.911886 -4.640765 -1.538826
Sb -13.911886 -1.545765 1.556174
Sb -13.911886 1.549235 -1.538826
Sb -13.911886 4.644235 1.556174
Sb -13.911886 1.549235 4.651174
Sb -13.911886 4.644235 7.746174
Sb -13.911886 7.739235 4.651174
Sb -13.911886 10.834235 7.746174
Sb -13.911886 7.739235 10.841174
Sb -13.911886 10.834235 13.936174
Sb -13.911886 13.929235 10.841174
Sb -10.816886 -13.925765 -13.918826
Sb -10.816886 -13.925765 -7.728826
Sb -7.721886 -13.925765 -10.823826
Sb -7.721886 -13.925765 -4.633826
Sb -10.816886 -7.735765 -13.918826
Sb -7.721886 -10.830765 -13.918826
Sb -10.816886 -10.830765 -10.823826
Sb -10.816886 -7.735765 -7.728826
Sb -7.721886 -7.735765 -10.823826
Sb -7.721886 -10.830765 -7.728826
Sb -10.816886 -10.830765 -4.633826
Sb -10.816886 -7.735765 -1.538826
Sb -7.721886 -7.735765 -4.633826
Sb -7.721886 -10.830765 -1.538826
Sb -7.721886 -7.735765 1.556174
Sb -7.721886 -4.640765 -13.918826
Sb -10.816886 -4.640765 -10.823826
Sb -10.816886 -1.545765 -7.728826
Sb -7.721886 -1.545765 -10.823826
Sb -7.721886 -4.640765 -7.728826
Sb -10.816886 -4.640765 -4.633826
Sb -10.816886 -1.545765 -1.538826
Sb -7.721886 -1.545765 -4.633826
Sb -7.721886 -4.640765 -1.538826
Sb -10.816886 -4.640765 1.556174
Sb -10.816886 -1.545765 4.651174
Sb -7.721886 -1.545765 1.556174
Sb -7.721886 -4.640765 4.651174
Sb -7.721886 -1.545765 7.746174
Sb -7.721886 1.549235 -7.728826
Sb -10.816886 1.549235 -4.633826
Sb -10.816886 4.644235 -1.538826
Sb -7.721886 4.644235 -4.633826
Sb -7.721886 1.549235 -1.538826
Sb -10.816886 1.549235 1.556174
Sb -10.816886 4.644235 4.651174
Sb -7.721886 4.644235 1.556174
Sb -7.721886 1.549235 4.651174
Sb -10.816886 1.549235 7.746174
Sb -10.816886 4.644235 10.841174
Sb -7.721886 4.644235 7.746174
Sb -7.721886 1.549235 10.841174
Sb -7.721886 4.644235 13.936174
Sb -7.721886 7.739235 -1.538826
Sb -10.816886 7.739235 1.556174
Sb -10.816886 10.834235 4.651174
Sb -7.721886 10.834235 1.556174
Sb -7.721886 7.739235 4.651174
Sb -10.816886 7.739235 7.746174
Sb -10.816886 10.834235 10.841174
Sb -7.721886 10.834235 7.746174
Sb -7.721886 7.739235 10.841174
Sb -10.816886 7.739235 13.936174
Sb -7.721886 10.834235 13.936174
Sb -7.721886 13.929235 4.651174
Sb -10.816886 13.929235 7.746174
Sb -7.721886 13.929235 10.841174
Sb -10.816886 13.929235 13.936174
Sb -4.626886 -13.925765 -7.728826
Sb -4.626886 -13.925765 -1.538826
Sb -1.531886 -13.925765 -4.633826
Sb -1.531886 -13.925765 1.556174
Sb -4.626886 -7.735765 -13.918826
Sb -4.626886 -10.830765 -10.823826
Sb -4.626886 -7.735765 -7.728826
Sb -1.531886 -7.735765 -10.823826
Sb -1.531886 -10.830765 -7.728826
Sb -4.626886 -10.830765 -4.633826
Sb -4.626886 -7.735765 -1.538826
Sb -1.531886 -7.735765 -4.633826
Sb -1.531886 -10.830765 -1.538826
Sb -4.626886 -10.830765 1.556174
Sb -4.626886 -7.735765 4.651174
Sb -1.531886 -7.735765 1.556174
Sb -1.531886 -10.830765 4.651174
Sb -1.531886 -7.735765 7.746174
Sb -4.626886 -1.545765 -13.918826
Sb -1.531886 -4.640765 -13.918826
Sb -4.626886 -4.640765 -10.823826
Sb -4.626886 -1.545765 -7.728826
Sb -1.531886 -1.545765 -10.823826
Sb -1.531886 -4.640765 -7.728826
Sb -4.626886 -4.640765 -4.633826
Sb -4.626886 -1.545765 -1.538826
Sb -1.531886 -1.545765 -4.633826
Sb -1.531886 -4.640765 -1.538826
Sb -4.626886 -4.640765 1.556174
Sb -4.626886 -1.545765 4.651174
Sb -1.531886 -1.545765 1.556174
Sb -1.531886 -4.640765 4.651174
Sb -4.626886 -4.640765 7.746174
Sb -4.626886 -1.545765 10.841174
Sb -1.531886 -1.545765 7.746174
Sb -1.531886 -4.640765 10.841174
Sb -1.531886 -1.545765 13.936174
Sb -1.531886 1.549235 -13.918826
Sb -4.626886 1.549235 -10.823826
Sb -4.626886 4.644235 -7.728826
Sb -1.531886 4.644235 -10.823826
Sb -1.531886 1.549235 -7.728826
Sb -4.626886 1.549235 -4.633826
Sb -4.626886 4.644235 -1.538826
Sb -1.531886 4.644235 -4.633826
Sb -1.531886 1.549235 -1.538826
Sb -4.626886 1.549235 1.556174
Sb -4.626886 4.644235 4.651174
Sb -1.531886 4.644235 1.556174
Sb -1.531886 1.549235 4.651174
Sb -4.626886 1.549235 7.746174
Sb -4.626886 4.644235 10.841174
Sb -1.531886 4.644235 7.746174
Sb -1.531886 1.549235 10.841174
Sb -4.626886 1.549235 13.936174
Sb -1.531886 4.644235 13.936174
Sb -1.531886 7.739235 -7.728826
Sb -4.626886 7.739235 -4.633826
Sb -4.626886 10.834235 -1.538826
Sb -1.531886 10.834235 -4.633826
Sb -1.531886 7.739235 -1.538826
Sb -4.626886 7.739235 1.556174
Sb -4.626886 10.834235 4.651174
Sb -1.531886 10.834235 1.556174
Sb -1.531886 7.739235 4.651174
Sb -4.626886 7.739235 7.746174
Sb -4.626886 10.834235 10.841174
Sb -1.531886 10.834235 7.746174
Sb -1.531886 7.739235 10.841174
Sb -4.626886 7.739235 13.936174
Sb -1.531886 13.929235 -1.538826
Sb -4.626886 13.929235 1.556174
Sb -1.531886 13.929235 4.651174
Sb -4.626886 13.929235 7.746174
Sb 1.563114 -13.925765 -1.538826
Sb 1.563114 -13.925765 4.651174
Sb 4.658114 -13.925765 1.556174
Sb 4.658114 -13.925765 7.746174
Sb 1.563114 -7.735765 -7.728826
Sb 1.563114 -10.830765 -4.633826
Sb 1.563114 -7.735765 -1.538826
Sb 4.658114 -7.735765 -4.633826
Sb 4.658114 -10.830765 -1.538826
Sb 1.563114 -10.830765 1.556174
Sb 1.563114 -7.735765 4.651174
Sb 4.658114 -7.735765 1.556174
Sb 4.658114 -10.830765 4.651174
Sb 1.563114 -10.830765 7.746174
Sb 1.563114 -7.735765 10.841174
Sb 4.658114 -7.735765 7.746174
Sb 4.658114 -10.830765 10.841174
Sb 4.658114 -7.735765 13.936174
Sb 1.563114 -1.545765 -13.918826
Sb 1.563114 -4.640765 -10.823826
Sb 1.563114 -1.545765 -7.728826
Sb 4.658114 -1.545765 -10.823826
Sb 4.658114 -4.640765 -7.728826
Sb 1.563114 -4.640765 -4.633826
Sb 1.563114 -1.545765 -1.538826
Sb 4.658114 -1.545765 -4.633826
Sb 4.658114 -4.640765 -1.538826
Sb 1.563114 -4.640765 1.556174
Sb 1.563114 -1.545765 4.651174
Sb 4.658114 -1.545765 1.556174
Sb 4.658114 -4.640765 4.651174
Sb 1.563114 -4.640765 7.746174
Sb 1.563114 -1.545765 10.841174
Sb 4.658114 -1.545765 7.746174
Sb 4.658114 -4.640765 10.841174
Sb 1.563114 -4.640765 13.936174
Sb 4.658114 -1.545765 13.936174
Sb 1.563114 4.644235 -13.918826
Sb 4.658114 1.549235 -13.918826
Sb 1.563114 1.549235 -10.823826
Sb 1.563114 4.644235 -7.728826
Sb 4.658114 4.644235 -10.823826
Sb 4.658114 1.549235 -7.728826
Sb 1.563114 1.549235 -4.633826
Sb 1.563114 4.644235 -1.538826
Sb 4.658114 4.644235 -4.633826
Sb 4.658114 1.549235 -1.538826
Sb 1.563114 1.549235 1.556174
Sb 1.563114 4.644235 4.651174
Sb 4.658114 4.644235 1.556174
Sb 4.658114 1.549235 4.651174
Sb 1.563114 1.549235 7.746174
Sb 1.563114 4.644235 10.841174
Sb 4.658114 4.644235 7.746174
Sb 4.658114 1.549235 10.841174
Sb 1.563114 1.549235 13.936174
Sb 4.658114 7.739235 -13.918826
Sb 1.563114 7.739235 -10.823826
Sb 1.563114 10.834235 -7.728826
Sb 4.658114 10.834235 -10.823826
Sb 4.658114 7.739235 -7.728826
Sb 1.563114 7.739235 -4.633826
Sb 1.563114 10.834235 -1.538826
Sb 4.658114 10.834235 -4.633826
Sb 4.658114 7.739235 -1.538826
Sb 1.563114 7.739235 1.556174
Sb 1.563114 10.834235 4.651174
Sb 4.658114 10.834235 1.556174
Sb 4.658114 7.739235 4.651174
Sb 1.563114 7.739235 7.746174
Sb 4.658114 13.929235 -7.728826
Sb 1.563114 13.929235 -4.633826
Sb 4.658114 13.929235 -1.538826
Sb 1.563114 13.929235 1.556174
Sb 7.753114 -13.925765 4.651174
Sb 7.753114 -13.925765 10.841174
Sb 10.848114 -13.925765 7.746174
Sb 10.848114 -13.925765 13.936174
Sb 7.753114 -7.735765 -1.538826
Sb 7.753114 -10.830765 1.556174
Sb 7.753114 -7.735765 4.651174
Sb 10.848114 -7.735765 1.556174
Sb 10.848114 -10.830765 4.651174
Sb 7.753114 -10.830765 7.746174
Sb 7.753114 -7.735765 10.841174
Sb 10.848114 -7.735765 7.746174
Sb 10.848114 -10.830765 10.841174
Sb 7.753114 -10.830765 13.936174
Sb 10.848114 -7.735765 13.936174
Sb 7.753114 -1.545765 -7.728826
Sb 7.753114 -4.640765 -4.633826
Sb 7.753114 -1.545765 -1.538826
Sb 10.848114 -1.545765 -4.633826
Sb 10.848114 -4.640765 -1.538826
Sb 7.753114 -4.640765 1.556174
Sb 7.753114 -1.545765 4.651174
Sb 10.848114 -1.545765 1.556174
Sb 10.848114 -4.640765 4.651174
Sb 7.753114 -4.640765 7.746174
Sb 7.753114 -1.545765 10.841174
Sb 10.848114 -1.545765 7.746174
Sb 10.848114 -4.640765 10.841174
Sb 7.753114 -4.640765 13.936174
Sb 7.753114 4.644235 -13.918826
Sb 7.753114 1.549235 -10.823826
Sb 7.753114 4.644235 -7.728826
Sb 10.848114 4.644235 -10.823826
Sb 10.848114 1.549235 -7.728826
Sb 7.753114 1.549235 -4.633826
Sb 7.753114 4.644235 -1.538826
Sb 10.848114 4.644235 -4.633826
Sb 10.848114 1.549235 -1.538826
Sb 7.753114 1.549235 1.556174
Sb 7.753114 4.644235 4.651174
Sb 10.848114 4.644235 1.556174
Sb 10.848114 1.549235 4.651174
Sb 7.753114 1.549235 7.746174
Sb 7.753114 10.834235 -13.918826
Sb 10.848114 7.739235 -13.918826
Sb 7.753114 7.739235 -10.823826
Sb 7.753114 10.834235 -7.728826
Sb 10.848114 10.834235 -10.823826
Sb 10.848114 7.739235 -7.728826
Sb 7.753114 7.739235 -4.633826
Sb 7.753114 10.834235 -1.538826
Sb 10.848114 10.834235 -4.633826
Sb 10.848114 7.739235 -1.538826
Sb 7.753114 7.739235 1.556174
Sb 10.848114 13.929235 -13.918826
Sb 7.753114 13.929235 -10.823826
Sb 10.848114 13.929235 -7.728826
Sb 7.753114 13.929235 -4.633826
Sb 13.943114 -13.925765 10.841174
Sb 13.943114 -7.735765 4.651174
Sb 13.943114 -10.830765 7.746174
Sb 13.943114 -7.735765 10.841174
Sb 13.943114 -10.830765 13.936174
Sb 13.943114 -1.545765 -1.538826
Sb 13.943114 -4.640765 1.556174
Sb 13.943114 -1.545765 4.651174
Sb 13.943114 -4.640765 7.746174
Sb 13.943114 4.644235 -7.728826
Sb 13.943114 1.549235 -4.633826
Sb 13.943114 4.644235 -1.538826
Sb 13.943114 1.549235 1.556174
Sb 13.943114 10.834235 -13.918826
Sb 13.943114 7.739235 -10.823826
Sb 13.943114 10.834235 -7.728826
Sb 13.943114 7.739235 -4.633826
Sb 13.943114 13.929235 -10.823826
Cl -17.006886 -10.830765 -10.823826
Cl -17.006886 -7.735765 -7.728826
Cl -17.006886 -4.640765 -4.633826
Cl -17.006886 -1.545765 -1.538826
Cl -17.006886 1.549235 1.556174
Cl -17.006886 4.644235 4.651174
Cl -17.006886 7.739235 7.746174
Cl -17.006886 10.834235 10.841174
Cl -10.816886 -17.020765 -10.823826
Cl -7.721886 -17.020765 -7.728826
Cl -10.816886 -10.830765 -17.013826
Cl -7.721886 -7.735765 -17.013826
Cl -10.816886 10.834235 17.031174
Cl -7.721886 7.739235 17.031174
Cl -10.816886 17.024235 10.841174
Cl -7.721886 17.024235 7.746174
Cl -4.626886 -17.020765 -4.633826
Cl -1.531886 -17.020765 -1.538826
Cl -4.626886 -4.640765 -17.013826
Cl -1.531886 -1.545765 -17.013826
Cl -4.626886 4.644235 17.031174
Cl -1.531886 1.549235 17.031174
Cl -4.626886 17.024235 4.651174
Cl -1.531886 17.024235 1.556174
Cl 1.563114 -17.020765 1.556174
Cl 4.658114 -17.020765 4.651174
Cl 1.563114 -1.545765 17.031174
Cl 4.658114 -4.640765 17.031174
Cl 1.563114 1.549235 -17.013826
Cl 4.658114 4.644235 -17.013826
Cl 1.563114 17.024235 -1.538826
Cl 4.658114 17.024235 -4.633826
Cl 7.753114 -17.020765 7.746174
Cl 10.848114 -17.020765 10.841174
Cl 7.753114 -7.735765 17.031174
Cl 10.848114 -10.830765 17.031174
Cl 7.753114 7.739235 -17.013826
Cl 10.848114 10.834235 -17.013826
Cl 7.753114 17.024235 -7.728826
Cl 10.848114 17.024235 -10.823826
Cl 17.038114 -7.735765 7.746174
Cl 17.038114 -10.830765 10.841174
Cl 17.038114 -1.545765 1.556174
Cl 17.038114 -4.640765 4.651174
Cl 17.038114 4.644235 -4.633826
Cl 17.038114 1.549235 -1.538826
Cl 17.038114 10.834235 -10.823826
Cl 17.038114 7.739235 -7.728826
Cl -7.721886 -7.735765 7.746174
Cl -7.721886 7.739235 -7.728826
Cl 7.753114 -7.735765 -7.728826
Cl 7.753114 7.739235 7.746174
Cl -17.006886 -7.735765 -13.918826
Cl -17.006886 -13.925765 -7.728826
Cl -7.721886 -17.020765 -13.918826
Cl -7.721886 17.024235 13.936174
Cl 7.753114 -13.925765 17.031174
Cl 7.753114 17.024235 -13.918826
Cl 17.038114 -7.735765 13.936174
Cl 17.038114 7.739235 -13.918826
Cl -17.006886 7.739235 13.936174
Cl -17.006886 13.929235 7.746174
Cl 13.943114 -17.020765 7.746174
Cl 17.038114 13.929235 -7.728826
Cl -1.531886 -17.020765 4.651174
Cl 4.658114 -1.545765 -17.013826
Cl -1.531886 4.644235 -17.013826
Cl 1.563114 4.644235 17.031174
Cl -4.626886 -1.545765 17.031174
Cl -4.626886 17.024235 -1.538826
Cl 4.658114 17.024235 1.556174
Cl 17.038114 -4.640765 -1.538826
Cl -17.006886 -4.640765 1.556174
Cl -17.006886 1.549235 -4.633826
Cl 1.563114 -17.020765 -4.633826
Cl 17.038114 1.549235 4.651174
Cl -7.721886 -17.020765 -1.538826
Cl -1.531886 -7.735765 -17.013826
Cl -7.721886 -1.545765 -17.013826
Cl 7.753114 -1.545765 17.031174
Cl -1.531886 17.024235 7.746174
Cl 1.563114 -7.735765 17.031174
Cl 1.563114 17.024235 -7.728826
Cl 17.038114 1.549235 -7.728826
Cl -17.006886 1.549235 7.746174
Cl -17.006886 7.739235 1.556174
Cl 7.753114 -17.020765 1.556174
Cl 17.038114 7.739235 -1.538826
Cl -4.626886 10.834235 17.031174
Cl 4.658114 -17.020765 10.841174
Cl 10.848114 4.644235 -17.013826
Cl 4.658114 10.834235 -17.013826
Cl -10.816886 4.644235 17.031174
Cl -10.816886 17.024235 4.651174
Cl 10.848114 17.024235 -4.633826
Cl 17.038114 -10.830765 4.651174
Cl -13.911886 -10.830765 -1.538826
Cl -13.911886 -1.545765 -10.823826
Cl -1.531886 -13.925765 -10.823826
Cl 13.943114 -1.545765 10.841174
Cl -1.531886 -10.830765 10.841174
Cl -1.531886 10.834235 -10.823826
Cl 1.563114 10.834235 10.841174
Cl 10.848114 -1.545765 -10.823826
Cl -10.816886 -1.545765 10.841174
Cl -10.816886 10.834235 -1.538826
Cl 10.848114 -10.830765 -1.538826
Cl 10.848114 10.834235 1.556174
Cl -13.911886 -17.020765 -7.728826
Cl -7.721886 -13.925765 -17.013826
Cl -13.911886 -7.735765 -17.013826
Cl 13.943114 -7.735765 17.031174
Cl -7.721886 -10.830765 4.651174
Cl -7.721886 4.644235 -10.823826
Cl 4.658114 -7.735765 -10.823826
Cl 7.753114 4.644235 10.841174
Cl -13.911886 -4.640765 4.651174
Cl -13.911886 4.644235 -4.633826
Cl 4.658114 -13.925765 -4.633826
Cl 13.943114 4.644235 4.651174
Cl -4.626886 -4.640765 13.936174
Cl -4.626886 13.929235 -4.633826
Cl 4.658114 13.929235 4.651174
Cl 13.943114 -4.640765 -4.633826
Cl -7.721886 13.929235 17.031174
Cl 7.753114 -17.020765 13.936174
Cl 7.753114 13.929235 -17.013826
Cl 13.943114 7.739235 -17.013826
Cl -13.911886 7.739235 17.031174
Cl -13.911886 17.024235 7.746174
Cl 17.038114 -13.925765 7.746174
Cl 13.943114 17.024235 -7.728826
Cl -17.006886 -10.830765 -4.633826
Cl -17.006886 -4.640765 -10.823826
Cl -4.626886 -17.020765 -10.823826
Cl 17.038114 -4.640765 10.841174
Cl -4.626886 -17.020765 1.556174
Cl -4.626886 1.549235 -17.013826
Cl 1.563114 -4.640765 -17.013826
Cl 4.658114 1.549235 17.031174
Cl -4.626886 17.024235 10.841174
Cl 4.658114 -10.830765 17.031174
Cl 4.658114 17.024235 -10.823826
Cl 17.038114 4.644235 -10.823826
Cl -17.006886 10.834235 4.651174
Cl -17.006886 4.644235 10.841174
Cl 10.848114 -17.020765 4.651174
Cl 17.038114 10.834235 -4.633826
Cl -1.531886 7.739235 17.031174
Cl 1.563114 -17.020765 7.746174
Cl 1.563114 7.739235 -17.013826
Cl 7.753114 1.549235 -17.013826
Cl -7.721886 1.549235 17.031174
Cl -7.721886 17.024235 1.556174
Cl 7.753114 17.024235 -1.538826
Cl 17.038114 -7.735765 1.556174
Cl -10.816886 -17.020765 -4.633826
Cl -10.816886 -4.640765 -17.013826
Cl -4.626886 -10.830765 -17.013826
Cl 10.848114 -4.640765 17.031174
Cl -10.816886 -10.830765 1.556174
Cl -10.816886 1.549235 -10.823826
Cl 1.563114 -10.830765 -10.823826
Cl 10.848114 1.549235 10.841174
Cl -17.006886 4.644235 -1.538826
Cl -17.006886 -1.545765 4.651174
Cl 4.658114 -17.020765 -1.538826
Cl 17.038114 4.644235 1.556174
Cl -1.531886 -4.640765 17.031174
Cl -1.531886 17.024235 -4.633826
Cl 1.563114 17.024235 4.651174
Cl 17.038114 -1.545765 -4.633826
Cl -17.006886 -1.545765 -7.728826
Cl -17.006886 -7.735765 -1.538826
Cl -1.531886 -17.020765 -7.728826
Cl 17.038114 -1.545765 7.746174
Cl -1.531886 10.834235 13.936174
Cl 1.563114 -13.925765 10.841174
Cl 1.563114 10.834235 -13.918826
Cl 10.848114 1.549235 -13.918826
Cl -10.816886 1.549235 13.936174
Cl -10.816886 13.929235 1.556174
Cl 10.848114 13.929235 -1.538826
Cl 13.943114 -10.830765 1.556174
Cl -4.626886 -10.830765 7.746174
Cl -4.626886 7.739235 -10.823826
Cl 4.658114 7.739235 10.841174
Cl 7.753114 -4.640765 -10.823826
Cl -10.816886 -4.640765 7.746174
Cl -10.816886 7.739235 -4.633826
Cl 7.753114 -10.830765 -4.633826
Cl 10.848114 7.739235 4.651174
Cl -1.531886 13.929235 10.841174
Cl 1.563114 -10.830765 13.936174
Cl 1.563114 13.929235 -10.823826
Cl 13.943114 1.549235 -10.823826
Cl -10.816886 -13.925765 -1.538826
Cl -10.816886 -1.545765 -13.918826
Cl -1.531886 -10.830765 -13.918826
Cl 10.848114 -1.545765 13.936174
Cl -13.911886 1.549235 10.841174
Cl -13.911886 10.834235 1.556174
Cl 10.848114 -13.925765 1.556174
Cl 13.943114 10.834235 -1.538826
Cl -4.626886 -13.925765 4.651174
Cl -4.626886 4.644235 -13.918826
Cl 4.658114 -4.640765 -13.918826
Cl 4.658114 4.644235 13.936174
Cl -7.721886 -4.640765 10.841174
Cl -7.721886 10.834235 -4.633826
Cl 10.848114 -7.735765 -4.633826
Cl 7.753114 10.834235 4.651174
Cl -13.911886 -7.735765 1.556174
Cl -13.911886 1.549235 -7.728826
Cl 1.563114 -13.925765 -7.728826
Cl 1.563114 13.929235 7.746174
Cl -1.531886 -7.735765 13.936174
Cl -1.531886 13.929235 -7.728826
Cl 13.943114 -1.545765 -7.728826
