133
HgTe-Hg-Hg55Te32Cl46-clean
Hg -3.067354 -3.289984 -6.579968
Hg -3.067354 -6.579968 -3.289984
Hg -6.357338 -3.289984 -3.289984
Hg -6.357338 -6.579968 -0.000000
Hg -3.067354 -3.289984 -0.000000
Hg -3.067354 -6.579968 3.289984
Hg -6.357338 -3.289984 3.289984
Hg -3.067354 -3.289984 6.579968
Hg -6.357338 0.000000 -6.579968
Hg -3.067354 3.289984 -6.579968
Hg -3.067354 0.000000 -3.289984
Hg -6.357338 3.289984 -3.289984
Hg -6.357338 0.000000 -0.000000
Hg -3.067354 3.289984 0.000000
Hg -3.067354 0.000000 3.289984
Hg -6.357338 3.289984 3.289984
Hg -6.357338 0.000000 6.579968
Hg -3.067354 3.289984 6.579968
Hg -3.067354 6.579968 -3.289984
Hg -6.357338 6.579968 0.000000
Hg -3.067354 6.579968 3.289984
Hg 0.222631 -6.579968 -6.579968
Hg 3.512615 -3.289984 -6.579968
Hg 3.512615 -6.579968 -3.289984
Hg 0.222631 -3.289984 -3.289984
Hg 0.222631 -6.579968 -0.000000
Hg 3.512615 -3.289984 0.000000
Hg 3.512615 -6.579968 3.289984
Hg 0.222631 -3.289984 3.289984
Hg 0.222631 -6.579968 6.579968
Hg 3.512615 -3.289984 6.579968
Hg 0.222631 0.000000 -6.579968
Hg 3.512615 3.289984 -6.579968
Hg 3.512615 0.000000 -3.289984
Hg 0.222631 3.289984 -3.289984
Hg 0.222631 0.000000 0.000000
Hg 3.512615 3.289984 0.000000
Hg 3.512615 0.000000 3.289984
Hg 0.222631 3.289984 3.289984
Hg 0.222631 0.000000 6.579968
Hg 3.512615 3.289984 6.579968
Hg 0.222631 6.579968 -6.579968
Hg 3.512615 6.579968 -3.289984
Hg 0.222631 6.579968 0.000000
Hg 3.512615 6.579968 3.289984
Hg 0.222631 6.579968 6.579968
Hg 6.802599 -3.289984 -3.289984
Hg 6.802599 -6.579968 0.000000
Hg 6.802599 -3.289984 3.289984
Hg 6.802599 0.000000 -6.579968
Hg 6.802599 3.289984 -3.289984
Hg 6.802599 0.000000 0.000000
Hg 6.802599 3.289984 3.289984
Hg 6.802599 0.000000 6.579968
Hg 6.802599 6.579968 0.000000
Te -4.712346 -4.934976 -4.934976
Te -4.712346 -1.644992 -1.644992
Te -1.422362 -1.644992 -4.934976
Te -1.422362 -4.934976 -1.644992
Te -4.712346 -4.934976 1.644992
Te -4.712346 -1.644992 4.934976
Te -1.422362 -1.644992 1.644992
Te -1.422362 -4.934976 4.934976
Te -4.712346 1.644992 -4.934976
Te -4.712346 4.934976 -1.644992
Te -1.422362 4.934976 -4.934976
Te -1.422362 1.644992 -1.644992
Te -4.712346 1.644992 1.644992
Te -4.712346 4.934976 4.934976
Te -1.422362 4.934976 1.644992
Te -1.422362 1.644992 4.934976
Te 1.867623 -4.934976 -4.934976
Te 1.867623 -1.644992 -1.644992
Te 5.157607 -1.644992 -4.934976
Te 5.157607 -4.934976 -1.644992
Te 1.867623 -4.934976 1.644992
Te 1.867623 -1.644992 4.934976
Te 5.157607 -1.644992 1.644992
Te 5.157607 -4.934976 4.934976
Te 1.867623 1.644992 -4.934976
Te 1.867623 4.934976 -1.644992
Te 5.157607 4.934976 -4.934976
Te 5.157607 1.644992 -1.644992
Te 1.867623 1.644992 1.644992
Te 1.867623 4.934976 4.934976
Te 5.157607 4.934976 1.644992
Te 5.157607 1.644992 4.934976
Cl -8.002330 -1.644992 -4.934976
Cl -8.002330 -4.934976 -1.644992
Cl -8.002330 -1.644992 1.644992
Cl -8.002330 1.644992 -1.644992
Cl -8.002330 4.934976 1.644992
Cl -8.002330 1.644992 4.934976
Cl -4.712346 -8.224961 -1.644992
Cl -1.422362 -8.224961 -4.934976
Cl -1.422362 -8.224961 1.644992
Cl -4.712346 -1.644992 -8.224961
Cl -1.422362 -4.934976 -8.224961
Cl -1.422362 -1.644992 8.224961
Cl -1.422362 1.644992 -8.224961
Cl -4.712346 1.644992 8.224961
Cl -1.422362 4.934976 8.224961
Cl -1.422362 8.224961 -1.644992
Cl -4.712346 8.224961 1.644992
Cl -1.422362 8.224961 4.934976
Cl 1.867623 -8.224961 -1.644992
Cl 1.867623 -8.224961 4.934976
Cl 5.157607 -8.224961 1.644992
Cl 1.867623 -1.644992 -8.224961
Cl 1.867623 -4.934976 8.224961
Cl 5.157607 -1.644992 8.224961
Cl 1.867623 4.934976 -8.224961
Cl 5.157607 1.644992 -8.224961
Cl 1.867623 1.644992 8.224961
Cl 1.867623 8.224961 -4.934976
Cl 5.157607 8.224961 -1.644992
Cl 1.867623 8.224961 1.644992
Cl 8.447591 -1.644992 -1.644992
Cl 8.447591 -4.934976 1.644992
Cl 8.447591 -1.644992 4.934976
Cl 8.447591 1.644992 -4.934976
Cl 8.447591 4.934976 -1.644992
Cl 8.447591 1.644992 1.644992
Cl -4.712346 -4.934976 4.934976
Cl -4.712346 4.934976 -4.934976
Cl 5.157607 -4.934976 -4.934976
Cl 5.157607 4.934976 4.934976
Cl -8.002330 -8.224961 1.644992
Cl -8.002330 1.644992 -8.224961
Cl 1.867623 -8.224961 -8.224961
Cl 1.867623 8.224961 8.224961
Cl -8.002330 -1.644992 8.224961
Cl -8.002330 8.224961 -1.644992
