114
InAs-As-In40As23Cl51-reconstructed
In -7.553547 -1.499995 -1.526781
In -7.553547 1.553566 1.526781
In -1.446424 -7.607119 -1.526781
In -1.446424 -1.499995 -7.633904
In -4.499986 -4.553557 -1.526781
In -4.499986 -1.499995 -4.580342
In -1.446424 -1.499995 -1.526781
In -1.446424 -4.553557 -4.580342
In -4.499986 -1.499995 1.526781
In -1.446424 -1.499995 4.580342
In -1.446424 -4.553557 1.526781
In -4.499986 1.553566 -1.526781
In -1.446424 4.607128 -1.526781
In -1.446424 1.553566 -4.580342
In -4.499986 1.553566 4.580342
In -4.499986 4.607128 1.526781
In -1.446424 4.607128 4.580342
In -1.446424 1.553566 1.526781
In -1.446424 1.553566 7.633904
In -1.446424 7.660690 1.526781
In 1.607138 -7.607119 1.526781
In 1.607138 -4.553557 -1.526781
In 1.607138 -1.499995 -4.580342
In 4.660699 -1.499995 -1.526781
In 1.607138 -4.553557 4.580342
In 1.607138 -1.499995 1.526781
In 4.660699 -1.499995 4.580342
In 4.660699 -4.553557 1.526781
In 1.607138 -1.499995 7.633904
In 1.607138 1.553566 -7.633904
In 1.607138 1.553566 -1.526781
In 1.607138 4.607128 -4.580342
In 4.660699 4.607128 -1.526781
In 4.660699 1.553566 -4.580342
In 1.607138 1.553566 4.580342
In 1.607138 4.607128 1.526781
In 4.660699 1.553566 1.526781
In 1.607138 7.660690 -1.526781
In 7.714261 -1.499995 1.526781
In 7.714261 1.553566 -1.526781
As -6.026766 -3.026776 -3.053562
As -2.973205 -3.026776 -0.000000
As -2.973205 0.026786 -3.053562
As -6.026766 0.026786 -0.000000
As -2.973205 3.080347 -0.000000
As -2.973205 0.026786 3.053562
As -6.026766 3.080347 3.053562
As 0.080357 -3.026776 -3.053562
As 0.080357 -6.080338 -0.000000
As 3.133919 -3.026776 -0.000000
As 0.080357 -3.026776 3.053562
As 0.080357 0.026786 -6.107123
As 3.133919 0.026786 -3.053562
As 0.080357 3.080347 -3.053562
As 0.080357 0.026786 -0.000000
As 3.133919 3.080347 0.000000
As 3.133919 0.026786 3.053562
As 0.080357 3.080347 3.053562
As 0.080357 0.026786 6.107123
As 0.080357 6.133909 0.000000
As 6.187480 -3.026776 3.053562
As 6.187480 3.080347 -3.053562
As 6.187480 0.026786 0.000000
Cl -2.973205 -3.026776 -6.107123
Cl -2.973205 -6.080338 -3.053562
Cl -2.973205 3.080347 6.107123
Cl -2.973205 6.133909 3.053562
Cl 3.133919 -6.080338 3.053562
Cl 3.133919 -3.026776 6.107123
Cl 3.133919 3.080347 -6.107123
Cl 3.133919 6.133909 -3.053562
Cl 9.241042 -3.026776 0.000000
Cl -9.080328 0.026786 -3.053562
Cl 0.080357 9.187471 3.053562
Cl 0.080357 -9.133899 3.053562
Cl 9.241042 0.026786 -3.053562
Cl -9.080328 0.026786 3.053562
Cl 0.080357 -9.133899 -3.053562
Cl 3.133919 0.026786 9.160685
Cl 0.080357 3.080347 -9.160685
Cl 0.080357 -3.026776 -9.160685
Cl -2.973205 0.026786 9.160685
Cl 0.080357 9.187471 -3.053562
Cl 9.241042 3.080347 0.000000
Cl -6.026766 -6.080338 -0.000000
Cl -6.026766 6.133909 -0.000000
Cl 0.080357 3.080347 9.160685
Cl 3.133919 9.187471 0.000000
Cl -2.973205 0.026786 -9.160685
Cl 3.133919 -9.133899 -0.000000
Cl 0.080357 -3.026776 9.160685
Cl 3.133919 0.026786 -9.160685
Cl 9.241042 0.026786 3.053562
Cl -9.080328 -3.026776 -0.000000
Cl -9.080328 3.080347 -0.000000
Cl -2.973205 -9.133899 -0.000000
Cl -2.973205 9.187471 0.000000
Cl 0.080357 -6.080338 -6.107123
Cl 0.080357 6.133909 6.107123
Cl -6.026766 0.026786 -6.107123
Cl -6.026766 0.026786 6.107123
Cl 6.187480 0.026786 6.107123
Cl 6.187480 -6.080338 -0.000000
Cl 0.080357 -6.080338 6.107123
Cl 0.080357 6.133909 -6.107123
Cl 6.187480 6.133909 -0.000000
Cl 6.187480 0.026786 -6.107123
Cl -6.026766 -3.026776 3.053562
Cl -6.026766 3.080347 -3.053562
Cl 3.133919 -6.080338 -3.053562
Cl 3.133919 3.080347 6.107123
Cl -2.973205 -3.026776 6.107123
Cl -2.973205 6.133909 -3.053562
Cl 3.133919 -3.026776 -6.107123
