2115
PbS-S-Pb976S813Cl326-clean
Pb -20.916607 -8.964260 -2.988087
Pb -20.916607 -11.952347 -0.000000
Pb -20.916607 -8.964260 2.988087
Pb -20.916607 -2.988087 -8.964260
Pb -20.916607 -5.976173 -5.976173
Pb -20.916607 -2.988087 -2.988087
Pb -20.916607 -5.976173 -0.000000
Pb -20.916607 -2.988087 2.988087
Pb -20.916607 -5.976173 5.976173
Pb -20.916607 -2.988087 8.964260
Pb -20.916607 -0.000000 -11.952347
Pb -20.916607 2.988087 -8.964260
Pb -20.916607 -0.000000 -5.976173
Pb -20.916607 2.988087 -2.988087
Pb -20.916607 -0.000000 -0.000000
Pb -20.916607 2.988087 2.988087
Pb -20.916607 -0.000000 5.976173
Pb -20.916607 2.988087 8.964260
Pb -20.916607 -0.000000 11.952347
Pb -20.916607 5.976173 -5.976173
Pb -20.916607 8.964260 -2.988087
Pb -20.916607 5.976173 -0.000000
Pb -20.916607 8.964260 2.988087
Pb -20.916607 5.976173 5.976173
Pb -20.916607 11.952347 -0.000000
Pb -14.940433 -14.940434 -2.988087
Pb -14.940433 -17.928520 -0.000000
Pb -17.928520 -14.940434 -0.000000
Pb -14.940433 -14.940434 2.988087
Pb -14.940433 -8.964260 -8.964260
Pb -17.928520 -11.952347 -2.988087
Pb -14.940433 -11.952347 -5.976173
Pb -17.928520 -8.964260 -5.976173
Pb -14.940433 -8.964260 -2.988087
Pb -17.928520 -11.952347 2.988087
Pb -14.940433 -11.952347 -0.000000
Pb -17.928520 -8.964260 -0.000000
Pb -14.940433 -8.964260 2.988087
Pb -14.940433 -11.952347 5.976173
Pb -17.928520 -8.964260 5.976173
Pb -14.940433 -8.964260 8.964260
Pb -14.940433 -2.988087 -14.940434
Pb -17.928520 -5.976173 -8.964260
Pb -14.940433 -5.976173 -11.952347
Pb -17.928520 -2.988087 -11.952347
Pb -14.940433 -2.988087 -8.964260
Pb -17.928520 -5.976173 -2.988087
Pb -14.940433 -5.976173 -5.976173
Pb -17.928520 -2.988087 -5.976173
Pb -14.940433 -2.988087 -2.988087
Pb -17.928520 -5.976173 2.988087
Pb -14.940433 -5.976173 -0.000000
Pb -17.928520 -2.988087 -0.000000
Pb -14.940433 -2.988087 2.988087
Pb -17.928520 -5.976173 8.964260
Pb -14.940433 -5.976173 5.976173
Pb -17.928520 -2.988087 5.976173
Pb -14.940433 -2.988087 8.964260
Pb -14.940433 -5.976173 11.952347
Pb -17.928520 -2.988087 11.952347
Pb -14.940433 -2.988087 14.940433
Pb -17.928520 -0.000000 -14.940434
Pb -14.940433 -0.000000 -17.928520
Pb -14.940433 2.988087 -14.940434
Pb -17.928520 -0.000000 -8.964260
Pb -14.940433 -0.000000 -11.952347
Pb -17.928520 2.988087 -11.952347
Pb -14.940433 2.988087 -8.964260
Pb -17.928520 -0.000000 -2.988087
Pb -14.940433 -0.000000 -5.976173
Pb -17.928520 2.988087 -5.976173
Pb -14.940433 2.988087 -2.988087
Pb -17.928520 -0.000000 2.988087
Pb -14.940433 -0.000000 -0.000000
Pb -17.928520 2.988087 -0.000000
Pb -14.940433 2.988087 2.988087
Pb -17.928520 -0.000000 8.964260
Pb -14.940433 -0.000000 5.976173
Pb -17.928520 2.988087 5.976173
Pb -14.940433 2.988087 8.964260
Pb -17.928520 -0.000000 14.940433
Pb -14.940433 -0.000000 11.952347
Pb -17.928520 2.988087 11.952347
Pb -14.940433 2.988087 14.940433
Pb -14.940433 -0.000000 17.928520
Pb -17.928520 5.976173 -8.964260
Pb -14.940433 5.976173 -11.952347
Pb -14.940433 8.964260 -8.964260
Pb -17.928520 5.976173 -2.988087
Pb -14.940433 5.976173 -5.976173
Pb -17.928520 8.964260 -5.976173
Pb -14.940433 8.964260 -2.988087
Pb -17.928520 5.976173 2.988087
Pb -14.940433 5.976173 -0.000000
Pb -17.928520 8.964260 -0.000000
Pb -14.940433 8.964260 2.988087
Pb -17.928520 5.976173 8.964260
Pb -14.940433 5.976173 5.976173
Pb -17.928520 8.964260 5.976173
Pb -14.940433 8.964260 8.964260
Pb -14.940433 5.976173 11.952347
Pb -17.928520 11.952347 -2.988087
Pb -14.940433 11.952347 -5.976173
Pb -14.940433 14.940433 -2.988087
Pb -17.928520 11.952347 2.988087
Pb -14.940433 11.952347 -0.000000
Pb -17.928520 14.940433 -0.000000
Pb -14.940433 14.940433 2.988087
Pb -14.940433 11.952347 5.976173
Pb -14.940433 17.928520 -0.000000
Pb -8.964260 -20.916607 -2.988087
Pb -11.952347 -20.916607 -0.000000
Pb -8.964260 -20.916607 2.988087
Pb -8.964260 -14.940434 -8.964260
Pb -11.952347 -17.928520 -2.988087
Pb -8.964260 -17.928520 -5.976173
Pb -11.952347 -14.940434 -5.976173
Pb -8.964260 -14.940434 -2.988087
Pb -11.952347 -17.928520 2.988087
Pb -8.964260 -17.928520 -0.000000
Pb -11.952347 -14.940434 -0.000000
Pb -8.964260 -14.940434 2.988087
Pb -8.964260 -17.928520 5.976173
Pb -11.952347 -14.940434 5.976173
Pb -8.964260 -14.940434 8.964260
Pb -8.964260 -8.964260 -14.940434
Pb -11.952347 -11.952347 -8.964260
Pb -8.964260 -11.952347 -11.952347
Pb -11.952347 -8.964260 -11.952347
Pb -8.964260 -8.964260 -8.964260
Pb -11.952347 -11.952347 -2.988087
Pb -8.964260 -11.952347 -5.976173
Pb -11.952347 -8.964260 -5.976173
Pb -8.964260 -8.964260 -2.988087
Pb -11.952347 -11.952347 2.988087
Pb -8.964260 -11.952347 -0.000000
Pb -11.952347 -8.964260 -0.000000
Pb -8.964260 -8.964260 2.988087
Pb -11.952347 -11.952347 8.964260
Pb -8.964260 -11.952347 5.976173
Pb -11.952347 -8.964260 5.976173
Pb -8.964260 -8.964260 8.964260
Pb -8.964260 -11.952347 11.952347
Pb -11.952347 -8.964260 11.952347
Pb -8.964260 -8.964260 14.940433
Pb -8.964260 -2.988087 -20.916607
Pb -11.952347 -5.976173 -14.940434
Pb -8.964260 -5.976173 -17.928520
Pb -11.952347 -2.988087 -17.928520
Pb -8.964260 -2.988087 -14.940434
Pb -11.952347 -5.976173 -8.964260
Pb -8.964260 -5.976173 -11.952347
Pb -11.952347 -2.988087 -11.952347
Pb -8.964260 -2.988087 -8.964260
Pb -11.952347 -5.976173 -2.988087
Pb -8.964260 -5.976173 -5.976173
Pb -11.952347 -2.988087 -5.976173
Pb -8.964260 -2.988087 -2.988087
Pb -11.952347 -5.976173 2.988087
Pb -8.964260 -5.976173 -0.000000
Pb -11.952347 -2.988087 -0.000000
Pb -8.964260 -2.988087 2.988087
Pb -11.952347 -5.976173 8.964260
Pb -8.964260 -5.976173 5.976173
Pb -11.952347 -2.988087 5.976173
Pb -8.964260 -2.988087 8.964260
Pb -11.952347 -5.976173 14.940433
Pb -8.964260 -5.976173 11.952347
Pb -11.952347 -2.988087 11.952347
Pb -8.964260 -2.988087 14.940433
Pb -8.964260 -5.976173 17.928520
Pb -11.952347 -2.988087 17.928520
Pb -8.964260 -2.988087 20.916607
Pb -11.952347 -0.000000 -20.916607
Pb -8.964260 2.988087 -20.916607
Pb -11.952347 -0.000000 -14.940434
Pb -8.964260 -0.000000 -17.928520
Pb -11.952347 2.988087 -17.928520
Pb -8.964260 2.988087 -14.940434
Pb -11.952347 -0.000000 -8.964260
Pb -8.964260 -0.000000 -11.952347
Pb -11.952347 2.988087 -11.952347
Pb -8.964260 2.988087 -8.964260
Pb -11.952347 -0.000000 -2.988087
Pb -8.964260 -0.000000 -5.976173
Pb -11.952347 2.988087 -5.976173
Pb -8.964260 2.988087 -2.988087
Pb -11.952347 -0.000000 2.988087
Pb -8.964260 -0.000000 -0.000000
Pb -11.952347 2.988087 -0.000000
Pb -8.964260 2.988087 2.988087
Pb -11.952347 -0.000000 8.964260
Pb -8.964260 -0.000000 5.976173
Pb -11.952347 2.988087 5.976173
Pb -8.964260 2.988087 8.964260
Pb -11.952347 -0.000000 14.940434
Pb -8.964260 -0.000000 11.952347
Pb -11.952347 2.988087 11.952347
Pb -8.964260 2.988087 14.940434
Pb -11.952347 -0.000000 20.916607
Pb -8.964260 -0.000000 17.928520
Pb -11.952347 2.988087 17.928520
Pb -8.964260 2.988087 20.916607
Pb -11.952347 5.976173 -14.940434
Pb -8.964260 5.976173 -17.928520
Pb -8.964260 8.964260 -14.940434
Pb -11.952347 5.976173 -8.964260
Pb -8.964260 5.976173 -11.952347
Pb -11.952347 8.964260 -11.952347
Pb -8.964260 8.964260 -8.964260
Pb -11.952347 5.976173 -2.988087
Pb -8.964260 5.976173 -5.976173
Pb -11.952347 8.964260 -5.976173
Pb -8.964260 8.964260 -2.988087
Pb -11.952347 5.976173 2.988087
Pb -8.964260 5.976173 -0.000000
Pb -11.952347 8.964260 -0.000000
Pb -8.964260 8.964260 2.988087
Pb -11.952347 5.976173 8.964260
Pb -8.964260 5.976173 5.976173
Pb -11.952347 8.964260 5.976173
Pb -8.964260 8.964260 8.964260
Pb -11.952347 5.976173 14.940434
Pb -8.964260 5.976173 11.952347
Pb -11.952347 8.964260 11.952347
Pb -8.964260 8.964260 14.940434
Pb -8.964260 5.976173 17.928520
Pb -11.952347 11.952347 -8.964260
Pb -8.964260 11.952347 -11.952347
Pb -8.964260 14.940433 -8.964260
Pb -11.952347 11.952347 -2.988087
Pb -8.964260 11.952347 -5.976173
Pb -11.952347 14.940433 -5.976173
Pb -8.964260 14.940433 -2.988087
Pb -11.952347 11.952347 2.988087
Pb -8.964260 11.952347 -0.000000
Pb -11.952347 14.940433 -0.000000
Pb -8.964260 14.940433 2.988087
Pb -11.952347 11.952347 8.964260
Pb -8.964260 11.952347 5.976173
Pb -11.952347 14.940433 5.976173
Pb -8.964260 14.940433 8.964260
Pb -8.964260 11.952347 11.952347
Pb -11.952347 17.928520 -2.988087
Pb -8.964260 17.928520 -5.976173
Pb -8.964260 20.916607 -2.988087
Pb -11.952347 17.928520 2.988087
Pb -8.964260 17.928520 0.000000
Pb -11.952347 20.916607 0.000000
Pb -8.964260 20.916607 2.988087
Pb -8.964260 17.928520 5.976173
Pb -2.988087 -20.916607 -8.964260
Pb -5.976173 -20.916607 -5.976173
Pb -2.988087 -20.916607 -2.988087
Pb -5.976173 -20.916607 -0.000000
Pb -2.988087 -20.916607 2.988087
Pb -5.976173 -20.916607 5.976173
Pb -2.988087 -20.916607 8.964260
Pb -2.988087 -14.940434 -14.940434
Pb -5.976173 -17.928520 -8.964260
Pb -2.988087 -17.928520 -11.952347
Pb -5.976173 -14.940434 -11.952347
Pb -2.988087 -14.940434 -8.964260
Pb -5.976173 -17.928520 -2.988087
Pb -2.988087 -17.928520 -5.976173
Pb -5.976173 -14.940434 -5.976173
Pb -2.988087 -14.940434 -2.988087
Pb -5.976173 -17.928520 2.988087
Pb -2.988087 -17.928520 -0.000000
Pb -5.976173 -14.940434 -0.000000
Pb -2.988087 -14.940434 2.988087
Pb -5.976173 -17.928520 8.964260
Pb -2.988087 -17.928520 5.976173
Pb -5.976173 -14.940434 5.976173
Pb -2.988087 -14.940434 8.964260
Pb -2.988087 -17.928520 11.952347
Pb -5.976173 -14.940434 11.952347
Pb -2.988087 -14.940434 14.940433
Pb -2.988087 -8.964260 -20.916607
Pb -5.976173 -11.952347 -14.940434
Pb -2.988087 -11.952347 -17.928520
Pb -5.976173 -8.964260 -17.928520
Pb -2.988087 -8.964260 -14.940434
Pb -5.976173 -11.952347 -8.964260
Pb -2.988087 -11.952347 -11.952347
Pb -5.976173 -8.964260 -11.952347
Pb -2.988087 -8.964260 -8.964260
Pb -5.976173 -11.952347 -2.988087
Pb -2.988087 -11.952347 -5.976173
Pb -5.976173 -8.964260 -5.976173
Pb -2.988087 -8.964260 -2.988087
Pb -5.976173 -11.952347 2.988087
Pb -2.988087 -11.952347 -0.000000
Pb -5.976173 -8.964260 -0.000000
Pb -2.988087 -8.964260 2.988087
Pb -5.976173 -11.952347 8.964260
Pb -2.988087 -11.952347 5.976173
Pb -5.976173 -8.964260 5.976173
Pb -2.988087 -8.964260 8.964260
Pb -5.976173 -11.952347 14.940433
Pb -2.988087 -11.952347 11.952347
Pb -5.976173 -8.964260 11.952347
Pb -2.988087 -8.964260 14.940433
Pb -2.988087 -11.952347 17.928520
Pb -5.976173 -8.964260 17.928520
Pb -2.988087 -8.964260 20.916607
Pb -5.976173 -5.976173 -20.916607
Pb -2.988087 -2.988087 -20.916607
Pb -5.976173 -5.976173 -14.940434
Pb -2.988087 -5.976173 -17.928520
Pb -5.976173 -2.988087 -17.928520
Pb -2.988087 -2.988087 -14.940434
Pb -5.976173 -5.976173 -8.964260
Pb -2.988087 -5.976173 -11.952347
Pb -5.976173 -2.988087 -11.952347
Pb -2.988087 -2.988087 -8.964260
Pb -5.976173 -5.976173 -2.988087
Pb -2.988087 -5.976173 -5.976173
Pb -5.976173 -2.988087 -5.976173
Pb -2.988087 -2.988087 -2.988087
Pb -5.976173 -5.976173 2.988087
Pb -2.988087 -5.976173 -0.000000
Pb -5.976173 -2.988087 -0.000000
Pb -2.988087 -2.988087 2.988087
Pb -5.976173 -5.976173 8.964260
Pb -2.988087 -5.976173 5.976173
Pb -5.976173 -2.988087 5.976173
Pb -2.988087 -2.988087 8.964260
Pb -5.976173 -5.976173 14.940434
Pb -2.988087 -5.976173 11.952347
Pb -5.976173 -2.988087 11.952347
Pb -2.988087 -2.988087 14.940434
Pb -5.976173 -5.976173 20.916607
Pb -2.988087 -5.976173 17.928520
Pb -5.976173 -2.988087 17.928520
Pb -2.988087 -2.988087 20.916607
Pb -5.976173 -0.000000 -20.916607
Pb -2.988087 2.988087 -20.916607
Pb -5.976173 -0.000000 -14.940434
Pb -2.988087 -0.000000 -17.928520
Pb -5.976173 2.988087 -17.928520
Pb -2.988087 2.988087 -14.940434
Pb -5.976173 -0.000000 -8.964260
Pb -2.988087 -0.000000 -11.952347
Pb -5.976173 2.988087 -11.952347
Pb -2.988087 2.988087 -8.964260
Pb -5.976173 -0.000000 -2.988087
Pb -2.988087 -0.000000 -5.976173
Pb -5.976173 2.988087 -5.976173
Pb -2.988087 2.988087 -2.988087
Pb -5.976173 -0.000000 2.988087
Pb -2.988087 -0.000000 -0.000000
Pb -5.976173 2.988087 -0.000000
Pb -2.988087 2.988087 2.988087
Pb -5.976173 -0.000000 8.964260
Pb -2.988087 -0.000000 5.976173
Pb -5.976173 2.988087 5.976173
Pb -2.988087 2.988087 8.964260
Pb -5.976173 -0.000000 14.940434
Pb -2.988087 -0.000000 11.952347
Pb -5.976173 2.988087 11.952347
Pb -2.988087 2.988087 14.940434
Pb -5.976173 -0.000000 20.916607
Pb -2.988087 -0.000000 17.928520
Pb -5.976173 2.988087 17.928520
Pb -2.988087 2.988087 20.916607
Pb -5.976173 5.976173 -20.916607
Pb -2.988087 8.964260 -20.916607
Pb -5.976173 5.976173 -14.940434
Pb -2.988087 5.976173 -17.928520
Pb -5.976173 8.964260 -17.928520
Pb -2.988087 8.964260 -14.940434
Pb -5.976173 5.976173 -8.964260
Pb -2.988087 5.976173 -11.952347
Pb -5.976173 8.964260 -11.952347
Pb -2.988087 8.964260 -8.964260
Pb -5.976173 5.976173 -2.988087
Pb -2.988087 5.976173 -5.976173
Pb -5.976173 8.964260 -5.976173
Pb -2.988087 8.964260 -2.988087
Pb -5.976173 5.976173 2.988087
Pb -2.988087 5.976173 -0.000000
Pb -5.976173 8.964260 -0.000000
Pb -2.988087 8.964260 2.988087
Pb -5.976173 5.976173 8.964260
Pb -2.988087 5.976173 5.976173
Pb -5.976173 8.964260 5.976173
Pb -2.988087 8.964260 8.964260
Pb -5.976173 5.976173 14.940434
Pb -2.988087 5.976173 11.952347
Pb -5.976173 8.964260 11.952347
Pb -2.988087 8.964260 14.940434
Pb -5.976173 5.976173 20.916607
Pb -2.988087 5.976173 17.928520
Pb -5.976173 8.964260 17.928520
Pb -2.988087 8.964260 20.916607
Pb -5.976173 11.952347 -14.940434
Pb -2.988087 11.952347 -17.928520
Pb -2.988087 14.940433 -14.940434
Pb -5.976173 11.952347 -8.964260
Pb -2.988087 11.952347 -11.952347
Pb -5.976173 14.940433 -11.952347
Pb -2.988087 14.940433 -8.964260
Pb -5.976173 11.952347 -2.988087
Pb -2.988087 11.952347 -5.976173
Pb -5.976173 14.940433 -5.976173
Pb -2.988087 14.940433 -2.988087
Pb -5.976173 11.952347 2.988087
Pb -2.988087 11.952347 0.000000
Pb -5.976173 14.940433 0.000000
Pb -2.988087 14.940433 2.988087
Pb -5.976173 11.952347 8.964260
Pb -2.988087 11.952347 5.976173
Pb -5.976173 14.940433 5.976173
Pb -2.988087 14.940433 8.964260
Pb -5.976173 11.952347 14.940434
Pb -2.988087 11.952347 11.952347
Pb -5.976173 14.940433 11.952347
Pb -2.988087 14.940433 14.940434
Pb -2.988087 11.952347 17.928520
Pb -5.976173 17.928520 -8.964260
Pb -2.988087 17.928520 -11.952347
Pb -2.988087 20.916607 -8.964260
Pb -5.976173 17.928520 -2.988087
Pb -2.988087 17.928520 -5.976173
Pb -5.976173 20.916607 -5.976173
Pb -2.988087 20.916607 -2.988087
Pb -5.976173 17.928520 2.988087
Pb -2.988087 17.928520 0.000000
Pb -5.976173 20.916607 0.000000
Pb -2.988087 20.916607 2.988087
Pb -5.976173 17.928520 8.964260
Pb -2.988087 17.928520 5.976173
Pb -5.976173 20.916607 5.976173
Pb -2.988087 20.916607 8.964260
Pb -2.988087 17.928520 11.952347
Pb 0.000000 -20.916607 -11.952347
Pb 2.988087 -20.916607 -8.964260
Pb 0.000000 -20.916607 -5.976173
Pb 2.988087 -20.916607 -2.988087
Pb 0.000000 -20.916607 -0.000000
Pb 2.988087 -20.916607 2.988087
Pb 0.000000 -20.916607 5.976173
Pb 2.988087 -20.916607 8.964260
Pb 0.000000 -20.916607 11.952347
Pb 0.000000 -17.928520 -14.940434
Pb 0.000000 -14.940434 -17.928520
Pb 2.988087 -14.940434 -14.940434
Pb 0.000000 -17.928520 -8.964260
Pb 2.988087 -17.928520 -11.952347
Pb 0.000000 -14.940434 -11.952347
Pb 2.988087 -14.940434 -8.964260
Pb 0.000000 -17.928520 -2.988087
Pb 2.988087 -17.928520 -5.976173
Pb 0.000000 -14.940434 -5.976173
Pb 2.988087 -14.940434 -2.988087
Pb 0.000000 -17.928520 2.988087
Pb 2.988087 -17.928520 -0.000000
Pb 0.000000 -14.940434 -0.000000
Pb 2.988087 -14.940434 2.988087
Pb 0.000000 -17.928520 8.964260
Pb 2.988087 -17.928520 5.976173
Pb 0.000000 -14.940434 5.976173
Pb 2.988087 -14.940434 8.964260
Pb 0.000000 -17.928520 14.940433
Pb 2.988087 -17.928520 11.952347
Pb 0.000000 -14.940434 11.952347
Pb 2.988087 -14.940434 14.940433
Pb 0.000000 -14.940434 17.928520
Pb 0.000000 -11.952347 -20.916607
Pb 2.988087 -8.964260 -20.916607
Pb 0.000000 -11.952347 -14.940434
Pb 2.988087 -11.952347 -17.928520
Pb 0.000000 -8.964260 -17.928520
Pb 2.988087 -8.964260 -14.940434
Pb 0.000000 -11.952347 -8.964260
Pb 2.988087 -11.952347 -11.952347
Pb 0.000000 -8.964260 -11.952347
Pb 2.988087 -8.964260 -8.964260
Pb 0.000000 -11.952347 -2.988087
Pb 2.988087 -11.952347 -5.976173
Pb 0.000000 -8.964260 -5.976173
Pb 2.988087 -8.964260 -2.988087
Pb 0.000000 -11.952347 2.988087
Pb 2.988087 -11.952347 -0.000000
Pb 0.000000 -8.964260 -0.000000
Pb 2.988087 -8.964260 2.988087
Pb 0.000000 -11.952347 8.964260
Pb 2.988087 -11.952347 5.976173
Pb 0.000000 -8.964260 5.976173
Pb 2.988087 -8.964260 8.964260
Pb 0.000000 -11.952347 14.940434
Pb 2.988087 -11.952347 11.952347
Pb 0.000000 -8.964260 11.952347
Pb 2.988087 -8.964260 14.940434
Pb 0.000000 -11.952347 20.916607
Pb 2.988087 -11.952347 17.928520
Pb 0.000000 -8.964260 17.928520
Pb 2.988087 -8.964260 20.916607
Pb 0.000000 -5.976173 -20.916607
Pb 2.988087 -2.988087 -20.916607
Pb 0.000000 -5.976173 -14.940434
Pb 2.988087 -5.976173 -17.928520
Pb 0.000000 -2.988087 -17.928520
Pb 2.988087 -2.988087 -14.940434
Pb 0.000000 -5.976173 -8.964260
Pb 2.988087 -5.976173 -11.952347
Pb 0.000000 -2.988087 -11.952347
Pb 2.988087 -2.988087 -8.964260
Pb 0.000000 -5.976173 -2.988087
Pb 2.988087 -5.976173 -5.976173
Pb 0.000000 -2.988087 -5.976173
Pb 2.988087 -2.988087 -2.988087
Pb 0.000000 -5.976173 2.988087
Pb 2.988087 -5.976173 -0.000000
Pb 0.000000 -2.988087 -0.000000
Pb 2.988087 -2.988087 2.988087
Pb 0.000000 -5.976173 8.964260
Pb 2.988087 -5.976173 5.976173
Pb 0.000000 -2.988087 5.976173
Pb 2.988087 -2.988087 8.964260
Pb 0.000000 -5.976173 14.940434
Pb 2.988087 -5.976173 11.952347
Pb 0.000000 -2.988087 11.952347
Pb 2.988087 -2.988087 14.940434
Pb 0.000000 -5.976173 20.916607
Pb 2.988087 -5.976173 17.928520
Pb 0.000000 -2.988087 17.928520
Pb 2.988087 -2.988087 20.916607
Pb 0.000000 -0.000000 -20.916607
Pb 2.988087 2.988087 -20.916607
Pb 0.000000 -0.000000 -14.940434
Pb 2.988087 -0.000000 -17.928520
Pb 0.000000 2.988087 -17.928520
Pb 2.988087 2.988087 -14.940434
Pb 0.000000 -0.000000 -8.964260
Pb 2.988087 -0.000000 -11.952347
Pb 0.000000 2.988087 -11.952347
Pb 2.988087 2.988087 -8.964260
Pb 0.000000 -0.000000 -2.988087
Pb 2.988087 -0.000000 -5.976173
Pb 0.000000 2.988087 -5.976173
Pb 2.988087 2.988087 -2.988087
Pb 0.000000 -0.000000 2.988087
Pb 2.988087 -0.000000 -0.000000
Pb 0.000000 2.988087 -0.000000
Pb 2.988087 2.988087 2.988087
Pb 0.000000 -0.000000 8.964260
Pb 2.988087 -0.000000 5.976173
Pb 0.000000 2.988087 5.976173
Pb 2.988087 2.988087 8.964260
Pb 0.000000 -0.000000 14.940434
Pb 2.988087 -0.000000 11.952347
Pb 0.000000 2.988087 11.952347
Pb 2.988087 2.988087 14.940434
Pb 0.000000 -0.000000 20.916607
Pb 2.988087 -0.000000 17.928520
Pb 0.000000 2.988087 17.928520
Pb 2.988087 2.988087 20.916607
Pb 0.000000 5.976173 -20.916607
Pb 2.988087 8.964260 -20.916607
Pb 0.000000 5.976173 -14.940434
Pb 2.988087 5.976173 -17.928520
Pb 0.000000 8.964260 -17.928520
Pb 2.988087 8.964260 -14.940434
Pb 0.000000 5.976173 -8.964260
Pb 2.988087 5.976173 -11.952347
Pb 0.000000 8.964260 -11.952347
Pb 2.988087 8.964260 -8.964260
Pb 0.000000 5.976173 -2.988087
Pb 2.988087 5.976173 -5.976173
Pb 0.000000 8.964260 -5.976173
Pb 2.988087 8.964260 -2.988087
Pb 0.000000 5.976173 2.988087
Pb 2.988087 5.976173 0.000000
Pb 0.000000 8.964260 0.000000
Pb 2.988087 8.964260 2.988087
Pb 0.000000 5.976173 8.964260
Pb 2.988087 5.976173 5.976173
Pb 0.000000 8.964260 5.976173
Pb 2.988087 8.964260 8.964260
Pb 0.000000 5.976173 14.940434
Pb 2.988087 5.976173 11.952347
Pb 0.000000 8.964260 11.952347
Pb 2.988087 8.964260 14.940434
Pb 0.000000 5.976173 20.916607
Pb 2.988087 5.976173 17.928520
Pb 0.000000 8.964260 17.928520
Pb 2.988087 8.964260 20.916607
Pb 0.000000 11.952347 -20.916607
Pb 0.000000 11.952347 -14.940434
Pb 2.988087 11.952347 -17.928520
Pb 0.000000 14.940433 -17.928520
Pb 2.988087 14.940433 -14.940434
Pb 0.000000 11.952347 -8.964260
Pb 2.988087 11.952347 -11.952347
Pb 0.000000 14.940433 -11.952347
Pb 2.988087 14.940433 -8.964260
Pb 0.000000 11.952347 -2.988087
Pb 2.988087 11.952347 -5.976173
Pb 0.000000 14.940433 -5.976173
Pb 2.988087 14.940433 -2.988087
Pb 0.000000 11.952347 2.988087
Pb 2.988087 11.952347 0.000000
Pb 0.000000 14.940433 0.000000
Pb 2.988087 14.940433 2.988087
Pb 0.000000 11.952347 8.964260
Pb 2.988087 11.952347 5.976173
Pb 0.000000 14.940433 5.976173
Pb 2.988087 14.940433 8.964260
Pb 0.000000 11.952347 14.940434
Pb 2.988087 11.952347 11.952347
Pb 0.000000 14.940433 11.952347
Pb 2.988087 14.940433 14.940434
Pb 0.000000 11.952347 20.916607
Pb 2.988087 11.952347 17.928520
Pb 0.000000 14.940433 17.928520
Pb 0.000000 17.928520 -14.940434
Pb 0.000000 17.928520 -8.964260
Pb 2.988087 17.928520 -11.952347
Pb 0.000000 20.916607 -11.952347
Pb 2.988087 20.916607 -8.964260
Pb 0.000000 17.928520 -2.988087
Pb 2.988087 17.928520 -5.976173
Pb 0.000000 20.916607 -5.976173
Pb 2.988087 20.916607 -2.988087
Pb 0.000000 17.928520 2.988087
Pb 2.988087 17.928520 0.000000
Pb 0.000000 20.916607 0.000000
Pb 2.988087 20.916607 2.988087
Pb 0.000000 17.928520 8.964260
Pb 2.988087 17.928520 5.976173
Pb 0.000000 20.916607 5.976173
Pb 2.988087 20.916607 8.964260
Pb 0.000000 17.928520 14.940434
Pb 2.988087 17.928520 11.952347
Pb 0.000000 20.916607 11.952347
Pb 5.976173 -20.916607 -5.976173
Pb 8.964260 -20.916607 -2.988087
Pb 5.976173 -20.916607 -0.000000
Pb 8.964260 -20.916607 2.988087
Pb 5.976173 -20.916607 5.976173
Pb 5.976173 -17.928520 -8.964260
Pb 5.976173 -14.940434 -11.952347
Pb 8.964260 -14.940434 -8.964260
Pb 5.976173 -17.928520 -2.988087
Pb 8.964260 -17.928520 -5.976173
Pb 5.976173 -14.940434 -5.976173
Pb 8.964260 -14.940434 -2.988087
Pb 5.976173 -17.928520 2.988087
Pb 8.964260 -17.928520 -0.000000
Pb 5.976173 -14.940434 -0.000000
Pb 8.964260 -14.940434 2.988087
Pb 5.976173 -17.928520 8.964260
Pb 8.964260 -17.928520 5.976173
Pb 5.976173 -14.940434 5.976173
Pb 8.964260 -14.940434 8.964260
Pb 5.976173 -14.940434 11.952347
Pb 5.976173 -11.952347 -14.940434
Pb 5.976173 -8.964260 -17.928520
Pb 8.964260 -8.964260 -14.940434
Pb 5.976173 -11.952347 -8.964260
Pb 8.964260 -11.952347 -11.952347
Pb 5.976173 -8.964260 -11.952347
Pb 8.964260 -8.964260 -8.964260
Pb 5.976173 -11.952347 -2.988087
Pb 8.964260 -11.952347 -5.976173
Pb 5.976173 -8.964260 -5.976173
Pb 8.964260 -8.964260 -2.988087
Pb 5.976173 -11.952347 2.988087
Pb 8.964260 -11.952347 -0.000000
Pb 5.976173 -8.964260 -0.000000
Pb 8.964260 -8.964260 2.988087
Pb 5.976173 -11.952347 8.964260
Pb 8.964260 -11.952347 5.976173
Pb 5.976173 -8.964260 5.976173
Pb 8.964260 -8.964260 8.964260
Pb 5.976173 -11.952347 14.940434
Pb 8.964260 -11.952347 11.952347
Pb 5.976173 -8.964260 11.952347
Pb 8.964260 -8.964260 14.940434
Pb 5.976173 -8.964260 17.928520
Pb 5.976173 -5.976173 -20.916607
Pb 8.964260 -2.988087 -20.916607
Pb 5.976173 -5.976173 -14.940434
Pb 8.964260 -5.976173 -17.928520
Pb 5.976173 -2.988087 -17.928520
Pb 8.964260 -2.988087 -14.940434
Pb 5.976173 -5.976173 -8.964260
Pb 8.964260 -5.976173 -11.952347
Pb 5.976173 -2.988087 -11.952347
Pb 8.964260 -2.988087 -8.964260
Pb 5.976173 -5.976173 -2.988087
Pb 8.964260 -5.976173 -5.976173
Pb 5.976173 -2.988087 -5.976173
Pb 8.964260 -2.988087 -2.988087
Pb 5.976173 -5.976173 2.988087
Pb 8.964260 -5.976173 -0.000000
Pb 5.976173 -2.988087 -0.000000
Pb 8.964260 -2.988087 2.988087
Pb 5.976173 -5.976173 8.964260
Pb 8.964260 -5.976173 5.976173
Pb 5.976173 -2.988087 5.976173
Pb 8.964260 -2.988087 8.964260
Pb 5.976173 -5.976173 14.940434
Pb 8.964260 -5.976173 11.952347
Pb 5.976173 -2.988087 11.952347
Pb 8.964260 -2.988087 14.940434
Pb 5.976173 -5.976173 20.916607
Pb 8.964260 -5.976173 17.928520
Pb 5.976173 -2.988087 17.928520
Pb 8.964260 -2.988087 20.916607
Pb 5.976173 -0.000000 -20.916607
Pb 8.964260 2.988087 -20.916607
Pb 5.976173 -0.000000 -14.940434
Pb 8.964260 -0.000000 -17.928520
Pb 5.976173 2.988087 -17.928520
Pb 8.964260 2.988087 -14.940434
Pb 5.976173 -0.000000 -8.964260
Pb 8.964260 -0.000000 -11.952347
Pb 5.976173 2.988087 -11.952347
Pb 8.964260 2.988087 -8.964260
Pb 5.976173 -0.000000 -2.988087
Pb 8.964260 -0.000000 -5.976173
Pb 5.976173 2.988087 -5.976173
Pb 8.964260 2.988087 -2.988087
Pb 5.976173 -0.000000 2.988087
Pb 8.964260 -0.000000 0.000000
Pb 5.976173 2.988087 0.000000
Pb 8.964260 2.988087 2.988087
Pb 5.976173 -0.000000 8.964260
Pb 8.964260 -0.000000 5.976173
Pb 5.976173 2.988087 5.976173
Pb 8.964260 2.988087 8.964260
Pb 5.976173 -0.000000 14.940434
Pb 8.964260 -0.000000 11.952347
Pb 5.976173 2.988087 11.952347
Pb 8.964260 2.988087 14.940434
Pb 5.976173 -0.000000 20.916607
Pb 8.964260 -0.000000 17.928520
Pb 5.976173 2.988087 17.928520
Pb 8.964260 2.988087 20.916607
Pb 5.976173 5.976173 -20.916607
Pb 5.976173 5.976173 -14.940434
Pb 8.964260 5.976173 -17.928520
Pb 5.976173 8.964260 -17.928520
Pb 8.964260 8.964260 -14.940434
Pb 5.976173 5.976173 -8.964260
Pb 8.964260 5.976173 -11.952347
Pb 5.976173 8.964260 -11.952347
Pb 8.964260 8.964260 -8.964260
Pb 5.976173 5.976173 -2.988087
Pb 8.964260 5.976173 -5.976173
Pb 5.976173 8.964260 -5.976173
Pb 8.964260 8.964260 -2.988087
Pb 5.976173 5.976173 2.988087
Pb 8.964260 5.976173 0.000000
Pb 5.976173 8.964260 0.000000
Pb 8.964260 8.964260 2.988087
Pb 5.976173 5.976173 8.964260
Pb 8.964260 5.976173 5.976173
Pb 5.976173 8.964260 5.976173
Pb 8.964260 8.964260 8.964260
Pb 5.976173 5.976173 14.940434
Pb 8.964260 5.976173 11.952347
Pb 5.976173 8.964260 11.952347
Pb 8.964260 8.964260 14.940434
Pb 5.976173 5.976173 20.916607
Pb 8.964260 5.976173 17.928520
Pb 5.976173 8.964260 17.928520
Pb 5.976173 11.952347 -14.940434
Pb 5.976173 11.952347 -8.964260
Pb 8.964260 11.952347 -11.952347
Pb 5.976173 14.940433 -11.952347
Pb 8.964260 14.940433 -8.964260
Pb 5.976173 11.952347 -2.988087
Pb 8.964260 11.952347 -5.976173
Pb 5.976173 14.940433 -5.976173
Pb 8.964260 14.940433 -2.988087
Pb 5.976173 11.952347 2.988087
Pb 8.964260 11.952347 0.000000
Pb 5.976173 14.940433 0.000000
Pb 8.964260 14.940433 2.988087
Pb 5.976173 11.952347 8.964260
Pb 8.964260 11.952347 5.976173
Pb 5.976173 14.940433 5.976173
Pb 8.964260 14.940433 8.964260
Pb 5.976173 11.952347 14.940434
Pb 8.964260 11.952347 11.952347
Pb 5.976173 14.940433 11.952347
Pb 5.976173 17.928520 -8.964260
Pb 5.976173 17.928520 -2.988087
Pb 8.964260 17.928520 -5.976173
Pb 5.976173 20.916607 -5.976173
Pb 8.964260 20.916607 -2.988087
Pb 5.976173 17.928520 2.988087
Pb 8.964260 17.928520 0.000000
Pb 5.976173 20.916607 0.000000
Pb 8.964260 20.916607 2.988087
Pb 5.976173 17.928520 8.964260
Pb 8.964260 17.928520 5.976173
Pb 5.976173 20.916607 5.976173
Pb 11.952347 -20.916607 -0.000000
Pb 11.952347 -17.928520 -2.988087
Pb 11.952347 -14.940434 -5.976173
Pb 14.940434 -14.940434 -2.988087
Pb 11.952347 -17.928520 2.988087
Pb 14.940434 -17.928520 -0.000000
Pb 11.952347 -14.940434 -0.000000
Pb 14.940434 -14.940434 2.988087
Pb 11.952347 -14.940434 5.976173
Pb 11.952347 -11.952347 -8.964260
Pb 11.952347 -8.964260 -11.952347
Pb 14.940434 -8.964260 -8.964260
Pb 11.952347 -11.952347 -2.988087
Pb 14.940434 -11.952347 -5.976173
Pb 11.952347 -8.964260 -5.976173
Pb 14.940434 -8.964260 -2.988087
Pb 11.952347 -11.952347 2.988087
Pb 14.940434 -11.952347 -0.000000
Pb 11.952347 -8.964260 -0.000000
Pb 14.940434 -8.964260 2.988087
Pb 11.952347 -11.952347 8.964260
Pb 14.940434 -11.952347 5.976173
Pb 11.952347 -8.964260 5.976173
Pb 14.940434 -8.964260 8.964260
Pb 11.952347 -8.964260 11.952347
Pb 11.952347 -5.976173 -14.940434
Pb 11.952347 -2.988087 -17.928520
Pb 14.940434 -2.988087 -14.940434
Pb 11.952347 -5.976173 -8.964260
Pb 14.940434 -5.976173 -11.952347
Pb 11.952347 -2.988087 -11.952347
Pb 14.940434 -2.988087 -8.964260
Pb 11.952347 -5.976173 -2.988087
Pb 14.940434 -5.976173 -5.976173
Pb 11.952347 -2.988087 -5.976173
Pb 14.940434 -2.988087 -2.988087
Pb 11.952347 -5.976173 2.988087
Pb 14.940434 -5.976173 0.000000
Pb 11.952347 -2.988087 0.000000
Pb 14.940434 -2.988087 2.988087
Pb 11.952347 -5.976173 8.964260
Pb 14.940434 -5.976173 5.976173
Pb 11.952347 -2.988087 5.976173
Pb 14.940434 -2.988087 8.964260
Pb 11.952347 -5.976173 14.940434
Pb 14.940434 -5.976173 11.952347
Pb 11.952347 -2.988087 11.952347
Pb 14.940434 -2.988087 14.940434
Pb 11.952347 -2.988087 17.928520
Pb 11.952347 -0.000000 -20.916607
Pb 11.952347 -0.000000 -14.940434
Pb 14.940434 -0.000000 -17.928520
Pb 11.952347 2.988087 -17.928520
Pb 14.940434 2.988087 -14.940434
Pb 11.952347 -0.000000 -8.964260
Pb 14.940434 -0.000000 -11.952347
Pb 11.952347 2.988087 -11.952347
Pb 14.940434 2.988087 -8.964260
Pb 11.952347 -0.000000 -2.988087
Pb 14.940434 -0.000000 -5.976173
Pb 11.952347 2.988087 -5.976173
Pb 14.940434 2.988087 -2.988087
Pb 11.952347 -0.000000 2.988087
Pb 14.940434 -0.000000 0.000000
Pb 11.952347 2.988087 0.000000
Pb 14.940434 2.988087 2.988087
Pb 11.952347 -0.000000 8.964260
Pb 14.940434 -0.000000 5.976173
Pb 11.952347 2.988087 5.976173
Pb 14.940434 2.988087 8.964260
Pb 11.952347 -0.000000 14.940434
Pb 14.940434 -0.000000 11.952347
Pb 11.952347 2.988087 11.952347
Pb 14.940434 2.988087 14.940434
Pb 11.952347 -0.000000 20.916607
Pb 14.940434 -0.000000 17.928520
Pb 11.952347 2.988087 17.928520
Pb 11.952347 5.976173 -14.940434
Pb 11.952347 5.976173 -8.964260
Pb 14.940434 5.976173 -11.952347
Pb 11.952347 8.964260 -11.952347
Pb 14.940434 8.964260 -8.964260
Pb 11.952347 5.976173 -2.988087
Pb 14.940434 5.976173 -5.976173
Pb 11.952347 8.964260 -5.976173
Pb 14.940434 8.964260 -2.988087
Pb 11.952347 5.976173 2.988087
Pb 14.940434 5.976173 0.000000
Pb 11.952347 8.964260 0.000000
Pb 14.940434 8.964260 2.988087
Pb 11.952347 5.976173 8.964260
Pb 14.940434 5.976173 5.976173
Pb 11.952347 8.964260 5.976173
Pb 14.940434 8.964260 8.964260
Pb 11.952347 5.976173 14.940434
Pb 14.940434 5.976173 11.952347
Pb 11.952347 8.964260 11.952347
Pb 11.952347 11.952347 -8.964260
Pb 11.952347 11.952347 -2.988087
Pb 14.940434 11.952347 -5.976173
Pb 11.952347 14.940433 -5.976173
Pb 14.940434 14.940433 -2.988087
Pb 11.952347 11.952347 2.988087
Pb 14.940434 11.952347 0.000000
Pb 11.952347 14.940433 0.000000
Pb 14.940434 14.940433 2.988087
Pb 11.952347 11.952347 8.964260
Pb 14.940434 11.952347 5.976173
Pb 11.952347 14.940433 5.976173
Pb 11.952347 17.928520 -2.988087
Pb 11.952347 17.928520 2.988087
Pb 14.940434 17.928520 0.000000
Pb 11.952347 20.916607 0.000000
Pb 17.928520 -14.940434 -0.000000
Pb 17.928520 -11.952347 -2.988087
Pb 17.928520 -8.964260 -5.976173
Pb 20.916607 -8.964260 -2.988087
Pb 17.928520 -11.952347 2.988087
Pb 20.916607 -11.952347 0.000000
Pb 17.928520 -8.964260 0.000000
Pb 20.916607 -8.964260 2.988087
Pb 17.928520 -8.964260 5.976173
Pb 17.928520 -5.976173 -8.964260
Pb 17.928520 -2.988087 -11.952347
Pb 20.916607 -2.988087 -8.964260
Pb 17.928520 -5.976173 -2.988087
Pb 20.916607 -5.976173 -5.976173
Pb 17.928520 -2.988087 -5.976173
Pb 20.916607 -2.988087 -2.988087
Pb 17.928520 -5.976173 2.988087
Pb 20.916607 -5.976173 0.000000
Pb 17.928520 -2.988087 0.000000
Pb 20.916607 -2.988087 2.988087
Pb 17.928520 -5.976173 8.964260
Pb 20.916607 -5.976173 5.976173
Pb 17.928520 -2.988087 5.976173
Pb 20.916607 -2.988087 8.964260
Pb 17.928520 -2.988087 11.952347
Pb 17.928520 -0.000000 -14.940434
Pb 17.928520 -0.000000 -8.964260
Pb 20.916607 -0.000000 -11.952347
Pb 17.928520 2.988087 -11.952347
Pb 20.916607 2.988087 -8.964260
Pb 17.928520 -0.000000 -2.988087
Pb 20.916607 -0.000000 -5.976173
Pb 17.928520 2.988087 -5.976173
Pb 20.916607 2.988087 -2.988087
Pb 17.928520 -0.000000 2.988087
Pb 20.916607 -0.000000 0.000000
Pb 17.928520 2.988087 0.000000
Pb 20.916607 2.988087 2.988087
Pb 17.928520 -0.000000 8.964260
Pb 20.916607 -0.000000 5.976173
Pb 17.928520 2.988087 5.976173
Pb 20.916607 2.988087 8.964260
Pb 17.928520 -0.000000 14.940434
Pb 20.916607 -0.000000 11.952347
Pb 17.928520 2.988087 11.952347
Pb 17.928520 5.976173 -8.964260
Pb 17.928520 5.976173 -2.988087
Pb 20.916607 5.976173 -5.976173
Pb 17.928520 8.964260 -5.976173
Pb 20.916607 8.964260 -2.988087
Pb 17.928520 5.976173 2.988087
Pb 20.916607 5.976173 0.000000
Pb 17.928520 8.964260 0.000000
Pb 20.916607 8.964260 2.988087
Pb 17.928520 5.976173 8.964260
Pb 20.916607 5.976173 5.976173
Pb 17.928520 8.964260 5.976173
Pb 17.928520 11.952347 -2.988087
Pb 17.928520 11.952347 2.988087
Pb 20.916607 11.952347 0.000000
Pb 17.928520 14.940433 0.000000
S -20.916607 -8.964260 -0.000000
S -20.916607 -2.988087 -5.976173
S -20.916607 -5.976173 -2.988087
S -20.916607 -2.988087 -0.000000
S -20.916607 -5.976173 2.988087
S -20.916607 -2.988087 5.976173
S -20.916607 -0.000000 -8.964260
S -20.916607 2.988087 -5.976173
S -20.916607 -0.000000 -2.988087
S -20.916607 2.988087 -0.000000
S -20.916607 -0.000000 2.988087
S -20.916607 2.988087 5.976173
S -20.916607 -0.000000 8.964260
S -20.916607 5.976173 -2.988087
S -20.916607 8.964260 -0.000000
S -20.916607 5.976173 2.988087
S -14.940433 -14.940434 -0.000000
S -17.928520 -14.940434 2.988087
S -14.940433 -8.964260 -5.976173
S -14.940433 -11.952347 -2.988087
S -17.928520 -8.964260 -2.988087
S -17.928520 -11.952347 -0.000000
S -14.940433 -8.964260 -0.000000
S -14.940433 -11.952347 2.988087
S -17.928520 -8.964260 2.988087
S -14.940433 -8.964260 5.976173
S -14.940433 -2.988087 -11.952347
S -14.940433 -5.976173 -8.964260
S -17.928520 -2.988087 -8.964260
S -17.928520 -5.976173 -5.976173
S -14.940433 -2.988087 -5.976173
S -14.940433 -5.976173 -2.988087
S -17.928520 -2.988087 -2.988087
S -17.928520 -5.976173 -0.000000
S -14.940433 -2.988087 -0.000000
S -14.940433 -5.976173 2.988087
S -17.928520 -2.988087 2.988087
S -17.928520 -5.976173 5.976173
S -14.940433 -2.988087 5.976173
S -14.940433 -5.976173 8.964260
S -17.928520 -2.988087 8.964260
S -14.940433 -2.988087 11.952347
S -14.940433 -0.000000 -14.940434
S -17.928520 -0.000000 -11.952347
S -14.940433 2.988087 -11.952347
S -14.940433 -0.000000 -8.964260
S -17.928520 2.988087 -8.964260
S -17.928520 -0.000000 -5.976173
S -14.940433 2.988087 -5.976173
S -14.940433 -0.000000 -2.988087
S -17.928520 2.988087 -2.988087
S -17.928520 -0.000000 -0.000000
S -14.940433 2.988087 -0.000000
S -14.940433 -0.000000 2.988087
S -17.928520 2.988087 2.988087
S -17.928520 -0.000000 5.976173
S -14.940433 2.988087 5.976173
S -14.940433 -0.000000 8.964260
S -17.928520 2.988087 8.964260
S -17.928520 -0.000000 11.952347
S -14.940433 2.988087 11.952347
S -14.940433 -0.000000 14.940433
S -14.940433 5.976173 -8.964260
S -17.928520 5.976173 -5.976173
S -14.940433 8.964260 -5.976173
S -14.940433 5.976173 -2.988087
S -17.928520 8.964260 -2.988087
S -17.928520 5.976173 -0.000000
S -14.940433 8.964260 -0.000000
S -14.940433 5.976173 2.988087
S -17.928520 8.964260 2.988087
S -17.928520 5.976173 5.976173
S -14.940433 8.964260 5.976173
S -14.940433 5.976173 8.964260
S -14.940433 11.952347 -2.988087
S -17.928520 11.952347 -0.000000
S -14.940433 14.940433 -0.000000
S -14.940433 11.952347 2.988087
S -8.964260 -20.916607 -0.000000
S -8.964260 -14.940434 -5.976173
S -8.964260 -17.928520 -2.988087
S -11.952347 -14.940434 -2.988087
S -11.952347 -17.928520 -0.000000
S -8.964260 -14.940434 -0.000000
S -8.964260 -17.928520 2.988087
S -11.952347 -14.940434 2.988087
S -8.964260 -14.940434 5.976173
S -8.964260 -8.964260 -11.952347
S -8.964260 -11.952347 -8.964260
S -11.952347 -8.964260 -8.964260
S -11.952347 -11.952347 -5.976173
S -8.964260 -8.964260 -5.976173
S -8.964260 -11.952347 -2.988087
S -11.952347 -8.964260 -2.988087
S -11.952347 -11.952347 -0.000000
S -8.964260 -8.964260 -0.000000
S -8.964260 -11.952347 2.988087
S -11.952347 -8.964260 2.988087
S -11.952347 -11.952347 5.976173
S -8.964260 -8.964260 5.976173
S -8.964260 -11.952347 8.964260
S -11.952347 -8.964260 8.964260
S -8.964260 -8.964260 11.952347
S -8.964260 -2.988087 -17.928520
S -8.964260 -5.976173 -14.940434
S -11.952347 -2.988087 -14.940434
S -11.952347 -5.976173 -11.952347
S -8.964260 -2.988087 -11.952347
S -8.964260 -5.976173 -8.964260
S -11.952347 -2.988087 -8.964260
S -11.952347 -5.976173 -5.976173
S -8.964260 -2.988087 -5.976173
S -8.964260 -5.976173 -2.988087
S -11.952347 -2.988087 -2.988087
S -11.952347 -5.976173 -0.000000
S -8.964260 -2.988087 -0.000000
S -8.964260 -5.976173 2.988087
S -11.952347 -2.988087 2.988087
S -11.952347 -5.976173 5.976173
S -8.964260 -2.988087 5.976173
S -8.964260 -5.976173 8.964260
S -11.952347 -2.988087 8.964260
S -11.952347 -5.976173 11.952347
S -8.964260 -2.988087 11.952347
S -8.964260 -5.976173 14.940433
S -11.952347 -2.988087 14.940433
S -8.964260 -2.988087 17.928520
S -8.964260 -0.000000 -20.916607
S -11.952347 -0.000000 -17.928520
S -8.964260 2.988087 -17.928520
S -8.964260 -0.000000 -14.940434
S -11.952347 2.988087 -14.940434
S -11.952347 -0.000000 -11.952347
S -8.964260 2.988087 -11.952347
S -8.964260 -0.000000 -8.964260
S -11.952347 2.988087 -8.964260
S -11.952347 -0.000000 -5.976173
S -8.964260 2.988087 -5.976173
S -8.964260 -0.000000 -2.988087
S -11.952347 2.988087 -2.988087
S -11.952347 -0.000000 -0.000000
S -8.964260 2.988087 -0.000000
S -8.964260 -0.000000 2.988087
S -11.952347 2.988087 2.988087
S -11.952347 -0.000000 5.976173
S -8.964260 2.988087 5.976173
S -8.964260 -0.000000 8.964260
S -11.952347 2.988087 8.964260
S -11.952347 -0.000000 11.952347
S -8.964260 2.988087 11.952347
S -8.964260 -0.000000 14.940434
S -11.952347 2.988087 14.940434
S -11.952347 -0.000000 17.928520
S -8.964260 2.988087 17.928520
S -8.964260 -0.000000 20.916607
S -8.964260 5.976173 -14.940434
S -11.952347 5.976173 -11.952347
S -8.964260 8.964260 -11.952347
S -8.964260 5.976173 -8.964260
S -11.952347 8.964260 -8.964260
S -11.952347 5.976173 -5.976173
S -8.964260 8.964260 -5.976173
S -8.964260 5.976173 -2.988087
S -11.952347 8.964260 -2.988087
S -11.952347 5.976173 -0.000000
S -8.964260 8.964260 -0.000000
S -8.964260 5.976173 2.988087
S -11.952347 8.964260 2.988087
S -11.952347 5.976173 5.976173
S -8.964260 8.964260 5.976173
S -8.964260 5.976173 8.964260
S -11.952347 8.964260 8.964260
S -11.952347 5.976173 11.952347
S -8.964260 8.964260 11.952347
S -8.964260 5.976173 14.940434
S -8.964260 11.952347 -8.964260
S -11.952347 11.952347 -5.976173
S -8.964260 14.940433 -5.976173
S -8.964260 11.952347 -2.988087
S -11.952347 14.940433 -2.988087
S -11.952347 11.952347 -0.000000
S -8.964260 14.940433 0.000000
S -8.964260 11.952347 2.988087
S -11.952347 14.940433 2.988087
S -11.952347 11.952347 5.976173
S -8.964260 14.940433 5.976173
S -8.964260 11.952347 8.964260
S -8.964260 17.928520 -2.988087
S -11.952347 17.928520 0.000000
S -8.964260 20.916607 0.000000
S -8.964260 17.928520 2.988087
S -2.988087 -20.916607 -5.976173
S -5.976173 -20.916607 -2.988087
S -2.988087 -20.916607 -0.000000
S -5.976173 -20.916607 2.988087
S -2.988087 -20.916607 5.976173
S -2.988087 -14.940434 -11.952347
S -2.988087 -17.928520 -8.964260
S -5.976173 -14.940434 -8.964260
S -5.976173 -17.928520 -5.976173
S -2.988087 -14.940434 -5.976173
S -2.988087 -17.928520 -2.988087
S -5.976173 -14.940434 -2.988087
S -5.976173 -17.928520 -0.000000
S -2.988087 -14.940434 -0.000000
S -2.988087 -17.928520 2.988087
S -5.976173 -14.940434 2.988087
S -5.976173 -17.928520 5.976173
S -2.988087 -14.940434 5.976173
S -2.988087 -17.928520 8.964260
S -5.976173 -14.940434 8.964260
S -2.988087 -14.940434 11.952347
S -2.988087 -8.964260 -17.928520
S -2.988087 -11.952347 -14.940434
S -5.976173 -8.964260 -14.940434
S -5.976173 -11.952347 -11.952347
S -2.988087 -8.964260 -11.952347
S -2.988087 -11.952347 -8.964260
S -5.976173 -8.964260 -8.964260
S -5.976173 -11.952347 -5.976173
S -2.988087 -8.964260 -5.976173
S -2.988087 -11.952347 -2.988087
S -5.976173 -8.964260 -2.988087
S -5.976173 -11.952347 -0.000000
S -2.988087 -8.964260 -0.000000
S -2.988087 -11.952347 2.988087
S -5.976173 -8.964260 2.988087
S -5.976173 -11.952347 5.976173
S -2.988087 -8.964260 5.976173
S -2.988087 -11.952347 8.964260
S -5.976173 -8.964260 8.964260
S -5.976173 -11.952347 11.952347
S -2.988087 -8.964260 11.952347
S -2.988087 -11.952347 14.940433
S -5.976173 -8.964260 14.940433
S -2.988087 -8.964260 17.928520
S -2.988087 -5.976173 -20.916607
S -5.976173 -2.988087 -20.916607
S -5.976173 -5.976173 -17.928520
S -2.988087 -2.988087 -17.928520
S -2.988087 -5.976173 -14.940434
S -5.976173 -2.988087 -14.940434
S -5.976173 -5.976173 -11.952347
S -2.988087 -2.988087 -11.952347
S -2.988087 -5.976173 -8.964260
S -5.976173 -2.988087 -8.964260
S -5.976173 -5.976173 -5.976173
S -2.988087 -2.988087 -5.976173
S -2.988087 -5.976173 -2.988087
S -5.976173 -2.988087 -2.988087
S -5.976173 -5.976173 -0.000000
S -2.988087 -2.988087 -0.000000
S -2.988087 -5.976173 2.988087
S -5.976173 -2.988087 2.988087
S -5.976173 -5.976173 5.976173
S -2.988087 -2.988087 5.976173
S -2.988087 -5.976173 8.964260
S -5.976173 -2.988087 8.964260
S -5.976173 -5.976173 11.952347
S -2.988087 -2.988087 11.952347
S -2.988087 -5.976173 14.940434
S -5.976173 -2.988087 14.940434
S -5.976173 -5.976173 17.928520
S -2.988087 -2.988087 17.928520
S -2.988087 -5.976173 20.916607
S -5.976173 -2.988087 20.916607
S -2.988087 -0.000000 -20.916607
S -5.976173 2.988087 -20.916607
S -5.976173 -0.000000 -17.928520
S -2.988087 2.988087 -17.928520
S -2.988087 -0.000000 -14.940434
S -5.976173 2.988087 -14.940434
S -5.976173 -0.000000 -11.952347
S -2.988087 2.988087 -11.952347
S -2.988087 -0.000000 -8.964260
S -5.976173 2.988087 -8.964260
S -5.976173 -0.000000 -5.976173
S -2.988087 2.988087 -5.976173
S -2.988087 -0.000000 -2.988087
S -5.976173 2.988087 -2.988087
S -5.976173 -0.000000 -0.000000
S -2.988087 2.988087 -0.000000
S -2.988087 -0.000000 2.988087
S -5.976173 2.988087 2.988087
S -5.976173 -0.000000 5.976173
S -2.988087 2.988087 5.976173
S -2.988087 -0.000000 8.964260
S -5.976173 2.988087 8.964260
S -5.976173 -0.000000 11.952347
S -2.988087 2.988087 11.952347
S -2.988087 -0.000000 14.940434
S -5.976173 2.988087 14.940434
S -5.976173 -0.000000 17.928520
S -2.988087 2.988087 17.928520
S -2.988087 -0.000000 20.916607
S -5.976173 2.988087 20.916607
S -2.988087 5.976173 -20.916607
S -5.976173 5.976173 -17.928520
S -2.988087 8.964260 -17.928520
S -2.988087 5.976173 -14.940434
S -5.976173 8.964260 -14.940434
S -5.976173 5.976173 -11.952347
S -2.988087 8.964260 -11.952347
S -2.988087 5.976173 -8.964260
S -5.976173 8.964260 -8.964260
S -5.976173 5.976173 -5.976173
S -2.988087 8.964260 -5.976173
S -2.988087 5.976173 -2.988087
S -5.976173 8.964260 -2.988087
S -5.976173 5.976173 -0.000000
S -2.988087 8.964260 0.000000
S -2.988087 5.976173 2.988087
S -5.976173 8.964260 2.988087
S -5.976173 5.976173 5.976173
S -2.988087 8.964260 5.976173
S -2.988087 5.976173 8.964260
S -5.976173 8.964260 8.964260
S -5.976173 5.976173 11.952347
S -2.988087 8.964260 11.952347
S -2.988087 5.976173 14.940434
S -5.976173 8.964260 14.940434
S -5.976173 5.976173 17.928520
S -2.988087 8.964260 17.928520
S -2.988087 5.976173 20.916607
S -2.988087 11.952347 -14.940434
S -5.976173 11.952347 -11.952347
S -2.988087 14.940433 -11.952347
S -2.988087 11.952347 -8.964260
S -5.976173 14.940433 -8.964260
S -5.976173 11.952347 -5.976173
S -2.988087 14.940433 -5.976173
S -2.988087 11.952347 -2.988087
S -5.976173 14.940433 -2.988087
S -5.976173 11.952347 0.000000
S -2.988087 14.940433 0.000000
S -2.988087 11.952347 2.988087
S -5.976173 14.940433 2.988087
S -5.976173 11.952347 5.976173
S -2.988087 14.940433 5.976173
S -2.988087 11.952347 8.964260
S -5.976173 14.940433 8.964260
S -5.976173 11.952347 11.952347
S -2.988087 14.940433 11.952347
S -2.988087 11.952347 14.940434
S -2.988087 17.928520 -8.964260
S -5.976173 17.928520 -5.976173
S -2.988087 20.916607 -5.976173
S -2.988087 17.928520 -2.988087
S -5.976173 20.916607 -2.988087
S -5.976173 17.928520 0.000000
S -2.988087 20.916607 0.000000
S -2.988087 17.928520 2.988087
S -5.976173 20.916607 2.988087
S -5.976173 17.928520 5.976173
S -2.988087 20.916607 5.976173
S -2.988087 17.928520 8.964260
S 0.000000 -20.916607 -8.964260
S 2.988087 -20.916607 -5.976173
S 0.000000 -20.916607 -2.988087
S 2.988087 -20.916607 -0.000000
S 0.000000 -20.916607 2.988087
S 2.988087 -20.916607 5.976173
S 0.000000 -20.916607 8.964260
S 0.000000 -14.940434 -14.940434
S 0.000000 -17.928520 -11.952347
S 2.988087 -14.940434 -11.952347
S 2.988087 -17.928520 -8.964260
S 0.000000 -14.940434 -8.964260
S 0.000000 -17.928520 -5.976173
S 2.988087 -14.940434 -5.976173
S 2.988087 -17.928520 -2.988087
S 0.000000 -14.940434 -2.988087
S 0.000000 -17.928520 -0.000000
S 2.988087 -14.940434 -0.000000
S 2.988087 -17.928520 2.988087
S 0.000000 -14.940434 2.988087
S 0.000000 -17.928520 5.976173
S 2.988087 -14.940434 5.976173
S 2.988087 -17.928520 8.964260
S 0.000000 -14.940434 8.964260
S 0.000000 -17.928520 11.952347
S 2.988087 -14.940434 11.952347
S 0.000000 -14.940434 14.940433
S 0.000000 -8.964260 -20.916607
S 0.000000 -11.952347 -17.928520
S 2.988087 -8.964260 -17.928520
S 2.988087 -11.952347 -14.940434
S 0.000000 -8.964260 -14.940434
S 0.000000 -11.952347 -11.952347
S 2.988087 -8.964260 -11.952347
S 2.988087 -11.952347 -8.964260
S 0.000000 -8.964260 -8.964260
S 0.000000 -11.952347 -5.976173
S 2.988087 -8.964260 -5.976173
S 2.988087 -11.952347 -2.988087
S 0.000000 -8.964260 -2.988087
S 0.000000 -11.952347 -0.000000
S 2.988087 -8.964260 -0.000000
S 2.988087 -11.952347 2.988087
S 0.000000 -8.964260 2.988087
S 0.000000 -11.952347 5.976173
S 2.988087 -8.964260 5.976173
S 2.988087 -11.952347 8.964260
S 0.000000 -8.964260 8.964260
S 0.000000 -11.952347 11.952347
S 2.988087 -8.964260 11.952347
S 2.988087 -11.952347 14.940434
S 0.000000 -8.964260 14.940434
S 0.000000 -11.952347 17.928520
S 2.988087 -8.964260 17.928520
S 0.000000 -8.964260 20.916607
S 2.988087 -5.976173 -20.916607
S 0.000000 -2.988087 -20.916607
S 0.000000 -5.976173 -17.928520
S 2.988087 -2.988087 -17.928520
S 2.988087 -5.976173 -14.940434
S 0.000000 -2.988087 -14.940434
S 0.000000 -5.976173 -11.952347
S 2.988087 -2.988087 -11.952347
S 2.988087 -5.976173 -8.964260
S 0.000000 -2.988087 -8.964260
S 0.000000 -5.976173 -5.976173
S 2.988087 -2.988087 -5.976173
S 2.988087 -5.976173 -2.988087
S 0.000000 -2.988087 -2.988087
S 0.000000 -5.976173 -0.000000
S 2.988087 -2.988087 -0.000000
S 2.988087 -5.976173 2.988087
S 0.000000 -2.988087 2.988087
S 0.000000 -5.976173 5.976173
S 2.988087 -2.988087 5.976173
S 2.988087 -5.976173 8.964260
S 0.000000 -2.988087 8.964260
S 0.000000 -5.976173 11.952347
S 2.988087 -2.988087 11.952347
S 2.988087 -5.976173 14.940434
S 0.000000 -2.988087 14.940434
S 0.000000 -5.976173 17.928520
S 2.988087 -2.988087 17.928520
S 2.988087 -5.976173 20.916607
S 0.000000 -2.988087 20.916607
S 2.988087 -0.000000 -20.916607
S 0.000000 2.988087 -20.916607
S 0.000000 -0.000000 -17.928520
S 2.988087 2.988087 -17.928520
S 2.988087 -0.000000 -14.940434
S 0.000000 2.988087 -14.940434
S 0.000000 -0.000000 -11.952347
S 2.988087 2.988087 -11.952347
S 2.988087 -0.000000 -8.964260
S 0.000000 2.988087 -8.964260
S 0.000000 -0.000000 -5.976173
S 2.988087 2.988087 -5.976173
S 2.988087 -0.000000 -2.988087
S 0.000000 2.988087 -2.988087
S 0.000000 -0.000000 -0.000000
S 2.988087 2.988087 0.000000
S 2.988087 -0.000000 2.988087
S 0.000000 2.988087 2.988087
S 0.000000 -0.000000 5.976173
S 2.988087 2.988087 5.976173
S 2.988087 -0.000000 8.964260
S 0.000000 2.988087 8.964260
S 0.000000 -0.000000 11.952347
S 2.988087 2.988087 11.952347
S 2.988087 -0.000000 14.940434
S 0.000000 2.988087 14.940434
S 0.000000 -0.000000 17.928520
S 2.988087 2.988087 17.928520
S 2.988087 -0.000000 20.916607
S 0.000000 2.988087 20.916607
S 2.988087 5.976173 -20.916607
S 0.000000 8.964260 -20.916607
S 0.000000 5.976173 -17.928520
S 2.988087 8.964260 -17.928520
S 2.988087 5.976173 -14.940434
S 0.000000 8.964260 -14.940434
S 0.000000 5.976173 -11.952347
S 2.988087 8.964260 -11.952347
S 2.988087 5.976173 -8.964260
S 0.000000 8.964260 -8.964260
S 0.000000 5.976173 -5.976173
S 2.988087 8.964260 -5.976173
S 2.988087 5.976173 -2.988087
S 0.000000 8.964260 -2.988087
S 0.000000 5.976173 0.000000
S 2.988087 8.964260 0.000000
S 2.988087 5.976173 2.988087
S 0.000000 8.964260 2.988087
S 0.000000 5.976173 5.976173
S 2.988087 8.964260 5.976173
S 2.988087 5.976173 8.964260
S 0.000000 8.964260 8.964260
S 0.000000 5.976173 11.952347
S 2.988087 8.964260 11.952347
S 2.988087 5.976173 14.940434
S 0.000000 8.964260 14.940434
S 0.000000 5.976173 17.928520
S 2.988087 8.964260 17.928520
S 2.988087 5.976173 20.916607
S 0.000000 8.964260 20.916607
S 0.000000 11.952347 -17.928520
S 2.988087 14.940433 -17.928520
S 2.988087 11.952347 -14.940434
S 0.000000 14.940433 -14.940434
S 0.000000 11.952347 -11.952347
S 2.988087 14.940433 -11.952347
S 2.988087 11.952347 -8.964260
S 0.000000 14.940433 -8.964260
S 0.000000 11.952347 -5.976173
S 2.988087 14.940433 -5.976173
S 2.988087 11.952347 -2.988087
S 0.000000 14.940433 -2.988087
S 0.000000 11.952347 0.000000
S 2.988087 14.940433 0.000000
S 2.988087 11.952347 2.988087
S 0.000000 14.940433 2.988087
S 0.000000 11.952347 5.976173
S 2.988087 14.940433 5.976173
S 2.988087 11.952347 8.964260
S 0.000000 14.940433 8.964260
S 0.000000 11.952347 11.952347
S 2.988087 14.940433 11.952347
S 2.988087 11.952347 14.940434
S 0.000000 14.940433 14.940434
S 0.000000 11.952347 17.928520
S 2.988087 14.940433 17.928520
S 0.000000 17.928520 -11.952347
S 2.988087 17.928520 -8.964260
S 0.000000 20.916607 -8.964260
S 0.000000 17.928520 -5.976173
S 2.988087 20.916607 -5.976173
S 2.988087 17.928520 -2.988087
S 0.000000 20.916607 -2.988087
S 0.000000 17.928520 0.000000
S 2.988087 20.916607 0.000000
S 2.988087 17.928520 2.988087
S 0.000000 20.916607 2.988087
S 0.000000 17.928520 5.976173
S 2.988087 20.916607 5.976173
S 2.988087 17.928520 8.964260
S 0.000000 20.916607 8.964260
S 0.000000 17.928520 11.952347
S 5.976173 -20.916607 -2.988087
S 8.964260 -20.916607 -0.000000
S 5.976173 -20.916607 2.988087
S 5.976173 -14.940434 -8.964260
S 5.976173 -17.928520 -5.976173
S 8.964260 -14.940434 -5.976173
S 8.964260 -17.928520 -2.988087
S 5.976173 -14.940434 -2.988087
S 5.976173 -17.928520 -0.000000
S 8.964260 -14.940434 -0.000000
S 8.964260 -17.928520 2.988087
S 5.976173 -14.940434 2.988087
S 5.976173 -17.928520 5.976173
S 8.964260 -14.940434 5.976173
S 5.976173 -14.940434 8.964260
S 5.976173 -8.964260 -14.940434
S 5.976173 -11.952347 -11.952347
S 8.964260 -8.964260 -11.952347
S 8.964260 -11.952347 -8.964260
S 5.976173 -8.964260 -8.964260
S 5.976173 -11.952347 -5.976173
S 8.964260 -8.964260 -5.976173
S 8.964260 -11.952347 -2.988087
S 5.976173 -8.964260 -2.988087
S 5.976173 -11.952347 -0.000000
S 8.964260 -8.964260 -0.000000
S 8.964260 -11.952347 2.988087
S 5.976173 -8.964260 2.988087
S 5.976173 -11.952347 5.976173
S 8.964260 -8.964260 5.976173
S 8.964260 -11.952347 8.964260
S 5.976173 -8.964260 8.964260
S 5.976173 -11.952347 11.952347
S 8.964260 -8.964260 11.952347
S 5.976173 -8.964260 14.940434
S 5.976173 -2.988087 -20.916607
S 5.976173 -5.976173 -17.928520
S 8.964260 -2.988087 -17.928520
S 8.964260 -5.976173 -14.940434
S 5.976173 -2.988087 -14.940434
S 5.976173 -5.976173 -11.952347
S 8.964260 -2.988087 -11.952347
S 8.964260 -5.976173 -8.964260
S 5.976173 -2.988087 -8.964260
S 5.976173 -5.976173 -5.976173
S 8.964260 -2.988087 -5.976173
S 8.964260 -5.976173 -2.988087
S 5.976173 -2.988087 -2.988087
S 5.976173 -5.976173 -0.000000
S 8.964260 -2.988087 0.000000
S 8.964260 -5.976173 2.988087
S 5.976173 -2.988087 2.988087
S 5.976173 -5.976173 5.976173
S 8.964260 -2.988087 5.976173
S 8.964260 -5.976173 8.964260
S 5.976173 -2.988087 8.964260
S 5.976173 -5.976173 11.952347
S 8.964260 -2.988087 11.952347
S 8.964260 -5.976173 14.940434
S 5.976173 -2.988087 14.940434
S 5.976173 -5.976173 17.928520
S 8.964260 -2.988087 17.928520
S 5.976173 -2.988087 20.916607
S 8.964260 -0.000000 -20.916607
S 5.976173 2.988087 -20.916607
S 5.976173 -0.000000 -17.928520
S 8.964260 2.988087 -17.928520
S 8.964260 -0.000000 -14.940434
S 5.976173 2.988087 -14.940434
S 5.976173 -0.000000 -11.952347
S 8.964260 2.988087 -11.952347
S 8.964260 -0.000000 -8.964260
S 5.976173 2.988087 -8.964260
S 5.976173 -0.000000 -5.976173
S 8.964260 2.988087 -5.976173
S 8.964260 -0.000000 -2.988087
S 5.976173 2.988087 -2.988087
S 5.976173 -0.000000 0.000000
S 8.964260 2.988087 0.000000
S 8.964260 -0.000000 2.988087
S 5.976173 2.988087 2.988087
S 5.976173 -0.000000 5.976173
S 8.964260 2.988087 5.976173
S 8.964260 -0.000000 8.964260
S 5.976173 2.988087 8.964260
S 5.976173 -0.000000 11.952347
S 8.964260 2.988087 11.952347
S 8.964260 -0.000000 14.940434
S 5.976173 2.988087 14.940434
S 5.976173 -0.000000 17.928520
S 8.964260 2.988087 17.928520
S 8.964260 -0.000000 20.916607
S 5.976173 2.988087 20.916607
S 5.976173 5.976173 -17.928520
S 8.964260 5.976173 -14.940434
S 5.976173 8.964260 -14.940434
S 5.976173 5.976173 -11.952347
S 8.964260 8.964260 -11.952347
S 8.964260 5.976173 -8.964260
S 5.976173 8.964260 -8.964260
S 5.976173 5.976173 -5.976173
S 8.964260 8.964260 -5.976173
S 8.964260 5.976173 -2.988087
S 5.976173 8.964260 -2.988087
S 5.976173 5.976173 0.000000
S 8.964260 8.964260 0.000000
S 8.964260 5.976173 2.988087
S 5.976173 8.964260 2.988087
S 5.976173 5.976173 5.976173
S 8.964260 8.964260 5.976173
S 8.964260 5.976173 8.964260
S 5.976173 8.964260 8.964260
S 5.976173 5.976173 11.952347
S 8.964260 8.964260 11.952347
S 8.964260 5.976173 14.940434
S 5.976173 8.964260 14.940434
S 5.976173 5.976173 17.928520
S 5.976173 11.952347 -11.952347
S 8.964260 11.952347 -8.964260
S 5.976173 14.940433 -8.964260
S 5.976173 11.952347 -5.976173
S 8.964260 14.940433 -5.976173
S 8.964260 11.952347 -2.988087
S 5.976173 14.940433 -2.988087
S 5.976173 11.952347 0.000000
S 8.964260 14.940433 0.000000
S 8.964260 11.952347 2.988087
S 5.976173 14.940433 2.988087
S 5.976173 11.952347 5.976173
S 8.964260 14.940433 5.976173
S 8.964260 11.952347 8.964260
S 5.976173 14.940433 8.964260
S 5.976173 11.952347 11.952347
S 8.964260 11.952347 14.940434
S 5.976173 17.928520 -5.976173
S 8.964260 17.928520 -2.988087
S 5.976173 20.916607 -2.988087
S 5.976173 17.928520 0.000000
S 8.964260 20.916607 0.000000
S 8.964260 17.928520 2.988087
S 5.976173 20.916607 2.988087
S 5.976173 17.928520 5.976173
S 11.952347 -14.940434 -2.988087
S 11.952347 -17.928520 -0.000000
S 14.940434 -14.940434 -0.000000
S 11.952347 -14.940434 2.988087
S 11.952347 -8.964260 -8.964260
S 11.952347 -11.952347 -5.976173
S 14.940434 -8.964260 -5.976173
S 14.940434 -11.952347 -2.988087
S 11.952347 -8.964260 -2.988087
S 11.952347 -11.952347 -0.000000
S 14.940434 -8.964260 0.000000
S 14.940434 -11.952347 2.988087
S 11.952347 -8.964260 2.988087
S 11.952347 -11.952347 5.976173
S 14.940434 -8.964260 5.976173
S 11.952347 -8.964260 8.964260
S 11.952347 -2.988087 -14.940434
S 11.952347 -5.976173 -11.952347
S 14.940434 -2.988087 -11.952347
S 14.940434 -5.976173 -8.964260
S 11.952347 -2.988087 -8.964260
S 11.952347 -5.976173 -5.976173
S 14.940434 -2.988087 -5.976173
S 14.940434 -5.976173 -2.988087
S 11.952347 -2.988087 -2.988087
S 11.952347 -5.976173 0.000000
S 14.940434 -2.988087 0.000000
S 14.940434 -5.976173 2.988087
S 11.952347 -2.988087 2.988087
S 11.952347 -5.976173 5.976173
S 14.940434 -2.988087 5.976173
S 14.940434 -5.976173 8.964260
S 11.952347 -2.988087 8.964260
S 11.952347 -5.976173 11.952347
S 14.940434 -2.988087 11.952347
S 11.952347 -2.988087 14.940434
S 11.952347 -0.000000 -17.928520
S 14.940434 -0.000000 -14.940434
S 11.952347 2.988087 -14.940434
S 11.952347 -0.000000 -11.952347
S 14.940434 2.988087 -11.952347
S 14.940434 -0.000000 -8.964260
S 11.952347 2.988087 -8.964260
S 11.952347 -0.000000 -5.976173
S 14.940434 2.988087 -5.976173
S 14.940434 -0.000000 -2.988087
S 11.952347 2.988087 -2.988087
S 11.952347 -0.000000 0.000000
S 14.940434 2.988087 0.000000
S 14.940434 -0.000000 2.988087
S 11.952347 2.988087 2.988087
S 11.952347 -0.000000 5.976173
S 14.940434 2.988087 5.976173
S 14.940434 -0.000000 8.964260
S 11.952347 2.988087 8.964260
S 11.952347 -0.000000 11.952347
S 14.940434 2.988087 11.952347
S 14.940434 -0.000000 14.940434
S 11.952347 2.988087 14.940434
S 11.952347 -0.000000 17.928520
S 11.952347 5.976173 -11.952347
S 14.940434 5.976173 -8.964260
S 11.952347 8.964260 -8.964260
S 11.952347 5.976173 -5.976173
S 14.940434 8.964260 -5.976173
S 14.940434 5.976173 -2.988087
S 11.952347 8.964260 -2.988087
S 11.952347 5.976173 0.000000
S 14.940434 8.964260 0.000000
S 14.940434 5.976173 2.988087
S 11.952347 8.964260 2.988087
S 11.952347 5.976173 5.976173
S 14.940434 8.964260 5.976173
S 14.940434 5.976173 8.964260
S 11.952347 8.964260 8.964260
S 11.952347 5.976173 11.952347
S 11.952347 11.952347 -5.976173
S 14.940434 11.952347 -2.988087
S 11.952347 14.940433 -2.988087
S 11.952347 11.952347 0.000000
S 14.940434 14.940433 0.000000
S 14.940434 11.952347 2.988087
S 11.952347 14.940433 2.988087
S 11.952347 11.952347 5.976173
S 11.952347 17.928520 0.000000
S 17.928520 -8.964260 -2.988087
S 17.928520 -11.952347 0.000000
S 20.916607 -8.964260 0.000000
S 17.928520 -8.964260 2.988087
S 17.928520 -2.988087 -8.964260
S 17.928520 -5.976173 -5.976173
S 20.916607 -2.988087 -5.976173
S 20.916607 -5.976173 -2.988087
S 17.928520 -2.988087 -2.988087
S 17.928520 -5.976173 0.000000
S 20.916607 -2.988087 0.000000
S 20.916607 -5.976173 2.988087
S 17.928520 -2.988087 2.988087
S 17.928520 -5.976173 5.976173
S 20.916607 -2.988087 5.976173
S 17.928520 -2.988087 8.964260
S 17.928520 -0.000000 -11.952347
S 20.916607 -0.000000 -8.964260
S 17.928520 2.988087 -8.964260
S 17.928520 -0.000000 -5.976173
S 20.916607 2.988087 -5.976173
S 20.916607 -0.000000 -2.988087
S 17.928520 2.988087 -2.988087
S 17.928520 -0.000000 0.000000
S 20.916607 2.988087 0.000000
S 20.916607 -0.000000 2.988087
S 17.928520 2.988087 2.988087
S 17.928520 -0.000000 5.976173
S 20.916607 2.988087 5.976173
S 20.916607 -0.000000 8.964260
S 17.928520 2.988087 8.964260
S 17.928520 -0.000000 11.952347
S 17.928520 2.988087 14.940434
S 17.928520 5.976173 -5.976173
S 20.916607 5.976173 -2.988087
S 17.928520 8.964260 -2.988087
S 17.928520 5.976173 0.000000
S 20.916607 8.964260 0.000000
S 20.916607 5.976173 2.988087
S 17.928520 8.964260 2.988087
S 17.928520 5.976173 5.976173
S 17.928520 14.940433 -2.988087
S 17.928520 11.952347 0.000000
Cl -20.916607 -14.940434 -0.000000
Cl -20.916607 -8.964260 -5.976173
Cl -20.916607 -11.952347 -2.988087
Cl -20.916607 -11.952347 2.988087
Cl -20.916607 -8.964260 5.976173
Cl -20.916607 -2.988087 -11.952347
Cl -20.916607 -5.976173 -8.964260
Cl -20.916607 -5.976173 8.964260
Cl -20.916607 -2.988087 11.952347
Cl -20.916607 -0.000000 -14.940434
Cl -20.916607 2.988087 -11.952347
Cl -20.916607 2.988087 11.952347
Cl -20.916607 -0.000000 14.940433
Cl -20.916607 5.976173 -8.964260
Cl -20.916607 8.964260 -5.976173
Cl -20.916607 8.964260 5.976173
Cl -20.916607 5.976173 8.964260
Cl -20.916607 11.952347 -2.988087
Cl -20.916607 14.940433 -0.000000
Cl -20.916607 11.952347 2.988087
Cl -14.940433 -20.916607 -0.000000
Cl -14.940433 -14.940434 -5.976173
Cl -14.940433 -17.928520 -2.988087
Cl -17.928520 -14.940434 -2.988087
Cl -17.928520 -17.928520 -0.000000
Cl -14.940433 -17.928520 2.988087
Cl -14.940433 -14.940434 5.976173
Cl -14.940433 -8.964260 -11.952347
Cl -14.940433 -11.952347 -8.964260
Cl -17.928520 -8.964260 -8.964260
Cl -17.928520 -11.952347 -5.976173
Cl -17.928520 -11.952347 5.976173
Cl -14.940433 -11.952347 8.964260
Cl -17.928520 -8.964260 8.964260
Cl -14.940433 -8.964260 11.952347
Cl -14.940433 -2.988087 -17.928520
Cl -14.940433 -5.976173 -14.940434
Cl -17.928520 -2.988087 -14.940434
Cl -17.928520 -5.976173 -11.952347
Cl -17.928520 -5.976173 11.952347
Cl -14.940433 -5.976173 14.940433
Cl -17.928520 -2.988087 14.940433
Cl -14.940433 -2.988087 17.928520
Cl -14.940433 -0.000000 -20.916607
Cl -17.928520 -0.000000 -17.928520
Cl -14.940433 2.988087 -17.928520
Cl -17.928520 2.988087 -14.940434
Cl -17.928520 2.988087 14.940433
Cl -17.928520 -0.000000 17.928520
Cl -14.940433 2.988087 17.928520
Cl -14.940433 -0.000000 20.916607
Cl -14.940433 5.976173 -14.940434
Cl -17.928520 5.976173 -11.952347
Cl -14.940433 8.964260 -11.952347
Cl -17.928520 8.964260 -8.964260
Cl -17.928520 8.964260 8.964260
Cl -17.928520 5.976173 11.952347
Cl -14.940433 8.964260 11.952347
Cl -14.940433 5.976173 14.940434
Cl -14.940433 11.952347 -8.964260
Cl -17.928520 11.952347 -5.976173
Cl -14.940433 14.940433 -5.976173
Cl -17.928520 14.940433 -2.988087
Cl -17.928520 14.940433 2.988087
Cl -17.928520 11.952347 5.976173
Cl -14.940433 14.940433 5.976173
Cl -14.940433 11.952347 8.964260
Cl -14.940433 17.928520 -2.988087
Cl -17.928520 17.928520 -0.000000
Cl -14.940433 20.916607 0.000000
Cl -14.940433 17.928520 2.988087
Cl -8.964260 -20.916607 -5.976173
Cl -11.952347 -20.916607 -2.988087
Cl -11.952347 -20.916607 2.988087
Cl -8.964260 -20.916607 5.976173
Cl -8.964260 -14.940434 -11.952347
Cl -8.964260 -17.928520 -8.964260
Cl -11.952347 -14.940434 -8.964260
Cl -11.952347 -17.928520 -5.976173
Cl -11.952347 -17.928520 5.976173
Cl -8.964260 -17.928520 8.964260
Cl -11.952347 -14.940434 8.964260
Cl -8.964260 -14.940434 11.952347
Cl -8.964260 -8.964260 -17.928520
Cl -8.964260 -11.952347 -14.940434
Cl -11.952347 -8.964260 -14.940434
Cl -11.952347 -11.952347 -11.952347
Cl -11.952347 -11.952347 11.952347
Cl -8.964260 -11.952347 14.940433
Cl -11.952347 -8.964260 14.940433
Cl -8.964260 -8.964260 17.928520
Cl -8.964260 -5.976173 -20.916607
Cl -11.952347 -2.988087 -20.916607
Cl -11.952347 -5.976173 -17.928520
Cl -11.952347 -5.976173 17.928520
Cl -8.964260 -5.976173 20.916607
Cl -11.952347 -2.988087 20.916607
Cl -11.952347 2.988087 -20.916607
Cl -11.952347 2.988087 20.916607
Cl -8.964260 5.976173 -20.916607
Cl -11.952347 5.976173 -17.928520
Cl -8.964260 8.964260 -17.928520
Cl -11.952347 8.964260 -14.940434
Cl -11.952347 8.964260 14.940434
Cl -11.952347 5.976173 17.928520
Cl -8.964260 8.964260 17.928520
Cl -8.964260 5.976173 20.916607
Cl -8.964260 11.952347 -14.940434
Cl -11.952347 11.952347 -11.952347
Cl -8.964260 14.940433 -11.952347
Cl -11.952347 14.940433 -8.964260
Cl -11.952347 14.940433 8.964260
Cl -11.952347 11.952347 11.952347
Cl -8.964260 14.940433 11.952347
Cl -8.964260 11.952347 14.940434
Cl -8.964260 17.928520 -8.964260
Cl -11.952347 17.928520 -5.976173
Cl -8.964260 20.916607 -5.976173
Cl -11.952347 20.916607 -2.988087
Cl -11.952347 20.916607 2.988087
Cl -11.952347 17.928520 5.976173
Cl -8.964260 20.916607 5.976173
Cl -8.964260 17.928520 8.964260
Cl -2.988087 -20.916607 -11.952347
Cl -5.976173 -20.916607 -8.964260
Cl -5.976173 -20.916607 8.964260
Cl -2.988087 -20.916607 11.952347
Cl -2.988087 -14.940434 -17.928520
Cl -2.988087 -17.928520 -14.940434
Cl -5.976173 -14.940434 -14.940434
Cl -5.976173 -17.928520 -11.952347
Cl -5.976173 -17.928520 11.952347
Cl -2.988087 -17.928520 14.940433
Cl -5.976173 -14.940434 14.940433
Cl -2.988087 -14.940434 17.928520
Cl -2.988087 -11.952347 -20.916607
Cl -5.976173 -8.964260 -20.916607
Cl -5.976173 -11.952347 -17.928520
Cl -5.976173 -11.952347 17.928520
Cl -2.988087 -11.952347 20.916607
Cl -5.976173 -8.964260 20.916607
Cl -5.976173 8.964260 -20.916607
Cl -5.976173 8.964260 20.916607
Cl -2.988087 11.952347 -20.916607
Cl -5.976173 11.952347 -17.928520
Cl -2.988087 14.940433 -17.928520
Cl -5.976173 14.940433 -14.940434
Cl -5.976173 14.940433 14.940434
Cl -5.976173 11.952347 17.928520
Cl -2.988087 14.940433 17.928520
Cl -2.988087 11.952347 20.916607
Cl -2.988087 17.928520 -14.940434
Cl -5.976173 17.928520 -11.952347
Cl -2.988087 20.916607 -11.952347
Cl -5.976173 20.916607 -8.964260
Cl -5.976173 20.916607 8.964260
Cl -5.976173 17.928520 11.952347
Cl -2.988087 20.916607 11.952347
Cl -2.988087 17.928520 14.940434
Cl 0.000000 -20.916607 -14.940434
Cl 2.988087 -20.916607 -11.952347
Cl 2.988087 -20.916607 11.952347
Cl 0.000000 -20.916607 14.940433
Cl 0.000000 -14.940434 -20.916607
Cl 0.000000 -17.928520 -17.928520
Cl 2.988087 -14.940434 -17.928520
Cl 2.988087 -17.928520 -14.940434
Cl 2.988087 -17.928520 14.940433
Cl 0.000000 -17.928520 17.928520
Cl 2.988087 -14.940434 17.928520
Cl 0.000000 -14.940434 20.916607
Cl 2.988087 -11.952347 -20.916607
Cl 2.988087 -11.952347 20.916607
Cl 2.988087 11.952347 -20.916607
Cl 0.000000 14.940433 -20.916607
Cl 2.988087 11.952347 20.916607
Cl 0.000000 14.940433 20.916607
Cl 0.000000 17.928520 -17.928520
Cl 2.988087 17.928520 -14.940434
Cl 0.000000 20.916607 -14.940434
Cl 2.988087 20.916607 -11.952347
Cl 2.988087 20.916607 11.952347
Cl 2.988087 17.928520 14.940434
Cl 0.000000 20.916607 14.940434
Cl 0.000000 17.928520 17.928520
Cl 5.976173 -20.916607 -8.964260
Cl 8.964260 -20.916607 -5.976173
Cl 8.964260 -20.916607 5.976173
Cl 5.976173 -20.916607 8.964260
Cl 5.976173 -14.940434 -14.940434
Cl 5.976173 -17.928520 -11.952347
Cl 8.964260 -14.940434 -11.952347
Cl 8.964260 -17.928520 -8.964260
Cl 8.964260 -17.928520 8.964260
Cl 5.976173 -17.928520 11.952347
Cl 8.964260 -14.940434 11.952347
Cl 5.976173 -14.940434 14.940434
Cl 5.976173 -8.964260 -20.916607
Cl 5.976173 -11.952347 -17.928520
Cl 8.964260 -8.964260 -17.928520
Cl 8.964260 -11.952347 -14.940434
Cl 8.964260 -11.952347 14.940434
Cl 5.976173 -11.952347 17.928520
Cl 8.964260 -8.964260 17.928520
Cl 5.976173 -8.964260 20.916607
Cl 8.964260 -5.976173 -20.916607
Cl 8.964260 -5.976173 20.916607
Cl 8.964260 5.976173 -20.916607
Cl 5.976173 8.964260 -20.916607
Cl 8.964260 8.964260 -17.928520
Cl 8.964260 8.964260 17.928520
Cl 8.964260 5.976173 20.916607
Cl 5.976173 8.964260 20.916607
Cl 5.976173 11.952347 -17.928520
Cl 8.964260 11.952347 -14.940434
Cl 5.976173 14.940433 -14.940434
Cl 8.964260 14.940433 -11.952347
Cl 8.964260 14.940433 11.952347
Cl 5.976173 14.940433 14.940434
Cl 5.976173 11.952347 17.928520
Cl 5.976173 17.928520 -11.952347
Cl 8.964260 17.928520 -8.964260
Cl 5.976173 20.916607 -8.964260
Cl 8.964260 20.916607 -5.976173
Cl 8.964260 20.916607 5.976173
Cl 8.964260 17.928520 8.964260
Cl 5.976173 20.916607 8.964260
Cl 5.976173 17.928520 11.952347
Cl 11.952347 -20.916607 -2.988087
Cl 14.940434 -20.916607 -0.000000
Cl 11.952347 -20.916607 2.988087
Cl 11.952347 -14.940434 -8.964260
Cl 11.952347 -17.928520 -5.976173
Cl 14.940434 -14.940434 -5.976173
Cl 14.940434 -17.928520 -2.988087
Cl 14.940434 -17.928520 2.988087
Cl 11.952347 -17.928520 5.976173
Cl 14.940434 -14.940434 5.976173
Cl 11.952347 -14.940434 8.964260
Cl 11.952347 -8.964260 -14.940434
Cl 11.952347 -11.952347 -11.952347
Cl 14.940434 -8.964260 -11.952347
Cl 14.940434 -11.952347 -8.964260
Cl 14.940434 -11.952347 8.964260
Cl 11.952347 -11.952347 11.952347
Cl 14.940434 -8.964260 11.952347
Cl 11.952347 -8.964260 14.940434
Cl 11.952347 -2.988087 -20.916607
Cl 11.952347 -5.976173 -17.928520
Cl 14.940434 -2.988087 -17.928520
Cl 14.940434 -5.976173 -14.940434
Cl 14.940434 -5.976173 14.940434
Cl 11.952347 -5.976173 17.928520
Cl 14.940434 -2.988087 17.928520
Cl 11.952347 -2.988087 20.916607
Cl 14.940434 -0.000000 -20.916607
Cl 11.952347 2.988087 -20.916607
Cl 14.940434 2.988087 -17.928520
Cl 14.940434 2.988087 17.928520
Cl 14.940434 -0.000000 20.916607
Cl 11.952347 2.988087 20.916607
Cl 11.952347 5.976173 -17.928520
Cl 14.940434 5.976173 -14.940434
Cl 11.952347 8.964260 -14.940434
Cl 14.940434 8.964260 -11.952347
Cl 14.940434 8.964260 11.952347
Cl 14.940434 5.976173 14.940434
Cl 11.952347 8.964260 14.940434
Cl 11.952347 5.976173 17.928520
Cl 11.952347 11.952347 -11.952347
Cl 14.940434 11.952347 -8.964260
Cl 11.952347 14.940433 -8.964260
Cl 14.940434 14.940433 -5.976173
Cl 14.940434 14.940433 5.976173
Cl 14.940434 11.952347 8.964260
Cl 11.952347 14.940433 8.964260
Cl 11.952347 11.952347 11.952347
Cl 11.952347 17.928520 -5.976173
Cl 14.940434 17.928520 -2.988087
Cl 11.952347 20.916607 -2.988087
Cl 14.940434 20.916607 0.000000
Cl 14.940434 17.928520 2.988087
Cl 11.952347 20.916607 2.988087
Cl 11.952347 17.928520 5.976173
Cl 17.928520 -14.940434 -2.988087
Cl 17.928520 -17.928520 -0.000000
Cl 20.916607 -14.940434 0.000000
Cl 17.928520 -14.940434 2.988087
Cl 17.928520 -8.964260 -8.964260
Cl 17.928520 -11.952347 -5.976173
Cl 20.916607 -8.964260 -5.976173
Cl 20.916607 -11.952347 -2.988087
Cl 20.916607 -11.952347 2.988087
Cl 17.928520 -11.952347 5.976173
Cl 20.916607 -8.964260 5.976173
Cl 17.928520 -8.964260 8.964260
Cl 17.928520 -2.988087 -14.940434
Cl 17.928520 -5.976173 -11.952347
Cl 20.916607 -2.988087 -11.952347
Cl 20.916607 -5.976173 -8.964260
Cl 20.916607 -5.976173 8.964260
Cl 17.928520 -5.976173 11.952347
Cl 20.916607 -2.988087 11.952347
Cl 17.928520 -2.988087 14.940434
Cl 17.928520 -0.000000 -17.928520
Cl 20.916607 -0.000000 -14.940434
Cl 17.928520 2.988087 -14.940434
Cl 20.916607 2.988087 -11.952347
Cl 20.916607 2.988087 11.952347
Cl 20.916607 -0.000000 14.940434
Cl 17.928520 -0.000000 17.928520
Cl 17.928520 5.976173 -11.952347
Cl 20.916607 5.976173 -8.964260
Cl 17.928520 8.964260 -8.964260
Cl 20.916607 8.964260 -5.976173
Cl 20.916607 8.964260 5.976173
Cl 20.916607 5.976173 8.964260
Cl 17.928520 8.964260 8.964260
Cl 17.928520 5.976173 11.952347
Cl 17.928520 11.952347 -5.976173
Cl 20.916607 11.952347 -2.988087
Cl 20.916607 14.940433 0.000000
Cl 20.916607 11.952347 2.988087
Cl 17.928520 14.940433 2.988087
Cl 17.928520 11.952347 5.976173
Cl 17.928520 17.928520 0.000000
