98
InP-P-In40P31Cl27-clean
In -4.337598 -4.427965 -1.445866
In -4.337598 -1.475988 -4.397842
In -7.289574 -1.475988 -1.445866
In -4.337598 1.475988 -1.445866
In -4.337598 -1.475988 1.506110
In -7.289574 1.475988 1.506110
In -4.337598 1.475988 4.458087
In -4.337598 4.427965 1.506110
In -1.385622 -4.427965 -4.397842
In -1.385622 -7.379941 -1.445866
In 1.566355 -4.427965 -1.445866
In 1.566355 -7.379941 1.506110
In -1.385622 -4.427965 1.506110
In 1.566355 -4.427965 4.458087
In -1.385622 -1.475988 -7.349819
In 1.566355 1.475988 -7.349819
In 1.566355 -1.475988 -4.397842
In -1.385622 1.475988 -4.397842
In -1.385622 -1.475988 -1.445866
In 1.566355 1.475988 -1.445866
In 1.566355 -1.475988 1.506110
In -1.385622 1.475988 1.506110
In -1.385622 -1.475988 4.458087
In 1.566355 1.475988 4.458087
In 1.566355 -1.475988 7.410063
In -1.385622 1.475988 7.410063
In 1.566355 4.427965 -4.397842
In -1.385622 4.427965 -1.445866
In 1.566355 7.379941 -1.445866
In 1.566355 4.427965 1.506110
In -1.385622 7.379941 1.506110
In -1.385622 4.427965 4.458087
In 4.518331 -4.427965 1.506110
In 4.518331 1.475988 -4.397842
In 4.518331 -1.475988 -1.445866
In 7.470308 1.475988 -1.445866
In 7.470308 -1.475988 1.506110
In 4.518331 1.475988 1.506110
In 4.518331 -1.475988 4.458087
In 4.518331 4.427965 -1.445866
P -5.813586 -2.951976 -2.921854
P -2.861610 -2.951976 -5.873831
P -2.861610 -5.903953 -2.921854
P -2.861610 -2.951976 0.030122
P -2.861610 0.000000 -2.921854
P -5.813586 0.000000 0.030122
P -5.813586 2.951976 2.982099
P -2.861610 2.951976 0.030122
P -2.861610 0.000000 2.982099
P -2.861610 2.951976 5.934075
P -2.861610 5.903953 2.982099
P 0.090367 -2.951976 -2.921854
P 0.090367 -5.903953 0.030122
P 0.090367 -2.951976 2.982099
P 3.042343 -2.951976 0.030122
P 3.042343 -5.903953 2.982099
P 3.042343 -2.951976 5.934075
P 0.090367 0.000000 -5.873831
P 0.090367 2.951976 -2.921854
P 3.042343 2.951976 -5.873831
P 3.042343 0.000000 -2.921854
P 0.090367 0.000000 0.030122
P 0.090367 2.951976 2.982099
P 3.042343 2.951976 0.030122
P 3.042343 0.000000 2.982099
P 0.090367 0.000000 5.934075
P 3.042343 5.903953 -2.921854
P 0.090367 5.903953 0.030122
P 5.994319 -2.951976 2.982099
P 5.994319 2.951976 -2.921854
P 5.994319 0.000000 0.030122
Cl -8.765563 -2.951976 0.030122
Cl 8.946296 2.951976 0.030122
Cl 3.042343 -8.855929 0.030122
Cl -2.861610 8.855929 0.030122
Cl -2.861610 0.000000 -8.825807
Cl 0.090367 -2.951976 8.886051
Cl 3.042343 0.000000 -8.825807
Cl 0.090367 2.951976 8.886051
Cl -8.765563 2.951976 0.030122
Cl -2.861610 -8.855929 0.030122
Cl 3.042343 8.855929 0.030122
Cl 8.946296 -2.951976 0.030122
Cl -5.813586 0.000000 5.934075
Cl 0.090367 -5.903953 -5.873831
Cl 0.090367 5.903953 -5.873831
Cl 5.994319 0.000000 5.934075
Cl -8.765563 0.000000 -2.921854
Cl 0.090367 -8.855929 2.982099
Cl 0.090367 8.855929 2.982099
Cl 8.946296 0.000000 -2.921854
Cl -8.765563 0.000000 2.982099
Cl 0.090367 -8.855929 -2.921854
Cl 0.090367 2.951976 -8.825807
Cl 3.042343 0.000000 8.886051
Cl 0.090367 -2.951976 -8.825807
Cl -2.861610 0.000000 8.886051
Cl 0.090367 8.855929 -2.921854
