960
AlSb-Al-Al439Sb398Cl123-clean
Al -15.457268 -15.457268 12.365492
Al -15.457268 -9.267268 6.175492
Al -15.457268 -12.362268 9.270492
Al -18.552268 -9.267268 9.270492
Al -18.552268 -12.362268 12.365492
Al -15.457268 -9.267268 12.365492
Al -15.457268 -12.362268 15.460492
Al -15.457268 -3.077268 -0.014508
Al -15.457268 -6.172268 3.080492
Al -18.552268 -3.077268 3.080492
Al -18.552268 -6.172268 6.175492
Al -15.457268 -3.077268 6.175492
Al -15.457268 -6.172268 9.270492
Al -15.457268 3.112732 -6.204508
Al -15.457268 0.017732 -3.109508
Al -18.552268 3.112732 -3.109508
Al -18.552268 0.017732 -0.014508
Al -15.457268 3.112732 -0.014508
Al -15.457268 0.017732 3.080492
Al -15.457268 9.302732 -12.394508
Al -15.457268 6.207732 -9.299508
Al -18.552268 9.302732 -9.299508
Al -18.552268 6.207732 -6.204508
Al -15.457268 9.302732 -6.204508
Al -15.457268 6.207732 -3.109508
Al -15.457268 12.397732 -15.489508
Al -18.552268 12.397732 -12.394508
Al -15.457268 15.492732 -12.394508
Al -15.457268 12.397732 -9.299508
Al -9.267268 -15.457268 6.175492
Al -9.267268 -18.552268 9.270492
Al -12.362268 -15.457268 9.270492
Al -12.362268 -18.552268 12.365492
Al -9.267268 -15.457268 12.365492
Al -12.362268 -15.457268 15.460492
Al -9.267268 -9.267268 -0.014508
Al -9.267268 -12.362268 3.080492
Al -12.362268 -9.267268 3.080492
Al -12.362268 -12.362268 6.175492
Al -9.267268 -9.267268 6.175492
Al -9.267268 -12.362268 9.270492
Al -12.362268 -9.267268 9.270492
Al -12.362268 -12.362268 12.365492
Al -9.267268 -9.267268 12.365492
Al -9.267268 -12.362268 15.460492
Al -12.362268 -9.267268 15.460492
Al -12.362268 -12.362268 18.555492
Al -9.267268 -9.267268 18.555492
Al -9.267268 -3.077268 -6.204508
Al -9.267268 -6.172268 -3.109508
Al -12.362268 -3.077268 -3.109508
Al -12.362268 -6.172268 -0.014508
Al -9.267268 -3.077268 -0.014508
Al -9.267268 -6.172268 3.080492
Al -12.362268 -3.077268 3.080492
Al -12.362268 -6.172268 6.175492
Al -9.267268 -3.077268 6.175492
Al -9.267268 -6.172268 9.270492
Al -12.362268 -3.077268 9.270492
Al -12.362268 -6.172268 12.365492
Al -9.267268 -3.077268 12.365492
Al -9.267268 -6.172268 15.460492
Al -9.267268 3.112732 -12.394508
Al -9.267268 0.017732 -9.299508
Al -12.362268 3.112732 -9.299508
Al -12.362268 0.017732 -6.204508
Al -9.267268 3.112732 -6.204508
Al -9.267268 0.017732 -3.109508
Al -12.362268 3.112732 -3.109508
Al -12.362268 0.017732 -0.014508
Al -9.267268 3.112732 -0.014508
Al -9.267268 0.017732 3.080492
Al -12.362268 3.112732 3.080492
Al -12.362268 0.017732 6.175492
Al -9.267268 3.112732 6.175492
Al -9.267268 0.017732 9.270492
Al -9.267268 9.302732 -18.584508
Al -9.267268 6.207732 -15.489508
Al -12.362268 9.302732 -15.489508
Al -12.362268 6.207732 -12.394508
Al -9.267268 9.302732 -12.394508
Al -9.267268 6.207732 -9.299508
Al -12.362268 9.302732 -9.299508
Al -12.362268 6.207732 -6.204508
Al -9.267268 9.302732 -6.204508
Al -9.267268 6.207732 -3.109508
Al -12.362268 9.302732 -3.109508
Al -12.362268 6.207732 -0.014508
Al -9.267268 9.302732 -0.014508
Al -9.267268 6.207732 3.080492
Al -12.362268 12.397732 -18.584508
Al -9.267268 12.397732 -15.489508
Al -12.362268 15.492732 -15.489508
Al -12.362268 12.397732 -12.394508
Al -9.267268 15.492732 -12.394508
Al -9.267268 12.397732 -9.299508
Al -12.362268 15.492732 -9.299508
Al -12.362268 12.397732 -6.204508
Al -9.267268 15.492732 -6.204508
Al -9.267268 12.397732 -3.109508
Al -12.362268 18.587732 -12.394508
Al -9.267268 18.587732 -9.299508
Al -3.077268 -15.457268 -0.014508
Al -3.077268 -18.552268 3.080492
Al -6.172268 -15.457268 3.080492
Al -6.172268 -18.552268 6.175492
Al -3.077268 -15.457268 6.175492
Al -6.172268 -15.457268 9.270492
Al -3.077268 -9.267268 -6.204508
Al -3.077268 -12.362268 -3.109508
Al -6.172268 -9.267268 -3.109508
Al -6.172268 -12.362268 -0.014508
Al -3.077268 -9.267268 -0.014508
Al -3.077268 -12.362268 3.080492
Al -6.172268 -9.267268 3.080492
Al -6.172268 -12.362268 6.175492
Al -3.077268 -9.267268 6.175492
Al -3.077268 -12.362268 9.270492
Al -6.172268 -9.267268 9.270492
Al -6.172268 -12.362268 12.365492
Al -3.077268 -9.267268 12.365492
Al -6.172268 -9.267268 15.460492
Al -3.077268 -3.077268 -12.394508
Al -3.077268 -6.172268 -9.299508
Al -6.172268 -3.077268 -9.299508
Al -6.172268 -6.172268 -6.204508
Al -3.077268 -3.077268 -6.204508
Al -3.077268 -6.172268 -3.109508
Al -6.172268 -3.077268 -3.109508
Al -6.172268 -6.172268 -0.014508
Al -3.077268 -3.077268 -0.014508
Al -3.077268 -6.172268 3.080492
Al -6.172268 -3.077268 3.080492
Al -6.172268 -6.172268 6.175492
Al -3.077268 -3.077268 6.175492
Al -3.077268 -6.172268 9.270492
Al -6.172268 -3.077268 9.270492
Al -6.172268 -6.172268 12.365492
Al -3.077268 -3.077268 12.365492
Al -3.077268 -6.172268 15.460492
Al -6.172268 -3.077268 15.460492
Al -6.172268 -6.172268 18.555492
Al -3.077268 -3.077268 18.555492
Al -3.077268 3.112732 -18.584508
Al -3.077268 0.017732 -15.489508
Al -6.172268 3.112732 -15.489508
Al -6.172268 0.017732 -12.394508
Al -3.077268 3.112732 -12.394508
Al -3.077268 0.017732 -9.299508
Al -6.172268 3.112732 -9.299508
Al -6.172268 0.017732 -6.204508
Al -3.077268 3.112732 -6.204508
Al -3.077268 0.017732 -3.109508
Al -6.172268 3.112732 -3.109508
Al -6.172268 0.017732 -0.014508
Al -3.077268 3.112732 -0.014508
Al -3.077268 0.017732 3.080492
Al -6.172268 3.112732 3.080492
Al -6.172268 0.017732 6.175492
Al -3.077268 3.112732 6.175492
Al -3.077268 0.017732 9.270492
Al -6.172268 3.112732 9.270492
Al -6.172268 0.017732 12.365492
Al -3.077268 3.112732 12.365492
Al -3.077268 0.017732 15.460492
Al -6.172268 6.207732 -18.584508
Al -3.077268 6.207732 -15.489508
Al -6.172268 9.302732 -15.489508
Al -6.172268 6.207732 -12.394508
Al -3.077268 9.302732 -12.394508
Al -3.077268 6.207732 -9.299508
Al -6.172268 9.302732 -9.299508
Al -6.172268 6.207732 -6.204508
Al -3.077268 9.302732 -6.204508
Al -3.077268 6.207732 -3.109508
Al -6.172268 9.302732 -3.109508
Al -6.172268 6.207732 -0.014508
Al -3.077268 9.302732 -0.014508
Al -3.077268 6.207732 3.080492
Al -6.172268 9.302732 3.080492
Al -6.172268 6.207732 6.175492
Al -3.077268 9.302732 6.175492
Al -3.077268 6.207732 9.270492
Al -6.172268 12.397732 -12.394508
Al -3.077268 12.397732 -9.299508
Al -6.172268 15.492732 -9.299508
Al -6.172268 12.397732 -6.204508
Al -3.077268 15.492732 -6.204508
Al -3.077268 12.397732 -3.109508
Al -6.172268 15.492732 -3.109508
Al -6.172268 12.397732 -0.014508
Al -3.077268 15.492732 -0.014508
Al -3.077268 12.397732 3.080492
Al -6.172268 18.587732 -6.204508
Al -3.077268 18.587732 -3.109508
Al 3.112732 -15.457268 -6.204508
Al 3.112732 -18.552268 -3.109508
Al 0.017732 -15.457268 -3.109508
Al 0.017732 -18.552268 -0.014508
Al 3.112732 -15.457268 -0.014508
Al 0.017732 -15.457268 3.080492
Al 3.112732 -9.267268 -12.394508
Al 3.112732 -12.362268 -9.299508
Al 0.017732 -9.267268 -9.299508
Al 0.017732 -12.362268 -6.204508
Al 3.112732 -9.267268 -6.204508
Al 3.112732 -12.362268 -3.109508
Al 0.017732 -9.267268 -3.109508
Al 0.017732 -12.362268 -0.014508
Al 3.112732 -9.267268 -0.014508
Al 3.112732 -12.362268 3.080492
Al 0.017732 -9.267268 3.080492
Al 0.017732 -12.362268 6.175492
Al 3.112732 -9.267268 6.175492
Al 0.017732 -9.267268 9.270492
Al 3.112732 -3.077268 -18.584508
Al 3.112732 -6.172268 -15.489508
Al 0.017732 -3.077268 -15.489508
Al 0.017732 -6.172268 -12.394508
Al 3.112732 -3.077268 -12.394508
Al 3.112732 -6.172268 -9.299508
Al 0.017732 -3.077268 -9.299508
Al 0.017732 -6.172268 -6.204508
Al 3.112732 -3.077268 -6.204508
Al 3.112732 -6.172268 -3.109508
Al 0.017732 -3.077268 -3.109508
Al 0.017732 -6.172268 -0.014508
Al 3.112732 -3.077268 -0.014508
Al 3.112732 -6.172268 3.080492
Al 0.017732 -3.077268 3.080492
Al 0.017732 -6.172268 6.175492
Al 3.112732 -3.077268 6.175492
Al 3.112732 -6.172268 9.270492
Al 0.017732 -3.077268 9.270492
Al 0.017732 -6.172268 12.365492
Al 3.112732 -3.077268 12.365492
Al 0.017732 -3.077268 15.460492
Al 0.017732 0.017732 -18.584508
Al 3.112732 0.017732 -15.489508
Al 0.017732 3.112732 -15.489508
Al 0.017732 0.017732 -12.394508
Al 3.112732 3.112732 -12.394508
Al 3.112732 0.017732 -9.299508
Al 0.017732 3.112732 -9.299508
Al 0.017732 0.017732 -6.204508
Al 3.112732 3.112732 -6.204508
Al 3.112732 0.017732 -3.109508
Al 0.017732 3.112732 -3.109508
Al 0.017732 0.017732 -0.014508
Al 3.112732 3.112732 -0.014508
Al 3.112732 0.017732 3.080492
Al 0.017732 3.112732 3.080492
Al 0.017732 0.017732 6.175492
Al 3.112732 3.112732 6.175492
Al 3.112732 0.017732 9.270492
Al 0.017732 3.112732 9.270492
Al 0.017732 0.017732 12.365492
Al 3.112732 3.112732 12.365492
Al 3.112732 0.017732 15.460492
Al 0.017732 3.112732 15.460492
Al 0.017732 0.017732 18.555492
Al 3.112732 3.112732 18.555492
Al 0.017732 6.207732 -12.394508
Al 3.112732 6.207732 -9.299508
Al 0.017732 9.302732 -9.299508
Al 0.017732 6.207732 -6.204508
Al 3.112732 9.302732 -6.204508
Al 3.112732 6.207732 -3.109508
Al 0.017732 9.302732 -3.109508
Al 0.017732 6.207732 -0.014508
Al 3.112732 9.302732 -0.014508
Al 3.112732 6.207732 3.080492
Al 0.017732 9.302732 3.080492
Al 0.017732 6.207732 6.175492
Al 3.112732 9.302732 6.175492
Al 3.112732 6.207732 9.270492
Al 0.017732 9.302732 9.270492
Al 0.017732 6.207732 12.365492
Al 3.112732 9.302732 12.365492
Al 3.112732 6.207732 15.460492
Al 0.017732 12.397732 -6.204508
Al 3.112732 12.397732 -3.109508
Al 0.017732 15.492732 -3.109508
Al 0.017732 12.397732 -0.014508
Al 3.112732 15.492732 -0.014508
Al 3.112732 12.397732 3.080492
Al 0.017732 15.492732 3.080492
Al 0.017732 12.397732 6.175492
Al 3.112732 15.492732 6.175492
Al 3.112732 12.397732 9.270492
Al 0.017732 18.587732 -0.014508
Al 3.112732 18.587732 3.080492
Al 9.302732 -15.457268 -12.394508
Al 9.302732 -18.552268 -9.299508
Al 6.207732 -15.457268 -9.299508
Al 6.207732 -18.552268 -6.204508
Al 9.302732 -15.457268 -6.204508
Al 6.207732 -15.457268 -3.109508
Al 9.302732 -9.267268 -18.584508
Al 9.302732 -12.362268 -15.489508
Al 6.207732 -9.267268 -15.489508
Al 6.207732 -12.362268 -12.394508
Al 9.302732 -9.267268 -12.394508
Al 9.302732 -12.362268 -9.299508
Al 6.207732 -9.267268 -9.299508
Al 6.207732 -12.362268 -6.204508
Al 9.302732 -9.267268 -6.204508
Al 9.302732 -12.362268 -3.109508
Al 6.207732 -9.267268 -3.109508
Al 6.207732 -12.362268 -0.014508
Al 9.302732 -9.267268 -0.014508
Al 6.207732 -9.267268 3.080492
Al 6.207732 -6.172268 -18.584508
Al 9.302732 -6.172268 -15.489508
Al 6.207732 -3.077268 -15.489508
Al 6.207732 -6.172268 -12.394508
Al 9.302732 -3.077268 -12.394508
Al 9.302732 -6.172268 -9.299508
Al 6.207732 -3.077268 -9.299508
Al 6.207732 -6.172268 -6.204508
Al 9.302732 -3.077268 -6.204508
Al 9.302732 -6.172268 -3.109508
Al 6.207732 -3.077268 -3.109508
Al 6.207732 -6.172268 -0.014508
Al 9.302732 -3.077268 -0.014508
Al 9.302732 -6.172268 3.080492
Al 6.207732 -3.077268 3.080492
Al 6.207732 -6.172268 6.175492
Al 9.302732 -3.077268 6.175492
Al 6.207732 -3.077268 9.270492
Al 6.207732 0.017732 -12.394508
Al 9.302732 0.017732 -9.299508
Al 6.207732 3.112732 -9.299508
Al 6.207732 0.017732 -6.204508
Al 9.302732 3.112732 -6.204508
Al 9.302732 0.017732 -3.109508
Al 6.207732 3.112732 -3.109508
Al 6.207732 0.017732 -0.014508
Al 9.302732 3.112732 -0.014508
Al 9.302732 0.017732 3.080492
Al 6.207732 3.112732 3.080492
Al 6.207732 0.017732 6.175492
Al 9.302732 3.112732 6.175492
Al 9.302732 0.017732 9.270492
Al 6.207732 3.112732 9.270492
Al 6.207732 0.017732 12.365492
Al 9.302732 3.112732 12.365492
Al 6.207732 3.112732 15.460492
Al 6.207732 6.207732 -6.204508
Al 9.302732 6.207732 -3.109508
Al 6.207732 9.302732 -3.109508
Al 6.207732 6.207732 -0.014508
Al 9.302732 9.302732 -0.014508
Al 9.302732 6.207732 3.080492
Al 6.207732 9.302732 3.080492
Al 6.207732 6.207732 6.175492
Al 9.302732 9.302732 6.175492
Al 9.302732 6.207732 9.270492
Al 6.207732 9.302732 9.270492
Al 6.207732 6.207732 12.365492
Al 9.302732 9.302732 12.365492
Al 9.302732 6.207732 15.460492
Al 6.207732 9.302732 15.460492
Al 6.207732 6.207732 18.555492
Al 9.302732 9.302732 18.555492
Al 6.207732 12.397732 -0.014508
Al 9.302732 12.397732 3.080492
Al 6.207732 15.492732 3.080492
Al 6.207732 12.397732 6.175492
Al 9.302732 15.492732 6.175492
Al 9.302732 12.397732 9.270492
Al 6.207732 15.492732 9.270492
Al 6.207732 12.397732 12.365492
Al 9.302732 15.492732 12.365492
Al 9.302732 12.397732 15.460492
Al 6.207732 18.587732 6.175492
Al 9.302732 18.587732 9.270492
Al 12.397732 -15.457268 -15.489508
Al 12.397732 -18.552268 -12.394508
Al 15.492732 -15.457268 -12.394508
Al 12.397732 -15.457268 -9.299508
Al 12.397732 -12.362268 -18.584508
Al 15.492732 -12.362268 -15.489508
Al 12.397732 -9.267268 -15.489508
Al 12.397732 -12.362268 -12.394508
Al 15.492732 -9.267268 -12.394508
Al 15.492732 -12.362268 -9.299508
Al 12.397732 -9.267268 -9.299508
Al 12.397732 -12.362268 -6.204508
Al 15.492732 -9.267268 -6.204508
Al 12.397732 -9.267268 -3.109508
Al 12.397732 -6.172268 -12.394508
Al 15.492732 -6.172268 -9.299508
Al 12.397732 -3.077268 -9.299508
Al 12.397732 -6.172268 -6.204508
Al 15.492732 -3.077268 -6.204508
Al 15.492732 -6.172268 -3.109508
Al 12.397732 -3.077268 -3.109508
Al 12.397732 -6.172268 -0.014508
Al 15.492732 -3.077268 -0.014508
Al 12.397732 -3.077268 3.080492
Al 12.397732 0.017732 -6.204508
Al 15.492732 0.017732 -3.109508
Al 12.397732 3.112732 -3.109508
Al 12.397732 0.017732 -0.014508
Al 15.492732 3.112732 -0.014508
Al 15.492732 0.017732 3.080492
Al 12.397732 3.112732 3.080492
Al 12.397732 0.017732 6.175492
Al 15.492732 3.112732 6.175492
Al 12.397732 3.112732 9.270492
Al 12.397732 6.207732 -0.014508
Al 15.492732 6.207732 3.080492
Al 12.397732 9.302732 3.080492
Al 12.397732 6.207732 6.175492
Al 15.492732 9.302732 6.175492
Al 15.492732 6.207732 9.270492
Al 12.397732 9.302732 9.270492
Al 12.397732 6.207732 12.365492
Al 15.492732 9.302732 12.365492
Al 12.397732 9.302732 15.460492
Al 12.397732 12.397732 6.175492
Al 15.492732 12.397732 9.270492
Al 12.397732 15.492732 9.270492
Al 12.397732 12.397732 12.365492
Al 15.492732 15.492732 12.365492
Al 15.492732 12.397732 15.460492
Al 12.397732 15.492732 15.460492
Al 12.397732 12.397732 18.555492
Al 12.397732 18.587732 12.365492
Al 18.587732 -12.362268 -12.394508
Al 18.587732 -9.267268 -9.299508
Al 18.587732 -6.172268 -6.204508
Al 18.587732 -3.077268 -3.109508
Al 18.587732 0.017732 -0.014508
Al 18.587732 3.112732 3.080492
Al 18.587732 6.207732 6.175492
Al 18.587732 9.302732 9.270492
Al 18.587732 12.397732 12.365492
Sb -13.909768 -13.909768 7.722992
Sb -13.909768 -13.909768 13.912992
Sb -17.004768 -7.719768 4.627992
Sb -13.909768 -10.814768 4.627992
Sb -17.004768 -10.814768 7.722992
Sb -17.004768 -7.719768 10.817992
Sb -13.909768 -7.719768 7.722992
Sb -13.909768 -10.814768 10.817992
Sb -13.909768 -7.719768 13.912992
Sb -17.004768 -1.529768 -1.562008
Sb -13.909768 -4.624768 -1.562008
Sb -17.004768 -4.624768 1.532992
Sb -17.004768 -1.529768 4.627992
Sb -13.909768 -1.529768 1.532992
Sb -13.909768 -4.624768 4.627992
Sb -17.004768 -4.624768 7.722992
Sb -13.909768 -1.529768 7.722992
Sb -17.004768 4.660232 -7.752008
Sb -13.909768 4.660232 -10.847008
Sb -13.909768 1.565232 -7.752008
Sb -17.004768 1.565232 -4.657008
Sb -13.909768 4.660232 -4.657008
Sb -13.909768 1.565232 -1.562008
Sb -17.004768 1.565232 1.532992
Sb -13.909768 4.660232 1.532992
Sb -13.909768 7.755232 -13.942008
Sb -17.004768 7.755232 -10.847008
Sb -17.004768 10.850232 -7.752008
Sb -13.909768 10.850232 -10.847008
Sb -13.909768 7.755232 -7.752008
Sb -17.004768 7.755232 -4.657008
Sb -13.909768 10.850232 -4.657008
Sb -13.909768 7.755232 -1.562008
Sb -13.909768 13.945232 -13.942008
Sb -13.909768 13.945232 -7.752008
Sb -7.719768 -17.004768 4.627992
Sb -10.814768 -17.004768 7.722992
Sb -10.814768 -13.909768 10.817992
Sb -7.719768 -13.909768 7.722992
Sb -7.719768 -17.004768 10.817992
Sb -7.719768 -13.909768 13.912992
Sb -7.719768 -10.814768 -1.562008
Sb -10.814768 -10.814768 1.532992
Sb -10.814768 -7.719768 4.627992
Sb -7.719768 -7.719768 1.532992
Sb -7.719768 -10.814768 4.627992
Sb -10.814768 -10.814768 7.722992
Sb -10.814768 -7.719768 10.817992
Sb -7.719768 -7.719768 7.722992
Sb -7.719768 -10.814768 10.817992
Sb -10.814768 -10.814768 13.912992
Sb -10.814768 -7.719768 17.007992
Sb -7.719768 -7.719768 13.912992
Sb -7.719768 -10.814768 17.007992
Sb -10.814768 -1.529768 -7.752008
Sb -7.719768 -1.529768 -10.847008
Sb -7.719768 -4.624768 -7.752008
Sb -10.814768 -4.624768 -4.657008
Sb -10.814768 -1.529768 -1.562008
Sb -7.719768 -1.529768 -4.657008
Sb -7.719768 -4.624768 -1.562008
Sb -10.814768 -4.624768 1.532992
Sb -10.814768 -1.529768 4.627992
Sb -7.719768 -1.529768 1.532992
Sb -7.719768 -4.624768 4.627992
Sb -10.814768 -4.624768 7.722992
Sb -10.814768 -1.529768 10.817992
Sb -7.719768 -1.529768 7.722992
Sb -7.719768 -4.624768 10.817992
Sb -10.814768 -4.624768 13.912992
Sb -7.719768 -4.624768 17.007992
Sb -10.814768 4.660232 -13.942008
Sb -7.719768 4.660232 -17.037008
Sb -7.719768 1.565232 -13.942008
Sb -10.814768 4.660232 -7.752008
Sb -7.719768 4.660232 -10.847008
Sb -7.719768 1.565232 -7.752008
Sb -10.814768 1.565232 -4.657008
Sb -10.814768 4.660232 -1.562008
Sb -7.719768 4.660232 -4.657008
Sb -7.719768 1.565232 -1.562008
Sb -10.814768 1.565232 1.532992
Sb -10.814768 4.660232 4.627992
Sb -7.719768 4.660232 1.532992
Sb -7.719768 1.565232 4.627992
Sb -10.814768 1.565232 7.722992
Sb -7.719768 1.565232 10.817992
Sb -10.814768 7.755232 -17.037008
Sb -10.814768 10.850232 -13.942008
Sb -7.719768 10.850232 -17.037008
Sb -7.719768 7.755232 -13.942008
Sb -10.814768 7.755232 -10.847008
Sb -10.814768 10.850232 -7.752008
Sb -7.719768 10.850232 -10.847008
Sb -7.719768 7.755232 -7.752008
Sb -10.814768 7.755232 -4.657008
Sb -7.719768 10.850232 -4.657008
Sb -7.719768 7.755232 -1.562008
Sb -10.814768 7.755232 1.532992
Sb -7.719768 10.850232 1.532992
Sb -7.719768 7.755232 4.627992
Sb -10.814768 13.945232 -10.847008
Sb -10.814768 17.040232 -7.752008
Sb -7.719768 17.040232 -10.847008
Sb -7.719768 13.945232 -7.752008
Sb -10.814768 13.945232 -4.657008
Sb -7.719768 17.040232 -4.657008
Sb -1.529768 -17.004768 -1.562008
Sb -4.624768 -17.004768 1.532992
Sb -4.624768 -13.909768 4.627992
Sb -1.529768 -13.909768 1.532992
Sb -1.529768 -17.004768 4.627992
Sb -4.624768 -17.004768 7.722992
Sb -4.624768 -13.909768 10.817992
Sb -1.529768 -13.909768 7.722992
Sb -4.624768 -7.719768 -7.752008
Sb -1.529768 -10.814768 -7.752008
Sb -4.624768 -10.814768 -4.657008
Sb -4.624768 -7.719768 -1.562008
Sb -1.529768 -7.719768 -4.657008
Sb -1.529768 -10.814768 -1.562008
Sb -4.624768 -10.814768 1.532992
Sb -4.624768 -7.719768 4.627992
Sb -1.529768 -7.719768 1.532992
Sb -1.529768 -10.814768 4.627992
Sb -4.624768 -10.814768 7.722992
Sb -4.624768 -7.719768 10.817992
Sb -1.529768 -7.719768 7.722992
Sb -4.624768 -10.814768 13.912992
Sb -4.624768 -7.719768 17.007992
Sb -1.529768 -7.719768 13.912992
Sb -1.529768 -1.529768 -17.037008
Sb -1.529768 -4.624768 -13.942008
Sb -4.624768 -4.624768 -10.847008
Sb -4.624768 -1.529768 -7.752008
Sb -1.529768 -1.529768 -10.847008
Sb -1.529768 -4.624768 -7.752008
Sb -4.624768 -4.624768 -4.657008
Sb -4.624768 -1.529768 -1.562008
Sb -1.529768 -1.529768 -4.657008
Sb -1.529768 -4.624768 -1.562008
Sb -4.624768 -4.624768 1.532992
Sb -4.624768 -1.529768 4.627992
Sb -1.529768 -1.529768 1.532992
Sb -1.529768 -4.624768 4.627992
Sb -4.624768 -4.624768 7.722992
Sb -4.624768 -1.529768 10.817992
Sb -1.529768 -1.529768 7.722992
Sb -1.529768 -4.624768 10.817992
Sb -4.624768 -4.624768 13.912992
Sb -4.624768 -1.529768 17.007992
Sb -1.529768 -1.529768 13.912992
Sb -1.529768 -4.624768 17.007992
Sb -4.624768 1.565232 -17.037008
Sb -4.624768 4.660232 -13.942008
Sb -1.529768 4.660232 -17.037008
Sb -1.529768 1.565232 -13.942008
Sb -4.624768 1.565232 -10.847008
Sb -4.624768 4.660232 -7.752008
Sb -1.529768 4.660232 -10.847008
Sb -1.529768 1.565232 -7.752008
Sb -4.624768 1.565232 -4.657008
Sb -4.624768 4.660232 -1.562008
Sb -1.529768 4.660232 -4.657008
Sb -1.529768 1.565232 -1.562008
Sb -4.624768 1.565232 1.532992
Sb -4.624768 4.660232 4.627992
Sb -1.529768 4.660232 1.532992
Sb -1.529768 1.565232 4.627992
Sb -4.624768 1.565232 7.722992
Sb -1.529768 4.660232 7.722992
Sb -1.529768 1.565232 10.817992
Sb -4.624768 1.565232 13.912992
Sb -1.529768 1.565232 17.007992
Sb -4.624768 7.755232 -17.037008
Sb -4.624768 10.850232 -13.942008
Sb -1.529768 7.755232 -13.942008
Sb -4.624768 7.755232 -10.847008
Sb -4.624768 10.850232 -7.752008
Sb -1.529768 7.755232 -7.752008
Sb -4.624768 7.755232 -4.657008
Sb -4.624768 10.850232 -1.562008
Sb -1.529768 10.850232 -4.657008
Sb -1.529768 7.755232 -1.562008
Sb -4.624768 7.755232 1.532992
Sb -1.529768 10.850232 1.532992
Sb -1.529768 7.755232 4.627992
Sb -4.624768 7.755232 7.722992
Sb -1.529768 10.850232 7.722992
Sb -1.529768 7.755232 10.817992
Sb -4.624768 13.945232 -10.847008
Sb -4.624768 17.040232 -7.752008
Sb -1.529768 13.945232 -7.752008
Sb -4.624768 13.945232 -4.657008
Sb -4.624768 17.040232 -1.562008
Sb -1.529768 17.040232 -4.657008
Sb -1.529768 13.945232 -1.562008
Sb -4.624768 13.945232 1.532992
Sb -1.529768 17.040232 1.532992
Sb 1.565232 -13.909768 -7.752008
Sb 4.660232 -13.909768 -10.847008
Sb 4.660232 -17.004768 -7.752008
Sb 1.565232 -17.004768 -4.657008
Sb 1.565232 -13.909768 -1.562008
Sb 4.660232 -13.909768 -4.657008
Sb 4.660232 -17.004768 -1.562008
Sb 1.565232 -17.004768 1.532992
Sb 4.660232 -13.909768 1.532992
Sb 1.565232 -7.719768 -13.942008
Sb 4.660232 -7.719768 -17.037008
Sb 4.660232 -10.814768 -13.942008
Sb 1.565232 -7.719768 -7.752008
Sb 4.660232 -7.719768 -10.847008
Sb 4.660232 -10.814768 -7.752008
Sb 1.565232 -10.814768 -4.657008
Sb 1.565232 -7.719768 -1.562008
Sb 4.660232 -7.719768 -4.657008
Sb 4.660232 -10.814768 -1.562008
Sb 1.565232 -10.814768 1.532992
Sb 1.565232 -7.719768 4.627992
Sb 4.660232 -7.719768 1.532992
Sb 4.660232 -10.814768 4.627992
Sb 1.565232 -10.814768 7.722992
Sb 4.660232 -7.719768 7.722992
Sb 1.565232 -4.624768 -17.037008
Sb 1.565232 -1.529768 -13.942008
Sb 4.660232 -1.529768 -17.037008
Sb 4.660232 -4.624768 -13.942008
Sb 1.565232 -4.624768 -10.847008
Sb 1.565232 -1.529768 -7.752008
Sb 4.660232 -1.529768 -10.847008
Sb 4.660232 -4.624768 -7.752008
Sb 1.565232 -4.624768 -4.657008
Sb 1.565232 -1.529768 -1.562008
Sb 4.660232 -1.529768 -4.657008
Sb 4.660232 -4.624768 -1.562008
Sb 1.565232 -4.624768 1.532992
Sb 1.565232 -1.529768 4.627992
Sb 4.660232 -1.529768 1.532992
Sb 4.660232 -4.624768 4.627992
Sb 1.565232 -4.624768 7.722992
Sb 1.565232 -1.529768 10.817992
Sb 4.660232 -1.529768 7.722992
Sb 1.565232 -4.624768 13.912992
Sb 1.565232 -1.529768 17.007992
Sb 4.660232 -1.529768 13.912992
Sb 1.565232 1.565232 -17.037008
Sb 1.565232 1.565232 -10.847008
Sb 1.565232 4.660232 -7.752008
Sb 4.660232 4.660232 -10.847008
Sb 4.660232 1.565232 -7.752008
Sb 1.565232 1.565232 -4.657008
Sb 1.565232 4.660232 -1.562008
Sb 4.660232 4.660232 -4.657008
Sb 4.660232 1.565232 -1.562008
Sb 1.565232 1.565232 1.532992
Sb 1.565232 4.660232 4.627992
Sb 4.660232 4.660232 1.532992
Sb 4.660232 1.565232 4.627992
Sb 1.565232 1.565232 7.722992
Sb 1.565232 4.660232 10.817992
Sb 4.660232 4.660232 7.722992
Sb 4.660232 1.565232 10.817992
Sb 1.565232 1.565232 13.912992
Sb 1.565232 4.660232 17.007992
Sb 4.660232 4.660232 13.912992
Sb 4.660232 1.565232 17.007992
Sb 1.565232 7.755232 -10.847008
Sb 1.565232 10.850232 -7.752008
Sb 4.660232 7.755232 -7.752008
Sb 1.565232 7.755232 -4.657008
Sb 1.565232 10.850232 -1.562008
Sb 4.660232 7.755232 -1.562008
Sb 1.565232 7.755232 1.532992
Sb 1.565232 10.850232 4.627992
Sb 4.660232 10.850232 1.532992
Sb 4.660232 7.755232 4.627992
Sb 1.565232 7.755232 7.722992
Sb 4.660232 10.850232 7.722992
Sb 4.660232 7.755232 10.817992
Sb 1.565232 7.755232 13.912992
Sb 4.660232 10.850232 13.912992
Sb 4.660232 7.755232 17.007992
Sb 1.565232 17.040232 -1.562008
Sb 4.660232 13.945232 -1.562008
Sb 1.565232 13.945232 1.532992
Sb 1.565232 17.040232 4.627992
Sb 4.660232 17.040232 1.532992
Sb 4.660232 13.945232 4.627992
Sb 1.565232 13.945232 7.722992
Sb 4.660232 17.040232 7.722992
Sb 4.660232 13.945232 10.817992
Sb 7.755232 -13.909768 -13.942008
Sb 7.755232 -17.004768 -10.847008
Sb 7.755232 -13.909768 -7.752008
Sb 10.850232 -13.909768 -10.847008
Sb 10.850232 -17.004768 -7.752008
Sb 7.755232 -17.004768 -4.657008
Sb 7.755232 -10.814768 -17.037008
Sb 7.755232 -7.719768 -13.942008
Sb 10.850232 -7.719768 -17.037008
Sb 10.850232 -10.814768 -13.942008
Sb 7.755232 -10.814768 -10.847008
Sb 7.755232 -7.719768 -7.752008
Sb 10.850232 -7.719768 -10.847008
Sb 10.850232 -10.814768 -7.752008
Sb 7.755232 -10.814768 -4.657008
Sb 7.755232 -7.719768 -1.562008
Sb 10.850232 -7.719768 -4.657008
Sb 10.850232 -10.814768 -1.562008
Sb 7.755232 -10.814768 1.532992
Sb 7.755232 -4.624768 -17.037008
Sb 10.850232 -4.624768 -13.942008
Sb 7.755232 -4.624768 -10.847008
Sb 7.755232 -1.529768 -7.752008
Sb 10.850232 -1.529768 -10.847008
Sb 10.850232 -4.624768 -7.752008
Sb 7.755232 -4.624768 -4.657008
Sb 7.755232 -1.529768 -1.562008
Sb 10.850232 -1.529768 -4.657008
Sb 10.850232 -4.624768 -1.562008
Sb 7.755232 -4.624768 1.532992
Sb 7.755232 -1.529768 4.627992
Sb 10.850232 -1.529768 1.532992
Sb 10.850232 -4.624768 4.627992
Sb 7.755232 -4.624768 7.722992
Sb 7.755232 -1.529768 10.817992
Sb 10.850232 -1.529768 7.722992
Sb 7.755232 1.565232 -10.847008
Sb 10.850232 1.565232 -7.752008
Sb 7.755232 1.565232 -4.657008
Sb 7.755232 4.660232 -1.562008
Sb 10.850232 4.660232 -4.657008
Sb 10.850232 1.565232 -1.562008
Sb 7.755232 1.565232 1.532992
Sb 7.755232 4.660232 4.627992
Sb 10.850232 4.660232 1.532992
Sb 10.850232 1.565232 4.627992
Sb 7.755232 1.565232 7.722992
Sb 7.755232 4.660232 10.817992
Sb 10.850232 4.660232 7.722992
Sb 7.755232 4.660232 17.007992
Sb 10.850232 4.660232 13.912992
Sb 7.755232 7.755232 -4.657008
Sb 7.755232 10.850232 -1.562008
Sb 10.850232 7.755232 -1.562008
Sb 7.755232 7.755232 1.532992
Sb 7.755232 10.850232 4.627992
Sb 10.850232 7.755232 4.627992
Sb 7.755232 7.755232 7.722992
Sb 7.755232 10.850232 10.817992
Sb 10.850232 10.850232 7.722992
Sb 10.850232 7.755232 10.817992
Sb 7.755232 7.755232 13.912992
Sb 7.755232 10.850232 17.007992
Sb 10.850232 10.850232 13.912992
Sb 10.850232 7.755232 17.007992
Sb 7.755232 17.040232 4.627992
Sb 10.850232 13.945232 4.627992
Sb 7.755232 13.945232 7.722992
Sb 7.755232 17.040232 10.817992
Sb 10.850232 17.040232 7.722992
Sb 10.850232 13.945232 10.817992
Sb 7.755232 13.945232 13.912992
Sb 13.945232 -13.909768 -13.942008
Sb 13.945232 -13.909768 -7.752008
Sb 13.945232 -7.719768 -13.942008
Sb 13.945232 -10.814768 -10.847008
Sb 13.945232 -7.719768 -7.752008
Sb 17.040232 -7.719768 -10.847008
Sb 17.040232 -10.814768 -7.752008
Sb 13.945232 -10.814768 -4.657008
Sb 17.040232 -7.719768 -4.657008
Sb 13.945232 -4.624768 -10.847008
Sb 17.040232 -4.624768 -7.752008
Sb 13.945232 -4.624768 -4.657008
Sb 13.945232 -1.529768 -1.562008
Sb 17.040232 -1.529768 -4.657008
Sb 17.040232 -4.624768 -1.562008
Sb 13.945232 -4.624768 1.532992
Sb 17.040232 -1.529768 1.532992
Sb 13.945232 1.565232 -4.657008
Sb 17.040232 1.565232 -1.562008
Sb 13.945232 1.565232 1.532992
Sb 13.945232 4.660232 4.627992
Sb 17.040232 4.660232 1.532992
Sb 17.040232 1.565232 4.627992
Sb 13.945232 1.565232 7.722992
Sb 17.040232 4.660232 7.722992
Sb 13.945232 7.755232 1.532992
Sb 13.945232 10.850232 4.627992
Sb 13.945232 7.755232 7.722992
Sb 13.945232 10.850232 10.817992
Sb 17.040232 10.850232 7.722992
Sb 17.040232 7.755232 10.817992
Sb 13.945232 7.755232 13.912992
Sb 13.945232 13.945232 7.722992
Sb 13.945232 13.945232 13.912992
Cl -20.099768 -7.719768 7.722992
Cl -20.099768 -10.814768 10.817992
Cl -20.099768 -1.529768 1.532992
Cl -20.099768 -4.624768 4.627992
Cl -20.099768 4.660232 -4.657008
Cl -20.099768 1.565232 -1.562008
Cl -20.099768 10.850232 -10.847008
Cl -20.099768 7.755232 -7.752008
Cl -17.004768 -13.909768 10.817992
Cl -13.909768 -17.004768 10.817992
Cl -13.909768 -7.719768 1.532992
Cl -17.004768 -10.814768 13.912992
Cl -13.909768 -10.814768 17.007992
Cl -13.909768 -1.529768 -4.657008
Cl -13.909768 -4.624768 10.817992
Cl -17.004768 4.660232 -1.562008
Cl -13.909768 1.565232 4.627992
Cl -17.004768 10.850232 -13.942008
Cl -13.909768 10.850232 -17.037008
Cl -17.004768 13.945232 -10.847008
Cl -13.909768 17.040232 -10.847008
Cl -10.814768 -20.099768 10.817992
Cl -7.719768 -20.099768 7.722992
Cl -10.814768 -13.909768 4.627992
Cl -7.719768 -13.909768 1.532992
Cl -10.814768 -17.004768 13.912992
Cl -10.814768 -13.909768 17.007992
Cl -10.814768 -7.719768 -1.562008
Cl -7.719768 -7.719768 -4.657008
Cl -10.814768 -10.814768 20.102992
Cl -7.719768 -7.719768 20.102992
Cl -7.719768 -1.529768 13.912992
Cl -10.814768 1.565232 -10.847008
Cl -7.719768 4.660232 7.722992
Cl -10.814768 10.850232 -20.132008
Cl -7.719768 7.755232 -20.132008
Cl -10.814768 10.850232 -1.562008
Cl -10.814768 13.945232 -17.037008
Cl -10.814768 17.040232 -13.942008
Cl -7.719768 13.945232 -13.942008
Cl -7.719768 13.945232 -1.562008
Cl -10.814768 20.135232 -10.847008
Cl -7.719768 20.135232 -7.752008
Cl -4.624768 -20.099768 4.627992
Cl -1.529768 -20.099768 1.532992
Cl -4.624768 -13.909768 -1.562008
Cl -1.529768 -13.909768 -4.657008
Cl -1.529768 -7.719768 -10.847008
Cl -1.529768 -10.814768 10.817992
Cl -4.624768 -1.529768 -13.942008
Cl -4.624768 -4.624768 20.102992
Cl -1.529768 -1.529768 20.102992
Cl -4.624768 4.660232 -20.132008
Cl -1.529768 1.565232 -20.132008
Cl -4.624768 4.660232 10.817992
Cl -1.529768 4.660232 13.912992
Cl -1.529768 10.850232 -10.847008
Cl -4.624768 10.850232 4.627992
Cl -1.529768 13.945232 4.627992
Cl -4.624768 20.135232 -4.657008
Cl -1.529768 20.135232 -1.562008
Cl 1.565232 -20.099768 -1.562008
Cl 4.660232 -20.099768 -4.657008
Cl 1.565232 -13.909768 4.627992
Cl 1.565232 -10.814768 -10.847008
Cl 1.565232 -7.719768 10.817992
Cl 1.565232 -1.529768 -20.132008
Cl 4.660232 -4.624768 -20.132008
Cl 4.660232 -4.624768 10.817992
Cl 1.565232 4.660232 -13.942008
Cl 4.660232 1.565232 -13.942008
Cl 1.565232 1.565232 20.102992
Cl 4.660232 4.660232 20.102992
Cl 4.660232 10.850232 -4.657008
Cl 1.565232 10.850232 10.817992
Cl 1.565232 13.945232 -4.657008
Cl 1.565232 20.135232 1.532992
Cl 4.660232 20.135232 4.627992
Cl 7.755232 -20.099768 -7.752008
Cl 10.850232 -20.099768 -10.847008
Cl 10.850232 -13.909768 -17.037008
Cl 10.850232 -17.004768 -13.942008
Cl 7.755232 -13.909768 -1.562008
Cl 10.850232 -13.909768 -4.657008
Cl 7.755232 -7.719768 -20.132008
Cl 10.850232 -10.814768 -20.132008
Cl 7.755232 -7.719768 4.627992
Cl 10.850232 -7.719768 1.532992
Cl 7.755232 -1.529768 -13.942008
Cl 7.755232 4.660232 -7.752008
Cl 10.850232 1.565232 10.817992
Cl 7.755232 1.565232 13.912992
Cl 10.850232 10.850232 1.532992
Cl 7.755232 7.755232 20.102992
Cl 10.850232 10.850232 20.102992
Cl 7.755232 13.945232 1.532992
Cl 10.850232 17.040232 13.912992
Cl 10.850232 13.945232 17.007992
Cl 7.755232 20.135232 7.722992
Cl 10.850232 20.135232 10.817992
Cl 13.945232 -17.004768 -10.847008
Cl 17.040232 -13.909768 -10.847008
Cl 13.945232 -10.814768 -17.037008
Cl 17.040232 -10.814768 -13.942008
Cl 13.945232 -7.719768 -1.562008
Cl 13.945232 -1.529768 -7.752008
Cl 13.945232 -1.529768 4.627992
Cl 13.945232 4.660232 -1.562008
Cl 13.945232 4.660232 10.817992
Cl 17.040232 7.755232 4.627992
Cl 13.945232 10.850232 17.007992
Cl 17.040232 10.850232 13.912992
Cl 13.945232 17.040232 10.817992
Cl 17.040232 13.945232 10.817992
Cl 20.135232 -10.814768 -10.847008
Cl 20.135232 -7.719768 -7.752008
Cl 20.135232 -4.624768 -4.657008
Cl 20.135232 -1.529768 -1.562008
Cl 20.135232 1.565232 1.532992
Cl 20.135232 4.660232 4.627992
Cl 20.135232 7.755232 7.722992
Cl 20.135232 10.850232 10.817992
Cl -17.004768 -17.004768 13.912992
