2382
GaAs-As-Ga1060As929Cl393-clean
Ga -21.558355 -15.811794 -12.912563
Ga -21.558355 -12.936703 -15.787654
Ga -24.433446 -12.936703 -12.912563
Ga -21.558355 -10.061612 -12.912563
Ga -21.558355 -12.936703 -10.037472
Ga -24.433446 -10.061612 -10.037472
Ga -21.558355 -10.061612 -7.162380
Ga -21.558355 -7.186521 -10.037472
Ga -24.433446 -7.186521 -7.162380
Ga -21.558355 -4.311430 -7.162380
Ga -21.558355 -7.186521 -4.287289
Ga -24.433446 -4.311430 -4.287289
Ga -21.558355 -4.311430 -1.412198
Ga -21.558355 -1.436339 -4.287289
Ga -24.433446 -1.436339 -1.412198
Ga -21.558355 1.438753 -1.412198
Ga -21.558355 -1.436339 1.462893
Ga -24.433446 1.438753 1.462893
Ga -21.558355 1.438753 4.337984
Ga -21.558355 4.313844 1.462893
Ga -24.433446 4.313844 4.337984
Ga -21.558355 7.188935 4.337984
Ga -21.558355 4.313844 7.213075
Ga -24.433446 7.188935 7.213075
Ga -21.558355 7.188935 10.088166
Ga -21.558355 10.064026 7.213075
Ga -24.433446 10.064026 10.088166
Ga -21.558355 12.939117 10.088166
Ga -21.558355 10.064026 12.963257
Ga -24.433446 12.939117 12.963257
Ga -21.558355 12.939117 15.838348
Ga -21.558355 15.814208 12.963257
Ga -15.808173 -21.561976 -12.912563
Ga -15.808173 -15.811794 -18.662745
Ga -15.808173 -18.686885 -15.787654
Ga -18.683264 -15.811794 -15.787654
Ga -18.683264 -18.686885 -12.912563
Ga -15.808173 -15.811794 -12.912563
Ga -15.808173 -18.686885 -10.037472
Ga -18.683264 -15.811794 -10.037472
Ga -15.808173 -15.811794 -7.162380
Ga -15.808173 -12.936703 -21.537836
Ga -18.683264 -12.936703 -18.662745
Ga -15.808173 -10.061612 -18.662745
Ga -15.808173 -12.936703 -15.787654
Ga -18.683264 -10.061612 -15.787654
Ga -18.683264 -12.936703 -12.912563
Ga -15.808173 -10.061612 -12.912563
Ga -15.808173 -12.936703 -10.037472
Ga -18.683264 -10.061612 -10.037472
Ga -18.683264 -12.936703 -7.162380
Ga -15.808173 -10.061612 -7.162380
Ga -15.808173 -12.936703 -4.287289
Ga -18.683264 -10.061612 -4.287289
Ga -15.808173 -10.061612 -1.412198
Ga -15.808173 -7.186521 -15.787654
Ga -18.683264 -7.186521 -12.912563
Ga -15.808173 -4.311430 -12.912563
Ga -15.808173 -7.186521 -10.037472
Ga -18.683264 -4.311430 -10.037472
Ga -18.683264 -7.186521 -7.162380
Ga -15.808173 -4.311430 -7.162380
Ga -15.808173 -7.186521 -4.287289
Ga -18.683264 -4.311430 -4.287289
Ga -18.683264 -7.186521 -1.412198
Ga -15.808173 -4.311430 -1.412198
Ga -15.808173 -7.186521 1.462893
Ga -18.683264 -4.311430 1.462893
Ga -15.808173 -4.311430 4.337984
Ga -15.808173 -1.436339 -10.037472
Ga -18.683264 -1.436339 -7.162380
Ga -15.808173 1.438753 -7.162380
Ga -15.808173 -1.436339 -4.287289
Ga -18.683264 1.438753 -4.287289
Ga -18.683264 -1.436339 -1.412198
Ga -15.808173 1.438753 -1.412198
Ga -15.808173 -1.436339 1.462893
Ga -18.683264 1.438753 1.462893
Ga -18.683264 -1.436339 4.337984
Ga -15.808173 1.438753 4.337984
Ga -15.808173 -1.436339 7.213075
Ga -18.683264 1.438753 7.213075
Ga -15.808173 1.438753 10.088166
Ga -15.808173 4.313844 -4.287289
Ga -18.683264 4.313844 -1.412198
Ga -15.808173 7.188935 -1.412198
Ga -15.808173 4.313844 1.462893
Ga -18.683264 7.188935 1.462893
Ga -18.683264 4.313844 4.337984
Ga -15.808173 7.188935 4.337984
Ga -15.808173 4.313844 7.213075
Ga -18.683264 7.188935 7.213075
Ga -18.683264 4.313844 10.088166
Ga -15.808173 7.188935 10.088166
Ga -15.808173 4.313844 12.963257
Ga -18.683264 7.188935 12.963257
Ga -15.808173 7.188935 15.838348
Ga -15.808173 10.064026 1.462893
Ga -18.683264 10.064026 4.337984
Ga -15.808173 12.939117 4.337984
Ga -15.808173 10.064026 7.213075
Ga -18.683264 12.939117 7.213075
Ga -18.683264 10.064026 10.088166
Ga -15.808173 12.939117 10.088166
Ga -15.808173 10.064026 12.963257
Ga -18.683264 12.939117 12.963257
Ga -18.683264 10.064026 15.838348
Ga -15.808173 12.939117 15.838348
Ga -15.808173 10.064026 18.713439
Ga -18.683264 12.939117 18.713439
Ga -15.808173 12.939117 21.588530
Ga -15.808173 15.814208 7.213075
Ga -18.683264 15.814208 10.088166
Ga -15.808173 18.689299 10.088166
Ga -15.808173 15.814208 12.963257
Ga -18.683264 18.689299 12.963257
Ga -18.683264 15.814208 15.838348
Ga -15.808173 18.689299 15.838348
Ga -15.808173 15.814208 18.713439
Ga -15.808173 21.564390 12.963257
Ga -12.933082 -21.561976 -15.787654
Ga -12.933082 -24.437067 -12.912563
Ga -10.057991 -21.561976 -12.912563
Ga -10.057991 -24.437067 -10.037472
Ga -12.933082 -21.561976 -10.037472
Ga -10.057991 -21.561976 -7.162380
Ga -12.933082 -15.811794 -21.537836
Ga -12.933082 -18.686885 -18.662745
Ga -10.057991 -15.811794 -18.662745
Ga -10.057991 -18.686885 -15.787654
Ga -12.933082 -15.811794 -15.787654
Ga -12.933082 -18.686885 -12.912563
Ga -10.057991 -15.811794 -12.912563
Ga -10.057991 -18.686885 -10.037472
Ga -12.933082 -15.811794 -10.037472
Ga -12.933082 -18.686885 -7.162380
Ga -10.057991 -15.811794 -7.162380
Ga -10.057991 -18.686885 -4.287289
Ga -12.933082 -15.811794 -4.287289
Ga -10.057991 -15.811794 -1.412198
Ga -12.933082 -12.936703 -24.412927
Ga -10.057991 -10.061612 -24.412927
Ga -10.057991 -12.936703 -21.537836
Ga -12.933082 -10.061612 -21.537836
Ga -12.933082 -12.936703 -18.662745
Ga -10.057991 -10.061612 -18.662745
Ga -10.057991 -12.936703 -15.787654
Ga -12.933082 -10.061612 -15.787654
Ga -12.933082 -12.936703 -12.912563
Ga -10.057991 -10.061612 -12.912563
Ga -10.057991 -12.936703 -10.037472
Ga -12.933082 -10.061612 -10.037472
Ga -12.933082 -12.936703 -7.162380
Ga -10.057991 -10.061612 -7.162380
Ga -10.057991 -12.936703 -4.287289
Ga -12.933082 -10.061612 -4.287289
Ga -12.933082 -12.936703 -1.412198
Ga -10.057991 -10.061612 -1.412198
Ga -10.057991 -12.936703 1.462893
Ga -12.933082 -10.061612 1.462893
Ga -10.057991 -10.061612 4.337984
Ga -10.057991 -7.186521 -21.537836
Ga -12.933082 -7.186521 -18.662745
Ga -10.057991 -4.311430 -18.662745
Ga -10.057991 -7.186521 -15.787654
Ga -12.933082 -4.311430 -15.787654
Ga -12.933082 -7.186521 -12.912563
Ga -10.057991 -4.311430 -12.912563
Ga -10.057991 -7.186521 -10.037472
Ga -12.933082 -4.311430 -10.037472
Ga -12.933082 -7.186521 -7.162380
Ga -10.057991 -4.311430 -7.162380
Ga -10.057991 -7.186521 -4.287289
Ga -12.933082 -4.311430 -4.287289
Ga -12.933082 -7.186521 -1.412198
Ga -10.057991 -4.311430 -1.412198
Ga -10.057991 -7.186521 1.462893
Ga -12.933082 -4.311430 1.462893
Ga -12.933082 -7.186521 4.337984
Ga -10.057991 -4.311430 4.337984
Ga -10.057991 -7.186521 7.213075
Ga -12.933082 -4.311430 7.213075
Ga -10.057991 -4.311430 10.088166
Ga -10.057991 -1.436339 -15.787654
Ga -12.933082 -1.436339 -12.912563
Ga -10.057991 1.438753 -12.912563
Ga -10.057991 -1.436339 -10.037472
Ga -12.933082 1.438753 -10.037472
Ga -12.933082 -1.436339 -7.162380
Ga -10.057991 1.438753 -7.162380
Ga -10.057991 -1.436339 -4.287289
Ga -12.933082 1.438753 -4.287289
Ga -12.933082 -1.436339 -1.412198
Ga -10.057991 1.438753 -1.412198
Ga -10.057991 -1.436339 1.462893
Ga -12.933082 1.438753 1.462893
Ga -12.933082 -1.436339 4.337984
Ga -10.057991 1.438753 4.337984
Ga -10.057991 -1.436339 7.213075
Ga -12.933082 1.438753 7.213075
Ga -12.933082 -1.436339 10.088166
Ga -10.057991 1.438753 10.088166
Ga -10.057991 -1.436339 12.963257
Ga -12.933082 1.438753 12.963257
Ga -10.057991 1.438753 15.838348
Ga -10.057991 4.313844 -10.037472
Ga -12.933082 4.313844 -7.162380
Ga -10.057991 7.188935 -7.162380
Ga -10.057991 4.313844 -4.287289
Ga -12.933082 7.188935 -4.287289
Ga -12.933082 4.313844 -1.412198
Ga -10.057991 7.188935 -1.412198
Ga -10.057991 4.313844 1.462893
Ga -12.933082 7.188935 1.462893
Ga -12.933082 4.313844 4.337984
Ga -10.057991 7.188935 4.337984
Ga -10.057991 4.313844 7.213075
Ga -12.933082 7.188935 7.213075
Ga -12.933082 4.313844 10.088166
Ga -10.057991 7.188935 10.088166
Ga -10.057991 4.313844 12.963257
Ga -12.933082 7.188935 12.963257
Ga -12.933082 4.313844 15.838348
Ga -10.057991 7.188935 15.838348
Ga -10.057991 4.313844 18.713439
Ga -12.933082 7.188935 18.713439
Ga -10.057991 7.188935 21.588530
Ga -10.057991 10.064026 -4.287289
Ga -12.933082 10.064026 -1.412198
Ga -10.057991 12.939117 -1.412198
Ga -10.057991 10.064026 1.462893
Ga -12.933082 12.939117 1.462893
Ga -12.933082 10.064026 4.337984
Ga -10.057991 12.939117 4.337984
Ga -10.057991 10.064026 7.213075
Ga -12.933082 12.939117 7.213075
Ga -12.933082 10.064026 10.088166
Ga -10.057991 12.939117 10.088166
Ga -10.057991 10.064026 12.963257
Ga -12.933082 12.939117 12.963257
Ga -12.933082 10.064026 15.838348
Ga -10.057991 12.939117 15.838348
Ga -10.057991 10.064026 18.713439
Ga -12.933082 12.939117 18.713439
Ga -12.933082 10.064026 21.588530
Ga -10.057991 12.939117 21.588530
Ga -10.057991 10.064026 24.463621
Ga -12.933082 12.939117 24.463621
Ga -10.057991 15.814208 1.462893
Ga -12.933082 15.814208 4.337984
Ga -10.057991 18.689299 4.337984
Ga -10.057991 15.814208 7.213075
Ga -12.933082 18.689299 7.213075
Ga -12.933082 15.814208 10.088166
Ga -10.057991 18.689299 10.088166
Ga -10.057991 15.814208 12.963257
Ga -12.933082 18.689299 12.963257
Ga -12.933082 15.814208 15.838348
Ga -10.057991 18.689299 15.838348
Ga -10.057991 15.814208 18.713439
Ga -12.933082 18.689299 18.713439
Ga -12.933082 15.814208 21.588530
Ga -10.057991 21.564390 7.213075
Ga -12.933082 21.564390 10.088166
Ga -10.057991 24.439481 10.088166
Ga -10.057991 21.564390 12.963257
Ga -12.933082 24.439481 12.963257
Ga -12.933082 21.564390 15.838348
Ga -7.182900 -21.561976 -10.037472
Ga -7.182900 -24.437067 -7.162380
Ga -4.307809 -21.561976 -7.162380
Ga -4.307809 -24.437067 -4.287289
Ga -7.182900 -21.561976 -4.287289
Ga -4.307809 -21.561976 -1.412198
Ga -7.182900 -15.811794 -15.787654
Ga -7.182900 -18.686885 -12.912563
Ga -4.307809 -15.811794 -12.912563
Ga -4.307809 -18.686885 -10.037472
Ga -7.182900 -15.811794 -10.037472
Ga -7.182900 -18.686885 -7.162380
Ga -4.307809 -15.811794 -7.162380
Ga -4.307809 -18.686885 -4.287289
Ga -7.182900 -15.811794 -4.287289
Ga -7.182900 -18.686885 -1.412198
Ga -4.307809 -15.811794 -1.412198
Ga -4.307809 -18.686885 1.462893
Ga -7.182900 -15.811794 1.462893
Ga -4.307809 -15.811794 4.337984
Ga -7.182900 -10.061612 -21.537836
Ga -7.182900 -12.936703 -18.662745
Ga -4.307809 -10.061612 -18.662745
Ga -4.307809 -12.936703 -15.787654
Ga -7.182900 -10.061612 -15.787654
Ga -7.182900 -12.936703 -12.912563
Ga -4.307809 -10.061612 -12.912563
Ga -4.307809 -12.936703 -10.037472
Ga -7.182900 -10.061612 -10.037472
Ga -7.182900 -12.936703 -7.162380
Ga -4.307809 -10.061612 -7.162380
Ga -4.307809 -12.936703 -4.287289
Ga -7.182900 -10.061612 -4.287289
Ga -7.182900 -12.936703 -1.412198
Ga -4.307809 -10.061612 -1.412198
Ga -4.307809 -12.936703 1.462893
Ga -7.182900 -10.061612 1.462893
Ga -7.182900 -12.936703 4.337984
Ga -4.307809 -10.061612 4.337984
Ga -4.307809 -12.936703 7.213075
Ga -7.182900 -10.061612 7.213075
Ga -4.307809 -10.061612 10.088166
Ga -7.182900 -7.186521 -24.412927
Ga -4.307809 -4.311430 -24.412927
Ga -4.307809 -7.186521 -21.537836
Ga -7.182900 -4.311430 -21.537836
Ga -7.182900 -7.186521 -18.662745
Ga -4.307809 -4.311430 -18.662745
Ga -4.307809 -7.186521 -15.787654
Ga -7.182900 -4.311430 -15.787654
Ga -7.182900 -7.186521 -12.912563
Ga -4.307809 -4.311430 -12.912563
Ga -4.307809 -7.186521 -10.037472
Ga -7.182900 -4.311430 -10.037472
Ga -7.182900 -7.186521 -7.162380
Ga -4.307809 -4.311430 -7.162380
Ga -4.307809 -7.186521 -4.287289
Ga -7.182900 -4.311430 -4.287289
Ga -7.182900 -7.186521 -1.412198
Ga -4.307809 -4.311430 -1.412198
Ga -4.307809 -7.186521 1.462893
Ga -7.182900 -4.311430 1.462893
Ga -7.182900 -7.186521 4.337984
Ga -4.307809 -4.311430 4.337984
Ga -4.307809 -7.186521 7.213075
Ga -7.182900 -4.311430 7.213075
Ga -7.182900 -7.186521 10.088166
Ga -4.307809 -4.311430 10.088166
Ga -4.307809 -7.186521 12.963257
Ga -7.182900 -4.311430 12.963257
Ga -4.307809 -4.311430 15.838348
Ga -4.307809 -1.436339 -21.537836
Ga -7.182900 -1.436339 -18.662745
Ga -4.307809 1.438753 -18.662745
Ga -4.307809 -1.436339 -15.787654
Ga -7.182900 1.438753 -15.787654
Ga -7.182900 -1.436339 -12.912563
Ga -4.307809 1.438753 -12.912563
Ga -4.307809 -1.436339 -10.037472
Ga -7.182900 1.438753 -10.037472
Ga -7.182900 -1.436339 -7.162380
Ga -4.307809 1.438753 -7.162380
Ga -4.307809 -1.436339 -4.287289
Ga -7.182900 1.438753 -4.287289
Ga -7.182900 -1.436339 -1.412198
Ga -4.307809 1.438753 -1.412198
Ga -4.307809 -1.436339 1.462893
Ga -7.182900 1.438753 1.462893
Ga -7.182900 -1.436339 4.337984
Ga -4.307809 1.438753 4.337984
Ga -4.307809 -1.436339 7.213075
Ga -7.182900 1.438753 7.213075
Ga -7.182900 -1.436339 10.088166
Ga -4.307809 1.438753 10.088166
Ga -4.307809 -1.436339 12.963257
Ga -7.182900 1.438753 12.963257
Ga -7.182900 -1.436339 15.838348
Ga -4.307809 1.438753 15.838348
Ga -4.307809 -1.436339 18.713439
Ga -7.182900 1.438753 18.713439
Ga -4.307809 1.438753 21.588530
Ga -4.307809 4.313844 -15.787654
Ga -7.182900 4.313844 -12.912563
Ga -4.307809 7.188935 -12.912563
Ga -4.307809 4.313844 -10.037472
Ga -7.182900 7.188935 -10.037472
Ga -7.182900 4.313844 -7.162380
Ga -4.307809 7.188935 -7.162380
Ga -4.307809 4.313844 -4.287289
Ga -7.182900 7.188935 -4.287289
Ga -7.182900 4.313844 -1.412198
Ga -4.307809 7.188935 -1.412198
Ga -4.307809 4.313844 1.462893
Ga -7.182900 7.188935 1.462893
Ga -7.182900 4.313844 4.337984
Ga -4.307809 7.188935 4.337984
Ga -4.307809 4.313844 7.213075
Ga -7.182900 7.188935 7.213075
Ga -7.182900 4.313844 10.088166
Ga -4.307809 7.188935 10.088166
Ga -4.307809 4.313844 12.963257
Ga -7.182900 7.188935 12.963257
Ga -7.182900 4.313844 15.838348
Ga -4.307809 7.188935 15.838348
Ga -4.307809 4.313844 18.713439
Ga -7.182900 7.188935 18.713439
Ga -7.182900 4.313844 21.588530
Ga -4.307809 7.188935 21.588530
Ga -4.307809 4.313844 24.463621
Ga -7.182900 7.188935 24.463621
Ga -4.307809 10.064026 -10.037472
Ga -7.182900 10.064026 -7.162380
Ga -4.307809 12.939117 -7.162380
Ga -4.307809 10.064026 -4.287289
Ga -7.182900 12.939117 -4.287289
Ga -7.182900 10.064026 -1.412198
Ga -4.307809 12.939117 -1.412198
Ga -4.307809 10.064026 1.462893
Ga -7.182900 12.939117 1.462893
Ga -7.182900 10.064026 4.337984
Ga -4.307809 12.939117 4.337984
Ga -4.307809 10.064026 7.213075
Ga -7.182900 12.939117 7.213075
Ga -7.182900 10.064026 10.088166
Ga -4.307809 12.939117 10.088166
Ga -4.307809 10.064026 12.963257
Ga -7.182900 12.939117 12.963257
Ga -7.182900 10.064026 15.838348
Ga -4.307809 12.939117 15.838348
Ga -4.307809 10.064026 18.713439
Ga -7.182900 12.939117 18.713439
Ga -7.182900 10.064026 21.588530
Ga -4.307809 15.814208 -4.287289
Ga -7.182900 15.814208 -1.412198
Ga -4.307809 18.689299 -1.412198
Ga -4.307809 15.814208 1.462893
Ga -7.182900 18.689299 1.462893
Ga -7.182900 15.814208 4.337984
Ga -4.307809 18.689299 4.337984
Ga -4.307809 15.814208 7.213075
Ga -7.182900 18.689299 7.213075
Ga -7.182900 15.814208 10.088166
Ga -4.307809 18.689299 10.088166
Ga -4.307809 15.814208 12.963257
Ga -7.182900 18.689299 12.963257
Ga -7.182900 15.814208 15.838348
Ga -4.307809 21.564390 1.462893
Ga -7.182900 21.564390 4.337984
Ga -4.307809 24.439481 4.337984
Ga -4.307809 21.564390 7.213075
Ga -7.182900 24.439481 7.213075
Ga -7.182900 21.564390 10.088166
Ga -1.432717 -21.561976 -4.287289
Ga -1.432717 -24.437067 -1.412198
Ga 1.442374 -21.561976 -1.412198
Ga 1.442374 -24.437067 1.462893
Ga -1.432717 -21.561976 1.462893
Ga 1.442374 -21.561976 4.337984
Ga -1.432717 -15.811794 -10.037472
Ga -1.432717 -18.686885 -7.162380
Ga 1.442374 -15.811794 -7.162380
Ga 1.442374 -18.686885 -4.287289
Ga -1.432717 -15.811794 -4.287289
Ga -1.432717 -18.686885 -1.412198
Ga 1.442374 -15.811794 -1.412198
Ga 1.442374 -18.686885 1.462893
Ga -1.432717 -15.811794 1.462893
Ga -1.432717 -18.686885 4.337984
Ga 1.442374 -15.811794 4.337984
Ga 1.442374 -18.686885 7.213075
Ga -1.432717 -15.811794 7.213075
Ga 1.442374 -15.811794 10.088166
Ga -1.432717 -10.061612 -15.787654
Ga -1.432717 -12.936703 -12.912563
Ga 1.442374 -10.061612 -12.912563
Ga 1.442374 -12.936703 -10.037472
Ga -1.432717 -10.061612 -10.037472
Ga -1.432717 -12.936703 -7.162380
Ga 1.442374 -10.061612 -7.162380
Ga 1.442374 -12.936703 -4.287289
Ga -1.432717 -10.061612 -4.287289
Ga -1.432717 -12.936703 -1.412198
Ga 1.442374 -10.061612 -1.412198
Ga 1.442374 -12.936703 1.462893
Ga -1.432717 -10.061612 1.462893
Ga -1.432717 -12.936703 4.337984
Ga 1.442374 -10.061612 4.337984
Ga 1.442374 -12.936703 7.213075
Ga -1.432717 -10.061612 7.213075
Ga -1.432717 -12.936703 10.088166
Ga 1.442374 -10.061612 10.088166
Ga 1.442374 -12.936703 12.963257
Ga -1.432717 -10.061612 12.963257
Ga 1.442374 -10.061612 15.838348
Ga -1.432717 -4.311430 -21.537836
Ga -1.432717 -7.186521 -18.662745
Ga 1.442374 -4.311430 -18.662745
Ga 1.442374 -7.186521 -15.787654
Ga -1.432717 -4.311430 -15.787654
Ga -1.432717 -7.186521 -12.912563
Ga 1.442374 -4.311430 -12.912563
Ga 1.442374 -7.186521 -10.037472
Ga -1.432717 -4.311430 -10.037472
Ga -1.432717 -7.186521 -7.162380
Ga 1.442374 -4.311430 -7.162380
Ga 1.442374 -7.186521 -4.287289
Ga -1.432717 -4.311430 -4.287289
Ga -1.432717 -7.186521 -1.412198
Ga 1.442374 -4.311430 -1.412198
Ga 1.442374 -7.186521 1.462893
Ga -1.432717 -4.311430 1.462893
Ga -1.432717 -7.186521 4.337984
Ga 1.442374 -4.311430 4.337984
Ga 1.442374 -7.186521 7.213075
Ga -1.432717 -4.311430 7.213075
Ga -1.432717 -7.186521 10.088166
Ga 1.442374 -4.311430 10.088166
Ga 1.442374 -7.186521 12.963257
Ga -1.432717 -4.311430 12.963257
Ga -1.432717 -7.186521 15.838348
Ga 1.442374 -4.311430 15.838348
Ga 1.442374 -7.186521 18.713439
Ga -1.432717 -4.311430 18.713439
Ga 1.442374 -4.311430 21.588530
Ga -1.432717 -1.436339 -24.412927
Ga 1.442374 1.438753 -24.412927
Ga 1.442374 -1.436339 -21.537836
Ga -1.432717 1.438753 -21.537836
Ga -1.432717 -1.436339 -18.662745
Ga 1.442374 1.438753 -18.662745
Ga 1.442374 -1.436339 -15.787654
Ga -1.432717 1.438753 -15.787654
Ga -1.432717 -1.436339 -12.912563
Ga 1.442374 1.438753 -12.912563
Ga 1.442374 -1.436339 -10.037472
Ga -1.432717 1.438753 -10.037472
Ga -1.432717 -1.436339 -7.162380
Ga 1.442374 1.438753 -7.162380
Ga 1.442374 -1.436339 -4.287289
Ga -1.432717 1.438753 -4.287289
Ga -1.432717 -1.436339 -1.412198
Ga 1.442374 1.438753 -1.412198
Ga 1.442374 -1.436339 1.462893
Ga -1.432717 1.438753 1.462893
Ga -1.432717 -1.436339 4.337984
Ga 1.442374 1.438753 4.337984
Ga 1.442374 -1.436339 7.213075
Ga -1.432717 1.438753 7.213075
Ga -1.432717 -1.436339 10.088166
Ga 1.442374 1.438753 10.088166
Ga 1.442374 -1.436339 12.963257
Ga -1.432717 1.438753 12.963257
Ga -1.432717 -1.436339 15.838348
Ga 1.442374 1.438753 15.838348
Ga 1.442374 -1.436339 18.713439
Ga -1.432717 1.438753 18.713439
Ga -1.432717 -1.436339 21.588530
Ga 1.442374 1.438753 21.588530
Ga 1.442374 -1.436339 24.463621
Ga -1.432717 1.438753 24.463621
Ga 1.442374 4.313844 -21.537836
Ga -1.432717 4.313844 -18.662745
Ga 1.442374 7.188935 -18.662745
Ga 1.442374 4.313844 -15.787654
Ga -1.432717 7.188935 -15.787654
Ga -1.432717 4.313844 -12.912563
Ga 1.442374 7.188935 -12.912563
Ga 1.442374 4.313844 -10.037472
Ga -1.432717 7.188935 -10.037472
Ga -1.432717 4.313844 -7.162380
Ga 1.442374 7.188935 -7.162380
Ga 1.442374 4.313844 -4.287289
Ga -1.432717 7.188935 -4.287289
Ga -1.432717 4.313844 -1.412198
Ga 1.442374 7.188935 -1.412198
Ga 1.442374 4.313844 1.462893
Ga -1.432717 7.188935 1.462893
Ga -1.432717 4.313844 4.337984
Ga 1.442374 7.188935 4.337984
Ga 1.442374 4.313844 7.213075
Ga -1.432717 7.188935 7.213075
Ga -1.432717 4.313844 10.088166
Ga 1.442374 7.188935 10.088166
Ga 1.442374 4.313844 12.963257
Ga -1.432717 7.188935 12.963257
Ga -1.432717 4.313844 15.838348
Ga 1.442374 7.188935 15.838348
Ga 1.442374 4.313844 18.713439
Ga -1.432717 7.188935 18.713439
Ga -1.432717 4.313844 21.588530
Ga 1.442374 10.064026 -15.787654
Ga -1.432717 10.064026 -12.912563
Ga 1.442374 12.939117 -12.912563
Ga 1.442374 10.064026 -10.037472
Ga -1.432717 12.939117 -10.037472
Ga -1.432717 10.064026 -7.162380
Ga 1.442374 12.939117 -7.162380
Ga 1.442374 10.064026 -4.287289
Ga -1.432717 12.939117 -4.287289
Ga -1.432717 10.064026 -1.412198
Ga 1.442374 12.939117 -1.412198
Ga 1.442374 10.064026 1.462893
Ga -1.432717 12.939117 1.462893
Ga -1.432717 10.064026 4.337984
Ga 1.442374 12.939117 4.337984
Ga 1.442374 10.064026 7.213075
Ga -1.432717 12.939117 7.213075
Ga -1.432717 10.064026 10.088166
Ga 1.442374 12.939117 10.088166
Ga 1.442374 10.064026 12.963257
Ga -1.432717 12.939117 12.963257
Ga -1.432717 10.064026 15.838348
Ga 1.442374 15.814208 -10.037472
Ga -1.432717 15.814208 -7.162380
Ga 1.442374 18.689299 -7.162380
Ga 1.442374 15.814208 -4.287289
Ga -1.432717 18.689299 -4.287289
Ga -1.432717 15.814208 -1.412198
Ga 1.442374 18.689299 -1.412198
Ga 1.442374 15.814208 1.462893
Ga -1.432717 18.689299 1.462893
Ga -1.432717 15.814208 4.337984
Ga 1.442374 18.689299 4.337984
Ga 1.442374 15.814208 7.213075
Ga -1.432717 18.689299 7.213075
Ga -1.432717 15.814208 10.088166
Ga 1.442374 21.564390 -4.287289
Ga -1.432717 21.564390 -1.412198
Ga 1.442374 24.439481 -1.412198
Ga 1.442374 21.564390 1.462893
Ga -1.432717 24.439481 1.462893
Ga -1.432717 21.564390 4.337984
Ga 4.317465 -21.561976 1.462893
Ga 4.317465 -24.437067 4.337984
Ga 7.192556 -21.561976 4.337984
Ga 7.192556 -24.437067 7.213075
Ga 4.317465 -21.561976 7.213075
Ga 7.192556 -21.561976 10.088166
Ga 4.317465 -15.811794 -4.287289
Ga 4.317465 -18.686885 -1.412198
Ga 7.192556 -15.811794 -1.412198
Ga 7.192556 -18.686885 1.462893
Ga 4.317465 -15.811794 1.462893
Ga 4.317465 -18.686885 4.337984
Ga 7.192556 -15.811794 4.337984
Ga 7.192556 -18.686885 7.213075
Ga 4.317465 -15.811794 7.213075
Ga 4.317465 -18.686885 10.088166
Ga 7.192556 -15.811794 10.088166
Ga 7.192556 -18.686885 12.963257
Ga 4.317465 -15.811794 12.963257
Ga 7.192556 -15.811794 15.838348
Ga 4.317465 -10.061612 -10.037472
Ga 4.317465 -12.936703 -7.162380
Ga 7.192556 -10.061612 -7.162380
Ga 7.192556 -12.936703 -4.287289
Ga 4.317465 -10.061612 -4.287289
Ga 4.317465 -12.936703 -1.412198
Ga 7.192556 -10.061612 -1.412198
Ga 7.192556 -12.936703 1.462893
Ga 4.317465 -10.061612 1.462893
Ga 4.317465 -12.936703 4.337984
Ga 7.192556 -10.061612 4.337984
Ga 7.192556 -12.936703 7.213075
Ga 4.317465 -10.061612 7.213075
Ga 4.317465 -12.936703 10.088166
Ga 7.192556 -10.061612 10.088166
Ga 7.192556 -12.936703 12.963257
Ga 4.317465 -10.061612 12.963257
Ga 4.317465 -12.936703 15.838348
Ga 7.192556 -10.061612 15.838348
Ga 7.192556 -12.936703 18.713439
Ga 4.317465 -10.061612 18.713439
Ga 7.192556 -10.061612 21.588530
Ga 4.317465 -4.311430 -15.787654
Ga 4.317465 -7.186521 -12.912563
Ga 7.192556 -4.311430 -12.912563
Ga 7.192556 -7.186521 -10.037472
Ga 4.317465 -4.311430 -10.037472
Ga 4.317465 -7.186521 -7.162380
Ga 7.192556 -4.311430 -7.162380
Ga 7.192556 -7.186521 -4.287289
Ga 4.317465 -4.311430 -4.287289
Ga 4.317465 -7.186521 -1.412198
Ga 7.192556 -4.311430 -1.412198
Ga 7.192556 -7.186521 1.462893
Ga 4.317465 -4.311430 1.462893
Ga 4.317465 -7.186521 4.337984
Ga 7.192556 -4.311430 4.337984
Ga 7.192556 -7.186521 7.213075
Ga 4.317465 -4.311430 7.213075
Ga 4.317465 -7.186521 10.088166
Ga 7.192556 -4.311430 10.088166
Ga 7.192556 -7.186521 12.963257
Ga 4.317465 -4.311430 12.963257
Ga 4.317465 -7.186521 15.838348
Ga 7.192556 -4.311430 15.838348
Ga 7.192556 -7.186521 18.713439
Ga 4.317465 -4.311430 18.713439
Ga 4.317465 -7.186521 21.588530
Ga 7.192556 -4.311430 21.588530
Ga 7.192556 -7.186521 24.463621
Ga 4.317465 -4.311430 24.463621
Ga 4.317465 1.438753 -21.537836
Ga 4.317465 -1.436339 -18.662745
Ga 7.192556 1.438753 -18.662745
Ga 7.192556 -1.436339 -15.787654
Ga 4.317465 1.438753 -15.787654
Ga 4.317465 -1.436339 -12.912563
Ga 7.192556 1.438753 -12.912563
Ga 7.192556 -1.436339 -10.037472
Ga 4.317465 1.438753 -10.037472
Ga 4.317465 -1.436339 -7.162380
Ga 7.192556 1.438753 -7.162380
Ga 7.192556 -1.436339 -4.287289
Ga 4.317465 1.438753 -4.287289
Ga 4.317465 -1.436339 -1.412198
Ga 7.192556 1.438753 -1.412198
Ga 7.192556 -1.436339 1.462893
Ga 4.317465 1.438753 1.462893
Ga 4.317465 -1.436339 4.337984
Ga 7.192556 1.438753 4.337984
Ga 7.192556 -1.436339 7.213075
Ga 4.317465 1.438753 7.213075
Ga 4.317465 -1.436339 10.088166
Ga 7.192556 1.438753 10.088166
Ga 7.192556 -1.436339 12.963257
Ga 4.317465 1.438753 12.963257
Ga 4.317465 -1.436339 15.838348
Ga 7.192556 1.438753 15.838348
Ga 7.192556 -1.436339 18.713439
Ga 4.317465 1.438753 18.713439
Ga 4.317465 -1.436339 21.588530
Ga 4.317465 4.313844 -24.412927
Ga 7.192556 7.188935 -24.412927
Ga 7.192556 4.313844 -21.537836
Ga 4.317465 7.188935 -21.537836
Ga 4.317465 4.313844 -18.662745
Ga 7.192556 7.188935 -18.662745
Ga 7.192556 4.313844 -15.787654
Ga 4.317465 7.188935 -15.787654
Ga 4.317465 4.313844 -12.912563
Ga 7.192556 7.188935 -12.912563
Ga 7.192556 4.313844 -10.037472
Ga 4.317465 7.188935 -10.037472
Ga 4.317465 4.313844 -7.162380
Ga 7.192556 7.188935 -7.162380
Ga 7.192556 4.313844 -4.287289
Ga 4.317465 7.188935 -4.287289
Ga 4.317465 4.313844 -1.412198
Ga 7.192556 7.188935 -1.412198
Ga 7.192556 4.313844 1.462893
Ga 4.317465 7.188935 1.462893
Ga 4.317465 4.313844 4.337984
Ga 7.192556 7.188935 4.337984
Ga 7.192556 4.313844 7.213075
Ga 4.317465 7.188935 7.213075
Ga 4.317465 4.313844 10.088166
Ga 7.192556 7.188935 10.088166
Ga 7.192556 4.313844 12.963257
Ga 4.317465 7.188935 12.963257
Ga 4.317465 4.313844 15.838348
Ga 7.192556 10.064026 -21.537836
Ga 4.317465 10.064026 -18.662745
Ga 7.192556 12.939117 -18.662745
Ga 7.192556 10.064026 -15.787654
Ga 4.317465 12.939117 -15.787654
Ga 4.317465 10.064026 -12.912563
Ga 7.192556 12.939117 -12.912563
Ga 7.192556 10.064026 -10.037472
Ga 4.317465 12.939117 -10.037472
Ga 4.317465 10.064026 -7.162380
Ga 7.192556 12.939117 -7.162380
Ga 7.192556 10.064026 -4.287289
Ga 4.317465 12.939117 -4.287289
Ga 4.317465 10.064026 -1.412198
Ga 7.192556 12.939117 -1.412198
Ga 7.192556 10.064026 1.462893
Ga 4.317465 12.939117 1.462893
Ga 4.317465 10.064026 4.337984
Ga 7.192556 12.939117 4.337984
Ga 7.192556 10.064026 7.213075
Ga 4.317465 12.939117 7.213075
Ga 4.317465 10.064026 10.088166
Ga 7.192556 15.814208 -15.787654
Ga 4.317465 15.814208 -12.912563
Ga 7.192556 18.689299 -12.912563
Ga 7.192556 15.814208 -10.037472
Ga 4.317465 18.689299 -10.037472
Ga 4.317465 15.814208 -7.162380
Ga 7.192556 18.689299 -7.162380
Ga 7.192556 15.814208 -4.287289
Ga 4.317465 18.689299 -4.287289
Ga 4.317465 15.814208 -1.412198
Ga 7.192556 18.689299 -1.412198
Ga 7.192556 15.814208 1.462893
Ga 4.317465 18.689299 1.462893
Ga 4.317465 15.814208 4.337984
Ga 7.192556 21.564390 -10.037472
Ga 4.317465 21.564390 -7.162380
Ga 7.192556 24.439481 -7.162380
Ga 7.192556 21.564390 -4.287289
Ga 4.317465 24.439481 -4.287289
Ga 4.317465 21.564390 -1.412198
Ga 10.067647 -21.561976 7.213075
Ga 10.067647 -24.437067 10.088166
Ga 12.942738 -21.561976 10.088166
Ga 12.942738 -24.437067 12.963257
Ga 10.067647 -21.561976 12.963257
Ga 12.942738 -21.561976 15.838348
Ga 10.067647 -15.811794 1.462893
Ga 10.067647 -18.686885 4.337984
Ga 12.942738 -15.811794 4.337984
Ga 12.942738 -18.686885 7.213075
Ga 10.067647 -15.811794 7.213075
Ga 10.067647 -18.686885 10.088166
Ga 12.942738 -15.811794 10.088166
Ga 12.942738 -18.686885 12.963257
Ga 10.067647 -15.811794 12.963257
Ga 10.067647 -18.686885 15.838348
Ga 12.942738 -15.811794 15.838348
Ga 12.942738 -18.686885 18.713439
Ga 10.067647 -15.811794 18.713439
Ga 12.942738 -15.811794 21.588530
Ga 10.067647 -10.061612 -4.287289
Ga 10.067647 -12.936703 -1.412198
Ga 12.942738 -10.061612 -1.412198
Ga 12.942738 -12.936703 1.462893
Ga 10.067647 -10.061612 1.462893
Ga 10.067647 -12.936703 4.337984
Ga 12.942738 -10.061612 4.337984
Ga 12.942738 -12.936703 7.213075
Ga 10.067647 -10.061612 7.213075
Ga 10.067647 -12.936703 10.088166
Ga 12.942738 -10.061612 10.088166
Ga 12.942738 -12.936703 12.963257
Ga 10.067647 -10.061612 12.963257
Ga 10.067647 -12.936703 15.838348
Ga 12.942738 -10.061612 15.838348
Ga 12.942738 -12.936703 18.713439
Ga 10.067647 -10.061612 18.713439
Ga 10.067647 -12.936703 21.588530
Ga 12.942738 -10.061612 21.588530
Ga 12.942738 -12.936703 24.463621
Ga 10.067647 -10.061612 24.463621
Ga 10.067647 -4.311430 -10.037472
Ga 10.067647 -7.186521 -7.162380
Ga 12.942738 -4.311430 -7.162380
Ga 12.942738 -7.186521 -4.287289
Ga 10.067647 -4.311430 -4.287289
Ga 10.067647 -7.186521 -1.412198
Ga 12.942738 -4.311430 -1.412198
Ga 12.942738 -7.186521 1.462893
Ga 10.067647 -4.311430 1.462893
Ga 10.067647 -7.186521 4.337984
Ga 12.942738 -4.311430 4.337984
Ga 12.942738 -7.186521 7.213075
Ga 10.067647 -4.311430 7.213075
Ga 10.067647 -7.186521 10.088166
Ga 12.942738 -4.311430 10.088166
Ga 12.942738 -7.186521 12.963257
Ga 10.067647 -4.311430 12.963257
Ga 10.067647 -7.186521 15.838348
Ga 12.942738 -4.311430 15.838348
Ga 12.942738 -7.186521 18.713439
Ga 10.067647 -4.311430 18.713439
Ga 10.067647 -7.186521 21.588530
Ga 10.067647 1.438753 -15.787654
Ga 10.067647 -1.436339 -12.912563
Ga 12.942738 1.438753 -12.912563
Ga 12.942738 -1.436339 -10.037472
Ga 10.067647 1.438753 -10.037472
Ga 10.067647 -1.436339 -7.162380
Ga 12.942738 1.438753 -7.162380
Ga 12.942738 -1.436339 -4.287289
Ga 10.067647 1.438753 -4.287289
Ga 10.067647 -1.436339 -1.412198
Ga 12.942738 1.438753 -1.412198
Ga 12.942738 -1.436339 1.462893
Ga 10.067647 1.438753 1.462893
Ga 10.067647 -1.436339 4.337984
Ga 12.942738 1.438753 4.337984
Ga 12.942738 -1.436339 7.213075
Ga 10.067647 1.438753 7.213075
Ga 10.067647 -1.436339 10.088166
Ga 12.942738 1.438753 10.088166
Ga 12.942738 -1.436339 12.963257
Ga 10.067647 1.438753 12.963257
Ga 10.067647 -1.436339 15.838348
Ga 10.067647 7.188935 -21.537836
Ga 10.067647 4.313844 -18.662745
Ga 12.942738 7.188935 -18.662745
Ga 12.942738 4.313844 -15.787654
Ga 10.067647 7.188935 -15.787654
Ga 10.067647 4.313844 -12.912563
Ga 12.942738 7.188935 -12.912563
Ga 12.942738 4.313844 -10.037472
Ga 10.067647 7.188935 -10.037472
Ga 10.067647 4.313844 -7.162380
Ga 12.942738 7.188935 -7.162380
Ga 12.942738 4.313844 -4.287289
Ga 10.067647 7.188935 -4.287289
Ga 10.067647 4.313844 -1.412198
Ga 12.942738 7.188935 -1.412198
Ga 12.942738 4.313844 1.462893
Ga 10.067647 7.188935 1.462893
Ga 10.067647 4.313844 4.337984
Ga 12.942738 7.188935 4.337984
Ga 12.942738 4.313844 7.213075
Ga 10.067647 7.188935 7.213075
Ga 10.067647 4.313844 10.088166
Ga 10.067647 10.064026 -24.412927
Ga 12.942738 12.939117 -24.412927
Ga 12.942738 10.064026 -21.537836
Ga 10.067647 12.939117 -21.537836
Ga 10.067647 10.064026 -18.662745
Ga 12.942738 12.939117 -18.662745
Ga 12.942738 10.064026 -15.787654
Ga 10.067647 12.939117 -15.787654
Ga 10.067647 10.064026 -12.912563
Ga 12.942738 12.939117 -12.912563
Ga 12.942738 10.064026 -10.037472
Ga 10.067647 12.939117 -10.037472
Ga 10.067647 10.064026 -7.162380
Ga 12.942738 12.939117 -7.162380
Ga 12.942738 10.064026 -4.287289
Ga 10.067647 12.939117 -4.287289
Ga 10.067647 10.064026 -1.412198
Ga 12.942738 12.939117 -1.412198
Ga 12.942738 10.064026 1.462893
Ga 10.067647 12.939117 1.462893
Ga 10.067647 10.064026 4.337984
Ga 12.942738 15.814208 -21.537836
Ga 10.067647 15.814208 -18.662745
Ga 12.942738 18.689299 -18.662745
Ga 12.942738 15.814208 -15.787654
Ga 10.067647 18.689299 -15.787654
Ga 10.067647 15.814208 -12.912563
Ga 12.942738 18.689299 -12.912563
Ga 12.942738 15.814208 -10.037472
Ga 10.067647 18.689299 -10.037472
Ga 10.067647 15.814208 -7.162380
Ga 12.942738 18.689299 -7.162380
Ga 12.942738 15.814208 -4.287289
Ga 10.067647 18.689299 -4.287289
Ga 10.067647 15.814208 -1.412198
Ga 12.942738 21.564390 -15.787654
Ga 10.067647 21.564390 -12.912563
Ga 12.942738 24.439481 -12.912563
Ga 12.942738 21.564390 -10.037472
Ga 10.067647 24.439481 -10.037472
Ga 10.067647 21.564390 -7.162380
Ga 15.817829 -21.561976 12.963257
Ga 15.817829 -15.811794 7.213075
Ga 15.817829 -18.686885 10.088166
Ga 18.692920 -15.811794 10.088166
Ga 18.692920 -18.686885 12.963257
Ga 15.817829 -15.811794 12.963257
Ga 15.817829 -18.686885 15.838348
Ga 18.692920 -15.811794 15.838348
Ga 15.817829 -15.811794 18.713439
Ga 15.817829 -10.061612 1.462893
Ga 15.817829 -12.936703 4.337984
Ga 18.692920 -10.061612 4.337984
Ga 18.692920 -12.936703 7.213075
Ga 15.817829 -10.061612 7.213075
Ga 15.817829 -12.936703 10.088166
Ga 18.692920 -10.061612 10.088166
Ga 18.692920 -12.936703 12.963257
Ga 15.817829 -10.061612 12.963257
Ga 15.817829 -12.936703 15.838348
Ga 18.692920 -10.061612 15.838348
Ga 18.692920 -12.936703 18.713439
Ga 15.817829 -10.061612 18.713439
Ga 15.817829 -12.936703 21.588530
Ga 15.817829 -4.311430 -4.287289
Ga 15.817829 -7.186521 -1.412198
Ga 18.692920 -4.311430 -1.412198
Ga 18.692920 -7.186521 1.462893
Ga 15.817829 -4.311430 1.462893
Ga 15.817829 -7.186521 4.337984
Ga 18.692920 -4.311430 4.337984
Ga 18.692920 -7.186521 7.213075
Ga 15.817829 -4.311430 7.213075
Ga 15.817829 -7.186521 10.088166
Ga 18.692920 -4.311430 10.088166
Ga 18.692920 -7.186521 12.963257
Ga 15.817829 -4.311430 12.963257
Ga 15.817829 -7.186521 15.838348
Ga 15.817829 1.438753 -10.037472
Ga 15.817829 -1.436339 -7.162380
Ga 18.692920 1.438753 -7.162380
Ga 18.692920 -1.436339 -4.287289
Ga 15.817829 1.438753 -4.287289
Ga 15.817829 -1.436339 -1.412198
Ga 18.692920 1.438753 -1.412198
Ga 18.692920 -1.436339 1.462893
Ga 15.817829 1.438753 1.462893
Ga 15.817829 -1.436339 4.337984
Ga 18.692920 1.438753 4.337984
Ga 18.692920 -1.436339 7.213075
Ga 15.817829 1.438753 7.213075
Ga 15.817829 -1.436339 10.088166
Ga 15.817829 7.188935 -15.787654
Ga 15.817829 4.313844 -12.912563
Ga 18.692920 7.188935 -12.912563
Ga 18.692920 4.313844 -10.037472
Ga 15.817829 7.188935 -10.037472
Ga 15.817829 4.313844 -7.162380
Ga 18.692920 7.188935 -7.162380
Ga 18.692920 4.313844 -4.287289
Ga 15.817829 7.188935 -4.287289
Ga 15.817829 4.313844 -1.412198
Ga 18.692920 7.188935 -1.412198
Ga 18.692920 4.313844 1.462893
Ga 15.817829 7.188935 1.462893
Ga 15.817829 4.313844 4.337984
Ga 15.817829 12.939117 -21.537836
Ga 15.817829 10.064026 -18.662745
Ga 18.692920 12.939117 -18.662745
Ga 18.692920 10.064026 -15.787654
Ga 15.817829 12.939117 -15.787654
Ga 15.817829 10.064026 -12.912563
Ga 18.692920 12.939117 -12.912563
Ga 18.692920 10.064026 -10.037472
Ga 15.817829 12.939117 -10.037472
Ga 15.817829 10.064026 -7.162380
Ga 18.692920 12.939117 -7.162380
Ga 18.692920 10.064026 -4.287289
Ga 15.817829 12.939117 -4.287289
Ga 15.817829 10.064026 -1.412198
Ga 15.817829 15.814208 -18.662745
Ga 18.692920 15.814208 -15.787654
Ga 15.817829 18.689299 -15.787654
Ga 15.817829 15.814208 -12.912563
Ga 18.692920 18.689299 -12.912563
Ga 18.692920 15.814208 -10.037472
Ga 15.817829 18.689299 -10.037472
Ga 15.817829 15.814208 -7.162380
Ga 15.817829 21.564390 -12.912563
Ga 21.568011 -15.811794 12.963257
Ga 21.568011 -10.061612 7.213075
Ga 21.568011 -12.936703 10.088166
Ga 24.443102 -10.061612 10.088166
Ga 24.443102 -12.936703 12.963257
Ga 21.568011 -10.061612 12.963257
Ga 21.568011 -12.936703 15.838348
Ga 21.568011 -4.311430 1.462893
Ga 21.568011 -7.186521 4.337984
Ga 24.443102 -4.311430 4.337984
Ga 24.443102 -7.186521 7.213075
Ga 21.568011 -4.311430 7.213075
Ga 21.568011 -7.186521 10.088166
Ga 21.568011 1.438753 -4.287289
Ga 21.568011 -1.436339 -1.412198
Ga 24.443102 1.438753 -1.412198
Ga 24.443102 -1.436339 1.462893
Ga 21.568011 1.438753 1.462893
Ga 21.568011 -1.436339 4.337984
Ga 21.568011 7.188935 -10.037472
Ga 21.568011 4.313844 -7.162380
Ga 24.443102 7.188935 -7.162380
Ga 24.443102 4.313844 -4.287289
Ga 21.568011 7.188935 -4.287289
Ga 21.568011 4.313844 -1.412198
Ga 21.568011 12.939117 -15.787654
Ga 21.568011 10.064026 -12.912563
Ga 24.443102 12.939117 -12.912563
Ga 24.443102 10.064026 -10.037472
Ga 21.568011 12.939117 -10.037472
Ga 21.568011 10.064026 -7.162380
Ga 21.568011 15.814208 -12.912563
As -22.995900 -14.374248 -14.350108
As -20.120809 -14.374248 -17.225199
As -20.120809 -17.249339 -14.350108
As -20.120809 -14.374248 -11.475017
As -20.120809 -11.499157 -14.350108
As -22.995900 -11.499157 -11.475017
As -22.995900 -8.624066 -8.599926
As -20.120809 -8.624066 -11.475017
As -20.120809 -11.499157 -8.599926
As -20.120809 -8.624066 -5.724835
As -20.120809 -5.748975 -8.599926
As -22.995900 -5.748975 -5.724835
As -22.995900 -2.873884 -2.849744
As -20.120809 -2.873884 -5.724835
As -20.120809 -5.748975 -2.849744
As -20.120809 -2.873884 0.025347
As -20.120809 0.001207 -2.849744
As -22.995900 0.001207 0.025347
As -22.995900 2.876298 2.900438
As -20.120809 2.876298 0.025347
As -20.120809 0.001207 2.900438
As -20.120809 2.876298 5.775529
As -20.120809 5.751389 2.900438
As -22.995900 5.751389 5.775529
As -22.995900 8.626480 8.650620
As -20.120809 8.626480 5.775529
As -20.120809 5.751389 8.650620
As -20.120809 8.626480 11.525711
As -20.120809 11.501571 8.650620
As -22.995900 11.501571 11.525711
As -22.995900 14.376662 14.400802
As -20.120809 14.376662 11.525711
As -20.120809 11.501571 14.400802
As -20.120809 14.376662 17.275893
As -20.120809 17.251753 14.400802
As -17.245718 -20.124430 -14.350108
As -14.370627 -20.124430 -17.225199
As -14.370627 -22.999521 -14.350108
As -14.370627 -20.124430 -11.475017
As -17.245718 -14.374248 -20.100290
As -14.370627 -14.374248 -22.975381
As -14.370627 -17.249339 -20.100290
As -17.245718 -17.249339 -17.225199
As -17.245718 -14.374248 -14.350108
As -14.370627 -14.374248 -17.225199
As -14.370627 -17.249339 -14.350108
As -17.245718 -17.249339 -11.475017
As -17.245718 -14.374248 -8.599926
As -14.370627 -14.374248 -11.475017
As -14.370627 -17.249339 -8.599926
As -14.370627 -14.374248 -5.724835
As -14.370627 -11.499157 -20.100290
As -17.245718 -11.499157 -17.225199
As -17.245718 -8.624066 -14.350108
As -14.370627 -8.624066 -17.225199
As -14.370627 -11.499157 -14.350108
As -17.245718 -11.499157 -11.475017
As -17.245718 -8.624066 -8.599926
As -14.370627 -8.624066 -11.475017
As -14.370627 -11.499157 -8.599926
As -17.245718 -11.499157 -5.724835
As -17.245718 -8.624066 -2.849744
As -14.370627 -8.624066 -5.724835
As -14.370627 -11.499157 -2.849744
As -14.370627 -8.624066 0.025347
As -14.370627 -5.748975 -14.350108
As -17.245718 -5.748975 -11.475017
As -17.245718 -2.873884 -8.599926
As -14.370627 -2.873884 -11.475017
As -14.370627 -5.748975 -8.599926
As -17.245718 -5.748975 -5.724835
As -17.245718 -2.873884 -2.849744
As -14.370627 -2.873884 -5.724835
As -14.370627 -5.748975 -2.849744
As -17.245718 -5.748975 0.025347
As -17.245718 -2.873884 2.900438
As -14.370627 -2.873884 0.025347
As -14.370627 -5.748975 2.900438
As -14.370627 -2.873884 5.775529
As -14.370627 0.001207 -8.599926
As -17.245718 0.001207 -5.724835
As -17.245718 2.876298 -2.849744
As -14.370627 2.876298 -5.724835
As -14.370627 0.001207 -2.849744
As -17.245718 0.001207 0.025347
As -17.245718 2.876298 2.900438
As -14.370627 2.876298 0.025347
As -14.370627 0.001207 2.900438
As -17.245718 0.001207 5.775529
As -17.245718 2.876298 8.650620
As -14.370627 2.876298 5.775529
As -14.370627 0.001207 8.650620
As -14.370627 2.876298 11.525711
As -14.370627 5.751389 -2.849744
As -17.245718 5.751389 0.025347
As -17.245718 8.626480 2.900438
As -14.370627 8.626480 0.025347
As -14.370627 5.751389 2.900438
As -17.245718 5.751389 5.775529
As -17.245718 8.626480 8.650620
As -14.370627 8.626480 5.775529
As -14.370627 5.751389 8.650620
As -17.245718 5.751389 11.525711
As -17.245718 8.626480 14.400802
As -14.370627 8.626480 11.525711
As -14.370627 5.751389 14.400802
As -14.370627 8.626480 17.275893
As -14.370627 11.501571 2.900438
As -17.245718 11.501571 5.775529
As -17.245718 14.376662 8.650620
As -14.370627 14.376662 5.775529
As -14.370627 11.501571 8.650620
As -17.245718 11.501571 11.525711
As -17.245718 14.376662 14.400802
As -14.370627 14.376662 11.525711
As -14.370627 11.501571 14.400802
As -17.245718 11.501571 17.275893
As -17.245718 14.376662 20.150985
As -14.370627 14.376662 17.275893
As -14.370627 11.501571 20.150985
As -14.370627 14.376662 23.026076
As -14.370627 17.251753 8.650620
As -17.245718 17.251753 11.525711
As -17.245718 20.126844 14.400802
As -14.370627 20.126844 11.525711
As -14.370627 17.251753 14.400802
As -17.245718 17.251753 17.275893
As -14.370627 20.126844 17.275893
As -14.370627 17.251753 20.150985
As -14.370627 23.001935 14.400802
As -11.495536 -20.124430 -14.350108
As -11.495536 -22.999521 -11.475017
As -11.495536 -20.124430 -8.599926
As -8.620445 -20.124430 -11.475017
As -8.620445 -22.999521 -8.599926
As -8.620445 -20.124430 -5.724835
As -11.495536 -14.374248 -20.100290
As -11.495536 -17.249339 -17.225199
As -11.495536 -14.374248 -14.350108
As -8.620445 -14.374248 -17.225199
As -8.620445 -17.249339 -14.350108
As -11.495536 -17.249339 -11.475017
As -11.495536 -14.374248 -8.599926
As -8.620445 -14.374248 -11.475017
As -8.620445 -17.249339 -8.599926
As -11.495536 -17.249339 -5.724835
As -11.495536 -14.374248 -2.849744
As -8.620445 -14.374248 -5.724835
As -8.620445 -17.249339 -2.849744
As -8.620445 -14.374248 0.025347
As -11.495536 -11.499157 -22.975381
As -11.495536 -8.624066 -20.100290
As -8.620445 -8.624066 -22.975381
As -8.620445 -11.499157 -20.100290
As -11.495536 -11.499157 -17.225199
As -11.495536 -8.624066 -14.350108
As -8.620445 -8.624066 -17.225199
As -8.620445 -11.499157 -14.350108
As -11.495536 -11.499157 -11.475017
As -11.495536 -8.624066 -8.599926
As -8.620445 -8.624066 -11.475017
As -8.620445 -11.499157 -8.599926
As -11.495536 -11.499157 -5.724835
As -11.495536 -8.624066 -2.849744
As -8.620445 -8.624066 -5.724835
As -8.620445 -11.499157 -2.849744
As -11.495536 -11.499157 0.025347
As -11.495536 -8.624066 2.900438
As -8.620445 -8.624066 0.025347
As -8.620445 -11.499157 2.900438
As -8.620445 -8.624066 5.775529
As -8.620445 -5.748975 -20.100290
As -11.495536 -5.748975 -17.225199
As -11.495536 -2.873884 -14.350108
As -8.620445 -2.873884 -17.225199
As -8.620445 -5.748975 -14.350108
As -11.495536 -5.748975 -11.475017
As -11.495536 -2.873884 -8.599926
As -8.620445 -2.873884 -11.475017
As -8.620445 -5.748975 -8.599926
As -11.495536 -5.748975 -5.724835
As -11.495536 -2.873884 -2.849744
As -8.620445 -2.873884 -5.724835
As -8.620445 -5.748975 -2.849744
As -11.495536 -5.748975 0.025347
As -11.495536 -2.873884 2.900438
As -8.620445 -2.873884 0.025347
As -8.620445 -5.748975 2.900438
As -11.495536 -5.748975 5.775529
As -11.495536 -2.873884 8.650620
As -8.620445 -2.873884 5.775529
As -8.620445 -5.748975 8.650620
As -8.620445 -2.873884 11.525711
As -8.620445 0.001207 -14.350108
As -11.495536 0.001207 -11.475017
As -11.495536 2.876298 -8.599926
As -8.620445 2.876298 -11.475017
As -8.620445 0.001207 -8.599926
As -11.495536 0.001207 -5.724835
As -11.495536 2.876298 -2.849744
As -8.620445 2.876298 -5.724835
As -8.620445 0.001207 -2.849744
As -11.495536 0.001207 0.025347
As -11.495536 2.876298 2.900438
As -8.620445 2.876298 0.025347
As -8.620445 0.001207 2.900438
As -11.495536 0.001207 5.775529
As -11.495536 2.876298 8.650620
As -8.620445 2.876298 5.775529
As -8.620445 0.001207 8.650620
As -11.495536 0.001207 11.525711
As -11.495536 2.876298 14.400802
As -8.620445 2.876298 11.525711
As -8.620445 0.001207 14.400802
As -8.620445 2.876298 17.275893
As -8.620445 5.751389 -8.599926
As -11.495536 5.751389 -5.724835
As -11.495536 8.626480 -2.849744
As -8.620445 8.626480 -5.724835
As -8.620445 5.751389 -2.849744
As -11.495536 5.751389 0.025347
As -11.495536 8.626480 2.900438
As -8.620445 8.626480 0.025347
As -8.620445 5.751389 2.900438
As -11.495536 5.751389 5.775529
As -11.495536 8.626480 8.650620
As -8.620445 8.626480 5.775529
As -8.620445 5.751389 8.650620
As -11.495536 5.751389 11.525711
As -11.495536 8.626480 14.400802
As -8.620445 8.626480 11.525711
As -8.620445 5.751389 14.400802
As -11.495536 5.751389 17.275893
As -11.495536 8.626480 20.150985
As -8.620445 8.626480 17.275893
As -8.620445 5.751389 20.150985
As -8.620445 8.626480 23.026076
As -8.620445 11.501571 -2.849744
As -11.495536 11.501571 0.025347
As -11.495536 14.376662 2.900438
As -8.620445 14.376662 0.025347
As -8.620445 11.501571 2.900438
As -11.495536 11.501571 5.775529
As -11.495536 14.376662 8.650620
As -8.620445 14.376662 5.775529
As -8.620445 11.501571 8.650620
As -11.495536 11.501571 11.525711
As -11.495536 14.376662 14.400802
As -8.620445 14.376662 11.525711
As -8.620445 11.501571 14.400802
As -11.495536 11.501571 17.275893
As -11.495536 14.376662 20.150985
As -8.620445 14.376662 17.275893
As -8.620445 11.501571 20.150985
As -11.495536 11.501571 23.026076
As -8.620445 17.251753 2.900438
As -11.495536 17.251753 5.775529
As -11.495536 20.126844 8.650620
As -8.620445 20.126844 5.775529
As -8.620445 17.251753 8.650620
As -11.495536 17.251753 11.525711
As -11.495536 20.126844 14.400802
As -8.620445 20.126844 11.525711
As -8.620445 17.251753 14.400802
As -11.495536 17.251753 17.275893
As -8.620445 23.001935 8.650620
As -11.495536 23.001935 11.525711
As -5.745354 -20.124430 -8.599926
As -5.745354 -22.999521 -5.724835
As -5.745354 -20.124430 -2.849744
As -2.870263 -20.124430 -5.724835
As -2.870263 -22.999521 -2.849744
As -2.870263 -20.124430 0.025347
As -5.745354 -14.374248 -14.350108
As -5.745354 -17.249339 -11.475017
As -5.745354 -14.374248 -8.599926
As -2.870263 -14.374248 -11.475017
As -2.870263 -17.249339 -8.599926
As -5.745354 -17.249339 -5.724835
As -5.745354 -14.374248 -2.849744
As -2.870263 -14.374248 -5.724835
As -2.870263 -17.249339 -2.849744
As -5.745354 -17.249339 0.025347
As -5.745354 -14.374248 2.900438
As -2.870263 -14.374248 0.025347
As -2.870263 -17.249339 2.900438
As -2.870263 -14.374248 5.775529
As -5.745354 -8.624066 -20.100290
As -5.745354 -11.499157 -17.225199
As -5.745354 -8.624066 -14.350108
As -2.870263 -8.624066 -17.225199
As -2.870263 -11.499157 -14.350108
As -5.745354 -11.499157 -11.475017
As -5.745354 -8.624066 -8.599926
As -2.870263 -8.624066 -11.475017
As -2.870263 -11.499157 -8.599926
As -5.745354 -11.499157 -5.724835
As -5.745354 -8.624066 -2.849744
As -2.870263 -8.624066 -5.724835
As -2.870263 -11.499157 -2.849744
As -5.745354 -11.499157 0.025347
As -5.745354 -8.624066 2.900438
As -2.870263 -8.624066 0.025347
As -2.870263 -11.499157 2.900438
As -5.745354 -11.499157 5.775529
As -5.745354 -8.624066 8.650620
As -2.870263 -8.624066 5.775529
As -2.870263 -11.499157 8.650620
As -2.870263 -8.624066 11.525711
As -5.745354 -5.748975 -22.975381
As -5.745354 -2.873884 -20.100290
As -2.870263 -2.873884 -22.975381
As -2.870263 -5.748975 -20.100290
As -5.745354 -5.748975 -17.225199
As -5.745354 -2.873884 -14.350108
As -2.870263 -2.873884 -17.225199
As -2.870263 -5.748975 -14.350108
As -5.745354 -5.748975 -11.475017
As -5.745354 -2.873884 -8.599926
As -2.870263 -2.873884 -11.475017
As -2.870263 -5.748975 -8.599926
As -5.745354 -5.748975 -5.724835
As -5.745354 -2.873884 -2.849744
As -2.870263 -2.873884 -5.724835
As -2.870263 -5.748975 -2.849744
As -5.745354 -5.748975 0.025347
As -5.745354 -2.873884 2.900438
As -2.870263 -2.873884 0.025347
As -2.870263 -5.748975 2.900438
As -5.745354 -5.748975 5.775529
As -5.745354 -2.873884 8.650620
As -2.870263 -2.873884 5.775529
As -2.870263 -5.748975 8.650620
As -5.745354 -5.748975 11.525711
As -5.745354 -2.873884 14.400802
As -2.870263 -2.873884 11.525711
As -2.870263 -5.748975 14.400802
As -2.870263 -2.873884 17.275893
As -2.870263 0.001207 -20.100290
As -5.745354 0.001207 -17.225199
As -5.745354 2.876298 -14.350108
As -2.870263 2.876298 -17.225199
As -2.870263 0.001207 -14.350108
As -5.745354 0.001207 -11.475017
As -5.745354 2.876298 -8.599926
As -2.870263 2.876298 -11.475017
As -2.870263 0.001207 -8.599926
As -5.745354 0.001207 -5.724835
As -5.745354 2.876298 -2.849744
As -2.870263 2.876298 -5.724835
As -2.870263 0.001207 -2.849744
As -5.745354 0.001207 0.025347
As -5.745354 2.876298 2.900438
As -2.870263 2.876298 0.025347
As -2.870263 0.001207 2.900438
As -5.745354 0.001207 5.775529
As -5.745354 2.876298 8.650620
As -2.870263 2.876298 5.775529
As -2.870263 0.001207 8.650620
As -5.745354 0.001207 11.525711
As -5.745354 2.876298 14.400802
As -2.870263 2.876298 11.525711
As -2.870263 0.001207 14.400802
As -5.745354 0.001207 17.275893
As -5.745354 2.876298 20.150985
As -2.870263 2.876298 17.275893
As -2.870263 0.001207 20.150985
As -2.870263 2.876298 23.026076
As -2.870263 5.751389 -14.350108
As -5.745354 5.751389 -11.475017
As -5.745354 8.626480 -8.599926
As -2.870263 8.626480 -11.475017
As -2.870263 5.751389 -8.599926
As -5.745354 5.751389 -5.724835
As -5.745354 8.626480 -2.849744
As -2.870263 8.626480 -5.724835
As -2.870263 5.751389 -2.849744
As -5.745354 5.751389 0.025347
As -5.745354 8.626480 2.900438
As -2.870263 8.626480 0.025347
As -2.870263 5.751389 2.900438
As -5.745354 5.751389 5.775529
As -5.745354 8.626480 8.650620
As -2.870263 8.626480 5.775529
As -2.870263 5.751389 8.650620
As -5.745354 5.751389 11.525711
As -5.745354 8.626480 14.400802
As -2.870263 8.626480 11.525711
As -2.870263 5.751389 14.400802
As -5.745354 5.751389 17.275893
As -5.745354 8.626480 20.150985
As -2.870263 8.626480 17.275893
As -2.870263 5.751389 20.150985
As -5.745354 5.751389 23.026076
As -2.870263 11.501571 -8.599926
As -5.745354 11.501571 -5.724835
As -5.745354 14.376662 -2.849744
As -2.870263 14.376662 -5.724835
As -2.870263 11.501571 -2.849744
As -5.745354 11.501571 0.025347
As -5.745354 14.376662 2.900438
As -2.870263 14.376662 0.025347
As -2.870263 11.501571 2.900438
As -5.745354 11.501571 5.775529
As -5.745354 14.376662 8.650620
As -2.870263 14.376662 5.775529
As -2.870263 11.501571 8.650620
As -5.745354 11.501571 11.525711
As -5.745354 14.376662 14.400802
As -2.870263 14.376662 11.525711
As -2.870263 11.501571 14.400802
As -5.745354 11.501571 17.275893
As -2.870263 17.251753 -2.849744
As -5.745354 17.251753 0.025347
As -5.745354 20.126844 2.900438
As -2.870263 20.126844 0.025347
As -2.870263 17.251753 2.900438
As -5.745354 17.251753 5.775529
As -5.745354 20.126844 8.650620
As -2.870263 20.126844 5.775529
As -2.870263 17.251753 8.650620
As -5.745354 17.251753 11.525711
As -2.870263 23.001935 2.900438
As -5.745354 23.001935 5.775529
As 0.004828 -20.124430 -2.849744
As 0.004828 -22.999521 0.025347
As 0.004828 -20.124430 2.900438
As 2.879919 -20.124430 0.025347
As 2.879919 -22.999521 2.900438
As 2.879919 -20.124430 5.775529
As 0.004828 -14.374248 -8.599926
As 0.004828 -17.249339 -5.724835
As 0.004828 -14.374248 -2.849744
As 2.879919 -14.374248 -5.724835
As 2.879919 -17.249339 -2.849744
As 0.004828 -17.249339 0.025347
As 0.004828 -14.374248 2.900438
As 2.879919 -14.374248 0.025347
As 2.879919 -17.249339 2.900438
As 0.004828 -17.249339 5.775529
As 0.004828 -14.374248 8.650620
As 2.879919 -14.374248 5.775529
As 2.879919 -17.249339 8.650620
As 2.879919 -14.374248 11.525711
As 0.004828 -8.624066 -14.350108
As 0.004828 -11.499157 -11.475017
As 0.004828 -8.624066 -8.599926
As 2.879919 -8.624066 -11.475017
As 2.879919 -11.499157 -8.599926
As 0.004828 -11.499157 -5.724835
As 0.004828 -8.624066 -2.849744
As 2.879919 -8.624066 -5.724835
As 2.879919 -11.499157 -2.849744
As 0.004828 -11.499157 0.025347
As 0.004828 -8.624066 2.900438
As 2.879919 -8.624066 0.025347
As 2.879919 -11.499157 2.900438
As 0.004828 -11.499157 5.775529
As 0.004828 -8.624066 8.650620
As 2.879919 -8.624066 5.775529
As 2.879919 -11.499157 8.650620
As 0.004828 -11.499157 11.525711
As 0.004828 -8.624066 14.400802
As 2.879919 -8.624066 11.525711
As 2.879919 -11.499157 14.400802
As 2.879919 -8.624066 17.275893
As 0.004828 -2.873884 -20.100290
As 0.004828 -5.748975 -17.225199
As 0.004828 -2.873884 -14.350108
As 2.879919 -2.873884 -17.225199
As 2.879919 -5.748975 -14.350108
As 0.004828 -5.748975 -11.475017
As 0.004828 -2.873884 -8.599926
As 2.879919 -2.873884 -11.475017
As 2.879919 -5.748975 -8.599926
As 0.004828 -5.748975 -5.724835
As 0.004828 -2.873884 -2.849744
As 2.879919 -2.873884 -5.724835
As 2.879919 -5.748975 -2.849744
As 0.004828 -5.748975 0.025347
As 0.004828 -2.873884 2.900438
As 2.879919 -2.873884 0.025347
As 2.879919 -5.748975 2.900438
As 0.004828 -5.748975 5.775529
As 0.004828 -2.873884 8.650620
As 2.879919 -2.873884 5.775529
As 2.879919 -5.748975 8.650620
As 0.004828 -5.748975 11.525711
As 0.004828 -2.873884 14.400802
As 2.879919 -2.873884 11.525711
As 2.879919 -5.748975 14.400802
As 0.004828 -5.748975 17.275893
As 0.004828 -2.873884 20.150985
As 2.879919 -2.873884 17.275893
As 2.879919 -5.748975 20.150985
As 2.879919 -2.873884 23.026076
As 0.004828 0.001207 -22.975381
As 0.004828 2.876298 -20.100290
As 2.879919 2.876298 -22.975381
As 2.879919 0.001207 -20.100290
As 0.004828 0.001207 -17.225199
As 0.004828 2.876298 -14.350108
As 2.879919 2.876298 -17.225199
As 2.879919 0.001207 -14.350108
As 0.004828 0.001207 -11.475017
As 0.004828 2.876298 -8.599926
As 2.879919 2.876298 -11.475017
As 2.879919 0.001207 -8.599926
As 0.004828 0.001207 -5.724835
As 0.004828 2.876298 -2.849744
As 2.879919 2.876298 -5.724835
As 2.879919 0.001207 -2.849744
As 0.004828 0.001207 0.025347
As 0.004828 2.876298 2.900438
As 2.879919 2.876298 0.025347
As 2.879919 0.001207 2.900438
As 0.004828 0.001207 5.775529
As 0.004828 2.876298 8.650620
As 2.879919 2.876298 5.775529
As 2.879919 0.001207 8.650620
As 0.004828 0.001207 11.525711
As 0.004828 2.876298 14.400802
As 2.879919 2.876298 11.525711
As 2.879919 0.001207 14.400802
As 0.004828 0.001207 17.275893
As 0.004828 2.876298 20.150985
As 2.879919 2.876298 17.275893
As 2.879919 0.001207 20.150985
As 0.004828 0.001207 23.026076
As 2.879919 5.751389 -20.100290
As 0.004828 5.751389 -17.225199
As 0.004828 8.626480 -14.350108
As 2.879919 8.626480 -17.225199
As 2.879919 5.751389 -14.350108
As 0.004828 5.751389 -11.475017
As 0.004828 8.626480 -8.599926
As 2.879919 8.626480 -11.475017
As 2.879919 5.751389 -8.599926
As 0.004828 5.751389 -5.724835
As 0.004828 8.626480 -2.849744
As 2.879919 8.626480 -5.724835
As 2.879919 5.751389 -2.849744
As 0.004828 5.751389 0.025347
As 0.004828 8.626480 2.900438
As 2.879919 8.626480 0.025347
As 2.879919 5.751389 2.900438
As 0.004828 5.751389 5.775529
As 0.004828 8.626480 8.650620
As 2.879919 8.626480 5.775529
As 2.879919 5.751389 8.650620
As 0.004828 5.751389 11.525711
As 0.004828 8.626480 14.400802
As 2.879919 8.626480 11.525711
As 2.879919 5.751389 14.400802
As 0.004828 5.751389 17.275893
As 2.879919 11.501571 -14.350108
As 0.004828 11.501571 -11.475017
As 0.004828 14.376662 -8.599926
As 2.879919 14.376662 -11.475017
As 2.879919 11.501571 -8.599926
As 0.004828 11.501571 -5.724835
As 0.004828 14.376662 -2.849744
As 2.879919 14.376662 -5.724835
As 2.879919 11.501571 -2.849744
As 0.004828 11.501571 0.025347
As 0.004828 14.376662 2.900438
As 2.879919 14.376662 0.025347
As 2.879919 11.501571 2.900438
As 0.004828 11.501571 5.775529
As 0.004828 14.376662 8.650620
As 2.879919 14.376662 5.775529
As 2.879919 11.501571 8.650620
As 0.004828 11.501571 11.525711
As 2.879919 17.251753 -8.599926
As 0.004828 17.251753 -5.724835
As 0.004828 20.126844 -2.849744
As 2.879919 20.126844 -5.724835
As 2.879919 17.251753 -2.849744
As 0.004828 17.251753 0.025347
As 0.004828 20.126844 2.900438
As 2.879919 20.126844 0.025347
As 2.879919 17.251753 2.900438
As 0.004828 17.251753 5.775529
As 2.879919 23.001935 -2.849744
As 0.004828 23.001935 0.025347
As 5.755010 -20.124430 2.900438
As 5.755010 -22.999521 5.775529
As 5.755010 -20.124430 8.650620
As 8.630101 -20.124430 5.775529
As 8.630101 -22.999521 8.650620
As 8.630101 -20.124430 11.525711
As 5.755010 -14.374248 -2.849744
As 5.755010 -17.249339 0.025347
As 5.755010 -14.374248 2.900438
As 8.630101 -14.374248 0.025347
As 8.630101 -17.249339 2.900438
As 5.755010 -17.249339 5.775529
As 5.755010 -14.374248 8.650620
As 8.630101 -14.374248 5.775529
As 8.630101 -17.249339 8.650620
As 5.755010 -17.249339 11.525711
As 5.755010 -14.374248 14.400802
As 8.630101 -14.374248 11.525711
As 8.630101 -17.249339 14.400802
As 8.630101 -14.374248 17.275893
As 5.755010 -8.624066 -8.599926
As 5.755010 -11.499157 -5.724835
As 5.755010 -8.624066 -2.849744
As 8.630101 -8.624066 -5.724835
As 8.630101 -11.499157 -2.849744
As 5.755010 -11.499157 0.025347
As 5.755010 -8.624066 2.900438
As 8.630101 -8.624066 0.025347
As 8.630101 -11.499157 2.900438
As 5.755010 -11.499157 5.775529
As 5.755010 -8.624066 8.650620
As 8.630101 -8.624066 5.775529
As 8.630101 -11.499157 8.650620
As 5.755010 -11.499157 11.525711
As 5.755010 -8.624066 14.400802
As 8.630101 -8.624066 11.525711
As 8.630101 -11.499157 14.400802
As 5.755010 -11.499157 17.275893
As 5.755010 -8.624066 20.150985
As 8.630101 -8.624066 17.275893
As 8.630101 -11.499157 20.150985
As 8.630101 -8.624066 23.026076
As 5.755010 -2.873884 -14.350108
As 5.755010 -5.748975 -11.475017
As 5.755010 -2.873884 -8.599926
As 8.630101 -2.873884 -11.475017
As 8.630101 -5.748975 -8.599926
As 5.755010 -5.748975 -5.724835
As 5.755010 -2.873884 -2.849744
As 8.630101 -2.873884 -5.724835
As 8.630101 -5.748975 -2.849744
As 5.755010 -5.748975 0.025347
As 5.755010 -2.873884 2.900438
As 8.630101 -2.873884 0.025347
As 8.630101 -5.748975 2.900438
As 5.755010 -5.748975 5.775529
As 5.755010 -2.873884 8.650620
As 8.630101 -2.873884 5.775529
As 8.630101 -5.748975 8.650620
As 5.755010 -5.748975 11.525711
As 5.755010 -2.873884 14.400802
As 8.630101 -2.873884 11.525711
As 8.630101 -5.748975 14.400802
As 5.755010 -5.748975 17.275893
As 5.755010 -2.873884 20.150985
As 8.630101 -2.873884 17.275893
As 8.630101 -5.748975 20.150985
As 5.755010 -5.748975 23.026076
As 5.755010 2.876298 -20.100290
As 5.755010 0.001207 -17.225199
As 5.755010 2.876298 -14.350108
As 8.630101 2.876298 -17.225199
As 8.630101 0.001207 -14.350108
As 5.755010 0.001207 -11.475017
As 5.755010 2.876298 -8.599926
As 8.630101 2.876298 -11.475017
As 8.630101 0.001207 -8.599926
As 5.755010 0.001207 -5.724835
As 5.755010 2.876298 -2.849744
As 8.630101 2.876298 -5.724835
As 8.630101 0.001207 -2.849744
As 5.755010 0.001207 0.025347
As 5.755010 2.876298 2.900438
As 8.630101 2.876298 0.025347
As 8.630101 0.001207 2.900438
As 5.755010 0.001207 5.775529
As 5.755010 2.876298 8.650620
As 8.630101 2.876298 5.775529
As 8.630101 0.001207 8.650620
As 5.755010 0.001207 11.525711
As 5.755010 2.876298 14.400802
As 8.630101 2.876298 11.525711
As 8.630101 0.001207 14.400802
As 5.755010 0.001207 17.275893
As 5.755010 5.751389 -22.975381
As 5.755010 8.626480 -20.100290
As 8.630101 8.626480 -22.975381
As 8.630101 5.751389 -20.100290
As 5.755010 5.751389 -17.225199
As 5.755010 8.626480 -14.350108
As 8.630101 8.626480 -17.225199
As 8.630101 5.751389 -14.350108
As 5.755010 5.751389 -11.475017
As 5.755010 8.626480 -8.599926
As 8.630101 8.626480 -11.475017
As 8.630101 5.751389 -8.599926
As 5.755010 5.751389 -5.724835
As 5.755010 8.626480 -2.849744
As 8.630101 8.626480 -5.724835
As 8.630101 5.751389 -2.849744
As 5.755010 5.751389 0.025347
As 5.755010 8.626480 2.900438
As 8.630101 8.626480 0.025347
As 8.630101 5.751389 2.900438
As 5.755010 5.751389 5.775529
As 5.755010 8.626480 8.650620
As 8.630101 8.626480 5.775529
As 8.630101 5.751389 8.650620
As 5.755010 5.751389 11.525711
As 8.630101 11.501571 -20.100290
As 5.755010 11.501571 -17.225199
As 5.755010 14.376662 -14.350108
As 8.630101 14.376662 -17.225199
As 8.630101 11.501571 -14.350108
As 5.755010 11.501571 -11.475017
As 5.755010 14.376662 -8.599926
As 8.630101 14.376662 -11.475017
As 8.630101 11.501571 -8.599926
As 5.755010 11.501571 -5.724835
As 5.755010 14.376662 -2.849744
As 8.630101 14.376662 -5.724835
As 8.630101 11.501571 -2.849744
As 5.755010 11.501571 0.025347
As 5.755010 14.376662 2.900438
As 8.630101 14.376662 0.025347
As 8.630101 11.501571 2.900438
As 5.755010 11.501571 5.775529
As 8.630101 17.251753 -14.350108
As 5.755010 17.251753 -11.475017
As 5.755010 20.126844 -8.599926
As 8.630101 20.126844 -11.475017
As 8.630101 17.251753 -8.599926
As 5.755010 17.251753 -5.724835
As 5.755010 20.126844 -2.849744
As 8.630101 20.126844 -5.724835
As 8.630101 17.251753 -2.849744
As 5.755010 17.251753 0.025347
As 8.630101 23.001935 -8.599926
As 5.755010 23.001935 -5.724835
As 11.505192 -20.124430 8.650620
As 11.505192 -22.999521 11.525711
As 11.505192 -20.124430 14.400802
As 14.380283 -20.124430 11.525711
As 14.380283 -22.999521 14.400802
As 14.380283 -20.124430 17.275893
As 11.505192 -14.374248 2.900438
As 11.505192 -17.249339 5.775529
As 11.505192 -14.374248 8.650620
As 14.380283 -14.374248 5.775529
As 14.380283 -17.249339 8.650620
As 11.505192 -17.249339 11.525711
As 11.505192 -14.374248 14.400802
As 14.380283 -14.374248 11.525711
As 14.380283 -17.249339 14.400802
As 11.505192 -17.249339 17.275893
As 11.505192 -14.374248 20.150985
As 14.380283 -14.374248 17.275893
As 14.380283 -17.249339 20.150985
As 14.380283 -14.374248 23.026076
As 11.505192 -8.624066 -2.849744
As 11.505192 -11.499157 0.025347
As 11.505192 -8.624066 2.900438
As 14.380283 -8.624066 0.025347
As 14.380283 -11.499157 2.900438
As 11.505192 -11.499157 5.775529
As 11.505192 -8.624066 8.650620
As 14.380283 -8.624066 5.775529
As 14.380283 -11.499157 8.650620
As 11.505192 -11.499157 11.525711
As 11.505192 -8.624066 14.400802
As 14.380283 -8.624066 11.525711
As 14.380283 -11.499157 14.400802
As 11.505192 -11.499157 17.275893
As 11.505192 -8.624066 20.150985
As 14.380283 -8.624066 17.275893
As 14.380283 -11.499157 20.150985
As 11.505192 -11.499157 23.026076
As 11.505192 -2.873884 -8.599926
As 11.505192 -5.748975 -5.724835
As 11.505192 -2.873884 -2.849744
As 14.380283 -2.873884 -5.724835
As 14.380283 -5.748975 -2.849744
As 11.505192 -5.748975 0.025347
As 11.505192 -2.873884 2.900438
As 14.380283 -2.873884 0.025347
As 14.380283 -5.748975 2.900438
As 11.505192 -5.748975 5.775529
As 11.505192 -2.873884 8.650620
As 14.380283 -2.873884 5.775529
As 14.380283 -5.748975 8.650620
As 11.505192 -5.748975 11.525711
As 11.505192 -2.873884 14.400802
As 14.380283 -2.873884 11.525711
As 14.380283 -5.748975 14.400802
As 11.505192 -5.748975 17.275893
As 11.505192 2.876298 -14.350108
As 11.505192 0.001207 -11.475017
As 11.505192 2.876298 -8.599926
As 14.380283 2.876298 -11.475017
As 14.380283 0.001207 -8.599926
As 11.505192 0.001207 -5.724835
As 11.505192 2.876298 -2.849744
As 14.380283 2.876298 -5.724835
As 14.380283 0.001207 -2.849744
As 11.505192 0.001207 0.025347
As 11.505192 2.876298 2.900438
As 14.380283 2.876298 0.025347
As 14.380283 0.001207 2.900438
As 11.505192 0.001207 5.775529
As 11.505192 2.876298 8.650620
As 14.380283 2.876298 5.775529
As 14.380283 0.001207 8.650620
As 11.505192 0.001207 11.525711
As 11.505192 8.626480 -20.100290
As 11.505192 5.751389 -17.225199
As 11.505192 8.626480 -14.350108
As 14.380283 8.626480 -17.225199
As 14.380283 5.751389 -14.350108
As 11.505192 5.751389 -11.475017
As 11.505192 8.626480 -8.599926
As 14.380283 8.626480 -11.475017
As 14.380283 5.751389 -8.599926
As 11.505192 5.751389 -5.724835
As 11.505192 8.626480 -2.849744
As 14.380283 8.626480 -5.724835
As 14.380283 5.751389 -2.849744
As 11.505192 5.751389 0.025347
As 11.505192 8.626480 2.900438
As 14.380283 8.626480 0.025347
As 14.380283 5.751389 2.900438
As 11.505192 5.751389 5.775529
As 11.505192 11.501571 -22.975381
As 11.505192 14.376662 -20.100290
As 14.380283 14.376662 -22.975381
As 14.380283 11.501571 -20.100290
As 11.505192 11.501571 -17.225199
As 11.505192 14.376662 -14.350108
As 14.380283 14.376662 -17.225199
As 14.380283 11.501571 -14.350108
As 11.505192 11.501571 -11.475017
As 11.505192 14.376662 -8.599926
As 14.380283 14.376662 -11.475017
As 14.380283 11.501571 -8.599926
As 11.505192 11.501571 -5.724835
As 11.505192 14.376662 -2.849744
As 14.380283 14.376662 -5.724835
As 14.380283 11.501571 -2.849744
As 11.505192 11.501571 0.025347
As 14.380283 17.251753 -20.100290
As 11.505192 17.251753 -17.225199
As 11.505192 20.126844 -14.350108
As 14.380283 20.126844 -17.225199
As 14.380283 17.251753 -14.350108
As 11.505192 17.251753 -11.475017
As 11.505192 20.126844 -8.599926
As 14.380283 20.126844 -11.475017
As 14.380283 17.251753 -8.599926
As 11.505192 17.251753 -5.724835
As 14.380283 23.001935 -14.350108
As 11.505192 23.001935 -11.475017
As 17.255374 -20.124430 14.400802
As 17.255374 -14.374248 8.650620
As 17.255374 -17.249339 11.525711
As 17.255374 -14.374248 14.400802
As 20.130465 -14.374248 11.525711
As 20.130465 -17.249339 14.400802
As 17.255374 -17.249339 17.275893
As 17.255374 -14.374248 20.150985
As 20.130465 -14.374248 17.275893
As 17.255374 -8.624066 2.900438
As 17.255374 -11.499157 5.775529
As 17.255374 -8.624066 8.650620
As 20.130465 -8.624066 5.775529
As 20.130465 -11.499157 8.650620
As 17.255374 -11.499157 11.525711
As 17.255374 -8.624066 14.400802
As 20.130465 -8.624066 11.525711
As 20.130465 -11.499157 14.400802
As 17.255374 -11.499157 17.275893
As 17.255374 -2.873884 -2.849744
As 17.255374 -5.748975 0.025347
As 17.255374 -2.873884 2.900438
As 20.130465 -2.873884 0.025347
As 20.130465 -5.748975 2.900438
As 17.255374 -5.748975 5.775529
As 17.255374 -2.873884 8.650620
As 20.130465 -2.873884 5.775529
As 20.130465 -5.748975 8.650620
As 17.255374 -5.748975 11.525711
As 17.255374 2.876298 -8.599926
As 17.255374 0.001207 -5.724835
As 17.255374 2.876298 -2.849744
As 20.130465 2.876298 -5.724835
As 20.130465 0.001207 -2.849744
As 17.255374 0.001207 0.025347
As 17.255374 2.876298 2.900438
As 20.130465 2.876298 0.025347
As 20.130465 0.001207 2.900438
As 17.255374 0.001207 5.775529
As 17.255374 8.626480 -14.350108
As 17.255374 5.751389 -11.475017
As 17.255374 8.626480 -8.599926
As 20.130465 8.626480 -11.475017
As 20.130465 5.751389 -8.599926
As 17.255374 5.751389 -5.724835
As 17.255374 8.626480 -2.849744
As 20.130465 8.626480 -5.724835
As 20.130465 5.751389 -2.849744
As 17.255374 5.751389 0.025347
As 17.255374 14.376662 -20.100290
As 17.255374 11.501571 -17.225199
As 17.255374 14.376662 -14.350108
As 20.130465 14.376662 -17.225199
As 20.130465 11.501571 -14.350108
As 17.255374 11.501571 -11.475017
As 17.255374 14.376662 -8.599926
As 20.130465 14.376662 -11.475017
As 20.130465 11.501571 -8.599926
As 17.255374 11.501571 -5.724835
As 17.255374 17.251753 -17.225199
As 17.255374 20.126844 -14.350108
As 20.130465 17.251753 -14.350108
As 17.255374 17.251753 -11.475017
As 23.005556 -14.374248 14.400802
As 23.005556 -8.624066 8.650620
As 23.005556 -11.499157 11.525711
As 23.005556 -2.873884 2.900438
As 23.005556 -5.748975 5.775529
As 23.005556 2.876298 -2.849744
As 23.005556 0.001207 0.025347
As 23.005556 8.626480 -8.599926
As 23.005556 5.751389 -5.724835
As 23.005556 14.376662 -14.350108
As 23.005556 11.501571 -11.475017
Cl -25.870991 -14.374248 -11.475017
Cl 25.880647 14.376662 -11.475017
Cl -14.370627 25.877026 11.525711
Cl 14.380283 -25.874612 11.525711
Cl -14.370627 -11.499157 -25.850472
Cl -11.495536 14.376662 25.901167
Cl 11.505192 -14.374248 25.901167
Cl 14.380283 11.501571 -25.850472
Cl -25.870991 11.501571 14.400802
Cl -11.495536 -25.874612 -14.350108
Cl 11.505192 25.877026 -14.350108
Cl 25.880647 -11.499157 14.400802
Cl -25.870991 0.001207 -2.849744
Cl -2.870263 -25.874612 0.025347
Cl 2.879919 25.877026 0.025347
Cl 25.880647 0.001207 -2.849744
Cl -5.745354 2.876298 25.901167
Cl 5.755010 -2.873884 25.901167
Cl -2.870263 -5.748975 -25.850472
Cl 2.879919 5.751389 -25.850472
Cl 2.879919 -25.874612 0.025347
Cl -2.870263 25.877026 0.025347
Cl -25.870991 0.001207 2.900438
Cl 25.880647 0.001207 2.900438
Cl -8.620445 25.877026 11.525711
Cl 8.630101 -25.874612 11.525711
Cl -25.870991 11.501571 8.650620
Cl 25.880647 -11.499157 8.650620
Cl -25.870991 -8.624066 -11.475017
Cl 25.880647 8.626480 -11.475017
Cl -11.495536 -25.874612 -8.599926
Cl 11.505192 25.877026 -8.599926
Cl -8.620445 -11.499157 -25.850472
Cl 8.630101 11.501571 -25.850472
Cl -11.495536 8.626480 25.901167
Cl 11.505192 -8.624066 25.901167
Cl -5.745354 8.626480 25.901167
Cl 5.755010 -8.624066 25.901167
Cl -8.620445 -5.748975 -25.850472
Cl 8.630101 5.751389 -25.850472
Cl -25.870991 -8.624066 -5.724835
Cl 25.880647 8.626480 -5.724835
Cl -5.745354 -25.874612 -8.599926
Cl 5.755010 25.877026 -8.599926
Cl -25.870991 5.751389 2.900438
Cl 25.880647 -5.748975 2.900438
Cl -2.870263 25.877026 5.775529
Cl 2.879919 -25.874612 5.775529
Cl -25.870991 5.751389 8.650620
Cl 25.880647 -5.748975 8.650620
Cl -8.620445 25.877026 5.775529
Cl 8.630101 -25.874612 5.775529
Cl -2.870263 0.001207 -25.850472
Cl 2.879919 0.001207 -25.850472
Cl 0.004828 -2.873884 25.901167
Cl 0.004828 2.876298 25.901167
Cl -5.745354 -25.874612 -2.849744
Cl 5.755010 25.877026 -2.849744
Cl -25.870991 -2.873884 -5.724835
Cl 25.880647 2.876298 -5.724835
Cl -8.620445 11.501571 -8.599926
Cl 8.630101 -11.499157 -8.599926
Cl -11.495536 -8.624066 8.650620
Cl 11.505192 8.626480 8.650620
Cl 0.004828 -14.374248 14.400802
Cl 0.004828 14.376662 14.400802
Cl -14.370627 0.001207 -14.350108
Cl 14.380283 0.001207 -14.350108
Cl 0.004828 -14.374248 -14.350108
Cl 0.004828 14.376662 -14.350108
Cl -14.370627 0.001207 14.400802
Cl 14.380283 0.001207 14.400802
Cl -14.370627 -14.374248 0.025347
Cl -14.370627 14.376662 0.025347
Cl 14.380283 -14.374248 0.025347
Cl 14.380283 14.376662 0.025347
Cl -5.745354 -5.748975 17.275893
Cl -5.745354 5.751389 -17.225199
Cl 5.755010 -5.748975 -17.225199
Cl 5.755010 5.751389 17.275893
Cl -5.745354 -17.249339 5.775529
Cl 5.755010 17.251753 5.775529
Cl -17.245718 5.751389 -5.724835
Cl 17.255374 -5.748975 -5.724835
Cl -11.495536 -20.124430 -20.100290
Cl 11.505192 20.126844 -20.100290
Cl -20.120809 11.501571 20.150985
Cl 20.130465 -11.499157 20.150985
Cl -20.120809 -20.124430 -11.475017
Cl -20.120809 20.126844 11.525711
Cl 20.130465 -20.124430 11.525711
Cl 20.130465 20.126844 -11.475017
Cl -11.495536 20.126844 20.150985
Cl 11.505192 -20.124430 20.150985
Cl -20.120809 -11.499157 -20.100290
Cl 20.130465 11.501571 -20.100290
Cl 2.879919 -20.124430 -5.724835
Cl -2.870263 20.126844 -5.724835
Cl -20.120809 -5.748975 2.900438
Cl 20.130465 5.751389 2.900438
Cl -20.120809 5.751389 14.400802
Cl 20.130465 -5.748975 14.400802
Cl -14.370627 20.126844 5.775529
Cl 14.380283 -20.124430 5.775529
Cl -5.745354 14.376662 20.150985
Cl 5.755010 -14.374248 20.150985
Cl -14.370627 -5.748975 -20.100290
Cl 14.380283 5.751389 -20.100290
Cl -5.745354 -20.124430 -14.350108
Cl 5.755010 20.126844 -14.350108
Cl -20.120809 -14.374248 -5.724835
Cl 20.130465 14.376662 -5.724835
Cl -20.120809 0.001207 8.650620
Cl 20.130465 0.001207 8.650620
Cl -8.620445 20.126844 0.025347
Cl 8.630101 -20.124430 0.025347
Cl -2.870263 20.126844 11.525711
Cl 2.879919 -20.124430 11.525711
Cl -2.870263 -11.499157 -20.100290
Cl 2.879919 11.501571 -20.100290
Cl -11.495536 2.876298 20.150985
Cl 11.505192 -2.873884 20.150985
Cl -20.120809 11.501571 2.900438
Cl 20.130465 -11.499157 2.900438
Cl -20.120809 -2.873884 -11.475017
Cl 20.130465 2.876298 -11.475017
Cl -11.495536 -20.124430 -2.849744
Cl 11.505192 20.126844 -2.849744
Cl -8.620445 0.001207 -20.100290
Cl 8.630101 0.001207 -20.100290
Cl 0.004828 -8.624066 20.150985
Cl 0.004828 8.626480 20.150985
Cl -5.745354 -11.499157 11.525711
Cl 5.755010 11.501571 11.525711
Cl -11.495536 5.751389 -11.475017
Cl 11.505192 -5.748975 -11.475017
Cl -11.495536 -14.374248 -25.850472
Cl 11.505192 14.376662 -25.850472
Cl -14.370627 11.501571 25.901167
Cl 14.380283 -11.499157 25.901167
Cl -25.870991 14.376662 11.525711
Cl 25.880647 -14.374248 11.525711
Cl -14.370627 -25.874612 -11.475017
Cl 14.380283 25.877026 -11.475017
Cl -11.495536 25.877026 14.400802
Cl 11.505192 -25.874612 14.400802
Cl -25.870991 -11.499157 -14.350108
Cl 25.880647 11.501571 -14.350108
Cl -2.870263 -25.874612 -5.724835
Cl 2.879919 25.877026 -5.724835
Cl -25.870991 -5.748975 -2.849744
Cl 25.880647 5.751389 -2.849744
Cl -20.120809 5.751389 -2.849744
Cl 20.130465 -5.748975 -2.849744
Cl -14.370627 -8.624066 5.775529
Cl 14.380283 8.626480 5.775529
Cl -5.745354 14.376662 -8.599926
Cl 5.755010 -14.374248 -8.599926
Cl -2.870263 -20.124430 5.775529
Cl 2.879919 20.126844 5.775529
Cl -5.745354 -2.873884 20.150985
Cl 5.755010 2.876298 20.150985
Cl 2.879919 -5.748975 -20.100290
Cl -2.870263 5.751389 -20.100290
Cl -17.245718 -20.124430 -8.599926
Cl 17.255374 20.126844 -8.599926
Cl -8.620445 -17.249339 -20.100290
Cl 8.630101 17.251753 -20.100290
Cl -17.245718 8.626480 20.150985
Cl 17.255374 -8.624066 20.150985
Cl -20.120809 17.251753 8.650620
Cl 20.130465 -17.249339 8.650620
Cl -20.120809 -8.624066 -17.225199
Cl 20.130465 8.626480 -17.225199
Cl -8.620445 20.126844 17.275893
Cl 8.630101 -20.124430 17.275893
Cl -20.120809 -8.624066 0.025347
Cl 20.130465 8.626480 0.025347
Cl 0.004828 -20.124430 -8.599926
Cl 0.004828 20.126844 -8.599926
Cl -14.370627 11.501571 -2.849744
Cl 14.380283 -11.499157 -2.849744
Cl -11.495536 -2.873884 14.400802
Cl 11.505192 2.876298 14.400802
Cl -8.620445 -20.124430 0.025347
Cl 8.630101 20.126844 0.025347
Cl -20.120809 0.001207 -8.599926
Cl 20.130465 0.001207 -8.599926
Cl 2.879919 -11.499157 -14.350108
Cl -2.870263 11.501571 -14.350108
Cl -17.245718 -2.873884 8.650620
Cl 17.255374 2.876298 8.650620
Cl -8.620445 17.251753 -2.849744
Cl 8.630101 -17.249339 -2.849744
Cl -8.620445 -14.374248 5.775529
Cl 8.630101 14.376662 5.775529
Cl -8.620445 11.501571 25.901167
Cl 8.630101 -11.499157 25.901167
Cl -11.495536 -8.624066 -25.850472
Cl 11.505192 8.626480 -25.850472
Cl -25.870991 8.626480 11.525711
Cl 25.880647 -8.624066 11.525711
Cl -11.495536 25.877026 8.650620
Cl 11.505192 -25.874612 8.650620
Cl 0.004828 -2.873884 -25.850472
Cl 0.004828 2.876298 -25.850472
Cl 2.879919 0.001207 25.901167
Cl -2.870263 0.001207 25.901167
Cl -25.870991 -11.499157 -8.599926
Cl 25.880647 11.501571 -8.599926
Cl -8.620445 -25.874612 -11.475017
Cl 8.630101 25.877026 -11.475017
Cl -5.745354 25.877026 8.650620
Cl 5.755010 -25.874612 8.650620
Cl -25.870991 8.626480 5.775529
Cl 25.880647 -8.624066 5.775529
Cl -25.870991 2.876298 5.775529
Cl 25.880647 -2.873884 5.775529
Cl -5.745354 25.877026 2.900438
Cl 5.755010 -25.874612 2.900438
Cl -5.745354 -8.624066 -25.850472
Cl 5.755010 8.626480 -25.850472
Cl -8.620445 5.751389 25.901167
Cl 8.630101 -5.748975 25.901167
Cl -5.745354 -2.873884 -25.850472
Cl 5.755010 2.876298 -25.850472
Cl -2.870263 5.751389 25.901167
Cl 2.879919 -5.748975 25.901167
Cl -25.870991 -5.748975 -8.599926
Cl 25.880647 5.751389 -8.599926
Cl -8.620445 -25.874612 -5.724835
Cl 8.630101 25.877026 -5.724835
Cl -11.495536 17.251753 23.026076
Cl 11.505192 -17.249339 23.026076
Cl -11.495536 -22.999521 -17.225199
Cl 11.505192 23.001935 -17.225199
Cl -22.995900 -17.249339 -11.475017
Cl 23.005556 17.251753 -11.475017
Cl -17.245718 -11.499157 -22.975381
Cl 17.255374 11.501571 -22.975381
Cl -17.245718 23.001935 11.525711
Cl 17.255374 -22.999521 11.525711
Cl -22.995900 11.501571 17.275893
Cl 23.005556 -11.499157 17.275893
Cl -25.870991 2.876298 0.025347
Cl 25.880647 -2.873884 0.025347
Cl 0.004828 -25.874612 2.900438
Cl 0.004828 25.877026 2.900438
Cl -25.870991 -2.873884 0.025347
Cl 25.880647 2.876298 0.025347
Cl 0.004828 -25.874612 -2.849744
Cl 0.004828 25.877026 -2.849744
Cl -2.870263 14.376662 17.275893
Cl 2.879919 -14.374248 17.275893
Cl -11.495536 0.001207 -17.225199
Cl 11.505192 0.001207 -17.225199
Cl -17.245718 -14.374248 -2.849744
Cl 17.255374 14.376662 -2.849744
Cl -14.370627 5.751389 -8.599926
Cl 14.380283 -5.748975 -8.599926
Cl -5.745354 -8.624066 14.400802
Cl 5.755010 8.626480 14.400802
Cl -2.870263 -17.249339 -14.350108
Cl 2.879919 17.251753 -14.350108
Cl -14.370627 5.751389 20.150985
Cl 14.380283 -5.748975 20.150985
Cl -20.120809 14.376662 5.775529
Cl 20.130465 -14.374248 5.775529
Cl 0.004828 -17.249339 11.525711
Cl 0.004828 17.251753 11.525711
Cl -20.120809 -5.748975 -14.350108
Cl 20.130465 5.751389 -14.350108
Cl -5.745354 -14.374248 -20.100290
Cl 5.755010 14.376662 -20.100290
Cl -20.120809 2.876298 11.525711
Cl 20.130465 -2.873884 11.525711
Cl -11.495536 20.126844 2.900438
Cl 11.505192 -20.124430 2.900438
Cl -14.370627 -20.124430 -5.724835
Cl 14.380283 20.126844 -5.724835
Cl -8.620445 5.751389 -14.350108
Cl 8.630101 -5.748975 -14.350108
Cl -5.745354 20.126844 14.400802
Cl 5.755010 -20.124430 14.400802
Cl -8.620445 0.001207 20.150985
Cl 8.630101 0.001207 20.150985
Cl -20.120809 8.626480 0.025347
Cl 20.130465 -8.624066 0.025347
Cl -14.370627 -11.499157 2.900438
Cl 14.380283 11.501571 2.900438
Cl 0.004828 -8.624066 -20.100290
Cl 0.004828 8.626480 -20.100290
Cl -11.495536 11.501571 -5.724835
Cl 11.505192 -11.499157 -5.724835
Cl -11.495536 -5.748975 11.525711
Cl 11.505192 5.751389 11.525711
Cl -22.995900 -11.499157 -17.225199
Cl 23.005556 11.501571 -17.225199
Cl -17.245718 11.501571 23.026076
Cl 17.255374 -11.499157 23.026076
Cl -22.995900 17.251753 11.525711
Cl 23.005556 -17.249339 11.525711
Cl -11.495536 23.001935 17.275893
Cl 11.505192 -22.999521 17.275893
Cl -17.245718 -22.999521 -11.475017
Cl 17.255374 23.001935 -11.475017
Cl -11.495536 -17.249339 -22.975381
Cl 11.505192 17.251753 -22.975381
Cl -2.870263 8.626480 23.026076
Cl 2.879919 -8.624066 23.026076
Cl -11.495536 -5.748975 -22.975381
Cl 11.505192 5.751389 -22.975381
Cl 0.004828 -22.999521 5.775529
Cl 0.004828 23.001935 5.775529
Cl -5.745354 -22.999521 -11.475017
Cl 5.755010 23.001935 -11.475017
Cl -22.995900 -11.499157 -5.724835
Cl 23.005556 11.501571 -5.724835
Cl 2.879919 -22.999521 -2.849744
Cl -2.870263 23.001935 -2.849744
Cl -22.995900 0.001207 -5.724835
Cl 23.005556 0.001207 -5.724835
Cl -22.995900 -2.873884 2.900438
Cl 23.005556 2.876298 2.900438
Cl -5.745354 0.001207 -22.975381
Cl 5.755010 0.001207 -22.975381
Cl -5.745354 -22.999521 0.025347
Cl 5.755010 23.001935 0.025347
Cl 2.879919 -17.249339 -8.599926
Cl -2.870263 17.251753 -8.599926
Cl -17.245718 2.876298 14.400802
Cl 17.255374 -2.873884 14.400802
Cl -14.370627 17.251753 2.900438
Cl 14.380283 -17.249339 2.900438
Cl -2.870263 -2.873884 23.026076
Cl 2.879919 2.876298 23.026076
Cl -5.745354 -14.374248 8.650620
Cl 5.755010 14.376662 8.650620
Cl -17.245718 -2.873884 -14.350108
Cl 17.255374 2.876298 -14.350108
Cl 0.004828 -11.499157 17.275893
Cl 0.004828 11.501571 17.275893
Cl -5.745354 8.626480 -14.350108
Cl 5.755010 -8.624066 -14.350108
Cl -11.495536 -17.249339 0.025347
Cl 11.505192 17.251753 0.025347
Cl -17.245718 2.876298 -8.599926
Cl 17.255374 -2.873884 -8.599926
Cl -17.245718 -5.748975 5.775529
Cl 17.255374 5.751389 5.775529
Cl -14.370627 23.001935 8.650620
Cl 14.380283 -22.999521 8.650620
Cl -8.620445 14.376662 23.026076
Cl 8.630101 -14.374248 23.026076
Cl -5.745354 -11.499157 -22.975381
Cl 5.755010 11.501571 -22.975381
Cl -22.995900 8.626480 14.400802
Cl 23.005556 -8.624066 14.400802
Cl -22.995900 8.626480 2.900438
Cl 23.005556 -8.624066 2.900438
Cl -11.495536 5.751389 23.026076
Cl 11.505192 -5.748975 23.026076
Cl -17.245718 -8.624066 -20.100290
Cl 17.255374 8.626480 -20.100290
Cl -5.745354 23.001935 11.525711
Cl 5.755010 -22.999521 11.525711
Cl -8.620445 -20.124430 -17.225199
Cl 8.630101 20.126844 -17.225199
Cl -20.120809 -17.249339 -8.599926
Cl 20.130465 17.251753 -8.599926
Cl 0.004828 -5.748975 -22.975381
Cl 0.004828 5.751389 -22.975381
Cl -8.620445 23.001935 2.900438
Cl 8.630101 -22.999521 2.900438
Cl -22.995900 2.876298 8.650620
Cl 23.005556 -2.873884 8.650620
Cl -11.495536 -22.999521 -5.724835
Cl 11.505192 23.001935 -5.724835
Cl -2.870263 -22.999521 -8.599926
Cl 2.879919 23.001935 -8.599926
Cl -22.995900 -8.624066 -2.849744
Cl 23.005556 8.626480 -2.849744
Cl -22.995900 -5.748975 -11.475017
Cl 23.005556 5.751389 -11.475017
Cl -8.620445 14.376662 -5.724835
Cl 8.630101 -14.374248 -5.724835
Cl -8.620445 -5.748975 14.400802
Cl 8.630101 5.751389 14.400802
Cl -22.995900 2.876298 -2.849744
Cl 23.005556 -2.873884 -2.849744
Cl 0.004828 -20.124430 8.650620
Cl 0.004828 20.126844 8.650620
Cl -11.495536 -2.873884 -20.100290
