416
CsPbBr3-Cs-Cs112Pb64Br240-clean
Cs -12.011658 -11.925861 -5.977230
Cs -12.011658 -11.925861 5.920032
Cs -12.011658 -5.977230 -11.925861
Cs -12.011658 -5.977230 -5.977230
Cs -12.011658 -5.977230 -0.028599
Cs -12.011658 -5.977230 5.920032
Cs -12.011658 -5.977230 11.868662
Cs -12.011658 -0.028599 -5.977230
Cs -12.011658 -0.028599 -0.028599
Cs -12.011658 -0.028599 5.920032
Cs -12.011658 5.920032 -11.925861
Cs -12.011658 5.920032 -5.977230
Cs -12.011658 5.920032 -0.028599
Cs -12.011658 5.920032 5.920032
Cs -12.011658 5.920032 11.868662
Cs -12.011658 11.868662 -5.977230
Cs -12.011658 11.868662 5.920032
Cs -6.063028 -11.925861 -11.925861
Cs -6.063028 -11.925861 -5.977230
Cs -6.063028 -11.925861 -0.028599
Cs -6.063028 -11.925861 5.920032
Cs -6.063028 -11.925861 11.868662
Cs -6.063028 -5.977230 -11.925861
Cs -6.063028 -5.977230 -5.977230
Cs -6.063028 -5.977230 -0.028599
Cs -6.063028 -5.977230 5.920032
Cs -6.063028 -5.977230 11.868662
Cs -6.063028 -0.028599 -11.925861
Cs -6.063028 -0.028599 -5.977230
Cs -6.063028 -0.028599 -0.028599
Cs -6.063028 -0.028599 5.920032
Cs -6.063028 -0.028599 11.868662
Cs -6.063028 5.920032 -11.925861
Cs -6.063028 5.920032 -5.977230
Cs -6.063028 5.920032 -0.028599
Cs -6.063028 5.920032 5.920032
Cs -6.063028 5.920032 11.868662
Cs -6.063028 11.868662 -11.925861
Cs -6.063028 11.868662 -5.977230
Cs -6.063028 11.868662 -0.028599
Cs -6.063028 11.868662 5.920032
Cs -6.063028 11.868662 11.868662
Cs -0.114397 -11.925861 -5.977230
Cs -0.114397 -11.925861 -0.028599
Cs -0.114397 -11.925861 5.920032
Cs -0.114397 -11.925861 11.868662
Cs -0.114397 -5.977230 -11.925861
Cs -0.114397 -5.977230 -5.977230
Cs -0.114397 -5.977230 -0.028599
Cs -0.114397 -5.977230 5.920032
Cs -0.114397 -5.977230 11.868662
Cs -0.114397 -0.028599 -11.925861
Cs -0.114397 -0.028599 -5.977230
Cs -0.114397 -0.028599 -0.028599
Cs -0.114397 -0.028599 5.920032
Cs -0.114397 -0.028599 11.868662
Cs -0.114397 5.920032 -11.925861
Cs -0.114397 5.920032 -5.977230
Cs -0.114397 5.920032 -0.028599
Cs -0.114397 5.920032 5.920032
Cs -0.114397 5.920032 11.868662
Cs -0.114397 11.868662 -11.925861
Cs -0.114397 11.868662 -5.977230
Cs -0.114397 11.868662 -0.028599
Cs -0.114397 11.868662 5.920032
Cs -0.114397 11.868662 11.868662
Cs 5.834234 -11.925861 -11.925861
Cs 5.834234 -11.925861 -5.977230
Cs 5.834234 -11.925861 -0.028599
Cs 5.834234 -11.925861 5.920032
Cs 5.834234 -11.925861 11.868662
Cs 5.834234 -5.977230 -11.925861
Cs 5.834234 -5.977230 -5.977230
Cs 5.834234 -5.977230 -0.028599
Cs 5.834234 -5.977230 5.920032
Cs 5.834234 -5.977230 11.868662
Cs 5.834234 -0.028599 -11.925861
Cs 5.834234 -0.028599 -5.977230
Cs 5.834234 -0.028599 -0.028599
Cs 5.834234 -0.028599 5.920032
Cs 5.834234 -0.028599 11.868662
Cs 5.834234 5.920032 -11.925861
Cs 5.834234 5.920032 -5.977230
Cs 5.834234 5.920032 -0.028599
Cs 5.834234 5.920032 5.920032
Cs 5.834234 5.920032 11.868662
Cs 5.834234 11.868662 -11.925861
Cs 5.834234 11.868662 -5.977230
Cs 5.834234 11.868662 -0.028599
Cs 5.834234 11.868662 5.920032
Cs 5.834234 11.868662 11.868662
Cs 11.782865 -11.925861 -5.977230
Cs 11.782865 -11.925861 -0.028599
Cs 11.782865 -11.925861 5.920032
Cs 11.782865 -5.977230 -11.925861
Cs 11.782865 -5.977230 -5.977230
Cs 11.782865 -5.977230 -0.028599
Cs 11.782865 -5.977230 5.920032
Cs 11.782865 -5.977230 11.868662
Cs 11.782865 -0.028599 -11.925861
Cs 11.782865 -0.028599 -5.977230
Cs 11.782865 -0.028599 -0.028599
Cs 11.782865 -0.028599 5.920032
Cs 11.782865 -0.028599 11.868662
Cs 11.782865 5.920032 -11.925861
Cs 11.782865 5.920032 -5.977230
Cs 11.782865 5.920032 -0.028599
Cs 11.782865 5.920032 5.920032
Cs 11.782865 5.920032 11.868662
Cs 11.782865 11.868662 -5.977230
Cs 11.782865 11.868662 -0.028599
Cs 11.782865 11.868662 5.920032
Pb -9.037343 -8.951545 -8.951545
Pb -9.037343 -8.951545 -3.002915
Pb -9.037343 -8.951545 2.945716
Pb -9.037343 -8.951545 8.894347
Pb -9.037343 -3.002915 -8.951545
Pb -9.037343 -3.002915 -3.002915
Pb -9.037343 -3.002915 2.945716
Pb -9.037343 -3.002915 8.894347
Pb -9.037343 2.945716 -8.951545
Pb -9.037343 2.945716 -3.002915
Pb -9.037343 2.945716 2.945716
Pb -9.037343 2.945716 8.894347
Pb -9.037343 8.894347 -8.951545
Pb -9.037343 8.894347 -3.002915
Pb -9.037343 8.894347 2.945716
Pb -9.037343 8.894347 8.894347
Pb -3.088712 -8.951545 -8.951545
Pb -3.088712 -8.951545 -3.002915
Pb -3.088712 -8.951545 2.945716
Pb -3.088712 -8.951545 8.894347
Pb -3.088712 -3.002915 -8.951545
Pb -3.088712 -3.002915 -3.002915
Pb -3.088712 -3.002915 2.945716
Pb -3.088712 -3.002915 8.894347
Pb -3.088712 2.945716 -8.951545
Pb -3.088712 2.945716 -3.002915
Pb -3.088712 2.945716 2.945716
Pb -3.088712 2.945716 8.894347
Pb -3.088712 8.894347 -8.951545
Pb -3.088712 8.894347 -3.002915
Pb -3.088712 8.894347 2.945716
Pb -3.088712 8.894347 8.894347
Pb 2.859919 -8.951545 -8.951545
Pb 2.859919 -8.951545 -3.002915
Pb 2.859919 -8.951545 2.945716
Pb 2.859919 -8.951545 8.894347
Pb 2.859919 -3.002915 -8.951545
Pb 2.859919 -3.002915 -3.002915
Pb 2.859919 -3.002915 2.945716
Pb 2.859919 -3.002915 8.894347
Pb 2.859919 2.945716 -8.951545
Pb 2.859919 2.945716 -3.002915
Pb 2.859919 2.945716 2.945716
Pb 2.859919 2.945716 8.894347
Pb 2.859919 8.894347 -8.951545
Pb 2.859919 8.894347 -3.002915
Pb 2.859919 8.894347 2.945716
Pb 2.859919 8.894347 8.894347
Pb 8.808549 -8.951545 -8.951545
Pb 8.808549 -8.951545 -3.002915
Pb 8.808549 -8.951545 2.945716
Pb 8.808549 -8.951545 8.894347
Pb 8.808549 -3.002915 -8.951545
Pb 8.808549 -3.002915 -3.002915
Pb 8.808549 -3.002915 2.945716
Pb 8.808549 -3.002915 8.894347
Pb 8.808549 2.945716 -8.951545
Pb 8.808549 2.945716 -3.002915
Pb 8.808549 2.945716 2.945716
Pb 8.808549 2.945716 8.894347
Pb 8.808549 8.894347 -8.951545
Pb 8.808549 8.894347 -3.002915
Pb 8.808549 8.894347 2.945716
Pb 8.808549 8.894347 8.894347
Br -12.011658 -8.951545 -8.951545
Br -9.037343 -11.925861 -8.951545
Br -9.037343 -8.951545 -11.925861
Br -12.011658 -8.951545 -3.002915
Br -9.037343 -11.925861 -3.002915
Br -9.037343 -8.951545 -5.977230
Br -12.011658 -8.951545 2.945716
Br -9.037343 -11.925861 2.945716
Br -9.037343 -8.951545 -0.028599
Br -12.011658 -8.951545 8.894347
Br -9.037343 -11.925861 8.894347
Br -9.037343 -8.951545 5.920032
Br -9.037343 -8.951545 11.868662
Br -12.011658 -3.002915 -8.951545
Br -9.037343 -5.977230 -8.951545
Br -9.037343 -3.002915 -11.925861
Br -12.011658 -3.002915 -3.002915
Br -9.037343 -5.977230 -3.002915
Br -9.037343 -3.002915 -5.977230
Br -12.011658 -3.002915 2.945716
Br -9.037343 -5.977230 2.945716
Br -9.037343 -3.002915 -0.028599
Br -12.011658 -3.002915 8.894347
Br -9.037343 -5.977230 8.894347
Br -9.037343 -3.002915 5.920032
Br -9.037343 -3.002915 11.868662
Br -12.011658 2.945716 -8.951545
Br -9.037343 -0.028599 -8.951545
Br -9.037343 2.945716 -11.925861
Br -12.011658 2.945716 -3.002915
Br -9.037343 -0.028599 -3.002915
Br -9.037343 2.945716 -5.977230
Br -12.011658 2.945716 2.945716
Br -9.037343 -0.028599 2.945716
Br -9.037343 2.945716 -0.028599
Br -12.011658 2.945716 8.894347
Br -9.037343 -0.028599 8.894347
Br -9.037343 2.945716 5.920032
Br -9.037343 2.945716 11.868662
Br -12.011658 8.894347 -8.951545
Br -9.037343 5.920032 -8.951545
Br -9.037343 8.894347 -11.925861
Br -12.011658 8.894347 -3.002915
Br -9.037343 5.920032 -3.002915
Br -9.037343 8.894347 -5.977230
Br -12.011658 8.894347 2.945716
Br -9.037343 5.920032 2.945716
Br -9.037343 8.894347 -0.028599
Br -12.011658 8.894347 8.894347
Br -9.037343 5.920032 8.894347
Br -9.037343 8.894347 5.920032
Br -9.037343 8.894347 11.868662
Br -9.037343 11.868662 -8.951545
Br -9.037343 11.868662 -3.002915
Br -9.037343 11.868662 2.945716
Br -9.037343 11.868662 8.894347
Br -6.063028 -8.951545 -8.951545
Br -3.088712 -11.925861 -8.951545
Br -3.088712 -8.951545 -11.925861
Br -6.063028 -8.951545 -3.002915
Br -3.088712 -11.925861 -3.002915
Br -3.088712 -8.951545 -5.977230
Br -6.063028 -8.951545 2.945716
Br -3.088712 -11.925861 2.945716
Br -3.088712 -8.951545 -0.028599
Br -6.063028 -8.951545 8.894347
Br -3.088712 -11.925861 8.894347
Br -3.088712 -8.951545 5.920032
Br -3.088712 -8.951545 11.868662
Br -6.063028 -3.002915 -8.951545
Br -3.088712 -5.977230 -8.951545
Br -3.088712 -3.002915 -11.925861
Br -6.063028 -3.002915 -3.002915
Br -3.088712 -5.977230 -3.002915
Br -3.088712 -3.002915 -5.977230
Br -6.063028 -3.002915 2.945716
Br -3.088712 -5.977230 2.945716
Br -3.088712 -3.002915 -0.028599
Br -6.063028 -3.002915 8.894347
Br -3.088712 -5.977230 8.894347
Br -3.088712 -3.002915 5.920032
Br -3.088712 -3.002915 11.868662
Br -6.063028 2.945716 -8.951545
Br -3.088712 -0.028599 -8.951545
Br -3.088712 2.945716 -11.925861
Br -6.063028 2.945716 -3.002915
Br -3.088712 -0.028599 -3.002915
Br -3.088712 2.945716 -5.977230
Br -6.063028 2.945716 2.945716
Br -3.088712 -0.028599 2.945716
Br -3.088712 2.945716 -0.028599
Br -6.063028 2.945716 8.894347
Br -3.088712 -0.028599 8.894347
Br -3.088712 2.945716 5.920032
Br -3.088712 2.945716 11.868662
Br -6.063028 8.894347 -8.951545
Br -3.088712 5.920032 -8.951545
Br -3.088712 8.894347 -11.925861
Br -6.063028 8.894347 -3.002915
Br -3.088712 5.920032 -3.002915
Br -3.088712 8.894347 -5.977230
Br -6.063028 8.894347 2.945716
Br -3.088712 5.920032 2.945716
Br -3.088712 8.894347 -0.028599
Br -6.063028 8.894347 8.894347
Br -3.088712 5.920032 8.894347
Br -3.088712 8.894347 5.920032
Br -3.088712 8.894347 11.868662
Br -3.088712 11.868662 -8.951545
Br -3.088712 11.868662 -3.002915
Br -3.088712 11.868662 2.945716
Br -3.088712 11.868662 8.894347
Br -0.114397 -8.951545 -8.951545
Br 2.859919 -11.925861 -8.951545
Br 2.859919 -8.951545 -11.925861
Br -0.114397 -8.951545 -3.002915
Br 2.859919 -11.925861 -3.002915
Br 2.859919 -8.951545 -5.977230
Br -0.114397 -8.951545 2.945716
Br 2.859919 -11.925861 2.945716
Br 2.859919 -8.951545 -0.028599
Br -0.114397 -8.951545 8.894347
Br 2.859919 -11.925861 8.894347
Br 2.859919 -8.951545 5.920032
Br 2.859919 -8.951545 11.868662
Br -0.114397 -3.002915 -8.951545
Br 2.859919 -5.977230 -8.951545
Br 2.859919 -3.002915 -11.925861
Br -0.114397 -3.002915 -3.002915
Br 2.859919 -5.977230 -3.002915
Br 2.859919 -3.002915 -5.977230
Br -0.114397 -3.002915 2.945716
Br 2.859919 -5.977230 2.945716
Br 2.859919 -3.002915 -0.028599
Br -0.114397 -3.002915 8.894347
Br 2.859919 -5.977230 8.894347
Br 2.859919 -3.002915 5.920032
Br 2.859919 -3.002915 11.868662
Br -0.114397 2.945716 -8.951545
Br 2.859919 -0.028599 -8.951545
Br 2.859919 2.945716 -11.925861
Br -0.114397 2.945716 -3.002915
Br 2.859919 -0.028599 -3.002915
Br 2.859919 2.945716 -5.977230
Br -0.114397 2.945716 2.945716
Br 2.859919 -0.028599 2.945716
Br 2.859919 2.945716 -0.028599
Br -0.114397 2.945716 8.894347
Br 2.859919 -0.028599 8.894347
Br 2.859919 2.945716 5.920032
Br 2.859919 2.945716 11.868662
Br -0.114397 8.894347 -8.951545
Br 2.859919 5.920032 -8.951545
Br 2.859919 8.894347 -11.925861
Br -0.114397 8.894347 -3.002915
Br 2.859919 5.920032 -3.002915
Br 2.859919 8.894347 -5.977230
Br -0.114397 8.894347 2.945716
Br 2.859919 5.920032 2.945716
Br 2.859919 8.894347 -0.028599
Br -0.114397 8.894347 8.894347
Br 2.859919 5.920032 8.894347
Br 2.859919 8.894347 5.920032
Br 2.859919 8.894347 11.868662
Br 2.859919 11.868662 -8.951545
Br 2.859919 11.868662 -3.002915
Br 2.859919 11.868662 2.945716
Br 2.859919 11.868662 8.894347
Br 5.834234 -8.951545 -8.951545
Br 8.808549 -11.925861 -8.951545
Br 8.808549 -8.951545 -11.925861
Br 5.834234 -8.951545 -3.002915
Br 8.808549 -11.925861 -3.002915
Br 8.808549 -8.951545 -5.977230
Br 5.834234 -8.951545 2.945716
Br 8.808549 -11.925861 2.945716
Br 8.808549 -8.951545 -0.028599
Br 5.834234 -8.951545 8.894347
Br 8.808549 -11.925861 8.894347
Br 8.808549 -8.951545 5.920032
Br 8.808549 -8.951545 11.868662
Br 5.834234 -3.002915 -8.951545
Br 8.808549 -5.977230 -8.951545
Br 8.808549 -3.002915 -11.925861
Br 5.834234 -3.002915 -3.002915
Br 8.808549 -5.977230 -3.002915
Br 8.808549 -3.002915 -5.977230
Br 5.834234 -3.002915 2.945716
Br 8.808549 -5.977230 2.945716
Br 8.808549 -3.002915 -0.028599
Br 5.834234 -3.002915 8.894347
Br 8.808549 -5.977230 8.894347
Br 8.808549 -3.002915 5.920032
Br 8.808549 -3.002915 11.868662
Br 5.834234 2.945716 -8.951545
Br 8.808549 -0.028599 -8.951545
Br 8.808549 2.945716 -11.925861
Br 5.834234 2.945716 -3.002915
Br 8.808549 -0.028599 -3.002915
Br 8.808549 2.945716 -5.977230
Br 5.834234 2.945716 2.945716
Br 8.808549 -0.028599 2.945716
Br 8.808549 2.945716 -0.028599
Br 5.834234 2.945716 8.894347
Br 8.808549 -0.028599 8.894347
Br 8.808549 2.945716 5.920032
Br 8.808549 2.945716 11.868662
Br 5.834234 8.894347 -8.951545
Br 8.808549 5.920032 -8.951545
Br 8.808549 8.894347 -11.925861
Br 5.834234 8.894347 -3.002915
Br 8.808549 5.920032 -3.002915
Br 8.808549 8.894347 -5.977230
Br 5.834234 8.894347 2.945716
Br 8.808549 5.920032 2.945716
Br 8.808549 8.894347 -0.028599
Br 5.834234 8.894347 8.894347
Br 8.808549 5.920032 8.894347
Br 8.808549 8.894347 5.920032
Br 8.808549 8.894347 11.868662
Br 8.808549 11.868662 -8.951545
Br 8.808549 11.868662 -3.002915
Br 8.808549 11.868662 2.945716
Br 8.808549 11.868662 8.894347
Br 11.782865 -8.951545 -8.951545
Br 11.782865 -8.951545 -3.002915
Br 11.782865 -8.951545 2.945716
Br 11.782865 -8.951545 8.894347
Br 11.782865 -3.002915 -8.951545
Br 11.782865 -3.002915 -3.002915
Br 11.782865 -3.002915 2.945716
Br 11.782865 -3.002915 8.894347
Br 11.782865 2.945716 -8.951545
Br 11.782865 2.945716 -3.002915
Br 11.782865 2.945716 2.945716
Br 11.782865 2.945716 8.894347
Br 11.782865 8.894347 -8.951545
Br 11.782865 8.894347 -3.002915
Br 11.782865 8.894347 2.945716
Br 11.782865 8.894347 8.894347
