1901
CdTe-Te-Cd904Te811Cl186-clean
Cd -18.044718 -18.068890 -1.634151
Cd -18.044718 -11.504663 -8.198378
Cd -18.044718 -14.786776 -4.916264
Cd -21.326832 -11.504663 -4.916264
Cd -21.326832 -14.786776 -1.634151
Cd -18.044718 -11.504663 -1.634151
Cd -18.044718 -14.786776 1.647963
Cd -21.326832 -11.504663 1.647963
Cd -18.044718 -11.504663 4.930076
Cd -18.044718 -4.940436 -14.762605
Cd -18.044718 -8.222549 -11.480491
Cd -21.326832 -4.940436 -11.480491
Cd -21.326832 -8.222549 -8.198378
Cd -18.044718 -4.940436 -8.198378
Cd -18.044718 -8.222549 -4.916264
Cd -21.326832 -4.940436 -4.916264
Cd -21.326832 -8.222549 -1.634151
Cd -18.044718 -4.940436 -1.634151
Cd -18.044718 -8.222549 1.647963
Cd -21.326832 -4.940436 1.647963
Cd -21.326832 -8.222549 4.930076
Cd -18.044718 -4.940436 4.930076
Cd -18.044718 -8.222549 8.212190
Cd -21.326832 -4.940436 8.212190
Cd -18.044718 -4.940436 11.494304
Cd -18.044718 -1.658322 -18.044718
Cd -21.326832 -1.658322 -14.762605
Cd -18.044718 1.623792 -14.762605
Cd -18.044718 -1.658322 -11.480491
Cd -21.326832 1.623792 -11.480491
Cd -21.326832 -1.658322 -8.198378
Cd -18.044718 1.623792 -8.198378
Cd -18.044718 -1.658322 -4.916264
Cd -21.326832 1.623792 -4.916264
Cd -21.326832 -1.658322 -1.634151
Cd -18.044718 1.623792 -1.634151
Cd -18.044718 -1.658322 1.647963
Cd -21.326832 1.623792 1.647963
Cd -21.326832 -1.658322 4.930076
Cd -18.044718 1.623792 4.930076
Cd -18.044718 -1.658322 8.212190
Cd -21.326832 1.623792 8.212190
Cd -21.326832 -1.658322 11.494304
Cd -18.044718 1.623792 11.494304
Cd -18.044718 -1.658322 14.776417
Cd -21.326832 1.623792 14.776417
Cd -18.044718 1.623792 18.058531
Cd -18.044718 4.905905 -11.480491
Cd -21.326832 4.905905 -8.198378
Cd -18.044718 8.188019 -8.198378
Cd -18.044718 4.905905 -4.916264
Cd -21.326832 8.188019 -4.916264
Cd -21.326832 4.905905 -1.634151
Cd -18.044718 8.188019 -1.634151
Cd -18.044718 4.905905 1.647963
Cd -21.326832 8.188019 1.647963
Cd -21.326832 4.905905 4.930076
Cd -18.044718 8.188019 4.930076
Cd -18.044718 4.905905 8.212190
Cd -21.326832 8.188019 8.212190
Cd -21.326832 4.905905 11.494304
Cd -18.044718 8.188019 11.494304
Cd -18.044718 4.905905 14.776417
Cd -18.044718 11.470132 -4.916264
Cd -21.326832 11.470132 -1.634151
Cd -18.044718 14.752246 -1.634151
Cd -18.044718 11.470132 1.647963
Cd -21.326832 14.752246 1.647963
Cd -21.326832 11.470132 4.930076
Cd -18.044718 14.752246 4.930076
Cd -18.044718 11.470132 8.212190
Cd -18.044718 18.034359 1.647963
Cd -11.480491 -18.068890 -8.198378
Cd -11.480491 -21.351003 -4.916264
Cd -14.762605 -18.068890 -4.916264
Cd -14.762605 -21.351003 -1.634151
Cd -11.480491 -18.068890 -1.634151
Cd -11.480491 -21.351003 1.647963
Cd -14.762605 -18.068890 1.647963
Cd -11.480491 -18.068890 4.930076
Cd -11.480491 -11.504663 -14.762605
Cd -11.480491 -14.786776 -11.480491
Cd -14.762605 -11.504663 -11.480491
Cd -14.762605 -14.786776 -8.198378
Cd -11.480491 -11.504663 -8.198378
Cd -11.480491 -14.786776 -4.916264
Cd -14.762605 -11.504663 -4.916264
Cd -14.762605 -14.786776 -1.634151
Cd -11.480491 -11.504663 -1.634151
Cd -11.480491 -14.786776 1.647963
Cd -14.762605 -11.504663 1.647963
Cd -14.762605 -14.786776 4.930076
Cd -11.480491 -11.504663 4.930076
Cd -11.480491 -14.786776 8.212190
Cd -14.762605 -11.504663 8.212190
Cd -11.480491 -11.504663 11.494304
Cd -11.480491 -4.940436 -21.326832
Cd -11.480491 -8.222549 -18.044718
Cd -14.762605 -4.940436 -18.044718
Cd -14.762605 -8.222549 -14.762605
Cd -11.480491 -4.940436 -14.762605
Cd -11.480491 -8.222549 -11.480491
Cd -14.762605 -4.940436 -11.480491
Cd -14.762605 -8.222549 -8.198378
Cd -11.480491 -4.940436 -8.198378
Cd -11.480491 -8.222549 -4.916264
Cd -14.762605 -4.940436 -4.916264
Cd -14.762605 -8.222549 -1.634151
Cd -11.480491 -4.940436 -1.634151
Cd -11.480491 -8.222549 1.647963
Cd -14.762605 -4.940436 1.647963
Cd -14.762605 -8.222549 4.930076
Cd -11.480491 -4.940436 4.930076
Cd -11.480491 -8.222549 8.212190
Cd -14.762605 -4.940436 8.212190
Cd -14.762605 -8.222549 11.494304
Cd -11.480491 -4.940436 11.494304
Cd -11.480491 -8.222549 14.776417
Cd -14.762605 -4.940436 14.776417
Cd -11.480491 -4.940436 18.058531
Cd -14.762605 -1.658322 -21.326832
Cd -11.480491 1.623792 -21.326832
Cd -11.480491 -1.658322 -18.044718
Cd -14.762605 1.623792 -18.044718
Cd -14.762605 -1.658322 -14.762605
Cd -11.480491 1.623792 -14.762605
Cd -11.480491 -1.658322 -11.480491
Cd -14.762605 1.623792 -11.480491
Cd -14.762605 -1.658322 -8.198378
Cd -11.480491 1.623792 -8.198378
Cd -11.480491 -1.658322 -4.916264
Cd -14.762605 1.623792 -4.916264
Cd -14.762605 -1.658322 -1.634151
Cd -11.480491 1.623792 -1.634151
Cd -11.480491 -1.658322 1.647963
Cd -14.762605 1.623792 1.647963
Cd -14.762605 -1.658322 4.930076
Cd -11.480491 1.623792 4.930076
Cd -11.480491 -1.658322 8.212190
Cd -14.762605 1.623792 8.212190
Cd -14.762605 -1.658322 11.494304
Cd -11.480491 1.623792 11.494304
Cd -11.480491 -1.658322 14.776417
Cd -14.762605 1.623792 14.776417
Cd -14.762605 -1.658322 18.058531
Cd -11.480491 1.623792 18.058531
Cd -11.480491 -1.658322 21.340644
Cd -14.762605 1.623792 21.340644
Cd -11.480491 4.905905 -18.044718
Cd -14.762605 4.905905 -14.762605
Cd -11.480491 8.188019 -14.762605
Cd -11.480491 4.905905 -11.480491
Cd -14.762605 8.188019 -11.480491
Cd -14.762605 4.905905 -8.198378
Cd -11.480491 8.188019 -8.198378
Cd -11.480491 4.905905 -4.916264
Cd -14.762605 8.188019 -4.916264
Cd -14.762605 4.905905 -1.634151
Cd -11.480491 8.188019 -1.634151
Cd -11.480491 4.905905 1.647963
Cd -14.762605 8.188019 1.647963
Cd -14.762605 4.905905 4.930076
Cd -11.480491 8.188019 4.930076
Cd -11.480491 4.905905 8.212190
Cd -14.762605 8.188019 8.212190
Cd -14.762605 4.905905 11.494304
Cd -11.480491 8.188019 11.494304
Cd -11.480491 4.905905 14.776417
Cd -14.762605 8.188019 14.776417
Cd -14.762605 4.905905 18.058531
Cd -11.480491 8.188019 18.058531
Cd -11.480491 4.905905 21.340644
Cd -11.480491 11.470132 -11.480491
Cd -14.762605 11.470132 -8.198378
Cd -11.480491 14.752246 -8.198378
Cd -11.480491 11.470132 -4.916264
Cd -14.762605 14.752246 -4.916264
Cd -14.762605 11.470132 -1.634151
Cd -11.480491 14.752246 -1.634151
Cd -11.480491 11.470132 1.647963
Cd -14.762605 14.752246 1.647963
Cd -14.762605 11.470132 4.930076
Cd -11.480491 14.752246 4.930076
Cd -11.480491 11.470132 8.212190
Cd -14.762605 14.752246 8.212190
Cd -14.762605 11.470132 11.494304
Cd -11.480491 14.752246 11.494304
Cd -11.480491 11.470132 14.776417
Cd -11.480491 18.034359 -4.916264
Cd -14.762605 18.034359 -1.634151
Cd -11.480491 21.316473 -1.634151
Cd -11.480491 18.034359 1.647963
Cd -14.762605 21.316473 1.647963
Cd -14.762605 18.034359 4.930076
Cd -11.480491 21.316473 4.930076
Cd -11.480491 18.034359 8.212190
Cd -4.916264 -18.068890 -14.762605
Cd -4.916264 -21.351003 -11.480491
Cd -8.198378 -18.068890 -11.480491
Cd -8.198378 -21.351003 -8.198378
Cd -4.916264 -18.068890 -8.198378
Cd -4.916264 -21.351003 -4.916264
Cd -8.198378 -18.068890 -4.916264
Cd -8.198378 -21.351003 -1.634151
Cd -4.916264 -18.068890 -1.634151
Cd -4.916264 -21.351003 1.647963
Cd -8.198378 -18.068890 1.647963
Cd -8.198378 -21.351003 4.930076
Cd -4.916264 -18.068890 4.930076
Cd -4.916264 -21.351003 8.212190
Cd -8.198378 -18.068890 8.212190
Cd -4.916264 -18.068890 11.494304
Cd -4.916264 -11.504663 -21.326832
Cd -4.916264 -14.786776 -18.044718
Cd -8.198378 -11.504663 -18.044718
Cd -8.198378 -14.786776 -14.762605
Cd -4.916264 -11.504663 -14.762605
Cd -4.916264 -14.786776 -11.480491
Cd -8.198378 -11.504663 -11.480491
Cd -8.198378 -14.786776 -8.198378
Cd -4.916264 -11.504663 -8.198378
Cd -4.916264 -14.786776 -4.916264
Cd -8.198378 -11.504663 -4.916264
Cd -8.198378 -14.786776 -1.634151
Cd -4.916264 -11.504663 -1.634151
Cd -4.916264 -14.786776 1.647963
Cd -8.198378 -11.504663 1.647963
Cd -8.198378 -14.786776 4.930076
Cd -4.916264 -11.504663 4.930076
Cd -4.916264 -14.786776 8.212190
Cd -8.198378 -11.504663 8.212190
Cd -8.198378 -14.786776 11.494304
Cd -4.916264 -11.504663 11.494304
Cd -4.916264 -14.786776 14.776417
Cd -8.198378 -11.504663 14.776417
Cd -4.916264 -11.504663 18.058531
Cd -8.198378 -8.222549 -21.326832
Cd -4.916264 -4.940436 -21.326832
Cd -4.916264 -8.222549 -18.044718
Cd -8.198378 -4.940436 -18.044718
Cd -8.198378 -8.222549 -14.762605
Cd -4.916264 -4.940436 -14.762605
Cd -4.916264 -8.222549 -11.480491
Cd -8.198378 -4.940436 -11.480491
Cd -8.198378 -8.222549 -8.198378
Cd -4.916264 -4.940436 -8.198378
Cd -4.916264 -8.222549 -4.916264
Cd -8.198378 -4.940436 -4.916264
Cd -8.198378 -8.222549 -1.634151
Cd -4.916264 -4.940436 -1.634151
Cd -4.916264 -8.222549 1.647963
Cd -8.198378 -4.940436 1.647963
Cd -8.198378 -8.222549 4.930076
Cd -4.916264 -4.940436 4.930076
Cd -4.916264 -8.222549 8.212190
Cd -8.198378 -4.940436 8.212190
Cd -8.198378 -8.222549 11.494304
Cd -4.916264 -4.940436 11.494304
Cd -4.916264 -8.222549 14.776417
Cd -8.198378 -4.940436 14.776417
Cd -8.198378 -8.222549 18.058531
Cd -4.916264 -4.940436 18.058531
Cd -4.916264 -8.222549 21.340644
Cd -8.198378 -4.940436 21.340644
Cd -8.198378 -1.658322 -21.326832
Cd -4.916264 1.623792 -21.326832
Cd -4.916264 -1.658322 -18.044718
Cd -8.198378 1.623792 -18.044718
Cd -8.198378 -1.658322 -14.762605
Cd -4.916264 1.623792 -14.762605
Cd -4.916264 -1.658322 -11.480491
Cd -8.198378 1.623792 -11.480491
Cd -8.198378 -1.658322 -8.198378
Cd -4.916264 1.623792 -8.198378
Cd -4.916264 -1.658322 -4.916264
Cd -8.198378 1.623792 -4.916264
Cd -8.198378 -1.658322 -1.634151
Cd -4.916264 1.623792 -1.634151
Cd -4.916264 -1.658322 1.647963
Cd -8.198378 1.623792 1.647963
Cd -8.198378 -1.658322 4.930076
Cd -4.916264 1.623792 4.930076
Cd -4.916264 -1.658322 8.212190
Cd -8.198378 1.623792 8.212190
Cd -8.198378 -1.658322 11.494304
Cd -4.916264 1.623792 11.494304
Cd -4.916264 -1.658322 14.776417
Cd -8.198378 1.623792 14.776417
Cd -8.198378 -1.658322 18.058531
Cd -4.916264 1.623792 18.058531
Cd -4.916264 -1.658322 21.340644
Cd -8.198378 1.623792 21.340644
Cd -8.198378 4.905905 -21.326832
Cd -4.916264 8.188019 -21.326832
Cd -4.916264 4.905905 -18.044718
Cd -8.198378 8.188019 -18.044718
Cd -8.198378 4.905905 -14.762605
Cd -4.916264 8.188019 -14.762605
Cd -4.916264 4.905905 -11.480491
Cd -8.198378 8.188019 -11.480491
Cd -8.198378 4.905905 -8.198378
Cd -4.916264 8.188019 -8.198378
Cd -4.916264 4.905905 -4.916264
Cd -8.198378 8.188019 -4.916264
Cd -8.198378 4.905905 -1.634151
Cd -4.916264 8.188019 -1.634151
Cd -4.916264 4.905905 1.647963
Cd -8.198378 8.188019 1.647963
Cd -8.198378 4.905905 4.930076
Cd -4.916264 8.188019 4.930076
Cd -4.916264 4.905905 8.212190
Cd -8.198378 8.188019 8.212190
Cd -8.198378 4.905905 11.494304
Cd -4.916264 8.188019 11.494304
Cd -4.916264 4.905905 14.776417
Cd -8.198378 8.188019 14.776417
Cd -8.198378 4.905905 18.058531
Cd -4.916264 8.188019 18.058531
Cd -4.916264 4.905905 21.340644
Cd -8.198378 8.188019 21.340644
Cd -4.916264 11.470132 -18.044718
Cd -8.198378 11.470132 -14.762605
Cd -4.916264 14.752246 -14.762605
Cd -4.916264 11.470132 -11.480491
Cd -8.198378 14.752246 -11.480491
Cd -8.198378 11.470132 -8.198378
Cd -4.916264 14.752246 -8.198378
Cd -4.916264 11.470132 -4.916264
Cd -8.198378 14.752246 -4.916264
Cd -8.198378 11.470132 -1.634151
Cd -4.916264 14.752246 -1.634151
Cd -4.916264 11.470132 1.647963
Cd -8.198378 14.752246 1.647963
Cd -8.198378 11.470132 4.930076
Cd -4.916264 14.752246 4.930076
Cd -4.916264 11.470132 8.212190
Cd -8.198378 14.752246 8.212190
Cd -8.198378 11.470132 11.494304
Cd -4.916264 14.752246 11.494304
Cd -4.916264 11.470132 14.776417
Cd -8.198378 14.752246 14.776417
Cd -8.198378 11.470132 18.058531
Cd -4.916264 14.752246 18.058531
Cd -4.916264 11.470132 21.340644
Cd -4.916264 18.034359 -11.480491
Cd -8.198378 18.034359 -8.198378
Cd -4.916264 21.316473 -8.198378
Cd -4.916264 18.034359 -4.916264
Cd -8.198378 21.316473 -4.916264
Cd -8.198378 18.034359 -1.634151
Cd -4.916264 21.316473 -1.634151
Cd -4.916264 18.034359 1.647963
Cd -8.198378 21.316473 1.647963
Cd -8.198378 18.034359 4.930076
Cd -4.916264 21.316473 4.930076
Cd -4.916264 18.034359 8.212190
Cd -8.198378 21.316473 8.212190
Cd -8.198378 18.034359 11.494304
Cd -4.916264 21.316473 11.494304
Cd -4.916264 18.034359 14.776417
Cd -1.634151 -18.068890 -18.044718
Cd -1.634151 -21.351003 -14.762605
Cd 1.647963 -18.068890 -14.762605
Cd 1.647963 -21.351003 -11.480491
Cd -1.634151 -18.068890 -11.480491
Cd -1.634151 -21.351003 -8.198378
Cd 1.647963 -18.068890 -8.198378
Cd 1.647963 -21.351003 -4.916264
Cd -1.634151 -18.068890 -4.916264
Cd -1.634151 -21.351003 -1.634151
Cd 1.647963 -18.068890 -1.634151
Cd 1.647963 -21.351003 1.647963
Cd -1.634151 -18.068890 1.647963
Cd -1.634151 -21.351003 4.930076
Cd 1.647963 -18.068890 4.930076
Cd 1.647963 -21.351003 8.212190
Cd -1.634151 -18.068890 8.212190
Cd -1.634151 -21.351003 11.494304
Cd 1.647963 -18.068890 11.494304
Cd 1.647963 -21.351003 14.776417
Cd -1.634151 -18.068890 14.776417
Cd 1.647963 -18.068890 18.058531
Cd -1.634151 -14.786776 -21.326832
Cd 1.647963 -11.504663 -21.326832
Cd 1.647963 -14.786776 -18.044718
Cd -1.634151 -11.504663 -18.044718
Cd -1.634151 -14.786776 -14.762605
Cd 1.647963 -11.504663 -14.762605
Cd 1.647963 -14.786776 -11.480491
Cd -1.634151 -11.504663 -11.480491
Cd -1.634151 -14.786776 -8.198378
Cd 1.647963 -11.504663 -8.198378
Cd 1.647963 -14.786776 -4.916264
Cd -1.634151 -11.504663 -4.916264
Cd -1.634151 -14.786776 -1.634151
Cd 1.647963 -11.504663 -1.634151
Cd 1.647963 -14.786776 1.647963
Cd -1.634151 -11.504663 1.647963
Cd -1.634151 -14.786776 4.930076
Cd 1.647963 -11.504663 4.930076
Cd 1.647963 -14.786776 8.212190
Cd -1.634151 -11.504663 8.212190
Cd -1.634151 -14.786776 11.494304
Cd 1.647963 -11.504663 11.494304
Cd 1.647963 -14.786776 14.776417
Cd -1.634151 -11.504663 14.776417
Cd -1.634151 -14.786776 18.058531
Cd 1.647963 -11.504663 18.058531
Cd 1.647963 -14.786776 21.340644
Cd -1.634151 -11.504663 21.340644
Cd -1.634151 -8.222549 -21.326832
Cd 1.647963 -4.940436 -21.326832
Cd 1.647963 -8.222549 -18.044718
Cd -1.634151 -4.940436 -18.044718
Cd -1.634151 -8.222549 -14.762605
Cd 1.647963 -4.940436 -14.762605
Cd 1.647963 -8.222549 -11.480491
Cd -1.634151 -4.940436 -11.480491
Cd -1.634151 -8.222549 -8.198378
Cd 1.647963 -4.940436 -8.198378
Cd 1.647963 -8.222549 -4.916264
Cd -1.634151 -4.940436 -4.916264
Cd -1.634151 -8.222549 -1.634151
Cd 1.647963 -4.940436 -1.634151
Cd 1.647963 -8.222549 1.647963
Cd -1.634151 -4.940436 1.647963
Cd -1.634151 -8.222549 4.930076
Cd 1.647963 -4.940436 4.930076
Cd 1.647963 -8.222549 8.212190
Cd -1.634151 -4.940436 8.212190
Cd -1.634151 -8.222549 11.494304
Cd 1.647963 -4.940436 11.494304
Cd 1.647963 -8.222549 14.776417
Cd -1.634151 -4.940436 14.776417
Cd -1.634151 -8.222549 18.058531
Cd 1.647963 -4.940436 18.058531
Cd 1.647963 -8.222549 21.340644
Cd -1.634151 -4.940436 21.340644
Cd -1.634151 -1.658322 -21.326832
Cd 1.647963 1.623792 -21.326832
Cd 1.647963 -1.658322 -18.044718
Cd -1.634151 1.623792 -18.044718
Cd -1.634151 -1.658322 -14.762605
Cd 1.647963 1.623792 -14.762605
Cd 1.647963 -1.658322 -11.480491
Cd -1.634151 1.623792 -11.480491
Cd -1.634151 -1.658322 -8.198378
Cd 1.647963 1.623792 -8.198378
Cd 1.647963 -1.658322 -4.916264
Cd -1.634151 1.623792 -4.916264
Cd -1.634151 -1.658322 -1.634151
Cd 1.647963 1.623792 -1.634151
Cd 1.647963 -1.658322 1.647963
Cd -1.634151 1.623792 1.647963
Cd -1.634151 -1.658322 4.930076
Cd 1.647963 1.623792 4.930076
Cd 1.647963 -1.658322 8.212190
Cd -1.634151 1.623792 8.212190
Cd -1.634151 -1.658322 11.494304
Cd 1.647963 1.623792 11.494304
Cd 1.647963 -1.658322 14.776417
Cd -1.634151 1.623792 14.776417
Cd -1.634151 -1.658322 18.058531
Cd 1.647963 1.623792 18.058531
Cd 1.647963 -1.658322 21.340644
Cd -1.634151 1.623792 21.340644
Cd -1.634151 4.905905 -21.326832
Cd 1.647963 8.188019 -21.326832
Cd 1.647963 4.905905 -18.044718
Cd -1.634151 8.188019 -18.044718
Cd -1.634151 4.905905 -14.762605
Cd 1.647963 8.188019 -14.762605
Cd 1.647963 4.905905 -11.480491
Cd -1.634151 8.188019 -11.480491
Cd -1.634151 4.905905 -8.198378
Cd 1.647963 8.188019 -8.198378
Cd 1.647963 4.905905 -4.916264
Cd -1.634151 8.188019 -4.916264
Cd -1.634151 4.905905 -1.634151
Cd 1.647963 8.188019 -1.634151
Cd 1.647963 4.905905 1.647963
Cd -1.634151 8.188019 1.647963
Cd -1.634151 4.905905 4.930076
Cd 1.647963 8.188019 4.930076
Cd 1.647963 4.905905 8.212190
Cd -1.634151 8.188019 8.212190
Cd -1.634151 4.905905 11.494304
Cd 1.647963 8.188019 11.494304
Cd 1.647963 4.905905 14.776417
Cd -1.634151 8.188019 14.776417
Cd -1.634151 4.905905 18.058531
Cd 1.647963 8.188019 18.058531
Cd 1.647963 4.905905 21.340644
Cd -1.634151 8.188019 21.340644
Cd -1.634151 11.470132 -21.326832
Cd 1.647963 14.752246 -21.326832
Cd 1.647963 11.470132 -18.044718
Cd -1.634151 14.752246 -18.044718
Cd -1.634151 11.470132 -14.762605
Cd 1.647963 14.752246 -14.762605
Cd 1.647963 11.470132 -11.480491
Cd -1.634151 14.752246 -11.480491
Cd -1.634151 11.470132 -8.198378
Cd 1.647963 14.752246 -8.198378
Cd 1.647963 11.470132 -4.916264
Cd -1.634151 14.752246 -4.916264
Cd -1.634151 11.470132 -1.634151
Cd 1.647963 14.752246 -1.634151
Cd 1.647963 11.470132 1.647963
Cd -1.634151 14.752246 1.647963
Cd -1.634151 11.470132 4.930076
Cd 1.647963 14.752246 4.930076
Cd 1.647963 11.470132 8.212190
Cd -1.634151 14.752246 8.212190
Cd -1.634151 11.470132 11.494304
Cd 1.647963 14.752246 11.494304
Cd 1.647963 11.470132 14.776417
Cd -1.634151 14.752246 14.776417
Cd -1.634151 11.470132 18.058531
Cd 1.647963 14.752246 18.058531
Cd 1.647963 11.470132 21.340644
Cd -1.634151 14.752246 21.340644
Cd 1.647963 18.034359 -18.044718
Cd -1.634151 18.034359 -14.762605
Cd 1.647963 21.316473 -14.762605
Cd 1.647963 18.034359 -11.480491
Cd -1.634151 21.316473 -11.480491
Cd -1.634151 18.034359 -8.198378
Cd 1.647963 21.316473 -8.198378
Cd 1.647963 18.034359 -4.916264
Cd -1.634151 21.316473 -4.916264
Cd -1.634151 18.034359 -1.634151
Cd 1.647963 21.316473 -1.634151
Cd 1.647963 18.034359 1.647963
Cd -1.634151 21.316473 1.647963
Cd -1.634151 18.034359 4.930076
Cd 1.647963 21.316473 4.930076
Cd 1.647963 18.034359 8.212190
Cd -1.634151 21.316473 8.212190
Cd -1.634151 18.034359 11.494304
Cd 1.647963 21.316473 11.494304
Cd 1.647963 18.034359 14.776417
Cd -1.634151 21.316473 14.776417
Cd -1.634151 18.034359 18.058531
Cd 4.930076 -18.068890 -11.480491
Cd 4.930076 -21.351003 -8.198378
Cd 8.212190 -18.068890 -8.198378
Cd 8.212190 -21.351003 -4.916264
Cd 4.930076 -18.068890 -4.916264
Cd 4.930076 -21.351003 -1.634151
Cd 8.212190 -18.068890 -1.634151
Cd 8.212190 -21.351003 1.647963
Cd 4.930076 -18.068890 1.647963
Cd 4.930076 -21.351003 4.930076
Cd 8.212190 -18.068890 4.930076
Cd 8.212190 -21.351003 8.212190
Cd 4.930076 -18.068890 8.212190
Cd 4.930076 -21.351003 11.494304
Cd 8.212190 -18.068890 11.494304
Cd 4.930076 -18.068890 14.776417
Cd 4.930076 -11.504663 -18.044718
Cd 4.930076 -14.786776 -14.762605
Cd 8.212190 -11.504663 -14.762605
Cd 8.212190 -14.786776 -11.480491
Cd 4.930076 -11.504663 -11.480491
Cd 4.930076 -14.786776 -8.198378
Cd 8.212190 -11.504663 -8.198378
Cd 8.212190 -14.786776 -4.916264
Cd 4.930076 -11.504663 -4.916264
Cd 4.930076 -14.786776 -1.634151
Cd 8.212190 -11.504663 -1.634151
Cd 8.212190 -14.786776 1.647963
Cd 4.930076 -11.504663 1.647963
Cd 4.930076 -14.786776 4.930076
Cd 8.212190 -11.504663 4.930076
Cd 8.212190 -14.786776 8.212190
Cd 4.930076 -11.504663 8.212190
Cd 4.930076 -14.786776 11.494304
Cd 8.212190 -11.504663 11.494304
Cd 8.212190 -14.786776 14.776417
Cd 4.930076 -11.504663 14.776417
Cd 4.930076 -14.786776 18.058531
Cd 8.212190 -11.504663 18.058531
Cd 4.930076 -11.504663 21.340644
Cd 4.930076 -8.222549 -21.326832
Cd 8.212190 -4.940436 -21.326832
Cd 8.212190 -8.222549 -18.044718
Cd 4.930076 -4.940436 -18.044718
Cd 4.930076 -8.222549 -14.762605
Cd 8.212190 -4.940436 -14.762605
Cd 8.212190 -8.222549 -11.480491
Cd 4.930076 -4.940436 -11.480491
Cd 4.930076 -8.222549 -8.198378
Cd 8.212190 -4.940436 -8.198378
Cd 8.212190 -8.222549 -4.916264
Cd 4.930076 -4.940436 -4.916264
Cd 4.930076 -8.222549 -1.634151
Cd 8.212190 -4.940436 -1.634151
Cd 8.212190 -8.222549 1.647963
Cd 4.930076 -4.940436 1.647963
Cd 4.930076 -8.222549 4.930076
Cd 8.212190 -4.940436 4.930076
Cd 8.212190 -8.222549 8.212190
Cd 4.930076 -4.940436 8.212190
Cd 4.930076 -8.222549 11.494304
Cd 8.212190 -4.940436 11.494304
Cd 8.212190 -8.222549 14.776417
Cd 4.930076 -4.940436 14.776417
Cd 4.930076 -8.222549 18.058531
Cd 8.212190 -4.940436 18.058531
Cd 8.212190 -8.222549 21.340644
Cd 4.930076 -4.940436 21.340644
Cd 4.930076 -1.658322 -21.326832
Cd 8.212190 1.623792 -21.326832
Cd 8.212190 -1.658322 -18.044718
Cd 4.930076 1.623792 -18.044718
Cd 4.930076 -1.658322 -14.762605
Cd 8.212190 1.623792 -14.762605
Cd 8.212190 -1.658322 -11.480491
Cd 4.930076 1.623792 -11.480491
Cd 4.930076 -1.658322 -8.198378
Cd 8.212190 1.623792 -8.198378
Cd 8.212190 -1.658322 -4.916264
Cd 4.930076 1.623792 -4.916264
Cd 4.930076 -1.658322 -1.634151
Cd 8.212190 1.623792 -1.634151
Cd 8.212190 -1.658322 1.647963
Cd 4.930076 1.623792 1.647963
Cd 4.930076 -1.658322 4.930076
Cd 8.212190 1.623792 4.930076
Cd 8.212190 -1.658322 8.212190
Cd 4.930076 1.623792 8.212190
Cd 4.930076 -1.658322 11.494304
Cd 8.212190 1.623792 11.494304
Cd 8.212190 -1.658322 14.776417
Cd 4.930076 1.623792 14.776417
Cd 4.930076 -1.658322 18.058531
Cd 8.212190 1.623792 18.058531
Cd 8.212190 -1.658322 21.340644
Cd 4.930076 1.623792 21.340644
Cd 4.930076 4.905905 -21.326832
Cd 8.212190 8.188019 -21.326832
Cd 8.212190 4.905905 -18.044718
Cd 4.930076 8.188019 -18.044718
Cd 4.930076 4.905905 -14.762605
Cd 8.212190 8.188019 -14.762605
Cd 8.212190 4.905905 -11.480491
Cd 4.930076 8.188019 -11.480491
Cd 4.930076 4.905905 -8.198378
Cd 8.212190 8.188019 -8.198378
Cd 8.212190 4.905905 -4.916264
Cd 4.930076 8.188019 -4.916264
Cd 4.930076 4.905905 -1.634151
Cd 8.212190 8.188019 -1.634151
Cd 8.212190 4.905905 1.647963
Cd 4.930076 8.188019 1.647963
Cd 4.930076 4.905905 4.930076
Cd 8.212190 8.188019 4.930076
Cd 8.212190 4.905905 8.212190
Cd 4.930076 8.188019 8.212190
Cd 4.930076 4.905905 11.494304
Cd 8.212190 8.188019 11.494304
Cd 8.212190 4.905905 14.776417
Cd 4.930076 8.188019 14.776417
Cd 4.930076 4.905905 18.058531
Cd 8.212190 8.188019 18.058531
Cd 8.212190 4.905905 21.340644
Cd 4.930076 8.188019 21.340644
Cd 4.930076 11.470132 -21.326832
Cd 8.212190 11.470132 -18.044718
Cd 4.930076 14.752246 -18.044718
Cd 4.930076 11.470132 -14.762605
Cd 8.212190 14.752246 -14.762605
Cd 8.212190 11.470132 -11.480491
Cd 4.930076 14.752246 -11.480491
Cd 4.930076 11.470132 -8.198378
Cd 8.212190 14.752246 -8.198378
Cd 8.212190 11.470132 -4.916264
Cd 4.930076 14.752246 -4.916264
Cd 4.930076 11.470132 -1.634151
Cd 8.212190 14.752246 -1.634151
Cd 8.212190 11.470132 1.647963
Cd 4.930076 14.752246 1.647963
Cd 4.930076 11.470132 4.930076
Cd 8.212190 14.752246 4.930076
Cd 8.212190 11.470132 8.212190
Cd 4.930076 14.752246 8.212190
Cd 4.930076 11.470132 11.494304
Cd 8.212190 14.752246 11.494304
Cd 8.212190 11.470132 14.776417
Cd 4.930076 14.752246 14.776417
Cd 4.930076 11.470132 18.058531
Cd 4.930076 18.034359 -14.762605
Cd 8.212190 18.034359 -11.480491
Cd 4.930076 21.316473 -11.480491
Cd 4.930076 18.034359 -8.198378
Cd 8.212190 21.316473 -8.198378
Cd 8.212190 18.034359 -4.916264
Cd 4.930076 21.316473 -4.916264
Cd 4.930076 18.034359 -1.634151
Cd 8.212190 21.316473 -1.634151
Cd 8.212190 18.034359 1.647963
Cd 4.930076 21.316473 1.647963
Cd 4.930076 18.034359 4.930076
Cd 8.212190 21.316473 4.930076
Cd 8.212190 18.034359 8.212190
Cd 4.930076 21.316473 8.212190
Cd 4.930076 18.034359 11.494304
Cd 11.494304 -18.068890 -4.916264
Cd 11.494304 -21.351003 -1.634151
Cd 14.776417 -18.068890 -1.634151
Cd 14.776417 -21.351003 1.647963
Cd 11.494304 -18.068890 1.647963
Cd 11.494304 -21.351003 4.930076
Cd 14.776417 -18.068890 4.930076
Cd 11.494304 -18.068890 8.212190
Cd 11.494304 -11.504663 -11.480491
Cd 11.494304 -14.786776 -8.198378
Cd 14.776417 -11.504663 -8.198378
Cd 14.776417 -14.786776 -4.916264
Cd 11.494304 -11.504663 -4.916264
Cd 11.494304 -14.786776 -1.634151
Cd 14.776417 -11.504663 -1.634151
Cd 14.776417 -14.786776 1.647963
Cd 11.494304 -11.504663 1.647963
Cd 11.494304 -14.786776 4.930076
Cd 14.776417 -11.504663 4.930076
Cd 14.776417 -14.786776 8.212190
Cd 11.494304 -11.504663 8.212190
Cd 11.494304 -14.786776 11.494304
Cd 14.776417 -11.504663 11.494304
Cd 11.494304 -11.504663 14.776417
Cd 11.494304 -4.940436 -18.044718
Cd 11.494304 -8.222549 -14.762605
Cd 14.776417 -4.940436 -14.762605
Cd 14.776417 -8.222549 -11.480491
Cd 11.494304 -4.940436 -11.480491
Cd 11.494304 -8.222549 -8.198378
Cd 14.776417 -4.940436 -8.198378
Cd 14.776417 -8.222549 -4.916264
Cd 11.494304 -4.940436 -4.916264
Cd 11.494304 -8.222549 -1.634151
Cd 14.776417 -4.940436 -1.634151
Cd 14.776417 -8.222549 1.647963
Cd 11.494304 -4.940436 1.647963
Cd 11.494304 -8.222549 4.930076
Cd 14.776417 -4.940436 4.930076
Cd 14.776417 -8.222549 8.212190
Cd 11.494304 -4.940436 8.212190
Cd 11.494304 -8.222549 11.494304
Cd 14.776417 -4.940436 11.494304
Cd 14.776417 -8.222549 14.776417
Cd 11.494304 -4.940436 14.776417
Cd 11.494304 -8.222549 18.058531
Cd 14.776417 -4.940436 18.058531
Cd 11.494304 -4.940436 21.340644
Cd 11.494304 -1.658322 -21.326832
Cd 14.776417 1.623792 -21.326832
Cd 14.776417 -1.658322 -18.044718
Cd 11.494304 1.623792 -18.044718
Cd 11.494304 -1.658322 -14.762605
Cd 14.776417 1.623792 -14.762605
Cd 14.776417 -1.658322 -11.480491
Cd 11.494304 1.623792 -11.480491
Cd 11.494304 -1.658322 -8.198378
Cd 14.776417 1.623792 -8.198378
Cd 14.776417 -1.658322 -4.916264
Cd 11.494304 1.623792 -4.916264
Cd 11.494304 -1.658322 -1.634151
Cd 14.776417 1.623792 -1.634151
Cd 14.776417 -1.658322 1.647963
Cd 11.494304 1.623792 1.647963
Cd 11.494304 -1.658322 4.930076
Cd 14.776417 1.623792 4.930076
Cd 14.776417 -1.658322 8.212190
Cd 11.494304 1.623792 8.212190
Cd 11.494304 -1.658322 11.494304
Cd 14.776417 1.623792 11.494304
Cd 14.776417 -1.658322 14.776417
Cd 11.494304 1.623792 14.776417
Cd 11.494304 -1.658322 18.058531
Cd 14.776417 1.623792 18.058531
Cd 14.776417 -1.658322 21.340644
Cd 11.494304 1.623792 21.340644
Cd 11.494304 4.905905 -21.326832
Cd 14.776417 4.905905 -18.044718
Cd 11.494304 8.188019 -18.044718
Cd 11.494304 4.905905 -14.762605
Cd 14.776417 8.188019 -14.762605
Cd 14.776417 4.905905 -11.480491
Cd 11.494304 8.188019 -11.480491
Cd 11.494304 4.905905 -8.198378
Cd 14.776417 8.188019 -8.198378
Cd 14.776417 4.905905 -4.916264
Cd 11.494304 8.188019 -4.916264
Cd 11.494304 4.905905 -1.634151
Cd 14.776417 8.188019 -1.634151
Cd 14.776417 4.905905 1.647963
Cd 11.494304 8.188019 1.647963
Cd 11.494304 4.905905 4.930076
Cd 14.776417 8.188019 4.930076
Cd 14.776417 4.905905 8.212190
Cd 11.494304 8.188019 8.212190
Cd 11.494304 4.905905 11.494304
Cd 14.776417 8.188019 11.494304
Cd 14.776417 4.905905 14.776417
Cd 11.494304 8.188019 14.776417
Cd 11.494304 4.905905 18.058531
Cd 11.494304 11.470132 -14.762605
Cd 14.776417 11.470132 -11.480491
Cd 11.494304 14.752246 -11.480491
Cd 11.494304 11.470132 -8.198378
Cd 14.776417 14.752246 -8.198378
Cd 14.776417 11.470132 -4.916264
Cd 11.494304 14.752246 -4.916264
Cd 11.494304 11.470132 -1.634151
Cd 14.776417 14.752246 -1.634151
Cd 14.776417 11.470132 1.647963
Cd 11.494304 14.752246 1.647963
Cd 11.494304 11.470132 4.930076
Cd 14.776417 14.752246 4.930076
Cd 14.776417 11.470132 8.212190
Cd 11.494304 14.752246 8.212190
Cd 11.494304 11.470132 11.494304
Cd 11.494304 18.034359 -8.198378
Cd 14.776417 18.034359 -4.916264
Cd 11.494304 21.316473 -4.916264
Cd 11.494304 18.034359 -1.634151
Cd 14.776417 21.316473 -1.634151
Cd 14.776417 18.034359 1.647963
Cd 11.494304 21.316473 1.647963
Cd 11.494304 18.034359 4.930076
Cd 18.058531 -18.068890 1.647963
Cd 18.058531 -11.504663 -4.916264
Cd 18.058531 -14.786776 -1.634151
Cd 21.340644 -11.504663 -1.634151
Cd 21.340644 -14.786776 1.647963
Cd 18.058531 -11.504663 1.647963
Cd 18.058531 -14.786776 4.930076
Cd 21.340644 -11.504663 4.930076
Cd 18.058531 -11.504663 8.212190
Cd 18.058531 -4.940436 -11.480491
Cd 18.058531 -8.222549 -8.198378
Cd 21.340644 -4.940436 -8.198378
Cd 21.340644 -8.222549 -4.916264
Cd 18.058531 -4.940436 -4.916264
Cd 18.058531 -8.222549 -1.634151
Cd 21.340644 -4.940436 -1.634151
Cd 21.340644 -8.222549 1.647963
Cd 18.058531 -4.940436 1.647963
Cd 18.058531 -8.222549 4.930076
Cd 21.340644 -4.940436 4.930076
Cd 21.340644 -8.222549 8.212190
Cd 18.058531 -4.940436 8.212190
Cd 18.058531 -8.222549 11.494304
Cd 21.340644 -4.940436 11.494304
Cd 18.058531 -4.940436 14.776417
Cd 18.058531 1.623792 -18.044718
Cd 18.058531 -1.658322 -14.762605
Cd 21.340644 1.623792 -14.762605
Cd 21.340644 -1.658322 -11.480491
Cd 18.058531 1.623792 -11.480491
Cd 18.058531 -1.658322 -8.198378
Cd 21.340644 1.623792 -8.198378
Cd 21.340644 -1.658322 -4.916264
Cd 18.058531 1.623792 -4.916264
Cd 18.058531 -1.658322 -1.634151
Cd 21.340644 1.623792 -1.634151
Cd 21.340644 -1.658322 1.647963
Cd 18.058531 1.623792 1.647963
Cd 18.058531 -1.658322 4.930076
Cd 21.340644 1.623792 4.930076
Cd 21.340644 -1.658322 8.212190
Cd 18.058531 1.623792 8.212190
Cd 18.058531 -1.658322 11.494304
Cd 21.340644 1.623792 11.494304
Cd 21.340644 -1.658322 14.776417
Cd 18.058531 1.623792 14.776417
Cd 18.058531 -1.658322 18.058531
Cd 18.058531 4.905905 -14.762605
Cd 21.340644 4.905905 -11.480491
Cd 18.058531 8.188019 -11.480491
Cd 18.058531 4.905905 -8.198378
Cd 21.340644 8.188019 -8.198378
Cd 21.340644 4.905905 -4.916264
Cd 18.058531 8.188019 -4.916264
Cd 18.058531 4.905905 -1.634151
Cd 21.340644 8.188019 -1.634151
Cd 21.340644 4.905905 1.647963
Cd 18.058531 8.188019 1.647963
Cd 18.058531 4.905905 4.930076
Cd 21.340644 8.188019 4.930076
Cd 21.340644 4.905905 8.212190
Cd 18.058531 8.188019 8.212190
Cd 18.058531 4.905905 11.494304
Cd 18.058531 11.470132 -8.198378
Cd 21.340644 11.470132 -4.916264
Cd 18.058531 14.752246 -4.916264
Cd 18.058531 11.470132 -1.634151
Cd 21.340644 14.752246 -1.634151
Cd 21.340644 11.470132 1.647963
Cd 18.058531 14.752246 1.647963
Cd 18.058531 11.470132 4.930076
Cd 18.058531 18.034359 -1.634151
Te -19.685775 -16.427833 -3.275207
Te -16.403662 -16.427833 -6.557321
Te -16.403662 -19.709947 -3.275207
Te -16.403662 -16.427833 0.006906
Te -19.685775 -9.863606 -9.839435
Te -16.403662 -9.863606 -13.121548
Te -16.403662 -13.145719 -9.839435
Te -19.685775 -13.145719 -6.557321
Te -19.685775 -9.863606 -3.275207
Te -16.403662 -9.863606 -6.557321
Te -16.403662 -13.145719 -3.275207
Te -19.685775 -13.145719 0.006906
Te -19.685775 -9.863606 3.289020
Te -16.403662 -9.863606 0.006906
Te -16.403662 -13.145719 3.289020
Te -16.403662 -9.863606 6.571133
Te -19.685775 -3.299379 -16.403662
Te -16.403662 -3.299379 -19.685775
Te -16.403662 -6.581492 -16.403662
Te -19.685775 -6.581492 -13.121548
Te -19.685775 -3.299379 -9.839435
Te -16.403662 -3.299379 -13.121548
Te -16.403662 -6.581492 -9.839435
Te -19.685775 -6.581492 -6.557321
Te -19.685775 -3.299379 -3.275207
Te -16.403662 -3.299379 -6.557321
Te -16.403662 -6.581492 -3.275207
Te -19.685775 -6.581492 0.006906
Te -19.685775 -3.299379 3.289020
Te -16.403662 -3.299379 0.006906
Te -16.403662 -6.581492 3.289020
Te -19.685775 -6.581492 6.571133
Te -19.685775 -3.299379 9.853247
Te -16.403662 -3.299379 6.571133
Te -16.403662 -6.581492 9.853247
Te -16.403662 -3.299379 13.135360
Te -16.403662 -0.017265 -16.403662
Te -19.685775 -0.017265 -13.121548
Te -19.685775 3.264848 -9.839435
Te -16.403662 3.264848 -13.121548
Te -16.403662 -0.017265 -9.839435
Te -19.685775 -0.017265 -6.557321
Te -19.685775 3.264848 -3.275207
Te -16.403662 3.264848 -6.557321
Te -16.403662 -0.017265 -3.275207
Te -19.685775 -0.017265 0.006906
Te -19.685775 3.264848 3.289020
Te -16.403662 3.264848 0.006906
Te -16.403662 -0.017265 3.289020
Te -19.685775 -0.017265 6.571133
Te -19.685775 3.264848 9.853247
Te -16.403662 3.264848 6.571133
Te -16.403662 -0.017265 9.853247
Te -19.685775 -0.017265 13.135360
Te -19.685775 3.264848 16.417474
Te -16.403662 3.264848 13.135360
Te -16.403662 -0.017265 16.417474
Te -16.403662 3.264848 19.699587
Te -16.403662 6.546962 -9.839435
Te -19.685775 6.546962 -6.557321
Te -19.685775 9.829075 -3.275207
Te -16.403662 9.829075 -6.557321
Te -16.403662 6.546962 -3.275207
Te -19.685775 6.546962 0.006906
Te -19.685775 9.829075 3.289020
Te -16.403662 9.829075 0.006906
Te -16.403662 6.546962 3.289020
Te -19.685775 6.546962 6.571133
Te -19.685775 9.829075 9.853247
Te -16.403662 9.829075 6.571133
Te -16.403662 6.546962 9.853247
Te -19.685775 6.546962 13.135360
Te -16.403662 9.829075 13.135360
Te -16.403662 6.546962 16.417474
Te -16.403662 13.111189 -3.275207
Te -19.685775 13.111189 0.006906
Te -19.685775 16.393303 3.289020
Te -16.403662 16.393303 0.006906
Te -16.403662 13.111189 3.289020
Te -19.685775 13.111189 6.571133
Te -16.403662 16.393303 6.571133
Te -16.403662 13.111189 9.853247
Te -16.403662 19.675416 3.289020
Te -13.121548 -16.427833 -9.839435
Te -9.839435 -16.427833 -13.121548
Te -9.839435 -19.709947 -9.839435
Te -13.121548 -19.709947 -6.557321
Te -13.121548 -16.427833 -3.275207
Te -9.839435 -16.427833 -6.557321
Te -9.839435 -19.709947 -3.275207
Te -13.121548 -19.709947 0.006906
Te -13.121548 -16.427833 3.289020
Te -9.839435 -16.427833 0.006906
Te -9.839435 -19.709947 3.289020
Te -9.839435 -16.427833 6.571133
Te -13.121548 -9.863606 -16.403662
Te -9.839435 -9.863606 -19.685775
Te -9.839435 -13.145719 -16.403662
Te -13.121548 -13.145719 -13.121548
Te -13.121548 -9.863606 -9.839435
Te -9.839435 -9.863606 -13.121548
Te -9.839435 -13.145719 -9.839435
Te -13.121548 -13.145719 -6.557321
Te -13.121548 -9.863606 -3.275207
Te -9.839435 -9.863606 -6.557321
Te -9.839435 -13.145719 -3.275207
Te -13.121548 -13.145719 0.006906
Te -13.121548 -9.863606 3.289020
Te -9.839435 -9.863606 0.006906
Te -9.839435 -13.145719 3.289020
Te -13.121548 -13.145719 6.571133
Te -13.121548 -9.863606 9.853247
Te -9.839435 -9.863606 6.571133
Te -9.839435 -13.145719 9.853247
Te -9.839435 -9.863606 13.135360
Te -13.121548 -6.581492 -19.685775
Te -13.121548 -3.299379 -16.403662
Te -9.839435 -3.299379 -19.685775
Te -9.839435 -6.581492 -16.403662
Te -13.121548 -6.581492 -13.121548
Te -13.121548 -3.299379 -9.839435
Te -9.839435 -3.299379 -13.121548
Te -9.839435 -6.581492 -9.839435
Te -13.121548 -6.581492 -6.557321
Te -13.121548 -3.299379 -3.275207
Te -9.839435 -3.299379 -6.557321
Te -9.839435 -6.581492 -3.275207
Te -13.121548 -6.581492 0.006906
Te -13.121548 -3.299379 3.289020
Te -9.839435 -3.299379 0.006906
Te -9.839435 -6.581492 3.289020
Te -13.121548 -6.581492 6.571133
Te -13.121548 -3.299379 9.853247
Te -9.839435 -3.299379 6.571133
Te -9.839435 -6.581492 9.853247
Te -13.121548 -6.581492 13.135360
Te -13.121548 -3.299379 16.417474
Te -9.839435 -3.299379 13.135360
Te -9.839435 -6.581492 16.417474
Te -9.839435 -3.299379 19.699587
Te -13.121548 -0.017265 -19.685775
Te -13.121548 3.264848 -16.403662
Te -9.839435 3.264848 -19.685775
Te -9.839435 -0.017265 -16.403662
Te -13.121548 -0.017265 -13.121548
Te -13.121548 3.264848 -9.839435
Te -9.839435 3.264848 -13.121548
Te -9.839435 -0.017265 -9.839435
Te -13.121548 -0.017265 -6.557321
Te -13.121548 3.264848 -3.275207
Te -9.839435 3.264848 -6.557321
Te -9.839435 -0.017265 -3.275207
Te -13.121548 -0.017265 0.006906
Te -13.121548 3.264848 3.289020
Te -9.839435 3.264848 0.006906
Te -9.839435 -0.017265 3.289020
Te -13.121548 -0.017265 6.571133
Te -13.121548 3.264848 9.853247
Te -9.839435 3.264848 6.571133
Te -9.839435 -0.017265 9.853247
Te -13.121548 -0.017265 13.135360
Te -13.121548 3.264848 16.417474
Te -9.839435 3.264848 13.135360
Te -9.839435 -0.017265 16.417474
Te -13.121548 -0.017265 19.699587
Te -9.839435 3.264848 19.699587
Te -9.839435 6.546962 -16.403662
Te -13.121548 6.546962 -13.121548
Te -13.121548 9.829075 -9.839435
Te -9.839435 9.829075 -13.121548
Te -9.839435 6.546962 -9.839435
Te -13.121548 6.546962 -6.557321
Te -13.121548 9.829075 -3.275207
Te -9.839435 9.829075 -6.557321
Te -9.839435 6.546962 -3.275207
Te -13.121548 6.546962 0.006906
Te -13.121548 9.829075 3.289020
Te -9.839435 9.829075 0.006906
Te -9.839435 6.546962 3.289020
Te -13.121548 6.546962 6.571133
Te -13.121548 9.829075 9.853247
Te -9.839435 9.829075 6.571133
Te -9.839435 6.546962 9.853247
Te -13.121548 6.546962 13.135360
Te -13.121548 9.829075 16.417474
Te -9.839435 9.829075 13.135360
Te -9.839435 6.546962 16.417474
Te -13.121548 6.546962 19.699587
Te -9.839435 9.829075 19.699587
Te -9.839435 13.111189 -9.839435
Te -13.121548 13.111189 -6.557321
Te -13.121548 16.393303 -3.275207
Te -9.839435 16.393303 -6.557321
Te -9.839435 13.111189 -3.275207
Te -13.121548 13.111189 0.006906
Te -13.121548 16.393303 3.289020
Te -9.839435 16.393303 0.006906
Te -9.839435 13.111189 3.289020
Te -13.121548 13.111189 6.571133
Te -13.121548 16.393303 9.853247
Te -9.839435 16.393303 6.571133
Te -9.839435 13.111189 9.853247
Te -13.121548 13.111189 13.135360
Te -9.839435 16.393303 13.135360
Te -9.839435 13.111189 16.417474
Te -9.839435 19.675416 -3.275207
Te -13.121548 19.675416 0.006906
Te -9.839435 19.675416 3.289020
Te -13.121548 19.675416 6.571133
Te -9.839435 19.675416 9.853247
Te -6.557321 -16.427833 -16.403662
Te -3.275207 -16.427833 -19.685775
Te -3.275207 -19.709947 -16.403662
Te -6.557321 -19.709947 -13.121548
Te -6.557321 -16.427833 -9.839435
Te -3.275207 -16.427833 -13.121548
Te -3.275207 -19.709947 -9.839435
Te -6.557321 -19.709947 -6.557321
Te -6.557321 -16.427833 -3.275207
Te -3.275207 -16.427833 -6.557321
Te -3.275207 -19.709947 -3.275207
Te -6.557321 -19.709947 0.006906
Te -6.557321 -16.427833 3.289020
Te -3.275207 -16.427833 0.006906
Te -3.275207 -19.709947 3.289020
Te -6.557321 -19.709947 6.571133
Te -6.557321 -16.427833 9.853247
Te -3.275207 -16.427833 6.571133
Te -3.275207 -19.709947 9.853247
Te -3.275207 -16.427833 13.135360
Te -6.557321 -13.145719 -19.685775
Te -6.557321 -9.863606 -16.403662
Te -3.275207 -9.863606 -19.685775
Te -3.275207 -13.145719 -16.403662
Te -6.557321 -13.145719 -13.121548
Te -6.557321 -9.863606 -9.839435
Te -3.275207 -9.863606 -13.121548
Te -3.275207 -13.145719 -9.839435
Te -6.557321 -13.145719 -6.557321
Te -6.557321 -9.863606 -3.275207
Te -3.275207 -9.863606 -6.557321
Te -3.275207 -13.145719 -3.275207
Te -6.557321 -13.145719 0.006906
Te -6.557321 -9.863606 3.289020
Te -3.275207 -9.863606 0.006906
Te -3.275207 -13.145719 3.289020
Te -6.557321 -13.145719 6.571133
Te -6.557321 -9.863606 9.853247
Te -3.275207 -9.863606 6.571133
Te -3.275207 -13.145719 9.853247
Te -6.557321 -13.145719 13.135360
Te -6.557321 -9.863606 16.417474
Te -3.275207 -9.863606 13.135360
Te -3.275207 -13.145719 16.417474
Te -3.275207 -9.863606 19.699587
Te -6.557321 -6.581492 -19.685775
Te -6.557321 -3.299379 -16.403662
Te -3.275207 -3.299379 -19.685775
Te -3.275207 -6.581492 -16.403662
Te -6.557321 -6.581492 -13.121548
Te -6.557321 -3.299379 -9.839435
Te -3.275207 -3.299379 -13.121548
Te -3.275207 -6.581492 -9.839435
Te -6.557321 -6.581492 -6.557321
Te -6.557321 -3.299379 -3.275207
Te -3.275207 -3.299379 -6.557321
Te -3.275207 -6.581492 -3.275207
Te -6.557321 -6.581492 0.006906
Te -6.557321 -3.299379 3.289020
Te -3.275207 -3.299379 0.006906
Te -3.275207 -6.581492 3.289020
Te -6.557321 -6.581492 6.571133
Te -6.557321 -3.299379 9.853247
Te -3.275207 -3.299379 6.571133
Te -3.275207 -6.581492 9.853247
Te -6.557321 -6.581492 13.135360
Te -6.557321 -3.299379 16.417474
Te -3.275207 -3.299379 13.135360
Te -3.275207 -6.581492 16.417474
Te -6.557321 -6.581492 19.699587
Te -3.275207 -3.299379 19.699587
Te -6.557321 -0.017265 -19.685775
Te -6.557321 3.264848 -16.403662
Te -3.275207 3.264848 -19.685775
Te -3.275207 -0.017265 -16.403662
Te -6.557321 -0.017265 -13.121548
Te -6.557321 3.264848 -9.839435
Te -3.275207 3.264848 -13.121548
Te -3.275207 -0.017265 -9.839435
Te -6.557321 -0.017265 -6.557321
Te -6.557321 3.264848 -3.275207
Te -3.275207 3.264848 -6.557321
Te -3.275207 -0.017265 -3.275207
Te -6.557321 -0.017265 0.006906
Te -6.557321 3.264848 3.289020
Te -3.275207 3.264848 0.006906
Te -3.275207 -0.017265 3.289020
Te -6.557321 -0.017265 6.571133
Te -6.557321 3.264848 9.853247
Te -3.275207 3.264848 6.571133
Te -3.275207 -0.017265 9.853247
Te -6.557321 -0.017265 13.135360
Te -6.557321 3.264848 16.417474
Te -3.275207 3.264848 13.135360
Te -3.275207 -0.017265 16.417474
Te -6.557321 -0.017265 19.699587
Te -3.275207 3.264848 19.699587
Te -6.557321 6.546962 -19.685775
Te -6.557321 9.829075 -16.403662
Te -3.275207 9.829075 -19.685775
Te -3.275207 6.546962 -16.403662
Te -6.557321 6.546962 -13.121548
Te -6.557321 9.829075 -9.839435
Te -3.275207 9.829075 -13.121548
Te -3.275207 6.546962 -9.839435
Te -6.557321 6.546962 -6.557321
Te -6.557321 9.829075 -3.275207
Te -3.275207 9.829075 -6.557321
Te -3.275207 6.546962 -3.275207
Te -6.557321 6.546962 0.006906
Te -6.557321 9.829075 3.289020
Te -3.275207 9.829075 0.006906
Te -3.275207 6.546962 3.289020
Te -6.557321 6.546962 6.571133
Te -6.557321 9.829075 9.853247
Te -3.275207 9.829075 6.571133
Te -3.275207 6.546962 9.853247
Te -6.557321 6.546962 13.135360
Te -6.557321 9.829075 16.417474
Te -3.275207 9.829075 13.135360
Te -3.275207 6.546962 16.417474
Te -6.557321 6.546962 19.699587
Te -3.275207 9.829075 19.699587
Te -3.275207 13.111189 -16.403662
Te -6.557321 13.111189 -13.121548
Te -6.557321 16.393303 -9.839435
Te -3.275207 16.393303 -13.121548
Te -3.275207 13.111189 -9.839435
Te -6.557321 13.111189 -6.557321
Te -6.557321 16.393303 -3.275207
Te -3.275207 16.393303 -6.557321
Te -3.275207 13.111189 -3.275207
Te -6.557321 13.111189 0.006906
Te -6.557321 16.393303 3.289020
Te -3.275207 16.393303 0.006906
Te -3.275207 13.111189 3.289020
Te -6.557321 13.111189 6.571133
Te -6.557321 16.393303 9.853247
Te -3.275207 16.393303 6.571133
Te -3.275207 13.111189 9.853247
Te -6.557321 13.111189 13.135360
Te -6.557321 16.393303 16.417474
Te -3.275207 16.393303 13.135360
Te -3.275207 13.111189 16.417474
Te -6.557321 13.111189 19.699587
Te -3.275207 16.393303 19.699587
Te -3.275207 19.675416 -9.839435
Te -6.557321 19.675416 -6.557321
Te -3.275207 19.675416 -3.275207
Te -6.557321 19.675416 0.006906
Te -3.275207 19.675416 3.289020
Te -6.557321 19.675416 6.571133
Te -3.275207 19.675416 9.853247
Te -6.557321 19.675416 13.135360
Te -3.275207 19.675416 16.417474
Te 0.006906 -16.427833 -16.403662
Te 0.006906 -19.709947 -13.121548
Te 0.006906 -16.427833 -9.839435
Te 3.289020 -16.427833 -13.121548
Te 3.289020 -19.709947 -9.839435
Te 0.006906 -19.709947 -6.557321
Te 0.006906 -16.427833 -3.275207
Te 3.289020 -16.427833 -6.557321
Te 3.289020 -19.709947 -3.275207
Te 0.006906 -19.709947 0.006906
Te 0.006906 -16.427833 3.289020
Te 3.289020 -16.427833 0.006906
Te 3.289020 -19.709947 3.289020
Te 0.006906 -19.709947 6.571133
Te 0.006906 -16.427833 9.853247
Te 3.289020 -16.427833 6.571133
Te 3.289020 -19.709947 9.853247
Te 0.006906 -19.709947 13.135360
Te 0.006906 -16.427833 16.417474
Te 3.289020 -16.427833 13.135360
Te 3.289020 -19.709947 16.417474
Te 3.289020 -16.427833 19.699587
Te 0.006906 -13.145719 -19.685775
Te 0.006906 -9.863606 -16.403662
Te 3.289020 -9.863606 -19.685775
Te 3.289020 -13.145719 -16.403662
Te 0.006906 -13.145719 -13.121548
Te 0.006906 -9.863606 -9.839435
Te 3.289020 -9.863606 -13.121548
Te 3.289020 -13.145719 -9.839435
Te 0.006906 -13.145719 -6.557321
Te 0.006906 -9.863606 -3.275207
Te 3.289020 -9.863606 -6.557321
Te 3.289020 -13.145719 -3.275207
Te 0.006906 -13.145719 0.006906
Te 0.006906 -9.863606 3.289020
Te 3.289020 -9.863606 0.006906
Te 3.289020 -13.145719 3.289020
Te 0.006906 -13.145719 6.571133
Te 0.006906 -9.863606 9.853247
Te 3.289020 -9.863606 6.571133
Te 3.289020 -13.145719 9.853247
Te 0.006906 -13.145719 13.135360
Te 0.006906 -9.863606 16.417474
Te 3.289020 -9.863606 13.135360
Te 3.289020 -13.145719 16.417474
Te 0.006906 -13.145719 19.699587
Te 3.289020 -9.863606 19.699587
Te 0.006906 -6.581492 -19.685775
Te 0.006906 -3.299379 -16.403662
Te 3.289020 -3.299379 -19.685775
Te 3.289020 -6.581492 -16.403662
Te 0.006906 -6.581492 -13.121548
Te 0.006906 -3.299379 -9.839435
Te 3.289020 -3.299379 -13.121548
Te 3.289020 -6.581492 -9.839435
Te 0.006906 -6.581492 -6.557321
Te 0.006906 -3.299379 -3.275207
Te 3.289020 -3.299379 -6.557321
Te 3.289020 -6.581492 -3.275207
Te 0.006906 -6.581492 0.006906
Te 0.006906 -3.299379 3.289020
Te 3.289020 -3.299379 0.006906
Te 3.289020 -6.581492 3.289020
Te 0.006906 -6.581492 6.571133
Te 0.006906 -3.299379 9.853247
Te 3.289020 -3.299379 6.571133
Te 3.289020 -6.581492 9.853247
Te 0.006906 -6.581492 13.135360
Te 0.006906 -3.299379 16.417474
Te 3.289020 -3.299379 13.135360
Te 3.289020 -6.581492 16.417474
Te 0.006906 -6.581492 19.699587
Te 3.289020 -3.299379 19.699587
Te 0.006906 -0.017265 -19.685775
Te 0.006906 3.264848 -16.403662
Te 3.289020 3.264848 -19.685775
Te 3.289020 -0.017265 -16.403662
Te 0.006906 -0.017265 -13.121548
Te 0.006906 3.264848 -9.839435
Te 3.289020 3.264848 -13.121548
Te 3.289020 -0.017265 -9.839435
Te 0.006906 -0.017265 -6.557321
Te 0.006906 3.264848 -3.275207
Te 3.289020 3.264848 -6.557321
Te 3.289020 -0.017265 -3.275207
Te 0.006906 -0.017265 0.006906
Te 0.006906 3.264848 3.289020
Te 3.289020 3.264848 0.006906
Te 3.289020 -0.017265 3.289020
Te 0.006906 -0.017265 6.571133
Te 0.006906 3.264848 9.853247
Te 3.289020 3.264848 6.571133
Te 3.289020 -0.017265 9.853247
Te 0.006906 -0.017265 13.135360
Te 0.006906 3.264848 16.417474
Te 3.289020 3.264848 13.135360
Te 3.289020 -0.017265 16.417474
Te 0.006906 -0.017265 19.699587
Te 3.289020 3.264848 19.699587
Te 0.006906 6.546962 -19.685775
Te 0.006906 9.829075 -16.403662
Te 3.289020 9.829075 -19.685775
Te 3.289020 6.546962 -16.403662
Te 0.006906 6.546962 -13.121548
Te 0.006906 9.829075 -9.839435
Te 3.289020 9.829075 -13.121548
Te 3.289020 6.546962 -9.839435
Te 0.006906 6.546962 -6.557321
Te 0.006906 9.829075 -3.275207
Te 3.289020 9.829075 -6.557321
Te 3.289020 6.546962 -3.275207
Te 0.006906 6.546962 0.006906
Te 0.006906 9.829075 3.289020
Te 3.289020 9.829075 0.006906
Te 3.289020 6.546962 3.289020
Te 0.006906 6.546962 6.571133
Te 0.006906 9.829075 9.853247
Te 3.289020 9.829075 6.571133
Te 3.289020 6.546962 9.853247
Te 0.006906 6.546962 13.135360
Te 0.006906 9.829075 16.417474
Te 3.289020 9.829075 13.135360
Te 3.289020 6.546962 16.417474
Te 0.006906 6.546962 19.699587
Te 3.289020 9.829075 19.699587
Te 0.006906 13.111189 -19.685775
Te 0.006906 16.393303 -16.403662
Te 3.289020 16.393303 -19.685775
Te 3.289020 13.111189 -16.403662
Te 0.006906 13.111189 -13.121548
Te 0.006906 16.393303 -9.839435
Te 3.289020 16.393303 -13.121548
Te 3.289020 13.111189 -9.839435
Te 0.006906 13.111189 -6.557321
Te 0.006906 16.393303 -3.275207
Te 3.289020 16.393303 -6.557321
Te 3.289020 13.111189 -3.275207
Te 0.006906 13.111189 0.006906
Te 0.006906 16.393303 3.289020
Te 3.289020 16.393303 0.006906
Te 3.289020 13.111189 3.289020
Te 0.006906 13.111189 6.571133
Te 0.006906 16.393303 9.853247
Te 3.289020 16.393303 6.571133
Te 3.289020 13.111189 9.853247
Te 0.006906 13.111189 13.135360
Te 0.006906 16.393303 16.417474
Te 3.289020 16.393303 13.135360
Te 3.289020 13.111189 16.417474
Te 0.006906 13.111189 19.699587
Te 3.289020 19.675416 -16.403662
Te 0.006906 19.675416 -13.121548
Te 3.289020 19.675416 -9.839435
Te 0.006906 19.675416 -6.557321
Te 3.289020 19.675416 -3.275207
Te 0.006906 19.675416 0.006906
Te 3.289020 19.675416 3.289020
Te 0.006906 19.675416 6.571133
Te 3.289020 19.675416 9.853247
Te 0.006906 19.675416 13.135360
Te 6.571133 -16.427833 -9.839435
Te 6.571133 -19.709947 -6.557321
Te 6.571133 -16.427833 -3.275207
Te 9.853247 -16.427833 -6.557321
Te 9.853247 -19.709947 -3.275207
Te 6.571133 -19.709947 0.006906
Te 6.571133 -16.427833 3.289020
Te 9.853247 -16.427833 0.006906
Te 9.853247 -19.709947 3.289020
Te 6.571133 -19.709947 6.571133
Te 6.571133 -16.427833 9.853247
Te 9.853247 -16.427833 6.571133
Te 9.853247 -19.709947 9.853247
Te 6.571133 -19.709947 13.135360
Te 6.571133 -16.427833 16.417474
Te 9.853247 -16.427833 13.135360
Te 6.571133 -9.863606 -16.403662
Te 6.571133 -13.145719 -13.121548
Te 6.571133 -9.863606 -9.839435
Te 9.853247 -9.863606 -13.121548
Te 9.853247 -13.145719 -9.839435
Te 6.571133 -13.145719 -6.557321
Te 6.571133 -9.863606 -3.275207
Te 9.853247 -9.863606 -6.557321
Te 9.853247 -13.145719 -3.275207
Te 6.571133 -13.145719 0.006906
Te 6.571133 -9.863606 3.289020
Te 9.853247 -9.863606 0.006906
Te 9.853247 -13.145719 3.289020
Te 6.571133 -13.145719 6.571133
Te 6.571133 -9.863606 9.853247
Te 9.853247 -9.863606 6.571133
Te 9.853247 -13.145719 9.853247
Te 6.571133 -13.145719 13.135360
Te 6.571133 -9.863606 16.417474
Te 9.853247 -9.863606 13.135360
Te 9.853247 -13.145719 16.417474
Te 6.571133 -13.145719 19.699587
Te 9.853247 -9.863606 19.699587
Te 6.571133 -6.581492 -19.685775
Te 6.571133 -3.299379 -16.403662
Te 9.853247 -3.299379 -19.685775
Te 9.853247 -6.581492 -16.403662
Te 6.571133 -6.581492 -13.121548
Te 6.571133 -3.299379 -9.839435
Te 9.853247 -3.299379 -13.121548
Te 9.853247 -6.581492 -9.839435
Te 6.571133 -6.581492 -6.557321
Te 6.571133 -3.299379 -3.275207
Te 9.853247 -3.299379 -6.557321
Te 9.853247 -6.581492 -3.275207
Te 6.571133 -6.581492 0.006906
Te 6.571133 -3.299379 3.289020
Te 9.853247 -3.299379 0.006906
Te 9.853247 -6.581492 3.289020
Te 6.571133 -6.581492 6.571133
Te 6.571133 -3.299379 9.853247
Te 9.853247 -3.299379 6.571133
Te 9.853247 -6.581492 9.853247
Te 6.571133 -6.581492 13.135360
Te 6.571133 -3.299379 16.417474
Te 9.853247 -3.299379 13.135360
Te 9.853247 -6.581492 16.417474
Te 6.571133 -6.581492 19.699587
Te 9.853247 -3.299379 19.699587
Te 6.571133 -0.017265 -19.685775
Te 6.571133 3.264848 -16.403662
Te 9.853247 3.264848 -19.685775
Te 9.853247 -0.017265 -16.403662
Te 6.571133 -0.017265 -13.121548
Te 6.571133 3.264848 -9.839435
Te 9.853247 3.264848 -13.121548
Te 9.853247 -0.017265 -9.839435
Te 6.571133 -0.017265 -6.557321
Te 6.571133 3.264848 -3.275207
Te 9.853247 3.264848 -6.557321
Te 9.853247 -0.017265 -3.275207
Te 6.571133 -0.017265 0.006906
Te 6.571133 3.264848 3.289020
Te 9.853247 3.264848 0.006906
Te 9.853247 -0.017265 3.289020
Te 6.571133 -0.017265 6.571133
Te 6.571133 3.264848 9.853247
Te 9.853247 3.264848 6.571133
Te 9.853247 -0.017265 9.853247
Te 6.571133 -0.017265 13.135360
Te 6.571133 3.264848 16.417474
Te 9.853247 3.264848 13.135360
Te 9.853247 -0.017265 16.417474
Te 6.571133 -0.017265 19.699587
Te 9.853247 3.264848 19.699587
Te 6.571133 6.546962 -19.685775
Te 6.571133 9.829075 -16.403662
Te 9.853247 9.829075 -19.685775
Te 9.853247 6.546962 -16.403662
Te 6.571133 6.546962 -13.121548
Te 6.571133 9.829075 -9.839435
Te 9.853247 9.829075 -13.121548
Te 9.853247 6.546962 -9.839435
Te 6.571133 6.546962 -6.557321
Te 6.571133 9.829075 -3.275207
Te 9.853247 9.829075 -6.557321
Te 9.853247 6.546962 -3.275207
Te 6.571133 6.546962 0.006906
Te 6.571133 9.829075 3.289020
Te 9.853247 9.829075 0.006906
Te 9.853247 6.546962 3.289020
Te 6.571133 6.546962 6.571133
Te 6.571133 9.829075 9.853247
Te 9.853247 9.829075 6.571133
Te 9.853247 6.546962 9.853247
Te 6.571133 6.546962 13.135360
Te 6.571133 9.829075 16.417474
Te 9.853247 9.829075 13.135360
Te 9.853247 6.546962 16.417474
Te 6.571133 6.546962 19.699587
Te 6.571133 13.111189 -19.685775
Te 6.571133 16.393303 -16.403662
Te 9.853247 13.111189 -16.403662
Te 6.571133 13.111189 -13.121548
Te 6.571133 16.393303 -9.839435
Te 9.853247 16.393303 -13.121548
Te 9.853247 13.111189 -9.839435
Te 6.571133 13.111189 -6.557321
Te 6.571133 16.393303 -3.275207
Te 9.853247 16.393303 -6.557321
Te 9.853247 13.111189 -3.275207
Te 6.571133 13.111189 0.006906
Te 6.571133 16.393303 3.289020
Te 9.853247 16.393303 0.006906
Te 9.853247 13.111189 3.289020
Te 6.571133 13.111189 6.571133
Te 6.571133 16.393303 9.853247
Te 9.853247 16.393303 6.571133
Te 9.853247 13.111189 9.853247
Te 6.571133 13.111189 13.135360
Te 6.571133 19.675416 -13.121548
Te 9.853247 19.675416 -9.839435
Te 6.571133 19.675416 -6.557321
Te 9.853247 19.675416 -3.275207
Te 6.571133 19.675416 0.006906
Te 9.853247 19.675416 3.289020
Te 6.571133 19.675416 6.571133
Te 13.135360 -16.427833 -3.275207
Te 13.135360 -19.709947 0.006906
Te 13.135360 -16.427833 3.289020
Te 16.417474 -16.427833 0.006906
Te 16.417474 -19.709947 3.289020
Te 13.135360 -19.709947 6.571133
Te 13.135360 -16.427833 9.853247
Te 16.417474 -16.427833 6.571133
Te 13.135360 -9.863606 -9.839435
Te 13.135360 -13.145719 -6.557321
Te 13.135360 -9.863606 -3.275207
Te 16.417474 -9.863606 -6.557321
Te 16.417474 -13.145719 -3.275207
Te 13.135360 -13.145719 0.006906
Te 13.135360 -9.863606 3.289020
Te 16.417474 -9.863606 0.006906
Te 16.417474 -13.145719 3.289020
Te 13.135360 -13.145719 6.571133
Te 13.135360 -9.863606 9.853247
Te 16.417474 -9.863606 6.571133
Te 16.417474 -13.145719 9.853247
Te 13.135360 -13.145719 13.135360
Te 13.135360 -9.863606 16.417474
Te 16.417474 -9.863606 13.135360
Te 13.135360 -3.299379 -16.403662
Te 13.135360 -6.581492 -13.121548
Te 13.135360 -3.299379 -9.839435
Te 16.417474 -3.299379 -13.121548
Te 16.417474 -6.581492 -9.839435
Te 13.135360 -6.581492 -6.557321
Te 13.135360 -3.299379 -3.275207
Te 16.417474 -3.299379 -6.557321
Te 16.417474 -6.581492 -3.275207
Te 13.135360 -6.581492 0.006906
Te 13.135360 -3.299379 3.289020
Te 16.417474 -3.299379 0.006906
Te 16.417474 -6.581492 3.289020
Te 13.135360 -6.581492 6.571133
Te 13.135360 -3.299379 9.853247
Te 16.417474 -3.299379 6.571133
Te 16.417474 -6.581492 9.853247
Te 13.135360 -6.581492 13.135360
Te 13.135360 -3.299379 16.417474
Te 16.417474 -3.299379 13.135360
Te 16.417474 -6.581492 16.417474
Te 13.135360 -6.581492 19.699587
Te 16.417474 -3.299379 19.699587
Te 13.135360 -0.017265 -19.685775
Te 13.135360 3.264848 -16.403662
Te 16.417474 3.264848 -19.685775
Te 16.417474 -0.017265 -16.403662
Te 13.135360 -0.017265 -13.121548
Te 13.135360 3.264848 -9.839435
Te 16.417474 3.264848 -13.121548
Te 16.417474 -0.017265 -9.839435
Te 13.135360 -0.017265 -6.557321
Te 13.135360 3.264848 -3.275207
Te 16.417474 3.264848 -6.557321
Te 16.417474 -0.017265 -3.275207
Te 13.135360 -0.017265 0.006906
Te 13.135360 3.264848 3.289020
Te 16.417474 3.264848 0.006906
Te 16.417474 -0.017265 3.289020
Te 13.135360 -0.017265 6.571133
Te 13.135360 3.264848 9.853247
Te 16.417474 3.264848 6.571133
Te 16.417474 -0.017265 9.853247
Te 13.135360 -0.017265 13.135360
Te 13.135360 3.264848 16.417474
Te 16.417474 3.264848 13.135360
Te 16.417474 -0.017265 16.417474
Te 13.135360 -0.017265 19.699587
Te 13.135360 6.546962 -19.685775
Te 13.135360 9.829075 -16.403662
Te 16.417474 6.546962 -16.403662
Te 13.135360 6.546962 -13.121548
Te 13.135360 9.829075 -9.839435
Te 16.417474 9.829075 -13.121548
Te 16.417474 6.546962 -9.839435
Te 13.135360 6.546962 -6.557321
Te 13.135360 9.829075 -3.275207
Te 16.417474 9.829075 -6.557321
Te 16.417474 6.546962 -3.275207
Te 13.135360 6.546962 0.006906
Te 13.135360 9.829075 3.289020
Te 16.417474 9.829075 0.006906
Te 16.417474 6.546962 3.289020
Te 13.135360 6.546962 6.571133
Te 13.135360 9.829075 9.853247
Te 16.417474 9.829075 6.571133
Te 16.417474 6.546962 9.853247
Te 13.135360 6.546962 13.135360
Te 13.135360 13.111189 -13.121548
Te 13.135360 16.393303 -9.839435
Te 16.417474 13.111189 -9.839435
Te 13.135360 13.111189 -6.557321
Te 13.135360 16.393303 -3.275207
Te 16.417474 16.393303 -6.557321
Te 16.417474 13.111189 -3.275207
Te 13.135360 13.111189 0.006906
Te 13.135360 16.393303 3.289020
Te 16.417474 16.393303 0.006906
Te 16.417474 13.111189 3.289020
Te 13.135360 13.111189 6.571133
Te 13.135360 19.675416 -6.557321
Te 16.417474 19.675416 -3.275207
Te 13.135360 19.675416 0.006906
Te 19.699587 -16.427833 3.289020
Te 19.699587 -9.863606 -3.275207
Te 19.699587 -13.145719 0.006906
Te 19.699587 -9.863606 3.289020
Te 19.699587 -13.145719 6.571133
Te 19.699587 -9.863606 9.853247
Te 19.699587 -3.299379 -9.839435
Te 19.699587 -6.581492 -6.557321
Te 19.699587 -3.299379 -3.275207
Te 19.699587 -6.581492 0.006906
Te 19.699587 -3.299379 3.289020
Te 19.699587 -6.581492 6.571133
Te 19.699587 -3.299379 9.853247
Te 19.699587 -6.581492 13.135360
Te 19.699587 -3.299379 16.417474
Te 19.699587 3.264848 -16.403662
Te 19.699587 -0.017265 -13.121548
Te 19.699587 3.264848 -9.839435
Te 19.699587 -0.017265 -6.557321
Te 19.699587 3.264848 -3.275207
Te 19.699587 -0.017265 0.006906
Te 19.699587 3.264848 3.289020
Te 19.699587 -0.017265 6.571133
Te 19.699587 3.264848 9.853247
Te 19.699587 -0.017265 13.135360
Te 19.699587 6.546962 -13.121548
Te 19.699587 9.829075 -9.839435
Te 19.699587 6.546962 -6.557321
Te 19.699587 9.829075 -3.275207
Te 19.699587 6.546962 0.006906
Te 19.699587 9.829075 3.289020
Te 19.699587 6.546962 6.571133
Te 19.699587 13.111189 -6.557321
Te 19.699587 16.393303 -3.275207
Te 19.699587 13.111189 0.006906
Cl -22.967889 -9.863606 -6.557321
Cl -22.967889 -13.145719 -3.275207
Cl -22.967889 -9.863606 0.006906
Cl -22.967889 -3.299379 -13.121548
Cl -22.967889 -6.581492 -9.839435
Cl -22.967889 -3.299379 -6.557321
Cl -22.967889 -6.581492 -3.275207
Cl -22.967889 -3.299379 0.006906
Cl -22.967889 -6.581492 3.289020
Cl -22.967889 -3.299379 6.571133
Cl -22.967889 -0.017265 -9.839435
Cl -22.967889 3.264848 -6.557321
Cl -22.967889 -0.017265 -3.275207
Cl -22.967889 3.264848 0.006906
Cl -22.967889 -0.017265 3.289020
Cl -22.967889 3.264848 6.571133
Cl -22.967889 -0.017265 9.853247
Cl -22.967889 3.264848 13.135360
Cl -22.967889 6.546962 -3.275207
Cl -22.967889 9.829075 0.006906
Cl -22.967889 6.546962 3.289020
Cl -22.967889 9.829075 6.571133
Cl -22.967889 6.546962 9.853247
Cl -22.967889 13.111189 3.289020
Cl -13.121548 -22.992060 -3.275207
Cl -9.839435 -22.992060 -6.557321
Cl -9.839435 -22.992060 0.006906
Cl -13.121548 -3.299379 -22.967889
Cl -9.839435 -6.581492 -22.967889
Cl -9.839435 -0.017265 -22.967889
Cl -13.121548 3.264848 22.981701
Cl -9.839435 -0.017265 22.981701
Cl -9.839435 6.546962 22.981701
Cl -13.121548 22.957530 3.289020
Cl -9.839435 22.957530 0.006906
Cl -9.839435 22.957530 6.571133
Cl -6.557321 -22.992060 -9.839435
Cl -3.275207 -22.992060 -13.121548
Cl -6.557321 -22.992060 -3.275207
Cl -3.275207 -22.992060 -6.557321
Cl -6.557321 -22.992060 3.289020
Cl -3.275207 -22.992060 0.006906
Cl -3.275207 -22.992060 6.571133
Cl -6.557321 -9.863606 -22.967889
Cl -3.275207 -13.145719 -22.967889
Cl -6.557321 -3.299379 -22.967889
Cl -3.275207 -6.581492 -22.967889
Cl -6.557321 -3.299379 22.981701
Cl -3.275207 -6.581492 22.981701
Cl -6.557321 3.264848 -22.967889
Cl -3.275207 -0.017265 -22.967889
Cl -6.557321 3.264848 22.981701
Cl -3.275207 -0.017265 22.981701
Cl -3.275207 6.546962 -22.967889
Cl -6.557321 9.829075 22.981701
Cl -3.275207 6.546962 22.981701
Cl -3.275207 13.111189 22.981701
Cl -6.557321 22.957530 -3.275207
Cl -3.275207 22.957530 -6.557321
Cl -6.557321 22.957530 3.289020
Cl -3.275207 22.957530 0.006906
Cl -6.557321 22.957530 9.853247
Cl -3.275207 22.957530 6.571133
Cl -3.275207 22.957530 13.135360
Cl 0.006906 -22.992060 -9.839435
Cl 0.006906 -22.992060 -3.275207
Cl 3.289020 -22.992060 -6.557321
Cl 0.006906 -22.992060 3.289020
Cl 3.289020 -22.992060 0.006906
Cl 0.006906 -22.992060 9.853247
Cl 3.289020 -22.992060 6.571133
Cl 3.289020 -22.992060 13.135360
Cl 0.006906 -9.863606 -22.967889
Cl 0.006906 -9.863606 22.981701
Cl 3.289020 -13.145719 22.981701
Cl 0.006906 -3.299379 -22.967889
Cl 3.289020 -6.581492 -22.967889
Cl 0.006906 -3.299379 22.981701
Cl 3.289020 -6.581492 22.981701
Cl 0.006906 3.264848 -22.967889
Cl 3.289020 -0.017265 -22.967889
Cl 0.006906 3.264848 22.981701
Cl 3.289020 -0.017265 22.981701
Cl 0.006906 9.829075 -22.967889
Cl 3.289020 6.546962 -22.967889
Cl 0.006906 9.829075 22.981701
Cl 3.289020 6.546962 22.981701
Cl 3.289020 13.111189 -22.967889
Cl 0.006906 22.957530 -9.839435
Cl 3.289020 22.957530 -13.121548
Cl 0.006906 22.957530 -3.275207
Cl 3.289020 22.957530 -6.557321
Cl 0.006906 22.957530 3.289020
Cl 3.289020 22.957530 0.006906
Cl 0.006906 22.957530 9.853247
Cl 3.289020 22.957530 6.571133
Cl 6.571133 -22.992060 -3.275207
Cl 6.571133 -22.992060 3.289020
Cl 9.853247 -22.992060 0.006906
Cl 6.571133 -22.992060 9.853247
Cl 9.853247 -22.992060 6.571133
Cl 6.571133 -9.863606 22.981701
Cl 6.571133 -3.299379 -22.967889
Cl 6.571133 -3.299379 22.981701
Cl 9.853247 -6.581492 22.981701
Cl 6.571133 3.264848 -22.967889
Cl 9.853247 -0.017265 -22.967889
Cl 6.571133 3.264848 22.981701
Cl 9.853247 -0.017265 22.981701
Cl 6.571133 9.829075 -22.967889
Cl 9.853247 6.546962 -22.967889
Cl 6.571133 22.957530 -9.839435
Cl 6.571133 22.957530 -3.275207
Cl 9.853247 22.957530 -6.557321
Cl 6.571133 22.957530 3.289020
Cl 9.853247 22.957530 0.006906
Cl 13.135360 -22.992060 3.289020
Cl 13.135360 -3.299379 22.981701
Cl 13.135360 3.264848 -22.967889
Cl 13.135360 22.957530 -3.275207
Cl 22.981701 -9.863606 0.006906
Cl 22.981701 -13.145719 3.289020
Cl 22.981701 -9.863606 6.571133
Cl 22.981701 -3.299379 -6.557321
Cl 22.981701 -6.581492 -3.275207
Cl 22.981701 -3.299379 0.006906
Cl 22.981701 -6.581492 3.289020
Cl 22.981701 -3.299379 6.571133
Cl 22.981701 -6.581492 9.853247
Cl 22.981701 -3.299379 13.135360
Cl 22.981701 3.264848 -13.121548
Cl 22.981701 -0.017265 -9.839435
Cl 22.981701 3.264848 -6.557321
Cl 22.981701 -0.017265 -3.275207
Cl 22.981701 3.264848 0.006906
Cl 22.981701 -0.017265 3.289020
Cl 22.981701 3.264848 6.571133
Cl 22.981701 -0.017265 9.853247
Cl 22.981701 6.546962 -9.839435
Cl 22.981701 9.829075 -6.557321
Cl 22.981701 6.546962 -3.275207
Cl 22.981701 9.829075 0.006906
Cl 22.981701 6.546962 3.289020
Cl 22.981701 13.111189 -3.275207
Cl -13.121548 -13.145719 9.853247
Cl -13.121548 9.829075 -13.121548
Cl 9.853247 -13.145719 -13.121548
Cl 9.853247 13.111189 13.135360
Cl -16.403662 -0.017265 19.699587
Cl -16.403662 19.675416 0.006906
Cl 19.699587 -16.427833 0.006906
Cl 19.699587 -0.017265 16.417474
Cl 0.006906 -16.427833 19.699587
Cl 0.006906 19.675416 -16.403662
Cl 19.699587 -0.017265 -16.403662
Cl 19.699587 16.393303 0.006906
Cl -19.685775 -16.427833 0.006906
Cl -19.685775 -0.017265 -16.403662
Cl 0.006906 -19.709947 -16.403662
Cl 0.006906 16.393303 19.699587
Cl -6.557321 -19.709947 9.853247
Cl -6.557321 9.829075 -19.685775
Cl 9.853247 -6.581492 -19.685775
Cl 9.853247 19.675416 6.571133
Cl -19.685775 -6.581492 9.853247
Cl -19.685775 9.829075 -6.557321
Cl 9.853247 -19.709947 -6.557321
Cl 9.853247 6.546962 19.699587
Cl -6.557321 -9.863606 19.699587
Cl -6.557321 19.675416 -9.839435
Cl 19.699587 -6.581492 -9.839435
Cl 19.699587 9.829075 6.571133
Cl -13.121548 -19.709947 3.289020
Cl -13.121548 3.264848 -19.685775
Cl 3.289020 -13.145719 -19.685775
Cl 3.289020 19.675416 13.135360
Cl -13.121548 -6.581492 16.417474
Cl -13.121548 16.393303 -6.557321
Cl 16.417474 -13.145719 -6.557321
Cl 16.417474 6.546962 13.135360
Cl 0.006906 -22.992060 16.417474
Cl 0.006906 16.393303 -22.967889
Cl 16.417474 -0.017265 -22.967889
Cl 16.417474 22.957530 0.006906
Cl -22.967889 -0.017265 16.417474
Cl -22.967889 16.393303 0.006906
