2028
AlAs-Al-Al881As748Cl399-reconstructed
Al -19.889103 -14.199300 -11.352298
Al -19.889103 -11.359300 -14.192298
Al -22.729103 -11.359300 -11.352298
Al -19.889103 -8.519300 -11.352298
Al -19.889103 -11.359300 -8.512298
Al -22.729103 -8.519300 -8.512298
Al -19.889103 -8.519300 -5.672298
Al -19.889103 -5.679300 -8.512298
Al -22.729103 -5.679300 -5.672298
Al -19.889103 -2.839300 -5.672298
Al -19.889103 -5.679300 -2.832298
Al -22.729103 -2.839300 -2.832298
Al -19.889103 -2.839300 0.007702
Al -19.889103 0.000700 -2.832298
Al -22.729103 0.000700 0.007702
Al -19.889103 2.840700 0.007702
Al -19.889103 0.000700 2.847702
Al -22.729103 2.840700 2.847702
Al -19.889103 2.840700 5.687702
Al -19.889103 5.680700 2.847702
Al -22.729103 5.680700 5.687702
Al -19.889103 8.520700 5.687702
Al -19.889103 5.680700 8.527702
Al -22.729103 8.520700 8.527702
Al -19.889103 8.520700 11.367702
Al -19.889103 11.360700 8.527702
Al -22.729103 11.360700 11.367702
Al -19.889103 14.200700 11.367702
Al -19.889103 11.360700 14.207702
Al -14.209103 -19.879300 -11.352298
Al -14.209103 -17.039300 -14.192298
Al -17.049103 -14.199300 -14.192298
Al -17.049103 -17.039300 -11.352298
Al -14.209103 -14.199300 -11.352298
Al -14.209103 -17.039300 -8.512298
Al -17.049103 -14.199300 -8.512298
Al -14.209103 -14.199300 -5.672298
Al -14.209103 -11.359300 -19.872298
Al -17.049103 -11.359300 -17.032298
Al -14.209103 -8.519300 -17.032298
Al -14.209103 -11.359300 -14.192298
Al -17.049103 -8.519300 -14.192298
Al -17.049103 -11.359300 -11.352298
Al -14.209103 -8.519300 -11.352298
Al -14.209103 -11.359300 -8.512298
Al -17.049103 -8.519300 -8.512298
Al -17.049103 -11.359300 -5.672298
Al -14.209103 -8.519300 -5.672298
Al -14.209103 -11.359300 -2.832298
Al -17.049103 -8.519300 -2.832298
Al -14.209103 -8.519300 0.007702
Al -14.209103 -5.679300 -14.192298
Al -17.049103 -5.679300 -11.352298
Al -14.209103 -2.839300 -11.352298
Al -14.209103 -5.679300 -8.512298
Al -17.049103 -2.839300 -8.512298
Al -17.049103 -5.679300 -5.672298
Al -14.209103 -2.839300 -5.672298
Al -14.209103 -5.679300 -2.832298
Al -17.049103 -2.839300 -2.832298
Al -17.049103 -5.679300 0.007702
Al -14.209103 -2.839300 0.007702
Al -14.209103 -5.679300 2.847702
Al -17.049103 -2.839300 2.847702
Al -14.209103 -2.839300 5.687702
Al -14.209103 0.000700 -8.512298
Al -17.049103 0.000700 -5.672298
Al -14.209103 2.840700 -5.672298
Al -14.209103 0.000700 -2.832298
Al -17.049103 2.840700 -2.832298
Al -17.049103 0.000700 0.007702
Al -14.209103 2.840700 0.007702
Al -14.209103 0.000700 2.847702
Al -17.049103 2.840700 2.847702
Al -17.049103 0.000700 5.687702
Al -14.209103 2.840700 5.687702
Al -14.209103 0.000700 8.527702
Al -17.049103 2.840700 8.527702
Al -14.209103 2.840700 11.367702
Al -14.209103 5.680700 -2.832298
Al -17.049103 5.680700 0.007702
Al -14.209103 8.520700 0.007702
Al -14.209103 5.680700 2.847702
Al -17.049103 8.520700 2.847702
Al -17.049103 5.680700 5.687702
Al -14.209103 8.520700 5.687702
Al -14.209103 5.680700 8.527702
Al -17.049103 8.520700 8.527702
Al -17.049103 5.680700 11.367702
Al -14.209103 8.520700 11.367702
Al -14.209103 5.680700 14.207702
Al -17.049103 8.520700 14.207702
Al -14.209103 8.520700 17.047702
Al -14.209103 11.360700 2.847702
Al -17.049103 11.360700 5.687702
Al -14.209103 14.200700 5.687702
Al -14.209103 11.360700 8.527702
Al -17.049103 14.200700 8.527702
Al -17.049103 11.360700 11.367702
Al -14.209103 14.200700 11.367702
Al -14.209103 11.360700 14.207702
Al -17.049103 14.200700 14.207702
Al -17.049103 11.360700 17.047702
Al -14.209103 11.360700 19.887702
Al -14.209103 17.040700 8.527702
Al -17.049103 17.040700 11.367702
Al -14.209103 19.880700 11.367702
Al -14.209103 17.040700 14.207702
Al -11.369103 -19.879300 -14.192298
Al -11.369103 -22.719300 -11.352298
Al -8.529103 -19.879300 -11.352298
Al -8.529103 -22.719300 -8.512298
Al -11.369103 -19.879300 -8.512298
Al -8.529103 -19.879300 -5.672298
Al -11.369103 -14.199300 -19.872298
Al -11.369103 -17.039300 -17.032298
Al -8.529103 -14.199300 -17.032298
Al -8.529103 -17.039300 -14.192298
Al -11.369103 -14.199300 -14.192298
Al -11.369103 -17.039300 -11.352298
Al -8.529103 -14.199300 -11.352298
Al -8.529103 -17.039300 -8.512298
Al -11.369103 -14.199300 -8.512298
Al -11.369103 -17.039300 -5.672298
Al -8.529103 -14.199300 -5.672298
Al -8.529103 -17.039300 -2.832298
Al -11.369103 -14.199300 -2.832298
Al -8.529103 -14.199300 0.007702
Al -11.369103 -11.359300 -22.712298
Al -8.529103 -8.519300 -22.712298
Al -8.529103 -11.359300 -19.872298
Al -11.369103 -11.359300 -17.032298
Al -8.529103 -8.519300 -17.032298
Al -8.529103 -11.359300 -14.192298
Al -11.369103 -8.519300 -14.192298
Al -11.369103 -11.359300 -11.352298
Al -8.529103 -8.519300 -11.352298
Al -8.529103 -11.359300 -8.512298
Al -11.369103 -8.519300 -8.512298
Al -11.369103 -11.359300 -5.672298
Al -8.529103 -8.519300 -5.672298
Al -8.529103 -11.359300 -2.832298
Al -11.369103 -8.519300 -2.832298
Al -11.369103 -11.359300 0.007702
Al -8.529103 -8.519300 0.007702
Al -8.529103 -11.359300 2.847702
Al -11.369103 -8.519300 2.847702
Al -8.529103 -8.519300 5.687702
Al -8.529103 -5.679300 -19.872298
Al -11.369103 -5.679300 -17.032298
Al -8.529103 -2.839300 -17.032298
Al -8.529103 -5.679300 -14.192298
Al -11.369103 -2.839300 -14.192298
Al -11.369103 -5.679300 -11.352298
Al -8.529103 -2.839300 -11.352298
Al -8.529103 -5.679300 -8.512298
Al -11.369103 -2.839300 -8.512298
Al -11.369103 -5.679300 -5.672298
Al -8.529103 -2.839300 -5.672298
Al -8.529103 -5.679300 -2.832298
Al -11.369103 -2.839300 -2.832298
Al -11.369103 -5.679300 0.007702
Al -8.529103 -2.839300 0.007702
Al -8.529103 -5.679300 2.847702
Al -11.369103 -2.839300 2.847702
Al -11.369103 -5.679300 5.687702
Al -8.529103 -2.839300 5.687702
Al -8.529103 -5.679300 8.527702
Al -11.369103 -2.839300 8.527702
Al -8.529103 -2.839300 11.367702
Al -8.529103 0.000700 -14.192298
Al -11.369103 0.000700 -11.352298
Al -8.529103 2.840700 -11.352298
Al -8.529103 0.000700 -8.512298
Al -11.369103 2.840700 -8.512298
Al -11.369103 0.000700 -5.672298
Al -8.529103 2.840700 -5.672298
Al -8.529103 0.000700 -2.832298
Al -11.369103 2.840700 -2.832298
Al -11.369103 0.000700 0.007702
Al -8.529103 2.840700 0.007702
Al -8.529103 0.000700 2.847702
Al -11.369103 2.840700 2.847702
Al -11.369103 0.000700 5.687702
Al -8.529103 2.840700 5.687702
Al -8.529103 0.000700 8.527702
Al -11.369103 2.840700 8.527702
Al -11.369103 0.000700 11.367702
Al -8.529103 2.840700 11.367702
Al -8.529103 0.000700 14.207702
Al -11.369103 2.840700 14.207702
Al -8.529103 2.840700 17.047702
Al -8.529103 5.680700 -8.512298
Al -11.369103 5.680700 -5.672298
Al -8.529103 8.520700 -5.672298
Al -8.529103 5.680700 -2.832298
Al -11.369103 8.520700 -2.832298
Al -11.369103 5.680700 0.007702
Al -8.529103 8.520700 0.007702
Al -8.529103 5.680700 2.847702
Al -11.369103 8.520700 2.847702
Al -11.369103 5.680700 5.687702
Al -8.529103 8.520700 5.687702
Al -8.529103 5.680700 8.527702
Al -11.369103 8.520700 8.527702
Al -11.369103 5.680700 11.367702
Al -8.529103 8.520700 11.367702
Al -8.529103 5.680700 14.207702
Al -11.369103 8.520700 14.207702
Al -11.369103 5.680700 17.047702
Al -8.529103 8.520700 17.047702
Al -8.529103 5.680700 19.887702
Al -8.529103 8.520700 22.727702
Al -8.529103 11.360700 -2.832298
Al -11.369103 11.360700 0.007702
Al -8.529103 14.200700 0.007702
Al -8.529103 11.360700 2.847702
Al -11.369103 14.200700 2.847702
Al -11.369103 11.360700 5.687702
Al -8.529103 14.200700 5.687702
Al -8.529103 11.360700 8.527702
Al -11.369103 14.200700 8.527702
Al -11.369103 11.360700 11.367702
Al -8.529103 14.200700 11.367702
Al -8.529103 11.360700 14.207702
Al -11.369103 14.200700 14.207702
Al -11.369103 11.360700 17.047702
Al -8.529103 14.200700 17.047702
Al -8.529103 11.360700 19.887702
Al -11.369103 14.200700 19.887702
Al -11.369103 11.360700 22.727702
Al -8.529103 17.040700 2.847702
Al -11.369103 17.040700 5.687702
Al -8.529103 19.880700 5.687702
Al -8.529103 17.040700 8.527702
Al -11.369103 19.880700 8.527702
Al -11.369103 17.040700 11.367702
Al -8.529103 19.880700 11.367702
Al -8.529103 17.040700 14.207702
Al -11.369103 19.880700 14.207702
Al -11.369103 17.040700 17.047702
Al -8.529103 22.720700 8.527702
Al -11.369103 22.720700 11.367702
Al -5.689103 -19.879300 -8.512298
Al -5.689103 -22.719300 -5.672298
Al -2.849103 -19.879300 -5.672298
Al -2.849103 -22.719300 -2.832298
Al -5.689103 -19.879300 -2.832298
Al -2.849103 -19.879300 0.007702
Al -5.689103 -14.199300 -14.192298
Al -5.689103 -17.039300 -11.352298
Al -2.849103 -14.199300 -11.352298
Al -2.849103 -17.039300 -8.512298
Al -5.689103 -14.199300 -8.512298
Al -5.689103 -17.039300 -5.672298
Al -2.849103 -14.199300 -5.672298
Al -2.849103 -17.039300 -2.832298
Al -5.689103 -14.199300 -2.832298
Al -5.689103 -17.039300 0.007702
Al -2.849103 -14.199300 0.007702
Al -2.849103 -17.039300 2.847702
Al -5.689103 -14.199300 2.847702
Al -2.849103 -14.199300 5.687702
Al -5.689103 -8.519300 -19.872298
Al -5.689103 -11.359300 -17.032298
Al -2.849103 -8.519300 -17.032298
Al -2.849103 -11.359300 -14.192298
Al -5.689103 -8.519300 -14.192298
Al -5.689103 -11.359300 -11.352298
Al -2.849103 -8.519300 -11.352298
Al -2.849103 -11.359300 -8.512298
Al -5.689103 -8.519300 -8.512298
Al -5.689103 -11.359300 -5.672298
Al -2.849103 -8.519300 -5.672298
Al -2.849103 -11.359300 -2.832298
Al -5.689103 -8.519300 -2.832298
Al -5.689103 -11.359300 0.007702
Al -2.849103 -8.519300 0.007702
Al -2.849103 -11.359300 2.847702
Al -5.689103 -8.519300 2.847702
Al -5.689103 -11.359300 5.687702
Al -2.849103 -8.519300 5.687702
Al -2.849103 -11.359300 8.527702
Al -5.689103 -8.519300 8.527702
Al -2.849103 -8.519300 11.367702
Al -5.689103 -5.679300 -22.712298
Al -2.849103 -2.839300 -22.712298
Al -2.849103 -5.679300 -19.872298
Al -5.689103 -2.839300 -19.872298
Al -5.689103 -5.679300 -17.032298
Al -2.849103 -2.839300 -17.032298
Al -2.849103 -5.679300 -14.192298
Al -5.689103 -2.839300 -14.192298
Al -5.689103 -5.679300 -11.352298
Al -2.849103 -2.839300 -11.352298
Al -2.849103 -5.679300 -8.512298
Al -5.689103 -2.839300 -8.512298
Al -5.689103 -5.679300 -5.672298
Al -2.849103 -2.839300 -5.672298
Al -2.849103 -5.679300 -2.832298
Al -5.689103 -2.839300 -2.832298
Al -5.689103 -5.679300 0.007702
Al -2.849103 -2.839300 0.007702
Al -2.849103 -5.679300 2.847702
Al -5.689103 -2.839300 2.847702
Al -5.689103 -5.679300 5.687702
Al -2.849103 -2.839300 5.687702
Al -2.849103 -5.679300 8.527702
Al -5.689103 -2.839300 8.527702
Al -5.689103 -5.679300 11.367702
Al -2.849103 -2.839300 11.367702
Al -2.849103 -5.679300 14.207702
Al -5.689103 -2.839300 14.207702
Al -2.849103 -2.839300 17.047702
Al -2.849103 0.000700 -19.872298
Al -5.689103 0.000700 -17.032298
Al -2.849103 2.840700 -17.032298
Al -2.849103 0.000700 -14.192298
Al -5.689103 2.840700 -14.192298
Al -5.689103 0.000700 -11.352298
Al -2.849103 2.840700 -11.352298
Al -2.849103 0.000700 -8.512298
Al -5.689103 2.840700 -8.512298
Al -5.689103 0.000700 -5.672298
Al -2.849103 2.840700 -5.672298
Al -2.849103 0.000700 -2.832298
Al -5.689103 2.840700 -2.832298
Al -5.689103 0.000700 0.007702
Al -2.849103 2.840700 0.007702
Al -2.849103 0.000700 2.847702
Al -5.689103 2.840700 2.847702
Al -5.689103 0.000700 5.687702
Al -2.849103 2.840700 5.687702
Al -2.849103 0.000700 8.527702
Al -5.689103 2.840700 8.527702
Al -5.689103 0.000700 11.367702
Al -2.849103 2.840700 11.367702
Al -2.849103 0.000700 14.207702
Al -5.689103 2.840700 14.207702
Al -5.689103 0.000700 17.047702
Al -2.849103 2.840700 17.047702
Al -2.849103 0.000700 19.887702
Al -5.689103 2.840700 19.887702
Al -2.849103 2.840700 22.727702
Al -2.849103 5.680700 -14.192298
Al -5.689103 5.680700 -11.352298
Al -2.849103 8.520700 -11.352298
Al -2.849103 5.680700 -8.512298
Al -5.689103 8.520700 -8.512298
Al -5.689103 5.680700 -5.672298
Al -2.849103 8.520700 -5.672298
Al -2.849103 5.680700 -2.832298
Al -5.689103 8.520700 -2.832298
Al -5.689103 5.680700 0.007702
Al -2.849103 8.520700 0.007702
Al -2.849103 5.680700 2.847702
Al -5.689103 8.520700 2.847702
Al -5.689103 5.680700 5.687702
Al -2.849103 8.520700 5.687702
Al -2.849103 5.680700 8.527702
Al -5.689103 8.520700 8.527702
Al -5.689103 5.680700 11.367702
Al -2.849103 8.520700 11.367702
Al -2.849103 5.680700 14.207702
Al -5.689103 8.520700 14.207702
Al -5.689103 5.680700 17.047702
Al -2.849103 8.520700 17.047702
Al -2.849103 5.680700 19.887702
Al -5.689103 8.520700 19.887702
Al -5.689103 5.680700 22.727702
Al -2.849103 11.360700 -8.512298
Al -5.689103 11.360700 -5.672298
Al -2.849103 14.200700 -5.672298
Al -2.849103 11.360700 -2.832298
Al -5.689103 14.200700 -2.832298
Al -5.689103 11.360700 0.007702
Al -2.849103 14.200700 0.007702
Al -2.849103 11.360700 2.847702
Al -5.689103 14.200700 2.847702
Al -5.689103 11.360700 5.687702
Al -2.849103 14.200700 5.687702
Al -2.849103 11.360700 8.527702
Al -5.689103 14.200700 8.527702
Al -5.689103 11.360700 11.367702
Al -2.849103 14.200700 11.367702
Al -2.849103 11.360700 14.207702
Al -5.689103 14.200700 14.207702
Al -5.689103 11.360700 17.047702
Al -2.849103 17.040700 -2.832298
Al -5.689103 17.040700 0.007702
Al -2.849103 19.880700 0.007702
Al -2.849103 17.040700 2.847702
Al -5.689103 19.880700 2.847702
Al -5.689103 17.040700 5.687702
Al -2.849103 19.880700 5.687702
Al -2.849103 17.040700 8.527702
Al -5.689103 19.880700 8.527702
Al -5.689103 17.040700 11.367702
Al -2.849103 22.720700 2.847702
Al -5.689103 22.720700 5.687702
Al -0.009103 -19.879300 -2.832298
Al -0.009103 -22.719300 0.007702
Al 2.830897 -19.879300 0.007702
Al 2.830897 -22.719300 2.847702
Al -0.009103 -19.879300 2.847702
Al 2.830897 -19.879300 5.687702
Al -0.009103 -14.199300 -8.512298
Al -0.009103 -17.039300 -5.672298
Al 2.830897 -14.199300 -5.672298
Al 2.830897 -17.039300 -2.832298
Al -0.009103 -14.199300 -2.832298
Al -0.009103 -17.039300 0.007702
Al 2.830897 -14.199300 0.007702
Al 2.830897 -17.039300 2.847702
Al -0.009103 -14.199300 2.847702
Al -0.009103 -17.039300 5.687702
Al 2.830897 -14.199300 5.687702
Al 2.830897 -17.039300 8.527702
Al -0.009103 -14.199300 8.527702
Al 2.830897 -14.199300 11.367702
Al -0.009103 -8.519300 -14.192298
Al -0.009103 -11.359300 -11.352298
Al 2.830897 -8.519300 -11.352298
Al 2.830897 -11.359300 -8.512298
Al -0.009103 -8.519300 -8.512298
Al -0.009103 -11.359300 -5.672298
Al 2.830897 -8.519300 -5.672298
Al 2.830897 -11.359300 -2.832298
Al -0.009103 -8.519300 -2.832298
Al -0.009103 -11.359300 0.007702
Al 2.830897 -8.519300 0.007702
Al 2.830897 -11.359300 2.847702
Al -0.009103 -8.519300 2.847702
Al -0.009103 -11.359300 5.687702
Al 2.830897 -8.519300 5.687702
Al 2.830897 -11.359300 8.527702
Al -0.009103 -8.519300 8.527702
Al -0.009103 -11.359300 11.367702
Al 2.830897 -8.519300 11.367702
Al 2.830897 -11.359300 14.207702
Al -0.009103 -8.519300 14.207702
Al 2.830897 -8.519300 17.047702
Al -0.009103 -2.839300 -19.872298
Al -0.009103 -5.679300 -17.032298
Al 2.830897 -2.839300 -17.032298
Al 2.830897 -5.679300 -14.192298
Al -0.009103 -2.839300 -14.192298
Al -0.009103 -5.679300 -11.352298
Al 2.830897 -2.839300 -11.352298
Al 2.830897 -5.679300 -8.512298
Al -0.009103 -2.839300 -8.512298
Al -0.009103 -5.679300 -5.672298
Al 2.830897 -2.839300 -5.672298
Al 2.830897 -5.679300 -2.832298
Al -0.009103 -2.839300 -2.832298
Al -0.009103 -5.679300 0.007702
Al 2.830897 -2.839300 0.007702
Al 2.830897 -5.679300 2.847702
Al -0.009103 -2.839300 2.847702
Al -0.009103 -5.679300 5.687702
Al 2.830897 -2.839300 5.687702
Al 2.830897 -5.679300 8.527702
Al -0.009103 -2.839300 8.527702
Al -0.009103 -5.679300 11.367702
Al 2.830897 -2.839300 11.367702
Al 2.830897 -5.679300 14.207702
Al -0.009103 -2.839300 14.207702
Al -0.009103 -5.679300 17.047702
Al 2.830897 -2.839300 17.047702
Al 2.830897 -5.679300 19.887702
Al -0.009103 -2.839300 19.887702
Al 2.830897 -2.839300 22.727702
Al -0.009103 0.000700 -22.712298
Al 2.830897 2.840700 -22.712298
Al 2.830897 0.000700 -19.872298
Al -0.009103 2.840700 -19.872298
Al -0.009103 0.000700 -17.032298
Al 2.830897 2.840700 -17.032298
Al 2.830897 0.000700 -14.192298
Al -0.009103 2.840700 -14.192298
Al -0.009103 0.000700 -11.352298
Al 2.830897 2.840700 -11.352298
Al 2.830897 0.000700 -8.512298
Al -0.009103 2.840700 -8.512298
Al -0.009103 0.000700 -5.672298
Al 2.830897 2.840700 -5.672298
Al 2.830897 0.000700 -2.832298
Al -0.009103 2.840700 -2.832298
Al -0.009103 0.000700 0.007702
Al 2.830897 2.840700 0.007702
Al 2.830897 0.000700 2.847702
Al -0.009103 2.840700 2.847702
Al -0.009103 0.000700 5.687702
Al 2.830897 2.840700 5.687702
Al 2.830897 0.000700 8.527702
Al -0.009103 2.840700 8.527702
Al -0.009103 0.000700 11.367702
Al 2.830897 2.840700 11.367702
Al 2.830897 0.000700 14.207702
Al -0.009103 2.840700 14.207702
Al -0.009103 0.000700 17.047702
Al 2.830897 2.840700 17.047702
Al 2.830897 0.000700 19.887702
Al -0.009103 2.840700 19.887702
Al -0.009103 0.000700 22.727702
Al 2.830897 5.680700 -19.872298
Al -0.009103 5.680700 -17.032298
Al 2.830897 8.520700 -17.032298
Al 2.830897 5.680700 -14.192298
Al -0.009103 8.520700 -14.192298
Al -0.009103 5.680700 -11.352298
Al 2.830897 8.520700 -11.352298
Al 2.830897 5.680700 -8.512298
Al -0.009103 8.520700 -8.512298
Al -0.009103 5.680700 -5.672298
Al 2.830897 8.520700 -5.672298
Al 2.830897 5.680700 -2.832298
Al -0.009103 8.520700 -2.832298
Al -0.009103 5.680700 0.007702
Al 2.830897 8.520700 0.007702
Al 2.830897 5.680700 2.847702
Al -0.009103 8.520700 2.847702
Al -0.009103 5.680700 5.687702
Al 2.830897 8.520700 5.687702
Al 2.830897 5.680700 8.527702
Al -0.009103 8.520700 8.527702
Al -0.009103 5.680700 11.367702
Al 2.830897 8.520700 11.367702
Al 2.830897 5.680700 14.207702
Al -0.009103 8.520700 14.207702
Al -0.009103 5.680700 17.047702
Al 2.830897 11.360700 -14.192298
Al -0.009103 11.360700 -11.352298
Al 2.830897 14.200700 -11.352298
Al 2.830897 11.360700 -8.512298
Al -0.009103 14.200700 -8.512298
Al -0.009103 11.360700 -5.672298
Al 2.830897 14.200700 -5.672298
Al 2.830897 11.360700 -2.832298
Al -0.009103 14.200700 -2.832298
Al -0.009103 11.360700 0.007702
Al 2.830897 14.200700 0.007702
Al 2.830897 11.360700 2.847702
Al -0.009103 14.200700 2.847702
Al -0.009103 11.360700 5.687702
Al 2.830897 14.200700 5.687702
Al 2.830897 11.360700 8.527702
Al -0.009103 14.200700 8.527702
Al -0.009103 11.360700 11.367702
Al 2.830897 17.040700 -8.512298
Al -0.009103 17.040700 -5.672298
Al 2.830897 19.880700 -5.672298
Al 2.830897 17.040700 -2.832298
Al -0.009103 19.880700 -2.832298
Al -0.009103 17.040700 0.007702
Al 2.830897 19.880700 0.007702
Al 2.830897 17.040700 2.847702
Al -0.009103 19.880700 2.847702
Al -0.009103 17.040700 5.687702
Al 2.830897 22.720700 -2.832298
Al -0.009103 22.720700 0.007702
Al 5.670897 -19.879300 2.847702
Al 5.670897 -22.719300 5.687702
Al 8.510897 -19.879300 5.687702
Al 8.510897 -22.719300 8.527702
Al 5.670897 -19.879300 8.527702
Al 8.510897 -19.879300 11.367702
Al 5.670897 -14.199300 -2.832298
Al 5.670897 -17.039300 0.007702
Al 8.510897 -14.199300 0.007702
Al 8.510897 -17.039300 2.847702
Al 5.670897 -14.199300 2.847702
Al 5.670897 -17.039300 5.687702
Al 8.510897 -14.199300 5.687702
Al 8.510897 -17.039300 8.527702
Al 5.670897 -14.199300 8.527702
Al 5.670897 -17.039300 11.367702
Al 8.510897 -14.199300 11.367702
Al 8.510897 -17.039300 14.207702
Al 5.670897 -14.199300 14.207702
Al 8.510897 -14.199300 17.047702
Al 5.670897 -8.519300 -8.512298
Al 5.670897 -11.359300 -5.672298
Al 8.510897 -8.519300 -5.672298
Al 8.510897 -11.359300 -2.832298
Al 5.670897 -8.519300 -2.832298
Al 5.670897 -11.359300 0.007702
Al 8.510897 -8.519300 0.007702
Al 8.510897 -11.359300 2.847702
Al 5.670897 -8.519300 2.847702
Al 5.670897 -11.359300 5.687702
Al 8.510897 -8.519300 5.687702
Al 8.510897 -11.359300 8.527702
Al 5.670897 -8.519300 8.527702
Al 5.670897 -11.359300 11.367702
Al 8.510897 -8.519300 11.367702
Al 8.510897 -11.359300 14.207702
Al 5.670897 -8.519300 14.207702
Al 5.670897 -11.359300 17.047702
Al 8.510897 -8.519300 17.047702
Al 8.510897 -11.359300 19.887702
Al 5.670897 -8.519300 19.887702
Al 8.510897 -8.519300 22.727702
Al 5.670897 -2.839300 -14.192298
Al 5.670897 -5.679300 -11.352298
Al 8.510897 -2.839300 -11.352298
Al 8.510897 -5.679300 -8.512298
Al 5.670897 -2.839300 -8.512298
Al 5.670897 -5.679300 -5.672298
Al 8.510897 -2.839300 -5.672298
Al 8.510897 -5.679300 -2.832298
Al 5.670897 -2.839300 -2.832298
Al 5.670897 -5.679300 0.007702
Al 8.510897 -2.839300 0.007702
Al 8.510897 -5.679300 2.847702
Al 5.670897 -2.839300 2.847702
Al 5.670897 -5.679300 5.687702
Al 8.510897 -2.839300 5.687702
Al 8.510897 -5.679300 8.527702
Al 5.670897 -2.839300 8.527702
Al 5.670897 -5.679300 11.367702
Al 8.510897 -2.839300 11.367702
Al 8.510897 -5.679300 14.207702
Al 5.670897 -2.839300 14.207702
Al 5.670897 -5.679300 17.047702
Al 8.510897 -2.839300 17.047702
Al 8.510897 -5.679300 19.887702
Al 5.670897 -2.839300 19.887702
Al 5.670897 -5.679300 22.727702
Al 5.670897 2.840700 -19.872298
Al 5.670897 0.000700 -17.032298
Al 8.510897 2.840700 -17.032298
Al 8.510897 0.000700 -14.192298
Al 5.670897 2.840700 -14.192298
Al 5.670897 0.000700 -11.352298
Al 8.510897 2.840700 -11.352298
Al 8.510897 0.000700 -8.512298
Al 5.670897 2.840700 -8.512298
Al 5.670897 0.000700 -5.672298
Al 8.510897 2.840700 -5.672298
Al 8.510897 0.000700 -2.832298
Al 5.670897 2.840700 -2.832298
Al 5.670897 0.000700 0.007702
Al 8.510897 2.840700 0.007702
Al 8.510897 0.000700 2.847702
Al 5.670897 2.840700 2.847702
Al 5.670897 0.000700 5.687702
Al 8.510897 2.840700 5.687702
Al 8.510897 0.000700 8.527702
Al 5.670897 2.840700 8.527702
Al 5.670897 0.000700 11.367702
Al 8.510897 2.840700 11.367702
Al 8.510897 0.000700 14.207702
Al 5.670897 2.840700 14.207702
Al 5.670897 0.000700 17.047702
Al 5.670897 5.680700 -22.712298
Al 8.510897 8.520700 -22.712298
Al 8.510897 5.680700 -19.872298
Al 5.670897 8.520700 -19.872298
Al 5.670897 5.680700 -17.032298
Al 8.510897 8.520700 -17.032298
Al 8.510897 5.680700 -14.192298
Al 5.670897 8.520700 -14.192298
Al 5.670897 5.680700 -11.352298
Al 8.510897 8.520700 -11.352298
Al 8.510897 5.680700 -8.512298
Al 5.670897 8.520700 -8.512298
Al 5.670897 5.680700 -5.672298
Al 8.510897 8.520700 -5.672298
Al 8.510897 5.680700 -2.832298
Al 5.670897 8.520700 -2.832298
Al 5.670897 5.680700 0.007702
Al 8.510897 8.520700 0.007702
Al 8.510897 5.680700 2.847702
Al 5.670897 8.520700 2.847702
Al 5.670897 5.680700 5.687702
Al 8.510897 8.520700 5.687702
Al 8.510897 5.680700 8.527702
Al 5.670897 8.520700 8.527702
Al 5.670897 5.680700 11.367702
Al 8.510897 11.360700 -19.872298
Al 5.670897 11.360700 -17.032298
Al 8.510897 14.200700 -17.032298
Al 8.510897 11.360700 -14.192298
Al 5.670897 14.200700 -14.192298
Al 5.670897 11.360700 -11.352298
Al 8.510897 14.200700 -11.352298
Al 8.510897 11.360700 -8.512298
Al 5.670897 14.200700 -8.512298
Al 5.670897 11.360700 -5.672298
Al 8.510897 14.200700 -5.672298
Al 8.510897 11.360700 -2.832298
Al 5.670897 14.200700 -2.832298
Al 5.670897 11.360700 0.007702
Al 8.510897 14.200700 0.007702
Al 8.510897 11.360700 2.847702
Al 5.670897 14.200700 2.847702
Al 5.670897 11.360700 5.687702
Al 8.510897 17.040700 -14.192298
Al 5.670897 17.040700 -11.352298
Al 8.510897 19.880700 -11.352298
Al 8.510897 17.040700 -8.512298
Al 5.670897 19.880700 -8.512298
Al 5.670897 17.040700 -5.672298
Al 8.510897 19.880700 -5.672298
Al 8.510897 17.040700 -2.832298
Al 5.670897 19.880700 -2.832298
Al 5.670897 17.040700 0.007702
Al 8.510897 22.720700 -8.512298
Al 5.670897 22.720700 -5.672298
Al 11.350897 -19.879300 8.527702
Al 11.350897 -22.719300 11.367702
Al 14.190897 -19.879300 11.367702
Al 11.350897 -19.879300 14.207702
Al 11.350897 -14.199300 2.847702
Al 11.350897 -17.039300 5.687702
Al 14.190897 -14.199300 5.687702
Al 14.190897 -17.039300 8.527702
Al 11.350897 -14.199300 8.527702
Al 11.350897 -17.039300 11.367702
Al 14.190897 -14.199300 11.367702
Al 14.190897 -17.039300 14.207702
Al 11.350897 -14.199300 14.207702
Al 11.350897 -17.039300 17.047702
Al 11.350897 -14.199300 19.887702
Al 11.350897 -8.519300 -2.832298
Al 11.350897 -11.359300 0.007702
Al 14.190897 -8.519300 0.007702
Al 14.190897 -11.359300 2.847702
Al 11.350897 -8.519300 2.847702
Al 11.350897 -11.359300 5.687702
Al 14.190897 -8.519300 5.687702
Al 14.190897 -11.359300 8.527702
Al 11.350897 -8.519300 8.527702
Al 11.350897 -11.359300 11.367702
Al 14.190897 -8.519300 11.367702
Al 14.190897 -11.359300 14.207702
Al 11.350897 -8.519300 14.207702
Al 11.350897 -11.359300 17.047702
Al 14.190897 -8.519300 17.047702
Al 14.190897 -11.359300 19.887702
Al 11.350897 -11.359300 22.727702
Al 11.350897 -2.839300 -8.512298
Al 11.350897 -5.679300 -5.672298
Al 14.190897 -2.839300 -5.672298
Al 14.190897 -5.679300 -2.832298
Al 11.350897 -2.839300 -2.832298
Al 11.350897 -5.679300 0.007702
Al 14.190897 -2.839300 0.007702
Al 14.190897 -5.679300 2.847702
Al 11.350897 -2.839300 2.847702
Al 11.350897 -5.679300 5.687702
Al 14.190897 -2.839300 5.687702
Al 14.190897 -5.679300 8.527702
Al 11.350897 -2.839300 8.527702
Al 11.350897 -5.679300 11.367702
Al 14.190897 -2.839300 11.367702
Al 14.190897 -5.679300 14.207702
Al 11.350897 -2.839300 14.207702
Al 11.350897 -5.679300 17.047702
Al 11.350897 2.840700 -14.192298
Al 11.350897 0.000700 -11.352298
Al 14.190897 2.840700 -11.352298
Al 14.190897 0.000700 -8.512298
Al 11.350897 2.840700 -8.512298
Al 11.350897 0.000700 -5.672298
Al 14.190897 2.840700 -5.672298
Al 14.190897 0.000700 -2.832298
Al 11.350897 2.840700 -2.832298
Al 11.350897 0.000700 0.007702
Al 14.190897 2.840700 0.007702
Al 14.190897 0.000700 2.847702
Al 11.350897 2.840700 2.847702
Al 11.350897 0.000700 5.687702
Al 14.190897 2.840700 5.687702
Al 14.190897 0.000700 8.527702
Al 11.350897 2.840700 8.527702
Al 11.350897 0.000700 11.367702
Al 11.350897 5.680700 -17.032298
Al 14.190897 8.520700 -17.032298
Al 14.190897 5.680700 -14.192298
Al 11.350897 8.520700 -14.192298
Al 11.350897 5.680700 -11.352298
Al 14.190897 8.520700 -11.352298
Al 14.190897 5.680700 -8.512298
Al 11.350897 8.520700 -8.512298
Al 11.350897 5.680700 -5.672298
Al 14.190897 8.520700 -5.672298
Al 14.190897 5.680700 -2.832298
Al 11.350897 8.520700 -2.832298
Al 11.350897 5.680700 0.007702
Al 14.190897 8.520700 0.007702
Al 14.190897 5.680700 2.847702
Al 11.350897 8.520700 2.847702
Al 11.350897 5.680700 5.687702
Al 11.350897 11.360700 -22.712298
Al 14.190897 11.360700 -19.872298
Al 11.350897 14.200700 -19.872298
Al 11.350897 11.360700 -17.032298
Al 14.190897 11.360700 -14.192298
Al 11.350897 14.200700 -14.192298
Al 11.350897 11.360700 -11.352298
Al 14.190897 14.200700 -11.352298
Al 14.190897 11.360700 -8.512298
Al 11.350897 14.200700 -8.512298
Al 11.350897 11.360700 -5.672298
Al 14.190897 14.200700 -5.672298
Al 14.190897 11.360700 -2.832298
Al 11.350897 14.200700 -2.832298
Al 11.350897 11.360700 0.007702
Al 11.350897 17.040700 -17.032298
Al 14.190897 17.040700 -14.192298
Al 11.350897 19.880700 -14.192298
Al 11.350897 17.040700 -11.352298
Al 14.190897 19.880700 -11.352298
Al 14.190897 17.040700 -8.512298
Al 11.350897 19.880700 -8.512298
Al 11.350897 17.040700 -5.672298
Al 11.350897 22.720700 -11.352298
Al 17.030897 -14.199300 8.527702
Al 17.030897 -17.039300 11.367702
Al 19.870897 -14.199300 11.367702
Al 17.030897 -14.199300 14.207702
Al 17.030897 -8.519300 2.847702
Al 17.030897 -11.359300 5.687702
Al 19.870897 -8.519300 5.687702
Al 19.870897 -11.359300 8.527702
Al 17.030897 -8.519300 8.527702
Al 17.030897 -11.359300 11.367702
Al 19.870897 -8.519300 11.367702
Al 19.870897 -11.359300 14.207702
Al 17.030897 -8.519300 14.207702
Al 17.030897 -11.359300 17.047702
Al 17.030897 -2.839300 -2.832298
Al 17.030897 -5.679300 0.007702
Al 19.870897 -2.839300 0.007702
Al 19.870897 -5.679300 2.847702
Al 17.030897 -2.839300 2.847702
Al 17.030897 -5.679300 5.687702
Al 19.870897 -2.839300 5.687702
Al 19.870897 -5.679300 8.527702
Al 17.030897 -2.839300 8.527702
Al 17.030897 -5.679300 11.367702
Al 17.030897 2.840700 -8.512298
Al 17.030897 0.000700 -5.672298
Al 19.870897 2.840700 -5.672298
Al 19.870897 0.000700 -2.832298
Al 17.030897 2.840700 -2.832298
Al 17.030897 0.000700 0.007702
Al 19.870897 2.840700 0.007702
Al 19.870897 0.000700 2.847702
Al 17.030897 2.840700 2.847702
Al 17.030897 0.000700 5.687702
Al 17.030897 8.520700 -14.192298
Al 17.030897 5.680700 -11.352298
Al 19.870897 8.520700 -11.352298
Al 19.870897 5.680700 -8.512298
Al 17.030897 8.520700 -8.512298
Al 17.030897 5.680700 -5.672298
Al 19.870897 8.520700 -5.672298
Al 19.870897 5.680700 -2.832298
Al 17.030897 8.520700 -2.832298
Al 17.030897 5.680700 0.007702
Al 17.030897 11.360700 -17.032298
Al 19.870897 11.360700 -14.192298
Al 17.030897 14.200700 -14.192298
Al 17.030897 11.360700 -11.352298
Al 19.870897 14.200700 -11.352298
Al 19.870897 11.360700 -8.512298
Al 17.030897 14.200700 -8.512298
Al 17.030897 11.360700 -5.672298
Al 17.030897 17.040700 -11.352298
Al 22.710897 -8.519300 8.527702
Al 22.710897 -11.359300 11.367702
Al 22.710897 -2.839300 2.847702
Al 22.710897 -5.679300 5.687702
Al 22.710897 2.840700 -2.832298
Al 22.710897 0.000700 0.007702
Al 22.710897 8.520700 -8.512298
Al 22.710897 5.680700 -5.672298
Al 22.710897 11.360700 -11.352298
As -21.309103 -12.779300 -12.772298
As -18.469103 -12.779300 -9.932298
As -18.469103 -9.939300 -12.772298
As -21.309103 -9.939300 -9.932298
As -21.309103 -7.099300 -7.092298
As -18.469103 -7.099300 -9.932298
As -18.469103 -9.939300 -7.092298
As -18.469103 -7.099300 -4.252298
As -18.469103 -4.259300 -7.092298
As -21.309103 -4.259300 -4.252298
As -21.309103 -1.419300 -1.412298
As -18.469103 -1.419300 -4.252298
As -18.469103 -4.259300 -1.412298
As -18.469103 -1.419300 1.427702
As -18.469103 1.420700 -1.412298
As -21.309103 1.420700 1.427702
As -21.309103 4.260700 4.267702
As -18.469103 4.260700 1.427702
As -18.469103 1.420700 4.267702
As -18.469103 4.260700 7.107702
As -18.469103 7.100700 4.267702
As -21.309103 7.100700 7.107702
As -21.309103 9.940700 9.947702
As -18.469103 9.940700 7.107702
As -18.469103 7.100700 9.947702
As -18.469103 9.940700 12.787702
As -18.469103 12.780700 9.947702
As -21.309103 12.780700 12.787702
As -15.629103 -18.459300 -12.772298
As -12.789103 -18.459300 -9.932298
As -12.789103 -12.779300 -21.292298
As -15.629103 -12.779300 -12.772298
As -12.789103 -12.779300 -15.612298
As -12.789103 -15.619300 -12.772298
As -15.629103 -15.619300 -9.932298
As -15.629103 -12.779300 -7.092298
As -12.789103 -12.779300 -9.932298
As -12.789103 -15.619300 -7.092298
As -12.789103 -12.779300 -4.252298
As -12.789103 -9.939300 -18.452298
As -15.629103 -9.939300 -15.612298
As -15.629103 -7.099300 -12.772298
As -12.789103 -7.099300 -15.612298
As -12.789103 -9.939300 -12.772298
As -15.629103 -9.939300 -9.932298
As -15.629103 -7.099300 -7.092298
As -12.789103 -7.099300 -9.932298
As -12.789103 -9.939300 -7.092298
As -15.629103 -9.939300 -4.252298
As -15.629103 -7.099300 -1.412298
As -12.789103 -7.099300 -4.252298
As -12.789103 -9.939300 -1.412298
As -12.789103 -7.099300 1.427702
As -12.789103 -4.259300 -12.772298
As -15.629103 -4.259300 -9.932298
As -15.629103 -1.419300 -7.092298
As -12.789103 -1.419300 -9.932298
As -12.789103 -4.259300 -7.092298
As -15.629103 -4.259300 -4.252298
As -15.629103 -1.419300 -1.412298
As -12.789103 -1.419300 -4.252298
As -12.789103 -4.259300 -1.412298
As -15.629103 -4.259300 1.427702
As -15.629103 -1.419300 4.267702
As -12.789103 -1.419300 1.427702
As -12.789103 -4.259300 4.267702
As -12.789103 -1.419300 7.107702
As -12.789103 1.420700 -7.092298
As -15.629103 1.420700 -4.252298
As -15.629103 4.260700 -1.412298
As -12.789103 4.260700 -4.252298
As -12.789103 1.420700 -1.412298
As -15.629103 1.420700 1.427702
As -15.629103 4.260700 4.267702
As -12.789103 4.260700 1.427702
As -12.789103 1.420700 4.267702
As -15.629103 1.420700 7.107702
As -15.629103 4.260700 9.947702
As -12.789103 4.260700 7.107702
As -12.789103 1.420700 9.947702
As -12.789103 4.260700 12.787702
As -12.789103 7.100700 -1.412298
As -15.629103 7.100700 1.427702
As -15.629103 9.940700 4.267702
As -12.789103 9.940700 1.427702
As -12.789103 7.100700 4.267702
As -15.629103 7.100700 7.107702
As -15.629103 9.940700 9.947702
As -12.789103 9.940700 7.107702
As -12.789103 7.100700 9.947702
As -15.629103 7.100700 12.787702
As -15.629103 9.940700 15.627702
As -12.789103 9.940700 12.787702
As -12.789103 7.100700 15.627702
As -12.789103 9.940700 18.467702
As -12.789103 12.780700 4.267702
As -15.629103 12.780700 7.107702
As -15.629103 15.620700 9.947702
As -12.789103 15.620700 7.107702
As -12.789103 12.780700 9.947702
As -15.629103 12.780700 12.787702
As -12.789103 15.620700 12.787702
As -12.789103 12.780700 15.627702
As -12.789103 12.780700 21.307702
As -12.789103 18.460700 9.947702
As -15.629103 18.460700 12.787702
As -9.949103 -18.459300 -12.772298
As -9.949103 -21.299300 -9.932298
As -9.949103 -18.459300 -7.092298
As -7.109103 -18.459300 -9.932298
As -7.109103 -21.299300 -7.092298
As -7.109103 -18.459300 -4.252298
As -9.949103 -12.779300 -18.452298
As -9.949103 -15.619300 -15.612298
As -9.949103 -12.779300 -12.772298
As -7.109103 -12.779300 -15.612298
As -7.109103 -15.619300 -12.772298
As -9.949103 -15.619300 -9.932298
As -9.949103 -12.779300 -7.092298
As -7.109103 -12.779300 -9.932298
As -7.109103 -15.619300 -7.092298
As -9.949103 -15.619300 -4.252298
As -9.949103 -12.779300 -1.412298
As -7.109103 -12.779300 -4.252298
As -7.109103 -15.619300 -1.412298
As -7.109103 -12.779300 1.427702
As -9.949103 -9.939300 -21.292298
As -9.949103 -7.099300 -18.452298
As -7.109103 -7.099300 -21.292298
As -7.109103 -9.939300 -18.452298
As -9.949103 -9.939300 -15.612298
As -9.949103 -7.099300 -12.772298
As -7.109103 -7.099300 -15.612298
As -7.109103 -9.939300 -12.772298
As -9.949103 -9.939300 -9.932298
As -9.949103 -7.099300 -7.092298
As -7.109103 -7.099300 -9.932298
As -7.109103 -9.939300 -7.092298
As -9.949103 -9.939300 -4.252298
As -9.949103 -7.099300 -1.412298
As -7.109103 -7.099300 -4.252298
As -7.109103 -9.939300 -1.412298
As -9.949103 -9.939300 1.427702
As -9.949103 -7.099300 4.267702
As -7.109103 -7.099300 1.427702
As -7.109103 -9.939300 4.267702
As -7.109103 -7.099300 7.107702
As -7.109103 -4.259300 -18.452298
As -9.949103 -4.259300 -15.612298
As -9.949103 -1.419300 -12.772298
As -7.109103 -1.419300 -15.612298
As -7.109103 -4.259300 -12.772298
As -9.949103 -4.259300 -9.932298
As -9.949103 -1.419300 -7.092298
As -7.109103 -1.419300 -9.932298
As -7.109103 -4.259300 -7.092298
As -9.949103 -4.259300 -4.252298
As -9.949103 -1.419300 -1.412298
As -7.109103 -1.419300 -4.252298
As -7.109103 -4.259300 -1.412298
As -9.949103 -4.259300 1.427702
As -9.949103 -1.419300 4.267702
As -7.109103 -1.419300 1.427702
As -7.109103 -4.259300 4.267702
As -9.949103 -4.259300 7.107702
As -9.949103 -1.419300 9.947702
As -7.109103 -1.419300 7.107702
As -7.109103 -4.259300 9.947702
As -7.109103 -1.419300 12.787702
As -7.109103 1.420700 -12.772298
As -9.949103 1.420700 -9.932298
As -9.949103 4.260700 -7.092298
As -7.109103 4.260700 -9.932298
As -7.109103 1.420700 -7.092298
As -9.949103 1.420700 -4.252298
As -9.949103 4.260700 -1.412298
As -7.109103 4.260700 -4.252298
As -7.109103 1.420700 -1.412298
As -9.949103 1.420700 1.427702
As -9.949103 4.260700 4.267702
As -7.109103 4.260700 1.427702
As -7.109103 1.420700 4.267702
As -9.949103 1.420700 7.107702
As -9.949103 4.260700 9.947702
As -7.109103 4.260700 7.107702
As -7.109103 1.420700 9.947702
As -9.949103 1.420700 12.787702
As -9.949103 4.260700 15.627702
As -7.109103 4.260700 12.787702
As -7.109103 1.420700 15.627702
As -7.109103 4.260700 18.467702
As -7.109103 7.100700 -7.092298
As -9.949103 7.100700 -4.252298
As -9.949103 9.940700 -1.412298
As -7.109103 9.940700 -4.252298
As -7.109103 7.100700 -1.412298
As -9.949103 7.100700 1.427702
As -9.949103 9.940700 4.267702
As -7.109103 9.940700 1.427702
As -7.109103 7.100700 4.267702
As -9.949103 7.100700 7.107702
As -9.949103 9.940700 9.947702
As -7.109103 9.940700 7.107702
As -7.109103 7.100700 9.947702
As -9.949103 7.100700 12.787702
As -9.949103 9.940700 15.627702
As -7.109103 9.940700 12.787702
As -7.109103 7.100700 15.627702
As -9.949103 7.100700 18.467702
As -9.949103 9.940700 21.307702
As -7.109103 9.940700 18.467702
As -7.109103 7.100700 21.307702
As -7.109103 12.780700 -1.412298
As -9.949103 12.780700 1.427702
As -9.949103 15.620700 4.267702
As -7.109103 15.620700 1.427702
As -7.109103 12.780700 4.267702
As -9.949103 12.780700 7.107702
As -9.949103 15.620700 9.947702
As -7.109103 15.620700 7.107702
As -7.109103 12.780700 9.947702
As -9.949103 12.780700 12.787702
As -9.949103 15.620700 15.627702
As -7.109103 15.620700 12.787702
As -7.109103 12.780700 15.627702
As -9.949103 12.780700 18.467702
As -7.109103 18.460700 4.267702
As -9.949103 18.460700 7.107702
As -9.949103 21.300700 9.947702
As -7.109103 21.300700 7.107702
As -7.109103 18.460700 9.947702
As -9.949103 18.460700 12.787702
As -4.269103 -18.459300 -7.092298
As -4.269103 -21.299300 -4.252298
As -4.269103 -18.459300 -1.412298
As -1.429103 -18.459300 -4.252298
As -1.429103 -21.299300 -1.412298
As -1.429103 -18.459300 1.427702
As -4.269103 -12.779300 -12.772298
As -4.269103 -15.619300 -9.932298
As -4.269103 -12.779300 -7.092298
As -1.429103 -12.779300 -9.932298
As -1.429103 -15.619300 -7.092298
As -4.269103 -15.619300 -4.252298
As -4.269103 -12.779300 -1.412298
As -1.429103 -12.779300 -4.252298
As -1.429103 -15.619300 -1.412298
As -4.269103 -15.619300 1.427702
As -4.269103 -12.779300 4.267702
As -1.429103 -12.779300 1.427702
As -1.429103 -15.619300 4.267702
As -1.429103 -12.779300 7.107702
As -4.269103 -7.099300 -18.452298
As -4.269103 -9.939300 -15.612298
As -4.269103 -7.099300 -12.772298
As -1.429103 -7.099300 -15.612298
As -1.429103 -9.939300 -12.772298
As -4.269103 -9.939300 -9.932298
As -4.269103 -7.099300 -7.092298
As -1.429103 -7.099300 -9.932298
As -1.429103 -9.939300 -7.092298
As -4.269103 -9.939300 -4.252298
As -4.269103 -7.099300 -1.412298
As -1.429103 -7.099300 -4.252298
As -1.429103 -9.939300 -1.412298
As -4.269103 -9.939300 1.427702
As -4.269103 -7.099300 4.267702
As -1.429103 -7.099300 1.427702
As -1.429103 -9.939300 4.267702
As -4.269103 -9.939300 7.107702
As -4.269103 -7.099300 9.947702
As -1.429103 -7.099300 7.107702
As -1.429103 -9.939300 9.947702
As -1.429103 -7.099300 12.787702
As -4.269103 -4.259300 -21.292298
As -4.269103 -1.419300 -18.452298
As -1.429103 -1.419300 -21.292298
As -1.429103 -4.259300 -18.452298
As -4.269103 -4.259300 -15.612298
As -4.269103 -1.419300 -12.772298
As -1.429103 -1.419300 -15.612298
As -1.429103 -4.259300 -12.772298
As -4.269103 -4.259300 -9.932298
As -4.269103 -1.419300 -7.092298
As -1.429103 -1.419300 -9.932298
As -1.429103 -4.259300 -7.092298
As -4.269103 -4.259300 -4.252298
As -4.269103 -1.419300 -1.412298
As -1.429103 -1.419300 -4.252298
As -1.429103 -4.259300 -1.412298
As -4.269103 -4.259300 1.427702
As -4.269103 -1.419300 4.267702
As -1.429103 -1.419300 1.427702
As -1.429103 -4.259300 4.267702
As -4.269103 -4.259300 7.107702
As -4.269103 -1.419300 9.947702
As -1.429103 -1.419300 7.107702
As -1.429103 -4.259300 9.947702
As -4.269103 -4.259300 12.787702
As -4.269103 -1.419300 15.627702
As -1.429103 -1.419300 12.787702
As -1.429103 -4.259300 15.627702
As -1.429103 -1.419300 18.467702
As -1.429103 1.420700 -18.452298
As -4.269103 1.420700 -15.612298
As -4.269103 4.260700 -12.772298
As -1.429103 4.260700 -15.612298
As -1.429103 1.420700 -12.772298
As -4.269103 1.420700 -9.932298
As -4.269103 4.260700 -7.092298
As -1.429103 4.260700 -9.932298
As -1.429103 1.420700 -7.092298
As -4.269103 1.420700 -4.252298
As -4.269103 4.260700 -1.412298
As -1.429103 4.260700 -4.252298
As -1.429103 1.420700 -1.412298
As -4.269103 1.420700 1.427702
As -4.269103 4.260700 4.267702
As -1.429103 4.260700 1.427702
As -1.429103 1.420700 4.267702
As -4.269103 1.420700 7.107702
As -4.269103 4.260700 9.947702
As -1.429103 4.260700 7.107702
As -1.429103 1.420700 9.947702
As -4.269103 1.420700 12.787702
As -4.269103 4.260700 15.627702
As -1.429103 4.260700 12.787702
As -1.429103 1.420700 15.627702
As -4.269103 1.420700 18.467702
As -4.269103 4.260700 21.307702
As -1.429103 4.260700 18.467702
As -1.429103 1.420700 21.307702
As -1.429103 7.100700 -12.772298
As -4.269103 7.100700 -9.932298
As -4.269103 9.940700 -7.092298
As -1.429103 9.940700 -9.932298
As -1.429103 7.100700 -7.092298
As -4.269103 7.100700 -4.252298
As -4.269103 9.940700 -1.412298
As -1.429103 9.940700 -4.252298
As -1.429103 7.100700 -1.412298
As -4.269103 7.100700 1.427702
As -4.269103 9.940700 4.267702
As -1.429103 9.940700 1.427702
As -1.429103 7.100700 4.267702
As -4.269103 7.100700 7.107702
As -4.269103 9.940700 9.947702
As -1.429103 9.940700 7.107702
As -1.429103 7.100700 9.947702
As -4.269103 7.100700 12.787702
As -4.269103 9.940700 15.627702
As -1.429103 9.940700 12.787702
As -1.429103 7.100700 15.627702
As -4.269103 7.100700 18.467702
As -1.429103 12.780700 -7.092298
As -4.269103 12.780700 -4.252298
As -4.269103 15.620700 -1.412298
As -1.429103 15.620700 -4.252298
As -1.429103 12.780700 -1.412298
As -4.269103 12.780700 1.427702
As -4.269103 15.620700 4.267702
As -1.429103 15.620700 1.427702
As -1.429103 12.780700 4.267702
As -4.269103 12.780700 7.107702
As -4.269103 15.620700 9.947702
As -1.429103 15.620700 7.107702
As -1.429103 12.780700 9.947702
As -4.269103 12.780700 12.787702
As -1.429103 18.460700 -1.412298
As -4.269103 18.460700 1.427702
As -4.269103 21.300700 4.267702
As -1.429103 21.300700 1.427702
As -1.429103 18.460700 4.267702
As -4.269103 18.460700 7.107702
As 1.410897 -18.459300 -1.412298
As 1.410897 -21.299300 1.427702
As 1.410897 -18.459300 4.267702
As 4.250897 -18.459300 1.427702
As 4.250897 -21.299300 4.267702
As 4.250897 -18.459300 7.107702
As 1.410897 -12.779300 -7.092298
As 1.410897 -15.619300 -4.252298
As 1.410897 -12.779300 -1.412298
As 4.250897 -12.779300 -4.252298
As 4.250897 -15.619300 -1.412298
As 1.410897 -15.619300 1.427702
As 1.410897 -12.779300 4.267702
As 4.250897 -12.779300 1.427702
As 4.250897 -15.619300 4.267702
As 1.410897 -15.619300 7.107702
As 1.410897 -12.779300 9.947702
As 4.250897 -12.779300 7.107702
As 4.250897 -15.619300 9.947702
As 4.250897 -12.779300 12.787702
As 1.410897 -7.099300 -12.772298
As 1.410897 -9.939300 -9.932298
As 1.410897 -7.099300 -7.092298
As 4.250897 -7.099300 -9.932298
As 4.250897 -9.939300 -7.092298
As 1.410897 -9.939300 -4.252298
As 1.410897 -7.099300 -1.412298
As 4.250897 -7.099300 -4.252298
As 4.250897 -9.939300 -1.412298
As 1.410897 -9.939300 1.427702
As 1.410897 -7.099300 4.267702
As 4.250897 -7.099300 1.427702
As 4.250897 -9.939300 4.267702
As 1.410897 -9.939300 7.107702
As 1.410897 -7.099300 9.947702
As 4.250897 -7.099300 7.107702
As 4.250897 -9.939300 9.947702
As 1.410897 -9.939300 12.787702
As 1.410897 -7.099300 15.627702
As 4.250897 -7.099300 12.787702
As 4.250897 -9.939300 15.627702
As 4.250897 -7.099300 18.467702
As 1.410897 -1.419300 -18.452298
As 1.410897 -4.259300 -15.612298
As 1.410897 -1.419300 -12.772298
As 4.250897 -1.419300 -15.612298
As 4.250897 -4.259300 -12.772298
As 1.410897 -4.259300 -9.932298
As 1.410897 -1.419300 -7.092298
As 4.250897 -1.419300 -9.932298
As 4.250897 -4.259300 -7.092298
As 1.410897 -4.259300 -4.252298
As 1.410897 -1.419300 -1.412298
As 4.250897 -1.419300 -4.252298
As 4.250897 -4.259300 -1.412298
As 1.410897 -4.259300 1.427702
As 1.410897 -1.419300 4.267702
As 4.250897 -1.419300 1.427702
As 4.250897 -4.259300 4.267702
As 1.410897 -4.259300 7.107702
As 1.410897 -1.419300 9.947702
As 4.250897 -1.419300 7.107702
As 4.250897 -4.259300 9.947702
As 1.410897 -4.259300 12.787702
As 1.410897 -1.419300 15.627702
As 4.250897 -1.419300 12.787702
As 4.250897 -4.259300 15.627702
As 1.410897 -4.259300 18.467702
As 1.410897 -1.419300 21.307702
As 4.250897 -1.419300 18.467702
As 4.250897 -4.259300 21.307702
As 1.410897 1.420700 -21.292298
As 1.410897 4.260700 -18.452298
As 4.250897 4.260700 -21.292298
As 4.250897 1.420700 -18.452298
As 1.410897 1.420700 -15.612298
As 1.410897 4.260700 -12.772298
As 4.250897 4.260700 -15.612298
As 4.250897 1.420700 -12.772298
As 1.410897 1.420700 -9.932298
As 1.410897 4.260700 -7.092298
As 4.250897 4.260700 -9.932298
As 4.250897 1.420700 -7.092298
As 1.410897 1.420700 -4.252298
As 1.410897 4.260700 -1.412298
As 4.250897 4.260700 -4.252298
As 4.250897 1.420700 -1.412298
As 1.410897 1.420700 1.427702
As 1.410897 4.260700 4.267702
As 4.250897 4.260700 1.427702
As 4.250897 1.420700 4.267702
As 1.410897 1.420700 7.107702
As 1.410897 4.260700 9.947702
As 4.250897 4.260700 7.107702
As 4.250897 1.420700 9.947702
As 1.410897 1.420700 12.787702
As 1.410897 4.260700 15.627702
As 4.250897 4.260700 12.787702
As 4.250897 1.420700 15.627702
As 1.410897 1.420700 18.467702
As 4.250897 7.100700 -18.452298
As 1.410897 7.100700 -15.612298
As 1.410897 9.940700 -12.772298
As 4.250897 9.940700 -15.612298
As 4.250897 7.100700 -12.772298
As 1.410897 7.100700 -9.932298
As 1.410897 9.940700 -7.092298
As 4.250897 9.940700 -9.932298
As 4.250897 7.100700 -7.092298
As 1.410897 7.100700 -4.252298
As 1.410897 9.940700 -1.412298
As 4.250897 9.940700 -4.252298
As 4.250897 7.100700 -1.412298
As 1.410897 7.100700 1.427702
As 1.410897 9.940700 4.267702
As 4.250897 9.940700 1.427702
As 4.250897 7.100700 4.267702
As 1.410897 7.100700 7.107702
As 1.410897 9.940700 9.947702
As 4.250897 9.940700 7.107702
As 4.250897 7.100700 9.947702
As 1.410897 7.100700 12.787702
As 4.250897 12.780700 -12.772298
As 1.410897 12.780700 -9.932298
As 1.410897 15.620700 -7.092298
As 4.250897 15.620700 -9.932298
As 4.250897 12.780700 -7.092298
As 1.410897 12.780700 -4.252298
As 1.410897 15.620700 -1.412298
As 4.250897 15.620700 -4.252298
As 4.250897 12.780700 -1.412298
As 1.410897 12.780700 1.427702
As 1.410897 15.620700 4.267702
As 4.250897 15.620700 1.427702
As 4.250897 12.780700 4.267702
As 1.410897 12.780700 7.107702
As 4.250897 18.460700 -7.092298
As 1.410897 18.460700 -4.252298
As 1.410897 21.300700 -1.412298
As 4.250897 21.300700 -4.252298
As 4.250897 18.460700 -1.412298
As 1.410897 18.460700 1.427702
As 7.090897 -18.459300 4.267702
As 7.090897 -21.299300 7.107702
As 7.090897 -18.459300 9.947702
As 9.930897 -18.459300 7.107702
As 9.930897 -21.299300 9.947702
As 9.930897 -18.459300 12.787702
As 7.090897 -12.779300 -1.412298
As 7.090897 -15.619300 1.427702
As 7.090897 -12.779300 4.267702
As 9.930897 -12.779300 1.427702
As 9.930897 -15.619300 4.267702
As 7.090897 -15.619300 7.107702
As 7.090897 -12.779300 9.947702
As 9.930897 -12.779300 7.107702
As 9.930897 -15.619300 9.947702
As 7.090897 -15.619300 12.787702
As 7.090897 -12.779300 15.627702
As 9.930897 -12.779300 12.787702
As 9.930897 -15.619300 15.627702
As 9.930897 -12.779300 18.467702
As 7.090897 -7.099300 -7.092298
As 7.090897 -9.939300 -4.252298
As 7.090897 -7.099300 -1.412298
As 9.930897 -7.099300 -4.252298
As 9.930897 -9.939300 -1.412298
As 7.090897 -9.939300 1.427702
As 7.090897 -7.099300 4.267702
As 9.930897 -7.099300 1.427702
As 9.930897 -9.939300 4.267702
As 7.090897 -9.939300 7.107702
As 7.090897 -7.099300 9.947702
As 9.930897 -7.099300 7.107702
As 9.930897 -9.939300 9.947702
As 7.090897 -9.939300 12.787702
As 7.090897 -7.099300 15.627702
As 9.930897 -7.099300 12.787702
As 9.930897 -9.939300 15.627702
As 7.090897 -9.939300 18.467702
As 7.090897 -7.099300 21.307702
As 9.930897 -7.099300 18.467702
As 9.930897 -9.939300 21.307702
As 7.090897 -1.419300 -12.772298
As 7.090897 -4.259300 -9.932298
As 7.090897 -1.419300 -7.092298
As 9.930897 -1.419300 -9.932298
As 9.930897 -4.259300 -7.092298
As 7.090897 -4.259300 -4.252298
As 7.090897 -1.419300 -1.412298
As 9.930897 -1.419300 -4.252298
As 9.930897 -4.259300 -1.412298
As 7.090897 -4.259300 1.427702
As 7.090897 -1.419300 4.267702
As 9.930897 -1.419300 1.427702
As 9.930897 -4.259300 4.267702
As 7.090897 -4.259300 7.107702
As 7.090897 -1.419300 9.947702
As 9.930897 -1.419300 7.107702
As 9.930897 -4.259300 9.947702
As 7.090897 -4.259300 12.787702
As 7.090897 -1.419300 15.627702
As 9.930897 -1.419300 12.787702
As 9.930897 -4.259300 15.627702
As 7.090897 -4.259300 18.467702
As 7.090897 4.260700 -18.452298
As 7.090897 1.420700 -15.612298
As 7.090897 4.260700 -12.772298
As 9.930897 4.260700 -15.612298
As 9.930897 1.420700 -12.772298
As 7.090897 1.420700 -9.932298
As 7.090897 4.260700 -7.092298
As 9.930897 4.260700 -9.932298
As 9.930897 1.420700 -7.092298
As 7.090897 1.420700 -4.252298
As 7.090897 4.260700 -1.412298
As 9.930897 4.260700 -4.252298
As 9.930897 1.420700 -1.412298
As 7.090897 1.420700 1.427702
As 7.090897 4.260700 4.267702
As 9.930897 4.260700 1.427702
As 9.930897 1.420700 4.267702
As 7.090897 1.420700 7.107702
As 7.090897 4.260700 9.947702
As 9.930897 4.260700 7.107702
As 9.930897 1.420700 9.947702
As 7.090897 1.420700 12.787702
As 7.090897 7.100700 -21.292298
As 7.090897 9.940700 -18.452298
As 9.930897 9.940700 -21.292298
As 9.930897 7.100700 -18.452298
As 7.090897 7.100700 -15.612298
As 7.090897 9.940700 -12.772298
As 9.930897 9.940700 -15.612298
As 9.930897 7.100700 -12.772298
As 7.090897 7.100700 -9.932298
As 7.090897 9.940700 -7.092298
As 9.930897 9.940700 -9.932298
As 9.930897 7.100700 -7.092298
As 7.090897 7.100700 -4.252298
As 7.090897 9.940700 -1.412298
As 9.930897 9.940700 -4.252298
As 9.930897 7.100700 -1.412298
As 7.090897 7.100700 1.427702
As 7.090897 9.940700 4.267702
As 9.930897 9.940700 1.427702
As 9.930897 7.100700 4.267702
As 7.090897 7.100700 7.107702
As 9.930897 12.780700 -18.452298
As 7.090897 12.780700 -15.612298
As 7.090897 15.620700 -12.772298
As 9.930897 15.620700 -15.612298
As 9.930897 12.780700 -12.772298
As 7.090897 12.780700 -9.932298
As 7.090897 15.620700 -7.092298
As 9.930897 15.620700 -9.932298
As 9.930897 12.780700 -7.092298
As 7.090897 12.780700 -4.252298
As 7.090897 15.620700 -1.412298
As 9.930897 15.620700 -4.252298
As 9.930897 12.780700 -1.412298
As 7.090897 12.780700 1.427702
As 9.930897 18.460700 -12.772298
As 7.090897 18.460700 -9.932298
As 7.090897 21.300700 -7.092298
As 9.930897 21.300700 -9.932298
As 9.930897 18.460700 -7.092298
As 7.090897 18.460700 -4.252298
As 12.770897 -18.459300 9.947702
As 15.610897 -18.459300 12.787702
As 12.770897 -12.779300 4.267702
As 12.770897 -15.619300 7.107702
As 12.770897 -12.779300 9.947702
As 15.610897 -12.779300 7.107702
As 15.610897 -15.619300 9.947702
As 12.770897 -15.619300 12.787702
As 12.770897 -12.779300 15.627702
As 15.610897 -12.779300 12.787702
As 12.770897 -12.779300 21.307702
As 12.770897 -7.099300 -1.412298
As 12.770897 -9.939300 1.427702
As 12.770897 -7.099300 4.267702
As 15.610897 -7.099300 1.427702
As 15.610897 -9.939300 4.267702
As 12.770897 -9.939300 7.107702
As 12.770897 -7.099300 9.947702
As 15.610897 -7.099300 7.107702
As 15.610897 -9.939300 9.947702
As 12.770897 -9.939300 12.787702
As 12.770897 -7.099300 15.627702
As 15.610897 -7.099300 12.787702
As 15.610897 -9.939300 15.627702
As 12.770897 -9.939300 18.467702
As 12.770897 -1.419300 -7.092298
As 12.770897 -4.259300 -4.252298
As 12.770897 -1.419300 -1.412298
As 15.610897 -1.419300 -4.252298
As 15.610897 -4.259300 -1.412298
As 12.770897 -4.259300 1.427702
As 12.770897 -1.419300 4.267702
As 15.610897 -1.419300 1.427702
As 15.610897 -4.259300 4.267702
As 12.770897 -4.259300 7.107702
As 12.770897 -1.419300 9.947702
As 15.610897 -1.419300 7.107702
As 15.610897 -4.259300 9.947702
As 12.770897 -4.259300 12.787702
As 12.770897 4.260700 -12.772298
As 12.770897 1.420700 -9.932298
As 12.770897 4.260700 -7.092298
As 15.610897 4.260700 -9.932298
As 15.610897 1.420700 -7.092298
As 12.770897 1.420700 -4.252298
As 12.770897 4.260700 -1.412298
As 15.610897 4.260700 -4.252298
As 15.610897 1.420700 -1.412298
As 12.770897 1.420700 1.427702
As 12.770897 4.260700 4.267702
As 15.610897 4.260700 1.427702
As 15.610897 1.420700 4.267702
As 12.770897 1.420700 7.107702
As 12.770897 9.940700 -18.452298
As 12.770897 7.100700 -15.612298
As 12.770897 9.940700 -12.772298
As 15.610897 9.940700 -15.612298
As 15.610897 7.100700 -12.772298
As 12.770897 7.100700 -9.932298
As 12.770897 9.940700 -7.092298
As 15.610897 9.940700 -9.932298
As 15.610897 7.100700 -7.092298
As 12.770897 7.100700 -4.252298
As 12.770897 9.940700 -1.412298
As 15.610897 9.940700 -4.252298
As 15.610897 7.100700 -1.412298
As 12.770897 7.100700 1.427702
As 12.770897 12.780700 -21.292298
As 12.770897 12.780700 -15.612298
As 12.770897 15.620700 -12.772298
As 15.610897 12.780700 -12.772298
As 12.770897 12.780700 -9.932298
As 12.770897 15.620700 -7.092298
As 15.610897 15.620700 -9.932298
As 15.610897 12.780700 -7.092298
As 12.770897 12.780700 -4.252298
As 15.610897 18.460700 -12.772298
As 12.770897 18.460700 -9.932298
As 18.450897 -12.779300 9.947702
As 21.290897 -12.779300 12.787702
As 18.450897 -7.099300 4.267702
As 18.450897 -9.939300 7.107702
As 18.450897 -7.099300 9.947702
As 21.290897 -7.099300 7.107702
As 21.290897 -9.939300 9.947702
As 18.450897 -9.939300 12.787702
As 18.450897 -1.419300 -1.412298
As 18.450897 -4.259300 1.427702
As 18.450897 -1.419300 4.267702
As 21.290897 -1.419300 1.427702
As 21.290897 -4.259300 4.267702
As 18.450897 -4.259300 7.107702
As 18.450897 4.260700 -7.092298
As 18.450897 1.420700 -4.252298
As 18.450897 4.260700 -1.412298
As 21.290897 4.260700 -4.252298
As 21.290897 1.420700 -1.412298
As 18.450897 1.420700 1.427702
As 18.450897 9.940700 -12.772298
As 18.450897 7.100700 -9.932298
As 18.450897 9.940700 -7.092298
As 21.290897 9.940700 -9.932298
As 21.290897 7.100700 -7.092298
As 18.450897 7.100700 -4.252298
As 21.290897 12.780700 -12.772298
As 18.450897 12.780700 -9.932298
Cl -18.469103 -12.779300 -15.612298
Cl -18.469103 -15.619300 -12.772298
Cl -18.469103 15.620700 12.787702
Cl -18.469103 12.780700 15.627702
Cl -12.789103 -18.459300 -15.612298
Cl -12.789103 -21.299300 -12.772298
Cl -15.629103 -12.779300 -18.452298
Cl -12.789103 -15.619300 -18.452298
Cl -15.629103 -15.619300 -15.612298
Cl -15.629103 15.620700 15.627702
Cl -15.629103 12.780700 18.467702
Cl -12.789103 15.620700 18.467702
Cl -12.789103 21.300700 12.787702
Cl -12.789103 18.460700 15.627702
Cl 12.770897 -21.299300 12.787702
Cl 12.770897 -18.459300 15.627702
Cl 15.610897 -15.619300 15.627702
Cl 12.770897 -15.619300 18.467702
Cl 15.610897 -12.779300 18.467702
Cl 12.770897 15.620700 -18.452298
Cl 15.610897 12.780700 -18.452298
Cl 15.610897 15.620700 -15.612298
Cl 12.770897 18.460700 -15.612298
Cl 12.770897 21.300700 -12.772298
Cl 18.450897 -15.619300 12.787702
Cl 18.450897 -12.779300 15.627702
Cl 18.450897 12.780700 -15.612298
Cl 18.450897 15.620700 -12.772298
Cl 12.770897 24.140700 -9.932298
Cl 24.130897 -12.779300 9.947702
Cl -9.949103 24.140700 12.787702
Cl 24.130897 9.940700 -12.772298
Cl -12.789103 9.940700 24.147702
Cl 9.930897 12.780700 -24.132298
Cl -9.949103 -12.779300 -24.132298
Cl 12.770897 -9.939300 24.147702
Cl -24.149103 7.100700 4.267702
Cl -7.109103 -24.139300 -4.252298
Cl 4.250897 24.140700 -1.412298
Cl 24.130897 -4.259300 1.427702
Cl -24.149103 -9.939300 -12.772298
Cl 9.930897 -24.139300 12.787702
Cl 1.410897 -1.419300 -24.132298
Cl 1.410897 1.420700 24.147702
Cl 9.930897 -24.139300 7.107702
Cl 24.130897 9.940700 -7.092298
Cl -24.149103 12.780700 9.947702
Cl -12.789103 -24.139300 -9.932298
Cl -7.109103 9.940700 24.147702
Cl 9.930897 7.100700 -24.132298
Cl -24.149103 -7.099300 -4.252298
Cl -7.109103 24.140700 4.267702
Cl -9.949103 -7.099300 -24.132298
Cl 7.090897 -9.939300 24.147702
Cl -24.149103 7.100700 9.947702
Cl 7.090897 24.140700 -9.932298
Cl -24.149103 -1.419300 -4.252298
Cl 1.410897 -24.139300 4.267702
Cl 7.090897 24.140700 -4.252298
Cl 24.130897 -7.099300 4.267702
Cl -4.269103 1.420700 24.147702
Cl 1.410897 4.260700 -24.132298
Cl -7.109103 -24.139300 -9.932298
Cl 24.130897 -7.099300 9.947702
Cl -24.149103 4.260700 1.427702
Cl -4.269103 -24.139300 -1.412298
Cl -1.429103 24.140700 4.267702
Cl 24.130897 1.420700 -4.252298
Cl -1.429103 -4.259300 -24.132298
Cl 4.250897 -1.419300 24.147702
Cl -24.149103 -1.419300 1.427702
Cl -1.429103 24.140700 -1.412298
Cl 1.410897 -24.139300 -1.412298
Cl 24.130897 1.420700 1.427702
Cl -24.149103 -9.939300 -7.092298
Cl -9.949103 24.140700 7.107702
Cl -7.109103 -4.259300 -24.132298
Cl 4.250897 -7.099300 24.147702
Cl 7.090897 -24.139300 4.267702
Cl 24.130897 7.100700 -4.252298
Cl -4.269103 7.100700 24.147702
Cl 7.090897 4.260700 -24.132298
Cl -9.949103 -7.099300 9.947702
Cl -7.109103 9.940700 -9.932298
Cl 7.090897 -9.939300 -9.932298
Cl 9.930897 7.100700 9.947702
Cl 1.410897 -15.619300 12.787702
Cl -15.629103 -1.419300 -12.772298
Cl -1.429103 15.620700 12.787702
Cl 15.610897 1.420700 -12.772298
Cl 4.250897 15.620700 -15.612298
Cl -15.629103 4.260700 15.627702
Cl -4.269103 -15.619300 -15.612298
Cl 15.610897 -4.259300 15.627702
Cl -12.789103 -12.779300 1.427702
Cl -12.789103 12.780700 -1.412298
Cl 12.770897 -12.779300 -1.412298
Cl 12.770897 12.780700 1.427702
Cl -18.469103 -18.459300 -9.932298
Cl -18.469103 18.460700 9.947702
Cl 18.450897 -18.459300 9.947702
Cl 18.450897 18.460700 -9.932298
Cl -18.469103 -9.939300 -18.452298
Cl 9.930897 -18.459300 18.467702
Cl -9.949103 18.460700 18.467702
Cl 18.450897 9.940700 -18.452298
Cl -4.269103 -7.099300 15.627702
Cl -7.109103 4.260700 -15.612298
Cl 1.410897 -18.459300 -7.092298
Cl 18.450897 1.420700 7.107702
Cl -18.469103 -1.419300 7.107702
Cl -1.429103 18.460700 -7.092298
Cl 4.250897 7.100700 15.627702
Cl 7.090897 -4.259300 -15.612298
Cl -15.629103 4.260700 -7.092298
Cl -4.269103 -15.619300 7.107702
Cl 4.250897 15.620700 7.107702
Cl 15.610897 -4.259300 -7.092298
Cl -9.949103 -1.419300 15.627702
Cl -1.429103 9.940700 -15.612298
Cl 1.410897 -9.939300 -15.612298
Cl 9.930897 1.420700 15.627702
Cl -18.469103 12.780700 4.267702
Cl -12.789103 -18.459300 -4.252298
Cl 12.770897 18.460700 -4.252298
Cl 18.450897 -12.779300 4.267702
Cl -18.469103 -7.099300 1.427702
Cl -7.109103 18.460700 -1.412298
Cl 7.090897 -18.459300 -1.412298
Cl 18.450897 7.100700 1.427702
Cl -21.309103 9.940700 15.627702
Cl 9.930897 21.300700 -15.612298
Cl -9.949103 -21.299300 -15.612298
Cl 21.290897 -9.939300 15.627702
Cl 4.250897 9.940700 -21.292298
Cl -9.949103 4.260700 21.307702
Cl -21.309103 -4.259300 -9.932298
Cl 4.250897 -21.299300 9.947702
Cl -4.269103 21.300700 9.947702
Cl 21.290897 4.260700 -9.932298
Cl -4.269103 -9.939300 -21.292298
Cl 9.930897 -4.259300 21.307702
Cl -4.269103 1.420700 -21.292298
Cl -1.429103 -4.259300 21.307702
Cl -4.269103 12.780700 18.467702
Cl 12.770897 4.260700 -18.452298
Cl 4.250897 -12.779300 18.467702
Cl -12.789103 -4.259300 -18.452298
Cl 12.770897 -18.459300 4.267702
Cl 18.450897 12.780700 -4.252298
Cl -18.469103 -12.779300 -4.252298
Cl -12.789103 18.460700 4.267702
Cl 7.090897 18.460700 1.427702
Cl 18.450897 -7.099300 -1.412298
Cl -18.469103 7.100700 -1.412298
Cl -7.109103 -18.459300 1.427702
Cl -4.269103 -24.139300 -7.092298
Cl 24.130897 -4.259300 7.107702
Cl -24.149103 4.260700 7.107702
Cl 4.250897 24.140700 -7.092298
Cl -9.949103 12.780700 24.147702
Cl 12.770897 9.940700 -24.132298
Cl -12.789103 -9.939300 -24.132298
Cl 9.930897 -12.779300 24.147702
Cl -15.629103 9.940700 21.307702
Cl 9.930897 15.620700 -21.292298
Cl -9.949103 -15.619300 -21.292298
Cl 15.610897 -9.939300 21.307702
Cl 12.770897 -24.139300 9.947702
Cl 24.130897 12.780700 -9.932298
Cl -24.149103 -12.779300 -9.932298
Cl -12.789103 24.140700 9.947702
Cl 7.090897 -12.779300 -7.092298
Cl 12.770897 7.100700 7.107702
Cl -12.789103 -7.099300 7.107702
Cl -7.109103 12.780700 -7.092298
Cl 1.410897 7.100700 18.467702
Cl 7.090897 -1.419300 -18.452298
Cl -12.789103 4.260700 -9.932298
Cl -4.269103 -12.779300 9.947702
Cl -15.629103 1.420700 12.787702
Cl -1.429103 -15.619300 -12.772298
Cl 1.410897 15.620700 -12.772298
Cl 15.610897 -1.419300 12.787702
Cl 4.250897 12.780700 9.947702
Cl 12.770897 -4.259300 -9.932298
Cl -18.469103 -7.099300 -15.612298
Cl 7.090897 -18.459300 15.627702
Cl -7.109103 18.460700 15.627702
Cl 18.450897 7.100700 -15.612298
Cl -21.309103 1.420700 -4.252298
Cl -1.429103 -21.299300 4.267702
Cl 1.410897 21.300700 4.267702
Cl 21.290897 -1.419300 -4.252298
Cl -7.109103 -1.419300 18.467702
Cl -1.429103 7.100700 -18.452298
Cl 1.410897 -7.099300 -18.452298
Cl 7.090897 1.420700 18.467702
Cl -9.949103 1.420700 -15.612298
Cl -1.429103 -9.939300 15.627702
Cl 9.930897 12.780700 4.267702
Cl 12.770897 -9.939300 -4.252298
Cl -9.949103 -12.779300 4.267702
Cl -12.789103 9.940700 -4.252298
Cl -24.149103 9.940700 12.787702
Cl 9.930897 24.140700 -12.772298
Cl -9.949103 -24.139300 -12.772298
Cl 24.130897 -9.939300 12.787702
Cl 15.610897 21.300700 -9.932298
Cl 21.290897 -15.619300 9.947702
Cl -21.309103 15.620700 9.947702
Cl -15.629103 -21.299300 -9.932298
Cl -7.109103 24.140700 9.947702
Cl 24.130897 7.100700 -9.932298
Cl -24.149103 -7.099300 -9.932298
Cl 7.090897 -24.139300 9.947702
Cl -7.109103 4.260700 24.147702
Cl 4.250897 7.100700 -24.132298
Cl -7.109103 -9.939300 -24.132298
Cl 9.930897 -7.099300 24.147702
Cl -24.149103 1.420700 4.267702
Cl 1.410897 24.140700 -4.252298
Cl -1.429103 -24.139300 -4.252298
Cl 24.130897 -1.419300 4.267702
Cl -4.269103 -1.419300 -24.132298
Cl 1.410897 -4.259300 24.147702
Cl 15.610897 -21.299300 9.947702
Cl 21.290897 15.620700 -9.932298
Cl -18.469103 9.940700 18.467702
Cl 9.930897 18.460700 -18.452298
Cl -9.949103 -18.459300 -18.452298
Cl 18.450897 -9.939300 18.467702
Cl -21.309103 -15.619300 -9.932298
Cl -15.629103 21.300700 9.947702
Cl 9.930897 24.140700 -7.092298
Cl 24.130897 -9.939300 7.107702
Cl -24.149103 9.940700 7.107702
Cl -9.949103 -24.139300 -7.092298
Cl 4.250897 -24.139300 1.427702
Cl 24.130897 4.260700 -1.412298
Cl -24.149103 -4.259300 -1.412298
Cl -4.269103 24.140700 1.427702
Cl -1.429103 4.260700 24.147702
Cl 4.250897 1.420700 -24.132298
Cl -9.949103 15.620700 21.307702
Cl 15.610897 9.940700 -21.292298
Cl -15.629103 -9.939300 -21.292298
Cl 9.930897 -15.619300 21.307702
Cl 1.410897 -15.619300 -9.932298
Cl 15.610897 1.420700 9.947702
Cl -15.629103 -1.419300 9.947702
Cl -1.429103 15.620700 -9.932298
Cl 12.770897 -15.619300 1.427702
Cl 15.610897 12.780700 -1.412298
Cl -15.629103 -12.779300 -1.412298
Cl -12.789103 15.620700 1.427702
Cl -1.429103 12.780700 15.627702
Cl 12.770897 1.420700 -15.612298
Cl -18.469103 -1.419300 -9.932298
Cl 1.410897 -18.459300 9.947702
Cl 9.930897 18.460700 -1.412298
Cl 18.450897 -9.939300 1.427702
Cl -18.469103 9.940700 1.427702
Cl -9.949103 -18.459300 -1.412298
Cl 7.090897 -7.099300 -12.772298
Cl 7.090897 7.100700 12.787702
Cl -12.789103 4.260700 18.467702
Cl 4.250897 12.780700 -18.452298
Cl -1.429103 18.460700 9.947702
Cl 18.450897 1.420700 -9.932298
Cl -18.469103 -4.259300 4.267702
Cl -4.269103 18.460700 -4.252298
Cl -4.269103 -21.299300 -9.932298
Cl 21.290897 -4.259300 9.947702
Cl -9.949103 -1.419300 -18.452298
Cl 1.410897 -9.939300 18.467702
Cl 4.250897 -18.459300 -4.252298
Cl 18.450897 4.260700 4.267702
Cl -21.309103 4.260700 9.947702
Cl 4.250897 21.300700 -9.932298
Cl -7.109103 -7.099300 12.787702
Cl -7.109103 7.100700 -12.772298
Cl -4.269103 -12.779300 -18.452298
Cl 12.770897 -4.259300 18.467702
Cl -24.149103 1.420700 -1.412298
Cl -1.429103 -24.139300 1.427702
Cl 1.410897 24.140700 1.427702
Cl 24.130897 -1.419300 -1.412298
Cl -21.309103 -9.939300 -15.612298
Cl 9.930897 -21.299300 15.627702
Cl -9.949103 21.300700 15.627702
Cl 21.290897 9.940700 -15.612298
Cl -1.429103 1.420700 -24.132298
Cl -1.429103 -1.419300 24.147702
Cl -4.269103 -7.099300 -24.132298
Cl 7.090897 -4.259300 24.147702
Cl -9.949103 7.100700 24.147702
Cl 7.090897 9.940700 -24.132298
Cl -4.269103 24.140700 7.107702
Cl 24.130897 4.260700 -7.092298
Cl -24.149103 -4.259300 -7.092298
Cl 4.250897 -24.139300 7.107702
Cl 15.610897 -18.459300 7.107702
Cl 18.450897 15.620700 -7.092298
Cl -18.469103 -15.619300 -7.092298
Cl -15.629103 18.460700 7.107702
Cl -1.429103 7.100700 21.307702
Cl 7.090897 1.420700 -21.292298
Cl 7.090897 -21.299300 1.427702
Cl 21.290897 7.100700 -1.412298
Cl -21.309103 -7.099300 -1.412298
Cl -7.109103 21.300700 1.427702
Cl 7.090897 12.780700 7.107702
Cl 12.770897 -7.099300 -7.092298
Cl -12.789103 7.100700 -7.092298
Cl -7.109103 -12.779300 7.107702
Cl -7.109103 -18.459300 -15.612298
Cl 18.450897 -7.099300 15.627702
Cl -18.469103 7.100700 15.627702
Cl 7.090897 18.460700 -15.612298
Cl 1.410897 -4.259300 -21.292298
Cl 4.250897 1.420700 21.307702
Cl -15.629103 -4.259300 -15.612298
Cl 4.250897 -15.619300 15.627702
Cl 7.090897 -15.619300 -4.252298
Cl 15.610897 7.100700 4.267702
Cl -15.629103 -7.099300 4.267702
Cl -7.109103 15.620700 -4.252298
Cl 4.250897 18.460700 4.267702
Cl 18.450897 -4.259300 -4.252298
Cl -18.469103 4.260700 -4.252298
Cl -4.269103 -18.459300 4.267702
Cl -12.789103 -1.419300 12.787702
Cl -1.429103 12.780700 -12.772298
Cl 1.410897 -12.779300 -12.772298
Cl 12.770897 1.420700 12.787702
Cl -4.269103 -4.259300 18.467702
Cl -4.269103 4.260700 -18.452298
Cl 1.410897 12.780700 12.787702
Cl 12.770897 -1.419300 -12.772298
Cl -12.789103 1.420700 -12.772298
Cl -1.429103 -12.779300 12.787702
Cl 12.770897 21.300700 -7.092298
Cl 21.290897 -12.779300 7.107702
Cl -21.309103 12.780700 7.107702
Cl -12.789103 -21.299300 -7.092298
Cl -7.109103 12.780700 21.307702
Cl 15.610897 7.100700 -18.452298
Cl 7.090897 -12.779300 21.307702
Cl -9.949103 -4.259300 -21.292298
Cl -1.429103 -21.299300 -7.092298
Cl 21.290897 -1.419300 7.107702
Cl -21.309103 1.420700 7.107702
Cl 1.410897 21.300700 -7.092298
Cl 21.290897 9.940700 -4.252298
Cl 9.930897 -21.299300 4.267702
Cl -21.309103 -9.939300 -4.252298
Cl -9.949103 21.300700 4.267702
Cl 7.090897 21.300700 -1.412298
Cl 21.290897 -7.099300 1.427702
Cl -7.109103 -21.299300 -1.412298
Cl -21.309103 7.100700 1.427702
Cl 9.930897 4.260700 -21.292298
Cl -4.269103 18.460700 12.787702
Cl -7.109103 1.420700 21.307702
Cl 1.410897 7.100700 -21.292298
Cl 7.090897 4.260700 15.627702
Cl 4.250897 -7.099300 -15.612298
Cl 1.410897 -7.099300 21.307702
Cl -15.629103 12.780700 1.427702
Cl 15.610897 -12.779300 1.427702
Cl 12.770897 15.620700 -1.412298
Cl -12.789103 -15.619300 -1.412298
Cl 18.450897 4.260700 -12.772298
Cl -1.429103 9.940700 18.467702
Cl 4.250897 18.460700 -12.772298
Cl -4.269103 -18.459300 -12.772298
Cl 18.450897 -4.259300 12.787702
Cl -18.469103 4.260700 12.787702
Cl -9.949103 9.940700 -7.092298
Cl -9.949103 -9.939300 7.107702
Cl 9.930897 -9.939300 -7.092298
Cl 9.930897 9.940700 7.107702
Cl -18.469103 1.420700 -7.092298
Cl -1.429103 -9.939300 -18.452298
Cl 9.930897 -1.419300 18.467702
Cl -1.429103 -18.459300 7.107702
Cl -4.269103 9.940700 -12.772298
Cl -9.949103 -4.259300 12.787702
Cl 1.410897 18.460700 7.107702
Cl 18.450897 -1.419300 -7.092298
Cl 7.090897 12.780700 -21.292298
Cl 9.930897 -1.419300 -15.612298
Cl 15.610897 9.940700 1.427702
Cl -21.309103 -7.099300 -12.772298
Cl -15.629103 -9.939300 1.427702
Cl 9.930897 -15.619300 -1.412298
Cl -9.949103 15.620700 -1.412298
Cl 7.090897 -21.299300 12.787702
