3013
HgSe-Se-Hg1428Se1271Cl314-reconstructed
Hg -23.223473 -10.839196 -10.838169
Hg -23.223473 -13.935522 -7.741843
Hg -23.223473 -10.839196 -4.645517
Hg -23.223473 -13.935522 -1.549191
Hg -23.223473 -10.839196 1.547135
Hg -23.223473 -13.935522 4.643461
Hg -23.223473 -10.839196 7.739787
Hg -23.223473 -7.742870 -13.934495
Hg -23.223473 -4.646544 -10.838169
Hg -23.223473 -7.742870 -7.741843
Hg -23.223473 -4.646544 -4.645517
Hg -23.223473 -7.742870 -1.549191
Hg -23.223473 -4.646544 1.547135
Hg -23.223473 -7.742870 4.643461
Hg -23.223473 -4.646544 7.739787
Hg -23.223473 -7.742870 10.836113
Hg -23.223473 -4.646544 13.932439
Hg -23.223473 -1.550218 -13.934495
Hg -23.223473 1.546108 -10.838169
Hg -23.223473 -1.550218 -7.741843
Hg -23.223473 1.546108 -4.645517
Hg -23.223473 -1.550218 -1.549191
Hg -23.223473 1.546108 1.547135
Hg -23.223473 -1.550218 4.643461
Hg -23.223473 1.546108 7.739787
Hg -23.223473 -1.550218 10.836113
Hg -23.223473 1.546108 13.932439
Hg -23.223473 4.642434 -13.934495
Hg -23.223473 7.738760 -10.838169
Hg -23.223473 4.642434 -7.741843
Hg -23.223473 7.738760 -4.645517
Hg -23.223473 4.642434 -1.549191
Hg -23.223473 7.738760 1.547135
Hg -23.223473 4.642434 4.643461
Hg -23.223473 7.738760 7.739787
Hg -23.223473 4.642434 10.836113
Hg -23.223473 7.738760 13.932439
Hg -23.223473 10.835086 -7.741843
Hg -23.223473 13.931412 -4.645517
Hg -23.223473 10.835086 -1.549191
Hg -23.223473 13.931412 1.547135
Hg -23.223473 10.835086 4.643461
Hg -23.223473 13.931412 7.739787
Hg -23.223473 10.835086 10.836113
Hg -17.030821 -20.128174 -7.741843
Hg -20.127147 -17.031848 -7.741843
Hg -17.030821 -17.031848 -4.645517
Hg -17.030821 -20.128174 -1.549191
Hg -20.127147 -17.031848 -1.549191
Hg -17.030821 -17.031848 1.547135
Hg -17.030821 -20.128174 4.643461
Hg -20.127147 -17.031848 4.643461
Hg -17.030821 -10.839196 -17.030821
Hg -17.030821 -13.935522 -13.934495
Hg -20.127147 -13.935522 -10.838169
Hg -17.030821 -10.839196 -10.838169
Hg -17.030821 -13.935522 -7.741843
Hg -20.127147 -10.839196 -7.741843
Hg -20.127147 -13.935522 -4.645517
Hg -17.030821 -10.839196 -4.645517
Hg -17.030821 -13.935522 -1.549191
Hg -20.127147 -10.839196 -1.549191
Hg -20.127147 -13.935522 1.547135
Hg -17.030821 -10.839196 1.547135
Hg -17.030821 -13.935522 4.643461
Hg -20.127147 -10.839196 4.643461
Hg -20.127147 -13.935522 7.739787
Hg -17.030821 -10.839196 7.739787
Hg -17.030821 -13.935522 10.836113
Hg -17.030821 -10.839196 13.932439
Hg -17.030821 -7.742870 -20.127147
Hg -20.127147 -7.742870 -17.030821
Hg -17.030821 -4.646544 -17.030821
Hg -17.030821 -7.742870 -13.934495
Hg -20.127147 -4.646544 -13.934495
Hg -20.127147 -7.742870 -10.838169
Hg -17.030821 -4.646544 -10.838169
Hg -17.030821 -7.742870 -7.741843
Hg -20.127147 -4.646544 -7.741843
Hg -20.127147 -7.742870 -4.645517
Hg -17.030821 -4.646544 -4.645517
Hg -17.030821 -7.742870 -1.549191
Hg -20.127147 -4.646544 -1.549191
Hg -20.127147 -7.742870 1.547135
Hg -17.030821 -4.646544 1.547135
Hg -17.030821 -7.742870 4.643461
Hg -20.127147 -4.646544 4.643461
Hg -20.127147 -7.742870 7.739787
Hg -17.030821 -4.646544 7.739787
Hg -17.030821 -7.742870 10.836113
Hg -20.127147 -4.646544 10.836113
Hg -20.127147 -7.742870 13.932439
Hg -17.030821 -4.646544 13.932439
Hg -20.127147 -4.646544 17.028765
Hg -17.030821 -4.646544 20.125091
Hg -17.030821 -1.550218 -20.127147
Hg -20.127147 -1.550218 -17.030821
Hg -17.030821 1.546108 -17.030821
Hg -17.030821 -1.550218 -13.934495
Hg -20.127147 1.546108 -13.934495
Hg -20.127147 -1.550218 -10.838169
Hg -17.030821 1.546108 -10.838169
Hg -17.030821 -1.550218 -7.741843
Hg -20.127147 1.546108 -7.741843
Hg -20.127147 -1.550218 -4.645517
Hg -17.030821 1.546108 -4.645517
Hg -17.030821 -1.550218 -1.549191
Hg -20.127147 1.546108 -1.549191
Hg -20.127147 -1.550218 1.547135
Hg -17.030821 1.546108 1.547135
Hg -17.030821 -1.550218 4.643461
Hg -20.127147 1.546108 4.643461
Hg -20.127147 -1.550218 7.739787
Hg -17.030821 1.546108 7.739787
Hg -17.030821 -1.550218 10.836113
Hg -20.127147 1.546108 10.836113
Hg -20.127147 -1.550218 13.932439
Hg -17.030821 1.546108 13.932439
Hg -17.030821 -1.550218 17.028765
Hg -20.127147 1.546108 17.028765
Hg -17.030821 1.546108 20.125091
Hg -17.030821 4.642434 -20.127147
Hg -20.127147 4.642434 -17.030821
Hg -17.030821 4.642434 -13.934495
Hg -20.127147 7.738760 -13.934495
Hg -20.127147 4.642434 -10.838169
Hg -17.030821 7.738760 -10.838169
Hg -17.030821 4.642434 -7.741843
Hg -20.127147 7.738760 -7.741843
Hg -20.127147 4.642434 -4.645517
Hg -17.030821 7.738760 -4.645517
Hg -17.030821 4.642434 -1.549191
Hg -20.127147 7.738760 -1.549191
Hg -20.127147 4.642434 1.547135
Hg -17.030821 7.738760 1.547135
Hg -17.030821 4.642434 4.643461
Hg -20.127147 7.738760 4.643461
Hg -20.127147 4.642434 7.739787
Hg -17.030821 7.738760 7.739787
Hg -17.030821 4.642434 10.836113
Hg -20.127147 7.738760 10.836113
Hg -20.127147 4.642434 13.932439
Hg -17.030821 7.738760 13.932439
Hg -17.030821 4.642434 17.028765
Hg -20.127147 7.738760 17.028765
Hg -17.030821 7.738760 20.125091
Hg -17.030821 10.835086 -13.934495
Hg -17.030821 13.931412 -10.838169
Hg -17.030821 10.835086 -7.741843
Hg -20.127147 13.931412 -7.741843
Hg -20.127147 10.835086 -4.645517
Hg -17.030821 13.931412 -4.645517
Hg -17.030821 10.835086 -1.549191
Hg -20.127147 13.931412 -1.549191
Hg -20.127147 10.835086 1.547135
Hg -17.030821 13.931412 1.547135
Hg -17.030821 10.835086 4.643461
Hg -20.127147 13.931412 4.643461
Hg -20.127147 10.835086 7.739787
Hg -17.030821 13.931412 7.739787
Hg -17.030821 10.835086 10.836113
Hg -20.127147 10.835086 13.932439
Hg -17.030821 13.931412 13.932439
Hg -20.127147 17.027738 -4.645517
Hg -17.030821 20.124064 -4.645517
Hg -17.030821 17.027738 -1.549191
Hg -20.127147 17.027738 1.547135
Hg -17.030821 20.124064 1.547135
Hg -17.030821 17.027738 4.643461
Hg -20.127147 17.027738 7.739787
Hg -17.030821 20.124064 7.739787
Hg -17.030821 17.027738 10.836113
Hg -10.838169 -23.224500 -10.838169
Hg -13.934495 -23.224500 -7.741843
Hg -10.838169 -23.224500 -4.645517
Hg -13.934495 -23.224500 -1.549191
Hg -10.838169 -23.224500 1.547135
Hg -13.934495 -23.224500 4.643461
Hg -10.838169 -23.224500 7.739787
Hg -10.838169 -17.031848 -17.030821
Hg -13.934495 -17.031848 -13.934495
Hg -13.934495 -20.128174 -10.838169
Hg -10.838169 -17.031848 -10.838169
Hg -10.838169 -20.128174 -7.741843
Hg -13.934495 -17.031848 -7.741843
Hg -13.934495 -20.128174 -4.645517
Hg -10.838169 -17.031848 -4.645517
Hg -10.838169 -20.128174 -1.549191
Hg -13.934495 -17.031848 -1.549191
Hg -13.934495 -20.128174 1.547135
Hg -10.838169 -17.031848 1.547135
Hg -10.838169 -20.128174 4.643461
Hg -13.934495 -17.031848 4.643461
Hg -13.934495 -20.128174 7.739787
Hg -10.838169 -17.031848 7.739787
Hg -13.934495 -17.031848 10.836113
Hg -10.838169 -17.031848 13.932439
Hg -10.838169 -10.839196 -23.223473
Hg -13.934495 -10.839196 -20.127147
Hg -13.934495 -13.935522 -17.030821
Hg -10.838169 -10.839196 -17.030821
Hg -10.838169 -13.935522 -13.934495
Hg -13.934495 -10.839196 -13.934495
Hg -13.934495 -13.935522 -10.838169
Hg -10.838169 -10.839196 -10.838169
Hg -10.838169 -13.935522 -7.741843
Hg -13.934495 -10.839196 -7.741843
Hg -13.934495 -13.935522 -4.645517
Hg -10.838169 -10.839196 -4.645517
Hg -10.838169 -13.935522 -1.549191
Hg -13.934495 -10.839196 -1.549191
Hg -13.934495 -13.935522 1.547135
Hg -10.838169 -10.839196 1.547135
Hg -10.838169 -13.935522 4.643461
Hg -13.934495 -10.839196 4.643461
Hg -13.934495 -13.935522 7.739787
Hg -10.838169 -10.839196 7.739787
Hg -10.838169 -13.935522 10.836113
Hg -13.934495 -10.839196 10.836113
Hg -10.838169 -10.839196 13.932439
Hg -10.838169 -13.935522 17.028765
Hg -13.934495 -10.839196 17.028765
Hg -13.934495 -7.742870 -23.223473
Hg -10.838169 -4.646544 -23.223473
Hg -10.838169 -7.742870 -20.127147
Hg -13.934495 -4.646544 -20.127147
Hg -13.934495 -7.742870 -17.030821
Hg -10.838169 -4.646544 -17.030821
Hg -10.838169 -7.742870 -13.934495
Hg -13.934495 -4.646544 -13.934495
Hg -13.934495 -7.742870 -10.838169
Hg -10.838169 -4.646544 -10.838169
Hg -10.838169 -7.742870 -7.741843
Hg -13.934495 -4.646544 -7.741843
Hg -13.934495 -7.742870 -4.645517
Hg -10.838169 -4.646544 -4.645517
Hg -10.838169 -7.742870 -1.549191
Hg -13.934495 -4.646544 -1.549191
Hg -13.934495 -7.742870 1.547135
Hg -10.838169 -4.646544 1.547135
Hg -10.838169 -7.742870 4.643461
Hg -13.934495 -4.646544 4.643461
Hg -13.934495 -7.742870 7.739787
Hg -10.838169 -4.646544 7.739787
Hg -10.838169 -7.742870 10.836113
Hg -13.934495 -4.646544 10.836113
Hg -13.934495 -7.742870 13.932439
Hg -10.838169 -4.646544 13.932439
Hg -10.838169 -7.742870 17.028765
Hg -13.934495 -4.646544 17.028765
Hg -13.934495 -7.742870 20.125091
Hg -10.838169 -4.646544 20.125091
Hg -10.838169 -7.742870 23.221417
Hg -13.934495 -4.646544 23.221417
Hg -13.934495 -1.550218 -23.223473
Hg -10.838169 1.546108 -23.223473
Hg -10.838169 -1.550218 -20.127147
Hg -13.934495 1.546108 -20.127147
Hg -13.934495 -1.550218 -17.030821
Hg -10.838169 1.546108 -17.030821
Hg -10.838169 -1.550218 -13.934495
Hg -13.934495 1.546108 -13.934495
Hg -13.934495 -1.550218 -10.838169
Hg -10.838169 1.546108 -10.838169
Hg -10.838169 -1.550218 -7.741843
Hg -13.934495 1.546108 -7.741843
Hg -13.934495 -1.550218 -4.645517
Hg -10.838169 1.546108 -4.645517
Hg -10.838169 -1.550218 -1.549191
Hg -13.934495 1.546108 -1.549191
Hg -13.934495 -1.550218 1.547135
Hg -10.838169 1.546108 1.547135
Hg -10.838169 -1.550218 4.643461
Hg -13.934495 1.546108 4.643461
Hg -13.934495 -1.550218 7.739787
Hg -10.838169 1.546108 7.739787
Hg -10.838169 -1.550218 10.836113
Hg -13.934495 1.546108 10.836113
Hg -13.934495 -1.550218 13.932439
Hg -10.838169 1.546108 13.932439
Hg -10.838169 -1.550218 17.028765
Hg -13.934495 1.546108 17.028765
Hg -13.934495 -1.550218 20.125091
Hg -10.838169 1.546108 20.125091
Hg -10.838169 -1.550218 23.221417
Hg -13.934495 1.546108 23.221417
Hg -13.934495 4.642434 -23.223473
Hg -10.838169 7.738760 -23.223473
Hg -10.838169 4.642434 -20.127147
Hg -13.934495 7.738760 -20.127147
Hg -13.934495 4.642434 -17.030821
Hg -10.838169 7.738760 -17.030821
Hg -10.838169 4.642434 -13.934495
Hg -13.934495 7.738760 -13.934495
Hg -13.934495 4.642434 -10.838169
Hg -10.838169 7.738760 -10.838169
Hg -10.838169 4.642434 -7.741843
Hg -13.934495 7.738760 -7.741843
Hg -13.934495 4.642434 -4.645517
Hg -10.838169 7.738760 -4.645517
Hg -10.838169 4.642434 -1.549191
Hg -13.934495 7.738760 -1.549191
Hg -13.934495 4.642434 1.547135
Hg -10.838169 7.738760 1.547135
Hg -10.838169 4.642434 4.643461
Hg -13.934495 7.738760 4.643461
Hg -13.934495 4.642434 7.739787
Hg -10.838169 7.738760 7.739787
Hg -10.838169 4.642434 10.836113
Hg -13.934495 7.738760 10.836113
Hg -13.934495 4.642434 13.932439
Hg -10.838169 7.738760 13.932439
Hg -10.838169 4.642434 17.028765
Hg -13.934495 7.738760 17.028765
Hg -13.934495 4.642434 20.125091
Hg -10.838169 7.738760 20.125091
Hg -10.838169 4.642434 23.221417
Hg -13.934495 7.738760 23.221417
Hg -13.934495 10.835086 -17.030821
Hg -10.838169 13.931412 -17.030821
Hg -10.838169 10.835086 -13.934495
Hg -13.934495 10.835086 -10.838169
Hg -10.838169 13.931412 -10.838169
Hg -10.838169 10.835086 -7.741843
Hg -13.934495 13.931412 -7.741843
Hg -13.934495 10.835086 -4.645517
Hg -10.838169 13.931412 -4.645517
Hg -10.838169 10.835086 -1.549191
Hg -13.934495 13.931412 -1.549191
Hg -13.934495 10.835086 1.547135
Hg -10.838169 13.931412 1.547135
Hg -10.838169 10.835086 4.643461
Hg -13.934495 13.931412 4.643461
Hg -13.934495 10.835086 7.739787
Hg -10.838169 13.931412 7.739787
Hg -10.838169 10.835086 10.836113
Hg -13.934495 13.931412 10.836113
Hg -13.934495 10.835086 13.932439
Hg -10.838169 13.931412 13.932439
Hg -10.838169 10.835086 17.028765
Hg -13.934495 13.931412 17.028765
Hg -13.934495 10.835086 20.125091
Hg -10.838169 10.835086 23.221417
Hg -10.838169 17.027738 -13.934495
Hg -13.934495 17.027738 -10.838169
Hg -10.838169 17.027738 -7.741843
Hg -13.934495 20.124064 -7.741843
Hg -13.934495 17.027738 -4.645517
Hg -10.838169 20.124064 -4.645517
Hg -10.838169 17.027738 -1.549191
Hg -13.934495 20.124064 -1.549191
Hg -13.934495 17.027738 1.547135
Hg -10.838169 20.124064 1.547135
Hg -10.838169 17.027738 4.643461
Hg -13.934495 20.124064 4.643461
Hg -13.934495 17.027738 7.739787
Hg -10.838169 20.124064 7.739787
Hg -10.838169 17.027738 10.836113
Hg -13.934495 17.027738 13.932439
Hg -10.838169 20.124064 13.932439
Hg -10.838169 17.027738 17.028765
Hg -10.838169 23.220390 -7.741843
Hg -13.934495 23.220390 -4.645517
Hg -10.838169 23.220390 -1.549191
Hg -13.934495 23.220390 1.547135
Hg -10.838169 23.220390 4.643461
Hg -13.934495 23.220390 7.739787
Hg -10.838169 23.220390 10.836113
Hg -7.741843 -23.224500 -13.934495
Hg -4.645517 -23.224500 -10.838169
Hg -7.741843 -23.224500 -7.741843
Hg -4.645517 -23.224500 -4.645517
Hg -7.741843 -23.224500 -1.549191
Hg -4.645517 -23.224500 1.547135
Hg -7.741843 -23.224500 4.643461
Hg -4.645517 -23.224500 7.739787
Hg -7.741843 -23.224500 10.836113
Hg -4.645517 -23.224500 13.932439
Hg -7.741843 -17.031848 -20.127147
Hg -7.741843 -20.128174 -17.030821
Hg -4.645517 -17.031848 -17.030821
Hg -4.645517 -20.128174 -13.934495
Hg -7.741843 -17.031848 -13.934495
Hg -7.741843 -20.128174 -10.838169
Hg -4.645517 -17.031848 -10.838169
Hg -4.645517 -20.128174 -7.741843
Hg -7.741843 -17.031848 -7.741843
Hg -7.741843 -20.128174 -4.645517
Hg -4.645517 -17.031848 -4.645517
Hg -4.645517 -20.128174 -1.549191
Hg -7.741843 -17.031848 -1.549191
Hg -7.741843 -20.128174 1.547135
Hg -4.645517 -17.031848 1.547135
Hg -4.645517 -20.128174 4.643461
Hg -7.741843 -17.031848 4.643461
Hg -7.741843 -20.128174 7.739787
Hg -4.645517 -17.031848 7.739787
Hg -4.645517 -20.128174 10.836113
Hg -7.741843 -17.031848 10.836113
Hg -7.741843 -20.128174 13.932439
Hg -4.645517 -17.031848 13.932439
Hg -4.645517 -20.128174 17.028765
Hg -4.645517 -17.031848 20.125091
Hg -7.741843 -13.935522 -23.223473
Hg -4.645517 -10.839196 -23.223473
Hg -4.645517 -13.935522 -20.127147
Hg -7.741843 -10.839196 -20.127147
Hg -7.741843 -13.935522 -17.030821
Hg -4.645517 -10.839196 -17.030821
Hg -4.645517 -13.935522 -13.934495
Hg -7.741843 -10.839196 -13.934495
Hg -7.741843 -13.935522 -10.838169
Hg -4.645517 -10.839196 -10.838169
Hg -4.645517 -13.935522 -7.741843
Hg -7.741843 -10.839196 -7.741843
Hg -7.741843 -13.935522 -4.645517
Hg -4.645517 -10.839196 -4.645517
Hg -4.645517 -13.935522 -1.549191
Hg -7.741843 -10.839196 -1.549191
Hg -7.741843 -13.935522 1.547135
Hg -4.645517 -10.839196 1.547135
Hg -4.645517 -13.935522 4.643461
Hg -7.741843 -10.839196 4.643461
Hg -7.741843 -13.935522 7.739787
Hg -4.645517 -10.839196 7.739787
Hg -4.645517 -13.935522 10.836113
Hg -7.741843 -10.839196 10.836113
Hg -7.741843 -13.935522 13.932439
Hg -4.645517 -10.839196 13.932439
Hg -4.645517 -13.935522 17.028765
Hg -7.741843 -10.839196 17.028765
Hg -7.741843 -13.935522 20.125091
Hg -4.645517 -10.839196 20.125091
Hg -4.645517 -13.935522 23.221417
Hg -7.741843 -10.839196 23.221417
Hg -7.741843 -7.742870 -23.223473
Hg -4.645517 -4.646544 -23.223473
Hg -4.645517 -7.742870 -20.127147
Hg -7.741843 -4.646544 -20.127147
Hg -7.741843 -7.742870 -17.030821
Hg -4.645517 -4.646544 -17.030821
Hg -4.645517 -7.742870 -13.934495
Hg -7.741843 -4.646544 -13.934495
Hg -7.741843 -7.742870 -10.838169
Hg -4.645517 -4.646544 -10.838169
Hg -4.645517 -7.742870 -7.741843
Hg -7.741843 -4.646544 -7.741843
Hg -7.741843 -7.742870 -4.645517
Hg -4.645517 -4.646544 -4.645517
Hg -4.645517 -7.742870 -1.549191
Hg -7.741843 -4.646544 -1.549191
Hg -7.741843 -7.742870 1.547135
Hg -4.645517 -4.646544 1.547135
Hg -4.645517 -7.742870 4.643461
Hg -7.741843 -4.646544 4.643461
Hg -7.741843 -7.742870 7.739787
Hg -4.645517 -4.646544 7.739787
Hg -4.645517 -7.742870 10.836113
Hg -7.741843 -4.646544 10.836113
Hg -7.741843 -7.742870 13.932439
Hg -4.645517 -4.646544 13.932439
Hg -4.645517 -7.742870 17.028765
Hg -7.741843 -4.646544 17.028765
Hg -7.741843 -7.742870 20.125091
Hg -4.645517 -4.646544 20.125091
Hg -4.645517 -7.742870 23.221417
Hg -7.741843 -4.646544 23.221417
Hg -7.741843 -1.550218 -23.223473
Hg -4.645517 1.546108 -23.223473
Hg -4.645517 -1.550218 -20.127147
Hg -7.741843 1.546108 -20.127147
Hg -7.741843 -1.550218 -17.030821
Hg -4.645517 1.546108 -17.030821
Hg -4.645517 -1.550218 -13.934495
Hg -7.741843 1.546108 -13.934495
Hg -7.741843 -1.550218 -10.838169
Hg -4.645517 1.546108 -10.838169
Hg -4.645517 -1.550218 -7.741843
Hg -7.741843 1.546108 -7.741843
Hg -7.741843 -1.550218 -4.645517
Hg -4.645517 1.546108 -4.645517
Hg -4.645517 -1.550218 -1.549191
Hg -7.741843 1.546108 -1.549191
Hg -7.741843 -1.550218 1.547135
Hg -4.645517 1.546108 1.547135
Hg -4.645517 -1.550218 4.643461
Hg -7.741843 1.546108 4.643461
Hg -7.741843 -1.550218 7.739787
Hg -4.645517 1.546108 7.739787
Hg -4.645517 -1.550218 10.836113
Hg -7.741843 1.546108 10.836113
Hg -7.741843 -1.550218 13.932439
Hg -4.645517 1.546108 13.932439
Hg -4.645517 -1.550218 17.028765
Hg -7.741843 1.546108 17.028765
Hg -7.741843 -1.550218 20.125091
Hg -4.645517 1.546108 20.125091
Hg -4.645517 -1.550218 23.221417
Hg -7.741843 1.546108 23.221417
Hg -7.741843 4.642434 -23.223473
Hg -4.645517 7.738760 -23.223473
Hg -4.645517 4.642434 -20.127147
Hg -7.741843 7.738760 -20.127147
Hg -7.741843 4.642434 -17.030821
Hg -4.645517 7.738760 -17.030821
Hg -4.645517 4.642434 -13.934495
Hg -7.741843 7.738760 -13.934495
Hg -7.741843 4.642434 -10.838169
Hg -4.645517 7.738760 -10.838169
Hg -4.645517 4.642434 -7.741843
Hg -7.741843 7.738760 -7.741843
Hg -7.741843 4.642434 -4.645517
Hg -4.645517 7.738760 -4.645517
Hg -4.645517 4.642434 -1.549191
Hg -7.741843 7.738760 -1.549191
Hg -7.741843 4.642434 1.547135
Hg -4.645517 7.738760 1.547135
Hg -4.645517 4.642434 4.643461
Hg -7.741843 7.738760 4.643461
Hg -7.741843 4.642434 7.739787
Hg -4.645517 7.738760 7.739787
Hg -4.645517 4.642434 10.836113
Hg -7.741843 7.738760 10.836113
Hg -7.741843 4.642434 13.932439
Hg -4.645517 7.738760 13.932439
Hg -4.645517 4.642434 17.028765
Hg -7.741843 7.738760 17.028765
Hg -7.741843 4.642434 20.125091
Hg -4.645517 7.738760 20.125091
Hg -4.645517 4.642434 23.221417
Hg -7.741843 7.738760 23.221417
Hg -7.741843 10.835086 -23.223473
Hg -4.645517 13.931412 -23.223473
Hg -4.645517 10.835086 -20.127147
Hg -7.741843 13.931412 -20.127147
Hg -7.741843 10.835086 -17.030821
Hg -4.645517 13.931412 -17.030821
Hg -4.645517 10.835086 -13.934495
Hg -7.741843 13.931412 -13.934495
Hg -7.741843 10.835086 -10.838169
Hg -4.645517 13.931412 -10.838169
Hg -4.645517 10.835086 -7.741843
Hg -7.741843 13.931412 -7.741843
Hg -7.741843 10.835086 -4.645517
Hg -4.645517 13.931412 -4.645517
Hg -4.645517 10.835086 -1.549191
Hg -7.741843 13.931412 -1.549191
Hg -7.741843 10.835086 1.547135
Hg -4.645517 13.931412 1.547135
Hg -4.645517 10.835086 4.643461
Hg -7.741843 13.931412 4.643461
Hg -7.741843 10.835086 7.739787
Hg -4.645517 13.931412 7.739787
Hg -4.645517 10.835086 10.836113
Hg -7.741843 13.931412 10.836113
Hg -7.741843 10.835086 13.932439
Hg -4.645517 13.931412 13.932439
Hg -4.645517 10.835086 17.028765
Hg -7.741843 13.931412 17.028765
Hg -7.741843 10.835086 20.125091
Hg -4.645517 13.931412 20.125091
Hg -4.645517 10.835086 23.221417
Hg -7.741843 13.931412 23.221417
Hg -4.645517 17.027738 -20.127147
Hg -4.645517 20.124064 -17.030821
Hg -4.645517 17.027738 -13.934495
Hg -7.741843 20.124064 -13.934495
Hg -7.741843 17.027738 -10.838169
Hg -4.645517 20.124064 -10.838169
Hg -4.645517 17.027738 -7.741843
Hg -7.741843 20.124064 -7.741843
Hg -7.741843 17.027738 -4.645517
Hg -4.645517 20.124064 -4.645517
Hg -4.645517 17.027738 -1.549191
Hg -7.741843 20.124064 -1.549191
Hg -7.741843 17.027738 1.547135
Hg -4.645517 20.124064 1.547135
Hg -4.645517 17.027738 4.643461
Hg -7.741843 20.124064 4.643461
Hg -7.741843 17.027738 7.739787
Hg -4.645517 20.124064 7.739787
Hg -4.645517 17.027738 10.836113
Hg -7.741843 20.124064 10.836113
Hg -7.741843 17.027738 13.932439
Hg -4.645517 20.124064 13.932439
Hg -4.645517 17.027738 17.028765
Hg -7.741843 20.124064 17.028765
Hg -7.741843 17.027738 20.125091
Hg -4.645517 23.220390 -13.934495
Hg -7.741843 23.220390 -10.838169
Hg -4.645517 23.220390 -7.741843
Hg -7.741843 23.220390 -4.645517
Hg -4.645517 23.220390 -1.549191
Hg -7.741843 23.220390 1.547135
Hg -4.645517 23.220390 4.643461
Hg -7.741843 23.220390 7.739787
Hg -4.645517 23.220390 10.836113
Hg -7.741843 23.220390 13.932439
Hg -1.549191 -23.224500 -13.934495
Hg 1.547135 -23.224500 -10.838169
Hg -1.549191 -23.224500 -7.741843
Hg 1.547135 -23.224500 -4.645517
Hg -1.549191 -23.224500 -1.549191
Hg 1.547135 -23.224500 1.547135
Hg -1.549191 -23.224500 4.643461
Hg 1.547135 -23.224500 7.739787
Hg -1.549191 -23.224500 10.836113
Hg 1.547135 -23.224500 13.932439
Hg -1.549191 -17.031848 -20.127147
Hg -1.549191 -20.128174 -17.030821
Hg 1.547135 -17.031848 -17.030821
Hg 1.547135 -20.128174 -13.934495
Hg -1.549191 -17.031848 -13.934495
Hg -1.549191 -20.128174 -10.838169
Hg 1.547135 -17.031848 -10.838169
Hg 1.547135 -20.128174 -7.741843
Hg -1.549191 -17.031848 -7.741843
Hg -1.549191 -20.128174 -4.645517
Hg 1.547135 -17.031848 -4.645517
Hg 1.547135 -20.128174 -1.549191
Hg -1.549191 -17.031848 -1.549191
Hg -1.549191 -20.128174 1.547135
Hg 1.547135 -17.031848 1.547135
Hg 1.547135 -20.128174 4.643461
Hg -1.549191 -17.031848 4.643461
Hg -1.549191 -20.128174 7.739787
Hg 1.547135 -17.031848 7.739787
Hg 1.547135 -20.128174 10.836113
Hg -1.549191 -17.031848 10.836113
Hg -1.549191 -20.128174 13.932439
Hg 1.547135 -17.031848 13.932439
Hg 1.547135 -20.128174 17.028765
Hg -1.549191 -17.031848 17.028765
Hg 1.547135 -17.031848 20.125091
Hg -1.549191 -13.935522 -23.223473
Hg 1.547135 -10.839196 -23.223473
Hg 1.547135 -13.935522 -20.127147
Hg -1.549191 -10.839196 -20.127147
Hg -1.549191 -13.935522 -17.030821
Hg 1.547135 -10.839196 -17.030821
Hg 1.547135 -13.935522 -13.934495
Hg -1.549191 -10.839196 -13.934495
Hg -1.549191 -13.935522 -10.838169
Hg 1.547135 -10.839196 -10.838169
Hg 1.547135 -13.935522 -7.741843
Hg -1.549191 -10.839196 -7.741843
Hg -1.549191 -13.935522 -4.645517
Hg 1.547135 -10.839196 -4.645517
Hg 1.547135 -13.935522 -1.549191
Hg -1.549191 -10.839196 -1.549191
Hg -1.549191 -13.935522 1.547135
Hg 1.547135 -10.839196 1.547135
Hg 1.547135 -13.935522 4.643461
Hg -1.549191 -10.839196 4.643461
Hg -1.549191 -13.935522 7.739787
Hg 1.547135 -10.839196 7.739787
Hg 1.547135 -13.935522 10.836113
Hg -1.549191 -10.839196 10.836113
Hg -1.549191 -13.935522 13.932439
Hg 1.547135 -10.839196 13.932439
Hg 1.547135 -13.935522 17.028765
Hg -1.549191 -10.839196 17.028765
Hg -1.549191 -13.935522 20.125091
Hg 1.547135 -10.839196 20.125091
Hg 1.547135 -13.935522 23.221417
Hg -1.549191 -10.839196 23.221417
Hg -1.549191 -7.742870 -23.223473
Hg 1.547135 -4.646544 -23.223473
Hg 1.547135 -7.742870 -20.127147
Hg -1.549191 -4.646544 -20.127147
Hg -1.549191 -7.742870 -17.030821
Hg 1.547135 -4.646544 -17.030821
Hg 1.547135 -7.742870 -13.934495
Hg -1.549191 -4.646544 -13.934495
Hg -1.549191 -7.742870 -10.838169
Hg 1.547135 -4.646544 -10.838169
Hg 1.547135 -7.742870 -7.741843
Hg -1.549191 -4.646544 -7.741843
Hg -1.549191 -7.742870 -4.645517
Hg 1.547135 -4.646544 -4.645517
Hg 1.547135 -7.742870 -1.549191
Hg -1.549191 -4.646544 -1.549191
Hg -1.549191 -7.742870 1.547135
Hg 1.547135 -4.646544 1.547135
Hg 1.547135 -7.742870 4.643461
Hg -1.549191 -4.646544 4.643461
Hg -1.549191 -7.742870 7.739787
Hg 1.547135 -4.646544 7.739787
Hg 1.547135 -7.742870 10.836113
Hg -1.549191 -4.646544 10.836113
Hg -1.549191 -7.742870 13.932439
Hg 1.547135 -4.646544 13.932439
Hg 1.547135 -7.742870 17.028765
Hg -1.549191 -4.646544 17.028765
Hg -1.549191 -7.742870 20.125091
Hg 1.547135 -4.646544 20.125091
Hg 1.547135 -7.742870 23.221417
Hg -1.549191 -4.646544 23.221417
Hg -1.549191 -1.550218 -23.223473
Hg 1.547135 1.546108 -23.223473
Hg 1.547135 -1.550218 -20.127147
Hg -1.549191 1.546108 -20.127147
Hg -1.549191 -1.550218 -17.030821
Hg 1.547135 1.546108 -17.030821
Hg 1.547135 -1.550218 -13.934495
Hg -1.549191 1.546108 -13.934495
Hg -1.549191 -1.550218 -10.838169
Hg 1.547135 1.546108 -10.838169
Hg 1.547135 -1.550218 -7.741843
Hg -1.549191 1.546108 -7.741843
Hg -1.549191 -1.550218 -4.645517
Hg 1.547135 1.546108 -4.645517
Hg 1.547135 -1.550218 -1.549191
Hg -1.549191 1.546108 -1.549191
Hg -1.549191 -1.550218 1.547135
Hg 1.547135 1.546108 1.547135
Hg 1.547135 -1.550218 4.643461
Hg -1.549191 1.546108 4.643461
Hg -1.549191 -1.550218 7.739787
Hg 1.547135 1.546108 7.739787
Hg 1.547135 -1.550218 10.836113
Hg -1.549191 1.546108 10.836113
Hg -1.549191 -1.550218 13.932439
Hg 1.547135 1.546108 13.932439
Hg 1.547135 -1.550218 17.028765
Hg -1.549191 1.546108 17.028765
Hg -1.549191 -1.550218 20.125091
Hg 1.547135 1.546108 20.125091
Hg 1.547135 -1.550218 23.221417
Hg -1.549191 1.546108 23.221417
Hg -1.549191 4.642434 -23.223473
Hg 1.547135 7.738760 -23.223473
Hg 1.547135 4.642434 -20.127147
Hg -1.549191 7.738760 -20.127147
Hg -1.549191 4.642434 -17.030821
Hg 1.547135 7.738760 -17.030821
Hg 1.547135 4.642434 -13.934495
Hg -1.549191 7.738760 -13.934495
Hg -1.549191 4.642434 -10.838169
Hg 1.547135 7.738760 -10.838169
Hg 1.547135 4.642434 -7.741843
Hg -1.549191 7.738760 -7.741843
Hg -1.549191 4.642434 -4.645517
Hg 1.547135 7.738760 -4.645517
Hg 1.547135 4.642434 -1.549191
Hg -1.549191 7.738760 -1.549191
Hg -1.549191 4.642434 1.547135
Hg 1.547135 7.738760 1.547135
Hg 1.547135 4.642434 4.643461
Hg -1.549191 7.738760 4.643461
Hg -1.549191 4.642434 7.739787
Hg 1.547135 7.738760 7.739787
Hg 1.547135 4.642434 10.836113
Hg -1.549191 7.738760 10.836113
Hg -1.549191 4.642434 13.932439
Hg 1.547135 7.738760 13.932439
Hg 1.547135 4.642434 17.028765
Hg -1.549191 7.738760 17.028765
Hg -1.549191 4.642434 20.125091
Hg 1.547135 7.738760 20.125091
Hg 1.547135 4.642434 23.221417
Hg -1.549191 7.738760 23.221417
Hg -1.549191 10.835086 -23.223473
Hg 1.547135 13.931412 -23.223473
Hg 1.547135 10.835086 -20.127147
Hg -1.549191 13.931412 -20.127147
Hg -1.549191 10.835086 -17.030821
Hg 1.547135 13.931412 -17.030821
Hg 1.547135 10.835086 -13.934495
Hg -1.549191 13.931412 -13.934495
Hg -1.549191 10.835086 -10.838169
Hg 1.547135 13.931412 -10.838169
Hg 1.547135 10.835086 -7.741843
Hg -1.549191 13.931412 -7.741843
Hg -1.549191 10.835086 -4.645517
Hg 1.547135 13.931412 -4.645517
Hg 1.547135 10.835086 -1.549191
Hg -1.549191 13.931412 -1.549191
Hg -1.549191 10.835086 1.547135
Hg 1.547135 13.931412 1.547135
Hg 1.547135 10.835086 4.643461
Hg -1.549191 13.931412 4.643461
Hg -1.549191 10.835086 7.739787
Hg 1.547135 13.931412 7.739787
Hg 1.547135 10.835086 10.836113
Hg -1.549191 13.931412 10.836113
Hg -1.549191 10.835086 13.932439
Hg 1.547135 13.931412 13.932439
Hg 1.547135 10.835086 17.028765
Hg -1.549191 13.931412 17.028765
Hg -1.549191 10.835086 20.125091
Hg 1.547135 13.931412 20.125091
Hg 1.547135 10.835086 23.221417
Hg -1.549191 13.931412 23.221417
Hg 1.547135 17.027738 -20.127147
Hg -1.549191 17.027738 -17.030821
Hg 1.547135 20.124064 -17.030821
Hg 1.547135 17.027738 -13.934495
Hg -1.549191 20.124064 -13.934495
Hg -1.549191 17.027738 -10.838169
Hg 1.547135 20.124064 -10.838169
Hg 1.547135 17.027738 -7.741843
Hg -1.549191 20.124064 -7.741843
Hg -1.549191 17.027738 -4.645517
Hg 1.547135 20.124064 -4.645517
Hg 1.547135 17.027738 -1.549191
Hg -1.549191 20.124064 -1.549191
Hg -1.549191 17.027738 1.547135
Hg 1.547135 20.124064 1.547135
Hg 1.547135 17.027738 4.643461
Hg -1.549191 20.124064 4.643461
Hg -1.549191 17.027738 7.739787
Hg 1.547135 20.124064 7.739787
Hg 1.547135 17.027738 10.836113
Hg -1.549191 20.124064 10.836113
Hg -1.549191 17.027738 13.932439
Hg 1.547135 20.124064 13.932439
Hg 1.547135 17.027738 17.028765
Hg -1.549191 20.124064 17.028765
Hg -1.549191 17.027738 20.125091
Hg 1.547135 23.220390 -13.934495
Hg -1.549191 23.220390 -10.838169
Hg 1.547135 23.220390 -7.741843
Hg -1.549191 23.220390 -4.645517
Hg 1.547135 23.220390 -1.549191
Hg -1.549191 23.220390 1.547135
Hg 1.547135 23.220390 4.643461
Hg -1.549191 23.220390 7.739787
Hg 1.547135 23.220390 10.836113
Hg -1.549191 23.220390 13.932439
Hg 4.643461 -23.224500 -13.934495
Hg 7.739787 -23.224500 -10.838169
Hg 4.643461 -23.224500 -7.741843
Hg 7.739787 -23.224500 -4.645517
Hg 4.643461 -23.224500 -1.549191
Hg 7.739787 -23.224500 1.547135
Hg 4.643461 -23.224500 4.643461
Hg 7.739787 -23.224500 7.739787
Hg 4.643461 -23.224500 10.836113
Hg 7.739787 -23.224500 13.932439
Hg 4.643461 -17.031848 -20.127147
Hg 4.643461 -20.128174 -17.030821
Hg 7.739787 -20.128174 -13.934495
Hg 4.643461 -17.031848 -13.934495
Hg 4.643461 -20.128174 -10.838169
Hg 7.739787 -17.031848 -10.838169
Hg 7.739787 -20.128174 -7.741843
Hg 4.643461 -17.031848 -7.741843
Hg 4.643461 -20.128174 -4.645517
Hg 7.739787 -17.031848 -4.645517
Hg 7.739787 -20.128174 -1.549191
Hg 4.643461 -17.031848 -1.549191
Hg 4.643461 -20.128174 1.547135
Hg 7.739787 -17.031848 1.547135
Hg 7.739787 -20.128174 4.643461
Hg 4.643461 -17.031848 4.643461
Hg 4.643461 -20.128174 7.739787
Hg 7.739787 -17.031848 7.739787
Hg 7.739787 -20.128174 10.836113
Hg 4.643461 -17.031848 10.836113
Hg 4.643461 -20.128174 13.932439
Hg 7.739787 -17.031848 13.932439
Hg 7.739787 -20.128174 17.028765
Hg 4.643461 -17.031848 17.028765
Hg 7.739787 -17.031848 20.125091
Hg 4.643461 -13.935522 -23.223473
Hg 7.739787 -10.839196 -23.223473
Hg 7.739787 -13.935522 -20.127147
Hg 4.643461 -10.839196 -20.127147
Hg 4.643461 -13.935522 -17.030821
Hg 7.739787 -10.839196 -17.030821
Hg 7.739787 -13.935522 -13.934495
Hg 4.643461 -10.839196 -13.934495
Hg 4.643461 -13.935522 -10.838169
Hg 7.739787 -10.839196 -10.838169
Hg 7.739787 -13.935522 -7.741843
Hg 4.643461 -10.839196 -7.741843
Hg 4.643461 -13.935522 -4.645517
Hg 7.739787 -10.839196 -4.645517
Hg 7.739787 -13.935522 -1.549191
Hg 4.643461 -10.839196 -1.549191
Hg 4.643461 -13.935522 1.547135
Hg 7.739787 -10.839196 1.547135
Hg 7.739787 -13.935522 4.643461
Hg 4.643461 -10.839196 4.643461
Hg 4.643461 -13.935522 7.739787
Hg 7.739787 -10.839196 7.739787
Hg 7.739787 -13.935522 10.836113
Hg 4.643461 -10.839196 10.836113
Hg 4.643461 -13.935522 13.932439
Hg 7.739787 -10.839196 13.932439
Hg 7.739787 -13.935522 17.028765
Hg 4.643461 -10.839196 17.028765
Hg 4.643461 -13.935522 20.125091
Hg 7.739787 -10.839196 20.125091
Hg 7.739787 -13.935522 23.221417
Hg 4.643461 -10.839196 23.221417
Hg 4.643461 -7.742870 -23.223473
Hg 7.739787 -4.646544 -23.223473
Hg 7.739787 -7.742870 -20.127147
Hg 4.643461 -4.646544 -20.127147
Hg 4.643461 -7.742870 -17.030821
Hg 7.739787 -4.646544 -17.030821
Hg 7.739787 -7.742870 -13.934495
Hg 4.643461 -4.646544 -13.934495
Hg 4.643461 -7.742870 -10.838169
Hg 7.739787 -4.646544 -10.838169
Hg 7.739787 -7.742870 -7.741843
Hg 4.643461 -4.646544 -7.741843
Hg 4.643461 -7.742870 -4.645517
Hg 7.739787 -4.646544 -4.645517
Hg 7.739787 -7.742870 -1.549191
Hg 4.643461 -4.646544 -1.549191
Hg 4.643461 -7.742870 1.547135
Hg 7.739787 -4.646544 1.547135
Hg 7.739787 -7.742870 4.643461
Hg 4.643461 -4.646544 4.643461
Hg 4.643461 -7.742870 7.739787
Hg 7.739787 -4.646544 7.739787
Hg 7.739787 -7.742870 10.836113
Hg 4.643461 -4.646544 10.836113
Hg 4.643461 -7.742870 13.932439
Hg 7.739787 -4.646544 13.932439
Hg 7.739787 -7.742870 17.028765
Hg 4.643461 -4.646544 17.028765
Hg 4.643461 -7.742870 20.125091
Hg 7.739787 -4.646544 20.125091
Hg 7.739787 -7.742870 23.221417
Hg 4.643461 -4.646544 23.221417
Hg 4.643461 -1.550218 -23.223473
Hg 7.739787 1.546108 -23.223473
Hg 7.739787 -1.550218 -20.127147
Hg 4.643461 1.546108 -20.127147
Hg 4.643461 -1.550218 -17.030821
Hg 7.739787 1.546108 -17.030821
Hg 7.739787 -1.550218 -13.934495
Hg 4.643461 1.546108 -13.934495
Hg 4.643461 -1.550218 -10.838169
Hg 7.739787 1.546108 -10.838169
Hg 7.739787 -1.550218 -7.741843
Hg 4.643461 1.546108 -7.741843
Hg 4.643461 -1.550218 -4.645517
Hg 7.739787 1.546108 -4.645517
Hg 7.739787 -1.550218 -1.549191
Hg 4.643461 1.546108 -1.549191
Hg 4.643461 -1.550218 1.547135
Hg 7.739787 1.546108 1.547135
Hg 7.739787 -1.550218 4.643461
Hg 4.643461 1.546108 4.643461
Hg 4.643461 -1.550218 7.739787
Hg 7.739787 1.546108 7.739787
Hg 7.739787 -1.550218 10.836113
Hg 4.643461 1.546108 10.836113
Hg 4.643461 -1.550218 13.932439
Hg 7.739787 1.546108 13.932439
Hg 7.739787 -1.550218 17.028765
Hg 4.643461 1.546108 17.028765
Hg 4.643461 -1.550218 20.125091
Hg 7.739787 1.546108 20.125091
Hg 7.739787 -1.550218 23.221417
Hg 4.643461 1.546108 23.221417
Hg 4.643461 4.642434 -23.223473
Hg 7.739787 7.738760 -23.223473
Hg 7.739787 4.642434 -20.127147
Hg 4.643461 7.738760 -20.127147
Hg 4.643461 4.642434 -17.030821
Hg 7.739787 7.738760 -17.030821
Hg 7.739787 4.642434 -13.934495
Hg 4.643461 7.738760 -13.934495
Hg 4.643461 4.642434 -10.838169
Hg 7.739787 7.738760 -10.838169
Hg 7.739787 4.642434 -7.741843
Hg 4.643461 7.738760 -7.741843
Hg 4.643461 4.642434 -4.645517
Hg 7.739787 7.738760 -4.645517
Hg 7.739787 4.642434 -1.549191
Hg 4.643461 7.738760 -1.549191
Hg 4.643461 4.642434 1.547135
Hg 7.739787 7.738760 1.547135
Hg 7.739787 4.642434 4.643461
Hg 4.643461 7.738760 4.643461
Hg 4.643461 4.642434 7.739787
Hg 7.739787 7.738760 7.739787
Hg 7.739787 4.642434 10.836113
Hg 4.643461 7.738760 10.836113
Hg 4.643461 4.642434 13.932439
Hg 7.739787 7.738760 13.932439
Hg 7.739787 4.642434 17.028765
Hg 4.643461 7.738760 17.028765
Hg 4.643461 4.642434 20.125091
Hg 7.739787 7.738760 20.125091
Hg 7.739787 4.642434 23.221417
Hg 4.643461 7.738760 23.221417
Hg 4.643461 10.835086 -23.223473
Hg 7.739787 13.931412 -23.223473
Hg 7.739787 10.835086 -20.127147
Hg 4.643461 13.931412 -20.127147
Hg 4.643461 10.835086 -17.030821
Hg 7.739787 13.931412 -17.030821
Hg 7.739787 10.835086 -13.934495
Hg 4.643461 13.931412 -13.934495
Hg 4.643461 10.835086 -10.838169
Hg 7.739787 13.931412 -10.838169
Hg 7.739787 10.835086 -7.741843
Hg 4.643461 13.931412 -7.741843
Hg 4.643461 10.835086 -4.645517
Hg 7.739787 13.931412 -4.645517
Hg 7.739787 10.835086 -1.549191
Hg 4.643461 13.931412 -1.549191
Hg 4.643461 10.835086 1.547135
Hg 7.739787 13.931412 1.547135
Hg 7.739787 10.835086 4.643461
Hg 4.643461 13.931412 4.643461
Hg 4.643461 10.835086 7.739787
Hg 7.739787 13.931412 7.739787
Hg 7.739787 10.835086 10.836113
Hg 4.643461 13.931412 10.836113
Hg 4.643461 10.835086 13.932439
Hg 7.739787 13.931412 13.932439
Hg 7.739787 10.835086 17.028765
Hg 4.643461 13.931412 17.028765
Hg 4.643461 10.835086 20.125091
Hg 7.739787 13.931412 20.125091
Hg 7.739787 10.835086 23.221417
Hg 4.643461 13.931412 23.221417
Hg 7.739787 17.027738 -20.127147
Hg 4.643461 17.027738 -17.030821
Hg 7.739787 20.124064 -17.030821
Hg 7.739787 17.027738 -13.934495
Hg 4.643461 20.124064 -13.934495
Hg 4.643461 17.027738 -10.838169
Hg 7.739787 20.124064 -10.838169
Hg 7.739787 17.027738 -7.741843
Hg 4.643461 20.124064 -7.741843
Hg 4.643461 17.027738 -4.645517
Hg 7.739787 20.124064 -4.645517
Hg 7.739787 17.027738 -1.549191
Hg 4.643461 20.124064 -1.549191
Hg 4.643461 17.027738 1.547135
Hg 7.739787 20.124064 1.547135
Hg 7.739787 17.027738 4.643461
Hg 4.643461 20.124064 4.643461
Hg 4.643461 17.027738 7.739787
Hg 7.739787 20.124064 7.739787
Hg 7.739787 17.027738 10.836113
Hg 4.643461 20.124064 10.836113
Hg 4.643461 17.027738 13.932439
Hg 7.739787 20.124064 13.932439
Hg 4.643461 20.124064 17.028765
Hg 4.643461 17.027738 20.125091
Hg 7.739787 23.220390 -13.934495
Hg 4.643461 23.220390 -10.838169
Hg 7.739787 23.220390 -7.741843
Hg 4.643461 23.220390 -4.645517
Hg 7.739787 23.220390 -1.549191
Hg 4.643461 23.220390 1.547135
Hg 7.739787 23.220390 4.643461
Hg 4.643461 23.220390 7.739787
Hg 7.739787 23.220390 10.836113
Hg 4.643461 23.220390 13.932439
Hg 10.836113 -23.224500 -7.741843
Hg 13.932439 -23.224500 -4.645517
Hg 10.836113 -23.224500 -1.549191
Hg 13.932439 -23.224500 1.547135
Hg 10.836113 -23.224500 4.643461
Hg 13.932439 -23.224500 7.739787
Hg 10.836113 -23.224500 10.836113
Hg 10.836113 -17.031848 -13.934495
Hg 13.932439 -17.031848 -10.838169
Hg 13.932439 -20.128174 -7.741843
Hg 10.836113 -17.031848 -7.741843
Hg 10.836113 -20.128174 -4.645517
Hg 13.932439 -17.031848 -4.645517
Hg 13.932439 -20.128174 -1.549191
Hg 10.836113 -17.031848 -1.549191
Hg 10.836113 -20.128174 1.547135
Hg 13.932439 -17.031848 1.547135
Hg 13.932439 -20.128174 4.643461
Hg 10.836113 -17.031848 4.643461
Hg 10.836113 -20.128174 7.739787
Hg 13.932439 -17.031848 7.739787
Hg 10.836113 -17.031848 10.836113
Hg 10.836113 -20.128174 13.932439
Hg 13.932439 -17.031848 13.932439
Hg 10.836113 -13.935522 -17.030821
Hg 13.932439 -10.839196 -17.030821
Hg 10.836113 -10.839196 -13.934495
Hg 10.836113 -13.935522 -10.838169
Hg 13.932439 -10.839196 -10.838169
Hg 13.932439 -13.935522 -7.741843
Hg 10.836113 -10.839196 -7.741843
Hg 10.836113 -13.935522 -4.645517
Hg 13.932439 -10.839196 -4.645517
Hg 13.932439 -13.935522 -1.549191
Hg 10.836113 -10.839196 -1.549191
Hg 10.836113 -13.935522 1.547135
Hg 13.932439 -10.839196 1.547135
Hg 13.932439 -13.935522 4.643461
Hg 10.836113 -10.839196 4.643461
Hg 10.836113 -13.935522 7.739787
Hg 13.932439 -10.839196 7.739787
Hg 13.932439 -13.935522 10.836113
Hg 10.836113 -10.839196 10.836113
Hg 10.836113 -13.935522 13.932439
Hg 13.932439 -10.839196 13.932439
Hg 13.932439 -13.935522 17.028765
Hg 10.836113 -10.839196 17.028765
Hg 10.836113 -13.935522 20.125091
Hg 10.836113 -10.839196 23.221417
Hg 10.836113 -7.742870 -23.223473
Hg 13.932439 -4.646544 -23.223473
Hg 13.932439 -7.742870 -20.127147
Hg 10.836113 -4.646544 -20.127147
Hg 10.836113 -7.742870 -17.030821
Hg 13.932439 -4.646544 -17.030821
Hg 13.932439 -7.742870 -13.934495
Hg 10.836113 -4.646544 -13.934495
Hg 10.836113 -7.742870 -10.838169
Hg 13.932439 -4.646544 -10.838169
Hg 13.932439 -7.742870 -7.741843
Hg 10.836113 -4.646544 -7.741843
Hg 10.836113 -7.742870 -4.645517
Hg 13.932439 -4.646544 -4.645517
Hg 13.932439 -7.742870 -1.549191
Hg 10.836113 -4.646544 -1.549191
Hg 10.836113 -7.742870 1.547135
Hg 13.932439 -4.646544 1.547135
Hg 13.932439 -7.742870 4.643461
Hg 10.836113 -4.646544 4.643461
Hg 10.836113 -7.742870 7.739787
Hg 13.932439 -4.646544 7.739787
Hg 13.932439 -7.742870 10.836113
Hg 10.836113 -4.646544 10.836113
Hg 10.836113 -7.742870 13.932439
Hg 13.932439 -4.646544 13.932439
Hg 13.932439 -7.742870 17.028765
Hg 10.836113 -4.646544 17.028765
Hg 10.836113 -7.742870 20.125091
Hg 13.932439 -4.646544 20.125091
Hg 13.932439 -7.742870 23.221417
Hg 10.836113 -4.646544 23.221417
Hg 10.836113 -1.550218 -23.223473
Hg 13.932439 1.546108 -23.223473
Hg 13.932439 -1.550218 -20.127147
Hg 10.836113 1.546108 -20.127147
Hg 10.836113 -1.550218 -17.030821
Hg 13.932439 1.546108 -17.030821
Hg 13.932439 -1.550218 -13.934495
Hg 10.836113 1.546108 -13.934495
Hg 10.836113 -1.550218 -10.838169
Hg 13.932439 1.546108 -10.838169
Hg 13.932439 -1.550218 -7.741843
Hg 10.836113 1.546108 -7.741843
Hg 10.836113 -1.550218 -4.645517
Hg 13.932439 1.546108 -4.645517
Hg 13.932439 -1.550218 -1.549191
Hg 10.836113 1.546108 -1.549191
Hg 10.836113 -1.550218 1.547135
Hg 13.932439 1.546108 1.547135
Hg 13.932439 -1.550218 4.643461
Hg 10.836113 1.546108 4.643461
Hg 10.836113 -1.550218 7.739787
Hg 13.932439 1.546108 7.739787
Hg 13.932439 -1.550218 10.836113
Hg 10.836113 1.546108 10.836113
Hg 10.836113 -1.550218 13.932439
Hg 13.932439 1.546108 13.932439
Hg 13.932439 -1.550218 17.028765
Hg 10.836113 1.546108 17.028765
Hg 10.836113 -1.550218 20.125091
Hg 13.932439 1.546108 20.125091
Hg 13.932439 -1.550218 23.221417
Hg 10.836113 1.546108 23.221417
Hg 10.836113 4.642434 -23.223473
Hg 13.932439 7.738760 -23.223473
Hg 13.932439 4.642434 -20.127147
Hg 10.836113 7.738760 -20.127147
Hg 10.836113 4.642434 -17.030821
Hg 13.932439 7.738760 -17.030821
Hg 13.932439 4.642434 -13.934495
Hg 10.836113 7.738760 -13.934495
Hg 10.836113 4.642434 -10.838169
Hg 13.932439 7.738760 -10.838169
Hg 13.932439 4.642434 -7.741843
Hg 10.836113 7.738760 -7.741843
Hg 10.836113 4.642434 -4.645517
Hg 13.932439 7.738760 -4.645517
Hg 13.932439 4.642434 -1.549191
Hg 10.836113 7.738760 -1.549191
Hg 10.836113 4.642434 1.547135
Hg 13.932439 7.738760 1.547135
Hg 13.932439 4.642434 4.643461
Hg 10.836113 7.738760 4.643461
Hg 10.836113 4.642434 7.739787
Hg 13.932439 7.738760 7.739787
Hg 13.932439 4.642434 10.836113
Hg 10.836113 7.738760 10.836113
Hg 10.836113 4.642434 13.932439
Hg 13.932439 7.738760 13.932439
Hg 13.932439 4.642434 17.028765
Hg 10.836113 7.738760 17.028765
Hg 10.836113 4.642434 20.125091
Hg 13.932439 7.738760 20.125091
Hg 13.932439 4.642434 23.221417
Hg 10.836113 7.738760 23.221417
Hg 10.836113 10.835086 -23.223473
Hg 10.836113 13.931412 -20.127147
Hg 10.836113 10.835086 -17.030821
Hg 13.932439 13.931412 -17.030821
Hg 13.932439 10.835086 -13.934495
Hg 10.836113 13.931412 -13.934495
Hg 10.836113 10.835086 -10.838169
Hg 13.932439 13.931412 -10.838169
Hg 13.932439 10.835086 -7.741843
Hg 10.836113 13.931412 -7.741843
Hg 10.836113 10.835086 -4.645517
Hg 13.932439 13.931412 -4.645517
Hg 13.932439 10.835086 -1.549191
Hg 10.836113 13.931412 -1.549191
Hg 10.836113 10.835086 1.547135
Hg 13.932439 13.931412 1.547135
Hg 13.932439 10.835086 4.643461
Hg 10.836113 13.931412 4.643461
Hg 10.836113 10.835086 7.739787
Hg 13.932439 13.931412 7.739787
Hg 13.932439 10.835086 10.836113
Hg 10.836113 13.931412 10.836113
Hg 10.836113 10.835086 13.932439
Hg 13.932439 10.835086 17.028765
Hg 10.836113 13.931412 17.028765
Hg 13.932439 17.027738 -13.934495
Hg 10.836113 20.124064 -13.934495
Hg 10.836113 17.027738 -10.838169
Hg 13.932439 17.027738 -7.741843
Hg 10.836113 20.124064 -7.741843
Hg 10.836113 17.027738 -4.645517
Hg 13.932439 20.124064 -4.645517
Hg 13.932439 17.027738 -1.549191
Hg 10.836113 20.124064 -1.549191
Hg 10.836113 17.027738 1.547135
Hg 13.932439 20.124064 1.547135
Hg 13.932439 17.027738 4.643461
Hg 10.836113 20.124064 4.643461
Hg 10.836113 17.027738 7.739787
Hg 13.932439 20.124064 7.739787
Hg 13.932439 17.027738 10.836113
Hg 10.836113 17.027738 13.932439
Hg 10.836113 23.220390 -10.838169
Hg 13.932439 23.220390 -7.741843
Hg 10.836113 23.220390 -4.645517
Hg 13.932439 23.220390 -1.549191
Hg 10.836113 23.220390 1.547135
Hg 13.932439 23.220390 4.643461
Hg 10.836113 23.220390 7.739787
Hg 17.028765 -20.128174 -4.645517
Hg 20.125091 -17.031848 -4.645517
Hg 17.028765 -17.031848 -1.549191
Hg 17.028765 -20.128174 1.547135
Hg 20.125091 -17.031848 1.547135
Hg 17.028765 -17.031848 4.643461
Hg 17.028765 -20.128174 7.739787
Hg 20.125091 -17.031848 7.739787
Hg 17.028765 -17.031848 10.836113
Hg 17.028765 -10.839196 -13.934495
Hg 17.028765 -13.935522 -10.838169
Hg 20.125091 -13.935522 -7.741843
Hg 17.028765 -10.839196 -7.741843
Hg 17.028765 -13.935522 -4.645517
Hg 20.125091 -10.839196 -4.645517
Hg 20.125091 -13.935522 -1.549191
Hg 17.028765 -10.839196 -1.549191
Hg 17.028765 -13.935522 1.547135
Hg 20.125091 -10.839196 1.547135
Hg 20.125091 -13.935522 4.643461
Hg 17.028765 -10.839196 4.643461
Hg 17.028765 -13.935522 7.739787
Hg 20.125091 -10.839196 7.739787
Hg 17.028765 -10.839196 10.836113
Hg 17.028765 -13.935522 13.932439
Hg 20.125091 -10.839196 13.932439
Hg 17.028765 -10.839196 17.028765
Hg 17.028765 -4.646544 -20.127147
Hg 20.125091 -4.646544 -17.030821
Hg 20.125091 -7.742870 -13.934495
Hg 17.028765 -4.646544 -13.934495
Hg 17.028765 -7.742870 -10.838169
Hg 20.125091 -4.646544 -10.838169
Hg 20.125091 -7.742870 -7.741843
Hg 17.028765 -4.646544 -7.741843
Hg 17.028765 -7.742870 -4.645517
Hg 20.125091 -4.646544 -4.645517
Hg 20.125091 -7.742870 -1.549191
Hg 17.028765 -4.646544 -1.549191
Hg 17.028765 -7.742870 1.547135
Hg 20.125091 -4.646544 1.547135
Hg 20.125091 -7.742870 4.643461
Hg 17.028765 -4.646544 4.643461
Hg 17.028765 -7.742870 7.739787
Hg 20.125091 -4.646544 7.739787
Hg 20.125091 -7.742870 10.836113
Hg 17.028765 -4.646544 10.836113
Hg 17.028765 -7.742870 13.932439
Hg 20.125091 -4.646544 13.932439
Hg 20.125091 -7.742870 17.028765
Hg 17.028765 -4.646544 17.028765
Hg 17.028765 -7.742870 20.125091
Hg 17.028765 1.546108 -20.127147
Hg 17.028765 -1.550218 -17.030821
Hg 20.125091 1.546108 -17.030821
Hg 20.125091 -1.550218 -13.934495
Hg 17.028765 1.546108 -13.934495
Hg 17.028765 -1.550218 -10.838169
Hg 20.125091 1.546108 -10.838169
Hg 20.125091 -1.550218 -7.741843
Hg 17.028765 1.546108 -7.741843
Hg 17.028765 -1.550218 -4.645517
Hg 20.125091 1.546108 -4.645517
Hg 20.125091 -1.550218 -1.549191
Hg 17.028765 1.546108 -1.549191
Hg 17.028765 -1.550218 1.547135
Hg 20.125091 1.546108 1.547135
Hg 20.125091 -1.550218 4.643461
Hg 17.028765 1.546108 4.643461
Hg 17.028765 -1.550218 7.739787
Hg 20.125091 1.546108 7.739787
Hg 20.125091 -1.550218 10.836113
Hg 17.028765 1.546108 10.836113
Hg 17.028765 -1.550218 13.932439
Hg 20.125091 1.546108 13.932439
Hg 20.125091 -1.550218 17.028765
Hg 17.028765 1.546108 17.028765
Hg 17.028765 -1.550218 20.125091
Hg 17.028765 7.738760 -20.127147
Hg 17.028765 4.642434 -17.030821
Hg 20.125091 7.738760 -17.030821
Hg 20.125091 4.642434 -13.934495
Hg 17.028765 7.738760 -13.934495
Hg 17.028765 4.642434 -10.838169
Hg 20.125091 7.738760 -10.838169
Hg 20.125091 4.642434 -7.741843
Hg 17.028765 7.738760 -7.741843
Hg 17.028765 4.642434 -4.645517
Hg 20.125091 7.738760 -4.645517
Hg 20.125091 4.642434 -1.549191
Hg 17.028765 7.738760 -1.549191
Hg 17.028765 4.642434 1.547135
Hg 20.125091 7.738760 1.547135
Hg 20.125091 4.642434 4.643461
Hg 17.028765 7.738760 4.643461
Hg 17.028765 4.642434 7.739787
Hg 20.125091 7.738760 7.739787
Hg 20.125091 4.642434 10.836113
Hg 17.028765 7.738760 10.836113
Hg 17.028765 4.642434 13.932439
Hg 20.125091 7.738760 13.932439
Hg 20.125091 4.642434 17.028765
Hg 17.028765 4.642434 20.125091
Hg 17.028765 10.835086 -17.030821
Hg 17.028765 13.931412 -13.934495
Hg 17.028765 10.835086 -10.838169
Hg 20.125091 13.931412 -10.838169
Hg 20.125091 10.835086 -7.741843
Hg 17.028765 13.931412 -7.741843
Hg 17.028765 10.835086 -4.645517
Hg 20.125091 13.931412 -4.645517
Hg 20.125091 10.835086 -1.549191
Hg 17.028765 13.931412 -1.549191
Hg 17.028765 10.835086 1.547135
Hg 20.125091 13.931412 1.547135
Hg 20.125091 10.835086 4.643461
Hg 17.028765 13.931412 4.643461
Hg 17.028765 10.835086 7.739787
Hg 20.125091 13.931412 7.739787
Hg 17.028765 13.931412 10.836113
Hg 17.028765 10.835086 13.932439
Hg 17.028765 17.027738 -10.838169
Hg 20.125091 17.027738 -7.741843
Hg 17.028765 20.124064 -7.741843
Hg 17.028765 17.027738 -4.645517
Hg 20.125091 17.027738 -1.549191
Hg 17.028765 20.124064 -1.549191
Hg 17.028765 17.027738 1.547135
Hg 20.125091 17.027738 4.643461
Hg 17.028765 20.124064 4.643461
Hg 23.221417 -10.839196 -7.741843
Hg 23.221417 -13.935522 -4.645517
Hg 23.221417 -10.839196 -1.549191
Hg 23.221417 -13.935522 1.547135
Hg 23.221417 -10.839196 4.643461
Hg 23.221417 -13.935522 7.739787
Hg 23.221417 -10.839196 10.836113
Hg 23.221417 -4.646544 -13.934495
Hg 23.221417 -7.742870 -10.838169
Hg 23.221417 -4.646544 -7.741843
Hg 23.221417 -7.742870 -4.645517
Hg 23.221417 -4.646544 -1.549191
Hg 23.221417 -7.742870 1.547135
Hg 23.221417 -4.646544 4.643461
Hg 23.221417 -7.742870 7.739787
Hg 23.221417 -4.646544 10.836113
Hg 23.221417 -7.742870 13.932439
Hg 23.221417 1.546108 -13.934495
Hg 23.221417 -1.550218 -10.838169
Hg 23.221417 1.546108 -7.741843
Hg 23.221417 -1.550218 -4.645517
Hg 23.221417 1.546108 -1.549191
Hg 23.221417 -1.550218 1.547135
Hg 23.221417 1.546108 4.643461
Hg 23.221417 -1.550218 7.739787
Hg 23.221417 1.546108 10.836113
Hg 23.221417 -1.550218 13.932439
Hg 23.221417 7.738760 -13.934495
Hg 23.221417 4.642434 -10.838169
Hg 23.221417 7.738760 -7.741843
Hg 23.221417 4.642434 -4.645517
Hg 23.221417 7.738760 -1.549191
Hg 23.221417 4.642434 1.547135
Hg 23.221417 7.738760 4.643461
Hg 23.221417 4.642434 7.739787
Hg 23.221417 7.738760 10.836113
Hg 23.221417 4.642434 13.932439
Hg 23.221417 10.835086 -10.838169
Hg 23.221417 13.931412 -7.741843
Hg 23.221417 10.835086 -4.645517
Hg 23.221417 13.931412 -1.549191
Hg 23.221417 10.835086 1.547135
Hg 23.221417 13.931412 4.643461
Hg 23.221417 10.835086 7.739787
Se -21.675310 -15.483685 -6.193680
Se -21.675310 -15.483685 -0.001028
Se -21.675310 -15.483685 6.191624
Se -21.675310 -9.291033 -12.386332
Se -21.675310 -9.291033 -6.193680
Se -21.675310 -12.387359 -9.290006
Se -21.675310 -9.291033 -0.001028
Se -21.675310 -12.387359 -3.097354
Se -21.675310 -9.291033 6.191624
Se -21.675310 -12.387359 3.095298
Se -21.675310 -3.098381 -12.386332
Se -21.675310 -6.194707 -15.482658
Se -21.675310 -3.098381 -6.193680
Se -21.675310 -6.194707 -9.290006
Se -21.675310 -3.098381 -0.001028
Se -21.675310 -6.194707 -3.097354
Se -21.675310 -3.098381 6.191624
Se -21.675310 -6.194707 3.095298
Se -21.675310 -3.098381 12.384276
Se -21.675310 -6.194707 9.287950
Se -21.675310 -6.194707 15.480602
Se -21.675310 3.094271 -12.386332
Se -21.675310 -0.002055 -15.482658
Se -21.675310 3.094271 -6.193680
Se -21.675310 -0.002055 -9.290006
Se -21.675310 3.094271 -0.001028
Se -21.675310 -0.002055 -3.097354
Se -21.675310 3.094271 6.191624
Se -21.675310 -0.002055 3.095298
Se -21.675310 3.094271 12.384276
Se -21.675310 -0.002055 9.287950
Se -21.675310 -0.002055 15.480602
Se -21.675310 6.190597 -15.482658
Se -21.675310 9.286923 -6.193680
Se -21.675310 6.190597 -9.290006
Se -21.675310 9.286923 -0.001028
Se -21.675310 6.190597 -3.097354
Se -21.675310 9.286923 6.191624
Se -21.675310 6.190597 3.095298
Se -21.675310 9.286923 12.384276
Se -21.675310 6.190597 9.287950
Se -21.675310 6.190597 15.480602
Se -21.675310 15.479575 -6.193680
Se -21.675310 15.479575 -0.001028
Se -21.675310 12.383249 -3.097354
Se -21.675310 15.479575 6.191624
Se -21.675310 12.383249 3.095298
Se -21.675310 12.383249 9.287950
Se -15.482658 -21.676337 -6.193680
Se -15.482658 -21.676337 -0.001028
Se -15.482658 -21.676337 6.191624
Se -15.482658 -15.483685 -12.386332
Se -18.578984 -18.580011 -6.193680
Se -18.578984 -15.483685 -9.290006
Se -15.482658 -15.483685 -6.193680
Se -15.482658 -18.580011 -9.290006
Se -18.578984 -18.580011 -0.001028
Se -18.578984 -15.483685 -3.097354
Se -15.482658 -15.483685 -0.001028
Se -15.482658 -18.580011 -3.097354
Se -18.578984 -15.483685 3.095298
Se -15.482658 -15.483685 6.191624
Se -15.482658 -18.580011 3.095298
Se -15.482658 -9.291033 -18.578984
Se -18.578984 -12.387359 -12.386332
Se -18.578984 -9.291033 -15.482658
Se -15.482658 -9.291033 -12.386332
Se -15.482658 -12.387359 -15.482658
Se -18.578984 -12.387359 -6.193680
Se -18.578984 -9.291033 -9.290006
Se -15.482658 -9.291033 -6.193680
Se -15.482658 -12.387359 -9.290006
Se -18.578984 -12.387359 -0.001028
Se -18.578984 -9.291033 -3.097354
Se -15.482658 -9.291033 -0.001028
Se -15.482658 -12.387359 -3.097354
Se -18.578984 -12.387359 6.191624
Se -18.578984 -9.291033 3.095298
Se -15.482658 -9.291033 6.191624
Se -15.482658 -12.387359 3.095298
Se -18.578984 -9.291033 9.287950
Se -15.482658 -9.291033 12.384276
Se -15.482658 -12.387359 9.287950
Se -18.578984 -6.194707 -18.578984
Se -15.482658 -3.098381 -18.578984
Se -15.482658 -6.194707 -21.675310
Se -18.578984 -6.194707 -12.386332
Se -18.578984 -3.098381 -15.482658
Se -15.482658 -3.098381 -12.386332
Se -15.482658 -6.194707 -15.482658
Se -18.578984 -6.194707 -6.193680
Se -18.578984 -3.098381 -9.290006
Se -15.482658 -3.098381 -6.193680
Se -15.482658 -6.194707 -9.290006
Se -18.578984 -6.194707 -0.001028
Se -18.578984 -3.098381 -3.097354
Se -15.482658 -3.098381 -0.001028
Se -15.482658 -6.194707 -3.097354
Se -18.578984 -6.194707 6.191624
Se -18.578984 -3.098381 3.095298
Se -15.482658 -3.098381 6.191624
Se -15.482658 -6.194707 3.095298
Se -18.578984 -6.194707 12.384276
Se -18.578984 -3.098381 9.287950
Se -15.482658 -3.098381 12.384276
Se -15.482658 -6.194707 9.287950
Se -18.578984 -3.098381 15.480602
Se -15.482658 -3.098381 18.576928
Se -15.482658 -6.194707 15.480602
Se -15.482658 -6.194707 21.673254
Se -18.578984 -0.002055 -18.578984
Se -15.482658 3.094271 -18.578984
Se -15.482658 -0.002055 -21.675310
Se -18.578984 -0.002055 -12.386332
Se -18.578984 3.094271 -15.482658
Se -15.482658 3.094271 -12.386332
Se -15.482658 -0.002055 -15.482658
Se -18.578984 -0.002055 -6.193680
Se -18.578984 3.094271 -9.290006
Se -15.482658 3.094271 -6.193680
Se -15.482658 -0.002055 -9.290006
Se -18.578984 -0.002055 -0.001028
Se -18.578984 3.094271 -3.097354
Se -15.482658 3.094271 -0.001028
Se -15.482658 -0.002055 -3.097354
Se -18.578984 -0.002055 6.191624
Se -18.578984 3.094271 3.095298
Se -15.482658 3.094271 6.191624
Se -15.482658 -0.002055 3.095298
Se -18.578984 -0.002055 12.384276
Se -18.578984 3.094271 9.287950
Se -15.482658 3.094271 12.384276
Se -15.482658 -0.002055 9.287950
Se -18.578984 -0.002055 18.576928
Se -18.578984 3.094271 15.480602
Se -15.482658 3.094271 18.576928
Se -15.482658 -0.002055 15.480602
Se -15.482658 -0.002055 21.673254
Se -15.482658 6.190597 -21.675310
Se -18.578984 6.190597 -12.386332
Se -15.482658 9.286923 -12.386332
Se -15.482658 6.190597 -15.482658
Se -18.578984 6.190597 -6.193680
Se -18.578984 9.286923 -9.290006
Se -15.482658 9.286923 -6.193680
Se -15.482658 6.190597 -9.290006
Se -18.578984 6.190597 -0.001028
Se -18.578984 9.286923 -3.097354
Se -15.482658 9.286923 -0.001028
Se -15.482658 6.190597 -3.097354
Se -18.578984 6.190597 6.191624
Se -18.578984 9.286923 3.095298
Se -15.482658 9.286923 6.191624
Se -15.482658 6.190597 3.095298
Se -18.578984 6.190597 12.384276
Se -18.578984 9.286923 9.287950
Se -15.482658 9.286923 12.384276
Se -15.482658 6.190597 9.287950
Se -18.578984 6.190597 18.576928
Se -18.578984 9.286923 15.480602
Se -15.482658 9.286923 18.576928
Se -15.482658 6.190597 15.480602
Se -15.482658 6.190597 21.673254
Se -18.578984 12.383249 -6.193680
Se -15.482658 15.479575 -6.193680
Se -15.482658 12.383249 -9.290006
Se -18.578984 12.383249 -0.001028
Se -18.578984 15.479575 -3.097354
Se -15.482658 15.479575 -0.001028
Se -15.482658 12.383249 -3.097354
Se -18.578984 12.383249 6.191624
Se -18.578984 15.479575 3.095298
Se -15.482658 15.479575 6.191624
Se -15.482658 12.383249 3.095298
Se -18.578984 12.383249 12.384276
Se -18.578984 15.479575 9.287950
Se -15.482658 15.479575 12.384276
Se -15.482658 12.383249 9.287950
Se -15.482658 12.383249 15.480602
Se -15.482658 21.672227 -6.193680
Se -18.578984 18.575901 -0.001028
Se -15.482658 21.672227 -0.001028
Se -15.482658 18.575901 -3.097354
Se -18.578984 18.575901 6.191624
Se -15.482658 21.672227 6.191624
Se -15.482658 18.575901 3.095298
Se -15.482658 18.575901 9.287950
Se -9.290006 -21.676337 -12.386332
Se -12.386332 -21.676337 -9.290006
Se -9.290006 -21.676337 -6.193680
Se -12.386332 -21.676337 -3.097354
Se -9.290006 -21.676337 -0.001028
Se -12.386332 -21.676337 3.095298
Se -9.290006 -21.676337 6.191624
Se -9.290006 -15.483685 -18.578984
Se -12.386332 -18.580011 -12.386332
Se -12.386332 -15.483685 -15.482658
Se -9.290006 -15.483685 -12.386332
Se -9.290006 -18.580011 -15.482658
Se -12.386332 -18.580011 -6.193680
Se -12.386332 -15.483685 -9.290006
Se -9.290006 -15.483685 -6.193680
Se -9.290006 -18.580011 -9.290006
Se -12.386332 -18.580011 -0.001028
Se -12.386332 -15.483685 -3.097354
Se -9.290006 -15.483685 -0.001028
Se -9.290006 -18.580011 -3.097354
Se -12.386332 -18.580011 6.191624
Se -12.386332 -15.483685 3.095298
Se -9.290006 -15.483685 6.191624
Se -9.290006 -18.580011 3.095298
Se -12.386332 -15.483685 9.287950
Se -9.290006 -15.483685 12.384276
Se -9.290006 -18.580011 9.287950
Se -12.386332 -12.387359 -18.578984
Se -12.386332 -9.291033 -21.675310
Se -9.290006 -9.291033 -18.578984
Se -9.290006 -12.387359 -21.675310
Se -12.386332 -12.387359 -12.386332
Se -12.386332 -9.291033 -15.482658
Se -9.290006 -9.291033 -12.386332
Se -9.290006 -12.387359 -15.482658
Se -12.386332 -12.387359 -6.193680
Se -12.386332 -9.291033 -9.290006
Se -9.290006 -9.291033 -6.193680
Se -9.290006 -12.387359 -9.290006
Se -12.386332 -12.387359 -0.001028
Se -12.386332 -9.291033 -3.097354
Se -9.290006 -9.291033 -0.001028
Se -9.290006 -12.387359 -3.097354
Se -12.386332 -12.387359 6.191624
Se -12.386332 -9.291033 3.095298
Se -9.290006 -9.291033 6.191624
Se -9.290006 -12.387359 3.095298
Se -12.386332 -12.387359 12.384276
Se -12.386332 -9.291033 9.287950
Se -9.290006 -9.291033 12.384276
Se -9.290006 -12.387359 9.287950
Se -12.386332 -9.291033 15.480602
Se -9.290006 -9.291033 18.576928
Se -9.290006 -12.387359 15.480602
Se -12.386332 -6.194707 -18.578984
Se -12.386332 -3.098381 -21.675310
Se -9.290006 -3.098381 -18.578984
Se -9.290006 -6.194707 -21.675310
Se -12.386332 -6.194707 -12.386332
Se -12.386332 -3.098381 -15.482658
Se -9.290006 -3.098381 -12.386332
Se -9.290006 -6.194707 -15.482658
Se -12.386332 -6.194707 -6.193680
Se -12.386332 -3.098381 -9.290006
Se -9.290006 -3.098381 -6.193680
Se -9.290006 -6.194707 -9.290006
Se -12.386332 -6.194707 -0.001028
Se -12.386332 -3.098381 -3.097354
Se -9.290006 -3.098381 -0.001028
Se -9.290006 -6.194707 -3.097354
Se -12.386332 -6.194707 6.191624
Se -12.386332 -3.098381 3.095298
Se -9.290006 -3.098381 6.191624
Se -9.290006 -6.194707 3.095298
Se -12.386332 -6.194707 12.384276
Se -12.386332 -3.098381 9.287950
Se -9.290006 -3.098381 12.384276
Se -9.290006 -6.194707 9.287950
Se -12.386332 -6.194707 18.576928
Se -12.386332 -3.098381 15.480602
Se -9.290006 -3.098381 18.576928
Se -9.290006 -6.194707 15.480602
Se -12.386332 -3.098381 21.673254
Se -9.290006 -6.194707 21.673254
Se -12.386332 -0.002055 -18.578984
Se -12.386332 3.094271 -21.675310
Se -9.290006 3.094271 -18.578984
Se -9.290006 -0.002055 -21.675310
Se -12.386332 -0.002055 -12.386332
Se -12.386332 3.094271 -15.482658
Se -9.290006 3.094271 -12.386332
Se -9.290006 -0.002055 -15.482658
Se -12.386332 -0.002055 -6.193680
Se -12.386332 3.094271 -9.290006
Se -9.290006 3.094271 -6.193680
Se -9.290006 -0.002055 -9.290006
Se -12.386332 -0.002055 -0.001028
Se -12.386332 3.094271 -3.097354
Se -9.290006 3.094271 -0.001028
Se -9.290006 -0.002055 -3.097354
Se -12.386332 -0.002055 6.191624
Se -12.386332 3.094271 3.095298
Se -9.290006 3.094271 6.191624
Se -9.290006 -0.002055 3.095298
Se -12.386332 -0.002055 12.384276
Se -12.386332 3.094271 9.287950
Se -9.290006 3.094271 12.384276
Se -9.290006 -0.002055 9.287950
Se -12.386332 -0.002055 18.576928
Se -12.386332 3.094271 15.480602
Se -9.290006 3.094271 18.576928
Se -9.290006 -0.002055 15.480602
Se -12.386332 3.094271 21.673254
Se -9.290006 -0.002055 21.673254
Se -12.386332 6.190597 -18.578984
Se -9.290006 9.286923 -18.578984
Se -9.290006 6.190597 -21.675310
Se -12.386332 6.190597 -12.386332
Se -12.386332 9.286923 -15.482658
Se -9.290006 9.286923 -12.386332
Se -9.290006 6.190597 -15.482658
Se -12.386332 6.190597 -6.193680
Se -12.386332 9.286923 -9.290006
Se -9.290006 9.286923 -6.193680
Se -9.290006 6.190597 -9.290006
Se -12.386332 6.190597 -0.001028
Se -12.386332 9.286923 -3.097354
Se -9.290006 9.286923 -0.001028
Se -9.290006 6.190597 -3.097354
Se -12.386332 6.190597 6.191624
Se -12.386332 9.286923 3.095298
Se -9.290006 9.286923 6.191624
Se -9.290006 6.190597 3.095298
Se -12.386332 6.190597 12.384276
Se -12.386332 9.286923 9.287950
Se -9.290006 9.286923 12.384276
Se -9.290006 6.190597 9.287950
Se -12.386332 6.190597 18.576928
Se -12.386332 9.286923 15.480602
Se -9.290006 9.286923 18.576928
Se -9.290006 6.190597 15.480602
Se -12.386332 9.286923 21.673254
Se -9.290006 6.190597 21.673254
Se -12.386332 12.383249 -12.386332
Se -9.290006 15.479575 -12.386332
Se -9.290006 12.383249 -15.482658
Se -12.386332 12.383249 -6.193680
Se -12.386332 15.479575 -9.290006
Se -9.290006 15.479575 -6.193680
Se -9.290006 12.383249 -9.290006
Se -12.386332 12.383249 -0.001028
Se -12.386332 15.479575 -3.097354
Se -9.290006 15.479575 -0.001028
Se -9.290006 12.383249 -3.097354
Se -12.386332 12.383249 6.191624
Se -12.386332 15.479575 3.095298
Se -9.290006 15.479575 6.191624
Se -9.290006 12.383249 3.095298
Se -12.386332 12.383249 12.384276
Se -12.386332 15.479575 9.287950
Se -9.290006 15.479575 12.384276
Se -9.290006 12.383249 9.287950
Se -12.386332 12.383249 18.576928
Se -12.386332 15.479575 15.480602
Se -9.290006 15.479575 18.576928
Se -9.290006 12.383249 15.480602
Se -9.290006 12.383249 21.673254
Se -12.386332 18.575901 -6.193680
Se -9.290006 21.672227 -6.193680
Se -9.290006 18.575901 -9.290006
Se -12.386332 18.575901 -0.001028
Se -12.386332 21.672227 -3.097354
Se -9.290006 21.672227 -0.001028
Se -9.290006 18.575901 -3.097354
Se -12.386332 18.575901 6.191624
Se -12.386332 21.672227 3.095298
Se -9.290006 21.672227 6.191624
Se -9.290006 18.575901 3.095298
Se -12.386332 18.575901 12.384276
Se -12.386332 21.672227 9.287950
Se -9.290006 21.672227 12.384276
Se -9.290006 18.575901 9.287950
Se -9.290006 18.575901 15.480602
Se -6.193680 -21.676337 -15.482658
Se -3.097354 -21.676337 -12.386332
Se -6.193680 -21.676337 -9.290006
Se -3.097354 -21.676337 -6.193680
Se -6.193680 -21.676337 -3.097354
Se -3.097354 -21.676337 -0.001028
Se -6.193680 -21.676337 3.095298
Se -3.097354 -21.676337 6.191624
Se -6.193680 -21.676337 9.287950
Se -3.097354 -21.676337 12.384276
Se -6.193680 -21.676337 15.480602
Se -6.193680 -18.580011 -18.578984
Se -6.193680 -15.483685 -21.675310
Se -3.097354 -15.483685 -18.578984
Se -6.193680 -18.580011 -12.386332
Se -6.193680 -15.483685 -15.482658
Se -3.097354 -15.483685 -12.386332
Se -3.097354 -18.580011 -15.482658
Se -6.193680 -18.580011 -6.193680
Se -6.193680 -15.483685 -9.290006
Se -3.097354 -15.483685 -6.193680
Se -3.097354 -18.580011 -9.290006
Se -6.193680 -18.580011 -0.001028
Se -6.193680 -15.483685 -3.097354
Se -3.097354 -15.483685 -0.001028
Se -3.097354 -18.580011 -3.097354
Se -6.193680 -18.580011 6.191624
Se -6.193680 -15.483685 3.095298
Se -3.097354 -15.483685 6.191624
Se -3.097354 -18.580011 3.095298
Se -6.193680 -18.580011 12.384276
Se -6.193680 -15.483685 9.287950
Se -3.097354 -15.483685 12.384276
Se -3.097354 -18.580011 9.287950
Se -6.193680 -15.483685 15.480602
Se -3.097354 -15.483685 18.576928
Se -3.097354 -18.580011 15.480602
Se -6.193680 -15.483685 21.673254
Se -6.193680 -12.387359 -18.578984
Se -6.193680 -9.291033 -21.675310
Se -3.097354 -9.291033 -18.578984
Se -3.097354 -12.387359 -21.675310
Se -6.193680 -12.387359 -12.386332
Se -6.193680 -9.291033 -15.482658
Se -3.097354 -9.291033 -12.386332
Se -3.097354 -12.387359 -15.482658
Se -6.193680 -12.387359 -6.193680
Se -6.193680 -9.291033 -9.290006
Se -3.097354 -9.291033 -6.193680
Se -3.097354 -12.387359 -9.290006
Se -6.193680 -12.387359 -0.001028
Se -6.193680 -9.291033 -3.097354
Se -3.097354 -9.291033 -0.001028
Se -3.097354 -12.387359 -3.097354
Se -6.193680 -12.387359 6.191624
Se -6.193680 -9.291033 3.095298
Se -3.097354 -9.291033 6.191624
Se -3.097354 -12.387359 3.095298
Se -6.193680 -12.387359 12.384276
Se -6.193680 -9.291033 9.287950
Se -3.097354 -9.291033 12.384276
Se -3.097354 -12.387359 9.287950
Se -6.193680 -12.387359 18.576928
Se -6.193680 -9.291033 15.480602
Se -3.097354 -9.291033 18.576928
Se -3.097354 -12.387359 15.480602
Se -6.193680 -9.291033 21.673254
Se -3.097354 -12.387359 21.673254
Se -6.193680 -6.194707 -18.578984
Se -6.193680 -3.098381 -21.675310
Se -3.097354 -3.098381 -18.578984
Se -3.097354 -6.194707 -21.675310
Se -6.193680 -6.194707 -12.386332
Se -6.193680 -3.098381 -15.482658
Se -3.097354 -3.098381 -12.386332
Se -3.097354 -6.194707 -15.482658
Se -6.193680 -6.194707 -6.193680
Se -6.193680 -3.098381 -9.290006
Se -3.097354 -3.098381 -6.193680
Se -3.097354 -6.194707 -9.290006
Se -6.193680 -6.194707 -0.001028
Se -6.193680 -3.098381 -3.097354
Se -3.097354 -3.098381 -0.001028
Se -3.097354 -6.194707 -3.097354
Se -6.193680 -6.194707 6.191624
Se -6.193680 -3.098381 3.095298
Se -3.097354 -3.098381 6.191624
Se -3.097354 -6.194707 3.095298
Se -6.193680 -6.194707 12.384276
Se -6.193680 -3.098381 9.287950
Se -3.097354 -3.098381 12.384276
Se -3.097354 -6.194707 9.287950
Se -6.193680 -6.194707 18.576928
Se -6.193680 -3.098381 15.480602
Se -3.097354 -3.098381 18.576928
Se -3.097354 -6.194707 15.480602
Se -6.193680 -3.098381 21.673254
Se -3.097354 -6.194707 21.673254
Se -6.193680 -0.002055 -18.578984
Se -6.193680 3.094271 -21.675310
Se -3.097354 3.094271 -18.578984
Se -3.097354 -0.002055 -21.675310
Se -6.193680 -0.002055 -12.386332
Se -6.193680 3.094271 -15.482658
Se -3.097354 3.094271 -12.386332
Se -3.097354 -0.002055 -15.482658
Se -6.193680 -0.002055 -6.193680
Se -6.193680 3.094271 -9.290006
Se -3.097354 3.094271 -6.193680
Se -3.097354 -0.002055 -9.290006
Se -6.193680 -0.002055 -0.001028
Se -6.193680 3.094271 -3.097354
Se -3.097354 3.094271 -0.001028
Se -3.097354 -0.002055 -3.097354
Se -6.193680 -0.002055 6.191624
Se -6.193680 3.094271 3.095298
Se -3.097354 3.094271 6.191624
Se -3.097354 -0.002055 3.095298
Se -6.193680 -0.002055 12.384276
Se -6.193680 3.094271 9.287950
Se -3.097354 3.094271 12.384276
Se -3.097354 -0.002055 9.287950
Se -6.193680 -0.002055 18.576928
Se -6.193680 3.094271 15.480602
Se -3.097354 3.094271 18.576928
Se -3.097354 -0.002055 15.480602
Se -6.193680 3.094271 21.673254
Se -3.097354 -0.002055 21.673254
Se -6.193680 6.190597 -18.578984
Se -6.193680 9.286923 -21.675310
Se -3.097354 9.286923 -18.578984
Se -3.097354 6.190597 -21.675310
Se -6.193680 6.190597 -12.386332
Se -6.193680 9.286923 -15.482658
Se -3.097354 9.286923 -12.386332
Se -3.097354 6.190597 -15.482658
Se -6.193680 6.190597 -6.193680
Se -6.193680 9.286923 -9.290006
Se -3.097354 9.286923 -6.193680
Se -3.097354 6.190597 -9.290006
Se -6.193680 6.190597 -0.001028
Se -6.193680 9.286923 -3.097354
Se -3.097354 9.286923 -0.001028
Se -3.097354 6.190597 -3.097354
Se -6.193680 6.190597 6.191624
Se -6.193680 9.286923 3.095298
Se -3.097354 9.286923 6.191624
Se -3.097354 6.190597 3.095298
Se -6.193680 6.190597 12.384276
Se -6.193680 9.286923 9.287950
Se -3.097354 9.286923 12.384276
Se -3.097354 6.190597 9.287950
Se -6.193680 6.190597 18.576928
Se -6.193680 9.286923 15.480602
Se -3.097354 9.286923 18.576928
Se -3.097354 6.190597 15.480602
Se -6.193680 9.286923 21.673254
Se -3.097354 6.190597 21.673254
Se -6.193680 12.383249 -18.578984
Se -6.193680 15.479575 -21.675310
Se -3.097354 15.479575 -18.578984
Se -3.097354 12.383249 -21.675310
Se -6.193680 12.383249 -12.386332
Se -6.193680 15.479575 -15.482658
Se -3.097354 15.479575 -12.386332
Se -3.097354 12.383249 -15.482658
Se -6.193680 12.383249 -6.193680
Se -6.193680 15.479575 -9.290006
Se -3.097354 15.479575 -6.193680
Se -3.097354 12.383249 -9.290006
Se -6.193680 12.383249 -0.001028
Se -6.193680 15.479575 -3.097354
Se -3.097354 15.479575 -0.001028
Se -3.097354 12.383249 -3.097354
Se -6.193680 12.383249 6.191624
Se -6.193680 15.479575 3.095298
Se -3.097354 15.479575 6.191624
Se -3.097354 12.383249 3.095298
Se -6.193680 12.383249 12.384276
Se -6.193680 15.479575 9.287950
Se -3.097354 15.479575 12.384276
Se -3.097354 12.383249 9.287950
Se -6.193680 12.383249 18.576928
Se -6.193680 15.479575 15.480602
Se -3.097354 15.479575 18.576928
Se -3.097354 12.383249 15.480602
Se -6.193680 15.479575 21.673254
Se -3.097354 12.383249 21.673254
Se -6.193680 18.575901 -12.386332
Se -6.193680 21.672227 -15.482658
Se -3.097354 21.672227 -12.386332
Se -3.097354 18.575901 -15.482658
Se -6.193680 18.575901 -6.193680
Se -6.193680 21.672227 -9.290006
Se -3.097354 21.672227 -6.193680
Se -3.097354 18.575901 -9.290006
Se -6.193680 18.575901 -0.001028
Se -6.193680 21.672227 -3.097354
Se -3.097354 21.672227 -0.001028
Se -3.097354 18.575901 -3.097354
Se -6.193680 18.575901 6.191624
Se -6.193680 21.672227 3.095298
Se -3.097354 21.672227 6.191624
Se -3.097354 18.575901 3.095298
Se -6.193680 18.575901 12.384276
Se -6.193680 21.672227 9.287950
Se -3.097354 21.672227 12.384276
Se -3.097354 18.575901 9.287950
Se -6.193680 18.575901 18.576928
Se -6.193680 21.672227 15.480602
Se -3.097354 18.575901 15.480602
Se -0.001028 -21.676337 -15.482658
Se 3.095298 -21.676337 -12.386332
Se -0.001028 -21.676337 -9.290006
Se 3.095298 -21.676337 -6.193680
Se -0.001028 -21.676337 -3.097354
Se 3.095298 -21.676337 -0.001028
Se -0.001028 -21.676337 3.095298
Se 3.095298 -21.676337 6.191624
Se -0.001028 -21.676337 9.287950
Se 3.095298 -21.676337 12.384276
Se -0.001028 -21.676337 15.480602
Se -0.001028 -18.580011 -18.578984
Se -0.001028 -15.483685 -21.675310
Se 3.095298 -15.483685 -18.578984
Se -0.001028 -18.580011 -12.386332
Se -0.001028 -15.483685 -15.482658
Se 3.095298 -15.483685 -12.386332
Se 3.095298 -18.580011 -15.482658
Se -0.001028 -18.580011 -6.193680
Se -0.001028 -15.483685 -9.290006
Se 3.095298 -15.483685 -6.193680
Se 3.095298 -18.580011 -9.290006
Se -0.001028 -18.580011 -0.001028
Se -0.001028 -15.483685 -3.097354
Se 3.095298 -15.483685 -0.001028
Se 3.095298 -18.580011 -3.097354
Se -0.001028 -18.580011 6.191624
Se -0.001028 -15.483685 3.095298
Se 3.095298 -15.483685 6.191624
Se 3.095298 -18.580011 3.095298
Se -0.001028 -18.580011 12.384276
Se -0.001028 -15.483685 9.287950
Se 3.095298 -15.483685 12.384276
Se 3.095298 -18.580011 9.287950
Se -0.001028 -18.580011 18.576928
Se -0.001028 -15.483685 15.480602
Se 3.095298 -15.483685 18.576928
Se 3.095298 -18.580011 15.480602
Se -0.001028 -15.483685 21.673254
Se -0.001028 -12.387359 -18.578984
Se -0.001028 -9.291033 -21.675310
Se 3.095298 -9.291033 -18.578984
Se 3.095298 -12.387359 -21.675310
Se -0.001028 -12.387359 -12.386332
Se -0.001028 -9.291033 -15.482658
Se 3.095298 -9.291033 -12.386332
Se 3.095298 -12.387359 -15.482658
Se -0.001028 -12.387359 -6.193680
Se -0.001028 -9.291033 -9.290006
Se 3.095298 -9.291033 -6.193680
Se 3.095298 -12.387359 -9.290006
Se -0.001028 -12.387359 -0.001028
Se -0.001028 -9.291033 -3.097354
Se 3.095298 -9.291033 -0.001028
Se 3.095298 -12.387359 -3.097354
Se -0.001028 -12.387359 6.191624
Se -0.001028 -9.291033 3.095298
Se 3.095298 -9.291033 6.191624
Se 3.095298 -12.387359 3.095298
Se -0.001028 -12.387359 12.384276
Se -0.001028 -9.291033 9.287950
Se 3.095298 -9.291033 12.384276
Se 3.095298 -12.387359 9.287950
Se -0.001028 -12.387359 18.576928
Se -0.001028 -9.291033 15.480602
Se 3.095298 -9.291033 18.576928
Se 3.095298 -12.387359 15.480602
Se -0.001028 -9.291033 21.673254
Se 3.095298 -12.387359 21.673254
Se -0.001028 -6.194707 -18.578984
Se -0.001028 -3.098381 -21.675310
Se 3.095298 -3.098381 -18.578984
Se 3.095298 -6.194707 -21.675310
Se -0.001028 -6.194707 -12.386332
Se -0.001028 -3.098381 -15.482658
Se 3.095298 -3.098381 -12.386332
Se 3.095298 -6.194707 -15.482658
Se -0.001028 -6.194707 -6.193680
Se -0.001028 -3.098381 -9.290006
Se 3.095298 -3.098381 -6.193680
Se 3.095298 -6.194707 -9.290006
Se -0.001028 -6.194707 -0.001028
Se -0.001028 -3.098381 -3.097354
Se 3.095298 -3.098381 -0.001028
Se 3.095298 -6.194707 -3.097354
Se -0.001028 -6.194707 6.191624
Se -0.001028 -3.098381 3.095298
Se 3.095298 -3.098381 6.191624
Se 3.095298 -6.194707 3.095298
Se -0.001028 -6.194707 12.384276
Se -0.001028 -3.098381 9.287950
Se 3.095298 -3.098381 12.384276
Se 3.095298 -6.194707 9.287950
Se -0.001028 -6.194707 18.576928
Se -0.001028 -3.098381 15.480602
Se 3.095298 -3.098381 18.576928
Se 3.095298 -6.194707 15.480602
Se -0.001028 -3.098381 21.673254
Se 3.095298 -6.194707 21.673254
Se -0.001028 -0.002055 -18.578984
Se -0.001028 3.094271 -21.675310
Se 3.095298 3.094271 -18.578984
Se 3.095298 -0.002055 -21.675310
Se -0.001028 -0.002055 -12.386332
Se -0.001028 3.094271 -15.482658
Se 3.095298 3.094271 -12.386332
Se 3.095298 -0.002055 -15.482658
Se -0.001028 -0.002055 -6.193680
Se -0.001028 3.094271 -9.290006
Se 3.095298 3.094271 -6.193680
Se 3.095298 -0.002055 -9.290006
Se -0.001028 -0.002055 -0.001028
Se -0.001028 3.094271 -3.097354
Se 3.095298 3.094271 -0.001028
Se 3.095298 -0.002055 -3.097354
Se -0.001028 -0.002055 6.191624
Se -0.001028 3.094271 3.095298
Se 3.095298 3.094271 6.191624
Se 3.095298 -0.002055 3.095298
Se -0.001028 -0.002055 12.384276
Se -0.001028 3.094271 9.287950
Se 3.095298 3.094271 12.384276
Se 3.095298 -0.002055 9.287950
Se -0.001028 -0.002055 18.576928
Se -0.001028 3.094271 15.480602
Se 3.095298 3.094271 18.576928
Se 3.095298 -0.002055 15.480602
Se -0.001028 3.094271 21.673254
Se 3.095298 -0.002055 21.673254
Se -0.001028 6.190597 -18.578984
Se -0.001028 9.286923 -21.675310
Se 3.095298 9.286923 -18.578984
Se 3.095298 6.190597 -21.675310
Se -0.001028 6.190597 -12.386332
Se -0.001028 9.286923 -15.482658
Se 3.095298 9.286923 -12.386332
Se 3.095298 6.190597 -15.482658
Se -0.001028 6.190597 -6.193680
Se -0.001028 9.286923 -9.290006
Se 3.095298 9.286923 -6.193680
Se 3.095298 6.190597 -9.290006
Se -0.001028 6.190597 -0.001028
Se -0.001028 9.286923 -3.097354
Se 3.095298 9.286923 -0.001028
Se 3.095298 6.190597 -3.097354
Se -0.001028 6.190597 6.191624
Se -0.001028 9.286923 3.095298
Se 3.095298 9.286923 6.191624
Se 3.095298 6.190597 3.095298
Se -0.001028 6.190597 12.384276
Se -0.001028 9.286923 9.287950
Se 3.095298 9.286923 12.384276
Se 3.095298 6.190597 9.287950
Se -0.001028 6.190597 18.576928
Se -0.001028 9.286923 15.480602
Se 3.095298 9.286923 18.576928
Se 3.095298 6.190597 15.480602
Se -0.001028 9.286923 21.673254
Se 3.095298 6.190597 21.673254
Se -0.001028 12.383249 -18.578984
Se -0.001028 15.479575 -21.675310
Se 3.095298 15.479575 -18.578984
Se 3.095298 12.383249 -21.675310
Se -0.001028 12.383249 -12.386332
Se -0.001028 15.479575 -15.482658
Se 3.095298 15.479575 -12.386332
Se 3.095298 12.383249 -15.482658
Se -0.001028 12.383249 -6.193680
Se -0.001028 15.479575 -9.290006
Se 3.095298 15.479575 -6.193680
Se 3.095298 12.383249 -9.290006
Se -0.001028 12.383249 -0.001028
Se -0.001028 15.479575 -3.097354
Se 3.095298 15.479575 -0.001028
Se 3.095298 12.383249 -3.097354
Se -0.001028 12.383249 6.191624
Se -0.001028 15.479575 3.095298
Se 3.095298 15.479575 6.191624
Se 3.095298 12.383249 3.095298
Se -0.001028 12.383249 12.384276
Se -0.001028 15.479575 9.287950
Se 3.095298 15.479575 12.384276
Se 3.095298 12.383249 9.287950
Se -0.001028 12.383249 18.576928
Se -0.001028 15.479575 15.480602
Se 3.095298 15.479575 18.576928
Se 3.095298 12.383249 15.480602
Se -0.001028 15.479575 21.673254
Se 3.095298 12.383249 21.673254
Se -0.001028 18.575901 -18.578984
Se -0.001028 18.575901 -12.386332
Se -0.001028 21.672227 -15.482658
Se 3.095298 21.672227 -12.386332
Se 3.095298 18.575901 -15.482658
Se -0.001028 18.575901 -6.193680
Se -0.001028 21.672227 -9.290006
Se 3.095298 21.672227 -6.193680
Se 3.095298 18.575901 -9.290006
Se -0.001028 18.575901 -0.001028
Se -0.001028 21.672227 -3.097354
Se 3.095298 21.672227 -0.001028
Se 3.095298 18.575901 -3.097354
Se -0.001028 18.575901 6.191624
Se -0.001028 21.672227 3.095298
Se 3.095298 21.672227 6.191624
Se 3.095298 18.575901 3.095298
Se -0.001028 18.575901 12.384276
Se -0.001028 21.672227 9.287950
Se 3.095298 21.672227 12.384276
Se 3.095298 18.575901 9.287950
Se -0.001028 18.575901 18.576928
Se -0.001028 21.672227 15.480602
Se 3.095298 18.575901 15.480602
Se 6.191624 -21.676337 -15.482658
Se 6.191624 -21.676337 -9.290006
Se 9.287950 -21.676337 -6.193680
Se 6.191624 -21.676337 -3.097354
Se 9.287950 -21.676337 -0.001028
Se 6.191624 -21.676337 3.095298
Se 9.287950 -21.676337 6.191624
Se 6.191624 -21.676337 9.287950
Se 9.287950 -21.676337 12.384276
Se 6.191624 -21.676337 15.480602
Se 6.191624 -15.483685 -21.675310
Se 6.191624 -18.580011 -12.386332
Se 6.191624 -15.483685 -15.482658
Se 9.287950 -15.483685 -12.386332
Se 6.191624 -18.580011 -6.193680
Se 6.191624 -15.483685 -9.290006
Se 9.287950 -15.483685 -6.193680
Se 9.287950 -18.580011 -9.290006
Se 6.191624 -18.580011 -0.001028
Se 6.191624 -15.483685 -3.097354
Se 9.287950 -15.483685 -0.001028
Se 9.287950 -18.580011 -3.097354
Se 6.191624 -18.580011 6.191624
Se 6.191624 -15.483685 3.095298
Se 9.287950 -15.483685 6.191624
Se 9.287950 -18.580011 3.095298
Se 6.191624 -18.580011 12.384276
Se 6.191624 -15.483685 9.287950
Se 9.287950 -15.483685 12.384276
Se 9.287950 -18.580011 9.287950
Se 6.191624 -18.580011 18.576928
Se 6.191624 -15.483685 15.480602
Se 9.287950 -15.483685 18.576928
Se 9.287950 -18.580011 15.480602
Se 6.191624 -15.483685 21.673254
Se 6.191624 -12.387359 -18.578984
Se 6.191624 -9.291033 -21.675310
Se 9.287950 -9.291033 -18.578984
Se 6.191624 -12.387359 -12.386332
Se 6.191624 -9.291033 -15.482658
Se 9.287950 -9.291033 -12.386332
Se 9.287950 -12.387359 -15.482658
Se 6.191624 -12.387359 -6.193680
Se 6.191624 -9.291033 -9.290006
Se 9.287950 -9.291033 -6.193680
Se 9.287950 -12.387359 -9.290006
Se 6.191624 -12.387359 -0.001028
Se 6.191624 -9.291033 -3.097354
Se 9.287950 -9.291033 -0.001028
Se 9.287950 -12.387359 -3.097354
Se 6.191624 -12.387359 6.191624
Se 6.191624 -9.291033 3.095298
Se 9.287950 -9.291033 6.191624
Se 9.287950 -12.387359 3.095298
Se 6.191624 -12.387359 12.384276
Se 6.191624 -9.291033 9.287950
Se 9.287950 -9.291033 12.384276
Se 9.287950 -12.387359 9.287950
Se 6.191624 -12.387359 18.576928
Se 6.191624 -9.291033 15.480602
Se 9.287950 -9.291033 18.576928
Se 9.287950 -12.387359 15.480602
Se 6.191624 -9.291033 21.673254
Se 9.287950 -12.387359 21.673254
Se 6.191624 -6.194707 -18.578984
Se 6.191624 -3.098381 -21.675310
Se 9.287950 -3.098381 -18.578984
Se 9.287950 -6.194707 -21.675310
Se 6.191624 -6.194707 -12.386332
Se 6.191624 -3.098381 -15.482658
Se 9.287950 -3.098381 -12.386332
Se 9.287950 -6.194707 -15.482658
Se 6.191624 -6.194707 -6.193680
Se 6.191624 -3.098381 -9.290006
Se 9.287950 -3.098381 -6.193680
Se 9.287950 -6.194707 -9.290006
Se 6.191624 -6.194707 -0.001028
Se 6.191624 -3.098381 -3.097354
Se 9.287950 -3.098381 -0.001028
Se 9.287950 -6.194707 -3.097354
Se 6.191624 -6.194707 6.191624
Se 6.191624 -3.098381 3.095298
Se 9.287950 -3.098381 6.191624
Se 9.287950 -6.194707 3.095298
Se 6.191624 -6.194707 12.384276
Se 6.191624 -3.098381 9.287950
Se 9.287950 -3.098381 12.384276
Se 9.287950 -6.194707 9.287950
Se 6.191624 -6.194707 18.576928
Se 6.191624 -3.098381 15.480602
Se 9.287950 -3.098381 18.576928
Se 9.287950 -6.194707 15.480602
Se 6.191624 -3.098381 21.673254
Se 9.287950 -6.194707 21.673254
Se 6.191624 -0.002055 -18.578984
Se 6.191624 3.094271 -21.675310
Se 9.287950 3.094271 -18.578984
Se 9.287950 -0.002055 -21.675310
Se 6.191624 -0.002055 -12.386332
Se 6.191624 3.094271 -15.482658
Se 9.287950 3.094271 -12.386332
Se 9.287950 -0.002055 -15.482658
Se 6.191624 -0.002055 -6.193680
Se 6.191624 3.094271 -9.290006
Se 9.287950 3.094271 -6.193680
Se 9.287950 -0.002055 -9.290006
Se 6.191624 -0.002055 -0.001028
Se 6.191624 3.094271 -3.097354
Se 9.287950 3.094271 -0.001028
Se 9.287950 -0.002055 -3.097354
Se 6.191624 -0.002055 6.191624
Se 6.191624 3.094271 3.095298
Se 9.287950 3.094271 6.191624
Se 9.287950 -0.002055 3.095298
Se 6.191624 -0.002055 12.384276
Se 6.191624 3.094271 9.287950
Se 9.287950 3.094271 12.384276
Se 9.287950 -0.002055 9.287950
Se 6.191624 -0.002055 18.576928
Se 6.191624 3.094271 15.480602
Se 9.287950 3.094271 18.576928
Se 9.287950 -0.002055 15.480602
Se 6.191624 3.094271 21.673254
Se 9.287950 -0.002055 21.673254
Se 6.191624 6.190597 -18.578984
Se 6.191624 9.286923 -21.675310
Se 9.287950 9.286923 -18.578984
Se 9.287950 6.190597 -21.675310
Se 6.191624 6.190597 -12.386332
Se 6.191624 9.286923 -15.482658
Se 9.287950 9.286923 -12.386332
Se 9.287950 6.190597 -15.482658
Se 6.191624 6.190597 -6.193680
Se 6.191624 9.286923 -9.290006
Se 9.287950 9.286923 -6.193680
Se 9.287950 6.190597 -9.290006
Se 6.191624 6.190597 -0.001028
Se 6.191624 9.286923 -3.097354
Se 9.287950 9.286923 -0.001028
Se 9.287950 6.190597 -3.097354
Se 6.191624 6.190597 6.191624
Se 6.191624 9.286923 3.095298
Se 9.287950 9.286923 6.191624
Se 9.287950 6.190597 3.095298
Se 6.191624 6.190597 12.384276
Se 6.191624 9.286923 9.287950
Se 9.287950 9.286923 12.384276
Se 9.287950 6.190597 9.287950
Se 6.191624 6.190597 18.576928
Se 6.191624 9.286923 15.480602
Se 9.287950 9.286923 18.576928
Se 9.287950 6.190597 15.480602
Se 6.191624 9.286923 21.673254
Se 9.287950 6.190597 21.673254
Se 6.191624 12.383249 -18.578984
Se 6.191624 15.479575 -21.675310
Se 9.287950 15.479575 -18.578984
Se 9.287950 12.383249 -21.675310
Se 6.191624 12.383249 -12.386332
Se 6.191624 15.479575 -15.482658
Se 9.287950 15.479575 -12.386332
Se 9.287950 12.383249 -15.482658
Se 6.191624 12.383249 -6.193680
Se 6.191624 15.479575 -9.290006
Se 9.287950 15.479575 -6.193680
Se 9.287950 12.383249 -9.290006
Se 6.191624 12.383249 -0.001028
Se 6.191624 15.479575 -3.097354
Se 9.287950 15.479575 -0.001028
Se 9.287950 12.383249 -3.097354
Se 6.191624 12.383249 6.191624
Se 6.191624 15.479575 3.095298
Se 9.287950 15.479575 6.191624
Se 9.287950 12.383249 3.095298
Se 6.191624 12.383249 12.384276
Se 6.191624 15.479575 9.287950
Se 9.287950 15.479575 12.384276
Se 9.287950 12.383249 9.287950
Se 6.191624 12.383249 18.576928
Se 6.191624 15.479575 15.480602
Se 9.287950 12.383249 15.480602
Se 6.191624 15.479575 21.673254
Se 6.191624 18.575901 -18.578984
Se 6.191624 18.575901 -12.386332
Se 6.191624 21.672227 -15.482658
Se 9.287950 21.672227 -12.386332
Se 9.287950 18.575901 -15.482658
Se 6.191624 18.575901 -6.193680
Se 6.191624 21.672227 -9.290006
Se 9.287950 21.672227 -6.193680
Se 9.287950 18.575901 -9.290006
Se 6.191624 18.575901 -0.001028
Se 6.191624 21.672227 -3.097354
Se 9.287950 21.672227 -0.001028
Se 9.287950 18.575901 -3.097354
Se 6.191624 18.575901 6.191624
Se 6.191624 21.672227 3.095298
Se 9.287950 21.672227 6.191624
Se 9.287950 18.575901 3.095298
Se 6.191624 18.575901 12.384276
Se 6.191624 21.672227 9.287950
Se 9.287950 18.575901 9.287950
Se 6.191624 21.672227 15.480602
Se 15.480602 -21.676337 -6.193680
Se 12.384276 -21.676337 -3.097354
Se 15.480602 -21.676337 -0.001028
Se 12.384276 -21.676337 3.095298
Se 15.480602 -21.676337 6.191624
Se 12.384276 -21.676337 9.287950
Se 12.384276 -18.580011 -6.193680
Se 12.384276 -15.483685 -9.290006
Se 15.480602 -15.483685 -6.193680
Se 12.384276 -18.580011 -0.001028
Se 12.384276 -15.483685 -3.097354
Se 15.480602 -15.483685 -0.001028
Se 15.480602 -18.580011 -3.097354
Se 12.384276 -18.580011 6.191624
Se 12.384276 -15.483685 3.095298
Se 15.480602 -15.483685 6.191624
Se 15.480602 -18.580011 3.095298
Se 12.384276 -18.580011 12.384276
Se 12.384276 -15.483685 9.287950
Se 15.480602 -15.483685 12.384276
Se 15.480602 -18.580011 9.287950
Se 12.384276 -15.483685 15.480602
Se 12.384276 -12.387359 -12.386332
Se 12.384276 -9.291033 -15.482658
Se 15.480602 -9.291033 -12.386332
Se 12.384276 -12.387359 -6.193680
Se 12.384276 -9.291033 -9.290006
Se 15.480602 -9.291033 -6.193680
Se 15.480602 -12.387359 -9.290006
Se 12.384276 -12.387359 -0.001028
Se 12.384276 -9.291033 -3.097354
Se 15.480602 -9.291033 -0.001028
Se 15.480602 -12.387359 -3.097354
Se 12.384276 -12.387359 6.191624
Se 12.384276 -9.291033 3.095298
Se 15.480602 -9.291033 6.191624
Se 15.480602 -12.387359 3.095298
Se 12.384276 -12.387359 12.384276
Se 12.384276 -9.291033 9.287950
Se 15.480602 -9.291033 12.384276
Se 15.480602 -12.387359 9.287950
Se 12.384276 -12.387359 18.576928
Se 12.384276 -9.291033 15.480602
Se 15.480602 -9.291033 18.576928
Se 15.480602 -12.387359 15.480602
Se 12.384276 -9.291033 21.673254
Se 12.384276 -6.194707 -18.578984
Se 12.384276 -3.098381 -21.675310
Se 15.480602 -3.098381 -18.578984
Se 15.480602 -6.194707 -21.675310
Se 12.384276 -6.194707 -12.386332
Se 12.384276 -3.098381 -15.482658
Se 15.480602 -3.098381 -12.386332
Se 15.480602 -6.194707 -15.482658
Se 12.384276 -6.194707 -6.193680
Se 12.384276 -3.098381 -9.290006
Se 15.480602 -3.098381 -6.193680
Se 15.480602 -6.194707 -9.290006
Se 12.384276 -6.194707 -0.001028
Se 12.384276 -3.098381 -3.097354
Se 15.480602 -3.098381 -0.001028
Se 15.480602 -6.194707 -3.097354
Se 12.384276 -6.194707 6.191624
Se 12.384276 -3.098381 3.095298
Se 15.480602 -3.098381 6.191624
Se 15.480602 -6.194707 3.095298
Se 12.384276 -6.194707 12.384276
Se 12.384276 -3.098381 9.287950
Se 15.480602 -3.098381 12.384276
Se 15.480602 -6.194707 9.287950
Se 12.384276 -6.194707 18.576928
Se 12.384276 -3.098381 15.480602
Se 15.480602 -3.098381 18.576928
Se 15.480602 -6.194707 15.480602
Se 12.384276 -3.098381 21.673254
Se 15.480602 -6.194707 21.673254
Se 12.384276 -0.002055 -18.578984
Se 12.384276 3.094271 -21.675310
Se 15.480602 3.094271 -18.578984
Se 15.480602 -0.002055 -21.675310
Se 12.384276 -0.002055 -12.386332
Se 12.384276 3.094271 -15.482658
Se 15.480602 3.094271 -12.386332
Se 15.480602 -0.002055 -15.482658
Se 12.384276 -0.002055 -6.193680
Se 12.384276 3.094271 -9.290006
Se 15.480602 3.094271 -6.193680
Se 15.480602 -0.002055 -9.290006
Se 12.384276 -0.002055 -0.001028
Se 12.384276 3.094271 -3.097354
Se 15.480602 3.094271 -0.001028
Se 15.480602 -0.002055 -3.097354
Se 12.384276 -0.002055 6.191624
Se 12.384276 3.094271 3.095298
Se 15.480602 3.094271 6.191624
Se 15.480602 -0.002055 3.095298
Se 12.384276 -0.002055 12.384276
Se 12.384276 3.094271 9.287950
Se 15.480602 3.094271 12.384276
Se 15.480602 -0.002055 9.287950
Se 12.384276 -0.002055 18.576928
Se 12.384276 3.094271 15.480602
Se 15.480602 3.094271 18.576928
Se 15.480602 -0.002055 15.480602
Se 12.384276 3.094271 21.673254
Se 15.480602 -0.002055 21.673254
Se 12.384276 6.190597 -18.578984
Se 12.384276 9.286923 -21.675310
Se 15.480602 9.286923 -18.578984
Se 15.480602 6.190597 -21.675310
Se 12.384276 6.190597 -12.386332
Se 12.384276 9.286923 -15.482658
Se 15.480602 9.286923 -12.386332
Se 15.480602 6.190597 -15.482658
Se 12.384276 6.190597 -6.193680
Se 12.384276 9.286923 -9.290006
Se 15.480602 9.286923 -6.193680
Se 15.480602 6.190597 -9.290006
Se 12.384276 6.190597 -0.001028
Se 12.384276 9.286923 -3.097354
Se 15.480602 9.286923 -0.001028
Se 15.480602 6.190597 -3.097354
Se 12.384276 6.190597 6.191624
Se 12.384276 9.286923 3.095298
Se 15.480602 9.286923 6.191624
Se 15.480602 6.190597 3.095298
Se 12.384276 6.190597 12.384276
Se 12.384276 9.286923 9.287950
Se 15.480602 9.286923 12.384276
Se 15.480602 6.190597 9.287950
Se 12.384276 6.190597 18.576928
Se 12.384276 9.286923 15.480602
Se 15.480602 6.190597 15.480602
Se 15.480602 6.190597 21.673254
Se 12.384276 12.383249 -18.578984
Se 12.384276 12.383249 -12.386332
Se 12.384276 15.479575 -15.482658
Se 15.480602 15.479575 -12.386332
Se 15.480602 12.383249 -15.482658
Se 12.384276 12.383249 -6.193680
Se 12.384276 15.479575 -9.290006
Se 15.480602 15.479575 -6.193680
Se 15.480602 12.383249 -9.290006
Se 12.384276 12.383249 -0.001028
Se 12.384276 15.479575 -3.097354
Se 15.480602 15.479575 -0.001028
Se 15.480602 12.383249 -3.097354
Se 12.384276 12.383249 6.191624
Se 12.384276 15.479575 3.095298
Se 15.480602 15.479575 6.191624
Se 15.480602 12.383249 3.095298
Se 12.384276 12.383249 12.384276
Se 12.384276 15.479575 9.287950
Se 15.480602 12.383249 9.287950
Se 12.384276 18.575901 -12.386332
Se 12.384276 18.575901 -6.193680
Se 12.384276 21.672227 -9.290006
Se 15.480602 21.672227 -6.193680
Se 15.480602 18.575901 -9.290006
Se 12.384276 18.575901 -0.001028
Se 12.384276 21.672227 -3.097354
Se 15.480602 21.672227 -0.001028
Se 15.480602 18.575901 -3.097354
Se 12.384276 18.575901 6.191624
Se 12.384276 21.672227 3.095298
Se 15.480602 21.672227 6.191624
Se 15.480602 18.575901 3.095298
Se 21.673254 -15.483685 -6.193680
Se 18.576928 -18.580011 -0.001028
Se 18.576928 -15.483685 -3.097354
Se 21.673254 -15.483685 -0.001028
Se 18.576928 -18.580011 6.191624
Se 18.576928 -15.483685 3.095298
Se 21.673254 -15.483685 6.191624
Se 18.576928 -15.483685 9.287950
Se 18.576928 -12.387359 -6.193680
Se 18.576928 -9.291033 -9.290006
Se 21.673254 -9.291033 -6.193680
Se 18.576928 -12.387359 -0.001028
Se 18.576928 -9.291033 -3.097354
Se 21.673254 -9.291033 -0.001028
Se 21.673254 -12.387359 -3.097354
Se 18.576928 -12.387359 6.191624
Se 18.576928 -9.291033 3.095298
Se 21.673254 -9.291033 6.191624
Se 21.673254 -12.387359 3.095298
Se 18.576928 -12.387359 12.384276
Se 18.576928 -9.291033 9.287950
Se 21.673254 -9.291033 12.384276
Se 21.673254 -12.387359 9.287950
Se 18.576928 -9.291033 15.480602
Se 18.576928 -6.194707 -12.386332
Se 18.576928 -3.098381 -15.482658
Se 21.673254 -3.098381 -12.386332
Se 21.673254 -6.194707 -15.482658
Se 18.576928 -6.194707 -6.193680
Se 18.576928 -3.098381 -9.290006
Se 21.673254 -3.098381 -6.193680
Se 21.673254 -6.194707 -9.290006
Se 18.576928 -6.194707 -0.001028
Se 18.576928 -3.098381 -3.097354
Se 21.673254 -3.098381 -0.001028
Se 21.673254 -6.194707 -3.097354
Se 18.576928 -6.194707 6.191624
Se 18.576928 -3.098381 3.095298
Se 21.673254 -3.098381 6.191624
Se 21.673254 -6.194707 3.095298
Se 18.576928 -6.194707 12.384276
Se 18.576928 -3.098381 9.287950
Se 21.673254 -3.098381 12.384276
Se 21.673254 -6.194707 9.287950
Se 18.576928 -6.194707 18.576928
Se 18.576928 -3.098381 15.480602
Se 21.673254 -6.194707 15.480602
Se 18.576928 -0.002055 -18.578984
Se 18.576928 -0.002055 -12.386332
Se 18.576928 3.094271 -15.482658
Se 21.673254 3.094271 -12.386332
Se 21.673254 -0.002055 -15.482658
Se 18.576928 -0.002055 -6.193680
Se 18.576928 3.094271 -9.290006
Se 21.673254 3.094271 -6.193680
Se 21.673254 -0.002055 -9.290006
Se 18.576928 -0.002055 -0.001028
Se 18.576928 3.094271 -3.097354
Se 21.673254 3.094271 -0.001028
Se 21.673254 -0.002055 -3.097354
Se 18.576928 -0.002055 6.191624
Se 18.576928 3.094271 3.095298
Se 21.673254 3.094271 6.191624
Se 21.673254 -0.002055 3.095298
Se 18.576928 -0.002055 12.384276
Se 18.576928 3.094271 9.287950
Se 21.673254 3.094271 12.384276
Se 21.673254 -0.002055 9.287950
Se 18.576928 -0.002055 18.576928
Se 18.576928 3.094271 15.480602
Se 21.673254 -0.002055 15.480602
Se 18.576928 6.190597 -18.578984
Se 18.576928 6.190597 -12.386332
Se 18.576928 9.286923 -15.482658
Se 21.673254 9.286923 -12.386332
Se 21.673254 6.190597 -15.482658
Se 18.576928 6.190597 -6.193680
Se 18.576928 9.286923 -9.290006
Se 21.673254 9.286923 -6.193680
Se 21.673254 6.190597 -9.290006
Se 18.576928 6.190597 -0.001028
Se 18.576928 9.286923 -3.097354
Se 21.673254 9.286923 -0.001028
Se 21.673254 6.190597 -3.097354
Se 18.576928 6.190597 6.191624
Se 18.576928 9.286923 3.095298
Se 21.673254 9.286923 6.191624
Se 21.673254 6.190597 3.095298
Se 18.576928 6.190597 12.384276
Se 18.576928 9.286923 9.287950
Se 21.673254 6.190597 9.287950
Se 21.673254 6.190597 15.480602
Se 18.576928 12.383249 -12.386332
Se 18.576928 12.383249 -6.193680
Se 18.576928 15.479575 -9.290006
Se 21.673254 15.479575 -6.193680
Se 21.673254 12.383249 -9.290006
Se 18.576928 12.383249 -0.001028
Se 18.576928 15.479575 -3.097354
Se 21.673254 15.479575 -0.001028
Se 21.673254 12.383249 -3.097354
Se 18.576928 12.383249 6.191624
Se 18.576928 15.479575 3.095298
Se 21.673254 15.479575 6.191624
Se 21.673254 12.383249 3.095298
Se 18.576928 18.575901 -6.193680
Se 18.576928 18.575901 -0.001028
Cl -24.771636 -12.387359 -6.193680
Cl -24.771636 -9.291033 -9.290006
Cl -24.771636 -12.387359 -0.001028
Cl -24.771636 -9.291033 -3.097354
Cl -24.771636 -12.387359 6.191624
Cl -24.771636 -9.291033 3.095298
Cl -24.771636 -9.291033 9.287950
Cl -21.675310 -9.291033 12.384276
Cl -21.675310 -12.387359 9.287950
Cl -24.771636 -6.194707 -12.386332
Cl -24.771636 -6.194707 -6.193680
Cl -24.771636 -3.098381 -9.290006
Cl -24.771636 -6.194707 -0.001028
Cl -24.771636 -3.098381 -3.097354
Cl -24.771636 -6.194707 6.191624
Cl -24.771636 -3.098381 3.095298
Cl -24.771636 -6.194707 12.384276
Cl -24.771636 -3.098381 9.287950
Cl -24.771636 -0.002055 -12.386332
Cl -24.771636 -0.002055 -6.193680
Cl -24.771636 3.094271 -9.290006
Cl -24.771636 -0.002055 -0.001028
Cl -24.771636 3.094271 -3.097354
Cl -24.771636 -0.002055 6.191624
Cl -24.771636 3.094271 3.095298
Cl -24.771636 -0.002055 12.384276
Cl -24.771636 3.094271 9.287950
Cl -24.771636 6.190597 -12.386332
Cl -21.675310 9.286923 -12.386332
Cl -24.771636 6.190597 -6.193680
Cl -24.771636 9.286923 -9.290006
Cl -24.771636 6.190597 -0.001028
Cl -24.771636 9.286923 -3.097354
Cl -24.771636 6.190597 6.191624
Cl -24.771636 9.286923 3.095298
Cl -24.771636 6.190597 12.384276
Cl -24.771636 9.286923 9.287950
Cl -24.771636 12.383249 -6.193680
Cl -21.675310 12.383249 -9.290006
Cl -24.771636 12.383249 -0.001028
Cl -24.771636 12.383249 6.191624
Cl -18.578984 -18.580011 6.191624
Cl -18.578984 -15.483685 9.287950
Cl -15.482658 -15.483685 12.384276
Cl -15.482658 -18.580011 9.287950
Cl -18.578984 -12.387359 12.384276
Cl -18.578984 -9.291033 15.480602
Cl -15.482658 -9.291033 18.576928
Cl -15.482658 -12.387359 15.480602
Cl -18.578984 -6.194707 18.576928
Cl -18.578984 6.190597 -18.578984
Cl -15.482658 9.286923 -18.578984
Cl -18.578984 9.286923 -15.482658
Cl -18.578984 12.383249 -12.386332
Cl -15.482658 15.479575 -12.386332
Cl -15.482658 12.383249 -15.482658
Cl -18.578984 15.479575 -9.290006
Cl -18.578984 18.575901 -6.193680
Cl -15.482658 18.575901 -9.290006
Cl -12.386332 -24.772663 -6.193680
Cl -9.290006 -24.772663 -9.290006
Cl -12.386332 -24.772663 -0.001028
Cl -9.290006 -24.772663 -3.097354
Cl -12.386332 -24.772663 6.191624
Cl -9.290006 -24.772663 3.095298
Cl -12.386332 -21.676337 9.287950
Cl -9.290006 -21.676337 12.384276
Cl -9.290006 -24.772663 9.287950
Cl -12.386332 -18.580011 12.384276
Cl -12.386332 -15.483685 15.480602
Cl -9.290006 -15.483685 18.576928
Cl -9.290006 -18.580011 15.480602
Cl -9.290006 -9.291033 -24.771636
Cl -12.386332 -12.387359 18.576928
Cl -12.386332 -9.291033 21.673254
Cl -9.290006 -9.291033 24.769580
Cl -9.290006 -12.387359 21.673254
Cl -12.386332 -6.194707 -24.771636
Cl -9.290006 -3.098381 -24.771636
Cl -12.386332 -6.194707 24.769580
Cl -9.290006 -3.098381 24.769580
Cl -12.386332 -0.002055 -24.771636
Cl -9.290006 3.094271 -24.771636
Cl -12.386332 -0.002055 24.769580
Cl -9.290006 3.094271 24.769580
Cl -12.386332 6.190597 -24.771636
Cl -9.290006 9.286923 -24.771636
Cl -12.386332 9.286923 -21.675310
Cl -12.386332 6.190597 24.769580
Cl -9.290006 9.286923 24.769580
Cl -12.386332 12.383249 -18.578984
Cl -9.290006 15.479575 -18.578984
Cl -9.290006 12.383249 -21.675310
Cl -12.386332 15.479575 -15.482658
Cl -12.386332 18.575901 -12.386332
Cl -9.290006 21.672227 -12.386332
Cl -9.290006 18.575901 -15.482658
Cl -12.386332 21.672227 -9.290006
Cl -12.386332 24.768553 -6.193680
Cl -9.290006 24.768553 -9.290006
Cl -12.386332 24.768553 -0.001028
Cl -9.290006 24.768553 -3.097354
Cl -12.386332 24.768553 6.191624
Cl -9.290006 24.768553 3.095298
Cl -9.290006 24.768553 9.287950
Cl -6.193680 -24.772663 -12.386332
Cl -6.193680 -24.772663 -6.193680
Cl -3.097354 -24.772663 -9.290006
Cl -6.193680 -24.772663 -0.001028
Cl -3.097354 -24.772663 -3.097354
Cl -6.193680 -24.772663 6.191624
Cl -3.097354 -24.772663 3.095298
Cl -6.193680 -24.772663 12.384276
Cl -3.097354 -24.772663 9.287950
Cl -6.193680 -18.580011 18.576928
Cl -6.193680 -12.387359 -24.771636
Cl -3.097354 -9.291033 -24.771636
Cl -6.193680 -12.387359 24.769580
Cl -3.097354 -9.291033 24.769580
Cl -6.193680 -6.194707 -24.771636
Cl -3.097354 -3.098381 -24.771636
Cl -6.193680 -6.194707 24.769580
Cl -3.097354 -3.098381 24.769580
Cl -6.193680 -0.002055 -24.771636
Cl -3.097354 3.094271 -24.771636
Cl -6.193680 -0.002055 24.769580
Cl -3.097354 3.094271 24.769580
Cl -6.193680 6.190597 -24.771636
Cl -3.097354 9.286923 -24.771636
Cl -6.193680 6.190597 24.769580
Cl -3.097354 9.286923 24.769580
Cl -6.193680 12.383249 -24.771636
Cl -6.193680 12.383249 24.769580
Cl -6.193680 18.575901 -18.578984
Cl -6.193680 24.768553 -12.386332
Cl -6.193680 24.768553 -6.193680
Cl -3.097354 24.768553 -9.290006
Cl -6.193680 24.768553 -0.001028
Cl -3.097354 24.768553 -3.097354
Cl -6.193680 24.768553 6.191624
Cl -3.097354 24.768553 3.095298
Cl -6.193680 24.768553 12.384276
Cl -3.097354 24.768553 9.287950
Cl -0.001028 -24.772663 -12.386332
Cl -0.001028 -24.772663 -6.193680
Cl 3.095298 -24.772663 -9.290006
Cl -0.001028 -24.772663 -0.001028
Cl 3.095298 -24.772663 -3.097354
Cl -0.001028 -24.772663 6.191624
Cl 3.095298 -24.772663 3.095298
Cl -0.001028 -24.772663 12.384276
Cl 3.095298 -24.772663 9.287950
Cl -0.001028 -12.387359 -24.771636
Cl 3.095298 -9.291033 -24.771636
Cl -0.001028 -12.387359 24.769580
Cl 3.095298 -9.291033 24.769580
Cl -0.001028 -6.194707 -24.771636
Cl 3.095298 -3.098381 -24.771636
Cl -0.001028 -6.194707 24.769580
Cl 3.095298 -3.098381 24.769580
Cl -0.001028 -0.002055 -24.771636
Cl 3.095298 3.094271 -24.771636
Cl -0.001028 -0.002055 24.769580
Cl 3.095298 3.094271 24.769580
Cl -0.001028 6.190597 -24.771636
Cl 3.095298 9.286923 -24.771636
Cl -0.001028 6.190597 24.769580
Cl 3.095298 9.286923 24.769580
Cl -0.001028 12.383249 -24.771636
Cl -0.001028 12.383249 24.769580
Cl -0.001028 24.768553 -12.386332
Cl -0.001028 24.768553 -6.193680
Cl 3.095298 24.768553 -9.290006
Cl -0.001028 24.768553 -0.001028
Cl 3.095298 24.768553 -3.097354
Cl -0.001028 24.768553 6.191624
Cl 3.095298 24.768553 3.095298
Cl -0.001028 24.768553 12.384276
Cl 3.095298 24.768553 9.287950
Cl 6.191624 -24.772663 -12.386332
Cl 9.287950 -21.676337 -12.386332
Cl 6.191624 -24.772663 -6.193680
Cl 9.287950 -24.772663 -9.290006
Cl 6.191624 -24.772663 -0.001028
Cl 9.287950 -24.772663 -3.097354
Cl 6.191624 -24.772663 6.191624
Cl 9.287950 -24.772663 3.095298
Cl 6.191624 -24.772663 12.384276
Cl 9.287950 -24.772663 9.287950
Cl 6.191624 -18.580011 -18.578984
Cl 9.287950 -15.483685 -18.578984
Cl 9.287950 -18.580011 -15.482658
Cl 6.191624 -12.387359 -24.771636
Cl 9.287950 -9.291033 -24.771636
Cl 9.287950 -12.387359 -21.675310
Cl 6.191624 -12.387359 24.769580
Cl 9.287950 -9.291033 24.769580
Cl 6.191624 -6.194707 -24.771636
Cl 9.287950 -3.098381 -24.771636
Cl 6.191624 -6.194707 24.769580
Cl 9.287950 -3.098381 24.769580
Cl 6.191624 -0.002055 -24.771636
Cl 9.287950 3.094271 -24.771636
Cl 6.191624 -0.002055 24.769580
Cl 9.287950 3.094271 24.769580
Cl 6.191624 6.190597 -24.771636
Cl 9.287950 9.286923 -24.771636
Cl 6.191624 6.190597 24.769580
Cl 9.287950 9.286923 24.769580
Cl 6.191624 12.383249 -24.771636
Cl 9.287950 15.479575 18.576928
Cl 6.191624 12.383249 24.769580
Cl 9.287950 12.383249 21.673254
Cl 9.287950 21.672227 12.384276
Cl 6.191624 18.575901 18.576928
Cl 9.287950 18.575901 15.480602
Cl 6.191624 24.768553 -12.386332
Cl 6.191624 24.768553 -6.193680
Cl 9.287950 24.768553 -9.290006
Cl 6.191624 24.768553 -0.001028
Cl 9.287950 24.768553 -3.097354
Cl 6.191624 24.768553 6.191624
Cl 9.287950 24.768553 3.095298
Cl 6.191624 24.768553 12.384276
Cl 9.287950 24.768553 9.287950
Cl 12.384276 -24.772663 -6.193680
Cl 12.384276 -21.676337 -9.290006
Cl 12.384276 -24.772663 -0.001028
Cl 12.384276 -24.772663 6.191624
Cl 12.384276 -18.580011 -12.386332
Cl 12.384276 -15.483685 -15.482658
Cl 15.480602 -15.483685 -12.386332
Cl 15.480602 -18.580011 -9.290006
Cl 12.384276 -12.387359 -18.578984
Cl 12.384276 -9.291033 -21.675310
Cl 15.480602 -9.291033 -18.578984
Cl 15.480602 -12.387359 -15.482658
Cl 12.384276 -6.194707 -24.771636
Cl 12.384276 -6.194707 24.769580
Cl 12.384276 -0.002055 -24.771636
Cl 12.384276 -0.002055 24.769580
Cl 12.384276 6.190597 -24.771636
Cl 15.480602 9.286923 18.576928
Cl 12.384276 6.190597 24.769580
Cl 12.384276 9.286923 21.673254
Cl 15.480602 15.479575 12.384276
Cl 12.384276 12.383249 18.576928
Cl 12.384276 15.479575 15.480602
Cl 15.480602 12.383249 15.480602
Cl 12.384276 18.575901 12.384276
Cl 12.384276 21.672227 9.287950
Cl 15.480602 18.575901 9.287950
Cl 12.384276 24.768553 -6.193680
Cl 12.384276 24.768553 -0.001028
Cl 12.384276 24.768553 6.191624
Cl 18.576928 -18.580011 -6.193680
Cl 18.576928 -15.483685 -9.290006
Cl 18.576928 -12.387359 -12.386332
Cl 18.576928 -9.291033 -15.482658
Cl 21.673254 -9.291033 -12.386332
Cl 21.673254 -12.387359 -9.290006
Cl 18.576928 -6.194707 -18.578984
Cl 21.673254 9.286923 12.384276
Cl 18.576928 6.190597 18.576928
Cl 18.576928 9.286923 15.480602
Cl 18.576928 12.383249 12.384276
Cl 18.576928 15.479575 9.287950
Cl 21.673254 12.383249 9.287950
Cl 18.576928 18.575901 6.191624
Cl 24.769580 -12.387359 -6.193680
Cl 24.769580 -9.291033 -9.290006
Cl 24.769580 -12.387359 -0.001028
Cl 24.769580 -9.291033 -3.097354
Cl 24.769580 -12.387359 6.191624
Cl 24.769580 -9.291033 3.095298
Cl 24.769580 -9.291033 9.287950
Cl 24.769580 -6.194707 -12.386332
Cl 24.769580 -6.194707 -6.193680
Cl 24.769580 -3.098381 -9.290006
Cl 24.769580 -6.194707 -0.001028
Cl 24.769580 -3.098381 -3.097354
Cl 24.769580 -6.194707 6.191624
Cl 24.769580 -3.098381 3.095298
Cl 24.769580 -6.194707 12.384276
Cl 24.769580 -3.098381 9.287950
Cl 24.769580 -0.002055 -12.386332
Cl 24.769580 -0.002055 -6.193680
Cl 24.769580 3.094271 -9.290006
Cl 24.769580 -0.002055 -0.001028
Cl 24.769580 3.094271 -3.097354
Cl 24.769580 -0.002055 6.191624
Cl 24.769580 3.094271 3.095298
Cl 24.769580 -0.002055 12.384276
Cl 24.769580 3.094271 9.287950
Cl 24.769580 6.190597 -12.386332
Cl 24.769580 6.190597 -6.193680
Cl 24.769580 9.286923 -9.290006
Cl 24.769580 6.190597 -0.001028
Cl 24.769580 9.286923 -3.097354
Cl 24.769580 6.190597 6.191624
Cl 24.769580 9.286923 3.095298
Cl 24.769580 6.190597 12.384276
Cl 24.769580 9.286923 9.287950
Cl 24.769580 12.383249 -6.193680
Cl 24.769580 12.383249 -0.001028
Cl 24.769580 12.383249 6.191624
Cl -15.482658 -9.291033 -21.675310
Cl -9.290006 21.672227 15.480602
Cl 21.673254 -9.291033 15.480602
Cl 21.673254 15.479575 -9.290006
Cl -21.675310 9.286923 15.480602
Cl -15.482658 -21.676337 -9.290006
Cl 9.287950 -21.676337 15.480602
Cl 9.287950 15.479575 -21.675310
