325
CdS-Cd-Cd139S92Cl94-reconstructed
Cd -8.783056 -8.819525 -0.009335
Cd -8.783056 -2.933618 -5.895242
Cd -8.783056 -5.876572 -2.952288
Cd -8.783056 -2.933618 -0.009335
Cd -8.783056 -5.876572 2.933618
Cd -8.783056 -2.933618 5.876572
Cd -8.783056 0.009335 -8.838195
Cd -8.783056 2.952288 -5.895242
Cd -8.783056 0.009335 -2.952288
Cd -8.783056 2.952288 -0.009335
Cd -8.783056 0.009335 2.933618
Cd -8.783056 2.952288 5.876572
Cd -8.783056 0.009335 8.819525
Cd -8.783056 5.895242 -2.952288
Cd -8.783056 8.838195 -0.009335
Cd -8.783056 5.895242 2.933618
Cd -2.897149 -8.819525 -5.895242
Cd -5.840102 -8.819525 -2.952288
Cd -2.897149 -8.819525 -0.009335
Cd -5.840102 -8.819525 2.933618
Cd -2.897149 -8.819525 5.876572
Cd -2.897149 -5.876572 -8.838195
Cd -5.840102 -2.933618 -8.838195
Cd -2.897149 -2.933618 -5.895242
Cd -2.897149 -5.876572 -2.952288
Cd -5.840102 -2.933618 -2.952288
Cd -5.840102 -5.876572 -0.009335
Cd -2.897149 -2.933618 -0.009335
Cd -2.897149 -5.876572 2.933618
Cd -5.840102 -2.933618 2.933618
Cd -2.897149 -2.933618 5.876572
Cd -2.897149 -5.876572 8.819525
Cd -5.840102 -2.933618 8.819525
Cd -2.897149 0.009335 -8.838195
Cd -5.840102 2.952288 -8.838195
Cd -5.840102 0.009335 -5.895242
Cd -2.897149 2.952288 -5.895242
Cd -2.897149 0.009335 -2.952288
Cd -5.840102 2.952288 -2.952288
Cd -5.840102 0.009335 -0.009335
Cd -2.897149 2.952288 -0.009335
Cd -2.897149 0.009335 2.933618
Cd -5.840102 2.952288 2.933618
Cd -5.840102 0.009335 5.876572
Cd -2.897149 2.952288 5.876572
Cd -2.897149 0.009335 8.819525
Cd -5.840102 2.952288 8.819525
Cd -2.897149 5.895242 -8.838195
Cd -2.897149 8.838195 -5.895242
Cd -2.897149 5.895242 -2.952288
Cd -5.840102 8.838195 -2.952288
Cd -5.840102 5.895242 -0.009335
Cd -2.897149 8.838195 -0.009335
Cd -2.897149 5.895242 2.933618
Cd -5.840102 8.838195 2.933618
Cd -2.897149 8.838195 5.876572
Cd -2.897149 5.895242 8.819525
Cd 0.045805 -8.819525 -8.838195
Cd 2.988758 -8.819525 -5.895242
Cd 0.045805 -8.819525 -2.952288
Cd 2.988758 -8.819525 -0.009335
Cd 0.045805 -8.819525 2.933618
Cd 2.988758 -8.819525 5.876572
Cd 0.045805 -8.819525 8.819525
Cd 2.988758 -5.876572 -8.838195
Cd 0.045805 -2.933618 -8.838195
Cd 0.045805 -5.876572 -5.895242
Cd 2.988758 -2.933618 -5.895242
Cd 2.988758 -5.876572 -2.952288
Cd 0.045805 -2.933618 -2.952288
Cd 0.045805 -5.876572 -0.009335
Cd 2.988758 -2.933618 -0.009335
Cd 2.988758 -5.876572 2.933618
Cd 0.045805 -2.933618 2.933618
Cd 0.045805 -5.876572 5.876572
Cd 2.988758 -2.933618 5.876572
Cd 2.988758 -5.876572 8.819525
Cd 0.045805 -2.933618 8.819525
Cd 2.988758 0.009335 -8.838195
Cd 0.045805 2.952288 -8.838195
Cd 0.045805 0.009335 -5.895242
Cd 2.988758 2.952288 -5.895242
Cd 2.988758 0.009335 -2.952288
Cd 0.045805 2.952288 -2.952288
Cd 0.045805 0.009335 -0.009335
Cd 2.988758 2.952288 -0.009335
Cd 2.988758 0.009335 2.933618
Cd 0.045805 2.952288 2.933618
Cd 0.045805 0.009335 5.876572
Cd 2.988758 2.952288 5.876572
Cd 2.988758 0.009335 8.819525
Cd 0.045805 2.952288 8.819525
Cd 2.988758 5.895242 -8.838195
Cd 0.045805 8.838195 -8.838195
Cd 0.045805 5.895242 -5.895242
Cd 2.988758 8.838195 -5.895242
Cd 2.988758 5.895242 -2.952288
Cd 0.045805 8.838195 -2.952288
Cd 0.045805 5.895242 -0.009335
Cd 2.988758 8.838195 -0.009335
Cd 2.988758 5.895242 2.933618
Cd 0.045805 8.838195 2.933618
Cd 0.045805 5.895242 5.876572
Cd 2.988758 8.838195 5.876572
Cd 2.988758 5.895242 8.819525
Cd 0.045805 8.838195 8.819525
Cd 5.931712 -8.819525 -2.952288
Cd 8.874665 -8.819525 -0.009335
Cd 5.931712 -8.819525 2.933618
Cd 5.931712 -2.933618 -8.838195
Cd 8.874665 -2.933618 -5.895242
Cd 8.874665 -5.876572 -2.952288
Cd 5.931712 -2.933618 -2.952288
Cd 5.931712 -5.876572 -0.009335
Cd 8.874665 -2.933618 -0.009335
Cd 8.874665 -5.876572 2.933618
Cd 5.931712 -2.933618 2.933618
Cd 8.874665 -2.933618 5.876572
Cd 5.931712 -2.933618 8.819525
Cd 8.874665 0.009335 -8.838195
Cd 5.931712 2.952288 -8.838195
Cd 5.931712 0.009335 -5.895242
Cd 8.874665 2.952288 -5.895242
Cd 8.874665 0.009335 -2.952288
Cd 5.931712 2.952288 -2.952288
Cd 5.931712 0.009335 -0.009335
Cd 8.874665 2.952288 -0.009335
Cd 8.874665 0.009335 2.933618
Cd 5.931712 2.952288 2.933618
Cd 5.931712 0.009335 5.876572
Cd 8.874665 2.952288 5.876572
Cd 8.874665 0.009335 8.819525
Cd 5.931712 2.952288 8.819525
Cd 8.874665 5.895242 -2.952288
Cd 5.931712 8.838195 -2.952288
Cd 5.931712 5.895242 -0.009335
Cd 8.874665 8.838195 -0.009335
Cd 8.874665 5.895242 2.933618
Cd 5.931712 8.838195 2.933618
S -7.311579 -7.348049 1.462142
S -7.311579 -1.462142 -4.423765
S -7.311579 -4.405095 -1.480812
S -7.311579 -1.462142 1.462142
S -7.311579 -4.405095 4.405095
S -7.311579 -1.462142 7.348049
S -7.311579 1.480812 -7.366719
S -7.311579 4.423765 -4.423765
S -7.311579 1.480812 -1.480812
S -7.311579 4.423765 1.462142
S -7.311579 1.480812 4.405095
S -7.311579 7.366719 -1.480812
S -4.368625 -7.348049 -1.480812
S -1.425672 -7.348049 -4.423765
S -4.368625 -7.348049 4.405095
S -1.425672 -7.348049 1.462142
S -1.425672 -7.348049 7.348049
S -4.368625 -1.462142 -7.366719
S -1.425672 -4.405095 -7.366719
S -4.368625 -4.405095 -4.423765
S -4.368625 -1.462142 -1.480812
S -1.425672 -1.462142 -4.423765
S -1.425672 -4.405095 -1.480812
S -4.368625 -4.405095 1.462142
S -4.368625 -1.462142 4.405095
S -1.425672 -1.462142 1.462142
S -1.425672 -4.405095 4.405095
S -4.368625 -4.405095 7.348049
S -1.425672 -1.462142 7.348049
S -4.368625 4.423765 -7.366719
S -1.425672 1.480812 -7.366719
S -4.368625 1.480812 -4.423765
S -4.368625 4.423765 -1.480812
S -1.425672 4.423765 -4.423765
S -1.425672 1.480812 -1.480812
S -4.368625 1.480812 1.462142
S -4.368625 4.423765 4.405095
S -1.425672 4.423765 1.462142
S -1.425672 1.480812 4.405095
S -4.368625 1.480812 7.348049
S -1.425672 4.423765 7.348049
S -1.425672 7.366719 -7.366719
S -4.368625 7.366719 -4.423765
S -1.425672 7.366719 -1.480812
S -4.368625 7.366719 1.462142
S -1.425672 7.366719 4.405095
S 1.517282 -7.348049 -7.366719
S 1.517282 -7.348049 -1.480812
S 4.460235 -7.348049 -4.423765
S 1.517282 -7.348049 4.405095
S 4.460235 -7.348049 1.462142
S 1.517282 -1.462142 -7.366719
S 4.460235 -4.405095 -7.366719
S 1.517282 -4.405095 -4.423765
S 1.517282 -1.462142 -1.480812
S 4.460235 -1.462142 -4.423765
S 4.460235 -4.405095 -1.480812
S 1.517282 -4.405095 1.462142
S 1.517282 -1.462142 4.405095
S 4.460235 -1.462142 1.462142
S 4.460235 -4.405095 4.405095
S 1.517282 -4.405095 7.348049
S 4.460235 -1.462142 7.348049
S 1.517282 4.423765 -7.366719
S 4.460235 1.480812 -7.366719
S 1.517282 1.480812 -4.423765
S 1.517282 4.423765 -1.480812
S 4.460235 4.423765 -4.423765
S 4.460235 1.480812 -1.480812
S 1.517282 1.480812 1.462142
S 1.517282 4.423765 4.405095
S 4.460235 4.423765 1.462142
S 4.460235 1.480812 4.405095
S 1.517282 1.480812 7.348049
S 4.460235 4.423765 7.348049
S 1.517282 7.366719 -4.423765
S 4.460235 7.366719 -1.480812
S 1.517282 7.366719 1.462142
S 4.460235 7.366719 4.405095
S 1.517282 7.366719 7.348049
S 7.403188 -7.348049 -1.480812
S 7.403188 -1.462142 -7.366719
S 7.403188 -4.405095 -4.423765
S 7.403188 -1.462142 -1.480812
S 7.403188 -4.405095 1.462142
S 7.403188 -1.462142 4.405095
S 7.403188 1.480812 -4.423765
S 7.403188 4.423765 -1.480812
S 7.403188 1.480812 1.462142
S 7.403188 4.423765 4.405095
S 7.403188 1.480812 7.348049
S 7.403188 7.366719 1.462142
Cl -10.254532 -7.348049 -1.480812
Cl -7.311579 -7.348049 -4.423765
Cl -7.311579 -10.291002 -1.480812
Cl -10.254532 -1.462142 -7.366719
Cl -7.311579 -1.462142 -10.309672
Cl -7.311579 -4.405095 -7.366719
Cl -10.254532 -4.405095 -4.423765
Cl -10.254532 -1.462142 -1.480812
Cl -10.254532 -4.405095 1.462142
Cl -10.254532 -1.462142 4.405095
Cl -10.254532 1.480812 -4.423765
Cl -10.254532 4.423765 -1.480812
Cl -10.254532 1.480812 1.462142
Cl -10.254532 4.423765 4.405095
Cl -10.254532 1.480812 7.348049
Cl -7.311579 4.423765 7.348049
Cl -7.311579 1.480812 10.291002
Cl -10.254532 7.366719 1.462142
Cl -7.311579 10.309672 1.462142
Cl -7.311579 7.366719 4.405095
Cl -4.368625 -7.348049 -7.366719
Cl -1.425672 -7.348049 -10.309672
Cl -1.425672 -10.291002 -7.366719
Cl -4.368625 -10.291002 -4.423765
Cl -1.425672 -10.291002 -1.480812
Cl -4.368625 -10.291002 1.462142
Cl -1.425672 -10.291002 4.405095
Cl -4.368625 -4.405095 -10.309672
Cl -1.425672 -1.462142 -10.309672
Cl -4.368625 -1.462142 10.291002
Cl -1.425672 -4.405095 10.291002
Cl -4.368625 1.480812 -10.309672
Cl -1.425672 4.423765 -10.309672
Cl -4.368625 4.423765 10.291002
Cl -1.425672 1.480812 10.291002
Cl -4.368625 10.309672 -1.480812
Cl -1.425672 10.309672 -4.423765
Cl -4.368625 10.309672 4.405095
Cl -1.425672 10.309672 1.462142
Cl -4.368625 7.366719 7.348049
Cl -1.425672 10.309672 7.348049
Cl -1.425672 7.366719 10.291002
Cl 1.517282 -10.291002 -4.423765
Cl 4.460235 -10.291002 -1.480812
Cl 1.517282 -10.291002 1.462142
Cl 4.460235 -10.291002 4.405095
Cl 1.517282 -10.291002 7.348049
Cl 1.517282 -7.348049 10.291002
Cl 4.460235 -7.348049 7.348049
Cl 1.517282 -4.405095 -10.309672
Cl 4.460235 -1.462142 -10.309672
Cl 1.517282 -1.462142 10.291002
Cl 4.460235 -4.405095 10.291002
Cl 1.517282 1.480812 -10.309672
Cl 4.460235 4.423765 -10.309672
Cl 1.517282 4.423765 10.291002
Cl 4.460235 1.480812 10.291002
Cl 1.517282 7.366719 -10.309672
Cl 1.517282 10.309672 -7.366719
Cl 4.460235 7.366719 -7.366719
Cl 1.517282 10.309672 -1.480812
Cl 4.460235 10.309672 -4.423765
Cl 1.517282 10.309672 4.405095
Cl 4.460235 10.309672 1.462142
Cl 7.403188 -10.291002 1.462142
Cl 7.403188 -7.348049 4.405095
Cl 10.346142 -7.348049 1.462142
Cl 10.346142 -1.462142 -4.423765
Cl 10.346142 -4.405095 -1.480812
Cl 10.346142 -1.462142 1.462142
Cl 10.346142 -4.405095 4.405095
Cl 7.403188 -4.405095 7.348049
Cl 7.403188 -1.462142 10.291002
Cl 10.346142 -1.462142 7.348049
Cl 7.403188 1.480812 -10.309672
Cl 7.403188 4.423765 -7.366719
Cl 10.346142 1.480812 -7.366719
Cl 10.346142 4.423765 -4.423765
Cl 10.346142 1.480812 -1.480812
Cl 10.346142 4.423765 1.462142
Cl 10.346142 1.480812 4.405095
Cl 7.403188 7.366719 -4.423765
Cl 7.403188 10.309672 -1.480812
Cl 10.346142 7.366719 -1.480812
Cl -7.397480 -7.433949 4.400072
Cl -7.397480 4.418742 -7.452619
Cl 4.455212 -7.433949 -7.452619
Cl 4.455212 7.452619 7.433949
Cl -7.397480 -4.400072 7.433949
Cl -7.397480 7.452619 -4.418742
Cl 7.489089 -7.433949 -4.418742
Cl 7.489089 4.418742 7.433949
Cl -4.363602 -7.433949 7.433949
Cl -4.363602 7.452619 -7.452619
