381
CdSe-Se-Cd176Se147Cl58-clean
Cd -10.713715 -4.597348 -4.613465
Cd -10.713715 -7.667620 -1.543194
Cd -10.713715 -4.597348 1.527077
Cd -10.713715 -1.527077 -7.683736
Cd -10.713715 1.543194 -4.613465
Cd -10.713715 -1.527077 -1.543194
Cd -10.713715 1.543194 1.527077
Cd -10.713715 -1.527077 4.597348
Cd -10.713715 1.543194 7.667620
Cd -10.713715 4.613465 -1.543194
Cd -10.713715 7.683736 1.527077
Cd -10.713715 4.613465 4.597348
Cd -4.573173 -10.737891 -4.613465
Cd -7.643444 -10.737891 -1.543194
Cd -4.573173 -10.737891 1.527077
Cd -4.573173 -4.597348 -10.754008
Cd -4.573173 -7.667620 -7.683736
Cd -7.643444 -4.597348 -7.683736
Cd -7.643444 -7.667620 -4.613465
Cd -4.573173 -4.597348 -4.613465
Cd -4.573173 -7.667620 -1.543194
Cd -7.643444 -4.597348 -1.543194
Cd -7.643444 -7.667620 1.527077
Cd -4.573173 -4.597348 1.527077
Cd -4.573173 -7.667620 4.597348
Cd -7.643444 -4.597348 4.597348
Cd -4.573173 -4.597348 7.667620
Cd -7.643444 -1.527077 -10.754008
Cd -4.573173 1.543194 -10.754008
Cd -4.573173 -1.527077 -7.683736
Cd -7.643444 1.543194 -7.683736
Cd -7.643444 -1.527077 -4.613465
Cd -4.573173 1.543194 -4.613465
Cd -4.573173 -1.527077 -1.543194
Cd -7.643444 1.543194 -1.543194
Cd -7.643444 -1.527077 1.527077
Cd -4.573173 1.543194 1.527077
Cd -4.573173 -1.527077 4.597348
Cd -7.643444 1.543194 4.597348
Cd -7.643444 -1.527077 7.667620
Cd -4.573173 1.543194 7.667620
Cd -4.573173 -1.527077 10.737891
Cd -7.643444 1.543194 10.737891
Cd -4.573173 4.613465 -7.683736
Cd -7.643444 4.613465 -4.613465
Cd -4.573173 7.683736 -4.613465
Cd -4.573173 4.613465 -1.543194
Cd -7.643444 7.683736 -1.543194
Cd -7.643444 4.613465 1.527077
Cd -4.573173 7.683736 1.527077
Cd -4.573173 4.613465 4.597348
Cd -7.643444 7.683736 4.597348
Cd -7.643444 4.613465 7.667620
Cd -4.573173 7.683736 7.667620
Cd -4.573173 4.613465 10.737891
Cd -4.573173 10.754008 -1.543194
Cd -7.643444 10.754008 1.527077
Cd -4.573173 10.754008 4.597348
Cd -1.502902 -10.737891 -7.683736
Cd 1.567369 -10.737891 -4.613465
Cd -1.502902 -10.737891 -1.543194
Cd 1.567369 -10.737891 1.527077
Cd -1.502902 -10.737891 4.597348
Cd 1.567369 -10.737891 7.667620
Cd -1.502902 -7.667620 -10.754008
Cd 1.567369 -4.597348 -10.754008
Cd 1.567369 -7.667620 -7.683736
Cd -1.502902 -4.597348 -7.683736
Cd -1.502902 -7.667620 -4.613465
Cd 1.567369 -4.597348 -4.613465
Cd 1.567369 -7.667620 -1.543194
Cd -1.502902 -4.597348 -1.543194
Cd -1.502902 -7.667620 1.527077
Cd 1.567369 -4.597348 1.527077
Cd 1.567369 -7.667620 4.597348
Cd -1.502902 -4.597348 4.597348
Cd -1.502902 -7.667620 7.667620
Cd 1.567369 -4.597348 7.667620
Cd 1.567369 -7.667620 10.737891
Cd -1.502902 -4.597348 10.737891
Cd -1.502902 -1.527077 -10.754008
Cd 1.567369 1.543194 -10.754008
Cd 1.567369 -1.527077 -7.683736
Cd -1.502902 1.543194 -7.683736
Cd -1.502902 -1.527077 -4.613465
Cd 1.567369 1.543194 -4.613465
Cd 1.567369 -1.527077 -1.543194
Cd -1.502902 1.543194 -1.543194
Cd -1.502902 -1.527077 1.527077
Cd 1.567369 1.543194 1.527077
Cd 1.567369 -1.527077 4.597348
Cd -1.502902 1.543194 4.597348
Cd -1.502902 -1.527077 7.667620
Cd 1.567369 1.543194 7.667620
Cd 1.567369 -1.527077 10.737891
Cd -1.502902 1.543194 10.737891
Cd -1.502902 4.613465 -10.754008
Cd 1.567369 7.683736 -10.754008
Cd 1.567369 4.613465 -7.683736
Cd -1.502902 7.683736 -7.683736
Cd -1.502902 4.613465 -4.613465
Cd 1.567369 7.683736 -4.613465
Cd 1.567369 4.613465 -1.543194
Cd -1.502902 7.683736 -1.543194
Cd -1.502902 4.613465 1.527077
Cd 1.567369 7.683736 1.527077
Cd 1.567369 4.613465 4.597348
Cd -1.502902 7.683736 4.597348
Cd -1.502902 4.613465 7.667620
Cd 1.567369 7.683736 7.667620
Cd 1.567369 4.613465 10.737891
Cd -1.502902 7.683736 10.737891
Cd 1.567369 10.754008 -7.683736
Cd -1.502902 10.754008 -4.613465
Cd 1.567369 10.754008 -1.543194
Cd -1.502902 10.754008 1.527077
Cd 1.567369 10.754008 4.597348
Cd -1.502902 10.754008 7.667620
Cd 4.637641 -10.737891 -1.543194
Cd 7.707912 -10.737891 1.527077
Cd 4.637641 -10.737891 4.597348
Cd 4.637641 -4.597348 -7.683736
Cd 4.637641 -7.667620 -4.613465
Cd 7.707912 -4.597348 -4.613465
Cd 7.707912 -7.667620 -1.543194
Cd 4.637641 -4.597348 -1.543194
Cd 4.637641 -7.667620 1.527077
Cd 7.707912 -4.597348 1.527077
Cd 7.707912 -7.667620 4.597348
Cd 4.637641 -4.597348 4.597348
Cd 4.637641 -7.667620 7.667620
Cd 7.707912 -4.597348 7.667620
Cd 4.637641 -4.597348 10.737891
Cd 4.637641 -1.527077 -10.754008
Cd 7.707912 1.543194 -10.754008
Cd 7.707912 -1.527077 -7.683736
Cd 4.637641 1.543194 -7.683736
Cd 4.637641 -1.527077 -4.613465
Cd 7.707912 1.543194 -4.613465
Cd 7.707912 -1.527077 -1.543194
Cd 4.637641 1.543194 -1.543194
Cd 4.637641 -1.527077 1.527077
Cd 7.707912 1.543194 1.527077
Cd 7.707912 -1.527077 4.597348
Cd 4.637641 1.543194 4.597348
Cd 4.637641 -1.527077 7.667620
Cd 7.707912 1.543194 7.667620
Cd 7.707912 -1.527077 10.737891
Cd 4.637641 1.543194 10.737891
Cd 4.637641 4.613465 -10.754008
Cd 7.707912 4.613465 -7.683736
Cd 4.637641 7.683736 -7.683736
Cd 4.637641 4.613465 -4.613465
Cd 7.707912 7.683736 -4.613465
Cd 7.707912 4.613465 -1.543194
Cd 4.637641 7.683736 -1.543194
Cd 4.637641 4.613465 1.527077
Cd 7.707912 7.683736 1.527077
Cd 7.707912 4.613465 4.597348
Cd 4.637641 7.683736 4.597348
Cd 4.637641 4.613465 7.667620
Cd 4.637641 10.754008 -4.613465
Cd 7.707912 10.754008 -1.543194
Cd 4.637641 10.754008 1.527077
Cd 10.778183 -4.597348 -1.543194
Cd 10.778183 -7.667620 1.527077
Cd 10.778183 -4.597348 4.597348
Cd 10.778183 1.543194 -7.683736
Cd 10.778183 -1.527077 -4.613465
Cd 10.778183 1.543194 -1.543194
Cd 10.778183 -1.527077 1.527077
Cd 10.778183 1.543194 4.597348
Cd 10.778183 -1.527077 7.667620
Cd 10.778183 4.613465 -4.613465
Cd 10.778183 7.683736 -1.543194
Cd 10.778183 4.613465 1.527077
Se -9.178580 -9.202755 -0.008058
Se -9.178580 -3.062213 -6.148601
Se -9.178580 -3.062213 -0.008058
Se -9.178580 -6.132484 -3.078330
Se -9.178580 -3.062213 6.132484
Se -9.178580 -6.132484 3.062213
Se -9.178580 3.078330 -6.148601
Se -9.178580 0.008058 -9.218872
Se -9.178580 3.078330 -0.008058
Se -9.178580 0.008058 -3.078330
Se -9.178580 3.078330 6.132484
Se -9.178580 0.008058 3.062213
Se -9.178580 0.008058 9.202755
Se -9.178580 9.218872 -0.008058
Se -9.178580 6.148601 -3.078330
Se -9.178580 6.148601 3.062213
Se -3.038037 -9.202755 -6.148601
Se -6.108309 -9.202755 -3.078330
Se -3.038037 -9.202755 -0.008058
Se -6.108309 -9.202755 3.062213
Se -3.038037 -9.202755 6.132484
Se -6.108309 -6.132484 -6.148601
Se -6.108309 -3.062213 -9.218872
Se -3.038037 -3.062213 -6.148601
Se -3.038037 -6.132484 -9.218872
Se -6.108309 -6.132484 -0.008058
Se -6.108309 -3.062213 -3.078330
Se -3.038037 -3.062213 -0.008058
Se -3.038037 -6.132484 -3.078330
Se -6.108309 -6.132484 6.132484
Se -6.108309 -3.062213 3.062213
Se -3.038037 -3.062213 6.132484
Se -3.038037 -6.132484 3.062213
Se -6.108309 -3.062213 9.202755
Se -3.038037 -6.132484 9.202755
Se -6.108309 0.008058 -6.148601
Se -6.108309 3.078330 -9.218872
Se -3.038037 3.078330 -6.148601
Se -3.038037 0.008058 -9.218872
Se -6.108309 0.008058 -0.008058
Se -6.108309 3.078330 -3.078330
Se -3.038037 3.078330 -0.008058
Se -3.038037 0.008058 -3.078330
Se -6.108309 0.008058 6.132484
Se -6.108309 3.078330 3.062213
Se -3.038037 3.078330 6.132484
Se -3.038037 0.008058 3.062213
Se -6.108309 3.078330 9.202755
Se -3.038037 0.008058 9.202755
Se -6.108309 6.148601 -6.148601
Se -3.038037 9.218872 -6.148601
Se -3.038037 6.148601 -9.218872
Se -6.108309 6.148601 -0.008058
Se -6.108309 9.218872 -3.078330
Se -3.038037 9.218872 -0.008058
Se -3.038037 6.148601 -3.078330
Se -6.108309 6.148601 6.132484
Se -6.108309 9.218872 3.062213
Se -3.038037 9.218872 6.132484
Se -3.038037 6.148601 3.062213
Se -3.038037 6.148601 9.202755
Se 0.032234 -9.202755 -9.218872
Se 3.102505 -9.202755 -6.148601
Se 0.032234 -9.202755 -3.078330
Se 3.102505 -9.202755 -0.008058
Se 0.032234 -9.202755 3.062213
Se 3.102505 -9.202755 6.132484
Se 0.032234 -9.202755 9.202755
Se 0.032234 -6.132484 -6.148601
Se 0.032234 -3.062213 -9.218872
Se 3.102505 -3.062213 -6.148601
Se 3.102505 -6.132484 -9.218872
Se 0.032234 -6.132484 -0.008058
Se 0.032234 -3.062213 -3.078330
Se 3.102505 -3.062213 -0.008058
Se 3.102505 -6.132484 -3.078330
Se 0.032234 -6.132484 6.132484
Se 0.032234 -3.062213 3.062213
Se 3.102505 -3.062213 6.132484
Se 3.102505 -6.132484 3.062213
Se 0.032234 -3.062213 9.202755
Se 3.102505 -6.132484 9.202755
Se 0.032234 0.008058 -6.148601
Se 0.032234 3.078330 -9.218872
Se 3.102505 3.078330 -6.148601
Se 3.102505 0.008058 -9.218872
Se 0.032234 0.008058 -0.008058
Se 0.032234 3.078330 -3.078330
Se 3.102505 3.078330 -0.008058
Se 3.102505 0.008058 -3.078330
Se 0.032234 0.008058 6.132484
Se 0.032234 3.078330 3.062213
Se 3.102505 3.078330 6.132484
Se 3.102505 0.008058 3.062213
Se 0.032234 3.078330 9.202755
Se 3.102505 0.008058 9.202755
Se 0.032234 6.148601 -6.148601
Se 0.032234 9.218872 -9.218872
Se 3.102505 9.218872 -6.148601
Se 3.102505 6.148601 -9.218872
Se 0.032234 6.148601 -0.008058
Se 0.032234 9.218872 -3.078330
Se 3.102505 9.218872 -0.008058
Se 3.102505 6.148601 -3.078330
Se 0.032234 6.148601 6.132484
Se 0.032234 9.218872 3.062213
Se 3.102505 9.218872 6.132484
Se 3.102505 6.148601 3.062213
Se 0.032234 9.218872 9.202755
Se 3.102505 6.148601 9.202755
Se 6.172776 -9.202755 -3.078330
Se 9.243047 -9.202755 -0.008058
Se 6.172776 -9.202755 3.062213
Se 6.172776 -6.132484 -6.148601
Se 6.172776 -3.062213 -9.218872
Se 9.243047 -3.062213 -6.148601
Se 6.172776 -6.132484 -0.008058
Se 6.172776 -3.062213 -3.078330
Se 9.243047 -3.062213 -0.008058
Se 9.243047 -6.132484 -3.078330
Se 6.172776 -6.132484 6.132484
Se 6.172776 -3.062213 3.062213
Se 9.243047 -3.062213 6.132484
Se 9.243047 -6.132484 3.062213
Se 6.172776 -3.062213 9.202755
Se 6.172776 0.008058 -6.148601
Se 6.172776 3.078330 -9.218872
Se 9.243047 3.078330 -6.148601
Se 9.243047 0.008058 -9.218872
Se 6.172776 0.008058 -0.008058
Se 6.172776 3.078330 -3.078330
Se 9.243047 3.078330 -0.008058
Se 9.243047 0.008058 -3.078330
Se 6.172776 0.008058 6.132484
Se 6.172776 3.078330 3.062213
Se 9.243047 3.078330 6.132484
Se 9.243047 0.008058 3.062213
Se 6.172776 3.078330 9.202755
Se 9.243047 0.008058 9.202755
Se 6.172776 6.148601 -6.148601
Se 6.172776 6.148601 -0.008058
Se 6.172776 9.218872 -3.078330
Se 9.243047 9.218872 -0.008058
Se 9.243047 6.148601 -3.078330
Se 6.172776 6.148601 6.132484
Se 6.172776 9.218872 3.062213
Se 9.243047 6.148601 3.062213
Cl -12.248851 -6.132484 -0.008058
Cl -12.248851 -3.062213 -3.078330
Cl -12.248851 -3.062213 3.062213
Cl -12.248851 0.008058 -6.148601
Cl -12.248851 0.008058 -0.008058
Cl -12.248851 3.078330 -3.078330
Cl -12.248851 0.008058 6.132484
Cl -12.248851 3.078330 3.062213
Cl -12.248851 6.148601 -0.008058
Cl -6.108309 -12.273026 -0.008058
Cl -3.038037 -12.273026 -3.078330
Cl -3.038037 -12.273026 3.062213
Cl -3.038037 -3.062213 -12.289143
Cl -3.038037 -3.062213 12.273026
Cl -6.108309 0.008058 -12.289143
Cl -3.038037 3.078330 -12.289143
Cl -6.108309 0.008058 12.273026
Cl -3.038037 3.078330 12.273026
Cl -6.108309 12.289143 -0.008058
Cl -3.038037 12.289143 -3.078330
Cl -3.038037 12.289143 3.062213
Cl 0.032234 -12.273026 -6.148601
Cl 0.032234 -12.273026 -0.008058
Cl 3.102505 -12.273026 -3.078330
Cl 0.032234 -12.273026 6.132484
Cl 3.102505 -12.273026 3.062213
Cl 0.032234 -6.132484 -12.289143
Cl 3.102505 -3.062213 -12.289143
Cl 0.032234 -6.132484 12.273026
Cl 3.102505 -3.062213 12.273026
Cl 0.032234 0.008058 -12.289143
Cl 3.102505 3.078330 -12.289143
Cl 0.032234 0.008058 12.273026
Cl 3.102505 3.078330 12.273026
Cl 0.032234 6.148601 -12.289143
Cl 0.032234 6.148601 12.273026
Cl 0.032234 12.289143 -6.148601
Cl 0.032234 12.289143 -0.008058
Cl 3.102505 12.289143 -3.078330
Cl 0.032234 12.289143 6.132484
Cl 3.102505 12.289143 3.062213
Cl 6.172776 -12.273026 -0.008058
Cl 6.172776 0.008058 -12.289143
Cl 6.172776 0.008058 12.273026
Cl 6.172776 12.289143 -0.008058
Cl 12.313319 -6.132484 -0.008058
Cl 12.313319 -3.062213 -3.078330
Cl 12.313319 -3.062213 3.062213
Cl 12.313319 0.008058 -6.148601
Cl 12.313319 0.008058 -0.008058
Cl 12.313319 3.078330 -3.078330
Cl 12.313319 0.008058 6.132484
Cl 12.313319 3.078330 3.062213
Cl 12.313319 6.148601 -0.008058
Cl -9.178580 -6.132484 -6.148601
Cl -9.178580 3.078330 9.202755
Cl 3.102505 -9.202755 9.202755
Cl 3.102505 9.218872 -9.218872
