711
PbSe-Se-Pb340Se309Cl62-clean
Pb -9.263776 -9.272471 -9.272471
Pb -9.263776 -12.363294 -6.181647
Pb -12.354600 -9.272471 -6.181647
Pb -12.354600 -12.363294 -3.090824
Pb -9.263776 -9.272471 -3.090824
Pb -9.263776 -12.363294 -0.000000
Pb -12.354600 -9.272471 -0.000000
Pb -12.354600 -12.363294 3.090824
Pb -9.263776 -9.272471 3.090824
Pb -9.263776 -12.363294 6.181647
Pb -12.354600 -9.272471 6.181647
Pb -9.263776 -9.272471 9.272471
Pb -9.263776 -6.181647 -12.363294
Pb -12.354600 -3.090824 -12.363294
Pb -12.354600 -6.181647 -9.272471
Pb -9.263776 -3.090824 -9.272471
Pb -9.263776 -6.181647 -6.181647
Pb -12.354600 -3.090824 -6.181647
Pb -12.354600 -6.181647 -3.090824
Pb -9.263776 -3.090824 -3.090824
Pb -9.263776 -6.181647 -0.000000
Pb -12.354600 -3.090824 -0.000000
Pb -12.354600 -6.181647 3.090824
Pb -9.263776 -3.090824 3.090824
Pb -9.263776 -6.181647 6.181647
Pb -12.354600 -3.090824 6.181647
Pb -12.354600 -6.181647 9.272471
Pb -9.263776 -3.090824 9.272471
Pb -9.263776 -6.181647 12.363294
Pb -12.354600 -3.090824 12.363294
Pb -9.263776 -0.000000 -12.363294
Pb -12.354600 3.090824 -12.363294
Pb -12.354600 -0.000000 -9.272471
Pb -9.263776 3.090824 -9.272471
Pb -9.263776 -0.000000 -6.181647
Pb -12.354600 3.090824 -6.181647
Pb -12.354600 -0.000000 -3.090824
Pb -9.263776 3.090824 -3.090824
Pb -9.263776 -0.000000 -0.000000
Pb -12.354600 3.090824 -0.000000
Pb -12.354600 -0.000000 3.090824
Pb -9.263776 3.090824 3.090824
Pb -9.263776 -0.000000 6.181647
Pb -12.354600 3.090824 6.181647
Pb -12.354600 -0.000000 9.272471
Pb -9.263776 3.090824 9.272471
Pb -9.263776 -0.000000 12.363294
Pb -12.354600 3.090824 12.363294
Pb -9.263776 6.181647 -12.363294
Pb -12.354600 6.181647 -9.272471
Pb -9.263776 9.272471 -9.272471
Pb -9.263776 6.181647 -6.181647
Pb -12.354600 9.272471 -6.181647
Pb -12.354600 6.181647 -3.090824
Pb -9.263776 9.272471 -3.090824
Pb -9.263776 6.181647 -0.000000
Pb -12.354600 9.272471 -0.000000
Pb -12.354600 6.181647 3.090824
Pb -9.263776 9.272471 3.090824
Pb -9.263776 6.181647 6.181647
Pb -12.354600 9.272471 6.181647
Pb -12.354600 6.181647 9.272471
Pb -9.263776 9.272471 9.272471
Pb -9.263776 6.181647 12.363294
Pb -9.263776 12.363294 -6.181647
Pb -12.354600 12.363294 -3.090824
Pb -9.263776 12.363294 0.000000
Pb -12.354600 12.363294 3.090824
Pb -9.263776 12.363294 6.181647
Pb -3.082129 -12.363294 -12.363294
Pb -6.172953 -9.272471 -12.363294
Pb -6.172953 -12.363294 -9.272471
Pb -3.082129 -9.272471 -9.272471
Pb -3.082129 -12.363294 -6.181647
Pb -6.172953 -9.272471 -6.181647
Pb -6.172953 -12.363294 -3.090824
Pb -3.082129 -9.272471 -3.090824
Pb -3.082129 -12.363294 -0.000000
Pb -6.172953 -9.272471 -0.000000
Pb -6.172953 -12.363294 3.090824
Pb -3.082129 -9.272471 3.090824
Pb -3.082129 -12.363294 6.181647
Pb -6.172953 -9.272471 6.181647
Pb -6.172953 -12.363294 9.272471
Pb -3.082129 -9.272471 9.272471
Pb -3.082129 -12.363294 12.363294
Pb -6.172953 -9.272471 12.363294
Pb -3.082129 -6.181647 -12.363294
Pb -6.172953 -3.090824 -12.363294
Pb -6.172953 -6.181647 -9.272471
Pb -3.082129 -3.090824 -9.272471
Pb -3.082129 -6.181647 -6.181647
Pb -6.172953 -3.090824 -6.181647
Pb -6.172953 -6.181647 -3.090824
Pb -3.082129 -3.090824 -3.090824
Pb -3.082129 -6.181647 -0.000000
Pb -6.172953 -3.090824 -0.000000
Pb -6.172953 -6.181647 3.090824
Pb -3.082129 -3.090824 3.090824
Pb -3.082129 -6.181647 6.181647
Pb -6.172953 -3.090824 6.181647
Pb -6.172953 -6.181647 9.272471
Pb -3.082129 -3.090824 9.272471
Pb -3.082129 -6.181647 12.363294
Pb -6.172953 -3.090824 12.363294
Pb -3.082129 -0.000000 -12.363294
Pb -6.172953 3.090824 -12.363294
Pb -6.172953 -0.000000 -9.272471
Pb -3.082129 3.090824 -9.272471
Pb -3.082129 -0.000000 -6.181647
Pb -6.172953 3.090824 -6.181647
Pb -6.172953 -0.000000 -3.090824
Pb -3.082129 3.090824 -3.090824
Pb -3.082129 -0.000000 -0.000000
Pb -6.172953 3.090824 -0.000000
Pb -6.172953 -0.000000 3.090824
Pb -3.082129 3.090824 3.090824
Pb -3.082129 -0.000000 6.181647
Pb -6.172953 3.090824 6.181647
Pb -6.172953 -0.000000 9.272471
Pb -3.082129 3.090824 9.272471
Pb -3.082129 -0.000000 12.363294
Pb -6.172953 3.090824 12.363294
Pb -3.082129 6.181647 -12.363294
Pb -6.172953 9.272471 -12.363294
Pb -6.172953 6.181647 -9.272471
Pb -3.082129 9.272471 -9.272471
Pb -3.082129 6.181647 -6.181647
Pb -6.172953 9.272471 -6.181647
Pb -6.172953 6.181647 -3.090824
Pb -3.082129 9.272471 -3.090824
Pb -3.082129 6.181647 0.000000
Pb -6.172953 9.272471 0.000000
Pb -6.172953 6.181647 3.090824
Pb -3.082129 9.272471 3.090824
Pb -3.082129 6.181647 6.181647
Pb -6.172953 9.272471 6.181647
Pb -6.172953 6.181647 9.272471
Pb -3.082129 9.272471 9.272471
Pb -3.082129 6.181647 12.363294
Pb -6.172953 9.272471 12.363294
Pb -3.082129 12.363294 -12.363294
Pb -6.172953 12.363294 -9.272471
Pb -3.082129 12.363294 -6.181647
Pb -6.172953 12.363294 -3.090824
Pb -3.082129 12.363294 0.000000
Pb -6.172953 12.363294 3.090824
Pb -3.082129 12.363294 6.181647
Pb -6.172953 12.363294 9.272471
Pb -3.082129 12.363294 12.363294
Pb 3.099518 -12.363294 -12.363294
Pb 0.008694 -9.272471 -12.363294
Pb 0.008694 -12.363294 -9.272471
Pb 3.099518 -9.272471 -9.272471
Pb 3.099518 -12.363294 -6.181647
Pb 0.008694 -9.272471 -6.181647
Pb 0.008694 -12.363294 -3.090824
Pb 3.099518 -9.272471 -3.090824
Pb 3.099518 -12.363294 -0.000000
Pb 0.008694 -9.272471 -0.000000
Pb 0.008694 -12.363294 3.090824
Pb 3.099518 -9.272471 3.090824
Pb 3.099518 -12.363294 6.181647
Pb 0.008694 -9.272471 6.181647
Pb 0.008694 -12.363294 9.272471
Pb 3.099518 -9.272471 9.272471
Pb 3.099518 -12.363294 12.363294
Pb 0.008694 -9.272471 12.363294
Pb 3.099518 -6.181647 -12.363294
Pb 0.008694 -3.090824 -12.363294
Pb 0.008694 -6.181647 -9.272471
Pb 3.099518 -3.090824 -9.272471
Pb 3.099518 -6.181647 -6.181647
Pb 0.008694 -3.090824 -6.181647
Pb 0.008694 -6.181647 -3.090824
Pb 3.099518 -3.090824 -3.090824
Pb 3.099518 -6.181647 -0.000000
Pb 0.008694 -3.090824 -0.000000
Pb 0.008694 -6.181647 3.090824
Pb 3.099518 -3.090824 3.090824
Pb 3.099518 -6.181647 6.181647
Pb 0.008694 -3.090824 6.181647
Pb 0.008694 -6.181647 9.272471
Pb 3.099518 -3.090824 9.272471
Pb 3.099518 -6.181647 12.363294
Pb 0.008694 -3.090824 12.363294
Pb 3.099518 -0.000000 -12.363294
Pb 0.008694 3.090824 -12.363294
Pb 0.008694 -0.000000 -9.272471
Pb 3.099518 3.090824 -9.272471
Pb 3.099518 -0.000000 -6.181647
Pb 0.008694 3.090824 -6.181647
Pb 0.008694 -0.000000 -3.090824
Pb 3.099518 3.090824 -3.090824
Pb 3.099518 -0.000000 0.000000
Pb 0.008694 3.090824 0.000000
Pb 0.008694 -0.000000 3.090824
Pb 3.099518 3.090824 3.090824
Pb 3.099518 -0.000000 6.181647
Pb 0.008694 3.090824 6.181647
Pb 0.008694 -0.000000 9.272471
Pb 3.099518 3.090824 9.272471
Pb 3.099518 -0.000000 12.363294
Pb 0.008694 3.090824 12.363294
Pb 3.099518 6.181647 -12.363294
Pb 0.008694 9.272471 -12.363294
Pb 0.008694 6.181647 -9.272471
Pb 3.099518 9.272471 -9.272471
Pb 3.099518 6.181647 -6.181647
Pb 0.008694 9.272471 -6.181647
Pb 0.008694 6.181647 -3.090824
Pb 3.099518 9.272471 -3.090824
Pb 3.099518 6.181647 0.000000
Pb 0.008694 9.272471 0.000000
Pb 0.008694 6.181647 3.090824
Pb 3.099518 9.272471 3.090824
Pb 3.099518 6.181647 6.181647
Pb 0.008694 9.272471 6.181647
Pb 0.008694 6.181647 9.272471
Pb 3.099518 9.272471 9.272471
Pb 3.099518 6.181647 12.363294
Pb 0.008694 9.272471 12.363294
Pb 3.099518 12.363294 -12.363294
Pb 0.008694 12.363294 -9.272471
Pb 3.099518 12.363294 -6.181647
Pb 0.008694 12.363294 -3.090824
Pb 3.099518 12.363294 0.000000
Pb 0.008694 12.363294 3.090824
Pb 3.099518 12.363294 6.181647
Pb 0.008694 12.363294 9.272471
Pb 3.099518 12.363294 12.363294
Pb 6.190341 -9.272471 -12.363294
Pb 6.190341 -12.363294 -9.272471
Pb 9.281165 -9.272471 -9.272471
Pb 9.281165 -12.363294 -6.181647
Pb 6.190341 -9.272471 -6.181647
Pb 6.190341 -12.363294 -3.090824
Pb 9.281165 -9.272471 -3.090824
Pb 9.281165 -12.363294 -0.000000
Pb 6.190341 -9.272471 -0.000000
Pb 6.190341 -12.363294 3.090824
Pb 9.281165 -9.272471 3.090824
Pb 9.281165 -12.363294 6.181647
Pb 6.190341 -9.272471 6.181647
Pb 6.190341 -12.363294 9.272471
Pb 9.281165 -9.272471 9.272471
Pb 6.190341 -9.272471 12.363294
Pb 9.281165 -6.181647 -12.363294
Pb 6.190341 -3.090824 -12.363294
Pb 6.190341 -6.181647 -9.272471
Pb 9.281165 -3.090824 -9.272471
Pb 9.281165 -6.181647 -6.181647
Pb 6.190341 -3.090824 -6.181647
Pb 6.190341 -6.181647 -3.090824
Pb 9.281165 -3.090824 -3.090824
Pb 9.281165 -6.181647 0.000000
Pb 6.190341 -3.090824 0.000000
Pb 6.190341 -6.181647 3.090824
Pb 9.281165 -3.090824 3.090824
Pb 9.281165 -6.181647 6.181647
Pb 6.190341 -3.090824 6.181647
Pb 6.190341 -6.181647 9.272471
Pb 9.281165 -3.090824 9.272471
Pb 9.281165 -6.181647 12.363294
Pb 6.190341 -3.090824 12.363294
Pb 9.281165 -0.000000 -12.363294
Pb 6.190341 3.090824 -12.363294
Pb 6.190341 -0.000000 -9.272471
Pb 9.281165 3.090824 -9.272471
Pb 9.281165 -0.000000 -6.181647
Pb 6.190341 3.090824 -6.181647
Pb 6.190341 -0.000000 -3.090824
Pb 9.281165 3.090824 -3.090824
Pb 9.281165 -0.000000 0.000000
Pb 6.190341 3.090824 0.000000
Pb 6.190341 -0.000000 3.090824
Pb 9.281165 3.090824 3.090824
Pb 9.281165 -0.000000 6.181647
Pb 6.190341 3.090824 6.181647
Pb 6.190341 -0.000000 9.272471
Pb 9.281165 3.090824 9.272471
Pb 9.281165 -0.000000 12.363294
Pb 6.190341 3.090824 12.363294
Pb 9.281165 6.181647 -12.363294
Pb 6.190341 9.272471 -12.363294
Pb 6.190341 6.181647 -9.272471
Pb 9.281165 9.272471 -9.272471
Pb 9.281165 6.181647 -6.181647
Pb 6.190341 9.272471 -6.181647
Pb 6.190341 6.181647 -3.090824
Pb 9.281165 9.272471 -3.090824
Pb 9.281165 6.181647 0.000000
Pb 6.190341 9.272471 0.000000
Pb 6.190341 6.181647 3.090824
Pb 9.281165 9.272471 3.090824
Pb 9.281165 6.181647 6.181647
Pb 6.190341 9.272471 6.181647
Pb 6.190341 6.181647 9.272471
Pb 9.281165 9.272471 9.272471
Pb 9.281165 6.181647 12.363294
Pb 6.190341 9.272471 12.363294
Pb 6.190341 12.363294 -9.272471
Pb 9.281165 12.363294 -6.181647
Pb 6.190341 12.363294 -3.090824
Pb 9.281165 12.363294 0.000000
Pb 6.190341 12.363294 3.090824
Pb 9.281165 12.363294 6.181647
Pb 6.190341 12.363294 9.272471
Pb 12.371988 -9.272471 -6.181647
Pb 12.371988 -12.363294 -3.090824
Pb 12.371988 -9.272471 0.000000
Pb 12.371988 -12.363294 3.090824
Pb 12.371988 -9.272471 6.181647
Pb 12.371988 -3.090824 -12.363294
Pb 12.371988 -6.181647 -9.272471
Pb 12.371988 -3.090824 -6.181647
Pb 12.371988 -6.181647 -3.090824
Pb 12.371988 -3.090824 0.000000
Pb 12.371988 -6.181647 3.090824
Pb 12.371988 -3.090824 6.181647
Pb 12.371988 -6.181647 9.272471
Pb 12.371988 -3.090824 12.363294
Pb 12.371988 3.090824 -12.363294
Pb 12.371988 -0.000000 -9.272471
Pb 12.371988 3.090824 -6.181647
Pb 12.371988 -0.000000 -3.090824
Pb 12.371988 3.090824 0.000000
Pb 12.371988 -0.000000 3.090824
Pb 12.371988 3.090824 6.181647
Pb 12.371988 -0.000000 9.272471
Pb 12.371988 3.090824 12.363294
Pb 12.371988 6.181647 -9.272471
Pb 12.371988 9.272471 -6.181647
Pb 12.371988 6.181647 -3.090824
Pb 12.371988 9.272471 0.000000
Pb 12.371988 6.181647 3.090824
Pb 12.371988 9.272471 6.181647
Pb 12.371988 6.181647 9.272471
Pb 12.371988 12.363294 -3.090824
Pb 12.371988 12.363294 3.090824
Se -9.263776 -9.272471 -6.181647
Se -12.354600 -12.363294 -0.000000
Se -9.263776 -12.363294 -3.090824
Se -12.354600 -9.272471 -3.090824
Se -9.263776 -9.272471 -0.000000
Se -9.263776 -12.363294 3.090824
Se -12.354600 -9.272471 3.090824
Se -9.263776 -9.272471 6.181647
Se -9.263776 -3.090824 -12.363294
Se -12.354600 -6.181647 -6.181647
Se -9.263776 -6.181647 -9.272471
Se -12.354600 -3.090824 -9.272471
Se -9.263776 -3.090824 -6.181647
Se -12.354600 -6.181647 -0.000000
Se -9.263776 -6.181647 -3.090824
Se -12.354600 -3.090824 -3.090824
Se -9.263776 -3.090824 -0.000000
Se -12.354600 -6.181647 6.181647
Se -9.263776 -6.181647 3.090824
Se -12.354600 -3.090824 3.090824
Se -9.263776 -3.090824 6.181647
Se -9.263776 -6.181647 9.272471
Se -12.354600 -3.090824 9.272471
Se -9.263776 -3.090824 12.363294
Se -12.354600 -0.000000 -12.363294
Se -9.263776 3.090824 -12.363294
Se -12.354600 -0.000000 -6.181647
Se -9.263776 -0.000000 -9.272471
Se -12.354600 3.090824 -9.272471
Se -9.263776 3.090824 -6.181647
Se -12.354600 -0.000000 -0.000000
Se -9.263776 -0.000000 -3.090824
Se -12.354600 3.090824 -3.090824
Se -9.263776 3.090824 -0.000000
Se -12.354600 -0.000000 6.181647
Se -9.263776 -0.000000 3.090824
Se -12.354600 3.090824 3.090824
Se -9.263776 3.090824 6.181647
Se -12.354600 -0.000000 12.363294
Se -9.263776 -0.000000 9.272471
Se -12.354600 3.090824 9.272471
Se -9.263776 3.090824 12.363294
Se -12.354600 6.181647 -6.181647
Se -9.263776 6.181647 -9.272471
Se -9.263776 9.272471 -6.181647
Se -12.354600 6.181647 -0.000000
Se -9.263776 6.181647 -3.090824
Se -12.354600 9.272471 -3.090824
Se -9.263776 9.272471 0.000000
Se -12.354600 6.181647 6.181647
Se -9.263776 6.181647 3.090824
Se -12.354600 9.272471 3.090824
Se -9.263776 9.272471 6.181647
Se -9.263776 6.181647 9.272471
Se -12.354600 12.363294 0.000000
Se -9.263776 12.363294 -3.090824
Se -9.263776 12.363294 3.090824
Se -3.082129 -9.272471 -12.363294
Se -6.172953 -12.363294 -6.181647
Se -3.082129 -12.363294 -9.272471
Se -6.172953 -9.272471 -9.272471
Se -3.082129 -9.272471 -6.181647
Se -6.172953 -12.363294 -0.000000
Se -3.082129 -12.363294 -3.090824
Se -6.172953 -9.272471 -3.090824
Se -3.082129 -9.272471 -0.000000
Se -6.172953 -12.363294 6.181647
Se -3.082129 -12.363294 3.090824
Se -6.172953 -9.272471 3.090824
Se -3.082129 -9.272471 6.181647
Se -3.082129 -12.363294 9.272471
Se -6.172953 -9.272471 9.272471
Se -3.082129 -9.272471 12.363294
Se -6.172953 -6.181647 -12.363294
Se -3.082129 -3.090824 -12.363294
Se -6.172953 -6.181647 -6.181647
Se -3.082129 -6.181647 -9.272471
Se -6.172953 -3.090824 -9.272471
Se -3.082129 -3.090824 -6.181647
Se -6.172953 -6.181647 -0.000000
Se -3.082129 -6.181647 -3.090824
Se -6.172953 -3.090824 -3.090824
Se -3.082129 -3.090824 -0.000000
Se -6.172953 -6.181647 6.181647
Se -3.082129 -6.181647 3.090824
Se -6.172953 -3.090824 3.090824
Se -3.082129 -3.090824 6.181647
Se -6.172953 -6.181647 12.363294
Se -3.082129 -6.181647 9.272471
Se -6.172953 -3.090824 9.272471
Se -3.082129 -3.090824 12.363294
Se -6.172953 -0.000000 -12.363294
Se -3.082129 3.090824 -12.363294
Se -6.172953 -0.000000 -6.181647
Se -3.082129 -0.000000 -9.272471
Se -6.172953 3.090824 -9.272471
Se -3.082129 3.090824 -6.181647
Se -6.172953 -0.000000 -0.000000
Se -3.082129 -0.000000 -3.090824
Se -6.172953 3.090824 -3.090824
Se -3.082129 3.090824 0.000000
Se -6.172953 -0.000000 6.181647
Se -3.082129 -0.000000 3.090824
Se -6.172953 3.090824 3.090824
Se -3.082129 3.090824 6.181647
Se -6.172953 -0.000000 12.363294
Se -3.082129 -0.000000 9.272471
Se -6.172953 3.090824 9.272471
Se -3.082129 3.090824 12.363294
Se -6.172953 6.181647 -12.363294
Se -3.082129 9.272471 -12.363294
Se -6.172953 6.181647 -6.181647
Se -3.082129 6.181647 -9.272471
Se -6.172953 9.272471 -9.272471
Se -3.082129 9.272471 -6.181647
Se -6.172953 6.181647 0.000000
Se -3.082129 6.181647 -3.090824
Se -6.172953 9.272471 -3.090824
Se -3.082129 9.272471 0.000000
Se -6.172953 6.181647 6.181647
Se -3.082129 6.181647 3.090824
Se -6.172953 9.272471 3.090824
Se -3.082129 9.272471 6.181647
Se -6.172953 6.181647 12.363294
Se -3.082129 6.181647 9.272471
Se -6.172953 9.272471 9.272471
Se -3.082129 9.272471 12.363294
Se -6.172953 12.363294 -6.181647
Se -3.082129 12.363294 -9.272471
Se -6.172953 12.363294 0.000000
Se -3.082129 12.363294 -3.090824
Se -6.172953 12.363294 6.181647
Se -3.082129 12.363294 3.090824
Se -3.082129 12.363294 9.272471
Se 0.008694 -12.363294 -12.363294
Se 3.099518 -9.272471 -12.363294
Se 0.008694 -12.363294 -6.181647
Se 3.099518 -12.363294 -9.272471
Se 0.008694 -9.272471 -9.272471
Se 3.099518 -9.272471 -6.181647
Se 0.008694 -12.363294 -0.000000
Se 3.099518 -12.363294 -3.090824
Se 0.008694 -9.272471 -3.090824
Se 3.099518 -9.272471 -0.000000
Se 0.008694 -12.363294 6.181647
Se 3.099518 -12.363294 3.090824
Se 0.008694 -9.272471 3.090824
Se 3.099518 -9.272471 6.181647
Se 0.008694 -12.363294 12.363294
Se 3.099518 -12.363294 9.272471
Se 0.008694 -9.272471 9.272471
Se 3.099518 -9.272471 12.363294
Se 0.008694 -6.181647 -12.363294
Se 3.099518 -3.090824 -12.363294
Se 0.008694 -6.181647 -6.181647
Se 3.099518 -6.181647 -9.272471
Se 0.008694 -3.090824 -9.272471
Se 3.099518 -3.090824 -6.181647
Se 0.008694 -6.181647 -0.000000
Se 3.099518 -6.181647 -3.090824
Se 0.008694 -3.090824 -3.090824
Se 3.099518 -3.090824 0.000000
Se 0.008694 -6.181647 6.181647
Se 3.099518 -6.181647 3.090824
Se 0.008694 -3.090824 3.090824
Se 3.099518 -3.090824 6.181647
Se 0.008694 -6.181647 12.363294
Se 3.099518 -6.181647 9.272471
Se 0.008694 -3.090824 9.272471
Se 3.099518 -3.090824 12.363294
Se 0.008694 -0.000000 -12.363294
Se 3.099518 3.090824 -12.363294
Se 0.008694 -0.000000 -6.181647
Se 3.099518 -0.000000 -9.272471
Se 0.008694 3.090824 -9.272471
Se 3.099518 3.090824 -6.181647
Se 0.008694 -0.000000 0.000000
Se 3.099518 -0.000000 -3.090824
Se 0.008694 3.090824 -3.090824
Se 3.099518 3.090824 0.000000
Se 0.008694 -0.000000 6.181647
Se 3.099518 -0.000000 3.090824
Se 0.008694 3.090824 3.090824
Se 3.099518 3.090824 6.181647
Se 0.008694 -0.000000 12.363294
Se 3.099518 -0.000000 9.272471
Se 0.008694 3.090824 9.272471
Se 3.099518 3.090824 12.363294
Se 0.008694 6.181647 -12.363294
Se 3.099518 9.272471 -12.363294
Se 0.008694 6.181647 -6.181647
Se 3.099518 6.181647 -9.272471
Se 0.008694 9.272471 -9.272471
Se 3.099518 9.272471 -6.181647
Se 0.008694 6.181647 0.000000
Se 3.099518 6.181647 -3.090824
Se 0.008694 9.272471 -3.090824
Se 3.099518 9.272471 0.000000
Se 0.008694 6.181647 6.181647
Se 3.099518 6.181647 3.090824
Se 0.008694 9.272471 3.090824
Se 3.099518 9.272471 6.181647
Se 0.008694 6.181647 12.363294
Se 3.099518 6.181647 9.272471
Se 0.008694 9.272471 9.272471
Se 3.099518 9.272471 12.363294
Se 0.008694 12.363294 -12.363294
Se 0.008694 12.363294 -6.181647
Se 3.099518 12.363294 -9.272471
Se 0.008694 12.363294 0.000000
Se 3.099518 12.363294 -3.090824
Se 0.008694 12.363294 6.181647
Se 3.099518 12.363294 3.090824
Se 0.008694 12.363294 12.363294
Se 3.099518 12.363294 9.272471
Se 6.190341 -12.363294 -6.181647
Se 6.190341 -9.272471 -9.272471
Se 9.281165 -9.272471 -6.181647
Se 6.190341 -12.363294 -0.000000
Se 9.281165 -12.363294 -3.090824
Se 6.190341 -9.272471 -3.090824
Se 9.281165 -9.272471 0.000000
Se 6.190341 -12.363294 6.181647
Se 9.281165 -12.363294 3.090824
Se 6.190341 -9.272471 3.090824
Se 9.281165 -9.272471 6.181647
Se 6.190341 -9.272471 9.272471
Se 6.190341 -6.181647 -12.363294
Se 9.281165 -3.090824 -12.363294
Se 6.190341 -6.181647 -6.181647
Se 9.281165 -6.181647 -9.272471
Se 6.190341 -3.090824 -9.272471
Se 9.281165 -3.090824 -6.181647
Se 6.190341 -6.181647 0.000000
Se 9.281165 -6.181647 -3.090824
Se 6.190341 -3.090824 -3.090824
Se 9.281165 -3.090824 0.000000
Se 6.190341 -6.181647 6.181647
Se 9.281165 -6.181647 3.090824
Se 6.190341 -3.090824 3.090824
Se 9.281165 -3.090824 6.181647
Se 6.190341 -6.181647 12.363294
Se 9.281165 -6.181647 9.272471
Se 6.190341 -3.090824 9.272471
Se 9.281165 -3.090824 12.363294
Se 6.190341 -0.000000 -12.363294
Se 9.281165 3.090824 -12.363294
Se 6.190341 -0.000000 -6.181647
Se 9.281165 -0.000000 -9.272471
Se 6.190341 3.090824 -9.272471
Se 9.281165 3.090824 -6.181647
Se 6.190341 -0.000000 0.000000
Se 9.281165 -0.000000 -3.090824
Se 6.190341 3.090824 -3.090824
Se 9.281165 3.090824 0.000000
Se 6.190341 -0.000000 6.181647
Se 9.281165 -0.000000 3.090824
Se 6.190341 3.090824 3.090824
Se 9.281165 3.090824 6.181647
Se 6.190341 -0.000000 12.363294
Se 9.281165 -0.000000 9.272471
Se 6.190341 3.090824 9.272471
Se 9.281165 3.090824 12.363294
Se 6.190341 6.181647 -12.363294
Se 6.190341 6.181647 -6.181647
Se 9.281165 6.181647 -9.272471
Se 6.190341 9.272471 -9.272471
Se 9.281165 9.272471 -6.181647
Se 6.190341 6.181647 0.000000
Se 9.281165 6.181647 -3.090824
Se 6.190341 9.272471 -3.090824
Se 9.281165 9.272471 0.000000
Se 6.190341 6.181647 6.181647
Se 9.281165 6.181647 3.090824
Se 6.190341 9.272471 3.090824
Se 9.281165 9.272471 6.181647
Se 6.190341 6.181647 12.363294
Se 9.281165 6.181647 9.272471
Se 6.190341 9.272471 9.272471
Se 6.190341 12.363294 -6.181647
Se 6.190341 12.363294 0.000000
Se 9.281165 12.363294 -3.090824
Se 6.190341 12.363294 6.181647
Se 9.281165 12.363294 3.090824
Se 12.371988 -12.363294 0.000000
Se 12.371988 -9.272471 -3.090824
Se 12.371988 -9.272471 3.090824
Se 12.371988 -6.181647 -6.181647
Se 12.371988 -3.090824 -9.272471
Se 12.371988 -6.181647 0.000000
Se 12.371988 -3.090824 -3.090824
Se 12.371988 -6.181647 6.181647
Se 12.371988 -3.090824 3.090824
Se 12.371988 -3.090824 9.272471
Se 12.371988 -0.000000 -12.363294
Se 12.371988 -0.000000 -6.181647
Se 12.371988 3.090824 -9.272471
Se 12.371988 -0.000000 0.000000
Se 12.371988 3.090824 -3.090824
Se 12.371988 -0.000000 6.181647
Se 12.371988 3.090824 3.090824
Se 12.371988 -0.000000 12.363294
Se 12.371988 3.090824 9.272471
Se 12.371988 6.181647 -6.181647
Se 12.371988 6.181647 0.000000
Se 12.371988 9.272471 -3.090824
Se 12.371988 6.181647 6.181647
Se 12.371988 9.272471 3.090824
Se 12.371988 12.363294 0.000000
Cl -9.263776 -12.363294 -9.272471
Cl 6.190341 12.363294 12.363294
Cl 12.371988 -12.363294 6.181647
Cl 12.371988 6.181647 -12.363294
Cl -12.354600 12.363294 -6.181647
Cl -12.354600 -6.181647 12.363294
Cl -12.354600 9.272471 9.272471
Cl 6.190341 -12.363294 -12.363294
Cl -12.354600 -12.363294 6.181647
Cl -12.354600 6.181647 -12.363294
Cl 6.190341 -12.363294 12.363294
Cl 6.190341 12.363294 -12.363294
Cl 12.371988 -12.363294 -6.181647
Cl 12.371988 6.181647 12.363294
Cl -12.354600 -6.181647 -12.363294
Cl -6.172953 12.363294 12.363294
Cl -6.172953 -12.363294 12.363294
Cl -6.172953 12.363294 -12.363294
Cl 12.371988 -6.181647 12.363294
Cl 12.371988 -6.181647 -12.363294
Cl 12.371988 12.363294 -6.181647
Cl 12.371988 12.363294 6.181647
Cl -12.354600 -12.363294 -6.181647
Cl -12.354600 6.181647 12.363294
Cl -12.354600 12.363294 6.181647
Cl -6.172953 -12.363294 -12.363294
Cl -12.354600 -9.272471 9.272471
Cl -12.354600 9.272471 -9.272471
Cl 9.281165 -12.363294 -9.272471
Cl 9.281165 -12.363294 9.272471
Cl 9.281165 9.272471 -12.363294
Cl 9.281165 9.272471 12.363294
Cl -12.354600 -9.272471 -9.272471
Cl -9.263776 -9.272471 12.363294
Cl -9.263776 12.363294 -9.272471
Cl -9.263776 9.272471 12.363294
Cl 9.281165 -9.272471 -12.363294
Cl 9.281165 -9.272471 12.363294
Cl 9.281165 12.363294 -9.272471
Cl 9.281165 12.363294 9.272471
Cl -9.263776 -9.272471 -12.363294
Cl -9.263776 -12.363294 9.272471
Cl -9.263776 9.272471 -12.363294
Cl -9.263776 12.363294 9.272471
Cl 12.371988 -9.272471 -9.272471
Cl 12.371988 -9.272471 9.272471
Cl 12.371988 9.272471 -9.272471
Cl 12.371988 9.272471 9.272471
Cl -15.445423 -12.363294 -3.090824
Cl -12.354600 -15.454118 3.090824
Cl -12.354600 -3.090824 -15.454118
Cl -12.354600 -3.090824 15.454118
Cl -12.354600 15.454118 -3.090824
Cl 15.462812 -12.363294 -3.090824
Cl -15.445423 12.363294 3.090824
Cl 12.371988 3.090824 -15.454118
Cl 12.371988 3.090824 15.454118
Cl 15.462812 12.363294 3.090824
Cl 12.371988 -15.454118 3.090824
Cl 12.371988 15.454118 -3.090824
Cl -3.082129 -15.454118 -12.363294
Cl -3.082129 15.454118 12.363294
