4671
HgTe-Hg-Hg2237Te2040Cl394-reconstructed
Hg -29.606336 -16.449217 -6.579264
Hg -29.606336 -16.449217 0.000704
Hg -29.606336 -16.449217 6.580673
Hg -29.606336 -9.869248 -13.159232
Hg -29.606336 -13.159232 -9.869248
Hg -29.606336 -9.869248 -6.579264
Hg -29.606336 -13.159232 -3.289280
Hg -29.606336 -9.869248 0.000704
Hg -29.606336 -13.159232 3.290689
Hg -29.606336 -9.869248 6.580673
Hg -29.606336 -13.159232 9.870657
Hg -29.606336 -9.869248 13.160641
Hg -29.606336 -6.579264 -16.449217
Hg -29.606336 -3.289280 -13.159232
Hg -29.606336 -6.579264 -9.869248
Hg -29.606336 -3.289280 -6.579264
Hg -29.606336 -6.579264 -3.289280
Hg -29.606336 -3.289280 0.000704
Hg -29.606336 -6.579264 3.290689
Hg -29.606336 -3.289280 6.580673
Hg -29.606336 -6.579264 9.870657
Hg -29.606336 -3.289280 13.160641
Hg -29.606336 -6.579264 16.450625
Hg -29.606336 0.000704 -16.449217
Hg -29.606336 3.290689 -13.159232
Hg -29.606336 0.000704 -9.869248
Hg -29.606336 3.290689 -6.579264
Hg -29.606336 0.000704 -3.289280
Hg -29.606336 3.290689 0.000704
Hg -29.606336 0.000704 3.290689
Hg -29.606336 3.290689 6.580673
Hg -29.606336 0.000704 9.870657
Hg -29.606336 3.290689 13.160641
Hg -29.606336 0.000704 16.450625
Hg -29.606336 6.580673 -16.449217
Hg -29.606336 9.870657 -13.159232
Hg -29.606336 6.580673 -9.869248
Hg -29.606336 9.870657 -6.579264
Hg -29.606336 6.580673 -3.289280
Hg -29.606336 9.870657 0.000704
Hg -29.606336 6.580673 3.290689
Hg -29.606336 9.870657 6.580673
Hg -29.606336 6.580673 9.870657
Hg -29.606336 9.870657 13.160641
Hg -29.606336 6.580673 16.450625
Hg -29.606336 13.160641 -9.869248
Hg -29.606336 16.450625 -6.579264
Hg -29.606336 13.160641 -3.289280
Hg -29.606336 16.450625 0.000704
Hg -29.606336 13.160641 3.290689
Hg -29.606336 16.450625 6.580673
Hg -29.606336 13.160641 9.870657
Hg -23.026368 -23.029185 -6.579264
Hg -23.026368 -23.029185 0.000704
Hg -23.026368 -23.029185 6.580673
Hg -23.026368 -19.739201 -9.869248
Hg -26.316352 -16.449217 -9.869248
Hg -26.316352 -19.739201 -6.579264
Hg -23.026368 -16.449217 -6.579264
Hg -23.026368 -19.739201 -3.289280
Hg -26.316352 -16.449217 -3.289280
Hg -26.316352 -19.739201 0.000704
Hg -23.026368 -16.449217 0.000704
Hg -23.026368 -19.739201 3.290689
Hg -26.316352 -16.449217 3.290689
Hg -26.316352 -19.739201 6.580673
Hg -23.026368 -16.449217 6.580673
Hg -26.316352 -16.449217 9.870657
Hg -23.026368 -16.449217 13.160641
Hg -23.026368 -9.869248 -19.739201
Hg -23.026368 -13.159232 -16.449217
Hg -26.316352 -13.159232 -13.159232
Hg -23.026368 -9.869248 -13.159232
Hg -23.026368 -13.159232 -9.869248
Hg -26.316352 -9.869248 -9.869248
Hg -26.316352 -13.159232 -6.579264
Hg -23.026368 -9.869248 -6.579264
Hg -23.026368 -13.159232 -3.289280
Hg -26.316352 -9.869248 -3.289280
Hg -26.316352 -13.159232 0.000704
Hg -23.026368 -9.869248 0.000704
Hg -23.026368 -13.159232 3.290689
Hg -26.316352 -9.869248 3.290689
Hg -26.316352 -13.159232 6.580673
Hg -23.026368 -9.869248 6.580673
Hg -23.026368 -13.159232 9.870657
Hg -26.316352 -9.869248 9.870657
Hg -23.026368 -9.869248 13.160641
Hg -23.026368 -13.159232 16.450625
Hg -26.316352 -9.869248 16.450625
Hg -23.026368 -6.579264 -23.029185
Hg -26.316352 -6.579264 -19.739201
Hg -23.026368 -3.289280 -19.739201
Hg -23.026368 -6.579264 -16.449217
Hg -26.316352 -3.289280 -16.449217
Hg -26.316352 -6.579264 -13.159232
Hg -23.026368 -3.289280 -13.159232
Hg -23.026368 -6.579264 -9.869248
Hg -26.316352 -3.289280 -9.869248
Hg -26.316352 -6.579264 -6.579264
Hg -23.026368 -3.289280 -6.579264
Hg -23.026368 -6.579264 -3.289280
Hg -26.316352 -3.289280 -3.289280
Hg -26.316352 -6.579264 0.000704
Hg -23.026368 -3.289280 0.000704
Hg -23.026368 -6.579264 3.290689
Hg -26.316352 -3.289280 3.290689
Hg -26.316352 -6.579264 6.580673
Hg -23.026368 -3.289280 6.580673
Hg -23.026368 -6.579264 9.870657
Hg -26.316352 -3.289280 9.870657
Hg -26.316352 -6.579264 13.160641
Hg -23.026368 -3.289280 13.160641
Hg -23.026368 -6.579264 16.450625
Hg -26.316352 -3.289280 16.450625
Hg -26.316352 -6.579264 19.740610
Hg -23.026368 -3.289280 19.740610
Hg -23.026368 -6.579264 23.030594
Hg -23.026368 0.000704 -23.029185
Hg -26.316352 0.000704 -19.739201
Hg -23.026368 3.290689 -19.739201
Hg -23.026368 0.000704 -16.449217
Hg -26.316352 3.290689 -16.449217
Hg -26.316352 0.000704 -13.159232
Hg -23.026368 3.290689 -13.159232
Hg -23.026368 0.000704 -9.869248
Hg -26.316352 3.290689 -9.869248
Hg -26.316352 0.000704 -6.579264
Hg -23.026368 3.290689 -6.579264
Hg -23.026368 0.000704 -3.289280
Hg -26.316352 3.290689 -3.289280
Hg -26.316352 0.000704 0.000704
Hg -23.026368 3.290689 0.000704
Hg -23.026368 0.000704 3.290689
Hg -26.316352 3.290689 3.290689
Hg -26.316352 0.000704 6.580673
Hg -23.026368 3.290689 6.580673
Hg -23.026368 0.000704 9.870657
Hg -26.316352 3.290689 9.870657
Hg -26.316352 0.000704 13.160641
Hg -23.026368 3.290689 13.160641
Hg -23.026368 0.000704 16.450625
Hg -26.316352 3.290689 16.450625
Hg -26.316352 0.000704 19.740610
Hg -23.026368 3.290689 19.740610
Hg -23.026368 0.000704 23.030594
Hg -23.026368 6.580673 -23.029185
Hg -26.316352 6.580673 -19.739201
Hg -23.026368 6.580673 -16.449217
Hg -26.316352 9.870657 -16.449217
Hg -26.316352 6.580673 -13.159232
Hg -23.026368 9.870657 -13.159232
Hg -23.026368 6.580673 -9.869248
Hg -26.316352 9.870657 -9.869248
Hg -26.316352 6.580673 -6.579264
Hg -23.026368 9.870657 -6.579264
Hg -23.026368 6.580673 -3.289280
Hg -26.316352 9.870657 -3.289280
Hg -26.316352 6.580673 0.000704
Hg -23.026368 9.870657 0.000704
Hg -23.026368 6.580673 3.290689
Hg -26.316352 9.870657 3.290689
Hg -26.316352 6.580673 6.580673
Hg -23.026368 9.870657 6.580673
Hg -23.026368 6.580673 9.870657
Hg -26.316352 9.870657 9.870657
Hg -26.316352 6.580673 13.160641
Hg -23.026368 9.870657 13.160641
Hg -23.026368 6.580673 16.450625
Hg -26.316352 6.580673 19.740610
Hg -23.026368 9.870657 19.740610
Hg -23.026368 6.580673 23.030594
Hg -23.026368 13.160641 -16.449217
Hg -23.026368 16.450625 -13.159232
Hg -23.026368 13.160641 -9.869248
Hg -26.316352 16.450625 -9.869248
Hg -26.316352 13.160641 -6.579264
Hg -23.026368 16.450625 -6.579264
Hg -23.026368 13.160641 -3.289280
Hg -26.316352 16.450625 -3.289280
Hg -26.316352 13.160641 0.000704
Hg -23.026368 16.450625 0.000704
Hg -23.026368 13.160641 3.290689
Hg -26.316352 16.450625 3.290689
Hg -26.316352 13.160641 6.580673
Hg -23.026368 16.450625 6.580673
Hg -23.026368 13.160641 9.870657
Hg -26.316352 16.450625 9.870657
Hg -26.316352 13.160641 13.160641
Hg -23.026368 13.160641 16.450625
Hg -26.316352 19.740610 -6.579264
Hg -23.026368 23.030594 -6.579264
Hg -23.026368 19.740610 -3.289280
Hg -26.316352 19.740610 0.000704
Hg -23.026368 23.030594 0.000704
Hg -23.026368 19.740610 3.290689
Hg -26.316352 19.740610 6.580673
Hg -23.026368 23.030594 6.580673
Hg -23.026368 19.740610 9.870657
Hg -16.446399 -29.609154 -6.579264
Hg -16.446399 -29.609154 0.000704
Hg -16.446399 -29.609154 6.580673
Hg -16.446399 -23.029185 -13.159232
Hg -16.446399 -26.319169 -9.869248
Hg -19.736384 -26.319169 -6.579264
Hg -16.446399 -23.029185 -6.579264
Hg -16.446399 -26.319169 -3.289280
Hg -19.736384 -23.029185 -3.289280
Hg -19.736384 -26.319169 0.000704
Hg -16.446399 -23.029185 0.000704
Hg -16.446399 -26.319169 3.290689
Hg -19.736384 -23.029185 3.290689
Hg -19.736384 -26.319169 6.580673
Hg -16.446399 -23.029185 6.580673
Hg -16.446399 -26.319169 9.870657
Hg -19.736384 -23.029185 9.870657
Hg -16.446399 -16.449217 -19.739201
Hg -19.736384 -16.449217 -16.449217
Hg -19.736384 -19.739201 -13.159232
Hg -16.446399 -16.449217 -13.159232
Hg -16.446399 -19.739201 -9.869248
Hg -19.736384 -16.449217 -9.869248
Hg -19.736384 -19.739201 -6.579264
Hg -16.446399 -16.449217 -6.579264
Hg -16.446399 -19.739201 -3.289280
Hg -19.736384 -16.449217 -3.289280
Hg -19.736384 -19.739201 0.000704
Hg -16.446399 -16.449217 0.000704
Hg -16.446399 -19.739201 3.290689
Hg -19.736384 -16.449217 3.290689
Hg -19.736384 -19.739201 6.580673
Hg -16.446399 -16.449217 6.580673
Hg -16.446399 -19.739201 9.870657
Hg -19.736384 -16.449217 9.870657
Hg -19.736384 -19.739201 13.160641
Hg -16.446399 -16.449217 13.160641
Hg -16.446399 -19.739201 16.450625
Hg -16.446399 -16.449217 19.740610
Hg -16.446399 -13.159232 -23.029185
Hg -19.736384 -9.869248 -23.029185
Hg -16.446399 -9.869248 -19.739201
Hg -16.446399 -13.159232 -16.449217
Hg -19.736384 -9.869248 -16.449217
Hg -19.736384 -13.159232 -13.159232
Hg -16.446399 -9.869248 -13.159232
Hg -16.446399 -13.159232 -9.869248
Hg -19.736384 -9.869248 -9.869248
Hg -19.736384 -13.159232 -6.579264
Hg -16.446399 -9.869248 -6.579264
Hg -16.446399 -13.159232 -3.289280
Hg -19.736384 -9.869248 -3.289280
Hg -19.736384 -13.159232 0.000704
Hg -16.446399 -9.869248 0.000704
Hg -16.446399 -13.159232 3.290689
Hg -19.736384 -9.869248 3.290689
Hg -19.736384 -13.159232 6.580673
Hg -16.446399 -9.869248 6.580673
Hg -16.446399 -13.159232 9.870657
Hg -19.736384 -9.869248 9.870657
Hg -19.736384 -13.159232 13.160641
Hg -16.446399 -9.869248 13.160641
Hg -16.446399 -13.159232 16.450625
Hg -19.736384 -9.869248 16.450625
Hg -19.736384 -13.159232 19.740610
Hg -16.446399 -9.869248 19.740610
Hg -19.736384 -9.869248 23.030594
Hg -16.446399 -9.869248 26.320578
Hg -16.446399 -6.579264 -29.609154
Hg -19.736384 -6.579264 -26.319169
Hg -16.446399 -3.289280 -26.319169
Hg -16.446399 -6.579264 -23.029185
Hg -19.736384 -3.289280 -23.029185
Hg -19.736384 -6.579264 -19.739201
Hg -16.446399 -3.289280 -19.739201
Hg -16.446399 -6.579264 -16.449217
Hg -19.736384 -3.289280 -16.449217
Hg -19.736384 -6.579264 -13.159232
Hg -16.446399 -3.289280 -13.159232
Hg -16.446399 -6.579264 -9.869248
Hg -19.736384 -3.289280 -9.869248
Hg -19.736384 -6.579264 -6.579264
Hg -16.446399 -3.289280 -6.579264
Hg -16.446399 -6.579264 -3.289280
Hg -19.736384 -3.289280 -3.289280
Hg -19.736384 -6.579264 0.000704
Hg -16.446399 -3.289280 0.000704
Hg -16.446399 -6.579264 3.290689
Hg -19.736384 -3.289280 3.290689
Hg -19.736384 -6.579264 6.580673
Hg -16.446399 -3.289280 6.580673
Hg -16.446399 -6.579264 9.870657
Hg -19.736384 -3.289280 9.870657
Hg -19.736384 -6.579264 13.160641
Hg -16.446399 -3.289280 13.160641
Hg -16.446399 -6.579264 16.450625
Hg -19.736384 -3.289280 16.450625
Hg -19.736384 -6.579264 19.740610
Hg -16.446399 -3.289280 19.740610
Hg -16.446399 -6.579264 23.030594
Hg -19.736384 -3.289280 23.030594
Hg -19.736384 -6.579264 26.320578
Hg -16.446399 -3.289280 26.320578
Hg -16.446399 -6.579264 29.610562
Hg -16.446399 0.000704 -29.609154
Hg -19.736384 0.000704 -26.319169
Hg -16.446399 3.290689 -26.319169
Hg -16.446399 0.000704 -23.029185
Hg -19.736384 3.290689 -23.029185
Hg -19.736384 0.000704 -19.739201
Hg -16.446399 3.290689 -19.739201
Hg -16.446399 0.000704 -16.449217
Hg -19.736384 3.290689 -16.449217
Hg -19.736384 0.000704 -13.159232
Hg -16.446399 3.290689 -13.159232
Hg -16.446399 0.000704 -9.869248
Hg -19.736384 3.290689 -9.869248
Hg -19.736384 0.000704 -6.579264
Hg -16.446399 3.290689 -6.579264
Hg -16.446399 0.000704 -3.289280
Hg -19.736384 3.290689 -3.289280
Hg -19.736384 0.000704 0.000704
Hg -16.446399 3.290689 0.000704
Hg -16.446399 0.000704 3.290689
Hg -19.736384 3.290689 3.290689
Hg -19.736384 0.000704 6.580673
Hg -16.446399 3.290689 6.580673
Hg -16.446399 0.000704 9.870657
Hg -19.736384 3.290689 9.870657
Hg -19.736384 0.000704 13.160641
Hg -16.446399 3.290689 13.160641
Hg -16.446399 0.000704 16.450625
Hg -19.736384 3.290689 16.450625
Hg -19.736384 0.000704 19.740610
Hg -16.446399 3.290689 19.740610
Hg -16.446399 0.000704 23.030594
Hg -19.736384 3.290689 23.030594
Hg -19.736384 0.000704 26.320578
Hg -16.446399 3.290689 26.320578
Hg -16.446399 0.000704 29.610562
Hg -16.446399 6.580673 -29.609154
Hg -19.736384 6.580673 -26.319169
Hg -16.446399 9.870657 -26.319169
Hg -16.446399 6.580673 -23.029185
Hg -19.736384 9.870657 -23.029185
Hg -19.736384 6.580673 -19.739201
Hg -16.446399 9.870657 -19.739201
Hg -16.446399 6.580673 -16.449217
Hg -19.736384 9.870657 -16.449217
Hg -19.736384 6.580673 -13.159232
Hg -16.446399 9.870657 -13.159232
Hg -16.446399 6.580673 -9.869248
Hg -19.736384 9.870657 -9.869248
Hg -19.736384 6.580673 -6.579264
Hg -16.446399 9.870657 -6.579264
Hg -16.446399 6.580673 -3.289280
Hg -19.736384 9.870657 -3.289280
Hg -19.736384 6.580673 0.000704
Hg -16.446399 9.870657 0.000704
Hg -16.446399 6.580673 3.290689
Hg -19.736384 9.870657 3.290689
Hg -19.736384 6.580673 6.580673
Hg -16.446399 9.870657 6.580673
Hg -16.446399 6.580673 9.870657
Hg -19.736384 9.870657 9.870657
Hg -19.736384 6.580673 13.160641
Hg -16.446399 9.870657 13.160641
Hg -16.446399 6.580673 16.450625
Hg -19.736384 9.870657 16.450625
Hg -19.736384 6.580673 19.740610
Hg -16.446399 9.870657 19.740610
Hg -16.446399 6.580673 23.030594
Hg -19.736384 9.870657 23.030594
Hg -19.736384 6.580673 26.320578
Hg -16.446399 6.580673 29.610562
Hg -19.736384 13.160641 -19.739201
Hg -16.446399 16.450625 -19.739201
Hg -16.446399 13.160641 -16.449217
Hg -19.736384 13.160641 -13.159232
Hg -16.446399 16.450625 -13.159232
Hg -16.446399 13.160641 -9.869248
Hg -19.736384 16.450625 -9.869248
Hg -19.736384 13.160641 -6.579264
Hg -16.446399 16.450625 -6.579264
Hg -16.446399 13.160641 -3.289280
Hg -19.736384 16.450625 -3.289280
Hg -19.736384 13.160641 0.000704
Hg -16.446399 16.450625 0.000704
Hg -16.446399 13.160641 3.290689
Hg -19.736384 16.450625 3.290689
Hg -19.736384 13.160641 6.580673
Hg -16.446399 16.450625 6.580673
Hg -16.446399 13.160641 9.870657
Hg -19.736384 16.450625 9.870657
Hg -19.736384 13.160641 13.160641
Hg -16.446399 16.450625 13.160641
Hg -16.446399 13.160641 16.450625
Hg -19.736384 16.450625 16.450625
Hg -16.446399 16.450625 19.740610
Hg -16.446399 13.160641 23.030594
Hg -16.446399 19.740610 -16.449217
Hg -19.736384 19.740610 -13.159232
Hg -16.446399 19.740610 -9.869248
Hg -19.736384 23.030594 -9.869248
Hg -19.736384 19.740610 -6.579264
Hg -16.446399 23.030594 -6.579264
Hg -16.446399 19.740610 -3.289280
Hg -19.736384 23.030594 -3.289280
Hg -19.736384 19.740610 0.000704
Hg -16.446399 23.030594 0.000704
Hg -16.446399 19.740610 3.290689
Hg -19.736384 23.030594 3.290689
Hg -19.736384 19.740610 6.580673
Hg -16.446399 23.030594 6.580673
Hg -16.446399 19.740610 9.870657
Hg -19.736384 19.740610 13.160641
Hg -16.446399 23.030594 13.160641
Hg -16.446399 26.320578 -9.869248
Hg -19.736384 26.320578 -6.579264
Hg -16.446399 29.610562 -6.579264
Hg -16.446399 26.320578 -3.289280
Hg -19.736384 26.320578 0.000704
Hg -16.446399 29.610562 0.000704
Hg -16.446399 26.320578 3.290689
Hg -19.736384 26.320578 6.580673
Hg -16.446399 29.610562 6.580673
Hg -16.446399 26.320578 9.870657
Hg -9.866431 -29.609154 -13.159232
Hg -13.156415 -29.609154 -9.869248
Hg -9.866431 -29.609154 -6.579264
Hg -13.156415 -29.609154 -3.289280
Hg -9.866431 -29.609154 0.000704
Hg -13.156415 -29.609154 3.290689
Hg -9.866431 -29.609154 6.580673
Hg -13.156415 -29.609154 9.870657
Hg -9.866431 -29.609154 13.160641
Hg -9.866431 -26.319169 -16.449217
Hg -13.156415 -23.029185 -16.449217
Hg -9.866431 -23.029185 -13.159232
Hg -9.866431 -26.319169 -9.869248
Hg -13.156415 -23.029185 -9.869248
Hg -13.156415 -26.319169 -6.579264
Hg -9.866431 -23.029185 -6.579264
Hg -9.866431 -26.319169 -3.289280
Hg -13.156415 -23.029185 -3.289280
Hg -13.156415 -26.319169 0.000704
Hg -9.866431 -23.029185 0.000704
Hg -9.866431 -26.319169 3.290689
Hg -13.156415 -23.029185 3.290689
Hg -13.156415 -26.319169 6.580673
Hg -9.866431 -23.029185 6.580673
Hg -9.866431 -26.319169 9.870657
Hg -13.156415 -23.029185 9.870657
Hg -13.156415 -26.319169 13.160641
Hg -9.866431 -23.029185 13.160641
Hg -13.156415 -23.029185 16.450625
Hg -9.866431 -23.029185 19.740610
Hg -9.866431 -16.449217 -26.319169
Hg -9.866431 -19.739201 -23.029185
Hg -13.156415 -19.739201 -19.739201
Hg -9.866431 -16.449217 -19.739201
Hg -9.866431 -19.739201 -16.449217
Hg -13.156415 -16.449217 -16.449217
Hg -13.156415 -19.739201 -13.159232
Hg -9.866431 -16.449217 -13.159232
Hg -9.866431 -19.739201 -9.869248
Hg -13.156415 -16.449217 -9.869248
Hg -13.156415 -19.739201 -6.579264
Hg -9.866431 -16.449217 -6.579264
Hg -9.866431 -19.739201 -3.289280
Hg -13.156415 -16.449217 -3.289280
Hg -13.156415 -19.739201 0.000704
Hg -9.866431 -16.449217 0.000704
Hg -9.866431 -19.739201 3.290689
Hg -13.156415 -16.449217 3.290689
Hg -13.156415 -19.739201 6.580673
Hg -9.866431 -16.449217 6.580673
Hg -9.866431 -19.739201 9.870657
Hg -13.156415 -16.449217 9.870657
Hg -13.156415 -19.739201 13.160641
Hg -9.866431 -16.449217 13.160641
Hg -9.866431 -19.739201 16.450625
Hg -13.156415 -16.449217 16.450625
Hg -9.866431 -16.449217 19.740610
Hg -9.866431 -19.739201 23.030594
Hg -13.156415 -16.449217 23.030594
Hg -9.866431 -13.159232 -29.609154
Hg -13.156415 -9.869248 -29.609154
Hg -13.156415 -13.159232 -26.319169
Hg -9.866431 -9.869248 -26.319169
Hg -9.866431 -13.159232 -23.029185
Hg -13.156415 -9.869248 -23.029185
Hg -13.156415 -13.159232 -19.739201
Hg -9.866431 -9.869248 -19.739201
Hg -9.866431 -13.159232 -16.449217
Hg -13.156415 -9.869248 -16.449217
Hg -13.156415 -13.159232 -13.159232
Hg -9.866431 -9.869248 -13.159232
Hg -9.866431 -13.159232 -9.869248
Hg -13.156415 -9.869248 -9.869248
Hg -13.156415 -13.159232 -6.579264
Hg -9.866431 -9.869248 -6.579264
Hg -9.866431 -13.159232 -3.289280
Hg -13.156415 -9.869248 -3.289280
Hg -13.156415 -13.159232 0.000704
Hg -9.866431 -9.869248 0.000704
Hg -9.866431 -13.159232 3.290689
Hg -13.156415 -9.869248 3.290689
Hg -13.156415 -13.159232 6.580673
Hg -9.866431 -9.869248 6.580673
Hg -9.866431 -13.159232 9.870657
Hg -13.156415 -9.869248 9.870657
Hg -13.156415 -13.159232 13.160641
Hg -9.866431 -9.869248 13.160641
Hg -9.866431 -13.159232 16.450625
Hg -13.156415 -9.869248 16.450625
Hg -13.156415 -13.159232 19.740610
Hg -9.866431 -9.869248 19.740610
Hg -9.866431 -13.159232 23.030594
Hg -13.156415 -9.869248 23.030594
Hg -13.156415 -13.159232 26.320578
Hg -9.866431 -9.869248 26.320578
Hg -9.866431 -13.159232 29.610562
Hg -13.156415 -9.869248 29.610562
Hg -9.866431 -6.579264 -29.609154
Hg -13.156415 -3.289280 -29.609154
Hg -13.156415 -6.579264 -26.319169
Hg -9.866431 -3.289280 -26.319169
Hg -9.866431 -6.579264 -23.029185
Hg -13.156415 -3.289280 -23.029185
Hg -13.156415 -6.579264 -19.739201
Hg -9.866431 -3.289280 -19.739201
Hg -9.866431 -6.579264 -16.449217
Hg -13.156415 -3.289280 -16.449217
Hg -13.156415 -6.579264 -13.159232
Hg -9.866431 -3.289280 -13.159232
Hg -9.866431 -6.579264 -9.869248
Hg -13.156415 -3.289280 -9.869248
Hg -13.156415 -6.579264 -6.579264
Hg -9.866431 -3.289280 -6.579264
Hg -9.866431 -6.579264 -3.289280
Hg -13.156415 -3.289280 -3.289280
Hg -13.156415 -6.579264 0.000704
Hg -9.866431 -3.289280 0.000704
Hg -9.866431 -6.579264 3.290689
Hg -13.156415 -3.289280 3.290689
Hg -13.156415 -6.579264 6.580673
Hg -9.866431 -3.289280 6.580673
Hg -9.866431 -6.579264 9.870657
Hg -13.156415 -3.289280 9.870657
Hg -13.156415 -6.579264 13.160641
Hg -9.866431 -3.289280 13.160641
Hg -9.866431 -6.579264 16.450625
Hg -13.156415 -3.289280 16.450625
Hg -13.156415 -6.579264 19.740610
Hg -9.866431 -3.289280 19.740610
Hg -9.866431 -6.579264 23.030594
Hg -13.156415 -3.289280 23.030594
Hg -13.156415 -6.579264 26.320578
Hg -9.866431 -3.289280 26.320578
Hg -9.866431 -6.579264 29.610562
Hg -13.156415 -3.289280 29.610562
Hg -9.866431 0.000704 -29.609154
Hg -13.156415 3.290689 -29.609154
Hg -13.156415 0.000704 -26.319169
Hg -9.866431 3.290689 -26.319169
Hg -9.866431 0.000704 -23.029185
Hg -13.156415 3.290689 -23.029185
Hg -13.156415 0.000704 -19.739201
Hg -9.866431 3.290689 -19.739201
Hg -9.866431 0.000704 -16.449217
Hg -13.156415 3.290689 -16.449217
Hg -13.156415 0.000704 -13.159232
Hg -9.866431 3.290689 -13.159232
Hg -9.866431 0.000704 -9.869248
Hg -13.156415 3.290689 -9.869248
Hg -13.156415 0.000704 -6.579264
Hg -9.866431 3.290689 -6.579264
Hg -9.866431 0.000704 -3.289280
Hg -13.156415 3.290689 -3.289280
Hg -13.156415 0.000704 0.000704
Hg -9.866431 3.290689 0.000704
Hg -9.866431 0.000704 3.290689
Hg -13.156415 3.290689 3.290689
Hg -13.156415 0.000704 6.580673
Hg -9.866431 3.290689 6.580673
Hg -9.866431 0.000704 9.870657
Hg -13.156415 3.290689 9.870657
Hg -13.156415 0.000704 13.160641
Hg -9.866431 3.290689 13.160641
Hg -9.866431 0.000704 16.450625
Hg -13.156415 3.290689 16.450625
Hg -13.156415 0.000704 19.740610
Hg -9.866431 3.290689 19.740610
Hg -9.866431 0.000704 23.030594
Hg -13.156415 3.290689 23.030594
Hg -13.156415 0.000704 26.320578
Hg -9.866431 3.290689 26.320578
Hg -9.866431 0.000704 29.610562
Hg -13.156415 3.290689 29.610562
Hg -9.866431 6.580673 -29.609154
Hg -13.156415 9.870657 -29.609154
Hg -13.156415 6.580673 -26.319169
Hg -9.866431 9.870657 -26.319169
Hg -9.866431 6.580673 -23.029185
Hg -13.156415 9.870657 -23.029185
Hg -13.156415 6.580673 -19.739201
Hg -9.866431 9.870657 -19.739201
Hg -9.866431 6.580673 -16.449217
Hg -13.156415 9.870657 -16.449217
Hg -13.156415 6.580673 -13.159232
Hg -9.866431 9.870657 -13.159232
Hg -9.866431 6.580673 -9.869248
Hg -13.156415 9.870657 -9.869248
Hg -13.156415 6.580673 -6.579264
Hg -9.866431 9.870657 -6.579264
Hg -9.866431 6.580673 -3.289280
Hg -13.156415 9.870657 -3.289280
Hg -13.156415 6.580673 0.000704
Hg -9.866431 9.870657 0.000704
Hg -9.866431 6.580673 3.290689
Hg -13.156415 9.870657 3.290689
Hg -13.156415 6.580673 6.580673
Hg -9.866431 9.870657 6.580673
Hg -9.866431 6.580673 9.870657
Hg -13.156415 9.870657 9.870657
Hg -13.156415 6.580673 13.160641
Hg -9.866431 9.870657 13.160641
Hg -9.866431 6.580673 16.450625
Hg -13.156415 9.870657 16.450625
Hg -13.156415 6.580673 19.740610
Hg -9.866431 9.870657 19.740610
Hg -9.866431 6.580673 23.030594
Hg -13.156415 9.870657 23.030594
Hg -13.156415 6.580673 26.320578
Hg -9.866431 9.870657 26.320578
Hg -9.866431 6.580673 29.610562
Hg -13.156415 9.870657 29.610562
Hg -9.866431 13.160641 -29.609154
Hg -13.156415 13.160641 -26.319169
Hg -9.866431 13.160641 -23.029185
Hg -13.156415 16.450625 -23.029185
Hg -13.156415 13.160641 -19.739201
Hg -9.866431 16.450625 -19.739201
Hg -9.866431 13.160641 -16.449217
Hg -13.156415 16.450625 -16.449217
Hg -13.156415 13.160641 -13.159232
Hg -9.866431 16.450625 -13.159232
Hg -9.866431 13.160641 -9.869248
Hg -13.156415 16.450625 -9.869248
Hg -13.156415 13.160641 -6.579264
Hg -9.866431 16.450625 -6.579264
Hg -9.866431 13.160641 -3.289280
Hg -13.156415 16.450625 -3.289280
Hg -13.156415 13.160641 0.000704
Hg -9.866431 16.450625 0.000704
Hg -9.866431 13.160641 3.290689
Hg -13.156415 16.450625 3.290689
Hg -13.156415 13.160641 6.580673
Hg -9.866431 16.450625 6.580673
Hg -9.866431 13.160641 9.870657
Hg -13.156415 16.450625 9.870657
Hg -13.156415 13.160641 13.160641
Hg -9.866431 16.450625 13.160641
Hg -9.866431 13.160641 16.450625
Hg -13.156415 16.450625 16.450625
Hg -13.156415 13.160641 19.740610
Hg -9.866431 16.450625 19.740610
Hg -9.866431 13.160641 23.030594
Hg -13.156415 13.160641 26.320578
Hg -9.866431 16.450625 26.320578
Hg -9.866431 13.160641 29.610562
Hg -9.866431 19.740610 -23.029185
Hg -9.866431 23.030594 -19.739201
Hg -9.866431 19.740610 -16.449217
Hg -13.156415 23.030594 -16.449217
Hg -13.156415 19.740610 -13.159232
Hg -9.866431 23.030594 -13.159232
Hg -9.866431 19.740610 -9.869248
Hg -13.156415 23.030594 -9.869248
Hg -13.156415 19.740610 -6.579264
Hg -9.866431 23.030594 -6.579264
Hg -9.866431 19.740610 -3.289280
Hg -13.156415 23.030594 -3.289280
Hg -13.156415 19.740610 0.000704
Hg -9.866431 23.030594 0.000704
Hg -9.866431 19.740610 3.290689
Hg -13.156415 23.030594 3.290689
Hg -13.156415 19.740610 6.580673
Hg -9.866431 23.030594 6.580673
Hg -9.866431 19.740610 9.870657
Hg -13.156415 23.030594 9.870657
Hg -13.156415 19.740610 13.160641
Hg -9.866431 23.030594 13.160641
Hg -9.866431 19.740610 16.450625
Hg -13.156415 23.030594 16.450625
Hg -13.156415 19.740610 19.740610
Hg -9.866431 19.740610 23.030594
Hg -13.156415 26.320578 -13.159232
Hg -9.866431 29.610562 -13.159232
Hg -9.866431 26.320578 -9.869248
Hg -13.156415 29.610562 -9.869248
Hg -13.156415 26.320578 -6.579264
Hg -9.866431 29.610562 -6.579264
Hg -9.866431 26.320578 -3.289280
Hg -13.156415 29.610562 -3.289280
Hg -13.156415 26.320578 0.000704
Hg -9.866431 29.610562 0.000704
Hg -9.866431 26.320578 3.290689
Hg -13.156415 29.610562 3.290689
Hg -13.156415 26.320578 6.580673
Hg -9.866431 29.610562 6.580673
Hg -9.866431 26.320578 9.870657
Hg -13.156415 29.610562 9.870657
Hg -9.866431 29.610562 13.160641
Hg -9.866431 26.320578 16.450625
Hg -6.576447 -29.609154 -16.449217
Hg -3.286462 -29.609154 -13.159232
Hg -6.576447 -29.609154 -9.869248
Hg -3.286462 -29.609154 -6.579264
Hg -6.576447 -29.609154 -3.289280
Hg -3.286462 -29.609154 0.000704
Hg -6.576447 -29.609154 3.290689
Hg -3.286462 -29.609154 6.580673
Hg -6.576447 -29.609154 9.870657
Hg -3.286462 -29.609154 13.160641
Hg -6.576447 -29.609154 16.450625
Hg -6.576447 -23.029185 -23.029185
Hg -6.576447 -26.319169 -19.739201
Hg -3.286462 -23.029185 -19.739201
Hg -3.286462 -26.319169 -16.449217
Hg -6.576447 -23.029185 -16.449217
Hg -6.576447 -26.319169 -13.159232
Hg -3.286462 -23.029185 -13.159232
Hg -3.286462 -26.319169 -9.869248
Hg -6.576447 -23.029185 -9.869248
Hg -6.576447 -26.319169 -6.579264
Hg -3.286462 -23.029185 -6.579264
Hg -3.286462 -26.319169 -3.289280
Hg -6.576447 -23.029185 -3.289280
Hg -6.576447 -26.319169 0.000704
Hg -3.286462 -23.029185 0.000704
Hg -3.286462 -26.319169 3.290689
Hg -6.576447 -23.029185 3.290689
Hg -6.576447 -26.319169 6.580673
Hg -3.286462 -23.029185 6.580673
Hg -3.286462 -26.319169 9.870657
Hg -6.576447 -23.029185 9.870657
Hg -6.576447 -26.319169 13.160641
Hg -3.286462 -23.029185 13.160641
Hg -3.286462 -26.319169 16.450625
Hg -6.576447 -23.029185 16.450625
Hg -6.576447 -26.319169 19.740610
Hg -3.286462 -23.029185 19.740610
Hg -6.576447 -23.029185 23.030594
Hg -6.576447 -16.449217 -29.609154
Hg -6.576447 -19.739201 -26.319169
Hg -3.286462 -16.449217 -26.319169
Hg -3.286462 -19.739201 -23.029185
Hg -6.576447 -16.449217 -23.029185
Hg -6.576447 -19.739201 -19.739201
Hg -3.286462 -16.449217 -19.739201
Hg -3.286462 -19.739201 -16.449217
Hg -6.576447 -16.449217 -16.449217
Hg -6.576447 -19.739201 -13.159232
Hg -3.286462 -16.449217 -13.159232
Hg -3.286462 -19.739201 -9.869248
Hg -6.576447 -16.449217 -9.869248
Hg -6.576447 -19.739201 -6.579264
Hg -3.286462 -16.449217 -6.579264
Hg -3.286462 -19.739201 -3.289280
Hg -6.576447 -16.449217 -3.289280
Hg -6.576447 -19.739201 0.000704
Hg -3.286462 -16.449217 0.000704
Hg -3.286462 -19.739201 3.290689
Hg -6.576447 -16.449217 3.290689
Hg -6.576447 -19.739201 6.580673
Hg -3.286462 -16.449217 6.580673
Hg -3.286462 -19.739201 9.870657
Hg -6.576447 -16.449217 9.870657
Hg -6.576447 -19.739201 13.160641
Hg -3.286462 -16.449217 13.160641
Hg -3.286462 -19.739201 16.450625
Hg -6.576447 -16.449217 16.450625
Hg -6.576447 -19.739201 19.740610
Hg -3.286462 -16.449217 19.740610
Hg -3.286462 -19.739201 23.030594
Hg -6.576447 -16.449217 23.030594
Hg -6.576447 -19.739201 26.320578
Hg -3.286462 -16.449217 26.320578
Hg -6.576447 -16.449217 29.610562
Hg -3.286462 -13.159232 -29.609154
Hg -6.576447 -9.869248 -29.609154
Hg -6.576447 -13.159232 -26.319169
Hg -3.286462 -9.869248 -26.319169
Hg -3.286462 -13.159232 -23.029185
Hg -6.576447 -9.869248 -23.029185
Hg -6.576447 -13.159232 -19.739201
Hg -3.286462 -9.869248 -19.739201
Hg -3.286462 -13.159232 -16.449217
Hg -6.576447 -9.869248 -16.449217
Hg -6.576447 -13.159232 -13.159232
Hg -3.286462 -9.869248 -13.159232
Hg -3.286462 -13.159232 -9.869248
Hg -6.576447 -9.869248 -9.869248
Hg -6.576447 -13.159232 -6.579264
Hg -3.286462 -9.869248 -6.579264
Hg -3.286462 -13.159232 -3.289280
Hg -6.576447 -9.869248 -3.289280
Hg -6.576447 -13.159232 0.000704
Hg -3.286462 -9.869248 0.000704
Hg -3.286462 -13.159232 3.290689
Hg -6.576447 -9.869248 3.290689
Hg -6.576447 -13.159232 6.580673
Hg -3.286462 -9.869248 6.580673
Hg -3.286462 -13.159232 9.870657
Hg -6.576447 -9.869248 9.870657
Hg -6.576447 -13.159232 13.160641
Hg -3.286462 -9.869248 13.160641
Hg -3.286462 -13.159232 16.450625
Hg -6.576447 -9.869248 16.450625
Hg -6.576447 -13.159232 19.740610
Hg -3.286462 -9.869248 19.740610
Hg -3.286462 -13.159232 23.030594
Hg -6.576447 -9.869248 23.030594
Hg -6.576447 -13.159232 26.320578
Hg -3.286462 -9.869248 26.320578
Hg -3.286462 -13.159232 29.610562
Hg -6.576447 -9.869248 29.610562
Hg -3.286462 -6.579264 -29.609154
Hg -6.576447 -3.289280 -29.609154
Hg -6.576447 -6.579264 -26.319169
Hg -3.286462 -3.289280 -26.319169
Hg -3.286462 -6.579264 -23.029185
Hg -6.576447 -3.289280 -23.029185
Hg -6.576447 -6.579264 -19.739201
Hg -3.286462 -3.289280 -19.739201
Hg -3.286462 -6.579264 -16.449217
Hg -6.576447 -3.289280 -16.449217
Hg -6.576447 -6.579264 -13.159232
Hg -3.286462 -3.289280 -13.159232
Hg -3.286462 -6.579264 -9.869248
Hg -6.576447 -3.289280 -9.869248
Hg -6.576447 -6.579264 -6.579264
Hg -3.286462 -3.289280 -6.579264
Hg -3.286462 -6.579264 -3.289280
Hg -6.576447 -3.289280 -3.289280
Hg -6.576447 -6.579264 0.000704
Hg -3.286462 -3.289280 0.000704
Hg -3.286462 -6.579264 3.290689
Hg -6.576447 -3.289280 3.290689
Hg -6.576447 -6.579264 6.580673
Hg -3.286462 -3.289280 6.580673
Hg -3.286462 -6.579264 9.870657
Hg -6.576447 -3.289280 9.870657
Hg -6.576447 -6.579264 13.160641
Hg -3.286462 -3.289280 13.160641
Hg -3.286462 -6.579264 16.450625
Hg -6.576447 -3.289280 16.450625
Hg -6.576447 -6.579264 19.740610
Hg -3.286462 -3.289280 19.740610
Hg -3.286462 -6.579264 23.030594
Hg -6.576447 -3.289280 23.030594
Hg -6.576447 -6.579264 26.320578
Hg -3.286462 -3.289280 26.320578
Hg -3.286462 -6.579264 29.610562
Hg -6.576447 -3.289280 29.610562
Hg -3.286462 0.000704 -29.609154
Hg -6.576447 3.290689 -29.609154
Hg -6.576447 0.000704 -26.319169
Hg -3.286462 3.290689 -26.319169
Hg -3.286462 0.000704 -23.029185
Hg -6.576447 3.290689 -23.029185
Hg -6.576447 0.000704 -19.739201
Hg -3.286462 3.290689 -19.739201
Hg -3.286462 0.000704 -16.449217
Hg -6.576447 3.290689 -16.449217
Hg -6.576447 0.000704 -13.159232
Hg -3.286462 3.290689 -13.159232
Hg -3.286462 0.000704 -9.869248
Hg -6.576447 3.290689 -9.869248
Hg -6.576447 0.000704 -6.579264
Hg -3.286462 3.290689 -6.579264
Hg -3.286462 0.000704 -3.289280
Hg -6.576447 3.290689 -3.289280
Hg -6.576447 0.000704 0.000704
Hg -3.286462 3.290689 0.000704
Hg -3.286462 0.000704 3.290689
Hg -6.576447 3.290689 3.290689
Hg -6.576447 0.000704 6.580673
Hg -3.286462 3.290689 6.580673
Hg -3.286462 0.000704 9.870657
Hg -6.576447 3.290689 9.870657
Hg -6.576447 0.000704 13.160641
Hg -3.286462 3.290689 13.160641
Hg -3.286462 0.000704 16.450625
Hg -6.576447 3.290689 16.450625
Hg -6.576447 0.000704 19.740610
Hg -3.286462 3.290689 19.740610
Hg -3.286462 0.000704 23.030594
Hg -6.576447 3.290689 23.030594
Hg -6.576447 0.000704 26.320578
Hg -3.286462 3.290689 26.320578
Hg -3.286462 0.000704 29.610562
Hg -6.576447 3.290689 29.610562
Hg -3.286462 6.580673 -29.609154
Hg -6.576447 9.870657 -29.609154
Hg -6.576447 6.580673 -26.319169
Hg -3.286462 9.870657 -26.319169
Hg -3.286462 6.580673 -23.029185
Hg -6.576447 9.870657 -23.029185
Hg -6.576447 6.580673 -19.739201
Hg -3.286462 9.870657 -19.739201
Hg -3.286462 6.580673 -16.449217
Hg -6.576447 9.870657 -16.449217
Hg -6.576447 6.580673 -13.159232
Hg -3.286462 9.870657 -13.159232
Hg -3.286462 6.580673 -9.869248
Hg -6.576447 9.870657 -9.869248
Hg -6.576447 6.580673 -6.579264
Hg -3.286462 9.870657 -6.579264
Hg -3.286462 6.580673 -3.289280
Hg -6.576447 9.870657 -3.289280
Hg -6.576447 6.580673 0.000704
Hg -3.286462 9.870657 0.000704
Hg -3.286462 6.580673 3.290689
Hg -6.576447 9.870657 3.290689
Hg -6.576447 6.580673 6.580673
Hg -3.286462 9.870657 6.580673
Hg -3.286462 6.580673 9.870657
Hg -6.576447 9.870657 9.870657
Hg -6.576447 6.580673 13.160641
Hg -3.286462 9.870657 13.160641
Hg -3.286462 6.580673 16.450625
Hg -6.576447 9.870657 16.450625
Hg -6.576447 6.580673 19.740610
Hg -3.286462 9.870657 19.740610
Hg -3.286462 6.580673 23.030594
Hg -6.576447 9.870657 23.030594
Hg -6.576447 6.580673 26.320578
Hg -3.286462 9.870657 26.320578
Hg -3.286462 6.580673 29.610562
Hg -6.576447 9.870657 29.610562
Hg -3.286462 13.160641 -29.609154
Hg -6.576447 16.450625 -29.609154
Hg -6.576447 13.160641 -26.319169
Hg -3.286462 16.450625 -26.319169
Hg -3.286462 13.160641 -23.029185
Hg -6.576447 16.450625 -23.029185
Hg -6.576447 13.160641 -19.739201
Hg -3.286462 16.450625 -19.739201
Hg -3.286462 13.160641 -16.449217
Hg -6.576447 16.450625 -16.449217
Hg -6.576447 13.160641 -13.159232
Hg -3.286462 16.450625 -13.159232
Hg -3.286462 13.160641 -9.869248
Hg -6.576447 16.450625 -9.869248
Hg -6.576447 13.160641 -6.579264
Hg -3.286462 16.450625 -6.579264
Hg -3.286462 13.160641 -3.289280
Hg -6.576447 16.450625 -3.289280
Hg -6.576447 13.160641 0.000704
Hg -3.286462 16.450625 0.000704
Hg -3.286462 13.160641 3.290689
Hg -6.576447 16.450625 3.290689
Hg -6.576447 13.160641 6.580673
Hg -3.286462 16.450625 6.580673
Hg -3.286462 13.160641 9.870657
Hg -6.576447 16.450625 9.870657
Hg -6.576447 13.160641 13.160641
Hg -3.286462 16.450625 13.160641
Hg -3.286462 13.160641 16.450625
Hg -6.576447 16.450625 16.450625
Hg -6.576447 13.160641 19.740610
Hg -3.286462 16.450625 19.740610
Hg -3.286462 13.160641 23.030594
Hg -6.576447 16.450625 23.030594
Hg -6.576447 13.160641 26.320578
Hg -3.286462 16.450625 26.320578
Hg -3.286462 13.160641 29.610562
Hg -6.576447 16.450625 29.610562
Hg -6.576447 19.740610 -26.319169
Hg -3.286462 19.740610 -23.029185
Hg -6.576447 23.030594 -23.029185
Hg -6.576447 19.740610 -19.739201
Hg -3.286462 23.030594 -19.739201
Hg -3.286462 19.740610 -16.449217
Hg -6.576447 23.030594 -16.449217
Hg -6.576447 19.740610 -13.159232
Hg -3.286462 23.030594 -13.159232
Hg -3.286462 19.740610 -9.869248
Hg -6.576447 23.030594 -9.869248
Hg -6.576447 19.740610 -6.579264
Hg -3.286462 23.030594 -6.579264
Hg -3.286462 19.740610 -3.289280
Hg -6.576447 23.030594 -3.289280
Hg -6.576447 19.740610 0.000704
Hg -3.286462 23.030594 0.000704
Hg -3.286462 19.740610 3.290689
Hg -6.576447 23.030594 3.290689
Hg -6.576447 19.740610 6.580673
Hg -3.286462 23.030594 6.580673
Hg -3.286462 19.740610 9.870657
Hg -6.576447 23.030594 9.870657
Hg -6.576447 19.740610 13.160641
Hg -3.286462 23.030594 13.160641
Hg -3.286462 19.740610 16.450625
Hg -6.576447 23.030594 16.450625
Hg -6.576447 19.740610 19.740610
Hg -3.286462 23.030594 19.740610
Hg -3.286462 19.740610 23.030594
Hg -6.576447 23.030594 23.030594
Hg -6.576447 19.740610 26.320578
Hg -6.576447 26.320578 -19.739201
Hg -3.286462 26.320578 -16.449217
Hg -6.576447 29.610562 -16.449217
Hg -6.576447 26.320578 -13.159232
Hg -3.286462 29.610562 -13.159232
Hg -3.286462 26.320578 -9.869248
Hg -6.576447 29.610562 -9.869248
Hg -6.576447 26.320578 -6.579264
Hg -3.286462 29.610562 -6.579264
Hg -3.286462 26.320578 -3.289280
Hg -6.576447 29.610562 -3.289280
Hg -6.576447 26.320578 0.000704
Hg -3.286462 29.610562 0.000704
Hg -3.286462 26.320578 3.290689
Hg -6.576447 29.610562 3.290689
Hg -6.576447 26.320578 6.580673
Hg -3.286462 29.610562 6.580673
Hg -3.286462 26.320578 9.870657
Hg -6.576447 29.610562 9.870657
Hg -6.576447 26.320578 13.160641
Hg -3.286462 29.610562 13.160641
Hg -3.286462 26.320578 16.450625
Hg -6.576447 29.610562 16.450625
Hg -6.576447 26.320578 19.740610
Hg 0.003522 -29.609154 -16.449217
Hg 3.293506 -29.609154 -13.159232
Hg 0.003522 -29.609154 -9.869248
Hg 3.293506 -29.609154 -6.579264
Hg 0.003522 -29.609154 -3.289280
Hg 3.293506 -29.609154 0.000704
Hg 0.003522 -29.609154 3.290689
Hg 3.293506 -29.609154 6.580673
Hg 0.003522 -29.609154 9.870657
Hg 3.293506 -29.609154 13.160641
Hg 0.003522 -29.609154 16.450625
Hg 0.003522 -23.029185 -23.029185
Hg 0.003522 -26.319169 -19.739201
Hg 3.293506 -23.029185 -19.739201
Hg 3.293506 -26.319169 -16.449217
Hg 0.003522 -23.029185 -16.449217
Hg 0.003522 -26.319169 -13.159232
Hg 3.293506 -23.029185 -13.159232
Hg 3.293506 -26.319169 -9.869248
Hg 0.003522 -23.029185 -9.869248
Hg 0.003522 -26.319169 -6.579264
Hg 3.293506 -23.029185 -6.579264
Hg 3.293506 -26.319169 -3.289280
Hg 0.003522 -23.029185 -3.289280
Hg 0.003522 -26.319169 0.000704
Hg 3.293506 -23.029185 0.000704
Hg 3.293506 -26.319169 3.290689
Hg 0.003522 -23.029185 3.290689
Hg 0.003522 -26.319169 6.580673
Hg 3.293506 -23.029185 6.580673
Hg 3.293506 -26.319169 9.870657
Hg 0.003522 -23.029185 9.870657
Hg 0.003522 -26.319169 13.160641
Hg 3.293506 -23.029185 13.160641
Hg 3.293506 -26.319169 16.450625
Hg 0.003522 -23.029185 16.450625
Hg 0.003522 -26.319169 19.740610
Hg 3.293506 -23.029185 19.740610
Hg 0.003522 -23.029185 23.030594
Hg 0.003522 -16.449217 -29.609154
Hg 0.003522 -19.739201 -26.319169
Hg 3.293506 -16.449217 -26.319169
Hg 3.293506 -19.739201 -23.029185
Hg 0.003522 -16.449217 -23.029185
Hg 0.003522 -19.739201 -19.739201
Hg 3.293506 -16.449217 -19.739201
Hg 3.293506 -19.739201 -16.449217
Hg 0.003522 -16.449217 -16.449217
Hg 0.003522 -19.739201 -13.159232
Hg 3.293506 -16.449217 -13.159232
Hg 3.293506 -19.739201 -9.869248
Hg 0.003522 -16.449217 -9.869248
Hg 0.003522 -19.739201 -6.579264
Hg 3.293506 -16.449217 -6.579264
Hg 3.293506 -19.739201 -3.289280
Hg 0.003522 -16.449217 -3.289280
Hg 0.003522 -19.739201 0.000704
Hg 3.293506 -16.449217 0.000704
Hg 3.293506 -19.739201 3.290689
Hg 0.003522 -16.449217 3.290689
Hg 0.003522 -19.739201 6.580673
Hg 3.293506 -16.449217 6.580673
Hg 3.293506 -19.739201 9.870657
Hg 0.003522 -16.449217 9.870657
Hg 0.003522 -19.739201 13.160641
Hg 3.293506 -16.449217 13.160641
Hg 3.293506 -19.739201 16.450625
Hg 0.003522 -16.449217 16.450625
Hg 0.003522 -19.739201 19.740610
Hg 3.293506 -16.449217 19.740610
Hg 3.293506 -19.739201 23.030594
Hg 0.003522 -16.449217 23.030594
Hg 0.003522 -19.739201 26.320578
Hg 3.293506 -16.449217 26.320578
Hg 0.003522 -16.449217 29.610562
Hg 3.293506 -13.159232 -29.609154
Hg 0.003522 -9.869248 -29.609154
Hg 0.003522 -13.159232 -26.319169
Hg 3.293506 -9.869248 -26.319169
Hg 3.293506 -13.159232 -23.029185
Hg 0.003522 -9.869248 -23.029185
Hg 0.003522 -13.159232 -19.739201
Hg 3.293506 -9.869248 -19.739201
Hg 3.293506 -13.159232 -16.449217
Hg 0.003522 -9.869248 -16.449217
Hg 0.003522 -13.159232 -13.159232
Hg 3.293506 -9.869248 -13.159232
Hg 3.293506 -13.159232 -9.869248
Hg 0.003522 -9.869248 -9.869248
Hg 0.003522 -13.159232 -6.579264
Hg 3.293506 -9.869248 -6.579264
Hg 3.293506 -13.159232 -3.289280
Hg 0.003522 -9.869248 -3.289280
Hg 0.003522 -13.159232 0.000704
Hg 3.293506 -9.869248 0.000704
Hg 3.293506 -13.159232 3.290689
Hg 0.003522 -9.869248 3.290689
Hg 0.003522 -13.159232 6.580673
Hg 3.293506 -9.869248 6.580673
Hg 3.293506 -13.159232 9.870657
Hg 0.003522 -9.869248 9.870657
Hg 0.003522 -13.159232 13.160641
Hg 3.293506 -9.869248 13.160641
Hg 3.293506 -13.159232 16.450625
Hg 0.003522 -9.869248 16.450625
Hg 0.003522 -13.159232 19.740610
Hg 3.293506 -9.869248 19.740610
Hg 3.293506 -13.159232 23.030594
Hg 0.003522 -9.869248 23.030594
Hg 0.003522 -13.159232 26.320578
Hg 3.293506 -9.869248 26.320578
Hg 3.293506 -13.159232 29.610562
Hg 0.003522 -9.869248 29.610562
Hg 3.293506 -6.579264 -29.609154
Hg 0.003522 -3.289280 -29.609154
Hg 0.003522 -6.579264 -26.319169
Hg 3.293506 -3.289280 -26.319169
Hg 3.293506 -6.579264 -23.029185
Hg 0.003522 -3.289280 -23.029185
Hg 0.003522 -6.579264 -19.739201
Hg 3.293506 -3.289280 -19.739201
Hg 3.293506 -6.579264 -16.449217
Hg 0.003522 -3.289280 -16.449217
Hg 0.003522 -6.579264 -13.159232
Hg 3.293506 -3.289280 -13.159232
Hg 3.293506 -6.579264 -9.869248
Hg 0.003522 -3.289280 -9.869248
Hg 0.003522 -6.579264 -6.579264
Hg 3.293506 -3.289280 -6.579264
Hg 3.293506 -6.579264 -3.289280
Hg 0.003522 -3.289280 -3.289280
Hg 0.003522 -6.579264 0.000704
Hg 3.293506 -3.289280 0.000704
Hg 3.293506 -6.579264 3.290689
Hg 0.003522 -3.289280 3.290689
Hg 0.003522 -6.579264 6.580673
Hg 3.293506 -3.289280 6.580673
Hg 3.293506 -6.579264 9.870657
Hg 0.003522 -3.289280 9.870657
Hg 0.003522 -6.579264 13.160641
Hg 3.293506 -3.289280 13.160641
Hg 3.293506 -6.579264 16.450625
Hg 0.003522 -3.289280 16.450625
Hg 0.003522 -6.579264 19.740610
Hg 3.293506 -3.289280 19.740610
Hg 3.293506 -6.579264 23.030594
Hg 0.003522 -3.289280 23.030594
Hg 0.003522 -6.579264 26.320578
Hg 3.293506 -3.289280 26.320578
Hg 3.293506 -6.579264 29.610562
Hg 0.003522 -3.289280 29.610562
Hg 3.293506 0.000704 -29.609154
Hg 0.003522 3.290689 -29.609154
Hg 0.003522 0.000704 -26.319169
Hg 3.293506 3.290689 -26.319169
Hg 3.293506 0.000704 -23.029185
Hg 0.003522 3.290689 -23.029185
Hg 0.003522 0.000704 -19.739201
Hg 3.293506 3.290689 -19.739201
Hg 3.293506 0.000704 -16.449217
Hg 0.003522 3.290689 -16.449217
Hg 0.003522 0.000704 -13.159232
Hg 3.293506 3.290689 -13.159232
Hg 3.293506 0.000704 -9.869248
Hg 0.003522 3.290689 -9.869248
Hg 0.003522 0.000704 -6.579264
Hg 3.293506 3.290689 -6.579264
Hg 3.293506 0.000704 -3.289280
Hg 0.003522 3.290689 -3.289280
Hg 0.003522 0.000704 0.000704
Hg 3.293506 3.290689 0.000704
Hg 3.293506 0.000704 3.290689
Hg 0.003522 3.290689 3.290689
Hg 0.003522 0.000704 6.580673
Hg 3.293506 3.290689 6.580673
Hg 3.293506 0.000704 9.870657
Hg 0.003522 3.290689 9.870657
Hg 0.003522 0.000704 13.160641
Hg 3.293506 3.290689 13.160641
Hg 3.293506 0.000704 16.450625
Hg 0.003522 3.290689 16.450625
Hg 0.003522 0.000704 19.740610
Hg 3.293506 3.290689 19.740610
Hg 3.293506 0.000704 23.030594
Hg 0.003522 3.290689 23.030594
Hg 0.003522 0.000704 26.320578
Hg 3.293506 3.290689 26.320578
Hg 3.293506 0.000704 29.610562
Hg 0.003522 3.290689 29.610562
Hg 3.293506 6.580673 -29.609154
Hg 0.003522 9.870657 -29.609154
Hg 0.003522 6.580673 -26.319169
Hg 3.293506 9.870657 -26.319169
Hg 3.293506 6.580673 -23.029185
Hg 0.003522 9.870657 -23.029185
Hg 0.003522 6.580673 -19.739201
Hg 3.293506 9.870657 -19.739201
Hg 3.293506 6.580673 -16.449217
Hg 0.003522 9.870657 -16.449217
Hg 0.003522 6.580673 -13.159232
Hg 3.293506 9.870657 -13.159232
Hg 3.293506 6.580673 -9.869248
Hg 0.003522 9.870657 -9.869248
Hg 0.003522 6.580673 -6.579264
Hg 3.293506 9.870657 -6.579264
Hg 3.293506 6.580673 -3.289280
Hg 0.003522 9.870657 -3.289280
Hg 0.003522 6.580673 0.000704
Hg 3.293506 9.870657 0.000704
Hg 3.293506 6.580673 3.290689
Hg 0.003522 9.870657 3.290689
Hg 0.003522 6.580673 6.580673
Hg 3.293506 9.870657 6.580673
Hg 3.293506 6.580673 9.870657
Hg 0.003522 9.870657 9.870657
Hg 0.003522 6.580673 13.160641
Hg 3.293506 9.870657 13.160641
Hg 3.293506 6.580673 16.450625
Hg 0.003522 9.870657 16.450625
Hg 0.003522 6.580673 19.740610
Hg 3.293506 9.870657 19.740610
Hg 3.293506 6.580673 23.030594
Hg 0.003522 9.870657 23.030594
Hg 0.003522 6.580673 26.320578
Hg 3.293506 9.870657 26.320578
Hg 3.293506 6.580673 29.610562
Hg 0.003522 9.870657 29.610562
Hg 3.293506 13.160641 -29.609154
Hg 0.003522 16.450625 -29.609154
Hg 0.003522 13.160641 -26.319169
Hg 3.293506 16.450625 -26.319169
Hg 3.293506 13.160641 -23.029185
Hg 0.003522 16.450625 -23.029185
Hg 0.003522 13.160641 -19.739201
Hg 3.293506 16.450625 -19.739201
Hg 3.293506 13.160641 -16.449217
Hg 0.003522 16.450625 -16.449217
Hg 0.003522 13.160641 -13.159232
Hg 3.293506 16.450625 -13.159232
Hg 3.293506 13.160641 -9.869248
Hg 0.003522 16.450625 -9.869248
Hg 0.003522 13.160641 -6.579264
Hg 3.293506 16.450625 -6.579264
Hg 3.293506 13.160641 -3.289280
Hg 0.003522 16.450625 -3.289280
Hg 0.003522 13.160641 0.000704
Hg 3.293506 16.450625 0.000704
Hg 3.293506 13.160641 3.290689
Hg 0.003522 16.450625 3.290689
Hg 0.003522 13.160641 6.580673
Hg 3.293506 16.450625 6.580673
Hg 3.293506 13.160641 9.870657
Hg 0.003522 16.450625 9.870657
Hg 0.003522 13.160641 13.160641
Hg 3.293506 16.450625 13.160641
Hg 3.293506 13.160641 16.450625
Hg 0.003522 16.450625 16.450625
Hg 0.003522 13.160641 19.740610
Hg 3.293506 16.450625 19.740610
Hg 3.293506 13.160641 23.030594
Hg 0.003522 16.450625 23.030594
Hg 0.003522 13.160641 26.320578
Hg 3.293506 16.450625 26.320578
Hg 3.293506 13.160641 29.610562
Hg 0.003522 16.450625 29.610562
Hg 0.003522 19.740610 -26.319169
Hg 3.293506 19.740610 -23.029185
Hg 0.003522 23.030594 -23.029185
Hg 0.003522 19.740610 -19.739201
Hg 3.293506 23.030594 -19.739201
Hg 3.293506 19.740610 -16.449217
Hg 0.003522 23.030594 -16.449217
Hg 0.003522 19.740610 -13.159232
Hg 3.293506 23.030594 -13.159232
Hg 3.293506 19.740610 -9.869248
Hg 0.003522 23.030594 -9.869248
Hg 0.003522 19.740610 -6.579264
Hg 3.293506 23.030594 -6.579264
Hg 3.293506 19.740610 -3.289280
Hg 0.003522 23.030594 -3.289280
Hg 0.003522 19.740610 0.000704
Hg 3.293506 23.030594 0.000704
Hg 3.293506 19.740610 3.290689
Hg 0.003522 23.030594 3.290689
Hg 0.003522 19.740610 6.580673
Hg 3.293506 23.030594 6.580673
Hg 3.293506 19.740610 9.870657
Hg 0.003522 23.030594 9.870657
Hg 0.003522 19.740610 13.160641
Hg 3.293506 23.030594 13.160641
Hg 3.293506 19.740610 16.450625
Hg 0.003522 23.030594 16.450625
Hg 0.003522 19.740610 19.740610
Hg 3.293506 23.030594 19.740610
Hg 3.293506 19.740610 23.030594
Hg 0.003522 23.030594 23.030594
Hg 0.003522 19.740610 26.320578
Hg 0.003522 26.320578 -19.739201
Hg 3.293506 26.320578 -16.449217
Hg 0.003522 29.610562 -16.449217
Hg 0.003522 26.320578 -13.159232
Hg 3.293506 29.610562 -13.159232
Hg 3.293506 26.320578 -9.869248
Hg 0.003522 29.610562 -9.869248
Hg 0.003522 26.320578 -6.579264
Hg 3.293506 29.610562 -6.579264
Hg 3.293506 26.320578 -3.289280
Hg 0.003522 29.610562 -3.289280
Hg 0.003522 26.320578 0.000704
Hg 3.293506 29.610562 0.000704
Hg 3.293506 26.320578 3.290689
Hg 0.003522 29.610562 3.290689
Hg 0.003522 26.320578 6.580673
Hg 3.293506 29.610562 6.580673
Hg 3.293506 26.320578 9.870657
Hg 0.003522 29.610562 9.870657
Hg 0.003522 26.320578 13.160641
Hg 3.293506 29.610562 13.160641
Hg 3.293506 26.320578 16.450625
Hg 0.003522 29.610562 16.450625
Hg 0.003522 26.320578 19.740610
Hg 6.583490 -29.609154 -16.449217
Hg 9.873474 -29.609154 -13.159232
Hg 6.583490 -29.609154 -9.869248
Hg 9.873474 -29.609154 -6.579264
Hg 6.583490 -29.609154 -3.289280
Hg 9.873474 -29.609154 0.000704
Hg 6.583490 -29.609154 3.290689
Hg 9.873474 -29.609154 6.580673
Hg 6.583490 -29.609154 9.870657
Hg 9.873474 -29.609154 13.160641
Hg 6.583490 -29.609154 16.450625
Hg 6.583490 -23.029185 -23.029185
Hg 6.583490 -26.319169 -19.739201
Hg 9.873474 -26.319169 -16.449217
Hg 6.583490 -23.029185 -16.449217
Hg 6.583490 -26.319169 -13.159232
Hg 9.873474 -23.029185 -13.159232
Hg 9.873474 -26.319169 -9.869248
Hg 6.583490 -23.029185 -9.869248
Hg 6.583490 -26.319169 -6.579264
Hg 9.873474 -23.029185 -6.579264
Hg 9.873474 -26.319169 -3.289280
Hg 6.583490 -23.029185 -3.289280
Hg 6.583490 -26.319169 0.000704
Hg 9.873474 -23.029185 0.000704
Hg 9.873474 -26.319169 3.290689
Hg 6.583490 -23.029185 3.290689
Hg 6.583490 -26.319169 6.580673
Hg 9.873474 -23.029185 6.580673
Hg 9.873474 -26.319169 9.870657
Hg 6.583490 -23.029185 9.870657
Hg 6.583490 -26.319169 13.160641
Hg 9.873474 -23.029185 13.160641
Hg 6.583490 -23.029185 16.450625
Hg 6.583490 -26.319169 19.740610
Hg 9.873474 -23.029185 19.740610
Hg 6.583490 -23.029185 23.030594
Hg 6.583490 -16.449217 -29.609154
Hg 6.583490 -19.739201 -26.319169
Hg 9.873474 -16.449217 -26.319169
Hg 9.873474 -19.739201 -23.029185
Hg 6.583490 -16.449217 -23.029185
Hg 6.583490 -19.739201 -19.739201
Hg 9.873474 -16.449217 -19.739201
Hg 9.873474 -19.739201 -16.449217
Hg 6.583490 -16.449217 -16.449217
Hg 6.583490 -19.739201 -13.159232
Hg 9.873474 -16.449217 -13.159232
Hg 9.873474 -19.739201 -9.869248
Hg 6.583490 -16.449217 -9.869248
Hg 6.583490 -19.739201 -6.579264
Hg 9.873474 -16.449217 -6.579264
Hg 9.873474 -19.739201 -3.289280
Hg 6.583490 -16.449217 -3.289280
Hg 6.583490 -19.739201 0.000704
Hg 9.873474 -16.449217 0.000704
Hg 9.873474 -19.739201 3.290689
Hg 6.583490 -16.449217 3.290689
Hg 6.583490 -19.739201 6.580673
Hg 9.873474 -16.449217 6.580673
Hg 9.873474 -19.739201 9.870657
Hg 6.583490 -16.449217 9.870657
Hg 6.583490 -19.739201 13.160641
Hg 9.873474 -16.449217 13.160641
Hg 9.873474 -19.739201 16.450625
Hg 6.583490 -16.449217 16.450625
Hg 6.583490 -19.739201 19.740610
Hg 9.873474 -16.449217 19.740610
Hg 9.873474 -19.739201 23.030594
Hg 6.583490 -16.449217 23.030594
Hg 6.583490 -19.739201 26.320578
Hg 6.583490 -16.449217 29.610562
Hg 9.873474 -13.159232 -29.609154
Hg 6.583490 -9.869248 -29.609154
Hg 6.583490 -13.159232 -26.319169
Hg 9.873474 -9.869248 -26.319169
Hg 9.873474 -13.159232 -23.029185
Hg 6.583490 -9.869248 -23.029185
Hg 6.583490 -13.159232 -19.739201
Hg 9.873474 -9.869248 -19.739201
Hg 9.873474 -13.159232 -16.449217
Hg 6.583490 -9.869248 -16.449217
Hg 6.583490 -13.159232 -13.159232
Hg 9.873474 -9.869248 -13.159232
Hg 9.873474 -13.159232 -9.869248
Hg 6.583490 -9.869248 -9.869248
Hg 6.583490 -13.159232 -6.579264
Hg 9.873474 -9.869248 -6.579264
Hg 9.873474 -13.159232 -3.289280
Hg 6.583490 -9.869248 -3.289280
Hg 6.583490 -13.159232 0.000704
Hg 9.873474 -9.869248 0.000704
Hg 9.873474 -13.159232 3.290689
Hg 6.583490 -9.869248 3.290689
Hg 6.583490 -13.159232 6.580673
Hg 9.873474 -9.869248 6.580673
Hg 9.873474 -13.159232 9.870657
Hg 6.583490 -9.869248 9.870657
Hg 6.583490 -13.159232 13.160641
Hg 9.873474 -9.869248 13.160641
Hg 9.873474 -13.159232 16.450625
Hg 6.583490 -9.869248 16.450625
Hg 6.583490 -13.159232 19.740610
Hg 9.873474 -9.869248 19.740610
Hg 9.873474 -13.159232 23.030594
Hg 6.583490 -9.869248 23.030594
Hg 6.583490 -13.159232 26.320578
Hg 9.873474 -9.869248 26.320578
Hg 9.873474 -13.159232 29.610562
Hg 6.583490 -9.869248 29.610562
Hg 9.873474 -6.579264 -29.609154
Hg 6.583490 -3.289280 -29.609154
Hg 6.583490 -6.579264 -26.319169
Hg 9.873474 -3.289280 -26.319169
Hg 9.873474 -6.579264 -23.029185
Hg 6.583490 -3.289280 -23.029185
Hg 6.583490 -6.579264 -19.739201
Hg 9.873474 -3.289280 -19.739201
Hg 9.873474 -6.579264 -16.449217
Hg 6.583490 -3.289280 -16.449217
Hg 6.583490 -6.579264 -13.159232
Hg 9.873474 -3.289280 -13.159232
Hg 9.873474 -6.579264 -9.869248
Hg 6.583490 -3.289280 -9.869248
Hg 6.583490 -6.579264 -6.579264
Hg 9.873474 -3.289280 -6.579264
Hg 9.873474 -6.579264 -3.289280
Hg 6.583490 -3.289280 -3.289280
Hg 6.583490 -6.579264 0.000704
Hg 9.873474 -3.289280 0.000704
Hg 9.873474 -6.579264 3.290689
Hg 6.583490 -3.289280 3.290689
Hg 6.583490 -6.579264 6.580673
Hg 9.873474 -3.289280 6.580673
Hg 9.873474 -6.579264 9.870657
Hg 6.583490 -3.289280 9.870657
Hg 6.583490 -6.579264 13.160641
Hg 9.873474 -3.289280 13.160641
Hg 9.873474 -6.579264 16.450625
Hg 6.583490 -3.289280 16.450625
Hg 6.583490 -6.579264 19.740610
Hg 9.873474 -3.289280 19.740610
Hg 9.873474 -6.579264 23.030594
Hg 6.583490 -3.289280 23.030594
Hg 6.583490 -6.579264 26.320578
Hg 9.873474 -3.289280 26.320578
Hg 9.873474 -6.579264 29.610562
Hg 6.583490 -3.289280 29.610562
Hg 9.873474 0.000704 -29.609154
Hg 6.583490 3.290689 -29.609154
Hg 6.583490 0.000704 -26.319169
Hg 9.873474 3.290689 -26.319169
Hg 9.873474 0.000704 -23.029185
Hg 6.583490 3.290689 -23.029185
Hg 6.583490 0.000704 -19.739201
Hg 9.873474 3.290689 -19.739201
Hg 9.873474 0.000704 -16.449217
Hg 6.583490 3.290689 -16.449217
Hg 6.583490 0.000704 -13.159232
Hg 9.873474 3.290689 -13.159232
Hg 9.873474 0.000704 -9.869248
Hg 6.583490 3.290689 -9.869248
Hg 6.583490 0.000704 -6.579264
Hg 9.873474 3.290689 -6.579264
Hg 9.873474 0.000704 -3.289280
Hg 6.583490 3.290689 -3.289280
Hg 6.583490 0.000704 0.000704
Hg 9.873474 3.290689 0.000704
Hg 9.873474 0.000704 3.290689
Hg 6.583490 3.290689 3.290689
Hg 6.583490 0.000704 6.580673
Hg 9.873474 3.290689 6.580673
Hg 9.873474 0.000704 9.870657
Hg 6.583490 3.290689 9.870657
Hg 6.583490 0.000704 13.160641
Hg 9.873474 3.290689 13.160641
Hg 9.873474 0.000704 16.450625
Hg 6.583490 3.290689 16.450625
Hg 6.583490 0.000704 19.740610
Hg 9.873474 3.290689 19.740610
Hg 9.873474 0.000704 23.030594
Hg 6.583490 3.290689 23.030594
Hg 6.583490 0.000704 26.320578
Hg 9.873474 3.290689 26.320578
Hg 9.873474 0.000704 29.610562
Hg 6.583490 3.290689 29.610562
Hg 9.873474 6.580673 -29.609154
Hg 6.583490 9.870657 -29.609154
Hg 6.583490 6.580673 -26.319169
Hg 9.873474 9.870657 -26.319169
Hg 9.873474 6.580673 -23.029185
Hg 6.583490 9.870657 -23.029185
Hg 6.583490 6.580673 -19.739201
Hg 9.873474 9.870657 -19.739201
Hg 9.873474 6.580673 -16.449217
Hg 6.583490 9.870657 -16.449217
Hg 6.583490 6.580673 -13.159232
Hg 9.873474 9.870657 -13.159232
Hg 9.873474 6.580673 -9.869248
Hg 6.583490 9.870657 -9.869248
Hg 6.583490 6.580673 -6.579264
Hg 9.873474 9.870657 -6.579264
Hg 9.873474 6.580673 -3.289280
Hg 6.583490 9.870657 -3.289280
Hg 6.583490 6.580673 0.000704
Hg 9.873474 9.870657 0.000704
Hg 9.873474 6.580673 3.290689
Hg 6.583490 9.870657 3.290689
Hg 6.583490 6.580673 6.580673
Hg 9.873474 9.870657 6.580673
Hg 9.873474 6.580673 9.870657
Hg 6.583490 9.870657 9.870657
Hg 6.583490 6.580673 13.160641
Hg 9.873474 9.870657 13.160641
Hg 9.873474 6.580673 16.450625
Hg 6.583490 9.870657 16.450625
Hg 6.583490 6.580673 19.740610
Hg 9.873474 9.870657 19.740610
Hg 9.873474 6.580673 23.030594
Hg 6.583490 9.870657 23.030594
Hg 6.583490 6.580673 26.320578
Hg 9.873474 9.870657 26.320578
Hg 9.873474 6.580673 29.610562
Hg 6.583490 9.870657 29.610562
Hg 9.873474 13.160641 -29.609154
Hg 6.583490 16.450625 -29.609154
Hg 6.583490 13.160641 -26.319169
Hg 9.873474 13.160641 -23.029185
Hg 6.583490 16.450625 -23.029185
Hg 6.583490 13.160641 -19.739201
Hg 9.873474 16.450625 -19.739201
Hg 9.873474 13.160641 -16.449217
Hg 6.583490 16.450625 -16.449217
Hg 6.583490 13.160641 -13.159232
Hg 9.873474 16.450625 -13.159232
Hg 9.873474 13.160641 -9.869248
Hg 6.583490 16.450625 -9.869248
Hg 6.583490 13.160641 -6.579264
Hg 9.873474 16.450625 -6.579264
Hg 9.873474 13.160641 -3.289280
Hg 6.583490 16.450625 -3.289280
Hg 6.583490 13.160641 0.000704
Hg 9.873474 16.450625 0.000704
Hg 9.873474 13.160641 3.290689
Hg 6.583490 16.450625 3.290689
Hg 6.583490 13.160641 6.580673
Hg 9.873474 16.450625 6.580673
Hg 9.873474 13.160641 9.870657
Hg 6.583490 16.450625 9.870657
Hg 6.583490 13.160641 13.160641
Hg 9.873474 16.450625 13.160641
Hg 9.873474 13.160641 16.450625
Hg 6.583490 16.450625 16.450625
Hg 6.583490 13.160641 19.740610
Hg 9.873474 16.450625 19.740610
Hg 9.873474 13.160641 23.030594
Hg 6.583490 16.450625 23.030594
Hg 6.583490 13.160641 26.320578
Hg 9.873474 13.160641 29.610562
Hg 6.583490 16.450625 29.610562
Hg 6.583490 19.740610 -26.319169
Hg 9.873474 19.740610 -23.029185
Hg 6.583490 23.030594 -23.029185
Hg 6.583490 19.740610 -19.739201
Hg 9.873474 23.030594 -19.739201
Hg 9.873474 19.740610 -16.449217
Hg 6.583490 23.030594 -16.449217
Hg 6.583490 19.740610 -13.159232
Hg 9.873474 23.030594 -13.159232
Hg 9.873474 19.740610 -9.869248
Hg 6.583490 23.030594 -9.869248
Hg 6.583490 19.740610 -6.579264
Hg 9.873474 23.030594 -6.579264
Hg 9.873474 19.740610 -3.289280
Hg 6.583490 23.030594 -3.289280
Hg 6.583490 19.740610 0.000704
Hg 9.873474 23.030594 0.000704
Hg 9.873474 19.740610 3.290689
Hg 6.583490 23.030594 3.290689
Hg 6.583490 19.740610 6.580673
Hg 9.873474 23.030594 6.580673
Hg 9.873474 19.740610 9.870657
Hg 6.583490 23.030594 9.870657
Hg 6.583490 19.740610 13.160641
Hg 9.873474 23.030594 13.160641
Hg 9.873474 19.740610 16.450625
Hg 6.583490 23.030594 16.450625
Hg 6.583490 19.740610 19.740610
Hg 9.873474 23.030594 19.740610
Hg 9.873474 19.740610 23.030594
Hg 6.583490 23.030594 23.030594
Hg 6.583490 19.740610 26.320578
Hg 6.583490 26.320578 -19.739201
Hg 6.583490 29.610562 -16.449217
Hg 6.583490 26.320578 -13.159232
Hg 9.873474 29.610562 -13.159232
Hg 9.873474 26.320578 -9.869248
Hg 6.583490 29.610562 -9.869248
Hg 6.583490 26.320578 -6.579264
Hg 9.873474 29.610562 -6.579264
Hg 9.873474 26.320578 -3.289280
Hg 6.583490 29.610562 -3.289280
Hg 6.583490 26.320578 0.000704
Hg 9.873474 29.610562 0.000704
Hg 9.873474 26.320578 3.290689
Hg 6.583490 29.610562 3.290689
Hg 6.583490 26.320578 6.580673
Hg 9.873474 29.610562 6.580673
Hg 9.873474 26.320578 9.870657
Hg 6.583490 29.610562 9.870657
Hg 6.583490 26.320578 13.160641
Hg 9.873474 29.610562 13.160641
Hg 6.583490 29.610562 16.450625
Hg 6.583490 26.320578 19.740610
Hg 13.163459 -29.609154 -9.869248
Hg 16.453443 -29.609154 -6.579264
Hg 13.163459 -29.609154 -3.289280
Hg 16.453443 -29.609154 0.000704
Hg 13.163459 -29.609154 3.290689
Hg 16.453443 -29.609154 6.580673
Hg 13.163459 -29.609154 9.870657
Hg 13.163459 -23.029185 -16.449217
Hg 16.453443 -23.029185 -13.159232
Hg 16.453443 -26.319169 -9.869248
Hg 13.163459 -23.029185 -9.869248
Hg 13.163459 -26.319169 -6.579264
Hg 16.453443 -23.029185 -6.579264
Hg 16.453443 -26.319169 -3.289280
Hg 13.163459 -23.029185 -3.289280
Hg 13.163459 -26.319169 0.000704
Hg 16.453443 -23.029185 0.000704
Hg 16.453443 -26.319169 3.290689
Hg 13.163459 -23.029185 3.290689
Hg 13.163459 -26.319169 6.580673
Hg 16.453443 -23.029185 6.580673
Hg 16.453443 -26.319169 9.870657
Hg 13.163459 -23.029185 9.870657
Hg 13.163459 -26.319169 13.160641
Hg 13.163459 -23.029185 16.450625
Hg 13.163459 -19.739201 -19.739201
Hg 16.453443 -16.449217 -19.739201
Hg 13.163459 -16.449217 -16.449217
Hg 13.163459 -19.739201 -13.159232
Hg 16.453443 -16.449217 -13.159232
Hg 16.453443 -19.739201 -9.869248
Hg 13.163459 -16.449217 -9.869248
Hg 13.163459 -19.739201 -6.579264
Hg 16.453443 -16.449217 -6.579264
Hg 16.453443 -19.739201 -3.289280
Hg 13.163459 -16.449217 -3.289280
Hg 13.163459 -19.739201 0.000704
Hg 16.453443 -16.449217 0.000704
Hg 16.453443 -19.739201 3.290689
Hg 13.163459 -16.449217 3.290689
Hg 13.163459 -19.739201 6.580673
Hg 16.453443 -16.449217 6.580673
Hg 16.453443 -19.739201 9.870657
Hg 13.163459 -16.449217 9.870657
Hg 13.163459 -19.739201 13.160641
Hg 16.453443 -16.449217 13.160641
Hg 16.453443 -19.739201 16.450625
Hg 13.163459 -16.449217 16.450625
Hg 16.453443 -16.449217 19.740610
Hg 13.163459 -16.449217 23.030594
Hg 13.163459 -9.869248 -29.609154
Hg 13.163459 -13.159232 -26.319169
Hg 16.453443 -13.159232 -23.029185
Hg 13.163459 -9.869248 -23.029185
Hg 13.163459 -13.159232 -19.739201
Hg 16.453443 -9.869248 -19.739201
Hg 16.453443 -13.159232 -16.449217
Hg 13.163459 -9.869248 -16.449217
Hg 13.163459 -13.159232 -13.159232
Hg 16.453443 -9.869248 -13.159232
Hg 16.453443 -13.159232 -9.869248
Hg 13.163459 -9.869248 -9.869248
Hg 13.163459 -13.159232 -6.579264
Hg 16.453443 -9.869248 -6.579264
Hg 16.453443 -13.159232 -3.289280
Hg 13.163459 -9.869248 -3.289280
Hg 13.163459 -13.159232 0.000704
Hg 16.453443 -9.869248 0.000704
Hg 16.453443 -13.159232 3.290689
Hg 13.163459 -9.869248 3.290689
Hg 13.163459 -13.159232 6.580673
Hg 16.453443 -9.869248 6.580673
Hg 16.453443 -13.159232 9.870657
Hg 13.163459 -9.869248 9.870657
Hg 13.163459 -13.159232 13.160641
Hg 16.453443 -9.869248 13.160641
Hg 16.453443 -13.159232 16.450625
Hg 13.163459 -9.869248 16.450625
Hg 13.163459 -13.159232 19.740610
Hg 16.453443 -9.869248 19.740610
Hg 13.163459 -9.869248 23.030594
Hg 13.163459 -13.159232 26.320578
Hg 16.453443 -9.869248 26.320578
Hg 13.163459 -9.869248 29.610562
Hg 16.453443 -6.579264 -29.609154
Hg 13.163459 -3.289280 -29.609154
Hg 13.163459 -6.579264 -26.319169
Hg 16.453443 -3.289280 -26.319169
Hg 16.453443 -6.579264 -23.029185
Hg 13.163459 -3.289280 -23.029185
Hg 13.163459 -6.579264 -19.739201
Hg 16.453443 -3.289280 -19.739201
Hg 16.453443 -6.579264 -16.449217
Hg 13.163459 -3.289280 -16.449217
Hg 13.163459 -6.579264 -13.159232
Hg 16.453443 -3.289280 -13.159232
Hg 16.453443 -6.579264 -9.869248
Hg 13.163459 -3.289280 -9.869248
Hg 13.163459 -6.579264 -6.579264
Hg 16.453443 -3.289280 -6.579264
Hg 16.453443 -6.579264 -3.289280
Hg 13.163459 -3.289280 -3.289280
Hg 13.163459 -6.579264 0.000704
Hg 16.453443 -3.289280 0.000704
Hg 16.453443 -6.579264 3.290689
Hg 13.163459 -3.289280 3.290689
Hg 13.163459 -6.579264 6.580673
Hg 16.453443 -3.289280 6.580673
Hg 16.453443 -6.579264 9.870657
Hg 13.163459 -3.289280 9.870657
Hg 13.163459 -6.579264 13.160641
Hg 16.453443 -3.289280 13.160641
Hg 16.453443 -6.579264 16.450625
Hg 13.163459 -3.289280 16.450625
Hg 13.163459 -6.579264 19.740610
Hg 16.453443 -3.289280 19.740610
Hg 16.453443 -6.579264 23.030594
Hg 13.163459 -3.289280 23.030594
Hg 13.163459 -6.579264 26.320578
Hg 16.453443 -3.289280 26.320578
Hg 16.453443 -6.579264 29.610562
Hg 13.163459 -3.289280 29.610562
Hg 16.453443 0.000704 -29.609154
Hg 13.163459 3.290689 -29.609154
Hg 13.163459 0.000704 -26.319169
Hg 16.453443 3.290689 -26.319169
Hg 16.453443 0.000704 -23.029185
Hg 13.163459 3.290689 -23.029185
Hg 13.163459 0.000704 -19.739201
Hg 16.453443 3.290689 -19.739201
Hg 16.453443 0.000704 -16.449217
Hg 13.163459 3.290689 -16.449217
Hg 13.163459 0.000704 -13.159232
Hg 16.453443 3.290689 -13.159232
Hg 16.453443 0.000704 -9.869248
Hg 13.163459 3.290689 -9.869248
Hg 13.163459 0.000704 -6.579264
Hg 16.453443 3.290689 -6.579264
Hg 16.453443 0.000704 -3.289280
Hg 13.163459 3.290689 -3.289280
Hg 13.163459 0.000704 0.000704
Hg 16.453443 3.290689 0.000704
Hg 16.453443 0.000704 3.290689
Hg 13.163459 3.290689 3.290689
Hg 13.163459 0.000704 6.580673
Hg 16.453443 3.290689 6.580673
Hg 16.453443 0.000704 9.870657
Hg 13.163459 3.290689 9.870657
Hg 13.163459 0.000704 13.160641
Hg 16.453443 3.290689 13.160641
Hg 16.453443 0.000704 16.450625
Hg 13.163459 3.290689 16.450625
Hg 13.163459 0.000704 19.740610
Hg 16.453443 3.290689 19.740610
Hg 16.453443 0.000704 23.030594
Hg 13.163459 3.290689 23.030594
Hg 13.163459 0.000704 26.320578
Hg 16.453443 3.290689 26.320578
Hg 16.453443 0.000704 29.610562
Hg 13.163459 3.290689 29.610562
Hg 16.453443 6.580673 -29.609154
Hg 13.163459 9.870657 -29.609154
Hg 13.163459 6.580673 -26.319169
Hg 16.453443 9.870657 -26.319169
Hg 16.453443 6.580673 -23.029185
Hg 13.163459 9.870657 -23.029185
Hg 13.163459 6.580673 -19.739201
Hg 16.453443 9.870657 -19.739201
Hg 16.453443 6.580673 -16.449217
Hg 13.163459 9.870657 -16.449217
Hg 13.163459 6.580673 -13.159232
Hg 16.453443 9.870657 -13.159232
Hg 16.453443 6.580673 -9.869248
Hg 13.163459 9.870657 -9.869248
Hg 13.163459 6.580673 -6.579264
Hg 16.453443 9.870657 -6.579264
Hg 16.453443 6.580673 -3.289280
Hg 13.163459 9.870657 -3.289280
Hg 13.163459 6.580673 0.000704
Hg 16.453443 9.870657 0.000704
Hg 16.453443 6.580673 3.290689
Hg 13.163459 9.870657 3.290689
Hg 13.163459 6.580673 6.580673
Hg 16.453443 9.870657 6.580673
Hg 16.453443 6.580673 9.870657
Hg 13.163459 9.870657 9.870657
Hg 13.163459 6.580673 13.160641
Hg 16.453443 9.870657 13.160641
Hg 16.453443 6.580673 16.450625
Hg 13.163459 9.870657 16.450625
Hg 13.163459 6.580673 19.740610
Hg 16.453443 9.870657 19.740610
Hg 16.453443 6.580673 23.030594
Hg 13.163459 9.870657 23.030594
Hg 13.163459 6.580673 26.320578
Hg 16.453443 9.870657 26.320578
Hg 16.453443 6.580673 29.610562
Hg 13.163459 9.870657 29.610562
Hg 13.163459 13.160641 -26.319169
Hg 13.163459 16.450625 -23.029185
Hg 13.163459 13.160641 -19.739201
Hg 16.453443 16.450625 -19.739201
Hg 16.453443 13.160641 -16.449217
Hg 13.163459 16.450625 -16.449217
Hg 13.163459 13.160641 -13.159232
Hg 16.453443 16.450625 -13.159232
Hg 16.453443 13.160641 -9.869248
Hg 13.163459 16.450625 -9.869248
Hg 13.163459 13.160641 -6.579264
Hg 16.453443 16.450625 -6.579264
Hg 16.453443 13.160641 -3.289280
Hg 13.163459 16.450625 -3.289280
Hg 13.163459 13.160641 0.000704
Hg 16.453443 16.450625 0.000704
Hg 16.453443 13.160641 3.290689
Hg 13.163459 16.450625 3.290689
Hg 13.163459 13.160641 6.580673
Hg 16.453443 16.450625 6.580673
Hg 16.453443 13.160641 9.870657
Hg 13.163459 16.450625 9.870657
Hg 13.163459 13.160641 13.160641
Hg 16.453443 16.450625 13.160641
Hg 16.453443 13.160641 16.450625
Hg 13.163459 16.450625 16.450625
Hg 13.163459 13.160641 19.740610
Hg 16.453443 16.450625 19.740610
Hg 13.163459 16.450625 23.030594
Hg 13.163459 13.160641 26.320578
Hg 16.453443 19.740610 -16.449217
Hg 13.163459 23.030594 -16.449217
Hg 13.163459 19.740610 -13.159232
Hg 16.453443 19.740610 -9.869248
Hg 13.163459 23.030594 -9.869248
Hg 13.163459 19.740610 -6.579264
Hg 16.453443 23.030594 -6.579264
Hg 16.453443 19.740610 -3.289280
Hg 13.163459 23.030594 -3.289280
Hg 13.163459 19.740610 0.000704
Hg 16.453443 23.030594 0.000704
Hg 16.453443 19.740610 3.290689
Hg 13.163459 23.030594 3.290689
Hg 13.163459 19.740610 6.580673
Hg 16.453443 23.030594 6.580673
Hg 16.453443 19.740610 9.870657
Hg 13.163459 23.030594 9.870657
Hg 13.163459 19.740610 13.160641
Hg 16.453443 19.740610 16.450625
Hg 13.163459 23.030594 16.450625
Hg 13.163459 26.320578 -13.159232
Hg 16.453443 26.320578 -9.869248
Hg 13.163459 29.610562 -9.869248
Hg 13.163459 26.320578 -6.579264
Hg 16.453443 29.610562 -6.579264
Hg 16.453443 26.320578 -3.289280
Hg 13.163459 29.610562 -3.289280
Hg 13.163459 26.320578 0.000704
Hg 16.453443 29.610562 0.000704
Hg 16.453443 26.320578 3.290689
Hg 13.163459 29.610562 3.290689
Hg 13.163459 26.320578 6.580673
Hg 16.453443 29.610562 6.580673
Hg 16.453443 26.320578 9.870657
Hg 13.163459 29.610562 9.870657
Hg 13.163459 26.320578 13.160641
Hg 19.743427 -26.319169 -6.579264
Hg 23.033411 -23.029185 -6.579264
Hg 19.743427 -23.029185 -3.289280
Hg 19.743427 -26.319169 0.000704
Hg 23.033411 -23.029185 0.000704
Hg 19.743427 -23.029185 3.290689
Hg 19.743427 -26.319169 6.580673
Hg 23.033411 -23.029185 6.580673
Hg 19.743427 -23.029185 9.870657
Hg 19.743427 -16.449217 -16.449217
Hg 19.743427 -19.739201 -13.159232
Hg 23.033411 -19.739201 -9.869248
Hg 19.743427 -16.449217 -9.869248
Hg 19.743427 -19.739201 -6.579264
Hg 23.033411 -16.449217 -6.579264
Hg 23.033411 -19.739201 -3.289280
Hg 19.743427 -16.449217 -3.289280
Hg 19.743427 -19.739201 0.000704
Hg 23.033411 -16.449217 0.000704
Hg 23.033411 -19.739201 3.290689
Hg 19.743427 -16.449217 3.290689
Hg 19.743427 -19.739201 6.580673
Hg 23.033411 -16.449217 6.580673
Hg 19.743427 -16.449217 9.870657
Hg 19.743427 -19.739201 13.160641
Hg 23.033411 -16.449217 13.160641
Hg 19.743427 -9.869248 -23.029185
Hg 23.033411 -9.869248 -19.739201
Hg 23.033411 -13.159232 -16.449217
Hg 19.743427 -9.869248 -16.449217
Hg 19.743427 -13.159232 -13.159232
Hg 23.033411 -9.869248 -13.159232
Hg 23.033411 -13.159232 -9.869248
Hg 19.743427 -9.869248 -9.869248
Hg 19.743427 -13.159232 -6.579264
Hg 23.033411 -9.869248 -6.579264
Hg 23.033411 -13.159232 -3.289280
Hg 19.743427 -9.869248 -3.289280
Hg 19.743427 -13.159232 0.000704
Hg 23.033411 -9.869248 0.000704
Hg 23.033411 -13.159232 3.290689
Hg 19.743427 -9.869248 3.290689
Hg 19.743427 -13.159232 6.580673
Hg 23.033411 -9.869248 6.580673
Hg 23.033411 -13.159232 9.870657
Hg 19.743427 -9.869248 9.870657
Hg 19.743427 -13.159232 13.160641
Hg 23.033411 -9.869248 13.160641
Hg 23.033411 -13.159232 16.450625
Hg 19.743427 -9.869248 16.450625
Hg 19.743427 -13.159232 19.740610
Hg 19.743427 -9.869248 23.030594
Hg 19.743427 -6.579264 -26.319169
Hg 23.033411 -6.579264 -23.029185
Hg 19.743427 -3.289280 -23.029185
Hg 19.743427 -6.579264 -19.739201
Hg 23.033411 -3.289280 -19.739201
Hg 23.033411 -6.579264 -16.449217
Hg 19.743427 -3.289280 -16.449217
Hg 19.743427 -6.579264 -13.159232
Hg 23.033411 -3.289280 -13.159232
Hg 23.033411 -6.579264 -9.869248
Hg 19.743427 -3.289280 -9.869248
Hg 19.743427 -6.579264 -6.579264
Hg 23.033411 -3.289280 -6.579264
Hg 23.033411 -6.579264 -3.289280
Hg 19.743427 -3.289280 -3.289280
Hg 19.743427 -6.579264 0.000704
Hg 23.033411 -3.289280 0.000704
Hg 23.033411 -6.579264 3.290689
Hg 19.743427 -3.289280 3.290689
Hg 19.743427 -6.579264 6.580673
Hg 23.033411 -3.289280 6.580673
Hg 23.033411 -6.579264 9.870657
Hg 19.743427 -3.289280 9.870657
Hg 19.743427 -6.579264 13.160641
Hg 23.033411 -3.289280 13.160641
Hg 23.033411 -6.579264 16.450625
Hg 19.743427 -3.289280 16.450625
Hg 19.743427 -6.579264 19.740610
Hg 23.033411 -3.289280 19.740610
Hg 23.033411 -6.579264 23.030594
Hg 19.743427 -3.289280 23.030594
Hg 19.743427 -6.579264 26.320578
Hg 19.743427 0.000704 -26.319169
Hg 23.033411 0.000704 -23.029185
Hg 19.743427 3.290689 -23.029185
Hg 19.743427 0.000704 -19.739201
Hg 23.033411 3.290689 -19.739201
Hg 23.033411 0.000704 -16.449217
Hg 19.743427 3.290689 -16.449217
Hg 19.743427 0.000704 -13.159232
Hg 23.033411 3.290689 -13.159232
Hg 23.033411 0.000704 -9.869248
Hg 19.743427 3.290689 -9.869248
Hg 19.743427 0.000704 -6.579264
Hg 23.033411 3.290689 -6.579264
Hg 23.033411 0.000704 -3.289280
Hg 19.743427 3.290689 -3.289280
Hg 19.743427 0.000704 0.000704
Hg 23.033411 3.290689 0.000704
Hg 23.033411 0.000704 3.290689
Hg 19.743427 3.290689 3.290689
Hg 19.743427 0.000704 6.580673
Hg 23.033411 3.290689 6.580673
Hg 23.033411 0.000704 9.870657
Hg 19.743427 3.290689 9.870657
Hg 19.743427 0.000704 13.160641
Hg 23.033411 3.290689 13.160641
Hg 23.033411 0.000704 16.450625
Hg 19.743427 3.290689 16.450625
Hg 19.743427 0.000704 19.740610
Hg 23.033411 3.290689 19.740610
Hg 23.033411 0.000704 23.030594
Hg 19.743427 3.290689 23.030594
Hg 19.743427 0.000704 26.320578
Hg 19.743427 6.580673 -26.319169
Hg 23.033411 6.580673 -23.029185
Hg 19.743427 9.870657 -23.029185
Hg 19.743427 6.580673 -19.739201
Hg 23.033411 6.580673 -16.449217
Hg 19.743427 9.870657 -16.449217
Hg 19.743427 6.580673 -13.159232
Hg 23.033411 9.870657 -13.159232
Hg 23.033411 6.580673 -9.869248
Hg 19.743427 9.870657 -9.869248
Hg 19.743427 6.580673 -6.579264
Hg 23.033411 9.870657 -6.579264
Hg 23.033411 6.580673 -3.289280
Hg 19.743427 9.870657 -3.289280
Hg 19.743427 6.580673 0.000704
Hg 23.033411 9.870657 0.000704
Hg 23.033411 6.580673 3.290689
Hg 19.743427 9.870657 3.290689
Hg 19.743427 6.580673 6.580673
Hg 23.033411 9.870657 6.580673
Hg 23.033411 6.580673 9.870657
Hg 19.743427 9.870657 9.870657
Hg 19.743427 6.580673 13.160641
Hg 23.033411 9.870657 13.160641
Hg 23.033411 6.580673 16.450625
Hg 19.743427 9.870657 16.450625
Hg 19.743427 6.580673 19.740610
Hg 23.033411 6.580673 23.030594
Hg 19.743427 9.870657 23.030594
Hg 19.743427 6.580673 26.320578
Hg 19.743427 13.160641 -19.739201
Hg 23.033411 13.160641 -16.449217
Hg 19.743427 13.160641 -13.159232
Hg 23.033411 16.450625 -13.159232
Hg 23.033411 13.160641 -9.869248
Hg 19.743427 16.450625 -9.869248
Hg 19.743427 13.160641 -6.579264
Hg 23.033411 16.450625 -6.579264
Hg 23.033411 13.160641 -3.289280
Hg 19.743427 16.450625 -3.289280
Hg 19.743427 13.160641 0.000704
Hg 23.033411 16.450625 0.000704
Hg 23.033411 13.160641 3.290689
Hg 19.743427 16.450625 3.290689
Hg 19.743427 13.160641 6.580673
Hg 23.033411 16.450625 6.580673
Hg 23.033411 13.160641 9.870657
Hg 19.743427 16.450625 9.870657
Hg 19.743427 13.160641 13.160641
Hg 23.033411 16.450625 13.160641
Hg 23.033411 13.160641 16.450625
Hg 19.743427 13.160641 19.740610
Hg 19.743427 19.740610 -13.159232
Hg 19.743427 23.030594 -9.869248
Hg 19.743427 19.740610 -6.579264
Hg 23.033411 23.030594 -6.579264
Hg 23.033411 19.740610 -3.289280
Hg 19.743427 23.030594 -3.289280
Hg 19.743427 19.740610 0.000704
Hg 23.033411 23.030594 0.000704
Hg 23.033411 19.740610 3.290689
Hg 19.743427 23.030594 3.290689
Hg 19.743427 19.740610 6.580673
Hg 23.033411 23.030594 6.580673
Hg 19.743427 23.030594 9.870657
Hg 19.743427 19.740610 13.160641
Hg 19.743427 26.320578 -6.579264
Hg 19.743427 26.320578 0.000704
Hg 19.743427 26.320578 6.580673
Hg 26.323395 -16.449217 -9.869248
Hg 26.323395 -19.739201 -6.579264
Hg 29.613380 -16.449217 -6.579264
Hg 26.323395 -16.449217 -3.289280
Hg 26.323395 -19.739201 0.000704
Hg 29.613380 -16.449217 0.000704
Hg 26.323395 -16.449217 3.290689
Hg 26.323395 -19.739201 6.580673
Hg 29.613380 -16.449217 6.580673
Hg 26.323395 -16.449217 9.870657
Hg 26.323395 -13.159232 -13.159232
Hg 29.613380 -9.869248 -13.159232
Hg 29.613380 -13.159232 -9.869248
Hg 26.323395 -9.869248 -9.869248
Hg 26.323395 -13.159232 -6.579264
Hg 29.613380 -9.869248 -6.579264
Hg 29.613380 -13.159232 -3.289280
Hg 26.323395 -9.869248 -3.289280
Hg 26.323395 -13.159232 0.000704
Hg 29.613380 -9.869248 0.000704
Hg 29.613380 -13.159232 3.290689
Hg 26.323395 -9.869248 3.290689
Hg 26.323395 -13.159232 6.580673
Hg 29.613380 -9.869248 6.580673
Hg 29.613380 -13.159232 9.870657
Hg 26.323395 -9.869248 9.870657
Hg 29.613380 -9.869248 13.160641
Hg 26.323395 -9.869248 16.450625
Hg 26.323395 -6.579264 -19.739201
Hg 29.613380 -6.579264 -16.449217
Hg 26.323395 -3.289280 -16.449217
Hg 26.323395 -6.579264 -13.159232
Hg 29.613380 -3.289280 -13.159232
Hg 29.613380 -6.579264 -9.869248
Hg 26.323395 -3.289280 -9.869248
Hg 26.323395 -6.579264 -6.579264
Hg 29.613380 -3.289280 -6.579264
Hg 29.613380 -6.579264 -3.289280
Hg 26.323395 -3.289280 -3.289280
Hg 26.323395 -6.579264 0.000704
Hg 29.613380 -3.289280 0.000704
Hg 29.613380 -6.579264 3.290689
Hg 26.323395 -3.289280 3.290689
Hg 26.323395 -6.579264 6.580673
Hg 29.613380 -3.289280 6.580673
Hg 29.613380 -6.579264 9.870657
Hg 26.323395 -3.289280 9.870657
Hg 26.323395 -6.579264 13.160641
Hg 29.613380 -3.289280 13.160641
Hg 29.613380 -6.579264 16.450625
Hg 26.323395 -3.289280 16.450625
Hg 26.323395 -6.579264 19.740610
Hg 26.323395 0.000704 -19.739201
Hg 29.613380 0.000704 -16.449217
Hg 26.323395 3.290689 -16.449217
Hg 26.323395 0.000704 -13.159232
Hg 29.613380 3.290689 -13.159232
Hg 29.613380 0.000704 -9.869248
Hg 26.323395 3.290689 -9.869248
Hg 26.323395 0.000704 -6.579264
Hg 29.613380 3.290689 -6.579264
Hg 29.613380 0.000704 -3.289280
Hg 26.323395 3.290689 -3.289280
Hg 26.323395 0.000704 0.000704
Hg 29.613380 3.290689 0.000704
Hg 29.613380 0.000704 3.290689
Hg 26.323395 3.290689 3.290689
Hg 26.323395 0.000704 6.580673
Hg 29.613380 3.290689 6.580673
Hg 29.613380 0.000704 9.870657
Hg 26.323395 3.290689 9.870657
Hg 26.323395 0.000704 13.160641
Hg 29.613380 3.290689 13.160641
Hg 29.613380 0.000704 16.450625
Hg 26.323395 3.290689 16.450625
Hg 26.323395 0.000704 19.740610
Hg 26.323395 6.580673 -19.739201
Hg 29.613380 6.580673 -16.449217
Hg 26.323395 9.870657 -16.449217
Hg 26.323395 6.580673 -13.159232
Hg 29.613380 9.870657 -13.159232
Hg 29.613380 6.580673 -9.869248
Hg 26.323395 9.870657 -9.869248
Hg 26.323395 6.580673 -6.579264
Hg 29.613380 9.870657 -6.579264
Hg 29.613380 6.580673 -3.289280
Hg 26.323395 9.870657 -3.289280
Hg 26.323395 6.580673 0.000704
Hg 29.613380 9.870657 0.000704
Hg 29.613380 6.580673 3.290689
Hg 26.323395 9.870657 3.290689
Hg 26.323395 6.580673 6.580673
Hg 29.613380 9.870657 6.580673
Hg 29.613380 6.580673 9.870657
Hg 26.323395 9.870657 9.870657
Hg 26.323395 6.580673 13.160641
Hg 29.613380 9.870657 13.160641
Hg 29.613380 6.580673 16.450625
Hg 26.323395 9.870657 16.450625
Hg 26.323395 6.580673 19.740610
Hg 29.613380 13.160641 -9.869248
Hg 26.323395 16.450625 -9.869248
Hg 26.323395 13.160641 -6.579264
Hg 29.613380 16.450625 -6.579264
Hg 29.613380 13.160641 -3.289280
Hg 26.323395 16.450625 -3.289280
Hg 26.323395 13.160641 0.000704
Hg 29.613380 16.450625 0.000704
Hg 29.613380 13.160641 3.290689
Hg 26.323395 16.450625 3.290689
Hg 26.323395 13.160641 6.580673
Hg 29.613380 16.450625 6.580673
Hg 29.613380 13.160641 9.870657
Hg 26.323395 16.450625 9.870657
Hg 26.323395 19.740610 -6.579264
Hg 26.323395 19.740610 0.000704
Hg 26.323395 19.740610 6.580673
Te -27.961344 -14.804225 -11.514240
Te -27.961344 -14.804225 -4.934272
Te -27.961344 -18.094209 -1.644288
Te -27.961344 -14.804225 1.645696
Te -27.961344 -18.094209 4.935681
Te -27.961344 -14.804225 8.225665
Te -27.961344 -8.224256 -11.514240
Te -27.961344 -11.514240 -8.224256
Te -27.961344 -8.224256 -4.934272
Te -27.961344 -11.514240 -1.644288
Te -27.961344 -8.224256 1.645696
Te -27.961344 -11.514240 4.935681
Te -27.961344 -8.224256 8.225665
Te -27.961344 -11.514240 11.515649
Te -27.961344 -8.224256 14.805633
Te -27.961344 -1.644288 -18.094209
Te -27.961344 -4.934272 -14.804225
Te -27.961344 -1.644288 -11.514240
Te -27.961344 -4.934272 -8.224256
Te -27.961344 -1.644288 -4.934272
Te -27.961344 -4.934272 -1.644288
Te -27.961344 -1.644288 1.645696
Te -27.961344 -4.934272 4.935681
Te -27.961344 -1.644288 8.225665
Te -27.961344 -4.934272 11.515649
Te -27.961344 -1.644288 14.805633
Te -27.961344 -4.934272 18.095617
Te -27.961344 4.935681 -18.094209
Te -27.961344 1.645696 -14.804225
Te -27.961344 4.935681 -11.514240
Te -27.961344 1.645696 -8.224256
Te -27.961344 4.935681 -4.934272
Te -27.961344 1.645696 -1.644288
Te -27.961344 4.935681 1.645696
Te -27.961344 1.645696 4.935681
Te -27.961344 4.935681 8.225665
Te -27.961344 1.645696 11.515649
Te -27.961344 4.935681 14.805633
Te -27.961344 1.645696 18.095617
Te -27.961344 8.225665 -14.804225
Te -27.961344 11.515649 -11.514240
Te -27.961344 8.225665 -8.224256
Te -27.961344 11.515649 -4.934272
Te -27.961344 8.225665 -1.644288
Te -27.961344 11.515649 1.645696
Te -27.961344 8.225665 4.935681
Te -27.961344 11.515649 8.225665
Te -27.961344 8.225665 11.515649
Te -27.961344 14.805633 -8.224256
Te -27.961344 18.095617 -4.934272
Te -27.961344 14.805633 -1.644288
Te -27.961344 18.095617 1.645696
Te -27.961344 14.805633 4.935681
Te -27.961344 14.805633 11.515649
Te -24.671360 -21.384193 -8.224256
Te -24.671360 -21.384193 -1.644288
Te -21.381376 -21.384193 -4.934272
Te -21.381376 -24.674177 -1.644288
Te -24.671360 -21.384193 4.935681
Te -21.381376 -21.384193 1.645696
Te -21.381376 -24.674177 4.935681
Te -21.381376 -21.384193 8.225665
Te -24.671360 -14.804225 -8.224256
Te -21.381376 -14.804225 -11.514240
Te -21.381376 -18.094209 -8.224256
Te -24.671360 -18.094209 -4.934272
Te -24.671360 -14.804225 -1.644288
Te -21.381376 -14.804225 -4.934272
Te -21.381376 -18.094209 -1.644288
Te -24.671360 -18.094209 1.645696
Te -24.671360 -14.804225 4.935681
Te -21.381376 -14.804225 1.645696
Te -21.381376 -18.094209 4.935681
Te -24.671360 -18.094209 8.225665
Te -24.671360 -14.804225 11.515649
Te -21.381376 -14.804225 8.225665
Te -21.381376 -18.094209 11.515649
Te -21.381376 -14.804225 14.805633
Te -21.381376 -8.224256 -24.674177
Te -24.671360 -8.224256 -14.804225
Te -21.381376 -8.224256 -18.094209
Te -21.381376 -11.514240 -14.804225
Te -24.671360 -11.514240 -11.514240
Te -24.671360 -8.224256 -8.224256
Te -21.381376 -8.224256 -11.514240
Te -21.381376 -11.514240 -8.224256
Te -24.671360 -11.514240 -4.934272
Te -24.671360 -8.224256 -1.644288
Te -21.381376 -8.224256 -4.934272
Te -21.381376 -11.514240 -1.644288
Te -24.671360 -11.514240 1.645696
Te -24.671360 -8.224256 4.935681
Te -21.381376 -8.224256 1.645696
Te -21.381376 -11.514240 4.935681
Te -24.671360 -11.514240 8.225665
Te -24.671360 -8.224256 11.515649
Te -21.381376 -8.224256 8.225665
Te -21.381376 -11.514240 11.515649
Te -24.671360 -11.514240 14.805633
Te -24.671360 -8.224256 18.095617
Te -21.381376 -8.224256 14.805633
Te -21.381376 -11.514240 18.095617
Te -21.381376 -8.224256 21.385602
Te -24.671360 -1.644288 -21.384193
Te -21.381376 -1.644288 -24.674177
Te -21.381376 -4.934272 -21.384193
Te -24.671360 -4.934272 -18.094209
Te -24.671360 -1.644288 -14.804225
Te -21.381376 -1.644288 -18.094209
Te -21.381376 -4.934272 -14.804225
Te -24.671360 -4.934272 -11.514240
Te -24.671360 -1.644288 -8.224256
Te -21.381376 -1.644288 -11.514240
Te -21.381376 -4.934272 -8.224256
Te -24.671360 -4.934272 -4.934272
Te -24.671360 -1.644288 -1.644288
Te -21.381376 -1.644288 -4.934272
Te -21.381376 -4.934272 -1.644288
Te -24.671360 -4.934272 1.645696
Te -24.671360 -1.644288 4.935681
Te -21.381376 -1.644288 1.645696
Te -21.381376 -4.934272 4.935681
Te -24.671360 -4.934272 8.225665
Te -24.671360 -1.644288 11.515649
Te -21.381376 -1.644288 8.225665
Te -21.381376 -4.934272 11.515649
Te -24.671360 -4.934272 14.805633
Te -24.671360 -1.644288 18.095617
Te -21.381376 -1.644288 14.805633
Te -21.381376 -4.934272 18.095617
Te -24.671360 -4.934272 21.385602
Te -21.381376 -1.644288 21.385602
Te -21.381376 -4.934272 24.675586
Te -24.671360 4.935681 -21.384193
Te -21.381376 4.935681 -24.674177
Te -21.381376 1.645696 -21.384193
Te -24.671360 1.645696 -18.094209
Te -24.671360 4.935681 -14.804225
Te -21.381376 4.935681 -18.094209
Te -21.381376 1.645696 -14.804225
Te -24.671360 1.645696 -11.514240
Te -24.671360 4.935681 -8.224256
Te -21.381376 4.935681 -11.514240
Te -21.381376 1.645696 -8.224256
Te -24.671360 1.645696 -4.934272
Te -24.671360 4.935681 -1.644288
Te -21.381376 4.935681 -4.934272
Te -21.381376 1.645696 -1.644288
Te -24.671360 1.645696 1.645696
Te -24.671360 4.935681 4.935681
Te -21.381376 4.935681 1.645696
Te -21.381376 1.645696 4.935681
Te -24.671360 1.645696 8.225665
Te -24.671360 4.935681 11.515649
Te -21.381376 4.935681 8.225665
Te -21.381376 1.645696 11.515649
Te -24.671360 1.645696 14.805633
Te -24.671360 4.935681 18.095617
Te -21.381376 4.935681 14.805633
Te -21.381376 1.645696 18.095617
Te -24.671360 1.645696 21.385602
Te -21.381376 4.935681 21.385602
Te -21.381376 1.645696 24.675586
Te -21.381376 8.225665 -21.384193
Te -24.671360 8.225665 -18.094209
Te -24.671360 11.515649 -14.804225
Te -21.381376 11.515649 -18.094209
Te -21.381376 8.225665 -14.804225
Te -24.671360 8.225665 -11.514240
Te -24.671360 11.515649 -8.224256
Te -21.381376 11.515649 -11.514240
Te -21.381376 8.225665 -8.224256
Te -24.671360 8.225665 -4.934272
Te -24.671360 11.515649 -1.644288
Te -21.381376 11.515649 -4.934272
Te -21.381376 8.225665 -1.644288
Te -24.671360 8.225665 1.645696
Te -24.671360 11.515649 4.935681
Te -21.381376 11.515649 1.645696
Te -21.381376 8.225665 4.935681
Te -24.671360 8.225665 8.225665
Te -24.671360 11.515649 11.515649
Te -21.381376 11.515649 8.225665
Te -21.381376 8.225665 11.515649
Te -24.671360 8.225665 14.805633
Te -21.381376 11.515649 14.805633
Te -21.381376 8.225665 18.095617
Te -21.381376 8.225665 24.675586
Te -21.381376 14.805633 -14.804225
Te -24.671360 14.805633 -11.514240
Te -24.671360 18.095617 -8.224256
Te -21.381376 18.095617 -11.514240
Te -21.381376 14.805633 -8.224256
Te -24.671360 14.805633 -4.934272
Te -24.671360 18.095617 -1.644288
Te -21.381376 18.095617 -4.934272
Te -21.381376 14.805633 -1.644288
Te -24.671360 14.805633 1.645696
Te -24.671360 18.095617 4.935681
Te -21.381376 18.095617 1.645696
Te -21.381376 14.805633 4.935681
Te -24.671360 14.805633 8.225665
Te -21.381376 18.095617 8.225665
Te -21.381376 14.805633 11.515649
Te -21.381376 21.385602 -8.224256
Te -24.671360 21.385602 -4.934272
Te -21.381376 24.675586 -4.934272
Te -21.381376 21.385602 -1.644288
Te -24.671360 21.385602 1.645696
Te -21.381376 24.675586 1.645696
Te -21.381376 21.385602 4.935681
Te -24.671360 21.385602 8.225665
Te -18.091391 -27.964161 -8.224256
Te -18.091391 -27.964161 -1.644288
Te -14.801407 -27.964161 -4.934272
Te -18.091391 -27.964161 4.935681
Te -14.801407 -27.964161 1.645696
Te -14.801407 -27.964161 8.225665
Te -18.091391 -21.384193 -8.224256
Te -14.801407 -21.384193 -11.514240
Te -14.801407 -24.674177 -8.224256
Te -18.091391 -24.674177 -4.934272
Te -18.091391 -21.384193 -1.644288
Te -14.801407 -21.384193 -4.934272
Te -14.801407 -24.674177 -1.644288
Te -18.091391 -24.674177 1.645696
Te -18.091391 -21.384193 4.935681
Te -14.801407 -21.384193 1.645696
Te -14.801407 -24.674177 4.935681
Te -18.091391 -24.674177 8.225665
Te -18.091391 -21.384193 11.515649
Te -14.801407 -21.384193 8.225665
Te -14.801407 -24.674177 11.515649
Te -14.801407 -21.384193 14.805633
Te -18.091391 -14.804225 -14.804225
Te -14.801407 -14.804225 -18.094209
Te -14.801407 -18.094209 -14.804225
Te -18.091391 -18.094209 -11.514240
Te -18.091391 -14.804225 -8.224256
Te -14.801407 -14.804225 -11.514240
Te -14.801407 -18.094209 -8.224256
Te -18.091391 -18.094209 -4.934272
Te -18.091391 -14.804225 -1.644288
Te -14.801407 -14.804225 -4.934272
Te -14.801407 -18.094209 -1.644288
Te -18.091391 -18.094209 1.645696
Te -18.091391 -14.804225 4.935681
Te -14.801407 -14.804225 1.645696
Te -14.801407 -18.094209 4.935681
Te -18.091391 -18.094209 8.225665
Te -18.091391 -14.804225 11.515649
Te -14.801407 -14.804225 8.225665
Te -14.801407 -18.094209 11.515649
Te -18.091391 -18.094209 14.805633
Te -18.091391 -14.804225 18.095617
Te -14.801407 -14.804225 14.805633
Te -14.801407 -18.094209 18.095617
Te -14.801407 -14.804225 21.385602
Te -18.091391 -8.224256 -21.384193
Te -14.801407 -8.224256 -24.674177
Te -14.801407 -11.514240 -21.384193
Te -18.091391 -11.514240 -18.094209
Te -18.091391 -8.224256 -14.804225
Te -14.801407 -8.224256 -18.094209
Te -14.801407 -11.514240 -14.804225
Te -18.091391 -11.514240 -11.514240
Te -18.091391 -8.224256 -8.224256
Te -14.801407 -8.224256 -11.514240
Te -14.801407 -11.514240 -8.224256
Te -18.091391 -11.514240 -4.934272
Te -18.091391 -8.224256 -1.644288
Te -14.801407 -8.224256 -4.934272
Te -14.801407 -11.514240 -1.644288
Te -18.091391 -11.514240 1.645696
Te -18.091391 -8.224256 4.935681
Te -14.801407 -8.224256 1.645696
Te -14.801407 -11.514240 4.935681
Te -18.091391 -11.514240 8.225665
Te -18.091391 -8.224256 11.515649
Te -14.801407 -8.224256 8.225665
Te -14.801407 -11.514240 11.515649
Te -18.091391 -11.514240 14.805633
Te -18.091391 -8.224256 18.095617
Te -14.801407 -8.224256 14.805633
Te -14.801407 -11.514240 18.095617
Te -18.091391 -11.514240 21.385602
Te -18.091391 -8.224256 24.675586
Te -14.801407 -8.224256 21.385602
Te -14.801407 -11.514240 24.675586
Te -14.801407 -8.224256 27.965570
Te -18.091391 -1.644288 -27.964161
Te -14.801407 -4.934272 -27.964161
Te -18.091391 -4.934272 -24.674177
Te -18.091391 -1.644288 -21.384193
Te -14.801407 -1.644288 -24.674177
Te -14.801407 -4.934272 -21.384193
Te -18.091391 -4.934272 -18.094209
Te -18.091391 -1.644288 -14.804225
Te -14.801407 -1.644288 -18.094209
Te -14.801407 -4.934272 -14.804225
Te -18.091391 -4.934272 -11.514240
Te -18.091391 -1.644288 -8.224256
Te -14.801407 -1.644288 -11.514240
Te -14.801407 -4.934272 -8.224256
Te -18.091391 -4.934272 -4.934272
Te -18.091391 -1.644288 -1.644288
Te -14.801407 -1.644288 -4.934272
Te -14.801407 -4.934272 -1.644288
Te -18.091391 -4.934272 1.645696
Te -18.091391 -1.644288 4.935681
Te -14.801407 -1.644288 1.645696
Te -14.801407 -4.934272 4.935681
Te -18.091391 -4.934272 8.225665
Te -18.091391 -1.644288 11.515649
Te -14.801407 -1.644288 8.225665
Te -14.801407 -4.934272 11.515649
Te -18.091391 -4.934272 14.805633
Te -18.091391 -1.644288 18.095617
Te -14.801407 -1.644288 14.805633
Te -14.801407 -4.934272 18.095617
Te -18.091391 -4.934272 21.385602
Te -18.091391 -1.644288 24.675586
Te -14.801407 -1.644288 21.385602
Te -14.801407 -4.934272 24.675586
Te -18.091391 -4.934272 27.965570
Te -14.801407 -1.644288 27.965570
Te -18.091391 4.935681 -27.964161
Te -14.801407 1.645696 -27.964161
Te -18.091391 1.645696 -24.674177
Te -18.091391 4.935681 -21.384193
Te -14.801407 4.935681 -24.674177
Te -14.801407 1.645696 -21.384193
Te -18.091391 1.645696 -18.094209
Te -18.091391 4.935681 -14.804225
Te -14.801407 4.935681 -18.094209
Te -14.801407 1.645696 -14.804225
Te -18.091391 1.645696 -11.514240
Te -18.091391 4.935681 -8.224256
Te -14.801407 4.935681 -11.514240
Te -14.801407 1.645696 -8.224256
Te -18.091391 1.645696 -4.934272
Te -18.091391 4.935681 -1.644288
Te -14.801407 4.935681 -4.934272
Te -14.801407 1.645696 -1.644288
Te -18.091391 1.645696 1.645696
Te -18.091391 4.935681 4.935681
Te -14.801407 4.935681 1.645696
Te -14.801407 1.645696 4.935681
Te -18.091391 1.645696 8.225665
Te -18.091391 4.935681 11.515649
Te -14.801407 4.935681 8.225665
Te -14.801407 1.645696 11.515649
Te -18.091391 1.645696 14.805633
Te -18.091391 4.935681 18.095617
Te -14.801407 4.935681 14.805633
Te -14.801407 1.645696 18.095617
Te -18.091391 1.645696 21.385602
Te -18.091391 4.935681 24.675586
Te -14.801407 4.935681 21.385602
Te -14.801407 1.645696 24.675586
Te -18.091391 1.645696 27.965570
Te -14.801407 4.935681 27.965570
Te -14.801407 8.225665 -27.964161
Te -18.091391 8.225665 -24.674177
Te -18.091391 11.515649 -21.384193
Te -14.801407 11.515649 -24.674177
Te -14.801407 8.225665 -21.384193
Te -18.091391 8.225665 -18.094209
Te -18.091391 11.515649 -14.804225
Te -14.801407 11.515649 -18.094209
Te -14.801407 8.225665 -14.804225
Te -18.091391 8.225665 -11.514240
Te -18.091391 11.515649 -8.224256
Te -14.801407 11.515649 -11.514240
Te -14.801407 8.225665 -8.224256
Te -18.091391 8.225665 -4.934272
Te -18.091391 11.515649 -1.644288
Te -14.801407 11.515649 -4.934272
Te -14.801407 8.225665 -1.644288
Te -18.091391 8.225665 1.645696
Te -18.091391 11.515649 4.935681
Te -14.801407 11.515649 1.645696
Te -14.801407 8.225665 4.935681
Te -18.091391 8.225665 8.225665
Te -18.091391 11.515649 11.515649
Te -14.801407 11.515649 8.225665
Te -14.801407 8.225665 11.515649
Te -18.091391 8.225665 14.805633
Te -18.091391 11.515649 18.095617
Te -14.801407 11.515649 14.805633
Te -14.801407 8.225665 18.095617
Te -18.091391 8.225665 21.385602
Te -14.801407 11.515649 21.385602
Te -14.801407 8.225665 24.675586
Te -14.801407 14.805633 -21.384193
Te -18.091391 14.805633 -18.094209
Te -18.091391 18.095617 -14.804225
Te -14.801407 18.095617 -18.094209
Te -14.801407 14.805633 -14.804225
Te -18.091391 14.805633 -11.514240
Te -18.091391 18.095617 -8.224256
Te -14.801407 18.095617 -11.514240
Te -14.801407 14.805633 -8.224256
Te -18.091391 14.805633 -4.934272
Te -18.091391 18.095617 -1.644288
Te -14.801407 18.095617 -4.934272
Te -14.801407 14.805633 -1.644288
Te -18.091391 14.805633 1.645696
Te -18.091391 18.095617 4.935681
Te -14.801407 18.095617 1.645696
Te -14.801407 14.805633 4.935681
Te -18.091391 14.805633 8.225665
Te -18.091391 18.095617 11.515649
Te -14.801407 18.095617 8.225665
Te -14.801407 14.805633 11.515649
Te -18.091391 14.805633 14.805633
Te -14.801407 18.095617 14.805633
Te -14.801407 14.805633 18.095617
Te -14.801407 21.385602 -14.804225
Te -18.091391 21.385602 -11.514240
Te -18.091391 24.675586 -8.224256
Te -14.801407 24.675586 -11.514240
Te -14.801407 21.385602 -8.224256
Te -18.091391 21.385602 -4.934272
Te -18.091391 24.675586 -1.644288
Te -14.801407 24.675586 -4.934272
Te -14.801407 21.385602 -1.644288
Te -18.091391 21.385602 1.645696
Te -18.091391 24.675586 4.935681
Te -14.801407 24.675586 1.645696
Te -14.801407 21.385602 4.935681
Te -18.091391 21.385602 8.225665
Te -14.801407 24.675586 8.225665
Te -14.801407 21.385602 11.515649
Te -14.801407 27.965570 -8.224256
Te -18.091391 27.965570 -4.934272
Te -14.801407 27.965570 -1.644288
Te -18.091391 27.965570 1.645696
Te -14.801407 27.965570 4.935681
Te -18.091391 27.965570 8.225665
Te -8.221439 -27.964161 -18.094209
Te -11.511423 -27.964161 -8.224256
Te -8.221439 -27.964161 -11.514240
Te -11.511423 -27.964161 -1.644288
Te -8.221439 -27.964161 -4.934272
Te -11.511423 -27.964161 4.935681
Te -8.221439 -27.964161 1.645696
Te -11.511423 -27.964161 11.515649
Te -8.221439 -27.964161 8.225665
Te -8.221439 -27.964161 14.805633
Te -8.221439 -21.384193 -24.674177
Te -11.511423 -21.384193 -14.804225
Te -8.221439 -21.384193 -18.094209
Te -8.221439 -24.674177 -14.804225
Te -11.511423 -24.674177 -11.514240
Te -11.511423 -21.384193 -8.224256
Te -8.221439 -21.384193 -11.514240
Te -8.221439 -24.674177 -8.224256
Te -11.511423 -24.674177 -4.934272
Te -11.511423 -21.384193 -1.644288
Te -8.221439 -21.384193 -4.934272
Te -8.221439 -24.674177 -1.644288
Te -11.511423 -24.674177 1.645696
Te -11.511423 -21.384193 4.935681
Te -8.221439 -21.384193 1.645696
Te -8.221439 -24.674177 4.935681
Te -11.511423 -24.674177 8.225665
Te -11.511423 -21.384193 11.515649
Te -8.221439 -21.384193 8.225665
Te -8.221439 -24.674177 11.515649
Te -11.511423 -24.674177 14.805633
Te -11.511423 -21.384193 18.095617
Te -8.221439 -21.384193 14.805633
Te -8.221439 -24.674177 18.095617
Te -8.221439 -21.384193 21.385602
Te -11.511423 -14.804225 -27.964161
Te -11.511423 -14.804225 -21.384193
Te -8.221439 -14.804225 -24.674177
Te -8.221439 -18.094209 -21.384193
Te -11.511423 -18.094209 -18.094209
Te -11.511423 -14.804225 -14.804225
Te -8.221439 -14.804225 -18.094209
Te -8.221439 -18.094209 -14.804225
Te -11.511423 -18.094209 -11.514240
Te -11.511423 -14.804225 -8.224256
Te -8.221439 -14.804225 -11.514240
Te -8.221439 -18.094209 -8.224256
Te -11.511423 -18.094209 -4.934272
Te -11.511423 -14.804225 -1.644288
Te -8.221439 -14.804225 -4.934272
Te -8.221439 -18.094209 -1.644288
Te -11.511423 -18.094209 1.645696
Te -11.511423 -14.804225 4.935681
Te -8.221439 -14.804225 1.645696
Te -8.221439 -18.094209 4.935681
Te -11.511423 -18.094209 8.225665
Te -11.511423 -14.804225 11.515649
Te -8.221439 -14.804225 8.225665
Te -8.221439 -18.094209 11.515649
Te -11.511423 -18.094209 14.805633
Te -11.511423 -14.804225 18.095617
Te -8.221439 -14.804225 14.805633
Te -8.221439 -18.094209 18.095617
Te -11.511423 -18.094209 21.385602
Te -11.511423 -14.804225 24.675586
Te -8.221439 -14.804225 21.385602
Te -8.221439 -18.094209 24.675586
Te -8.221439 -14.804225 27.965570
Te -11.511423 -8.224256 -27.964161
Te -8.221439 -11.514240 -27.964161
Te -11.511423 -11.514240 -24.674177
Te -11.511423 -8.224256 -21.384193
Te -8.221439 -8.224256 -24.674177
Te -8.221439 -11.514240 -21.384193
Te -11.511423 -11.514240 -18.094209
Te -11.511423 -8.224256 -14.804225
Te -8.221439 -8.224256 -18.094209
Te -8.221439 -11.514240 -14.804225
Te -11.511423 -11.514240 -11.514240
Te -11.511423 -8.224256 -8.224256
Te -8.221439 -8.224256 -11.514240
Te -8.221439 -11.514240 -8.224256
Te -11.511423 -11.514240 -4.934272
Te -11.511423 -8.224256 -1.644288
Te -8.221439 -8.224256 -4.934272
Te -8.221439 -11.514240 -1.644288
Te -11.511423 -11.514240 1.645696
Te -11.511423 -8.224256 4.935681
Te -8.221439 -8.224256 1.645696
Te -8.221439 -11.514240 4.935681
Te -11.511423 -11.514240 8.225665
Te -11.511423 -8.224256 11.515649
Te -8.221439 -8.224256 8.225665
Te -8.221439 -11.514240 11.515649
Te -11.511423 -11.514240 14.805633
Te -11.511423 -8.224256 18.095617
Te -8.221439 -8.224256 14.805633
Te -8.221439 -11.514240 18.095617
Te -11.511423 -11.514240 21.385602
Te -11.511423 -8.224256 24.675586
Te -8.221439 -8.224256 21.385602
Te -8.221439 -11.514240 24.675586
Te -11.511423 -11.514240 27.965570
Te -8.221439 -8.224256 27.965570
Te -11.511423 -1.644288 -27.964161
Te -8.221439 -4.934272 -27.964161
Te -11.511423 -4.934272 -24.674177
Te -11.511423 -1.644288 -21.384193
Te -8.221439 -1.644288 -24.674177
Te -8.221439 -4.934272 -21.384193
Te -11.511423 -4.934272 -18.094209
Te -11.511423 -1.644288 -14.804225
Te -8.221439 -1.644288 -18.094209
Te -8.221439 -4.934272 -14.804225
Te -11.511423 -4.934272 -11.514240
Te -11.511423 -1.644288 -8.224256
Te -8.221439 -1.644288 -11.514240
Te -8.221439 -4.934272 -8.224256
Te -11.511423 -4.934272 -4.934272
Te -11.511423 -1.644288 -1.644288
Te -8.221439 -1.644288 -4.934272
Te -8.221439 -4.934272 -1.644288
Te -11.511423 -4.934272 1.645696
Te -11.511423 -1.644288 4.935681
Te -8.221439 -1.644288 1.645696
Te -8.221439 -4.934272 4.935681
Te -11.511423 -4.934272 8.225665
Te -11.511423 -1.644288 11.515649
Te -8.221439 -1.644288 8.225665
Te -8.221439 -4.934272 11.515649
Te -11.511423 -4.934272 14.805633
Te -11.511423 -1.644288 18.095617
Te -8.221439 -1.644288 14.805633
Te -8.221439 -4.934272 18.095617
Te -11.511423 -4.934272 21.385602
Te -11.511423 -1.644288 24.675586
Te -8.221439 -1.644288 21.385602
Te -8.221439 -4.934272 24.675586
Te -11.511423 -4.934272 27.965570
Te -8.221439 -1.644288 27.965570
Te -11.511423 4.935681 -27.964161
Te -8.221439 1.645696 -27.964161
Te -11.511423 1.645696 -24.674177
Te -11.511423 4.935681 -21.384193
Te -8.221439 4.935681 -24.674177
Te -8.221439 1.645696 -21.384193
Te -11.511423 1.645696 -18.094209
Te -11.511423 4.935681 -14.804225
Te -8.221439 4.935681 -18.094209
Te -8.221439 1.645696 -14.804225
Te -11.511423 1.645696 -11.514240
Te -11.511423 4.935681 -8.224256
Te -8.221439 4.935681 -11.514240
Te -8.221439 1.645696 -8.224256
Te -11.511423 1.645696 -4.934272
Te -11.511423 4.935681 -1.644288
Te -8.221439 4.935681 -4.934272
Te -8.221439 1.645696 -1.644288
Te -11.511423 1.645696 1.645696
Te -11.511423 4.935681 4.935681
Te -8.221439 4.935681 1.645696
Te -8.221439 1.645696 4.935681
Te -11.511423 1.645696 8.225665
Te -11.511423 4.935681 11.515649
Te -8.221439 4.935681 8.225665
Te -8.221439 1.645696 11.515649
Te -11.511423 1.645696 14.805633
Te -11.511423 4.935681 18.095617
Te -8.221439 4.935681 14.805633
Te -8.221439 1.645696 18.095617
Te -11.511423 1.645696 21.385602
Te -11.511423 4.935681 24.675586
Te -8.221439 4.935681 21.385602
Te -8.221439 1.645696 24.675586
Te -11.511423 1.645696 27.965570
Te -8.221439 4.935681 27.965570
Te -11.511423 11.515649 -27.964161
Te -8.221439 8.225665 -27.964161
Te -11.511423 8.225665 -24.674177
Te -11.511423 11.515649 -21.384193
Te -8.221439 11.515649 -24.674177
Te -8.221439 8.225665 -21.384193
Te -11.511423 8.225665 -18.094209
Te -11.511423 11.515649 -14.804225
Te -8.221439 11.515649 -18.094209
Te -8.221439 8.225665 -14.804225
Te -11.511423 8.225665 -11.514240
Te -11.511423 11.515649 -8.224256
Te -8.221439 11.515649 -11.514240
Te -8.221439 8.225665 -8.224256
Te -11.511423 8.225665 -4.934272
Te -11.511423 11.515649 -1.644288
Te -8.221439 11.515649 -4.934272
Te -8.221439 8.225665 -1.644288
Te -11.511423 8.225665 1.645696
Te -11.511423 11.515649 4.935681
Te -8.221439 11.515649 1.645696
Te -8.221439 8.225665 4.935681
Te -11.511423 8.225665 8.225665
Te -11.511423 11.515649 11.515649
Te -8.221439 11.515649 8.225665
Te -8.221439 8.225665 11.515649
Te -11.511423 8.225665 14.805633
Te -11.511423 11.515649 18.095617
Te -8.221439 11.515649 14.805633
Te -8.221439 8.225665 18.095617
Te -11.511423 8.225665 21.385602
Te -11.511423 11.515649 24.675586
Te -8.221439 11.515649 21.385602
Te -8.221439 8.225665 24.675586
Te -11.511423 8.225665 27.965570
Te -8.221439 11.515649 27.965570
Te -8.221439 14.805633 -27.964161
Te -11.511423 14.805633 -24.674177
Te -11.511423 18.095617 -21.384193
Te -8.221439 18.095617 -24.674177
Te -8.221439 14.805633 -21.384193
Te -11.511423 14.805633 -18.094209
Te -11.511423 18.095617 -14.804225
Te -8.221439 18.095617 -18.094209
Te -8.221439 14.805633 -14.804225
Te -11.511423 14.805633 -11.514240
Te -11.511423 18.095617 -8.224256
Te -8.221439 18.095617 -11.514240
Te -8.221439 14.805633 -8.224256
Te -11.511423 14.805633 -4.934272
Te -11.511423 18.095617 -1.644288
Te -8.221439 18.095617 -4.934272
Te -8.221439 14.805633 -1.644288
Te -11.511423 14.805633 1.645696
Te -11.511423 18.095617 4.935681
Te -8.221439 18.095617 1.645696
Te -8.221439 14.805633 4.935681
Te -11.511423 14.805633 8.225665
Te -11.511423 18.095617 11.515649
Te -8.221439 18.095617 8.225665
Te -8.221439 14.805633 11.515649
Te -11.511423 14.805633 14.805633
Te -11.511423 18.095617 18.095617
Te -8.221439 18.095617 14.805633
Te -8.221439 14.805633 18.095617
Te -11.511423 14.805633 21.385602
Te -8.221439 18.095617 21.385602
Te -8.221439 14.805633 24.675586
Te -11.511423 14.805633 27.965570
Te -8.221439 21.385602 -21.384193
Te -11.511423 21.385602 -18.094209
Te -11.511423 24.675586 -14.804225
Te -8.221439 24.675586 -18.094209
Te -8.221439 21.385602 -14.804225
Te -11.511423 21.385602 -11.514240
Te -11.511423 24.675586 -8.224256
Te -8.221439 24.675586 -11.514240
Te -8.221439 21.385602 -8.224256
Te -11.511423 21.385602 -4.934272
Te -11.511423 24.675586 -1.644288
Te -8.221439 24.675586 -4.934272
Te -8.221439 21.385602 -1.644288
Te -11.511423 21.385602 1.645696
Te -11.511423 24.675586 4.935681
Te -8.221439 24.675586 1.645696
Te -8.221439 21.385602 4.935681
Te -11.511423 21.385602 8.225665
Te -11.511423 24.675586 11.515649
Te -8.221439 24.675586 8.225665
Te -8.221439 21.385602 11.515649
Te -11.511423 21.385602 14.805633
Te -8.221439 24.675586 14.805633
Te -8.221439 21.385602 18.095617
Te -8.221439 21.385602 24.675586
Te -8.221439 27.965570 -14.804225
Te -11.511423 27.965570 -11.514240
Te -8.221439 27.965570 -8.224256
Te -11.511423 27.965570 -4.934272
Te -8.221439 27.965570 -1.644288
Te -11.511423 27.965570 1.645696
Te -8.221439 27.965570 4.935681
Te -11.511423 27.965570 8.225665
Te -8.221439 27.965570 11.515649
Te -8.221439 27.965570 18.095617
Te -4.931455 -27.964161 -14.804225
Te -1.641470 -27.964161 -18.094209
Te -4.931455 -27.964161 -8.224256
Te -1.641470 -27.964161 -11.514240
Te -4.931455 -27.964161 -1.644288
Te -1.641470 -27.964161 -4.934272
Te -4.931455 -27.964161 4.935681
Te -1.641470 -27.964161 1.645696
Te -4.931455 -27.964161 11.515649
Te -1.641470 -27.964161 8.225665
Te -4.931455 -27.964161 18.095617
Te -1.641470 -27.964161 14.805633
Te -4.931455 -21.384193 -21.384193
Te -1.641470 -21.384193 -24.674177
Te -1.641470 -24.674177 -21.384193
Te -4.931455 -24.674177 -18.094209
Te -4.931455 -21.384193 -14.804225
Te -1.641470 -21.384193 -18.094209
Te -1.641470 -24.674177 -14.804225
Te -4.931455 -24.674177 -11.514240
Te -4.931455 -21.384193 -8.224256
Te -1.641470 -21.384193 -11.514240
Te -1.641470 -24.674177 -8.224256
Te -4.931455 -24.674177 -4.934272
Te -4.931455 -21.384193 -1.644288
Te -1.641470 -21.384193 -4.934272
Te -1.641470 -24.674177 -1.644288
Te -4.931455 -24.674177 1.645696
Te -4.931455 -21.384193 4.935681
Te -1.641470 -21.384193 1.645696
Te -1.641470 -24.674177 4.935681
Te -4.931455 -24.674177 8.225665
Te -4.931455 -21.384193 11.515649
Te -1.641470 -21.384193 8.225665
Te -1.641470 -24.674177 11.515649
Te -4.931455 -24.674177 14.805633
Te -4.931455 -21.384193 18.095617
Te -1.641470 -21.384193 14.805633
Te -1.641470 -24.674177 18.095617
Te -4.931455 -24.674177 21.385602
Te -4.931455 -21.384193 24.675586
Te -1.641470 -21.384193 21.385602
Te -4.931455 -14.804225 -27.964161
Te -1.641470 -18.094209 -27.964161
Te -4.931455 -18.094209 -24.674177
Te -4.931455 -14.804225 -21.384193
Te -1.641470 -14.804225 -24.674177
Te -1.641470 -18.094209 -21.384193
Te -4.931455 -18.094209 -18.094209
Te -4.931455 -14.804225 -14.804225
Te -1.641470 -14.804225 -18.094209
Te -1.641470 -18.094209 -14.804225
Te -4.931455 -18.094209 -11.514240
Te -4.931455 -14.804225 -8.224256
Te -1.641470 -14.804225 -11.514240
Te -1.641470 -18.094209 -8.224256
Te -4.931455 -18.094209 -4.934272
Te -4.931455 -14.804225 -1.644288
Te -1.641470 -14.804225 -4.934272
Te -1.641470 -18.094209 -1.644288
Te -4.931455 -18.094209 1.645696
Te -4.931455 -14.804225 4.935681
Te -1.641470 -14.804225 1.645696
Te -1.641470 -18.094209 4.935681
Te -4.931455 -18.094209 8.225665
Te -4.931455 -14.804225 11.515649
Te -1.641470 -14.804225 8.225665
Te -1.641470 -18.094209 11.515649
Te -4.931455 -18.094209 14.805633
Te -4.931455 -14.804225 18.095617
Te -1.641470 -14.804225 14.805633
Te -1.641470 -18.094209 18.095617
Te -4.931455 -18.094209 21.385602
Te -4.931455 -14.804225 24.675586
Te -1.641470 -14.804225 21.385602
Te -1.641470 -18.094209 24.675586
Te -4.931455 -18.094209 27.965570
Te -1.641470 -14.804225 27.965570
Te -4.931455 -8.224256 -27.964161
Te -1.641470 -11.514240 -27.964161
Te -4.931455 -11.514240 -24.674177
Te -4.931455 -8.224256 -21.384193
Te -1.641470 -8.224256 -24.674177
Te -1.641470 -11.514240 -21.384193
Te -4.931455 -11.514240 -18.094209
Te -4.931455 -8.224256 -14.804225
Te -1.641470 -8.224256 -18.094209
Te -1.641470 -11.514240 -14.804225
Te -4.931455 -11.514240 -11.514240
Te -4.931455 -8.224256 -8.224256
Te -1.641470 -8.224256 -11.514240
Te -1.641470 -11.514240 -8.224256
Te -4.931455 -11.514240 -4.934272
Te -4.931455 -8.224256 -1.644288
Te -1.641470 -8.224256 -4.934272
Te -1.641470 -11.514240 -1.644288
Te -4.931455 -11.514240 1.645696
Te -4.931455 -8.224256 4.935681
Te -1.641470 -8.224256 1.645696
Te -1.641470 -11.514240 4.935681
Te -4.931455 -11.514240 8.225665
Te -4.931455 -8.224256 11.515649
Te -1.641470 -8.224256 8.225665
Te -1.641470 -11.514240 11.515649
Te -4.931455 -11.514240 14.805633
Te -4.931455 -8.224256 18.095617
Te -1.641470 -8.224256 14.805633
Te -1.641470 -11.514240 18.095617
Te -4.931455 -11.514240 21.385602
Te -4.931455 -8.224256 24.675586
Te -1.641470 -8.224256 21.385602
Te -1.641470 -11.514240 24.675586
Te -4.931455 -11.514240 27.965570
Te -1.641470 -8.224256 27.965570
Te -4.931455 -1.644288 -27.964161
Te -1.641470 -4.934272 -27.964161
Te -4.931455 -4.934272 -24.674177
Te -4.931455 -1.644288 -21.384193
Te -1.641470 -1.644288 -24.674177
Te -1.641470 -4.934272 -21.384193
Te -4.931455 -4.934272 -18.094209
Te -4.931455 -1.644288 -14.804225
Te -1.641470 -1.644288 -18.094209
Te -1.641470 -4.934272 -14.804225
Te -4.931455 -4.934272 -11.514240
Te -4.931455 -1.644288 -8.224256
Te -1.641470 -1.644288 -11.514240
Te -1.641470 -4.934272 -8.224256
Te -4.931455 -4.934272 -4.934272
Te -4.931455 -1.644288 -1.644288
Te -1.641470 -1.644288 -4.934272
Te -1.641470 -4.934272 -1.644288
Te -4.931455 -4.934272 1.645696
Te -4.931455 -1.644288 4.935681
Te -1.641470 -1.644288 1.645696
Te -1.641470 -4.934272 4.935681
Te -4.931455 -4.934272 8.225665
Te -4.931455 -1.644288 11.515649
Te -1.641470 -1.644288 8.225665
Te -1.641470 -4.934272 11.515649
Te -4.931455 -4.934272 14.805633
Te -4.931455 -1.644288 18.095617
Te -1.641470 -1.644288 14.805633
Te -1.641470 -4.934272 18.095617
Te -4.931455 -4.934272 21.385602
Te -4.931455 -1.644288 24.675586
Te -1.641470 -1.644288 21.385602
Te -1.641470 -4.934272 24.675586
Te -4.931455 -4.934272 27.965570
Te -1.641470 -1.644288 27.965570
Te -4.931455 4.935681 -27.964161
Te -1.641470 1.645696 -27.964161
Te -4.931455 1.645696 -24.674177
Te -4.931455 4.935681 -21.384193
Te -1.641470 4.935681 -24.674177
Te -1.641470 1.645696 -21.384193
Te -4.931455 1.645696 -18.094209
Te -4.931455 4.935681 -14.804225
Te -1.641470 4.935681 -18.094209
Te -1.641470 1.645696 -14.804225
Te -4.931455 1.645696 -11.514240
Te -4.931455 4.935681 -8.224256
Te -1.641470 4.935681 -11.514240
Te -1.641470 1.645696 -8.224256
Te -4.931455 1.645696 -4.934272
Te -4.931455 4.935681 -1.644288
Te -1.641470 4.935681 -4.934272
Te -1.641470 1.645696 -1.644288
Te -4.931455 1.645696 1.645696
Te -4.931455 4.935681 4.935681
Te -1.641470 4.935681 1.645696
Te -1.641470 1.645696 4.935681
Te -4.931455 1.645696 8.225665
Te -4.931455 4.935681 11.515649
Te -1.641470 4.935681 8.225665
Te -1.641470 1.645696 11.515649
Te -4.931455 1.645696 14.805633
Te -4.931455 4.935681 18.095617
Te -1.641470 4.935681 14.805633
Te -1.641470 1.645696 18.095617
Te -4.931455 1.645696 21.385602
Te -4.931455 4.935681 24.675586
Te -1.641470 4.935681 21.385602
Te -1.641470 1.645696 24.675586
Te -4.931455 1.645696 27.965570
Te -1.641470 4.935681 27.965570
Te -4.931455 11.515649 -27.964161
Te -1.641470 8.225665 -27.964161
Te -4.931455 8.225665 -24.674177
Te -4.931455 11.515649 -21.384193
Te -1.641470 11.515649 -24.674177
Te -1.641470 8.225665 -21.384193
Te -4.931455 8.225665 -18.094209
Te -4.931455 11.515649 -14.804225
Te -1.641470 11.515649 -18.094209
Te -1.641470 8.225665 -14.804225
Te -4.931455 8.225665 -11.514240
Te -4.931455 11.515649 -8.224256
Te -1.641470 11.515649 -11.514240
Te -1.641470 8.225665 -8.224256
Te -4.931455 8.225665 -4.934272
Te -4.931455 11.515649 -1.644288
Te -1.641470 11.515649 -4.934272
Te -1.641470 8.225665 -1.644288
Te -4.931455 8.225665 1.645696
Te -4.931455 11.515649 4.935681
Te -1.641470 11.515649 1.645696
Te -1.641470 8.225665 4.935681
Te -4.931455 8.225665 8.225665
Te -4.931455 11.515649 11.515649
Te -1.641470 11.515649 8.225665
Te -1.641470 8.225665 11.515649
Te -4.931455 8.225665 14.805633
Te -4.931455 11.515649 18.095617
Te -1.641470 11.515649 14.805633
Te -1.641470 8.225665 18.095617
Te -4.931455 8.225665 21.385602
Te -4.931455 11.515649 24.675586
Te -1.641470 11.515649 21.385602
Te -1.641470 8.225665 24.675586
Te -4.931455 8.225665 27.965570
Te -1.641470 11.515649 27.965570
Te -4.931455 18.095617 -27.964161
Te -1.641470 14.805633 -27.964161
Te -4.931455 14.805633 -24.674177
Te -4.931455 18.095617 -21.384193
Te -1.641470 18.095617 -24.674177
Te -1.641470 14.805633 -21.384193
Te -4.931455 14.805633 -18.094209
Te -4.931455 18.095617 -14.804225
Te -1.641470 18.095617 -18.094209
Te -1.641470 14.805633 -14.804225
Te -4.931455 14.805633 -11.514240
Te -4.931455 18.095617 -8.224256
Te -1.641470 18.095617 -11.514240
Te -1.641470 14.805633 -8.224256
Te -4.931455 14.805633 -4.934272
Te -4.931455 18.095617 -1.644288
Te -1.641470 18.095617 -4.934272
Te -1.641470 14.805633 -1.644288
Te -4.931455 14.805633 1.645696
Te -4.931455 18.095617 4.935681
Te -1.641470 18.095617 1.645696
Te -1.641470 14.805633 4.935681
Te -4.931455 14.805633 8.225665
Te -4.931455 18.095617 11.515649
Te -1.641470 18.095617 8.225665
Te -1.641470 14.805633 11.515649
Te -4.931455 14.805633 14.805633
Te -4.931455 18.095617 18.095617
Te -1.641470 18.095617 14.805633
Te -1.641470 14.805633 18.095617
Te -4.931455 14.805633 21.385602
Te -4.931455 18.095617 24.675586
Te -1.641470 18.095617 21.385602
Te -1.641470 14.805633 24.675586
Te -4.931455 14.805633 27.965570
Te -1.641470 18.095617 27.965570
Te -4.931455 21.385602 -24.674177
Te -4.931455 24.675586 -21.384193
Te -1.641470 21.385602 -21.384193
Te -4.931455 21.385602 -18.094209
Te -4.931455 24.675586 -14.804225
Te -1.641470 24.675586 -18.094209
Te -1.641470 21.385602 -14.804225
Te -4.931455 21.385602 -11.514240
Te -4.931455 24.675586 -8.224256
Te -1.641470 24.675586 -11.514240
Te -1.641470 21.385602 -8.224256
Te -4.931455 21.385602 -4.934272
Te -4.931455 24.675586 -1.644288
Te -1.641470 24.675586 -4.934272
Te -1.641470 21.385602 -1.644288
Te -4.931455 21.385602 1.645696
Te -4.931455 24.675586 4.935681
Te -1.641470 24.675586 1.645696
Te -1.641470 21.385602 4.935681
Te -4.931455 21.385602 8.225665
Te -4.931455 24.675586 11.515649
Te -1.641470 24.675586 8.225665
Te -1.641470 21.385602 11.515649
Te -4.931455 21.385602 14.805633
Te -4.931455 24.675586 18.095617
Te -1.641470 24.675586 14.805633
Te -1.641470 21.385602 18.095617
Te -4.931455 21.385602 21.385602
Te -1.641470 24.675586 21.385602
Te -1.641470 21.385602 24.675586
Te -4.931455 27.965570 -18.094209
Te -1.641470 27.965570 -14.804225
Te -4.931455 27.965570 -11.514240
Te -1.641470 27.965570 -8.224256
Te -4.931455 27.965570 -4.934272
Te -1.641470 27.965570 -1.644288
Te -4.931455 27.965570 1.645696
Te -1.641470 27.965570 4.935681
Te -4.931455 27.965570 8.225665
Te -1.641470 27.965570 11.515649
Te -4.931455 27.965570 14.805633
Te -1.641470 27.965570 18.095617
Te 1.648514 -27.964161 -14.804225
Te 4.938498 -27.964161 -18.094209
Te 1.648514 -27.964161 -8.224256
Te 4.938498 -27.964161 -11.514240
Te 1.648514 -27.964161 -1.644288
Te 4.938498 -27.964161 -4.934272
Te 1.648514 -27.964161 4.935681
Te 4.938498 -27.964161 1.645696
Te 1.648514 -27.964161 11.515649
Te 4.938498 -27.964161 8.225665
Te 1.648514 -27.964161 18.095617
Te 4.938498 -27.964161 14.805633
Te 1.648514 -21.384193 -21.384193
Te 4.938498 -21.384193 -24.674177
Te 4.938498 -24.674177 -21.384193
Te 1.648514 -24.674177 -18.094209
Te 1.648514 -21.384193 -14.804225
Te 4.938498 -21.384193 -18.094209
Te 4.938498 -24.674177 -14.804225
Te 1.648514 -24.674177 -11.514240
Te 1.648514 -21.384193 -8.224256
Te 4.938498 -21.384193 -11.514240
Te 4.938498 -24.674177 -8.224256
Te 1.648514 -24.674177 -4.934272
Te 1.648514 -21.384193 -1.644288
Te 4.938498 -21.384193 -4.934272
Te 4.938498 -24.674177 -1.644288
Te 1.648514 -24.674177 1.645696
Te 1.648514 -21.384193 4.935681
Te 4.938498 -21.384193 1.645696
Te 4.938498 -24.674177 4.935681
Te 1.648514 -24.674177 8.225665
Te 1.648514 -21.384193 11.515649
Te 4.938498 -21.384193 8.225665
Te 4.938498 -24.674177 11.515649
Te 1.648514 -24.674177 14.805633
Te 1.648514 -21.384193 18.095617
Te 4.938498 -21.384193 14.805633
Te 4.938498 -24.674177 18.095617
Te 1.648514 -24.674177 21.385602
Te 1.648514 -21.384193 24.675586
Te 4.938498 -21.384193 21.385602
Te 1.648514 -14.804225 -27.964161
Te 4.938498 -18.094209 -27.964161
Te 1.648514 -18.094209 -24.674177
Te 1.648514 -14.804225 -21.384193
Te 4.938498 -14.804225 -24.674177
Te 4.938498 -18.094209 -21.384193
Te 1.648514 -18.094209 -18.094209
Te 1.648514 -14.804225 -14.804225
Te 4.938498 -14.804225 -18.094209
Te 4.938498 -18.094209 -14.804225
Te 1.648514 -18.094209 -11.514240
Te 1.648514 -14.804225 -8.224256
Te 4.938498 -14.804225 -11.514240
Te 4.938498 -18.094209 -8.224256
Te 1.648514 -18.094209 -4.934272
Te 1.648514 -14.804225 -1.644288
Te 4.938498 -14.804225 -4.934272
Te 4.938498 -18.094209 -1.644288
Te 1.648514 -18.094209 1.645696
Te 1.648514 -14.804225 4.935681
Te 4.938498 -14.804225 1.645696
Te 4.938498 -18.094209 4.935681
Te 1.648514 -18.094209 8.225665
Te 1.648514 -14.804225 11.515649
Te 4.938498 -14.804225 8.225665
Te 4.938498 -18.094209 11.515649
Te 1.648514 -18.094209 14.805633
Te 1.648514 -14.804225 18.095617
Te 4.938498 -14.804225 14.805633
Te 4.938498 -18.094209 18.095617
Te 1.648514 -18.094209 21.385602
Te 1.648514 -14.804225 24.675586
Te 4.938498 -14.804225 21.385602
Te 4.938498 -18.094209 24.675586
Te 1.648514 -18.094209 27.965570
Te 4.938498 -14.804225 27.965570
Te 1.648514 -8.224256 -27.964161
Te 4.938498 -11.514240 -27.964161
Te 1.648514 -11.514240 -24.674177
Te 1.648514 -8.224256 -21.384193
Te 4.938498 -8.224256 -24.674177
Te 4.938498 -11.514240 -21.384193
Te 1.648514 -11.514240 -18.094209
Te 1.648514 -8.224256 -14.804225
Te 4.938498 -8.224256 -18.094209
Te 4.938498 -11.514240 -14.804225
Te 1.648514 -11.514240 -11.514240
Te 1.648514 -8.224256 -8.224256
Te 4.938498 -8.224256 -11.514240
Te 4.938498 -11.514240 -8.224256
Te 1.648514 -11.514240 -4.934272
Te 1.648514 -8.224256 -1.644288
Te 4.938498 -8.224256 -4.934272
Te 4.938498 -11.514240 -1.644288
Te 1.648514 -11.514240 1.645696
Te 1.648514 -8.224256 4.935681
Te 4.938498 -8.224256 1.645696
Te 4.938498 -11.514240 4.935681
Te 1.648514 -11.514240 8.225665
Te 1.648514 -8.224256 11.515649
Te 4.938498 -8.224256 8.225665
Te 4.938498 -11.514240 11.515649
Te 1.648514 -11.514240 14.805633
Te 1.648514 -8.224256 18.095617
Te 4.938498 -8.224256 14.805633
Te 4.938498 -11.514240 18.095617
Te 1.648514 -11.514240 21.385602
Te 1.648514 -8.224256 24.675586
Te 4.938498 -8.224256 21.385602
Te 4.938498 -11.514240 24.675586
Te 1.648514 -11.514240 27.965570
Te 4.938498 -8.224256 27.965570
Te 1.648514 -1.644288 -27.964161
Te 4.938498 -4.934272 -27.964161
Te 1.648514 -4.934272 -24.674177
Te 1.648514 -1.644288 -21.384193
Te 4.938498 -1.644288 -24.674177
Te 4.938498 -4.934272 -21.384193
Te 1.648514 -4.934272 -18.094209
Te 1.648514 -1.644288 -14.804225
Te 4.938498 -1.644288 -18.094209
Te 4.938498 -4.934272 -14.804225
Te 1.648514 -4.934272 -11.514240
Te 1.648514 -1.644288 -8.224256
Te 4.938498 -1.644288 -11.514240
Te 4.938498 -4.934272 -8.224256
Te 1.648514 -4.934272 -4.934272
Te 1.648514 -1.644288 -1.644288
Te 4.938498 -1.644288 -4.934272
Te 4.938498 -4.934272 -1.644288
Te 1.648514 -4.934272 1.645696
Te 1.648514 -1.644288 4.935681
Te 4.938498 -1.644288 1.645696
Te 4.938498 -4.934272 4.935681
Te 1.648514 -4.934272 8.225665
Te 1.648514 -1.644288 11.515649
Te 4.938498 -1.644288 8.225665
Te 4.938498 -4.934272 11.515649
Te 1.648514 -4.934272 14.805633
Te 1.648514 -1.644288 18.095617
Te 4.938498 -1.644288 14.805633
Te 4.938498 -4.934272 18.095617
Te 1.648514 -4.934272 21.385602
Te 1.648514 -1.644288 24.675586
Te 4.938498 -1.644288 21.385602
Te 4.938498 -4.934272 24.675586
Te 1.648514 -4.934272 27.965570
Te 4.938498 -1.644288 27.965570
Te 1.648514 4.935681 -27.964161
Te 4.938498 1.645696 -27.964161
Te 1.648514 1.645696 -24.674177
Te 1.648514 4.935681 -21.384193
Te 4.938498 4.935681 -24.674177
Te 4.938498 1.645696 -21.384193
Te 1.648514 1.645696 -18.094209
Te 1.648514 4.935681 -14.804225
Te 4.938498 4.935681 -18.094209
Te 4.938498 1.645696 -14.804225
Te 1.648514 1.645696 -11.514240
Te 1.648514 4.935681 -8.224256
Te 4.938498 4.935681 -11.514240
Te 4.938498 1.645696 -8.224256
Te 1.648514 1.645696 -4.934272
Te 1.648514 4.935681 -1.644288
Te 4.938498 4.935681 -4.934272
Te 4.938498 1.645696 -1.644288
Te 1.648514 1.645696 1.645696
Te 1.648514 4.935681 4.935681
Te 4.938498 4.935681 1.645696
Te 4.938498 1.645696 4.935681
Te 1.648514 1.645696 8.225665
Te 1.648514 4.935681 11.515649
Te 4.938498 4.935681 8.225665
Te 4.938498 1.645696 11.515649
Te 1.648514 1.645696 14.805633
Te 1.648514 4.935681 18.095617
Te 4.938498 4.935681 14.805633
Te 4.938498 1.645696 18.095617
Te 1.648514 1.645696 21.385602
Te 1.648514 4.935681 24.675586
Te 4.938498 4.935681 21.385602
Te 4.938498 1.645696 24.675586
Te 1.648514 1.645696 27.965570
Te 4.938498 4.935681 27.965570
Te 1.648514 11.515649 -27.964161
Te 4.938498 8.225665 -27.964161
Te 1.648514 8.225665 -24.674177
Te 1.648514 11.515649 -21.384193
Te 4.938498 11.515649 -24.674177
Te 4.938498 8.225665 -21.384193
Te 1.648514 8.225665 -18.094209
Te 1.648514 11.515649 -14.804225
Te 4.938498 11.515649 -18.094209
Te 4.938498 8.225665 -14.804225
Te 1.648514 8.225665 -11.514240
Te 1.648514 11.515649 -8.224256
Te 4.938498 11.515649 -11.514240
Te 4.938498 8.225665 -8.224256
Te 1.648514 8.225665 -4.934272
Te 1.648514 11.515649 -1.644288
Te 4.938498 11.515649 -4.934272
Te 4.938498 8.225665 -1.644288
Te 1.648514 8.225665 1.645696
Te 1.648514 11.515649 4.935681
Te 4.938498 11.515649 1.645696
Te 4.938498 8.225665 4.935681
Te 1.648514 8.225665 8.225665
Te 1.648514 11.515649 11.515649
Te 4.938498 11.515649 8.225665
Te 4.938498 8.225665 11.515649
Te 1.648514 8.225665 14.805633
Te 1.648514 11.515649 18.095617
Te 4.938498 11.515649 14.805633
Te 4.938498 8.225665 18.095617
Te 1.648514 8.225665 21.385602
Te 1.648514 11.515649 24.675586
Te 4.938498 11.515649 21.385602
Te 4.938498 8.225665 24.675586
Te 1.648514 8.225665 27.965570
Te 4.938498 11.515649 27.965570
Te 1.648514 18.095617 -27.964161
Te 4.938498 14.805633 -27.964161
Te 1.648514 14.805633 -24.674177
Te 1.648514 18.095617 -21.384193
Te 4.938498 18.095617 -24.674177
Te 4.938498 14.805633 -21.384193
Te 1.648514 14.805633 -18.094209
Te 1.648514 18.095617 -14.804225
Te 4.938498 18.095617 -18.094209
Te 4.938498 14.805633 -14.804225
Te 1.648514 14.805633 -11.514240
Te 1.648514 18.095617 -8.224256
Te 4.938498 18.095617 -11.514240
Te 4.938498 14.805633 -8.224256
Te 1.648514 14.805633 -4.934272
Te 1.648514 18.095617 -1.644288
Te 4.938498 18.095617 -4.934272
Te 4.938498 14.805633 -1.644288
Te 1.648514 14.805633 1.645696
Te 1.648514 18.095617 4.935681
Te 4.938498 18.095617 1.645696
Te 4.938498 14.805633 4.935681
Te 1.648514 14.805633 8.225665
Te 1.648514 18.095617 11.515649
Te 4.938498 18.095617 8.225665
Te 4.938498 14.805633 11.515649
Te 1.648514 14.805633 14.805633
Te 1.648514 18.095617 18.095617
Te 4.938498 18.095617 14.805633
Te 4.938498 14.805633 18.095617
Te 1.648514 14.805633 21.385602
Te 1.648514 18.095617 24.675586
Te 4.938498 18.095617 21.385602
Te 4.938498 14.805633 24.675586
Te 1.648514 14.805633 27.965570
Te 4.938498 18.095617 27.965570
Te 1.648514 21.385602 -24.674177
Te 1.648514 24.675586 -21.384193
Te 4.938498 21.385602 -21.384193
Te 1.648514 21.385602 -18.094209
Te 1.648514 24.675586 -14.804225
Te 4.938498 24.675586 -18.094209
Te 4.938498 21.385602 -14.804225
Te 1.648514 21.385602 -11.514240
Te 1.648514 24.675586 -8.224256
Te 4.938498 24.675586 -11.514240
Te 4.938498 21.385602 -8.224256
Te 1.648514 21.385602 -4.934272
Te 1.648514 24.675586 -1.644288
Te 4.938498 24.675586 -4.934272
Te 4.938498 21.385602 -1.644288
Te 1.648514 21.385602 1.645696
Te 1.648514 24.675586 4.935681
Te 4.938498 24.675586 1.645696
Te 4.938498 21.385602 4.935681
Te 1.648514 21.385602 8.225665
Te 1.648514 24.675586 11.515649
Te 4.938498 24.675586 8.225665
Te 4.938498 21.385602 11.515649
Te 1.648514 21.385602 14.805633
Te 1.648514 24.675586 18.095617
Te 4.938498 24.675586 14.805633
Te 4.938498 21.385602 18.095617
Te 1.648514 21.385602 21.385602
Te 4.938498 24.675586 21.385602
Te 4.938498 21.385602 24.675586
Te 1.648514 27.965570 -18.094209
Te 4.938498 27.965570 -14.804225
Te 1.648514 27.965570 -11.514240
Te 4.938498 27.965570 -8.224256
Te 1.648514 27.965570 -4.934272
Te 4.938498 27.965570 -1.644288
Te 1.648514 27.965570 1.645696
Te 4.938498 27.965570 4.935681
Te 1.648514 27.965570 8.225665
Te 4.938498 27.965570 11.515649
Te 1.648514 27.965570 14.805633
Te 4.938498 27.965570 18.095617
Te 8.228482 -27.964161 -14.804225
Te 8.228482 -27.964161 -8.224256
Te 11.518466 -27.964161 -11.514240
Te 8.228482 -27.964161 -1.644288
Te 11.518466 -27.964161 -4.934272
Te 8.228482 -27.964161 4.935681
Te 11.518466 -27.964161 1.645696
Te 8.228482 -27.964161 11.515649
Te 11.518466 -27.964161 8.225665
Te 8.228482 -21.384193 -21.384193
Te 8.228482 -24.674177 -18.094209
Te 8.228482 -21.384193 -14.804225
Te 11.518466 -21.384193 -18.094209
Te 11.518466 -24.674177 -14.804225
Te 8.228482 -24.674177 -11.514240
Te 8.228482 -21.384193 -8.224256
Te 11.518466 -21.384193 -11.514240
Te 11.518466 -24.674177 -8.224256
Te 8.228482 -24.674177 -4.934272
Te 8.228482 -21.384193 -1.644288
Te 11.518466 -21.384193 -4.934272
Te 11.518466 -24.674177 -1.644288
Te 8.228482 -24.674177 1.645696
Te 8.228482 -21.384193 4.935681
Te 11.518466 -21.384193 1.645696
Te 11.518466 -24.674177 4.935681
Te 8.228482 -24.674177 8.225665
Te 8.228482 -21.384193 11.515649
Te 11.518466 -21.384193 8.225665
Te 11.518466 -24.674177 11.515649
Te 8.228482 -24.674177 14.805633
Te 8.228482 -21.384193 18.095617
Te 11.518466 -21.384193 14.805633
Te 8.228482 -21.384193 24.675586
Te 8.228482 -14.804225 -27.964161
Te 8.228482 -18.094209 -24.674177
Te 8.228482 -14.804225 -21.384193
Te 11.518466 -14.804225 -24.674177
Te 11.518466 -18.094209 -21.384193
Te 8.228482 -18.094209 -18.094209
Te 8.228482 -14.804225 -14.804225
Te 11.518466 -14.804225 -18.094209
Te 11.518466 -18.094209 -14.804225
Te 8.228482 -18.094209 -11.514240
Te 8.228482 -14.804225 -8.224256
Te 11.518466 -14.804225 -11.514240
Te 11.518466 -18.094209 -8.224256
Te 8.228482 -18.094209 -4.934272
Te 8.228482 -14.804225 -1.644288
Te 11.518466 -14.804225 -4.934272
Te 11.518466 -18.094209 -1.644288
Te 8.228482 -18.094209 1.645696
Te 8.228482 -14.804225 4.935681
Te 11.518466 -14.804225 1.645696
Te 11.518466 -18.094209 4.935681
Te 8.228482 -18.094209 8.225665
Te 8.228482 -14.804225 11.515649
Te 11.518466 -14.804225 8.225665
Te 11.518466 -18.094209 11.515649
Te 8.228482 -18.094209 14.805633
Te 8.228482 -14.804225 18.095617
Te 11.518466 -14.804225 14.805633
Te 11.518466 -18.094209 18.095617
Te 8.228482 -18.094209 21.385602
Te 8.228482 -14.804225 24.675586
Te 11.518466 -14.804225 21.385602
Te 8.228482 -8.224256 -27.964161
Te 11.518466 -11.514240 -27.964161
Te 8.228482 -11.514240 -24.674177
Te 8.228482 -8.224256 -21.384193
Te 11.518466 -8.224256 -24.674177
Te 11.518466 -11.514240 -21.384193
Te 8.228482 -11.514240 -18.094209
Te 8.228482 -8.224256 -14.804225
Te 11.518466 -8.224256 -18.094209
Te 11.518466 -11.514240 -14.804225
Te 8.228482 -11.514240 -11.514240
Te 8.228482 -8.224256 -8.224256
Te 11.518466 -8.224256 -11.514240
Te 11.518466 -11.514240 -8.224256
Te 8.228482 -11.514240 -4.934272
Te 8.228482 -8.224256 -1.644288
Te 11.518466 -8.224256 -4.934272
Te 11.518466 -11.514240 -1.644288
Te 8.228482 -11.514240 1.645696
Te 8.228482 -8.224256 4.935681
Te 11.518466 -8.224256 1.645696
Te 11.518466 -11.514240 4.935681
Te 8.228482 -11.514240 8.225665
Te 8.228482 -8.224256 11.515649
Te 11.518466 -8.224256 8.225665
Te 11.518466 -11.514240 11.515649
Te 8.228482 -11.514240 14.805633
Te 8.228482 -8.224256 18.095617
Te 11.518466 -8.224256 14.805633
Te 11.518466 -11.514240 18.095617
Te 8.228482 -11.514240 21.385602
Te 8.228482 -8.224256 24.675586
Te 11.518466 -8.224256 21.385602
Te 11.518466 -11.514240 24.675586
Te 8.228482 -11.514240 27.965570
Te 11.518466 -8.224256 27.965570
Te 8.228482 -1.644288 -27.964161
Te 11.518466 -4.934272 -27.964161
Te 8.228482 -4.934272 -24.674177
Te 8.228482 -1.644288 -21.384193
Te 11.518466 -1.644288 -24.674177
Te 11.518466 -4.934272 -21.384193
Te 8.228482 -4.934272 -18.094209
Te 8.228482 -1.644288 -14.804225
Te 11.518466 -1.644288 -18.094209
Te 11.518466 -4.934272 -14.804225
Te 8.228482 -4.934272 -11.514240
Te 8.228482 -1.644288 -8.224256
Te 11.518466 -1.644288 -11.514240
Te 11.518466 -4.934272 -8.224256
Te 8.228482 -4.934272 -4.934272
Te 8.228482 -1.644288 -1.644288
Te 11.518466 -1.644288 -4.934272
Te 11.518466 -4.934272 -1.644288
Te 8.228482 -4.934272 1.645696
Te 8.228482 -1.644288 4.935681
Te 11.518466 -1.644288 1.645696
Te 11.518466 -4.934272 4.935681
Te 8.228482 -4.934272 8.225665
Te 8.228482 -1.644288 11.515649
Te 11.518466 -1.644288 8.225665
Te 11.518466 -4.934272 11.515649
Te 8.228482 -4.934272 14.805633
Te 8.228482 -1.644288 18.095617
Te 11.518466 -1.644288 14.805633
Te 11.518466 -4.934272 18.095617
Te 8.228482 -4.934272 21.385602
Te 8.228482 -1.644288 24.675586
Te 11.518466 -1.644288 21.385602
Te 11.518466 -4.934272 24.675586
Te 8.228482 -4.934272 27.965570
Te 11.518466 -1.644288 27.965570
Te 8.228482 4.935681 -27.964161
Te 11.518466 1.645696 -27.964161
Te 8.228482 1.645696 -24.674177
Te 8.228482 4.935681 -21.384193
Te 11.518466 4.935681 -24.674177
Te 11.518466 1.645696 -21.384193
Te 8.228482 1.645696 -18.094209
Te 8.228482 4.935681 -14.804225
Te 11.518466 4.935681 -18.094209
Te 11.518466 1.645696 -14.804225
Te 8.228482 1.645696 -11.514240
Te 8.228482 4.935681 -8.224256
Te 11.518466 4.935681 -11.514240
Te 11.518466 1.645696 -8.224256
Te 8.228482 1.645696 -4.934272
Te 8.228482 4.935681 -1.644288
Te 11.518466 4.935681 -4.934272
Te 11.518466 1.645696 -1.644288
Te 8.228482 1.645696 1.645696
Te 8.228482 4.935681 4.935681
Te 11.518466 4.935681 1.645696
Te 11.518466 1.645696 4.935681
Te 8.228482 1.645696 8.225665
Te 8.228482 4.935681 11.515649
Te 11.518466 4.935681 8.225665
Te 11.518466 1.645696 11.515649
Te 8.228482 1.645696 14.805633
Te 8.228482 4.935681 18.095617
Te 11.518466 4.935681 14.805633
Te 11.518466 1.645696 18.095617
Te 8.228482 1.645696 21.385602
Te 8.228482 4.935681 24.675586
Te 11.518466 4.935681 21.385602
Te 11.518466 1.645696 24.675586
Te 8.228482 1.645696 27.965570
Te 11.518466 4.935681 27.965570
Te 8.228482 11.515649 -27.964161
Te 11.518466 8.225665 -27.964161
Te 8.228482 8.225665 -24.674177
Te 8.228482 11.515649 -21.384193
Te 11.518466 11.515649 -24.674177
Te 11.518466 8.225665 -21.384193
Te 8.228482 8.225665 -18.094209
Te 8.228482 11.515649 -14.804225
Te 11.518466 11.515649 -18.094209
Te 11.518466 8.225665 -14.804225
Te 8.228482 8.225665 -11.514240
Te 8.228482 11.515649 -8.224256
Te 11.518466 11.515649 -11.514240
Te 11.518466 8.225665 -8.224256
Te 8.228482 8.225665 -4.934272
Te 8.228482 11.515649 -1.644288
Te 11.518466 11.515649 -4.934272
Te 11.518466 8.225665 -1.644288
Te 8.228482 8.225665 1.645696
Te 8.228482 11.515649 4.935681
Te 11.518466 11.515649 1.645696
Te 11.518466 8.225665 4.935681
Te 8.228482 8.225665 8.225665
Te 8.228482 11.515649 11.515649
Te 11.518466 11.515649 8.225665
Te 11.518466 8.225665 11.515649
Te 8.228482 8.225665 14.805633
Te 8.228482 11.515649 18.095617
Te 11.518466 11.515649 14.805633
Te 11.518466 8.225665 18.095617
Te 8.228482 8.225665 21.385602
Te 8.228482 11.515649 24.675586
Te 11.518466 11.515649 21.385602
Te 11.518466 8.225665 24.675586
Te 8.228482 8.225665 27.965570
Te 11.518466 11.515649 27.965570
Te 8.228482 14.805633 -24.674177
Te 8.228482 18.095617 -21.384193
Te 11.518466 14.805633 -21.384193
Te 8.228482 14.805633 -18.094209
Te 8.228482 18.095617 -14.804225
Te 11.518466 18.095617 -18.094209
Te 11.518466 14.805633 -14.804225
Te 8.228482 14.805633 -11.514240
Te 8.228482 18.095617 -8.224256
Te 11.518466 18.095617 -11.514240
Te 11.518466 14.805633 -8.224256
Te 8.228482 14.805633 -4.934272
Te 8.228482 18.095617 -1.644288
Te 11.518466 18.095617 -4.934272
Te 11.518466 14.805633 -1.644288
Te 8.228482 14.805633 1.645696
Te 8.228482 18.095617 4.935681
Te 11.518466 18.095617 1.645696
Te 11.518466 14.805633 4.935681
Te 8.228482 14.805633 8.225665
Te 8.228482 18.095617 11.515649
Te 11.518466 18.095617 8.225665
Te 11.518466 14.805633 11.515649
Te 8.228482 14.805633 14.805633
Te 8.228482 18.095617 18.095617
Te 11.518466 18.095617 14.805633
Te 11.518466 14.805633 18.095617
Te 8.228482 14.805633 21.385602
Te 8.228482 18.095617 24.675586
Te 11.518466 18.095617 21.385602
Te 11.518466 14.805633 24.675586
Te 8.228482 14.805633 27.965570
Te 8.228482 24.675586 -21.384193
Te 8.228482 21.385602 -18.094209
Te 8.228482 24.675586 -14.804225
Te 11.518466 21.385602 -14.804225
Te 8.228482 21.385602 -11.514240
Te 8.228482 24.675586 -8.224256
Te 11.518466 24.675586 -11.514240
Te 11.518466 21.385602 -8.224256
Te 8.228482 21.385602 -4.934272
Te 8.228482 24.675586 -1.644288
Te 11.518466 24.675586 -4.934272
Te 11.518466 21.385602 -1.644288
Te 8.228482 21.385602 1.645696
Te 8.228482 24.675586 4.935681
Te 11.518466 24.675586 1.645696
Te 11.518466 21.385602 4.935681
Te 8.228482 21.385602 8.225665
Te 8.228482 24.675586 11.515649
Te 11.518466 24.675586 8.225665
Te 11.518466 21.385602 11.515649
Te 8.228482 21.385602 14.805633
Te 8.228482 24.675586 18.095617
Te 11.518466 24.675586 14.805633
Te 11.518466 21.385602 18.095617
Te 8.228482 21.385602 21.385602
Te 8.228482 27.965570 -11.514240
Te 11.518466 27.965570 -8.224256
Te 8.228482 27.965570 -4.934272
Te 11.518466 27.965570 -1.644288
Te 8.228482 27.965570 1.645696
Te 11.518466 27.965570 4.935681
Te 8.228482 27.965570 8.225665
Te 11.518466 27.965570 11.515649
Te 8.228482 27.965570 14.805633
Te 14.808451 -27.964161 -8.224256
Te 14.808451 -27.964161 -1.644288
Te 18.098435 -27.964161 -4.934272
Te 14.808451 -27.964161 4.935681
Te 18.098435 -27.964161 1.645696
Te 14.808451 -27.964161 11.515649
Te 14.808451 -21.384193 -14.804225
Te 14.808451 -24.674177 -11.514240
Te 14.808451 -21.384193 -8.224256
Te 18.098435 -21.384193 -11.514240
Te 18.098435 -24.674177 -8.224256
Te 14.808451 -24.674177 -4.934272
Te 14.808451 -21.384193 -1.644288
Te 18.098435 -21.384193 -4.934272
Te 18.098435 -24.674177 -1.644288
Te 14.808451 -24.674177 1.645696
Te 14.808451 -21.384193 4.935681
Te 18.098435 -21.384193 1.645696
Te 18.098435 -24.674177 4.935681
Te 14.808451 -24.674177 8.225665
Te 14.808451 -21.384193 11.515649
Te 18.098435 -21.384193 8.225665
Te 14.808451 -14.804225 -21.384193
Te 14.808451 -18.094209 -18.094209
Te 14.808451 -14.804225 -14.804225
Te 18.098435 -14.804225 -18.094209
Te 18.098435 -18.094209 -14.804225
Te 14.808451 -18.094209 -11.514240
Te 14.808451 -14.804225 -8.224256
Te 18.098435 -14.804225 -11.514240
Te 18.098435 -18.094209 -8.224256
Te 14.808451 -18.094209 -4.934272
Te 14.808451 -14.804225 -1.644288
Te 18.098435 -14.804225 -4.934272
Te 18.098435 -18.094209 -1.644288
Te 14.808451 -18.094209 1.645696
Te 14.808451 -14.804225 4.935681
Te 18.098435 -14.804225 1.645696
Te 18.098435 -18.094209 4.935681
Te 14.808451 -18.094209 8.225665
Te 14.808451 -14.804225 11.515649
Te 18.098435 -14.804225 8.225665
Te 18.098435 -18.094209 11.515649
Te 14.808451 -18.094209 14.805633
Te 14.808451 -14.804225 18.095617
Te 18.098435 -14.804225 14.805633
Te 14.808451 -8.224256 -27.964161
Te 14.808451 -11.514240 -24.674177
Te 14.808451 -8.224256 -21.384193
Te 18.098435 -8.224256 -24.674177
Te 18.098435 -11.514240 -21.384193
Te 14.808451 -11.514240 -18.094209
Te 14.808451 -8.224256 -14.804225
Te 18.098435 -8.224256 -18.094209
Te 18.098435 -11.514240 -14.804225
Te 14.808451 -11.514240 -11.514240
Te 14.808451 -8.224256 -8.224256
Te 18.098435 -8.224256 -11.514240
Te 18.098435 -11.514240 -8.224256
Te 14.808451 -11.514240 -4.934272
Te 14.808451 -8.224256 -1.644288
Te 18.098435 -8.224256 -4.934272
Te 18.098435 -11.514240 -1.644288
Te 14.808451 -11.514240 1.645696
Te 14.808451 -8.224256 4.935681
Te 18.098435 -8.224256 1.645696
Te 18.098435 -11.514240 4.935681
Te 14.808451 -11.514240 8.225665
Te 14.808451 -8.224256 11.515649
Te 18.098435 -8.224256 8.225665
Te 18.098435 -11.514240 11.515649
Te 14.808451 -11.514240 14.805633
Te 14.808451 -8.224256 18.095617
Te 18.098435 -8.224256 14.805633
Te 18.098435 -11.514240 18.095617
Te 14.808451 -11.514240 21.385602
Te 14.808451 -8.224256 24.675586
Te 18.098435 -8.224256 21.385602
Te 14.808451 -11.514240 27.965570
Te 14.808451 -1.644288 -27.964161
Te 18.098435 -4.934272 -27.964161
Te 14.808451 -4.934272 -24.674177
Te 14.808451 -1.644288 -21.384193
Te 18.098435 -1.644288 -24.674177
Te 18.098435 -4.934272 -21.384193
Te 14.808451 -4.934272 -18.094209
Te 14.808451 -1.644288 -14.804225
Te 18.098435 -1.644288 -18.094209
Te 18.098435 -4.934272 -14.804225
Te 14.808451 -4.934272 -11.514240
Te 14.808451 -1.644288 -8.224256
Te 18.098435 -1.644288 -11.514240
Te 18.098435 -4.934272 -8.224256
Te 14.808451 -4.934272 -4.934272
Te 14.808451 -1.644288 -1.644288
Te 18.098435 -1.644288 -4.934272
Te 18.098435 -4.934272 -1.644288
Te 14.808451 -4.934272 1.645696
Te 14.808451 -1.644288 4.935681
Te 18.098435 -1.644288 1.645696
Te 18.098435 -4.934272 4.935681
Te 14.808451 -4.934272 8.225665
Te 14.808451 -1.644288 11.515649
Te 18.098435 -1.644288 8.225665
Te 18.098435 -4.934272 11.515649
Te 14.808451 -4.934272 14.805633
Te 14.808451 -1.644288 18.095617
Te 18.098435 -1.644288 14.805633
Te 18.098435 -4.934272 18.095617
Te 14.808451 -4.934272 21.385602
Te 14.808451 -1.644288 24.675586
Te 18.098435 -1.644288 21.385602
Te 18.098435 -4.934272 24.675586
Te 14.808451 -4.934272 27.965570
Te 18.098435 -1.644288 27.965570
Te 14.808451 4.935681 -27.964161
Te 18.098435 1.645696 -27.964161
Te 14.808451 1.645696 -24.674177
Te 14.808451 4.935681 -21.384193
Te 18.098435 4.935681 -24.674177
Te 18.098435 1.645696 -21.384193
Te 14.808451 1.645696 -18.094209
Te 14.808451 4.935681 -14.804225
Te 18.098435 4.935681 -18.094209
Te 18.098435 1.645696 -14.804225
Te 14.808451 1.645696 -11.514240
Te 14.808451 4.935681 -8.224256
Te 18.098435 4.935681 -11.514240
Te 18.098435 1.645696 -8.224256
Te 14.808451 1.645696 -4.934272
Te 14.808451 4.935681 -1.644288
Te 18.098435 4.935681 -4.934272
Te 18.098435 1.645696 -1.644288
Te 14.808451 1.645696 1.645696
Te 14.808451 4.935681 4.935681
Te 18.098435 4.935681 1.645696
Te 18.098435 1.645696 4.935681
Te 14.808451 1.645696 8.225665
Te 14.808451 4.935681 11.515649
Te 18.098435 4.935681 8.225665
Te 18.098435 1.645696 11.515649
Te 14.808451 1.645696 14.805633
Te 14.808451 4.935681 18.095617
Te 18.098435 4.935681 14.805633
Te 18.098435 1.645696 18.095617
Te 14.808451 1.645696 21.385602
Te 14.808451 4.935681 24.675586
Te 18.098435 4.935681 21.385602
Te 18.098435 1.645696 24.675586
Te 14.808451 1.645696 27.965570
Te 18.098435 4.935681 27.965570
Te 14.808451 11.515649 -27.964161
Te 14.808451 8.225665 -24.674177
Te 14.808451 11.515649 -21.384193
Te 18.098435 8.225665 -21.384193
Te 14.808451 8.225665 -18.094209
Te 14.808451 11.515649 -14.804225
Te 18.098435 11.515649 -18.094209
Te 18.098435 8.225665 -14.804225
Te 14.808451 8.225665 -11.514240
Te 14.808451 11.515649 -8.224256
Te 18.098435 11.515649 -11.514240
Te 18.098435 8.225665 -8.224256
Te 14.808451 8.225665 -4.934272
Te 14.808451 11.515649 -1.644288
Te 18.098435 11.515649 -4.934272
Te 18.098435 8.225665 -1.644288
Te 14.808451 8.225665 1.645696
Te 14.808451 11.515649 4.935681
Te 18.098435 11.515649 1.645696
Te 18.098435 8.225665 4.935681
Te 14.808451 8.225665 8.225665
Te 14.808451 11.515649 11.515649
Te 18.098435 11.515649 8.225665
Te 18.098435 8.225665 11.515649
Te 14.808451 8.225665 14.805633
Te 14.808451 11.515649 18.095617
Te 18.098435 11.515649 14.805633
Te 18.098435 8.225665 18.095617
Te 14.808451 8.225665 21.385602
Te 14.808451 11.515649 24.675586
Te 18.098435 11.515649 21.385602
Te 18.098435 8.225665 24.675586
Te 14.808451 8.225665 27.965570
Te 14.808451 14.805633 -18.094209
Te 14.808451 18.095617 -14.804225
Te 18.098435 14.805633 -14.804225
Te 14.808451 14.805633 -11.514240
Te 14.808451 18.095617 -8.224256
Te 18.098435 18.095617 -11.514240
Te 18.098435 14.805633 -8.224256
Te 14.808451 14.805633 -4.934272
Te 14.808451 18.095617 -1.644288
Te 18.098435 18.095617 -4.934272
Te 18.098435 14.805633 -1.644288
Te 14.808451 14.805633 1.645696
Te 14.808451 18.095617 4.935681
Te 18.098435 18.095617 1.645696
Te 18.098435 14.805633 4.935681
Te 14.808451 14.805633 8.225665
Te 14.808451 18.095617 11.515649
Te 18.098435 18.095617 8.225665
Te 18.098435 14.805633 11.515649
Te 14.808451 14.805633 14.805633
Te 14.808451 18.095617 18.095617
Te 18.098435 18.095617 14.805633
Te 18.098435 14.805633 18.095617
Te 14.808451 14.805633 21.385602
Te 14.808451 21.385602 -11.514240
Te 14.808451 24.675586 -8.224256
Te 18.098435 21.385602 -8.224256
Te 14.808451 21.385602 -4.934272
Te 14.808451 24.675586 -1.644288
Te 18.098435 24.675586 -4.934272
Te 18.098435 21.385602 -1.644288
Te 14.808451 21.385602 1.645696
Te 14.808451 24.675586 4.935681
Te 18.098435 24.675586 1.645696
Te 18.098435 21.385602 4.935681
Te 14.808451 21.385602 8.225665
Te 14.808451 24.675586 11.515649
Te 18.098435 24.675586 8.225665
Te 18.098435 21.385602 11.515649
Te 14.808451 21.385602 14.805633
Te 14.808451 27.965570 -11.514240
Te 14.808451 27.965570 -4.934272
Te 18.098435 27.965570 -1.644288
Te 14.808451 27.965570 1.645696
Te 18.098435 27.965570 4.935681
Te 14.808451 27.965570 8.225665
Te 21.388419 -21.384193 -8.224256
Te 21.388419 -24.674177 -4.934272
Te 21.388419 -21.384193 -1.644288
Te 24.678403 -21.384193 -4.934272
Te 21.388419 -24.674177 1.645696
Te 21.388419 -21.384193 4.935681
Te 24.678403 -21.384193 1.645696
Te 21.388419 -24.674177 8.225665
Te 21.388419 -14.804225 -14.804225
Te 21.388419 -18.094209 -11.514240
Te 21.388419 -14.804225 -8.224256
Te 24.678403 -14.804225 -11.514240
Te 24.678403 -18.094209 -8.224256
Te 21.388419 -18.094209 -4.934272
Te 21.388419 -14.804225 -1.644288
Te 24.678403 -14.804225 -4.934272
Te 24.678403 -18.094209 -1.644288
Te 21.388419 -18.094209 1.645696
Te 21.388419 -14.804225 4.935681
Te 24.678403 -14.804225 1.645696
Te 24.678403 -18.094209 4.935681
Te 21.388419 -18.094209 8.225665
Te 21.388419 -14.804225 11.515649
Te 24.678403 -14.804225 8.225665
Te 21.388419 -8.224256 -21.384193
Te 21.388419 -11.514240 -18.094209
Te 21.388419 -8.224256 -14.804225
Te 24.678403 -8.224256 -18.094209
Te 24.678403 -11.514240 -14.804225
Te 21.388419 -11.514240 -11.514240
Te 21.388419 -8.224256 -8.224256
Te 24.678403 -8.224256 -11.514240
Te 24.678403 -11.514240 -8.224256
Te 21.388419 -11.514240 -4.934272
Te 21.388419 -8.224256 -1.644288
Te 24.678403 -8.224256 -4.934272
Te 24.678403 -11.514240 -1.644288
Te 21.388419 -11.514240 1.645696
Te 21.388419 -8.224256 4.935681
Te 24.678403 -8.224256 1.645696
Te 24.678403 -11.514240 4.935681
Te 21.388419 -11.514240 8.225665
Te 21.388419 -8.224256 11.515649
Te 24.678403 -8.224256 8.225665
Te 24.678403 -11.514240 11.515649
Te 21.388419 -11.514240 14.805633
Te 21.388419 -8.224256 18.095617
Te 24.678403 -8.224256 14.805633
Te 21.388419 -8.224256 24.675586
Te 21.388419 -4.934272 -24.674177
Te 21.388419 -1.644288 -21.384193
Te 24.678403 -4.934272 -21.384193
Te 21.388419 -4.934272 -18.094209
Te 21.388419 -1.644288 -14.804225
Te 24.678403 -1.644288 -18.094209
Te 24.678403 -4.934272 -14.804225
Te 21.388419 -4.934272 -11.514240
Te 21.388419 -1.644288 -8.224256
Te 24.678403 -1.644288 -11.514240
Te 24.678403 -4.934272 -8.224256
Te 21.388419 -4.934272 -4.934272
Te 21.388419 -1.644288 -1.644288
Te 24.678403 -1.644288 -4.934272
Te 24.678403 -4.934272 -1.644288
Te 21.388419 -4.934272 1.645696
Te 21.388419 -1.644288 4.935681
Te 24.678403 -1.644288 1.645696
Te 24.678403 -4.934272 4.935681
Te 21.388419 -4.934272 8.225665
Te 21.388419 -1.644288 11.515649
Te 24.678403 -1.644288 8.225665
Te 24.678403 -4.934272 11.515649
Te 21.388419 -4.934272 14.805633
Te 21.388419 -1.644288 18.095617
Te 24.678403 -1.644288 14.805633
Te 24.678403 -4.934272 18.095617
Te 21.388419 -4.934272 21.385602
Te 21.388419 -1.644288 24.675586
Te 24.678403 -1.644288 21.385602
Te 21.388419 1.645696 -24.674177
Te 21.388419 4.935681 -21.384193
Te 24.678403 1.645696 -21.384193
Te 21.388419 1.645696 -18.094209
Te 21.388419 4.935681 -14.804225
Te 24.678403 4.935681 -18.094209
Te 24.678403 1.645696 -14.804225
Te 21.388419 1.645696 -11.514240
Te 21.388419 4.935681 -8.224256
Te 24.678403 4.935681 -11.514240
Te 24.678403 1.645696 -8.224256
Te 21.388419 1.645696 -4.934272
Te 21.388419 4.935681 -1.644288
Te 24.678403 4.935681 -4.934272
Te 24.678403 1.645696 -1.644288
Te 21.388419 1.645696 1.645696
Te 21.388419 4.935681 4.935681
Te 24.678403 4.935681 1.645696
Te 24.678403 1.645696 4.935681
Te 21.388419 1.645696 8.225665
Te 21.388419 4.935681 11.515649
Te 24.678403 4.935681 8.225665
Te 24.678403 1.645696 11.515649
Te 21.388419 1.645696 14.805633
Te 21.388419 4.935681 18.095617
Te 24.678403 4.935681 14.805633
Te 24.678403 1.645696 18.095617
Te 21.388419 1.645696 21.385602
Te 21.388419 4.935681 24.675586
Te 24.678403 4.935681 21.385602
Te 21.388419 8.225665 -24.674177
Te 21.388419 8.225665 -18.094209
Te 21.388419 11.515649 -14.804225
Te 24.678403 8.225665 -14.804225
Te 21.388419 8.225665 -11.514240
Te 21.388419 11.515649 -8.224256
Te 24.678403 11.515649 -11.514240
Te 24.678403 8.225665 -8.224256
Te 21.388419 8.225665 -4.934272
Te 21.388419 11.515649 -1.644288
Te 24.678403 11.515649 -4.934272
Te 24.678403 8.225665 -1.644288
Te 21.388419 8.225665 1.645696
Te 21.388419 11.515649 4.935681
Te 24.678403 11.515649 1.645696
Te 24.678403 8.225665 4.935681
Te 21.388419 8.225665 8.225665
Te 21.388419 11.515649 11.515649
Te 24.678403 11.515649 8.225665
Te 24.678403 8.225665 11.515649
Te 21.388419 8.225665 14.805633
Te 21.388419 11.515649 18.095617
Te 24.678403 11.515649 14.805633
Te 24.678403 8.225665 18.095617
Te 21.388419 8.225665 21.385602
Te 21.388419 14.805633 -11.514240
Te 21.388419 18.095617 -8.224256
Te 24.678403 14.805633 -8.224256
Te 21.388419 14.805633 -4.934272
Te 21.388419 18.095617 -1.644288
Te 24.678403 18.095617 -4.934272
Te 24.678403 14.805633 -1.644288
Te 21.388419 14.805633 1.645696
Te 21.388419 18.095617 4.935681
Te 24.678403 18.095617 1.645696
Te 24.678403 14.805633 4.935681
Te 21.388419 14.805633 8.225665
Te 21.388419 18.095617 11.515649
Te 24.678403 18.095617 8.225665
Te 24.678403 14.805633 11.515649
Te 21.388419 14.805633 14.805633
Te 21.388419 24.675586 -8.224256
Te 21.388419 21.385602 -4.934272
Te 21.388419 24.675586 -1.644288
Te 24.678403 21.385602 -1.644288
Te 21.388419 21.385602 1.645696
Te 21.388419 24.675586 4.935681
Te 24.678403 21.385602 4.935681
Te 21.388419 21.385602 8.225665
Te 27.968387 -14.804225 -8.224256
Te 27.968387 -18.094209 -4.934272
Te 27.968387 -14.804225 -1.644288
Te 27.968387 -18.094209 1.645696
Te 27.968387 -14.804225 4.935681
Te 27.968387 -18.094209 8.225665
Te 27.968387 -8.224256 -14.804225
Te 27.968387 -11.514240 -11.514240
Te 27.968387 -8.224256 -8.224256
Te 27.968387 -11.514240 -4.934272
Te 27.968387 -8.224256 -1.644288
Te 27.968387 -11.514240 1.645696
Te 27.968387 -8.224256 4.935681
Te 27.968387 -11.514240 8.225665
Te 27.968387 -8.224256 11.515649
Te 27.968387 -8.224256 18.095617
Te 27.968387 -4.934272 -18.094209
Te 27.968387 -1.644288 -14.804225
Te 27.968387 -4.934272 -11.514240
Te 27.968387 -1.644288 -8.224256
Te 27.968387 -4.934272 -4.934272
Te 27.968387 -1.644288 -1.644288
Te 27.968387 -4.934272 1.645696
Te 27.968387 -1.644288 4.935681
Te 27.968387 -4.934272 8.225665
Te 27.968387 -1.644288 11.515649
Te 27.968387 -4.934272 14.805633
Te 27.968387 -1.644288 18.095617
Te 27.968387 1.645696 -18.094209
Te 27.968387 4.935681 -14.804225
Te 27.968387 1.645696 -11.514240
Te 27.968387 4.935681 -8.224256
Te 27.968387 1.645696 -4.934272
Te 27.968387 4.935681 -1.644288
Te 27.968387 1.645696 1.645696
Te 27.968387 4.935681 4.935681
Te 27.968387 1.645696 8.225665
Te 27.968387 4.935681 11.515649
Te 27.968387 1.645696 14.805633
Te 27.968387 4.935681 18.095617
Te 27.968387 8.225665 -18.094209
Te 27.968387 8.225665 -11.514240
Te 27.968387 11.515649 -8.224256
Te 27.968387 8.225665 -4.934272
Te 27.968387 11.515649 -1.644288
Te 27.968387 8.225665 1.645696
Te 27.968387 11.515649 4.935681
Te 27.968387 8.225665 8.225665
Te 27.968387 11.515649 11.515649
Te 27.968387 8.225665 14.805633
Te 27.968387 18.095617 -8.224256
Te 27.968387 14.805633 -4.934272
Te 27.968387 18.095617 -1.644288
Te 27.968387 14.805633 1.645696
Te 27.968387 18.095617 4.935681
Te 27.968387 14.805633 8.225665
Cl -31.251328 -14.804225 -8.224256
Cl -27.961344 -18.094209 -8.224256
Cl -31.251328 -14.804225 -1.644288
Cl -31.251328 -14.804225 4.935681
Cl -31.251328 -8.224256 -14.804225
Cl -27.961344 -8.224256 -18.094209
Cl -27.961344 -11.514240 -14.804225
Cl -31.251328 -11.514240 -11.514240
Cl -31.251328 -8.224256 -8.224256
Cl -31.251328 -11.514240 -4.934272
Cl -31.251328 -8.224256 -1.644288
Cl -31.251328 -11.514240 1.645696
Cl -31.251328 -8.224256 4.935681
Cl -31.251328 -11.514240 8.225665
Cl -31.251328 -8.224256 11.515649
Cl -31.251328 -1.644288 -14.804225
Cl -31.251328 -4.934272 -11.514240
Cl -31.251328 -1.644288 -8.224256
Cl -31.251328 -4.934272 -4.934272
Cl -31.251328 -1.644288 -1.644288
Cl -31.251328 -4.934272 1.645696
Cl -31.251328 -1.644288 4.935681
Cl -31.251328 -4.934272 8.225665
Cl -31.251328 -1.644288 11.515649
Cl -31.251328 -4.934272 14.805633
Cl -31.251328 4.935681 -14.804225
Cl -31.251328 1.645696 -11.514240
Cl -31.251328 4.935681 -8.224256
Cl -31.251328 1.645696 -4.934272
Cl -31.251328 4.935681 -1.644288
Cl -31.251328 1.645696 1.645696
Cl -31.251328 4.935681 4.935681
Cl -31.251328 1.645696 8.225665
Cl -31.251328 4.935681 11.515649
Cl -31.251328 1.645696 14.805633
Cl -31.251328 8.225665 -11.514240
Cl -31.251328 11.515649 -8.224256
Cl -31.251328 8.225665 -4.934272
Cl -31.251328 11.515649 -1.644288
Cl -31.251328 8.225665 1.645696
Cl -31.251328 11.515649 4.935681
Cl -31.251328 8.225665 8.225665
Cl -31.251328 11.515649 11.515649
Cl -31.251328 8.225665 14.805633
Cl -27.961344 11.515649 14.805633
Cl -27.961344 8.225665 18.095617
Cl -31.251328 14.805633 -4.934272
Cl -31.251328 14.805633 1.645696
Cl -31.251328 14.805633 8.225665
Cl -27.961344 18.095617 8.225665
Cl -21.381376 -21.384193 -11.514240
Cl -21.381376 -24.674177 -8.224256
Cl -24.671360 -14.804225 -14.804225
Cl -21.381376 -14.804225 -18.094209
Cl -21.381376 -18.094209 -14.804225
Cl -24.671360 -18.094209 -11.514240
Cl -24.671360 -8.224256 -21.384193
Cl -21.381376 -11.514240 -21.384193
Cl -24.671360 -11.514240 -18.094209
Cl -24.671360 11.515649 18.095617
Cl -24.671360 8.225665 21.385602
Cl -21.381376 11.515649 21.385602
Cl -24.671360 18.095617 11.515649
Cl -24.671360 14.805633 14.805633
Cl -21.381376 18.095617 14.805633
Cl -21.381376 14.805633 18.095617
Cl -21.381376 24.675586 8.225665
Cl -21.381376 21.385602 11.515649
Cl -14.801407 -27.964161 -11.514240
Cl -14.801407 -31.254146 -8.224256
Cl -14.801407 -31.254146 -1.644288
Cl -14.801407 -31.254146 4.935681
Cl -18.091391 -21.384193 -14.804225
Cl -14.801407 -21.384193 -18.094209
Cl -14.801407 -24.674177 -14.804225
Cl -18.091391 -24.674177 -11.514240
Cl -18.091391 -14.804225 -21.384193
Cl -14.801407 -14.804225 -24.674177
Cl -14.801407 -18.094209 -21.384193
Cl -18.091391 -18.094209 -18.094209
Cl -18.091391 -8.224256 -27.964161
Cl -14.801407 -8.224256 -31.254146
Cl -14.801407 -11.514240 -27.964161
Cl -18.091391 -11.514240 -24.674177
Cl -14.801407 -1.644288 -31.254146
Cl -14.801407 -4.934272 31.255554
Cl -14.801407 4.935681 -31.254146
Cl -14.801407 1.645696 31.255554
Cl -18.091391 11.515649 24.675586
Cl -18.091391 8.225665 27.965570
Cl -14.801407 11.515649 27.965570
Cl -14.801407 8.225665 31.255554
Cl -18.091391 18.095617 18.095617
Cl -18.091391 14.805633 21.385602
Cl -14.801407 18.095617 21.385602
Cl -14.801407 14.805633 24.675586
Cl -18.091391 24.675586 11.515649
Cl -18.091391 21.385602 14.805633
Cl -14.801407 24.675586 14.805633
Cl -14.801407 21.385602 18.095617
Cl -14.801407 31.255554 -4.934272
Cl -14.801407 31.255554 1.645696
Cl -14.801407 31.255554 8.225665
Cl -14.801407 27.965570 11.515649
Cl -11.511423 -27.964161 -14.804225
Cl -8.221439 -31.254146 -14.804225
Cl -11.511423 -31.254146 -11.514240
Cl -8.221439 -31.254146 -8.224256
Cl -11.511423 -31.254146 -4.934272
Cl -8.221439 -31.254146 -1.644288
Cl -11.511423 -31.254146 1.645696
Cl -8.221439 -31.254146 4.935681
Cl -11.511423 -31.254146 8.225665
Cl -8.221439 -31.254146 11.515649
Cl -11.511423 -21.384193 -21.384193
Cl -8.221439 -24.674177 -21.384193
Cl -11.511423 -24.674177 -18.094209
Cl -8.221439 -14.804225 -31.254146
Cl -8.221439 -18.094209 -27.964161
Cl -11.511423 -18.094209 -24.674177
Cl -11.511423 -11.514240 -31.254146
Cl -8.221439 -8.224256 -31.254146
Cl -11.511423 -8.224256 31.255554
Cl -8.221439 -11.514240 31.255554
Cl -11.511423 -4.934272 -31.254146
Cl -8.221439 -1.644288 -31.254146
Cl -11.511423 -1.644288 31.255554
Cl -8.221439 -4.934272 31.255554
Cl -11.511423 1.645696 -31.254146
Cl -8.221439 4.935681 -31.254146
Cl -11.511423 4.935681 31.255554
Cl -8.221439 1.645696 31.255554
Cl -11.511423 8.225665 -31.254146
Cl -8.221439 11.515649 -31.254146
Cl -11.511423 11.515649 31.255554
Cl -8.221439 8.225665 31.255554
Cl -11.511423 18.095617 24.675586
Cl -8.221439 18.095617 27.965570
Cl -8.221439 14.805633 31.255554
Cl -11.511423 24.675586 18.095617
Cl -11.511423 21.385602 21.385602
Cl -8.221439 24.675586 21.385602
Cl -11.511423 31.255554 -8.224256
Cl -8.221439 31.255554 -11.514240
Cl -11.511423 31.255554 -1.644288
Cl -8.221439 31.255554 -4.934272
Cl -11.511423 31.255554 4.935681
Cl -8.221439 31.255554 1.645696
Cl -11.511423 31.255554 11.515649
Cl -8.221439 31.255554 8.225665
Cl -11.511423 27.965570 14.805633
Cl -8.221439 31.255554 14.805633
Cl -1.641470 -31.254146 -14.804225
Cl -4.931455 -31.254146 -11.514240
Cl -1.641470 -31.254146 -8.224256
Cl -4.931455 -31.254146 -4.934272
Cl -1.641470 -31.254146 -1.644288
Cl -4.931455 -31.254146 1.645696
Cl -1.641470 -31.254146 4.935681
Cl -4.931455 -31.254146 8.225665
Cl -1.641470 -31.254146 11.515649
Cl -4.931455 -31.254146 14.805633
Cl -1.641470 -14.804225 -31.254146
Cl -4.931455 -14.804225 31.255554
Cl -4.931455 -11.514240 -31.254146
Cl -1.641470 -8.224256 -31.254146
Cl -4.931455 -8.224256 31.255554
Cl -1.641470 -11.514240 31.255554
Cl -4.931455 -4.934272 -31.254146
Cl -1.641470 -1.644288 -31.254146
Cl -4.931455 -1.644288 31.255554
Cl -1.641470 -4.934272 31.255554
Cl -4.931455 1.645696 -31.254146
Cl -1.641470 4.935681 -31.254146
Cl -4.931455 4.935681 31.255554
Cl -1.641470 1.645696 31.255554
Cl -4.931455 8.225665 -31.254146
Cl -1.641470 11.515649 -31.254146
Cl -4.931455 11.515649 31.255554
Cl -1.641470 8.225665 31.255554
Cl -4.931455 14.805633 -31.254146
Cl -1.641470 14.805633 31.255554
Cl -4.931455 31.255554 -14.804225
Cl -4.931455 31.255554 -8.224256
Cl -1.641470 31.255554 -11.514240
Cl -4.931455 31.255554 -1.644288
Cl -1.641470 31.255554 -4.934272
Cl -4.931455 31.255554 4.935681
Cl -1.641470 31.255554 1.645696
Cl -4.931455 31.255554 11.515649
Cl -1.641470 31.255554 8.225665
Cl -1.641470 31.255554 14.805633
Cl 4.938498 -31.254146 -14.804225
Cl 1.648514 -31.254146 -11.514240
Cl 4.938498 -31.254146 -8.224256
Cl 1.648514 -31.254146 -4.934272
Cl 4.938498 -31.254146 -1.644288
Cl 1.648514 -31.254146 1.645696
Cl 4.938498 -31.254146 4.935681
Cl 1.648514 -31.254146 8.225665
Cl 4.938498 -31.254146 11.515649
Cl 1.648514 -31.254146 14.805633
Cl 4.938498 -14.804225 -31.254146
Cl 1.648514 -14.804225 31.255554
Cl 1.648514 -11.514240 -31.254146
Cl 4.938498 -8.224256 -31.254146
Cl 1.648514 -8.224256 31.255554
Cl 4.938498 -11.514240 31.255554
Cl 1.648514 -4.934272 -31.254146
Cl 4.938498 -1.644288 -31.254146
Cl 1.648514 -1.644288 31.255554
Cl 4.938498 -4.934272 31.255554
Cl 1.648514 1.645696 -31.254146
Cl 4.938498 4.935681 -31.254146
Cl 1.648514 4.935681 31.255554
Cl 4.938498 1.645696 31.255554
Cl 1.648514 8.225665 -31.254146
Cl 4.938498 11.515649 -31.254146
Cl 1.648514 11.515649 31.255554
Cl 4.938498 8.225665 31.255554
Cl 1.648514 14.805633 -31.254146
Cl 4.938498 14.805633 31.255554
Cl 1.648514 31.255554 -14.804225
Cl 1.648514 31.255554 -8.224256
Cl 4.938498 31.255554 -11.514240
Cl 1.648514 31.255554 -1.644288
Cl 4.938498 31.255554 -4.934272
Cl 1.648514 31.255554 4.935681
Cl 4.938498 31.255554 1.645696
Cl 1.648514 31.255554 11.515649
Cl 4.938498 31.255554 8.225665
Cl 4.938498 31.255554 14.805633
Cl 8.228482 -31.254146 -11.514240
Cl 11.518466 -31.254146 -8.224256
Cl 8.228482 -31.254146 -4.934272
Cl 11.518466 -31.254146 -1.644288
Cl 8.228482 -31.254146 1.645696
Cl 11.518466 -31.254146 4.935681
Cl 8.228482 -31.254146 8.225665
Cl 11.518466 -31.254146 11.515649
Cl 8.228482 -31.254146 14.805633
Cl 8.228482 -27.964161 18.095617
Cl 11.518466 -27.964161 14.805633
Cl 11.518466 -24.674177 18.095617
Cl 8.228482 -24.674177 21.385602
Cl 11.518466 -21.384193 21.385602
Cl 11.518466 -18.094209 24.675586
Cl 8.228482 -18.094209 27.965570
Cl 8.228482 -14.804225 31.255554
Cl 11.518466 -14.804225 27.965570
Cl 8.228482 -11.514240 -31.254146
Cl 11.518466 -8.224256 -31.254146
Cl 8.228482 -8.224256 31.255554
Cl 11.518466 -11.514240 31.255554
Cl 8.228482 -4.934272 -31.254146
Cl 11.518466 -1.644288 -31.254146
Cl 8.228482 -1.644288 31.255554
Cl 11.518466 -4.934272 31.255554
Cl 8.228482 1.645696 -31.254146
Cl 11.518466 4.935681 -31.254146
Cl 8.228482 4.935681 31.255554
Cl 11.518466 1.645696 31.255554
Cl 8.228482 8.225665 -31.254146
Cl 11.518466 11.515649 -31.254146
Cl 8.228482 11.515649 31.255554
Cl 11.518466 8.225665 31.255554
Cl 8.228482 14.805633 -31.254146
Cl 8.228482 18.095617 -27.964161
Cl 11.518466 14.805633 -27.964161
Cl 11.518466 18.095617 -24.674177
Cl 8.228482 21.385602 -24.674177
Cl 11.518466 21.385602 -21.384193
Cl 11.518466 24.675586 -18.094209
Cl 8.228482 27.965570 -18.094209
Cl 8.228482 31.255554 -14.804225
Cl 11.518466 27.965570 -14.804225
Cl 8.228482 31.255554 -8.224256
Cl 11.518466 31.255554 -11.514240
Cl 8.228482 31.255554 -1.644288
Cl 11.518466 31.255554 -4.934272
Cl 8.228482 31.255554 4.935681
Cl 11.518466 31.255554 1.645696
Cl 8.228482 31.255554 11.515649
Cl 11.518466 31.255554 8.225665
Cl 14.808451 -31.254146 -4.934272
Cl 14.808451 -31.254146 1.645696
Cl 14.808451 -31.254146 8.225665
Cl 18.098435 -27.964161 8.225665
Cl 18.098435 -24.674177 11.515649
Cl 14.808451 -24.674177 14.805633
Cl 14.808451 -21.384193 18.095617
Cl 18.098435 -21.384193 14.805633
Cl 18.098435 -18.094209 18.095617
Cl 14.808451 -18.094209 21.385602
Cl 14.808451 -14.804225 24.675586
Cl 18.098435 -14.804225 21.385602
Cl 18.098435 -11.514240 24.675586
Cl 14.808451 -8.224256 31.255554
Cl 18.098435 -8.224256 27.965570
Cl 14.808451 -4.934272 -31.254146
Cl 14.808451 -1.644288 31.255554
Cl 14.808451 1.645696 -31.254146
Cl 14.808451 4.935681 31.255554
Cl 14.808451 8.225665 -31.254146
Cl 18.098435 8.225665 -27.964161
Cl 18.098435 11.515649 -24.674177
Cl 14.808451 14.805633 -24.674177
Cl 14.808451 18.095617 -21.384193
Cl 18.098435 14.805633 -21.384193
Cl 18.098435 18.095617 -18.094209
Cl 14.808451 21.385602 -18.094209
Cl 14.808451 24.675586 -14.804225
Cl 18.098435 21.385602 -14.804225
Cl 18.098435 24.675586 -11.514240
Cl 14.808451 31.255554 -8.224256
Cl 18.098435 27.965570 -8.224256
Cl 14.808451 31.255554 -1.644288
Cl 14.808451 31.255554 4.935681
Cl 21.388419 -21.384193 11.515649
Cl 24.678403 -21.384193 8.225665
Cl 24.678403 -18.094209 11.515649
Cl 21.388419 -18.094209 14.805633
Cl 21.388419 -14.804225 18.095617
Cl 24.678403 -14.804225 14.805633
Cl 24.678403 -11.514240 18.095617
Cl 21.388419 -11.514240 21.385602
Cl 24.678403 -8.224256 21.385602
Cl 21.388419 11.515649 -21.384193
Cl 24.678403 8.225665 -21.384193
Cl 24.678403 11.515649 -18.094209
Cl 21.388419 14.805633 -18.094209
Cl 21.388419 18.095617 -14.804225
Cl 24.678403 14.805633 -14.804225
Cl 24.678403 18.095617 -11.514240
Cl 21.388419 21.385602 -11.514240
Cl 24.678403 21.385602 -8.224256
Cl 31.258372 -14.804225 -4.934272
Cl 31.258372 -14.804225 1.645696
Cl 27.968387 -14.804225 11.515649
Cl 31.258372 -14.804225 8.225665
Cl 31.258372 -8.224256 -11.514240
Cl 31.258372 -11.514240 -8.224256
Cl 31.258372 -8.224256 -4.934272
Cl 31.258372 -11.514240 -1.644288
Cl 31.258372 -8.224256 1.645696
Cl 31.258372 -11.514240 4.935681
Cl 31.258372 -8.224256 8.225665
Cl 31.258372 -11.514240 11.515649
Cl 27.968387 -11.514240 14.805633
Cl 31.258372 -8.224256 14.805633
Cl 31.258372 -4.934272 -14.804225
Cl 31.258372 -1.644288 -11.514240
Cl 31.258372 -4.934272 -8.224256
Cl 31.258372 -1.644288 -4.934272
Cl 31.258372 -4.934272 -1.644288
Cl 31.258372 -1.644288 1.645696
Cl 31.258372 -4.934272 4.935681
Cl 31.258372 -1.644288 8.225665
Cl 31.258372 -4.934272 11.515649
Cl 31.258372 -1.644288 14.805633
Cl 31.258372 1.645696 -14.804225
Cl 31.258372 4.935681 -11.514240
Cl 31.258372 1.645696 -8.224256
Cl 31.258372 4.935681 -4.934272
Cl 31.258372 1.645696 -1.644288
Cl 31.258372 4.935681 1.645696
Cl 31.258372 1.645696 4.935681
Cl 31.258372 4.935681 8.225665
Cl 31.258372 1.645696 11.515649
Cl 31.258372 4.935681 14.805633
Cl 27.968387 11.515649 -14.804225
Cl 31.258372 8.225665 -14.804225
Cl 31.258372 11.515649 -11.514240
Cl 31.258372 8.225665 -8.224256
Cl 31.258372 11.515649 -4.934272
Cl 31.258372 8.225665 -1.644288
Cl 31.258372 11.515649 1.645696
Cl 31.258372 8.225665 4.935681
Cl 31.258372 11.515649 8.225665
Cl 31.258372 8.225665 11.515649
Cl 27.968387 14.805633 -11.514240
Cl 31.258372 14.805633 -8.224256
Cl 31.258372 14.805633 -1.644288
Cl 31.258372 14.805633 4.935681
Cl -18.091391 -27.964161 8.225665
Cl -18.091391 8.225665 -27.964161
Cl 8.228482 -18.094209 -27.964161
Cl 18.098435 8.225665 27.965570
Cl -18.091391 -8.224256 27.965570
Cl -18.091391 27.965570 -8.224256
Cl 18.098435 27.965570 8.225665
Cl 27.968387 -18.094209 -8.224256
Cl -8.221439 -24.674177 21.385602
Cl -8.221439 21.385602 -24.674177
