138
GaSb-Sb-Ga52Sb35Cl51-clean
Ga -4.536198 -4.625143 1.534302
Ga -4.536198 -7.693747 4.602906
Ga -7.604802 -4.625143 4.602906
Ga -4.536198 -4.625143 7.671511
Ga -4.536198 1.512066 -4.602906
Ga -4.536198 -1.556538 -1.534302
Ga -7.604802 1.512066 -1.534302
Ga -7.604802 -1.556538 1.534302
Ga -4.536198 1.512066 1.534302
Ga -4.536198 -1.556538 4.602906
Ga -4.536198 4.580670 -7.671511
Ga -7.604802 4.580670 -4.602906
Ga -4.536198 7.649275 -4.602906
Ga -4.536198 4.580670 -1.534302
Ga 1.601011 -4.625143 -4.602906
Ga 1.601011 -7.693747 -1.534302
Ga -1.467593 -4.625143 -1.534302
Ga -1.467593 -7.693747 1.534302
Ga 1.601011 -4.625143 1.534302
Ga -1.467593 -4.625143 4.602906
Ga 1.601011 -1.556538 -7.671511
Ga -1.467593 1.512066 -7.671511
Ga -1.467593 -1.556538 -4.602906
Ga 1.601011 1.512066 -4.602906
Ga 1.601011 -1.556538 -1.534302
Ga -1.467593 1.512066 -1.534302
Ga -1.467593 -1.556538 1.534302
Ga 1.601011 1.512066 1.534302
Ga 1.601011 -1.556538 4.602906
Ga -1.467593 1.512066 4.602906
Ga -1.467593 -1.556538 7.671511
Ga 1.601011 1.512066 7.671511
Ga -1.467593 4.580670 -4.602906
Ga 1.601011 4.580670 -1.534302
Ga -1.467593 7.649275 -1.534302
Ga -1.467593 4.580670 1.534302
Ga 1.601011 7.649275 1.534302
Ga 1.601011 4.580670 4.602906
Ga 4.669615 -4.625143 -7.671511
Ga 4.669615 -7.693747 -4.602906
Ga 7.738220 -4.625143 -4.602906
Ga 4.669615 -4.625143 -1.534302
Ga 4.669615 -1.556538 -4.602906
Ga 7.738220 -1.556538 -1.534302
Ga 4.669615 1.512066 -1.534302
Ga 4.669615 -1.556538 1.534302
Ga 7.738220 1.512066 1.534302
Ga 4.669615 1.512066 4.602906
Ga 4.669615 4.580670 1.534302
Ga 7.738220 4.580670 4.602906
Ga 4.669615 7.649275 4.602906
Ga 4.669615 4.580670 7.671511
Sb -3.001896 -3.090841 0.000000
Sb -6.070500 -6.159445 6.137209
Sb -6.070500 -3.090841 3.068604
Sb -3.001896 -3.090841 6.137209
Sb -3.001896 -6.159445 3.068604
Sb -3.001896 3.046368 -6.137209
Sb -6.070500 -0.022236 -0.000000
Sb -6.070500 3.046368 -3.068604
Sb -3.001896 3.046368 0.000000
Sb -3.001896 -0.022236 -3.068604
Sb -3.001896 -0.022236 3.068604
Sb -6.070500 6.114972 -6.137209
Sb -3.001896 6.114972 -3.068604
Sb 3.135313 -3.090841 -6.137209
Sb 0.066709 -6.159445 -0.000000
Sb 0.066709 -3.090841 -3.068604
Sb 3.135313 -3.090841 0.000000
Sb 3.135313 -6.159445 -3.068604
Sb 0.066709 -3.090841 3.068604
Sb 0.066709 -0.022236 -6.137209
Sb 0.066709 -0.022236 0.000000
Sb 0.066709 3.046368 -3.068604
Sb 3.135313 3.046368 0.000000
Sb 3.135313 -0.022236 -3.068604
Sb 0.066709 -0.022236 6.137209
Sb 0.066709 3.046368 3.068604
Sb 3.135313 3.046368 6.137209
Sb 3.135313 -0.022236 3.068604
Sb 0.066709 6.114972 0.000000
Sb 3.135313 6.114972 3.068604
Sb 6.203917 -6.159445 -6.137209
Sb 6.203917 -3.090841 -3.068604
Sb 6.203917 -0.022236 0.000000
Sb 6.203917 3.046368 3.068604
Sb 6.203917 6.114972 6.137209
Cl -6.070500 -9.228049 3.068604
Cl 6.203917 9.183577 3.068604
Cl -9.139104 6.114972 -3.068604
Cl 9.272522 -6.159445 -3.068604
Cl -3.001896 -6.159445 9.205813
Cl -6.070500 3.046368 -9.205813
Cl 6.203917 -3.090841 -9.205813
Cl 3.135313 6.114972 9.205813
Cl -9.139104 -3.090841 6.137209
Cl -3.001896 9.183577 -6.137209
Cl 3.135313 -9.228049 -6.137209
Cl 9.272522 3.046368 6.137209
Cl -9.139104 -0.022236 -3.068604
Cl 0.066709 -9.228049 3.068604
Cl 0.066709 9.183577 3.068604
Cl 9.272522 -0.022236 -3.068604
Cl 0.066709 -3.090841 -9.205813
Cl 0.066709 3.046368 -9.205813
Cl -3.001896 -0.022236 9.205813
Cl 3.135313 -0.022236 9.205813
Cl -9.139104 -3.090841 -0.000000
Cl 3.135313 -9.228049 -0.000000
Cl -3.001896 9.183577 0.000000
Cl 9.272522 3.046368 0.000000
Cl -6.070500 3.046368 3.068604
Cl -3.001896 -6.159445 -3.068604
Cl 3.135313 6.114972 -3.068604
Cl 6.203917 -3.090841 3.068604
Cl -6.070500 -3.090841 9.205813
Cl -3.001896 6.114972 -9.205813
Cl 3.135313 -6.159445 -9.205813
Cl 6.203917 3.046368 9.205813
Cl -3.001896 -9.228049 6.137209
Cl -9.139104 3.046368 -6.137209
Cl 9.272522 -3.090841 -6.137209
Cl 3.135313 9.183577 6.137209
Cl -9.139104 -6.159445 3.068604
Cl -6.070500 9.183577 -3.068604
Cl 6.203917 -9.228049 -3.068604
Cl 9.272522 6.114972 3.068604
Cl -9.139104 -0.022236 3.068604
Cl 0.066709 -9.228049 -3.068604
Cl 0.066709 9.183577 -3.068604
Cl 9.272522 -0.022236 3.068604
Cl 3.135313 -0.022236 -9.205813
Cl -3.001896 -0.022236 -9.205813
Cl 0.066709 -3.090841 9.205813
Cl 0.066709 3.046368 9.205813
Cl -9.139104 3.046368 -0.000000
Cl -3.001896 -9.228049 -0.000000
Cl 3.135313 9.183577 0.000000
