3220
GaSb-Ga-Ga1413Sb1216Cl591-reconstructed
Ga -21.483566 -24.543593 15.349216
Ga -24.552170 -21.474989 15.349216
Ga -21.483566 -15.337780 6.143403
Ga -21.483566 -18.406384 9.212007
Ga -24.552170 -15.337780 9.212007
Ga -24.552170 -18.406384 12.280612
Ga -21.483566 -15.337780 12.280612
Ga -21.483566 -18.406384 15.349216
Ga -24.552170 -15.337780 15.349216
Ga -24.552170 -18.406384 18.417820
Ga -21.483566 -15.337780 18.417820
Ga -21.483566 -18.406384 21.486425
Ga -24.552170 -15.337780 21.486425
Ga -21.483566 -15.337780 24.555029
Ga -21.483566 -9.200572 0.006194
Ga -21.483566 -12.269176 3.074799
Ga -24.552170 -9.200572 3.074799
Ga -24.552170 -12.269176 6.143403
Ga -21.483566 -9.200572 6.143403
Ga -21.483566 -12.269176 9.212007
Ga -24.552170 -9.200572 9.212007
Ga -24.552170 -12.269176 12.280612
Ga -21.483566 -9.200572 12.280612
Ga -21.483566 -12.269176 15.349216
Ga -24.552170 -9.200572 15.349216
Ga -24.552170 -12.269176 18.417820
Ga -21.483566 -9.200572 18.417820
Ga -21.483566 -12.269176 21.486425
Ga -21.483566 -3.063363 -6.131014
Ga -21.483566 -6.131967 -3.062410
Ga -24.552170 -3.063363 -3.062410
Ga -24.552170 -6.131967 0.006194
Ga -21.483566 -3.063363 0.006194
Ga -21.483566 -6.131967 3.074799
Ga -24.552170 -3.063363 3.074799
Ga -24.552170 -6.131967 6.143403
Ga -21.483566 -3.063363 6.143403
Ga -21.483566 -6.131967 9.212007
Ga -24.552170 -3.063363 9.212007
Ga -24.552170 -6.131967 12.280612
Ga -21.483566 -3.063363 12.280612
Ga -21.483566 -6.131967 15.349216
Ga -21.483566 3.073846 -12.268223
Ga -21.483566 0.005241 -9.199619
Ga -24.552170 3.073846 -9.199619
Ga -24.552170 0.005241 -6.131014
Ga -21.483566 3.073846 -6.131014
Ga -21.483566 0.005241 -3.062410
Ga -24.552170 3.073846 -3.062410
Ga -24.552170 0.005241 0.006194
Ga -21.483566 3.073846 0.006194
Ga -21.483566 0.005241 3.074799
Ga -24.552170 3.073846 3.074799
Ga -24.552170 0.005241 6.143403
Ga -21.483566 3.073846 6.143403
Ga -21.483566 0.005241 9.212007
Ga -21.483566 9.211054 -18.405432
Ga -21.483566 6.142450 -15.336827
Ga -24.552170 9.211054 -15.336827
Ga -24.552170 6.142450 -12.268223
Ga -21.483566 9.211054 -12.268223
Ga -21.483566 6.142450 -9.199619
Ga -24.552170 9.211054 -9.199619
Ga -24.552170 6.142450 -6.131014
Ga -21.483566 9.211054 -6.131014
Ga -21.483566 6.142450 -3.062410
Ga -24.552170 9.211054 -3.062410
Ga -24.552170 6.142450 0.006194
Ga -21.483566 9.211054 0.006194
Ga -21.483566 6.142450 3.074799
Ga -21.483566 15.348263 -24.542640
Ga -21.483566 12.279659 -21.474036
Ga -24.552170 15.348263 -21.474036
Ga -24.552170 12.279659 -18.405432
Ga -21.483566 15.348263 -18.405432
Ga -21.483566 12.279659 -15.336827
Ga -24.552170 15.348263 -15.336827
Ga -24.552170 12.279659 -12.268223
Ga -21.483566 15.348263 -12.268223
Ga -21.483566 12.279659 -9.199619
Ga -24.552170 15.348263 -9.199619
Ga -24.552170 12.279659 -6.131014
Ga -21.483566 15.348263 -6.131014
Ga -21.483566 12.279659 -3.062410
Ga -21.483566 18.416867 -21.474036
Ga -24.552170 18.416867 -18.405432
Ga -21.483566 18.416867 -15.336827
Ga -24.552170 21.485472 -15.336827
Ga -24.552170 18.416867 -12.268223
Ga -21.483566 18.416867 -9.199619
Ga -21.483566 24.554076 -15.336827
Ga -15.346357 -21.474989 6.143403
Ga -15.346357 -24.543593 9.212007
Ga -18.414961 -21.474989 9.212007
Ga -18.414961 -24.543593 12.280612
Ga -15.346357 -21.474989 12.280612
Ga -15.346357 -24.543593 15.349216
Ga -18.414961 -21.474989 15.349216
Ga -18.414961 -24.543593 18.417820
Ga -15.346357 -21.474989 18.417820
Ga -15.346357 -24.543593 21.486425
Ga -18.414961 -21.474989 21.486425
Ga -15.346357 -21.474989 24.555029
Ga -15.346357 -15.337780 0.006194
Ga -15.346357 -18.406384 3.074799
Ga -18.414961 -15.337780 3.074799
Ga -18.414961 -18.406384 6.143403
Ga -15.346357 -15.337780 6.143403
Ga -15.346357 -18.406384 9.212007
Ga -18.414961 -15.337780 9.212007
Ga -18.414961 -18.406384 12.280612
Ga -15.346357 -15.337780 12.280612
Ga -15.346357 -18.406384 15.349216
Ga -18.414961 -15.337780 15.349216
Ga -18.414961 -18.406384 18.417820
Ga -15.346357 -15.337780 18.417820
Ga -15.346357 -18.406384 21.486425
Ga -18.414961 -15.337780 21.486425
Ga -18.414961 -18.406384 24.555029
Ga -15.346357 -15.337780 24.555029
Ga -15.346357 -9.200572 -6.131014
Ga -15.346357 -12.269176 -3.062410
Ga -18.414961 -9.200572 -3.062410
Ga -18.414961 -12.269176 0.006194
Ga -15.346357 -9.200572 0.006194
Ga -15.346357 -12.269176 3.074799
Ga -18.414961 -9.200572 3.074799
Ga -18.414961 -12.269176 6.143403
Ga -15.346357 -9.200572 6.143403
Ga -15.346357 -12.269176 9.212007
Ga -18.414961 -9.200572 9.212007
Ga -18.414961 -12.269176 12.280612
Ga -15.346357 -9.200572 12.280612
Ga -15.346357 -12.269176 15.349216
Ga -18.414961 -9.200572 15.349216
Ga -18.414961 -12.269176 18.417820
Ga -15.346357 -9.200572 18.417820
Ga -15.346357 -12.269176 21.486425
Ga -18.414961 -9.200572 21.486425
Ga -18.414961 -12.269176 24.555029
Ga -15.346357 -9.200572 24.555029
Ga -15.346357 -3.063363 -12.268223
Ga -15.346357 -6.131967 -9.199619
Ga -18.414961 -3.063363 -9.199619
Ga -18.414961 -6.131967 -6.131014
Ga -15.346357 -3.063363 -6.131014
Ga -15.346357 -6.131967 -3.062410
Ga -18.414961 -3.063363 -3.062410
Ga -18.414961 -6.131967 0.006194
Ga -15.346357 -3.063363 0.006194
Ga -15.346357 -6.131967 3.074799
Ga -18.414961 -3.063363 3.074799
Ga -18.414961 -6.131967 6.143403
Ga -15.346357 -3.063363 6.143403
Ga -15.346357 -6.131967 9.212007
Ga -18.414961 -3.063363 9.212007
Ga -18.414961 -6.131967 12.280612
Ga -15.346357 -3.063363 12.280612
Ga -15.346357 -6.131967 15.349216
Ga -18.414961 -3.063363 15.349216
Ga -18.414961 -6.131967 18.417820
Ga -15.346357 -3.063363 18.417820
Ga -15.346357 -6.131967 21.486425
Ga -15.346357 3.073846 -18.405432
Ga -15.346357 0.005241 -15.336827
Ga -18.414961 3.073846 -15.336827
Ga -18.414961 0.005241 -12.268223
Ga -15.346357 3.073846 -12.268223
Ga -15.346357 0.005241 -9.199619
Ga -18.414961 3.073846 -9.199619
Ga -18.414961 0.005241 -6.131014
Ga -15.346357 3.073846 -6.131014
Ga -15.346357 0.005241 -3.062410
Ga -18.414961 3.073846 -3.062410
Ga -18.414961 0.005241 0.006194
Ga -15.346357 3.073846 0.006194
Ga -15.346357 0.005241 3.074799
Ga -18.414961 3.073846 3.074799
Ga -18.414961 0.005241 6.143403
Ga -15.346357 3.073846 6.143403
Ga -15.346357 0.005241 9.212007
Ga -18.414961 3.073846 9.212007
Ga -18.414961 0.005241 12.280612
Ga -15.346357 3.073846 12.280612
Ga -15.346357 0.005241 15.349216
Ga -15.346357 9.211054 -24.542640
Ga -15.346357 6.142450 -21.474036
Ga -18.414961 9.211054 -21.474036
Ga -18.414961 6.142450 -18.405432
Ga -15.346357 9.211054 -18.405432
Ga -15.346357 6.142450 -15.336827
Ga -18.414961 9.211054 -15.336827
Ga -18.414961 6.142450 -12.268223
Ga -15.346357 9.211054 -12.268223
Ga -15.346357 6.142450 -9.199619
Ga -18.414961 9.211054 -9.199619
Ga -18.414961 6.142450 -6.131014
Ga -15.346357 9.211054 -6.131014
Ga -15.346357 6.142450 -3.062410
Ga -18.414961 9.211054 -3.062410
Ga -18.414961 6.142450 0.006194
Ga -15.346357 9.211054 0.006194
Ga -15.346357 6.142450 3.074799
Ga -18.414961 9.211054 3.074799
Ga -18.414961 6.142450 6.143403
Ga -15.346357 9.211054 6.143403
Ga -15.346357 6.142450 9.212007
Ga -18.414961 12.279659 -24.542640
Ga -15.346357 15.348263 -24.542640
Ga -15.346357 12.279659 -21.474036
Ga -18.414961 15.348263 -21.474036
Ga -18.414961 12.279659 -18.405432
Ga -15.346357 15.348263 -18.405432
Ga -15.346357 12.279659 -15.336827
Ga -18.414961 15.348263 -15.336827
Ga -18.414961 12.279659 -12.268223
Ga -15.346357 15.348263 -12.268223
Ga -15.346357 12.279659 -9.199619
Ga -18.414961 15.348263 -9.199619
Ga -18.414961 12.279659 -6.131014
Ga -15.346357 15.348263 -6.131014
Ga -15.346357 12.279659 -3.062410
Ga -18.414961 15.348263 -3.062410
Ga -18.414961 12.279659 0.006194
Ga -15.346357 15.348263 0.006194
Ga -15.346357 12.279659 3.074799
Ga -18.414961 18.416867 -24.542640
Ga -15.346357 21.485472 -24.542640
Ga -15.346357 18.416867 -21.474036
Ga -18.414961 21.485472 -21.474036
Ga -18.414961 18.416867 -18.405432
Ga -15.346357 21.485472 -18.405432
Ga -15.346357 18.416867 -15.336827
Ga -18.414961 21.485472 -15.336827
Ga -18.414961 18.416867 -12.268223
Ga -15.346357 21.485472 -12.268223
Ga -15.346357 18.416867 -9.199619
Ga -18.414961 21.485472 -9.199619
Ga -18.414961 18.416867 -6.131014
Ga -15.346357 21.485472 -6.131014
Ga -15.346357 18.416867 -3.062410
Ga -15.346357 24.554076 -21.474036
Ga -18.414961 24.554076 -18.405432
Ga -15.346357 24.554076 -15.336827
Ga -18.414961 24.554076 -12.268223
Ga -15.346357 24.554076 -9.199619
Ga -9.209148 -21.474989 0.006194
Ga -9.209148 -24.543593 3.074799
Ga -12.277753 -21.474989 3.074799
Ga -12.277753 -24.543593 6.143403
Ga -9.209148 -21.474989 6.143403
Ga -9.209148 -24.543593 9.212007
Ga -12.277753 -21.474989 9.212007
Ga -12.277753 -24.543593 12.280612
Ga -9.209148 -21.474989 12.280612
Ga -9.209148 -24.543593 15.349216
Ga -12.277753 -21.474989 15.349216
Ga -12.277753 -24.543593 18.417820
Ga -9.209148 -21.474989 18.417820
Ga -12.277753 -21.474989 21.486425
Ga -9.209148 -15.337780 -6.131014
Ga -9.209148 -18.406384 -3.062410
Ga -12.277753 -15.337780 -3.062410
Ga -12.277753 -18.406384 0.006194
Ga -9.209148 -15.337780 0.006194
Ga -9.209148 -18.406384 3.074799
Ga -12.277753 -15.337780 3.074799
Ga -12.277753 -18.406384 6.143403
Ga -9.209148 -15.337780 6.143403
Ga -9.209148 -18.406384 9.212007
Ga -12.277753 -15.337780 9.212007
Ga -12.277753 -18.406384 12.280612
Ga -9.209148 -15.337780 12.280612
Ga -9.209148 -18.406384 15.349216
Ga -12.277753 -15.337780 15.349216
Ga -12.277753 -18.406384 18.417820
Ga -9.209148 -15.337780 18.417820
Ga -9.209148 -18.406384 21.486425
Ga -12.277753 -15.337780 21.486425
Ga -12.277753 -18.406384 24.555029
Ga -9.209148 -15.337780 24.555029
Ga -9.209148 -9.200572 -12.268223
Ga -9.209148 -12.269176 -9.199619
Ga -12.277753 -9.200572 -9.199619
Ga -12.277753 -12.269176 -6.131014
Ga -9.209148 -9.200572 -6.131014
Ga -9.209148 -12.269176 -3.062410
Ga -12.277753 -9.200572 -3.062410
Ga -12.277753 -12.269176 0.006194
Ga -9.209148 -9.200572 0.006194
Ga -9.209148 -12.269176 3.074799
Ga -12.277753 -9.200572 3.074799
Ga -12.277753 -12.269176 6.143403
Ga -9.209148 -9.200572 6.143403
Ga -9.209148 -12.269176 9.212007
Ga -12.277753 -9.200572 9.212007
Ga -12.277753 -12.269176 12.280612
Ga -9.209148 -9.200572 12.280612
Ga -9.209148 -12.269176 15.349216
Ga -12.277753 -9.200572 15.349216
Ga -12.277753 -12.269176 18.417820
Ga -9.209148 -9.200572 18.417820
Ga -9.209148 -12.269176 21.486425
Ga -12.277753 -9.200572 21.486425
Ga -12.277753 -12.269176 24.555029
Ga -9.209148 -9.200572 24.555029
Ga -9.209148 -3.063363 -18.405432
Ga -9.209148 -6.131967 -15.336827
Ga -12.277753 -3.063363 -15.336827
Ga -12.277753 -6.131967 -12.268223
Ga -9.209148 -3.063363 -12.268223
Ga -9.209148 -6.131967 -9.199619
Ga -12.277753 -3.063363 -9.199619
Ga -12.277753 -6.131967 -6.131014
Ga -9.209148 -3.063363 -6.131014
Ga -9.209148 -6.131967 -3.062410
Ga -12.277753 -3.063363 -3.062410
Ga -12.277753 -6.131967 0.006194
Ga -9.209148 -3.063363 0.006194
Ga -9.209148 -6.131967 3.074799
Ga -12.277753 -3.063363 3.074799
Ga -12.277753 -6.131967 6.143403
Ga -9.209148 -3.063363 6.143403
Ga -9.209148 -6.131967 9.212007
Ga -12.277753 -3.063363 9.212007
Ga -12.277753 -6.131967 12.280612
Ga -9.209148 -3.063363 12.280612
Ga -9.209148 -6.131967 15.349216
Ga -12.277753 -3.063363 15.349216
Ga -12.277753 -6.131967 18.417820
Ga -9.209148 -3.063363 18.417820
Ga -9.209148 -6.131967 21.486425
Ga -12.277753 -3.063363 21.486425
Ga -12.277753 -6.131967 24.555029
Ga -9.209148 -3.063363 24.555029
Ga -9.209148 3.073846 -24.542640
Ga -9.209148 0.005241 -21.474036
Ga -12.277753 3.073846 -21.474036
Ga -12.277753 0.005241 -18.405432
Ga -9.209148 3.073846 -18.405432
Ga -9.209148 0.005241 -15.336827
Ga -12.277753 3.073846 -15.336827
Ga -12.277753 0.005241 -12.268223
Ga -9.209148 3.073846 -12.268223
Ga -9.209148 0.005241 -9.199619
Ga -12.277753 3.073846 -9.199619
Ga -12.277753 0.005241 -6.131014
Ga -9.209148 3.073846 -6.131014
Ga -9.209148 0.005241 -3.062410
Ga -12.277753 3.073846 -3.062410
Ga -12.277753 0.005241 0.006194
Ga -9.209148 3.073846 0.006194
Ga -9.209148 0.005241 3.074799
Ga -12.277753 3.073846 3.074799
Ga -12.277753 0.005241 6.143403
Ga -9.209148 3.073846 6.143403
Ga -9.209148 0.005241 9.212007
Ga -12.277753 3.073846 9.212007
Ga -12.277753 0.005241 12.280612
Ga -9.209148 3.073846 12.280612
Ga -9.209148 0.005241 15.349216
Ga -12.277753 3.073846 15.349216
Ga -12.277753 0.005241 18.417820
Ga -9.209148 3.073846 18.417820
Ga -9.209148 0.005241 21.486425
Ga -12.277753 6.142450 -24.542640
Ga -9.209148 9.211054 -24.542640
Ga -9.209148 6.142450 -21.474036
Ga -12.277753 9.211054 -21.474036
Ga -12.277753 6.142450 -18.405432
Ga -9.209148 9.211054 -18.405432
Ga -9.209148 6.142450 -15.336827
Ga -12.277753 9.211054 -15.336827
Ga -12.277753 6.142450 -12.268223
Ga -9.209148 9.211054 -12.268223
Ga -9.209148 6.142450 -9.199619
Ga -12.277753 9.211054 -9.199619
Ga -12.277753 6.142450 -6.131014
Ga -9.209148 9.211054 -6.131014
Ga -9.209148 6.142450 -3.062410
Ga -12.277753 9.211054 -3.062410
Ga -12.277753 6.142450 0.006194
Ga -9.209148 9.211054 0.006194
Ga -9.209148 6.142450 3.074799
Ga -12.277753 9.211054 3.074799
Ga -12.277753 6.142450 6.143403
Ga -9.209148 9.211054 6.143403
Ga -9.209148 6.142450 9.212007
Ga -12.277753 9.211054 9.212007
Ga -12.277753 6.142450 12.280612
Ga -9.209148 9.211054 12.280612
Ga -9.209148 6.142450 15.349216
Ga -12.277753 12.279659 -24.542640
Ga -9.209148 15.348263 -24.542640
Ga -9.209148 12.279659 -21.474036
Ga -12.277753 15.348263 -21.474036
Ga -12.277753 12.279659 -18.405432
Ga -9.209148 15.348263 -18.405432
Ga -9.209148 12.279659 -15.336827
Ga -12.277753 15.348263 -15.336827
Ga -12.277753 12.279659 -12.268223
Ga -9.209148 15.348263 -12.268223
Ga -9.209148 12.279659 -9.199619
Ga -12.277753 15.348263 -9.199619
Ga -12.277753 12.279659 -6.131014
Ga -9.209148 15.348263 -6.131014
Ga -9.209148 12.279659 -3.062410
Ga -12.277753 15.348263 -3.062410
Ga -12.277753 12.279659 0.006194
Ga -9.209148 15.348263 0.006194
Ga -9.209148 12.279659 3.074799
Ga -12.277753 15.348263 3.074799
Ga -12.277753 12.279659 6.143403
Ga -9.209148 15.348263 6.143403
Ga -9.209148 12.279659 9.212007
Ga -12.277753 18.416867 -24.542640
Ga -9.209148 18.416867 -21.474036
Ga -12.277753 21.485472 -21.474036
Ga -12.277753 18.416867 -18.405432
Ga -9.209148 21.485472 -18.405432
Ga -9.209148 18.416867 -15.336827
Ga -12.277753 21.485472 -15.336827
Ga -12.277753 18.416867 -12.268223
Ga -9.209148 21.485472 -12.268223
Ga -9.209148 18.416867 -9.199619
Ga -12.277753 21.485472 -9.199619
Ga -12.277753 18.416867 -6.131014
Ga -9.209148 21.485472 -6.131014
Ga -9.209148 18.416867 -3.062410
Ga -12.277753 21.485472 -3.062410
Ga -12.277753 18.416867 0.006194
Ga -9.209148 21.485472 0.006194
Ga -9.209148 18.416867 3.074799
Ga -12.277753 24.554076 -18.405432
Ga -9.209148 24.554076 -15.336827
Ga -12.277753 24.554076 -12.268223
Ga -9.209148 24.554076 -9.199619
Ga -12.277753 24.554076 -6.131014
Ga -9.209148 24.554076 -3.062410
Ga -3.071940 -21.474989 -6.131014
Ga -3.071940 -24.543593 -3.062410
Ga -6.140544 -21.474989 -3.062410
Ga -6.140544 -24.543593 0.006194
Ga -3.071940 -21.474989 0.006194
Ga -3.071940 -24.543593 3.074799
Ga -6.140544 -21.474989 3.074799
Ga -6.140544 -24.543593 6.143403
Ga -3.071940 -21.474989 6.143403
Ga -3.071940 -24.543593 9.212007
Ga -6.140544 -21.474989 9.212007
Ga -6.140544 -24.543593 12.280612
Ga -3.071940 -21.474989 12.280612
Ga -6.140544 -21.474989 15.349216
Ga -3.071940 -15.337780 -12.268223
Ga -3.071940 -18.406384 -9.199619
Ga -6.140544 -15.337780 -9.199619
Ga -6.140544 -18.406384 -6.131014
Ga -3.071940 -15.337780 -6.131014
Ga -3.071940 -18.406384 -3.062410
Ga -6.140544 -15.337780 -3.062410
Ga -6.140544 -18.406384 0.006194
Ga -3.071940 -15.337780 0.006194
Ga -3.071940 -18.406384 3.074799
Ga -6.140544 -15.337780 3.074799
Ga -6.140544 -18.406384 6.143403
Ga -3.071940 -15.337780 6.143403
Ga -3.071940 -18.406384 9.212007
Ga -6.140544 -15.337780 9.212007
Ga -6.140544 -18.406384 12.280612
Ga -3.071940 -15.337780 12.280612
Ga -3.071940 -18.406384 15.349216
Ga -6.140544 -15.337780 15.349216
Ga -6.140544 -18.406384 18.417820
Ga -3.071940 -15.337780 18.417820
Ga -6.140544 -15.337780 21.486425
Ga -3.071940 -9.200572 -18.405432
Ga -3.071940 -12.269176 -15.336827
Ga -6.140544 -9.200572 -15.336827
Ga -6.140544 -12.269176 -12.268223
Ga -3.071940 -9.200572 -12.268223
Ga -3.071940 -12.269176 -9.199619
Ga -6.140544 -9.200572 -9.199619
Ga -6.140544 -12.269176 -6.131014
Ga -3.071940 -9.200572 -6.131014
Ga -3.071940 -12.269176 -3.062410
Ga -6.140544 -9.200572 -3.062410
Ga -6.140544 -12.269176 0.006194
Ga -3.071940 -9.200572 0.006194
Ga -3.071940 -12.269176 3.074799
Ga -6.140544 -9.200572 3.074799
Ga -6.140544 -12.269176 6.143403
Ga -3.071940 -9.200572 6.143403
Ga -3.071940 -12.269176 9.212007
Ga -6.140544 -9.200572 9.212007
Ga -6.140544 -12.269176 12.280612
Ga -3.071940 -9.200572 12.280612
Ga -3.071940 -12.269176 15.349216
Ga -6.140544 -9.200572 15.349216
Ga -6.140544 -12.269176 18.417820
Ga -3.071940 -9.200572 18.417820
Ga -3.071940 -12.269176 21.486425
Ga -6.140544 -9.200572 21.486425
Ga -6.140544 -12.269176 24.555029
Ga -3.071940 -9.200572 24.555029
Ga -3.071940 -3.063363 -24.542640
Ga -3.071940 -6.131967 -21.474036
Ga -6.140544 -3.063363 -21.474036
Ga -6.140544 -6.131967 -18.405432
Ga -3.071940 -3.063363 -18.405432
Ga -3.071940 -6.131967 -15.336827
Ga -6.140544 -3.063363 -15.336827
Ga -6.140544 -6.131967 -12.268223
Ga -3.071940 -3.063363 -12.268223
Ga -3.071940 -6.131967 -9.199619
Ga -6.140544 -3.063363 -9.199619
Ga -6.140544 -6.131967 -6.131014
Ga -3.071940 -3.063363 -6.131014
Ga -3.071940 -6.131967 -3.062410
Ga -6.140544 -3.063363 -3.062410
Ga -6.140544 -6.131967 0.006194
Ga -3.071940 -3.063363 0.006194
Ga -3.071940 -6.131967 3.074799
Ga -6.140544 -3.063363 3.074799
Ga -6.140544 -6.131967 6.143403
Ga -3.071940 -3.063363 6.143403
Ga -3.071940 -6.131967 9.212007
Ga -6.140544 -3.063363 9.212007
Ga -6.140544 -6.131967 12.280612
Ga -3.071940 -3.063363 12.280612
Ga -3.071940 -6.131967 15.349216
Ga -6.140544 -3.063363 15.349216
Ga -6.140544 -6.131967 18.417820
Ga -3.071940 -3.063363 18.417820
Ga -3.071940 -6.131967 21.486425
Ga -6.140544 -3.063363 21.486425
Ga -6.140544 -6.131967 24.555029
Ga -3.071940 -3.063363 24.555029
Ga -6.140544 0.005241 -24.542640
Ga -3.071940 3.073846 -24.542640
Ga -3.071940 0.005241 -21.474036
Ga -6.140544 3.073846 -21.474036
Ga -6.140544 0.005241 -18.405432
Ga -3.071940 3.073846 -18.405432
Ga -3.071940 0.005241 -15.336827
Ga -6.140544 3.073846 -15.336827
Ga -6.140544 0.005241 -12.268223
Ga -3.071940 3.073846 -12.268223
Ga -3.071940 0.005241 -9.199619
Ga -6.140544 3.073846 -9.199619
Ga -6.140544 0.005241 -6.131014
Ga -3.071940 3.073846 -6.131014
Ga -3.071940 0.005241 -3.062410
Ga -6.140544 3.073846 -3.062410
Ga -6.140544 0.005241 0.006194
Ga -3.071940 3.073846 0.006194
Ga -3.071940 0.005241 3.074799
Ga -6.140544 3.073846 3.074799
Ga -6.140544 0.005241 6.143403
Ga -3.071940 3.073846 6.143403
Ga -3.071940 0.005241 9.212007
Ga -6.140544 3.073846 9.212007
Ga -6.140544 0.005241 12.280612
Ga -3.071940 3.073846 12.280612
Ga -3.071940 0.005241 15.349216
Ga -6.140544 3.073846 15.349216
Ga -6.140544 0.005241 18.417820
Ga -3.071940 3.073846 18.417820
Ga -3.071940 0.005241 21.486425
Ga -6.140544 3.073846 21.486425
Ga -6.140544 0.005241 24.555029
Ga -3.071940 3.073846 24.555029
Ga -6.140544 6.142450 -24.542640
Ga -3.071940 9.211054 -24.542640
Ga -3.071940 6.142450 -21.474036
Ga -6.140544 9.211054 -21.474036
Ga -6.140544 6.142450 -18.405432
Ga -3.071940 9.211054 -18.405432
Ga -3.071940 6.142450 -15.336827
Ga -6.140544 9.211054 -15.336827
Ga -6.140544 6.142450 -12.268223
Ga -3.071940 9.211054 -12.268223
Ga -3.071940 6.142450 -9.199619
Ga -6.140544 9.211054 -9.199619
Ga -6.140544 6.142450 -6.131014
Ga -3.071940 9.211054 -6.131014
Ga -3.071940 6.142450 -3.062410
Ga -6.140544 9.211054 -3.062410
Ga -6.140544 6.142450 0.006194
Ga -3.071940 9.211054 0.006194
Ga -3.071940 6.142450 3.074799
Ga -6.140544 9.211054 3.074799
Ga -6.140544 6.142450 6.143403
Ga -3.071940 9.211054 6.143403
Ga -3.071940 6.142450 9.212007
Ga -6.140544 9.211054 9.212007
Ga -6.140544 6.142450 12.280612
Ga -3.071940 9.211054 12.280612
Ga -3.071940 6.142450 15.349216
Ga -6.140544 9.211054 15.349216
Ga -6.140544 6.142450 18.417820
Ga -3.071940 9.211054 18.417820
Ga -3.071940 6.142450 21.486425
Ga -6.140544 12.279659 -24.542640
Ga -3.071940 12.279659 -21.474036
Ga -6.140544 15.348263 -21.474036
Ga -6.140544 12.279659 -18.405432
Ga -3.071940 15.348263 -18.405432
Ga -3.071940 12.279659 -15.336827
Ga -6.140544 15.348263 -15.336827
Ga -6.140544 12.279659 -12.268223
Ga -3.071940 15.348263 -12.268223
Ga -3.071940 12.279659 -9.199619
Ga -6.140544 15.348263 -9.199619
Ga -6.140544 12.279659 -6.131014
Ga -3.071940 15.348263 -6.131014
Ga -3.071940 12.279659 -3.062410
Ga -6.140544 15.348263 -3.062410
Ga -6.140544 12.279659 0.006194
Ga -3.071940 15.348263 0.006194
Ga -3.071940 12.279659 3.074799
Ga -6.140544 15.348263 3.074799
Ga -6.140544 12.279659 6.143403
Ga -3.071940 15.348263 6.143403
Ga -3.071940 12.279659 9.212007
Ga -6.140544 15.348263 9.212007
Ga -6.140544 12.279659 12.280612
Ga -3.071940 15.348263 12.280612
Ga -3.071940 12.279659 15.349216
Ga -6.140544 18.416867 -18.405432
Ga -3.071940 18.416867 -15.336827
Ga -6.140544 21.485472 -15.336827
Ga -6.140544 18.416867 -12.268223
Ga -3.071940 21.485472 -12.268223
Ga -3.071940 18.416867 -9.199619
Ga -6.140544 21.485472 -9.199619
Ga -6.140544 18.416867 -6.131014
Ga -3.071940 21.485472 -6.131014
Ga -3.071940 18.416867 -3.062410
Ga -6.140544 21.485472 -3.062410
Ga -6.140544 18.416867 0.006194
Ga -3.071940 21.485472 0.006194
Ga -3.071940 18.416867 3.074799
Ga -6.140544 21.485472 3.074799
Ga -6.140544 18.416867 6.143403
Ga -3.071940 21.485472 6.143403
Ga -3.071940 18.416867 9.212007
Ga -6.140544 24.554076 -12.268223
Ga -3.071940 24.554076 -9.199619
Ga -6.140544 24.554076 -6.131014
Ga -3.071940 24.554076 -3.062410
Ga -6.140544 24.554076 0.006194
Ga -3.071940 24.554076 3.074799
Ga 3.065269 -21.474989 -12.268223
Ga 3.065269 -24.543593 -9.199619
Ga -0.003335 -21.474989 -9.199619
Ga -0.003335 -24.543593 -6.131014
Ga 3.065269 -21.474989 -6.131014
Ga 3.065269 -24.543593 -3.062410
Ga -0.003335 -21.474989 -3.062410
Ga -0.003335 -24.543593 0.006194
Ga 3.065269 -21.474989 0.006194
Ga 3.065269 -24.543593 3.074799
Ga -0.003335 -21.474989 3.074799
Ga -0.003335 -24.543593 6.143403
Ga 3.065269 -21.474989 6.143403
Ga -0.003335 -21.474989 9.212007
Ga 3.065269 -15.337780 -18.405432
Ga 3.065269 -18.406384 -15.336827
Ga -0.003335 -15.337780 -15.336827
Ga -0.003335 -18.406384 -12.268223
Ga 3.065269 -15.337780 -12.268223
Ga 3.065269 -18.406384 -9.199619
Ga -0.003335 -15.337780 -9.199619
Ga -0.003335 -18.406384 -6.131014
Ga 3.065269 -15.337780 -6.131014
Ga 3.065269 -18.406384 -3.062410
Ga -0.003335 -15.337780 -3.062410
Ga -0.003335 -18.406384 0.006194
Ga 3.065269 -15.337780 0.006194
Ga 3.065269 -18.406384 3.074799
Ga -0.003335 -15.337780 3.074799
Ga -0.003335 -18.406384 6.143403
Ga 3.065269 -15.337780 6.143403
Ga 3.065269 -18.406384 9.212007
Ga -0.003335 -15.337780 9.212007
Ga -0.003335 -18.406384 12.280612
Ga 3.065269 -15.337780 12.280612
Ga -0.003335 -15.337780 15.349216
Ga 3.065269 -9.200572 -24.542640
Ga 3.065269 -12.269176 -21.474036
Ga -0.003335 -9.200572 -21.474036
Ga -0.003335 -12.269176 -18.405432
Ga 3.065269 -9.200572 -18.405432
Ga 3.065269 -12.269176 -15.336827
Ga -0.003335 -9.200572 -15.336827
Ga -0.003335 -12.269176 -12.268223
Ga 3.065269 -9.200572 -12.268223
Ga 3.065269 -12.269176 -9.199619
Ga -0.003335 -9.200572 -9.199619
Ga -0.003335 -12.269176 -6.131014
Ga 3.065269 -9.200572 -6.131014
Ga 3.065269 -12.269176 -3.062410
Ga -0.003335 -9.200572 -3.062410
Ga -0.003335 -12.269176 0.006194
Ga 3.065269 -9.200572 0.006194
Ga 3.065269 -12.269176 3.074799
Ga -0.003335 -9.200572 3.074799
Ga -0.003335 -12.269176 6.143403
Ga 3.065269 -9.200572 6.143403
Ga 3.065269 -12.269176 9.212007
Ga -0.003335 -9.200572 9.212007
Ga -0.003335 -12.269176 12.280612
Ga 3.065269 -9.200572 12.280612
Ga 3.065269 -12.269176 15.349216
Ga -0.003335 -9.200572 15.349216
Ga -0.003335 -12.269176 18.417820
Ga 3.065269 -9.200572 18.417820
Ga -0.003335 -9.200572 21.486425
Ga -0.003335 -6.131967 -24.542640
Ga 3.065269 -3.063363 -24.542640
Ga 3.065269 -6.131967 -21.474036
Ga -0.003335 -3.063363 -21.474036
Ga -0.003335 -6.131967 -18.405432
Ga 3.065269 -3.063363 -18.405432
Ga 3.065269 -6.131967 -15.336827
Ga -0.003335 -3.063363 -15.336827
Ga -0.003335 -6.131967 -12.268223
Ga 3.065269 -3.063363 -12.268223
Ga 3.065269 -6.131967 -9.199619
Ga -0.003335 -3.063363 -9.199619
Ga -0.003335 -6.131967 -6.131014
Ga 3.065269 -3.063363 -6.131014
Ga 3.065269 -6.131967 -3.062410
Ga -0.003335 -3.063363 -3.062410
Ga -0.003335 -6.131967 0.006194
Ga 3.065269 -3.063363 0.006194
Ga 3.065269 -6.131967 3.074799
Ga -0.003335 -3.063363 3.074799
Ga -0.003335 -6.131967 6.143403
Ga 3.065269 -3.063363 6.143403
Ga 3.065269 -6.131967 9.212007
Ga -0.003335 -3.063363 9.212007
Ga -0.003335 -6.131967 12.280612
Ga 3.065269 -3.063363 12.280612
Ga 3.065269 -6.131967 15.349216
Ga -0.003335 -3.063363 15.349216
Ga -0.003335 -6.131967 18.417820
Ga 3.065269 -3.063363 18.417820
Ga 3.065269 -6.131967 21.486425
Ga -0.003335 -3.063363 21.486425
Ga -0.003335 -6.131967 24.555029
Ga 3.065269 -3.063363 24.555029
Ga -0.003335 0.005241 -24.542640
Ga 3.065269 3.073846 -24.542640
Ga 3.065269 0.005241 -21.474036
Ga -0.003335 3.073846 -21.474036
Ga -0.003335 0.005241 -18.405432
Ga 3.065269 3.073846 -18.405432
Ga 3.065269 0.005241 -15.336827
Ga -0.003335 3.073846 -15.336827
Ga -0.003335 0.005241 -12.268223
Ga 3.065269 3.073846 -12.268223
Ga 3.065269 0.005241 -9.199619
Ga -0.003335 3.073846 -9.199619
Ga -0.003335 0.005241 -6.131014
Ga 3.065269 3.073846 -6.131014
Ga 3.065269 0.005241 -3.062410
Ga -0.003335 3.073846 -3.062410
Ga -0.003335 0.005241 0.006194
Ga 3.065269 3.073846 0.006194
Ga 3.065269 0.005241 3.074799
Ga -0.003335 3.073846 3.074799
Ga -0.003335 0.005241 6.143403
Ga 3.065269 3.073846 6.143403
Ga 3.065269 0.005241 9.212007
Ga -0.003335 3.073846 9.212007
Ga -0.003335 0.005241 12.280612
Ga 3.065269 3.073846 12.280612
Ga 3.065269 0.005241 15.349216
Ga -0.003335 3.073846 15.349216
Ga -0.003335 0.005241 18.417820
Ga 3.065269 3.073846 18.417820
Ga 3.065269 0.005241 21.486425
Ga -0.003335 3.073846 21.486425
Ga -0.003335 0.005241 24.555029
Ga 3.065269 3.073846 24.555029
Ga -0.003335 6.142450 -24.542640
Ga 3.065269 6.142450 -21.474036
Ga -0.003335 9.211054 -21.474036
Ga -0.003335 6.142450 -18.405432
Ga 3.065269 9.211054 -18.405432
Ga 3.065269 6.142450 -15.336827
Ga -0.003335 9.211054 -15.336827
Ga -0.003335 6.142450 -12.268223
Ga 3.065269 9.211054 -12.268223
Ga 3.065269 6.142450 -9.199619
Ga -0.003335 9.211054 -9.199619
Ga -0.003335 6.142450 -6.131014
Ga 3.065269 9.211054 -6.131014
Ga 3.065269 6.142450 -3.062410
Ga -0.003335 9.211054 -3.062410
Ga -0.003335 6.142450 0.006194
Ga 3.065269 9.211054 0.006194
Ga 3.065269 6.142450 3.074799
Ga -0.003335 9.211054 3.074799
Ga -0.003335 6.142450 6.143403
Ga 3.065269 9.211054 6.143403
Ga 3.065269 6.142450 9.212007
Ga -0.003335 9.211054 9.212007
Ga -0.003335 6.142450 12.280612
Ga 3.065269 9.211054 12.280612
Ga 3.065269 6.142450 15.349216
Ga -0.003335 9.211054 15.349216
Ga -0.003335 6.142450 18.417820
Ga 3.065269 9.211054 18.417820
Ga 3.065269 6.142450 21.486425
Ga -0.003335 9.211054 21.486425
Ga -0.003335 6.142450 24.555029
Ga 3.065269 9.211054 24.555029
Ga -0.003335 12.279659 -18.405432
Ga 3.065269 12.279659 -15.336827
Ga -0.003335 15.348263 -15.336827
Ga -0.003335 12.279659 -12.268223
Ga 3.065269 15.348263 -12.268223
Ga 3.065269 12.279659 -9.199619
Ga -0.003335 15.348263 -9.199619
Ga -0.003335 12.279659 -6.131014
Ga 3.065269 15.348263 -6.131014
Ga 3.065269 12.279659 -3.062410
Ga -0.003335 15.348263 -3.062410
Ga -0.003335 12.279659 0.006194
Ga 3.065269 15.348263 0.006194
Ga 3.065269 12.279659 3.074799
Ga -0.003335 15.348263 3.074799
Ga -0.003335 12.279659 6.143403
Ga 3.065269 15.348263 6.143403
Ga 3.065269 12.279659 9.212007
Ga -0.003335 15.348263 9.212007
Ga -0.003335 12.279659 12.280612
Ga 3.065269 15.348263 12.280612
Ga 3.065269 12.279659 15.349216
Ga -0.003335 15.348263 15.349216
Ga -0.003335 12.279659 18.417820
Ga 3.065269 15.348263 18.417820
Ga 3.065269 12.279659 21.486425
Ga -0.003335 18.416867 -12.268223
Ga 3.065269 18.416867 -9.199619
Ga -0.003335 21.485472 -9.199619
Ga -0.003335 18.416867 -6.131014
Ga 3.065269 21.485472 -6.131014
Ga 3.065269 18.416867 -3.062410
Ga -0.003335 21.485472 -3.062410
Ga -0.003335 18.416867 0.006194
Ga 3.065269 21.485472 0.006194
Ga 3.065269 18.416867 3.074799
Ga -0.003335 21.485472 3.074799
Ga -0.003335 18.416867 6.143403
Ga 3.065269 21.485472 6.143403
Ga 3.065269 18.416867 9.212007
Ga -0.003335 21.485472 9.212007
Ga -0.003335 18.416867 12.280612
Ga 3.065269 21.485472 12.280612
Ga 3.065269 18.416867 15.349216
Ga -0.003335 24.554076 -6.131014
Ga 3.065269 24.554076 -3.062410
Ga -0.003335 24.554076 0.006194
Ga 3.065269 24.554076 3.074799
Ga -0.003335 24.554076 6.143403
Ga 3.065269 24.554076 9.212007
Ga 9.202478 -21.474989 -18.405432
Ga 9.202478 -24.543593 -15.336827
Ga 6.133873 -21.474989 -15.336827
Ga 6.133873 -24.543593 -12.268223
Ga 9.202478 -21.474989 -12.268223
Ga 9.202478 -24.543593 -9.199619
Ga 6.133873 -21.474989 -9.199619
Ga 6.133873 -24.543593 -6.131014
Ga 9.202478 -21.474989 -6.131014
Ga 9.202478 -24.543593 -3.062410
Ga 6.133873 -21.474989 -3.062410
Ga 6.133873 -24.543593 0.006194
Ga 9.202478 -21.474989 0.006194
Ga 6.133873 -21.474989 3.074799
Ga 9.202478 -15.337780 -24.542640
Ga 9.202478 -18.406384 -21.474036
Ga 6.133873 -15.337780 -21.474036
Ga 6.133873 -18.406384 -18.405432
Ga 9.202478 -15.337780 -18.405432
Ga 9.202478 -18.406384 -15.336827
Ga 6.133873 -15.337780 -15.336827
Ga 6.133873 -18.406384 -12.268223
Ga 9.202478 -15.337780 -12.268223
Ga 9.202478 -18.406384 -9.199619
Ga 6.133873 -15.337780 -9.199619
Ga 6.133873 -18.406384 -6.131014
Ga 9.202478 -15.337780 -6.131014
Ga 9.202478 -18.406384 -3.062410
Ga 6.133873 -15.337780 -3.062410
Ga 6.133873 -18.406384 0.006194
Ga 9.202478 -15.337780 0.006194
Ga 9.202478 -18.406384 3.074799
Ga 6.133873 -15.337780 3.074799
Ga 6.133873 -18.406384 6.143403
Ga 9.202478 -15.337780 6.143403
Ga 6.133873 -15.337780 9.212007
Ga 6.133873 -12.269176 -24.542640
Ga 9.202478 -9.200572 -24.542640
Ga 9.202478 -12.269176 -21.474036
Ga 6.133873 -9.200572 -21.474036
Ga 6.133873 -12.269176 -18.405432
Ga 9.202478 -9.200572 -18.405432
Ga 9.202478 -12.269176 -15.336827
Ga 6.133873 -9.200572 -15.336827
Ga 6.133873 -12.269176 -12.268223
Ga 9.202478 -9.200572 -12.268223
Ga 9.202478 -12.269176 -9.199619
Ga 6.133873 -9.200572 -9.199619
Ga 6.133873 -12.269176 -6.131014
Ga 9.202478 -9.200572 -6.131014
Ga 9.202478 -12.269176 -3.062410
Ga 6.133873 -9.200572 -3.062410
Ga 6.133873 -12.269176 0.006194
Ga 9.202478 -9.200572 0.006194
Ga 9.202478 -12.269176 3.074799
Ga 6.133873 -9.200572 3.074799
Ga 6.133873 -12.269176 6.143403
Ga 9.202478 -9.200572 6.143403
Ga 9.202478 -12.269176 9.212007
Ga 6.133873 -9.200572 9.212007
Ga 6.133873 -12.269176 12.280612
Ga 9.202478 -9.200572 12.280612
Ga 6.133873 -9.200572 15.349216
Ga 6.133873 -6.131967 -24.542640
Ga 9.202478 -3.063363 -24.542640
Ga 9.202478 -6.131967 -21.474036
Ga 6.133873 -3.063363 -21.474036
Ga 6.133873 -6.131967 -18.405432
Ga 9.202478 -3.063363 -18.405432
Ga 9.202478 -6.131967 -15.336827
Ga 6.133873 -3.063363 -15.336827
Ga 6.133873 -6.131967 -12.268223
Ga 9.202478 -3.063363 -12.268223
Ga 9.202478 -6.131967 -9.199619
Ga 6.133873 -3.063363 -9.199619
Ga 6.133873 -6.131967 -6.131014
Ga 9.202478 -3.063363 -6.131014
Ga 9.202478 -6.131967 -3.062410
Ga 6.133873 -3.063363 -3.062410
Ga 6.133873 -6.131967 0.006194
Ga 9.202478 -3.063363 0.006194
Ga 9.202478 -6.131967 3.074799
Ga 6.133873 -3.063363 3.074799
Ga 6.133873 -6.131967 6.143403
Ga 9.202478 -3.063363 6.143403
Ga 9.202478 -6.131967 9.212007
Ga 6.133873 -3.063363 9.212007
Ga 6.133873 -6.131967 12.280612
Ga 9.202478 -3.063363 12.280612
Ga 9.202478 -6.131967 15.349216
Ga 6.133873 -3.063363 15.349216
Ga 6.133873 -6.131967 18.417820
Ga 9.202478 -3.063363 18.417820
Ga 6.133873 -3.063363 21.486425
Ga 6.133873 0.005241 -24.542640
Ga 9.202478 0.005241 -21.474036
Ga 6.133873 3.073846 -21.474036
Ga 6.133873 0.005241 -18.405432
Ga 9.202478 3.073846 -18.405432
Ga 9.202478 0.005241 -15.336827
Ga 6.133873 3.073846 -15.336827
Ga 6.133873 0.005241 -12.268223
Ga 9.202478 3.073846 -12.268223
Ga 9.202478 0.005241 -9.199619
Ga 6.133873 3.073846 -9.199619
Ga 6.133873 0.005241 -6.131014
Ga 9.202478 3.073846 -6.131014
Ga 9.202478 0.005241 -3.062410
Ga 6.133873 3.073846 -3.062410
Ga 6.133873 0.005241 0.006194
Ga 9.202478 3.073846 0.006194
Ga 9.202478 0.005241 3.074799
Ga 6.133873 3.073846 3.074799
Ga 6.133873 0.005241 6.143403
Ga 9.202478 3.073846 6.143403
Ga 9.202478 0.005241 9.212007
Ga 6.133873 3.073846 9.212007
Ga 6.133873 0.005241 12.280612
Ga 9.202478 3.073846 12.280612
Ga 9.202478 0.005241 15.349216
Ga 6.133873 3.073846 15.349216
Ga 6.133873 0.005241 18.417820
Ga 9.202478 3.073846 18.417820
Ga 9.202478 0.005241 21.486425
Ga 6.133873 3.073846 21.486425
Ga 6.133873 0.005241 24.555029
Ga 9.202478 3.073846 24.555029
Ga 6.133873 6.142450 -18.405432
Ga 9.202478 6.142450 -15.336827
Ga 6.133873 9.211054 -15.336827
Ga 6.133873 6.142450 -12.268223
Ga 9.202478 9.211054 -12.268223
Ga 9.202478 6.142450 -9.199619
Ga 6.133873 9.211054 -9.199619
Ga 6.133873 6.142450 -6.131014
Ga 9.202478 9.211054 -6.131014
Ga 9.202478 6.142450 -3.062410
Ga 6.133873 9.211054 -3.062410
Ga 6.133873 6.142450 0.006194
Ga 9.202478 9.211054 0.006194
Ga 9.202478 6.142450 3.074799
Ga 6.133873 9.211054 3.074799
Ga 6.133873 6.142450 6.143403
Ga 9.202478 9.211054 6.143403
Ga 9.202478 6.142450 9.212007
Ga 6.133873 9.211054 9.212007
Ga 6.133873 6.142450 12.280612
Ga 9.202478 9.211054 12.280612
Ga 9.202478 6.142450 15.349216
Ga 6.133873 9.211054 15.349216
Ga 6.133873 6.142450 18.417820
Ga 9.202478 9.211054 18.417820
Ga 9.202478 6.142450 21.486425
Ga 6.133873 9.211054 21.486425
Ga 6.133873 6.142450 24.555029
Ga 9.202478 9.211054 24.555029
Ga 6.133873 12.279659 -12.268223
Ga 9.202478 12.279659 -9.199619
Ga 6.133873 15.348263 -9.199619
Ga 6.133873 12.279659 -6.131014
Ga 9.202478 15.348263 -6.131014
Ga 9.202478 12.279659 -3.062410
Ga 6.133873 15.348263 -3.062410
Ga 6.133873 12.279659 0.006194
Ga 9.202478 15.348263 0.006194
Ga 9.202478 12.279659 3.074799
Ga 6.133873 15.348263 3.074799
Ga 6.133873 12.279659 6.143403
Ga 9.202478 15.348263 6.143403
Ga 9.202478 12.279659 9.212007
Ga 6.133873 15.348263 9.212007
Ga 6.133873 12.279659 12.280612
Ga 9.202478 15.348263 12.280612
Ga 9.202478 12.279659 15.349216
Ga 6.133873 15.348263 15.349216
Ga 6.133873 12.279659 18.417820
Ga 9.202478 15.348263 18.417820
Ga 9.202478 12.279659 21.486425
Ga 6.133873 15.348263 21.486425
Ga 6.133873 12.279659 24.555029
Ga 9.202478 15.348263 24.555029
Ga 6.133873 18.416867 -6.131014
Ga 9.202478 18.416867 -3.062410
Ga 6.133873 21.485472 -3.062410
Ga 6.133873 18.416867 0.006194
Ga 9.202478 21.485472 0.006194
Ga 9.202478 18.416867 3.074799
Ga 6.133873 21.485472 3.074799
Ga 6.133873 18.416867 6.143403
Ga 9.202478 21.485472 6.143403
Ga 9.202478 18.416867 9.212007
Ga 6.133873 21.485472 9.212007
Ga 6.133873 18.416867 12.280612
Ga 9.202478 21.485472 12.280612
Ga 9.202478 18.416867 15.349216
Ga 6.133873 21.485472 15.349216
Ga 6.133873 18.416867 18.417820
Ga 9.202478 21.485472 18.417820
Ga 9.202478 18.416867 21.486425
Ga 6.133873 24.554076 0.006194
Ga 9.202478 24.554076 3.074799
Ga 6.133873 24.554076 6.143403
Ga 9.202478 24.554076 9.212007
Ga 6.133873 24.554076 12.280612
Ga 9.202478 24.554076 15.349216
Ga 15.339686 -21.474989 -24.542640
Ga 15.339686 -24.543593 -21.474036
Ga 12.271082 -21.474989 -21.474036
Ga 12.271082 -24.543593 -18.405432
Ga 15.339686 -21.474989 -18.405432
Ga 15.339686 -24.543593 -15.336827
Ga 12.271082 -21.474989 -15.336827
Ga 12.271082 -24.543593 -12.268223
Ga 15.339686 -21.474989 -12.268223
Ga 15.339686 -24.543593 -9.199619
Ga 12.271082 -21.474989 -9.199619
Ga 12.271082 -24.543593 -6.131014
Ga 15.339686 -21.474989 -6.131014
Ga 12.271082 -21.474989 -3.062410
Ga 12.271082 -18.406384 -24.542640
Ga 15.339686 -15.337780 -24.542640
Ga 15.339686 -18.406384 -21.474036
Ga 12.271082 -15.337780 -21.474036
Ga 12.271082 -18.406384 -18.405432
Ga 15.339686 -15.337780 -18.405432
Ga 15.339686 -18.406384 -15.336827
Ga 12.271082 -15.337780 -15.336827
Ga 12.271082 -18.406384 -12.268223
Ga 15.339686 -15.337780 -12.268223
Ga 15.339686 -18.406384 -9.199619
Ga 12.271082 -15.337780 -9.199619
Ga 12.271082 -18.406384 -6.131014
Ga 15.339686 -15.337780 -6.131014
Ga 15.339686 -18.406384 -3.062410
Ga 12.271082 -15.337780 -3.062410
Ga 12.271082 -18.406384 0.006194
Ga 15.339686 -15.337780 0.006194
Ga 12.271082 -15.337780 3.074799
Ga 12.271082 -12.269176 -24.542640
Ga 15.339686 -9.200572 -24.542640
Ga 15.339686 -12.269176 -21.474036
Ga 12.271082 -9.200572 -21.474036
Ga 12.271082 -12.269176 -18.405432
Ga 15.339686 -9.200572 -18.405432
Ga 15.339686 -12.269176 -15.336827
Ga 12.271082 -9.200572 -15.336827
Ga 12.271082 -12.269176 -12.268223
Ga 15.339686 -9.200572 -12.268223
Ga 15.339686 -12.269176 -9.199619
Ga 12.271082 -9.200572 -9.199619
Ga 12.271082 -12.269176 -6.131014
Ga 15.339686 -9.200572 -6.131014
Ga 15.339686 -12.269176 -3.062410
Ga 12.271082 -9.200572 -3.062410
Ga 12.271082 -12.269176 0.006194
Ga 15.339686 -9.200572 0.006194
Ga 15.339686 -12.269176 3.074799
Ga 12.271082 -9.200572 3.074799
Ga 12.271082 -12.269176 6.143403
Ga 15.339686 -9.200572 6.143403
Ga 12.271082 -9.200572 9.212007
Ga 12.271082 -6.131967 -24.542640
Ga 15.339686 -6.131967 -21.474036
Ga 12.271082 -3.063363 -21.474036
Ga 12.271082 -6.131967 -18.405432
Ga 15.339686 -3.063363 -18.405432
Ga 15.339686 -6.131967 -15.336827
Ga 12.271082 -3.063363 -15.336827
Ga 12.271082 -6.131967 -12.268223
Ga 15.339686 -3.063363 -12.268223
Ga 15.339686 -6.131967 -9.199619
Ga 12.271082 -3.063363 -9.199619
Ga 12.271082 -6.131967 -6.131014
Ga 15.339686 -3.063363 -6.131014
Ga 15.339686 -6.131967 -3.062410
Ga 12.271082 -3.063363 -3.062410
Ga 12.271082 -6.131967 0.006194
Ga 15.339686 -3.063363 0.006194
Ga 15.339686 -6.131967 3.074799
Ga 12.271082 -3.063363 3.074799
Ga 12.271082 -6.131967 6.143403
Ga 15.339686 -3.063363 6.143403
Ga 15.339686 -6.131967 9.212007
Ga 12.271082 -3.063363 9.212007
Ga 12.271082 -6.131967 12.280612
Ga 15.339686 -3.063363 12.280612
Ga 12.271082 -3.063363 15.349216
Ga 12.271082 0.005241 -18.405432
Ga 15.339686 0.005241 -15.336827
Ga 12.271082 3.073846 -15.336827
Ga 12.271082 0.005241 -12.268223
Ga 15.339686 3.073846 -12.268223
Ga 15.339686 0.005241 -9.199619
Ga 12.271082 3.073846 -9.199619
Ga 12.271082 0.005241 -6.131014
Ga 15.339686 3.073846 -6.131014
Ga 15.339686 0.005241 -3.062410
Ga 12.271082 3.073846 -3.062410
Ga 12.271082 0.005241 0.006194
Ga 15.339686 3.073846 0.006194
Ga 15.339686 0.005241 3.074799
Ga 12.271082 3.073846 3.074799
Ga 12.271082 0.005241 6.143403
Ga 15.339686 3.073846 6.143403
Ga 15.339686 0.005241 9.212007
Ga 12.271082 3.073846 9.212007
Ga 12.271082 0.005241 12.280612
Ga 15.339686 3.073846 12.280612
Ga 15.339686 0.005241 15.349216
Ga 12.271082 3.073846 15.349216
Ga 12.271082 0.005241 18.417820
Ga 15.339686 3.073846 18.417820
Ga 12.271082 3.073846 21.486425
Ga 12.271082 6.142450 -12.268223
Ga 15.339686 6.142450 -9.199619
Ga 12.271082 9.211054 -9.199619
Ga 12.271082 6.142450 -6.131014
Ga 15.339686 9.211054 -6.131014
Ga 15.339686 6.142450 -3.062410
Ga 12.271082 9.211054 -3.062410
Ga 12.271082 6.142450 0.006194
Ga 15.339686 9.211054 0.006194
Ga 15.339686 6.142450 3.074799
Ga 12.271082 9.211054 3.074799
Ga 12.271082 6.142450 6.143403
Ga 15.339686 9.211054 6.143403
Ga 15.339686 6.142450 9.212007
Ga 12.271082 9.211054 9.212007
Ga 12.271082 6.142450 12.280612
Ga 15.339686 9.211054 12.280612
Ga 15.339686 6.142450 15.349216
Ga 12.271082 9.211054 15.349216
Ga 12.271082 6.142450 18.417820
Ga 15.339686 9.211054 18.417820
Ga 15.339686 6.142450 21.486425
Ga 12.271082 9.211054 21.486425
Ga 12.271082 6.142450 24.555029
Ga 15.339686 9.211054 24.555029
Ga 12.271082 12.279659 -6.131014
Ga 15.339686 12.279659 -3.062410
Ga 12.271082 15.348263 -3.062410
Ga 12.271082 12.279659 0.006194
Ga 15.339686 15.348263 0.006194
Ga 15.339686 12.279659 3.074799
Ga 12.271082 15.348263 3.074799
Ga 12.271082 12.279659 6.143403
Ga 15.339686 15.348263 6.143403
Ga 15.339686 12.279659 9.212007
Ga 12.271082 15.348263 9.212007
Ga 12.271082 12.279659 12.280612
Ga 15.339686 15.348263 12.280612
Ga 15.339686 12.279659 15.349216
Ga 12.271082 15.348263 15.349216
Ga 12.271082 12.279659 18.417820
Ga 15.339686 15.348263 18.417820
Ga 15.339686 12.279659 21.486425
Ga 12.271082 15.348263 21.486425
Ga 12.271082 12.279659 24.555029
Ga 15.339686 15.348263 24.555029
Ga 12.271082 18.416867 0.006194
Ga 15.339686 18.416867 3.074799
Ga 12.271082 21.485472 3.074799
Ga 12.271082 18.416867 6.143403
Ga 15.339686 21.485472 6.143403
Ga 15.339686 18.416867 9.212007
Ga 12.271082 21.485472 9.212007
Ga 12.271082 18.416867 12.280612
Ga 15.339686 21.485472 12.280612
Ga 15.339686 18.416867 15.349216
Ga 12.271082 21.485472 15.349216
Ga 12.271082 18.416867 18.417820
Ga 15.339686 21.485472 18.417820
Ga 15.339686 18.416867 21.486425
Ga 12.271082 21.485472 21.486425
Ga 12.271082 18.416867 24.555029
Ga 15.339686 21.485472 24.555029
Ga 12.271082 24.554076 6.143403
Ga 15.339686 24.554076 9.212007
Ga 12.271082 24.554076 12.280612
Ga 15.339686 24.554076 15.349216
Ga 12.271082 24.554076 18.417820
Ga 15.339686 24.554076 21.486425
Ga 18.408290 -21.474989 -21.474036
Ga 18.408290 -24.543593 -18.405432
Ga 21.476895 -24.543593 -15.336827
Ga 18.408290 -21.474989 -15.336827
Ga 18.408290 -24.543593 -12.268223
Ga 18.408290 -21.474989 -9.199619
Ga 18.408290 -18.406384 -24.542640
Ga 21.476895 -15.337780 -24.542640
Ga 21.476895 -18.406384 -21.474036
Ga 18.408290 -15.337780 -21.474036
Ga 18.408290 -18.406384 -18.405432
Ga 21.476895 -15.337780 -18.405432
Ga 21.476895 -18.406384 -15.336827
Ga 18.408290 -15.337780 -15.336827
Ga 18.408290 -18.406384 -12.268223
Ga 21.476895 -15.337780 -12.268223
Ga 21.476895 -18.406384 -9.199619
Ga 18.408290 -15.337780 -9.199619
Ga 18.408290 -18.406384 -6.131014
Ga 21.476895 -15.337780 -6.131014
Ga 18.408290 -15.337780 -3.062410
Ga 18.408290 -12.269176 -24.542640
Ga 21.476895 -12.269176 -21.474036
Ga 18.408290 -9.200572 -21.474036
Ga 18.408290 -12.269176 -18.405432
Ga 21.476895 -9.200572 -18.405432
Ga 21.476895 -12.269176 -15.336827
Ga 18.408290 -9.200572 -15.336827
Ga 18.408290 -12.269176 -12.268223
Ga 21.476895 -9.200572 -12.268223
Ga 21.476895 -12.269176 -9.199619
Ga 18.408290 -9.200572 -9.199619
Ga 18.408290 -12.269176 -6.131014
Ga 21.476895 -9.200572 -6.131014
Ga 21.476895 -12.269176 -3.062410
Ga 18.408290 -9.200572 -3.062410
Ga 18.408290 -12.269176 0.006194
Ga 21.476895 -9.200572 0.006194
Ga 18.408290 -9.200572 3.074799
Ga 18.408290 -6.131967 -18.405432
Ga 21.476895 -6.131967 -15.336827
Ga 18.408290 -3.063363 -15.336827
Ga 18.408290 -6.131967 -12.268223
Ga 21.476895 -3.063363 -12.268223
Ga 21.476895 -6.131967 -9.199619
Ga 18.408290 -3.063363 -9.199619
Ga 18.408290 -6.131967 -6.131014
Ga 21.476895 -3.063363 -6.131014
Ga 21.476895 -6.131967 -3.062410
Ga 18.408290 -3.063363 -3.062410
Ga 18.408290 -6.131967 0.006194
Ga 21.476895 -3.063363 0.006194
Ga 21.476895 -6.131967 3.074799
Ga 18.408290 -3.063363 3.074799
Ga 18.408290 -6.131967 6.143403
Ga 21.476895 -3.063363 6.143403
Ga 18.408290 -3.063363 9.212007
Ga 18.408290 0.005241 -12.268223
Ga 21.476895 0.005241 -9.199619
Ga 18.408290 3.073846 -9.199619
Ga 18.408290 0.005241 -6.131014
Ga 21.476895 3.073846 -6.131014
Ga 21.476895 0.005241 -3.062410
Ga 18.408290 3.073846 -3.062410
Ga 18.408290 0.005241 0.006194
Ga 21.476895 3.073846 0.006194
Ga 21.476895 0.005241 3.074799
Ga 18.408290 3.073846 3.074799
Ga 18.408290 0.005241 6.143403
Ga 21.476895 3.073846 6.143403
Ga 21.476895 0.005241 9.212007
Ga 18.408290 3.073846 9.212007
Ga 18.408290 0.005241 12.280612
Ga 21.476895 3.073846 12.280612
Ga 18.408290 3.073846 15.349216
Ga 18.408290 6.142450 -6.131014
Ga 21.476895 6.142450 -3.062410
Ga 18.408290 9.211054 -3.062410
Ga 18.408290 6.142450 0.006194
Ga 21.476895 9.211054 0.006194
Ga 21.476895 6.142450 3.074799
Ga 18.408290 9.211054 3.074799
Ga 18.408290 6.142450 6.143403
Ga 21.476895 9.211054 6.143403
Ga 21.476895 6.142450 9.212007
Ga 18.408290 9.211054 9.212007
Ga 18.408290 6.142450 12.280612
Ga 21.476895 9.211054 12.280612
Ga 21.476895 6.142450 15.349216
Ga 18.408290 9.211054 15.349216
Ga 18.408290 6.142450 18.417820
Ga 21.476895 9.211054 18.417820
Ga 18.408290 9.211054 21.486425
Ga 18.408290 12.279659 0.006194
Ga 21.476895 12.279659 3.074799
Ga 18.408290 15.348263 3.074799
Ga 18.408290 12.279659 6.143403
Ga 21.476895 15.348263 6.143403
Ga 21.476895 12.279659 9.212007
Ga 18.408290 15.348263 9.212007
Ga 18.408290 12.279659 12.280612
Ga 21.476895 15.348263 12.280612
Ga 21.476895 12.279659 15.349216
Ga 18.408290 15.348263 15.349216
Ga 18.408290 12.279659 18.417820
Ga 21.476895 15.348263 18.417820
Ga 21.476895 12.279659 21.486425
Ga 18.408290 15.348263 21.486425
Ga 18.408290 12.279659 24.555029
Ga 21.476895 15.348263 24.555029
Ga 18.408290 18.416867 6.143403
Ga 21.476895 18.416867 9.212007
Ga 18.408290 21.485472 9.212007
Ga 18.408290 18.416867 12.280612
Ga 21.476895 18.416867 15.349216
Ga 18.408290 21.485472 15.349216
Ga 18.408290 18.416867 18.417820
Ga 21.476895 18.416867 21.486425
Ga 18.408290 21.485472 21.486425
Ga 18.408290 18.416867 24.555029
Ga 18.408290 24.554076 12.280612
Ga 21.476895 24.554076 15.349216
Ga 18.408290 24.554076 18.417820
Ga 24.545499 -21.474989 -15.336827
Ga 24.545499 -15.337780 -21.474036
Ga 24.545499 -18.406384 -18.405432
Ga 24.545499 -15.337780 -15.336827
Ga 24.545499 -18.406384 -12.268223
Ga 24.545499 -15.337780 -9.199619
Ga 24.545499 -12.269176 -18.405432
Ga 24.545499 -9.200572 -15.336827
Ga 24.545499 -12.269176 -12.268223
Ga 24.545499 -9.200572 -9.199619
Ga 24.545499 -12.269176 -6.131014
Ga 24.545499 -9.200572 -3.062410
Ga 24.545499 -6.131967 -12.268223
Ga 24.545499 -3.063363 -9.199619
Ga 24.545499 -6.131967 -6.131014
Ga 24.545499 -3.063363 -3.062410
Ga 24.545499 -6.131967 0.006194
Ga 24.545499 -3.063363 3.074799
Ga 24.545499 0.005241 -6.131014
Ga 24.545499 3.073846 -3.062410
Ga 24.545499 0.005241 0.006194
Ga 24.545499 3.073846 3.074799
Ga 24.545499 0.005241 6.143403
Ga 24.545499 3.073846 9.212007
Ga 24.545499 6.142450 0.006194
Ga 24.545499 9.211054 3.074799
Ga 24.545499 6.142450 6.143403
Ga 24.545499 9.211054 9.212007
Ga 24.545499 6.142450 12.280612
Ga 24.545499 9.211054 15.349216
Ga 24.545499 12.279659 6.143403
Ga 24.545499 15.348263 9.212007
Ga 24.545499 12.279659 12.280612
Ga 24.545499 15.348263 15.349216
Ga 24.545499 12.279659 18.417820
Ga 24.545499 15.348263 21.486425
Ga 24.545499 18.416867 12.280612
Ga 24.545499 21.485472 15.349216
Ga 24.545499 18.416867 18.417820
Sb -19.949263 -19.940687 10.746309
Sb -23.017868 -19.940687 13.814914
Sb -19.949263 -19.940687 16.883518
Sb -19.949263 -23.009291 13.814914
Sb -19.949263 -13.803478 4.609101
Sb -23.017868 -16.872082 10.746309
Sb -23.017868 -13.803478 7.677705
Sb -19.949263 -13.803478 10.746309
Sb -19.949263 -16.872082 7.677705
Sb -23.017868 -16.872082 16.883518
Sb -23.017868 -13.803478 13.814914
Sb -19.949263 -13.803478 16.883518
Sb -19.949263 -16.872082 13.814914
Sb -23.017868 -16.872082 23.020727
Sb -23.017868 -13.803478 19.952122
Sb -19.949263 -13.803478 23.020727
Sb -19.949263 -16.872082 19.952122
Sb -19.949263 -7.666269 -1.528108
Sb -23.017868 -10.734874 4.609101
Sb -23.017868 -7.666269 1.540497
Sb -19.949263 -7.666269 4.609101
Sb -19.949263 -10.734874 1.540497
Sb -23.017868 -10.734874 10.746309
Sb -23.017868 -7.666269 7.677705
Sb -19.949263 -7.666269 10.746309
Sb -19.949263 -10.734874 7.677705
Sb -23.017868 -10.734874 16.883518
Sb -23.017868 -7.666269 13.814914
Sb -19.949263 -7.666269 16.883518
Sb -19.949263 -10.734874 13.814914
Sb -19.949263 -10.734874 19.952122
Sb -19.949263 -1.529061 -7.665316
Sb -23.017868 -4.597665 -1.528108
Sb -23.017868 -1.529061 -4.596712
Sb -19.949263 -1.529061 -1.528108
Sb -19.949263 -4.597665 -4.596712
Sb -23.017868 -4.597665 4.609101
Sb -23.017868 -1.529061 1.540497
Sb -19.949263 -1.529061 4.609101
Sb -19.949263 -4.597665 1.540497
Sb -23.017868 -4.597665 10.746309
Sb -23.017868 -1.529061 7.677705
Sb -19.949263 -1.529061 10.746309
Sb -19.949263 -4.597665 7.677705
Sb -19.949263 -4.597665 13.814914
Sb -19.949263 4.608148 -13.802525
Sb -23.017868 1.539544 -7.665316
Sb -23.017868 4.608148 -10.733921
Sb -19.949263 4.608148 -7.665316
Sb -19.949263 1.539544 -10.733921
Sb -23.017868 1.539544 -1.528108
Sb -23.017868 4.608148 -4.596712
Sb -19.949263 4.608148 -1.528108
Sb -19.949263 1.539544 -4.596712
Sb -23.017868 1.539544 4.609101
Sb -23.017868 4.608148 1.540497
Sb -19.949263 4.608148 4.609101
Sb -19.949263 1.539544 1.540497
Sb -19.949263 1.539544 7.677705
Sb -19.949263 10.745357 -19.939734
Sb -23.017868 7.676752 -13.802525
Sb -23.017868 10.745357 -16.871129
Sb -19.949263 10.745357 -13.802525
Sb -19.949263 7.676752 -16.871129
Sb -23.017868 7.676752 -7.665316
Sb -23.017868 10.745357 -10.733921
Sb -19.949263 10.745357 -7.665316
Sb -19.949263 7.676752 -10.733921
Sb -23.017868 7.676752 -1.528108
Sb -23.017868 10.745357 -4.596712
Sb -19.949263 10.745357 -1.528108
Sb -19.949263 7.676752 -4.596712
Sb -19.949263 7.676752 1.540497
Sb -23.017868 13.813961 -19.939734
Sb -23.017868 16.882565 -23.008338
Sb -19.949263 16.882565 -19.939734
Sb -19.949263 13.813961 -23.008338
Sb -23.017868 13.813961 -13.802525
Sb -23.017868 16.882565 -16.871129
Sb -19.949263 16.882565 -13.802525
Sb -19.949263 13.813961 -16.871129
Sb -23.017868 13.813961 -7.665316
Sb -23.017868 16.882565 -10.733921
Sb -19.949263 16.882565 -7.665316
Sb -19.949263 13.813961 -10.733921
Sb -19.949263 13.813961 -4.596712
Sb -23.017868 19.951169 -13.802525
Sb -19.949263 23.019774 -13.802525
Sb -19.949263 19.951169 -16.871129
Sb -19.949263 19.951169 -10.733921
Sb -13.812055 -19.940687 4.609101
Sb -16.880659 -23.009291 10.746309
Sb -16.880659 -19.940687 7.677705
Sb -13.812055 -19.940687 10.746309
Sb -13.812055 -23.009291 7.677705
Sb -16.880659 -23.009291 16.883518
Sb -16.880659 -19.940687 13.814914
Sb -13.812055 -19.940687 16.883518
Sb -13.812055 -23.009291 13.814914
Sb -16.880659 -23.009291 23.020727
Sb -16.880659 -19.940687 19.952122
Sb -13.812055 -19.940687 23.020727
Sb -13.812055 -23.009291 19.952122
Sb -13.812055 -13.803478 -1.528108
Sb -16.880659 -16.872082 4.609101
Sb -16.880659 -13.803478 1.540497
Sb -13.812055 -13.803478 4.609101
Sb -13.812055 -16.872082 1.540497
Sb -16.880659 -16.872082 10.746309
Sb -16.880659 -13.803478 7.677705
Sb -13.812055 -13.803478 10.746309
Sb -13.812055 -16.872082 7.677705
Sb -16.880659 -16.872082 16.883518
Sb -16.880659 -13.803478 13.814914
Sb -13.812055 -13.803478 16.883518
Sb -13.812055 -16.872082 13.814914
Sb -16.880659 -16.872082 23.020727
Sb -16.880659 -13.803478 19.952122
Sb -13.812055 -13.803478 23.020727
Sb -13.812055 -16.872082 19.952122
Sb -13.812055 -7.666269 -7.665316
Sb -16.880659 -10.734874 -1.528108
Sb -16.880659 -7.666269 -4.596712
Sb -13.812055 -7.666269 -1.528108
Sb -13.812055 -10.734874 -4.596712
Sb -16.880659 -10.734874 4.609101
Sb -16.880659 -7.666269 1.540497
Sb -13.812055 -7.666269 4.609101
Sb -13.812055 -10.734874 1.540497
Sb -16.880659 -10.734874 10.746309
Sb -16.880659 -7.666269 7.677705
Sb -13.812055 -7.666269 10.746309
Sb -13.812055 -10.734874 7.677705
Sb -16.880659 -10.734874 16.883518
Sb -16.880659 -7.666269 13.814914
Sb -13.812055 -7.666269 16.883518
Sb -13.812055 -10.734874 13.814914
Sb -16.880659 -10.734874 23.020727
Sb -16.880659 -7.666269 19.952122
Sb -13.812055 -7.666269 23.020727
Sb -13.812055 -10.734874 19.952122
Sb -13.812055 -1.529061 -13.802525
Sb -16.880659 -4.597665 -7.665316
Sb -16.880659 -1.529061 -10.733921
Sb -13.812055 -1.529061 -7.665316
Sb -13.812055 -4.597665 -10.733921
Sb -16.880659 -4.597665 -1.528108
Sb -16.880659 -1.529061 -4.596712
Sb -13.812055 -1.529061 -1.528108
Sb -13.812055 -4.597665 -4.596712
Sb -16.880659 -4.597665 4.609101
Sb -16.880659 -1.529061 1.540497
Sb -13.812055 -1.529061 4.609101
Sb -13.812055 -4.597665 1.540497
Sb -16.880659 -4.597665 10.746309
Sb -16.880659 -1.529061 7.677705
Sb -13.812055 -1.529061 10.746309
Sb -13.812055 -4.597665 7.677705
Sb -16.880659 -4.597665 16.883518
Sb -16.880659 -1.529061 13.814914
Sb -13.812055 -1.529061 16.883518
Sb -13.812055 -4.597665 13.814914
Sb -13.812055 -4.597665 19.952122
Sb -13.812055 4.608148 -19.939734
Sb -16.880659 1.539544 -13.802525
Sb -16.880659 4.608148 -16.871129
Sb -13.812055 4.608148 -13.802525
Sb -13.812055 1.539544 -16.871129
Sb -16.880659 1.539544 -7.665316
Sb -16.880659 4.608148 -10.733921
Sb -13.812055 4.608148 -7.665316
Sb -13.812055 1.539544 -10.733921
Sb -16.880659 1.539544 -1.528108
Sb -16.880659 4.608148 -4.596712
Sb -13.812055 4.608148 -1.528108
Sb -13.812055 1.539544 -4.596712
Sb -16.880659 1.539544 4.609101
Sb -16.880659 4.608148 1.540497
Sb -13.812055 4.608148 4.609101
Sb -13.812055 1.539544 1.540497
Sb -16.880659 1.539544 10.746309
Sb -16.880659 4.608148 7.677705
Sb -13.812055 4.608148 10.746309
Sb -13.812055 1.539544 7.677705
Sb -13.812055 1.539544 13.814914
Sb -16.880659 7.676752 -19.939734
Sb -16.880659 10.745357 -23.008338
Sb -13.812055 10.745357 -19.939734
Sb -13.812055 7.676752 -23.008338
Sb -16.880659 7.676752 -13.802525
Sb -16.880659 10.745357 -16.871129
Sb -13.812055 10.745357 -13.802525
Sb -13.812055 7.676752 -16.871129
Sb -16.880659 7.676752 -7.665316
Sb -16.880659 10.745357 -10.733921
Sb -13.812055 10.745357 -7.665316
Sb -13.812055 7.676752 -10.733921
Sb -16.880659 7.676752 -1.528108
Sb -16.880659 10.745357 -4.596712
Sb -13.812055 10.745357 -1.528108
Sb -13.812055 7.676752 -4.596712
Sb -16.880659 7.676752 4.609101
Sb -16.880659 10.745357 1.540497
Sb -13.812055 10.745357 4.609101
Sb -13.812055 7.676752 1.540497
Sb -13.812055 7.676752 7.677705
Sb -16.880659 13.813961 -19.939734
Sb -16.880659 16.882565 -23.008338
Sb -13.812055 16.882565 -19.939734
Sb -13.812055 13.813961 -23.008338
Sb -16.880659 13.813961 -13.802525
Sb -16.880659 16.882565 -16.871129
Sb -13.812055 16.882565 -13.802525
Sb -13.812055 13.813961 -16.871129
Sb -16.880659 13.813961 -7.665316
Sb -16.880659 16.882565 -10.733921
Sb -13.812055 16.882565 -7.665316
Sb -13.812055 13.813961 -10.733921
Sb -16.880659 13.813961 -1.528108
Sb -16.880659 16.882565 -4.596712
Sb -13.812055 16.882565 -1.528108
Sb -13.812055 13.813961 -4.596712
Sb -13.812055 13.813961 1.540497
Sb -16.880659 19.951169 -19.939734
Sb -16.880659 23.019774 -23.008338
Sb -13.812055 23.019774 -19.939734
Sb -13.812055 19.951169 -23.008338
Sb -16.880659 19.951169 -13.802525
Sb -16.880659 23.019774 -16.871129
Sb -13.812055 23.019774 -13.802525
Sb -13.812055 19.951169 -16.871129
Sb -16.880659 19.951169 -7.665316
Sb -16.880659 23.019774 -10.733921
Sb -13.812055 23.019774 -7.665316
Sb -13.812055 19.951169 -10.733921
Sb -13.812055 19.951169 -4.596712
Sb -7.674846 -19.940687 -1.528108
Sb -10.743451 -23.009291 4.609101
Sb -10.743451 -19.940687 1.540497
Sb -7.674846 -19.940687 4.609101
Sb -7.674846 -23.009291 1.540497
Sb -10.743451 -23.009291 10.746309
Sb -10.743451 -19.940687 7.677705
Sb -7.674846 -19.940687 10.746309
Sb -7.674846 -23.009291 7.677705
Sb -10.743451 -23.009291 16.883518
Sb -10.743451 -19.940687 13.814914
Sb -7.674846 -19.940687 16.883518
Sb -7.674846 -23.009291 13.814914
Sb -10.743451 -19.940687 19.952122
Sb -7.674846 -13.803478 -7.665316
Sb -10.743451 -16.872082 -1.528108
Sb -10.743451 -13.803478 -4.596712
Sb -7.674846 -13.803478 -1.528108
Sb -7.674846 -16.872082 -4.596712
Sb -10.743451 -16.872082 4.609101
Sb -10.743451 -13.803478 1.540497
Sb -7.674846 -13.803478 4.609101
Sb -7.674846 -16.872082 1.540497
Sb -10.743451 -16.872082 10.746309
Sb -10.743451 -13.803478 7.677705
Sb -7.674846 -13.803478 10.746309
Sb -7.674846 -16.872082 7.677705
Sb -10.743451 -16.872082 16.883518
Sb -10.743451 -13.803478 13.814914
Sb -7.674846 -13.803478 16.883518
Sb -7.674846 -16.872082 13.814914
Sb -10.743451 -16.872082 23.020727
Sb -10.743451 -13.803478 19.952122
Sb -7.674846 -13.803478 23.020727
Sb -7.674846 -16.872082 19.952122
Sb -7.674846 -7.666269 -13.802525
Sb -10.743451 -10.734874 -7.665316
Sb -10.743451 -7.666269 -10.733921
Sb -7.674846 -7.666269 -7.665316
Sb -7.674846 -10.734874 -10.733921
Sb -10.743451 -10.734874 -1.528108
Sb -10.743451 -7.666269 -4.596712
Sb -7.674846 -7.666269 -1.528108
Sb -7.674846 -10.734874 -4.596712
Sb -10.743451 -10.734874 4.609101
Sb -10.743451 -7.666269 1.540497
Sb -7.674846 -7.666269 4.609101
Sb -7.674846 -10.734874 1.540497
Sb -10.743451 -10.734874 10.746309
Sb -10.743451 -7.666269 7.677705
Sb -7.674846 -7.666269 10.746309
Sb -7.674846 -10.734874 7.677705
Sb -10.743451 -10.734874 16.883518
Sb -10.743451 -7.666269 13.814914
Sb -7.674846 -7.666269 16.883518
Sb -7.674846 -10.734874 13.814914
Sb -10.743451 -10.734874 23.020727
Sb -10.743451 -7.666269 19.952122
Sb -7.674846 -7.666269 23.020727
Sb -7.674846 -10.734874 19.952122
Sb -7.674846 -1.529061 -19.939734
Sb -10.743451 -4.597665 -13.802525
Sb -10.743451 -1.529061 -16.871129
Sb -7.674846 -1.529061 -13.802525
Sb -7.674846 -4.597665 -16.871129
Sb -10.743451 -4.597665 -7.665316
Sb -10.743451 -1.529061 -10.733921
Sb -7.674846 -1.529061 -7.665316
Sb -7.674846 -4.597665 -10.733921
Sb -10.743451 -4.597665 -1.528108
Sb -10.743451 -1.529061 -4.596712
Sb -7.674846 -1.529061 -1.528108
Sb -7.674846 -4.597665 -4.596712
Sb -10.743451 -4.597665 4.609101
Sb -10.743451 -1.529061 1.540497
Sb -7.674846 -1.529061 4.609101
Sb -7.674846 -4.597665 1.540497
Sb -10.743451 -4.597665 10.746309
Sb -10.743451 -1.529061 7.677705
Sb -7.674846 -1.529061 10.746309
Sb -7.674846 -4.597665 7.677705
Sb -10.743451 -4.597665 16.883518
Sb -10.743451 -1.529061 13.814914
Sb -7.674846 -1.529061 16.883518
Sb -7.674846 -4.597665 13.814914
Sb -10.743451 -4.597665 23.020727
Sb -10.743451 -1.529061 19.952122
Sb -7.674846 -1.529061 23.020727
Sb -7.674846 -4.597665 19.952122
Sb -10.743451 1.539544 -19.939734
Sb -10.743451 4.608148 -23.008338
Sb -7.674846 4.608148 -19.939734
Sb -7.674846 1.539544 -23.008338
Sb -10.743451 1.539544 -13.802525
Sb -10.743451 4.608148 -16.871129
Sb -7.674846 4.608148 -13.802525
Sb -7.674846 1.539544 -16.871129
Sb -10.743451 1.539544 -7.665316
Sb -10.743451 4.608148 -10.733921
Sb -7.674846 4.608148 -7.665316
Sb -7.674846 1.539544 -10.733921
Sb -10.743451 1.539544 -1.528108
Sb -10.743451 4.608148 -4.596712
Sb -7.674846 4.608148 -1.528108
Sb -7.674846 1.539544 -4.596712
Sb -10.743451 1.539544 4.609101
Sb -10.743451 4.608148 1.540497
Sb -7.674846 4.608148 4.609101
Sb -7.674846 1.539544 1.540497
Sb -10.743451 1.539544 10.746309
Sb -10.743451 4.608148 7.677705
Sb -7.674846 4.608148 10.746309
Sb -7.674846 1.539544 7.677705
Sb -10.743451 1.539544 16.883518
Sb -10.743451 4.608148 13.814914
Sb -7.674846 4.608148 16.883518
Sb -7.674846 1.539544 13.814914
Sb -7.674846 1.539544 19.952122
Sb -10.743451 7.676752 -19.939734
Sb -10.743451 10.745357 -23.008338
Sb -7.674846 10.745357 -19.939734
Sb -7.674846 7.676752 -23.008338
Sb -10.743451 7.676752 -13.802525
Sb -10.743451 10.745357 -16.871129
Sb -7.674846 10.745357 -13.802525
Sb -7.674846 7.676752 -16.871129
Sb -10.743451 7.676752 -7.665316
Sb -10.743451 10.745357 -10.733921
Sb -7.674846 10.745357 -7.665316
Sb -7.674846 7.676752 -10.733921
Sb -10.743451 7.676752 -1.528108
Sb -10.743451 10.745357 -4.596712
Sb -7.674846 10.745357 -1.528108
Sb -7.674846 7.676752 -4.596712
Sb -10.743451 7.676752 4.609101
Sb -10.743451 10.745357 1.540497
Sb -7.674846 10.745357 4.609101
Sb -7.674846 7.676752 1.540497
Sb -10.743451 7.676752 10.746309
Sb -10.743451 10.745357 7.677705
Sb -7.674846 10.745357 10.746309
Sb -7.674846 7.676752 7.677705
Sb -7.674846 7.676752 13.814914
Sb -10.743451 13.813961 -19.939734
Sb -10.743451 16.882565 -23.008338
Sb -7.674846 16.882565 -19.939734
Sb -7.674846 13.813961 -23.008338
Sb -10.743451 13.813961 -13.802525
Sb -10.743451 16.882565 -16.871129
Sb -7.674846 16.882565 -13.802525
Sb -7.674846 13.813961 -16.871129
Sb -10.743451 13.813961 -7.665316
Sb -10.743451 16.882565 -10.733921
Sb -7.674846 16.882565 -7.665316
Sb -7.674846 13.813961 -10.733921
Sb -10.743451 13.813961 -1.528108
Sb -10.743451 16.882565 -4.596712
Sb -7.674846 16.882565 -1.528108
Sb -7.674846 13.813961 -4.596712
Sb -10.743451 13.813961 4.609101
Sb -10.743451 16.882565 1.540497
Sb -7.674846 16.882565 4.609101
Sb -7.674846 13.813961 1.540497
Sb -7.674846 13.813961 7.677705
Sb -10.743451 19.951169 -19.939734
Sb -10.743451 19.951169 -13.802525
Sb -10.743451 23.019774 -16.871129
Sb -7.674846 23.019774 -13.802525
Sb -7.674846 19.951169 -16.871129
Sb -10.743451 19.951169 -7.665316
Sb -10.743451 23.019774 -10.733921
Sb -7.674846 23.019774 -7.665316
Sb -7.674846 19.951169 -10.733921
Sb -10.743451 19.951169 -1.528108
Sb -10.743451 23.019774 -4.596712
Sb -7.674846 23.019774 -1.528108
Sb -7.674846 19.951169 -4.596712
Sb -7.674846 19.951169 1.540497
Sb -1.537638 -19.940687 -7.665316
Sb -4.606242 -23.009291 -1.528108
Sb -4.606242 -19.940687 -4.596712
Sb -1.537638 -19.940687 -1.528108
Sb -1.537638 -23.009291 -4.596712
Sb -4.606242 -23.009291 4.609101
Sb -4.606242 -19.940687 1.540497
Sb -1.537638 -19.940687 4.609101
Sb -1.537638 -23.009291 1.540497
Sb -4.606242 -23.009291 10.746309
Sb -4.606242 -19.940687 7.677705
Sb -1.537638 -19.940687 10.746309
Sb -1.537638 -23.009291 7.677705
Sb -4.606242 -19.940687 13.814914
Sb -1.537638 -13.803478 -13.802525
Sb -4.606242 -16.872082 -7.665316
Sb -4.606242 -13.803478 -10.733921
Sb -1.537638 -13.803478 -7.665316
Sb -1.537638 -16.872082 -10.733921
Sb -4.606242 -16.872082 -1.528108
Sb -4.606242 -13.803478 -4.596712
Sb -1.537638 -13.803478 -1.528108
Sb -1.537638 -16.872082 -4.596712
Sb -4.606242 -16.872082 4.609101
Sb -4.606242 -13.803478 1.540497
Sb -1.537638 -13.803478 4.609101
Sb -1.537638 -16.872082 1.540497
Sb -4.606242 -16.872082 10.746309
Sb -4.606242 -13.803478 7.677705
Sb -1.537638 -13.803478 10.746309
Sb -1.537638 -16.872082 7.677705
Sb -4.606242 -16.872082 16.883518
Sb -4.606242 -13.803478 13.814914
Sb -1.537638 -13.803478 16.883518
Sb -1.537638 -16.872082 13.814914
Sb -4.606242 -13.803478 19.952122
Sb -1.537638 -7.666269 -19.939734
Sb -4.606242 -10.734874 -13.802525
Sb -4.606242 -7.666269 -16.871129
Sb -1.537638 -7.666269 -13.802525
Sb -1.537638 -10.734874 -16.871129
Sb -4.606242 -10.734874 -7.665316
Sb -4.606242 -7.666269 -10.733921
Sb -1.537638 -7.666269 -7.665316
Sb -1.537638 -10.734874 -10.733921
Sb -4.606242 -10.734874 -1.528108
Sb -4.606242 -7.666269 -4.596712
Sb -1.537638 -7.666269 -1.528108
Sb -1.537638 -10.734874 -4.596712
Sb -4.606242 -10.734874 4.609101
Sb -4.606242 -7.666269 1.540497
Sb -1.537638 -7.666269 4.609101
Sb -1.537638 -10.734874 1.540497
Sb -4.606242 -10.734874 10.746309
Sb -4.606242 -7.666269 7.677705
Sb -1.537638 -7.666269 10.746309
Sb -1.537638 -10.734874 7.677705
Sb -4.606242 -10.734874 16.883518
Sb -4.606242 -7.666269 13.814914
Sb -1.537638 -7.666269 16.883518
Sb -1.537638 -10.734874 13.814914
Sb -4.606242 -10.734874 23.020727
Sb -4.606242 -7.666269 19.952122
Sb -1.537638 -7.666269 23.020727
Sb -1.537638 -10.734874 19.952122
Sb -4.606242 -4.597665 -19.939734
Sb -4.606242 -1.529061 -23.008338
Sb -1.537638 -1.529061 -19.939734
Sb -1.537638 -4.597665 -23.008338
Sb -4.606242 -4.597665 -13.802525
Sb -4.606242 -1.529061 -16.871129
Sb -1.537638 -1.529061 -13.802525
Sb -1.537638 -4.597665 -16.871129
Sb -4.606242 -4.597665 -7.665316
Sb -4.606242 -1.529061 -10.733921
Sb -1.537638 -1.529061 -7.665316
Sb -1.537638 -4.597665 -10.733921
Sb -4.606242 -4.597665 -1.528108
Sb -4.606242 -1.529061 -4.596712
Sb -1.537638 -1.529061 -1.528108
Sb -1.537638 -4.597665 -4.596712
Sb -4.606242 -4.597665 4.609101
Sb -4.606242 -1.529061 1.540497
Sb -1.537638 -1.529061 4.609101
Sb -1.537638 -4.597665 1.540497
Sb -4.606242 -4.597665 10.746309
Sb -4.606242 -1.529061 7.677705
Sb -1.537638 -1.529061 10.746309
Sb -1.537638 -4.597665 7.677705
Sb -4.606242 -4.597665 16.883518
Sb -4.606242 -1.529061 13.814914
Sb -1.537638 -1.529061 16.883518
Sb -1.537638 -4.597665 13.814914
Sb -4.606242 -4.597665 23.020727
Sb -4.606242 -1.529061 19.952122
Sb -1.537638 -1.529061 23.020727
Sb -1.537638 -4.597665 19.952122
Sb -4.606242 1.539544 -19.939734
Sb -4.606242 4.608148 -23.008338
Sb -1.537638 4.608148 -19.939734
Sb -1.537638 1.539544 -23.008338
Sb -4.606242 1.539544 -13.802525
Sb -4.606242 4.608148 -16.871129
Sb -1.537638 4.608148 -13.802525
Sb -1.537638 1.539544 -16.871129
Sb -4.606242 1.539544 -7.665316
Sb -4.606242 4.608148 -10.733921
Sb -1.537638 4.608148 -7.665316
Sb -1.537638 1.539544 -10.733921
Sb -4.606242 1.539544 -1.528108
Sb -4.606242 4.608148 -4.596712
Sb -1.537638 4.608148 -1.528108
Sb -1.537638 1.539544 -4.596712
Sb -4.606242 1.539544 4.609101
Sb -4.606242 4.608148 1.540497
Sb -1.537638 4.608148 4.609101
Sb -1.537638 1.539544 1.540497
Sb -4.606242 1.539544 10.746309
Sb -4.606242 4.608148 7.677705
Sb -1.537638 4.608148 10.746309
Sb -1.537638 1.539544 7.677705
Sb -4.606242 1.539544 16.883518
Sb -4.606242 4.608148 13.814914
Sb -1.537638 4.608148 16.883518
Sb -1.537638 1.539544 13.814914
Sb -4.606242 1.539544 23.020727
Sb -4.606242 4.608148 19.952122
Sb -1.537638 4.608148 23.020727
Sb -1.537638 1.539544 19.952122
Sb -4.606242 7.676752 -19.939734
Sb -4.606242 10.745357 -23.008338
Sb -1.537638 10.745357 -19.939734
Sb -1.537638 7.676752 -23.008338
Sb -4.606242 7.676752 -13.802525
Sb -4.606242 10.745357 -16.871129
Sb -1.537638 10.745357 -13.802525
Sb -1.537638 7.676752 -16.871129
Sb -4.606242 7.676752 -7.665316
Sb -4.606242 10.745357 -10.733921
Sb -1.537638 10.745357 -7.665316
Sb -1.537638 7.676752 -10.733921
Sb -4.606242 7.676752 -1.528108
Sb -4.606242 10.745357 -4.596712
Sb -1.537638 10.745357 -1.528108
Sb -1.537638 7.676752 -4.596712
Sb -4.606242 7.676752 4.609101
Sb -4.606242 10.745357 1.540497
Sb -1.537638 10.745357 4.609101
Sb -1.537638 7.676752 1.540497
Sb -4.606242 7.676752 10.746309
Sb -4.606242 10.745357 7.677705
Sb -1.537638 10.745357 10.746309
Sb -1.537638 7.676752 7.677705
Sb -4.606242 7.676752 16.883518
Sb -4.606242 10.745357 13.814914
Sb -1.537638 10.745357 16.883518
Sb -1.537638 7.676752 13.814914
Sb -1.537638 7.676752 19.952122
Sb -4.606242 13.813961 -19.939734
Sb -4.606242 13.813961 -13.802525
Sb -4.606242 16.882565 -16.871129
Sb -1.537638 16.882565 -13.802525
Sb -1.537638 13.813961 -16.871129
Sb -4.606242 13.813961 -7.665316
Sb -4.606242 16.882565 -10.733921
Sb -1.537638 16.882565 -7.665316
Sb -1.537638 13.813961 -10.733921
Sb -4.606242 13.813961 -1.528108
Sb -4.606242 16.882565 -4.596712
Sb -1.537638 16.882565 -1.528108
Sb -1.537638 13.813961 -4.596712
Sb -4.606242 13.813961 4.609101
Sb -4.606242 16.882565 1.540497
Sb -1.537638 16.882565 4.609101
Sb -1.537638 13.813961 1.540497
Sb -4.606242 13.813961 10.746309
Sb -4.606242 16.882565 7.677705
Sb -1.537638 16.882565 10.746309
Sb -1.537638 13.813961 7.677705
Sb -1.537638 13.813961 13.814914
Sb -4.606242 19.951169 -13.802525
Sb -4.606242 19.951169 -7.665316
Sb -4.606242 23.019774 -10.733921
Sb -1.537638 23.019774 -7.665316
Sb -1.537638 19.951169 -10.733921
Sb -4.606242 19.951169 -1.528108
Sb -4.606242 23.019774 -4.596712
Sb -1.537638 23.019774 -1.528108
Sb -1.537638 19.951169 -4.596712
Sb -4.606242 19.951169 4.609101
Sb -4.606242 23.019774 1.540497
Sb -1.537638 23.019774 4.609101
Sb -1.537638 19.951169 1.540497
Sb -1.537638 19.951169 7.677705
Sb 4.599571 -19.940687 -13.802525
Sb 1.530967 -23.009291 -7.665316
Sb 1.530967 -19.940687 -10.733921
Sb 4.599571 -19.940687 -7.665316
Sb 4.599571 -23.009291 -10.733921
Sb 1.530967 -23.009291 -1.528108
Sb 1.530967 -19.940687 -4.596712
Sb 4.599571 -19.940687 -1.528108
Sb 4.599571 -23.009291 -4.596712
Sb 1.530967 -23.009291 4.609101
Sb 1.530967 -19.940687 1.540497
Sb 4.599571 -19.940687 4.609101
Sb 4.599571 -23.009291 1.540497
Sb 1.530967 -19.940687 7.677705
Sb 4.599571 -13.803478 -19.939734
Sb 1.530967 -16.872082 -13.802525
Sb 1.530967 -13.803478 -16.871129
Sb 4.599571 -13.803478 -13.802525
Sb 4.599571 -16.872082 -16.871129
Sb 1.530967 -16.872082 -7.665316
Sb 1.530967 -13.803478 -10.733921
Sb 4.599571 -13.803478 -7.665316
Sb 4.599571 -16.872082 -10.733921
Sb 1.530967 -16.872082 -1.528108
Sb 1.530967 -13.803478 -4.596712
Sb 4.599571 -13.803478 -1.528108
Sb 4.599571 -16.872082 -4.596712
Sb 1.530967 -16.872082 4.609101
Sb 1.530967 -13.803478 1.540497
Sb 4.599571 -13.803478 4.609101
Sb 4.599571 -16.872082 1.540497
Sb 1.530967 -16.872082 10.746309
Sb 1.530967 -13.803478 7.677705
Sb 4.599571 -13.803478 10.746309
Sb 4.599571 -16.872082 7.677705
Sb 1.530967 -13.803478 13.814914
Sb 1.530967 -10.734874 -19.939734
Sb 1.530967 -7.666269 -23.008338
Sb 4.599571 -7.666269 -19.939734
Sb 4.599571 -10.734874 -23.008338
Sb 1.530967 -10.734874 -13.802525
Sb 1.530967 -7.666269 -16.871129
Sb 4.599571 -7.666269 -13.802525
Sb 4.599571 -10.734874 -16.871129
Sb 1.530967 -10.734874 -7.665316
Sb 1.530967 -7.666269 -10.733921
Sb 4.599571 -7.666269 -7.665316
Sb 4.599571 -10.734874 -10.733921
Sb 1.530967 -10.734874 -1.528108
Sb 1.530967 -7.666269 -4.596712
Sb 4.599571 -7.666269 -1.528108
Sb 4.599571 -10.734874 -4.596712
Sb 1.530967 -10.734874 4.609101
Sb 1.530967 -7.666269 1.540497
Sb 4.599571 -7.666269 4.609101
Sb 4.599571 -10.734874 1.540497
Sb 1.530967 -10.734874 10.746309
Sb 1.530967 -7.666269 7.677705
Sb 4.599571 -7.666269 10.746309
Sb 4.599571 -10.734874 7.677705
Sb 1.530967 -10.734874 16.883518
Sb 1.530967 -7.666269 13.814914
Sb 4.599571 -7.666269 16.883518
Sb 4.599571 -10.734874 13.814914
Sb 1.530967 -7.666269 19.952122
Sb 1.530967 -4.597665 -19.939734
Sb 1.530967 -1.529061 -23.008338
Sb 4.599571 -1.529061 -19.939734
Sb 4.599571 -4.597665 -23.008338
Sb 1.530967 -4.597665 -13.802525
Sb 1.530967 -1.529061 -16.871129
Sb 4.599571 -1.529061 -13.802525
Sb 4.599571 -4.597665 -16.871129
Sb 1.530967 -4.597665 -7.665316
Sb 1.530967 -1.529061 -10.733921
Sb 4.599571 -1.529061 -7.665316
Sb 4.599571 -4.597665 -10.733921
Sb 1.530967 -4.597665 -1.528108
Sb 1.530967 -1.529061 -4.596712
Sb 4.599571 -1.529061 -1.528108
Sb 4.599571 -4.597665 -4.596712
Sb 1.530967 -4.597665 4.609101
Sb 1.530967 -1.529061 1.540497
Sb 4.599571 -1.529061 4.609101
Sb 4.599571 -4.597665 1.540497
Sb 1.530967 -4.597665 10.746309
Sb 1.530967 -1.529061 7.677705
Sb 4.599571 -1.529061 10.746309
Sb 4.599571 -4.597665 7.677705
Sb 1.530967 -4.597665 16.883518
Sb 1.530967 -1.529061 13.814914
Sb 4.599571 -1.529061 16.883518
Sb 4.599571 -4.597665 13.814914
Sb 1.530967 -4.597665 23.020727
Sb 1.530967 -1.529061 19.952122
Sb 4.599571 -1.529061 23.020727
Sb 4.599571 -4.597665 19.952122
Sb 1.530967 1.539544 -19.939734
Sb 1.530967 4.608148 -23.008338
Sb 4.599571 4.608148 -19.939734
Sb 4.599571 1.539544 -23.008338
Sb 1.530967 1.539544 -13.802525
Sb 1.530967 4.608148 -16.871129
Sb 4.599571 4.608148 -13.802525
Sb 4.599571 1.539544 -16.871129
Sb 1.530967 1.539544 -7.665316
Sb 1.530967 4.608148 -10.733921
Sb 4.599571 4.608148 -7.665316
Sb 4.599571 1.539544 -10.733921
Sb 1.530967 1.539544 -1.528108
Sb 1.530967 4.608148 -4.596712
Sb 4.599571 4.608148 -1.528108
Sb 4.599571 1.539544 -4.596712
Sb 1.530967 1.539544 4.609101
Sb 1.530967 4.608148 1.540497
Sb 4.599571 4.608148 4.609101
Sb 4.599571 1.539544 1.540497
Sb 1.530967 1.539544 10.746309
Sb 1.530967 4.608148 7.677705
Sb 4.599571 4.608148 10.746309
Sb 4.599571 1.539544 7.677705
Sb 1.530967 1.539544 16.883518
Sb 1.530967 4.608148 13.814914
Sb 4.599571 4.608148 16.883518
Sb 4.599571 1.539544 13.814914
Sb 1.530967 1.539544 23.020727
Sb 1.530967 4.608148 19.952122
Sb 4.599571 4.608148 23.020727
Sb 4.599571 1.539544 19.952122
Sb 1.530967 7.676752 -19.939734
Sb 1.530967 7.676752 -13.802525
Sb 1.530967 10.745357 -16.871129
Sb 4.599571 10.745357 -13.802525
Sb 4.599571 7.676752 -16.871129
Sb 1.530967 7.676752 -7.665316
Sb 1.530967 10.745357 -10.733921
Sb 4.599571 10.745357 -7.665316
Sb 4.599571 7.676752 -10.733921
Sb 1.530967 7.676752 -1.528108
Sb 1.530967 10.745357 -4.596712
Sb 4.599571 10.745357 -1.528108
Sb 4.599571 7.676752 -4.596712
Sb 1.530967 7.676752 4.609101
Sb 1.530967 10.745357 1.540497
Sb 4.599571 10.745357 4.609101
Sb 4.599571 7.676752 1.540497
Sb 1.530967 7.676752 10.746309
Sb 1.530967 10.745357 7.677705
Sb 4.599571 10.745357 10.746309
Sb 4.599571 7.676752 7.677705
Sb 1.530967 7.676752 16.883518
Sb 1.530967 10.745357 13.814914
Sb 4.599571 10.745357 16.883518
Sb 4.599571 7.676752 13.814914
Sb 1.530967 7.676752 23.020727
Sb 1.530967 10.745357 19.952122
Sb 4.599571 10.745357 23.020727
Sb 4.599571 7.676752 19.952122
Sb 1.530967 13.813961 -13.802525
Sb 1.530967 13.813961 -7.665316
Sb 1.530967 16.882565 -10.733921
Sb 4.599571 16.882565 -7.665316
Sb 4.599571 13.813961 -10.733921
Sb 1.530967 13.813961 -1.528108
Sb 1.530967 16.882565 -4.596712
Sb 4.599571 16.882565 -1.528108
Sb 4.599571 13.813961 -4.596712
Sb 1.530967 13.813961 4.609101
Sb 1.530967 16.882565 1.540497
Sb 4.599571 16.882565 4.609101
Sb 4.599571 13.813961 1.540497
Sb 1.530967 13.813961 10.746309
Sb 1.530967 16.882565 7.677705
Sb 4.599571 16.882565 10.746309
Sb 4.599571 13.813961 7.677705
Sb 1.530967 13.813961 16.883518
Sb 1.530967 16.882565 13.814914
Sb 4.599571 16.882565 16.883518
Sb 4.599571 13.813961 13.814914
Sb 4.599571 13.813961 19.952122
Sb 1.530967 19.951169 -7.665316
Sb 1.530967 19.951169 -1.528108
Sb 1.530967 23.019774 -4.596712
Sb 4.599571 23.019774 -1.528108
Sb 4.599571 19.951169 -4.596712
Sb 1.530967 19.951169 4.609101
Sb 1.530967 23.019774 1.540497
Sb 4.599571 23.019774 4.609101
Sb 4.599571 19.951169 1.540497
Sb 1.530967 19.951169 10.746309
Sb 1.530967 23.019774 7.677705
Sb 4.599571 23.019774 10.746309
Sb 4.599571 19.951169 7.677705
Sb 4.599571 19.951169 13.814914
Sb 10.736780 -19.940687 -19.939734
Sb 7.668175 -23.009291 -13.802525
Sb 7.668175 -19.940687 -16.871129
Sb 10.736780 -19.940687 -13.802525
Sb 10.736780 -23.009291 -16.871129
Sb 7.668175 -23.009291 -7.665316
Sb 7.668175 -19.940687 -10.733921
Sb 10.736780 -19.940687 -7.665316
Sb 10.736780 -23.009291 -10.733921
Sb 7.668175 -23.009291 -1.528108
Sb 7.668175 -19.940687 -4.596712
Sb 10.736780 -19.940687 -1.528108
Sb 10.736780 -23.009291 -4.596712
Sb 7.668175 -19.940687 1.540497
Sb 7.668175 -16.872082 -19.939734
Sb 7.668175 -13.803478 -23.008338
Sb 10.736780 -13.803478 -19.939734
Sb 10.736780 -16.872082 -23.008338
Sb 7.668175 -16.872082 -13.802525
Sb 7.668175 -13.803478 -16.871129
Sb 10.736780 -13.803478 -13.802525
Sb 10.736780 -16.872082 -16.871129
Sb 7.668175 -16.872082 -7.665316
Sb 7.668175 -13.803478 -10.733921
Sb 10.736780 -13.803478 -7.665316
Sb 10.736780 -16.872082 -10.733921
Sb 7.668175 -16.872082 -1.528108
Sb 7.668175 -13.803478 -4.596712
Sb 10.736780 -13.803478 -1.528108
Sb 10.736780 -16.872082 -4.596712
Sb 7.668175 -16.872082 4.609101
Sb 7.668175 -13.803478 1.540497
Sb 10.736780 -13.803478 4.609101
Sb 10.736780 -16.872082 1.540497
Sb 7.668175 -13.803478 7.677705
Sb 7.668175 -10.734874 -19.939734
Sb 7.668175 -7.666269 -23.008338
Sb 10.736780 -7.666269 -19.939734
Sb 10.736780 -10.734874 -23.008338
Sb 7.668175 -10.734874 -13.802525
Sb 7.668175 -7.666269 -16.871129
Sb 10.736780 -7.666269 -13.802525
Sb 10.736780 -10.734874 -16.871129
Sb 7.668175 -10.734874 -7.665316
Sb 7.668175 -7.666269 -10.733921
Sb 10.736780 -7.666269 -7.665316
Sb 10.736780 -10.734874 -10.733921
Sb 7.668175 -10.734874 -1.528108
Sb 7.668175 -7.666269 -4.596712
Sb 10.736780 -7.666269 -1.528108
Sb 10.736780 -10.734874 -4.596712
Sb 7.668175 -10.734874 4.609101
Sb 7.668175 -7.666269 1.540497
Sb 10.736780 -7.666269 4.609101
Sb 10.736780 -10.734874 1.540497
Sb 7.668175 -10.734874 10.746309
Sb 7.668175 -7.666269 7.677705
Sb 10.736780 -7.666269 10.746309
Sb 10.736780 -10.734874 7.677705
Sb 7.668175 -7.666269 13.814914
Sb 7.668175 -4.597665 -19.939734
Sb 7.668175 -1.529061 -23.008338
Sb 10.736780 -1.529061 -19.939734
Sb 10.736780 -4.597665 -23.008338
Sb 7.668175 -4.597665 -13.802525
Sb 7.668175 -1.529061 -16.871129
Sb 10.736780 -1.529061 -13.802525
Sb 10.736780 -4.597665 -16.871129
Sb 7.668175 -4.597665 -7.665316
Sb 7.668175 -1.529061 -10.733921
Sb 10.736780 -1.529061 -7.665316
Sb 10.736780 -4.597665 -10.733921
Sb 7.668175 -4.597665 -1.528108
Sb 7.668175 -1.529061 -4.596712
Sb 10.736780 -1.529061 -1.528108
Sb 10.736780 -4.597665 -4.596712
Sb 7.668175 -4.597665 4.609101
Sb 7.668175 -1.529061 1.540497
Sb 10.736780 -1.529061 4.609101
Sb 10.736780 -4.597665 1.540497
Sb 7.668175 -4.597665 10.746309
Sb 7.668175 -1.529061 7.677705
Sb 10.736780 -1.529061 10.746309
Sb 10.736780 -4.597665 7.677705
Sb 7.668175 -4.597665 16.883518
Sb 7.668175 -1.529061 13.814914
Sb 10.736780 -1.529061 16.883518
Sb 10.736780 -4.597665 13.814914
Sb 7.668175 -1.529061 19.952122
Sb 7.668175 1.539544 -19.939734
Sb 7.668175 1.539544 -13.802525
Sb 7.668175 4.608148 -16.871129
Sb 10.736780 4.608148 -13.802525
Sb 10.736780 1.539544 -16.871129
Sb 7.668175 1.539544 -7.665316
Sb 7.668175 4.608148 -10.733921
Sb 10.736780 4.608148 -7.665316
Sb 10.736780 1.539544 -10.733921
Sb 7.668175 1.539544 -1.528108
Sb 7.668175 4.608148 -4.596712
Sb 10.736780 4.608148 -1.528108
Sb 10.736780 1.539544 -4.596712
Sb 7.668175 1.539544 4.609101
Sb 7.668175 4.608148 1.540497
Sb 10.736780 4.608148 4.609101
Sb 10.736780 1.539544 1.540497
Sb 7.668175 1.539544 10.746309
Sb 7.668175 4.608148 7.677705
Sb 10.736780 4.608148 10.746309
Sb 10.736780 1.539544 7.677705
Sb 7.668175 1.539544 16.883518
Sb 7.668175 4.608148 13.814914
Sb 10.736780 4.608148 16.883518
Sb 10.736780 1.539544 13.814914
Sb 7.668175 1.539544 23.020727
Sb 7.668175 4.608148 19.952122
Sb 10.736780 4.608148 23.020727
Sb 10.736780 1.539544 19.952122
Sb 7.668175 7.676752 -13.802525
Sb 7.668175 7.676752 -7.665316
Sb 7.668175 10.745357 -10.733921
Sb 10.736780 10.745357 -7.665316
Sb 10.736780 7.676752 -10.733921
Sb 7.668175 7.676752 -1.528108
Sb 7.668175 10.745357 -4.596712
Sb 10.736780 10.745357 -1.528108
Sb 10.736780 7.676752 -4.596712
Sb 7.668175 7.676752 4.609101
Sb 7.668175 10.745357 1.540497
Sb 10.736780 10.745357 4.609101
Sb 10.736780 7.676752 1.540497
Sb 7.668175 7.676752 10.746309
Sb 7.668175 10.745357 7.677705
Sb 10.736780 10.745357 10.746309
Sb 10.736780 7.676752 7.677705
Sb 7.668175 7.676752 16.883518
Sb 7.668175 10.745357 13.814914
Sb 10.736780 10.745357 16.883518
Sb 10.736780 7.676752 13.814914
Sb 7.668175 7.676752 23.020727
Sb 7.668175 10.745357 19.952122
Sb 10.736780 10.745357 23.020727
Sb 10.736780 7.676752 19.952122
Sb 7.668175 13.813961 -7.665316
Sb 7.668175 13.813961 -1.528108
Sb 7.668175 16.882565 -4.596712
Sb 10.736780 16.882565 -1.528108
Sb 10.736780 13.813961 -4.596712
Sb 7.668175 13.813961 4.609101
Sb 7.668175 16.882565 1.540497
Sb 10.736780 16.882565 4.609101
Sb 10.736780 13.813961 1.540497
Sb 7.668175 13.813961 10.746309
Sb 7.668175 16.882565 7.677705
Sb 10.736780 16.882565 10.746309
Sb 10.736780 13.813961 7.677705
Sb 7.668175 13.813961 16.883518
Sb 7.668175 16.882565 13.814914
Sb 10.736780 16.882565 16.883518
Sb 10.736780 13.813961 13.814914
Sb 7.668175 13.813961 23.020727
Sb 7.668175 16.882565 19.952122
Sb 10.736780 16.882565 23.020727
Sb 10.736780 13.813961 19.952122
Sb 7.668175 19.951169 -1.528108
Sb 7.668175 19.951169 4.609101
Sb 7.668175 23.019774 1.540497
Sb 10.736780 23.019774 4.609101
Sb 10.736780 19.951169 1.540497
Sb 7.668175 19.951169 10.746309
Sb 7.668175 23.019774 7.677705
Sb 10.736780 23.019774 10.746309
Sb 10.736780 19.951169 7.677705
Sb 7.668175 19.951169 16.883518
Sb 7.668175 23.019774 13.814914
Sb 10.736780 23.019774 16.883518
Sb 10.736780 19.951169 13.814914
Sb 10.736780 19.951169 19.952122
Sb 13.805384 -23.009291 -19.939734
Sb 13.805384 -19.940687 -23.008338
Sb 16.873988 -19.940687 -19.939734
Sb 16.873988 -23.009291 -23.008338
Sb 13.805384 -23.009291 -13.802525
Sb 13.805384 -19.940687 -16.871129
Sb 16.873988 -19.940687 -13.802525
Sb 16.873988 -23.009291 -16.871129
Sb 13.805384 -23.009291 -7.665316
Sb 13.805384 -19.940687 -10.733921
Sb 16.873988 -19.940687 -7.665316
Sb 16.873988 -23.009291 -10.733921
Sb 13.805384 -19.940687 -4.596712
Sb 13.805384 -16.872082 -19.939734
Sb 13.805384 -13.803478 -23.008338
Sb 16.873988 -13.803478 -19.939734
Sb 16.873988 -16.872082 -23.008338
Sb 13.805384 -16.872082 -13.802525
Sb 13.805384 -13.803478 -16.871129
Sb 16.873988 -13.803478 -13.802525
Sb 16.873988 -16.872082 -16.871129
Sb 13.805384 -16.872082 -7.665316
Sb 13.805384 -13.803478 -10.733921
Sb 16.873988 -13.803478 -7.665316
Sb 16.873988 -16.872082 -10.733921
Sb 13.805384 -16.872082 -1.528108
Sb 13.805384 -13.803478 -4.596712
Sb 16.873988 -13.803478 -1.528108
Sb 16.873988 -16.872082 -4.596712
Sb 13.805384 -13.803478 1.540497
Sb 13.805384 -10.734874 -19.939734
Sb 13.805384 -7.666269 -23.008338
Sb 16.873988 -7.666269 -19.939734
Sb 16.873988 -10.734874 -23.008338
Sb 13.805384 -10.734874 -13.802525
Sb 13.805384 -7.666269 -16.871129
Sb 16.873988 -7.666269 -13.802525
Sb 16.873988 -10.734874 -16.871129
Sb 13.805384 -10.734874 -7.665316
Sb 13.805384 -7.666269 -10.733921
Sb 16.873988 -7.666269 -7.665316
Sb 16.873988 -10.734874 -10.733921
Sb 13.805384 -10.734874 -1.528108
Sb 13.805384 -7.666269 -4.596712
Sb 16.873988 -7.666269 -1.528108
Sb 16.873988 -10.734874 -4.596712
Sb 13.805384 -10.734874 4.609101
Sb 13.805384 -7.666269 1.540497
Sb 16.873988 -7.666269 4.609101
Sb 16.873988 -10.734874 1.540497
Sb 13.805384 -7.666269 7.677705
Sb 13.805384 -4.597665 -19.939734
Sb 13.805384 -4.597665 -13.802525
Sb 13.805384 -1.529061 -16.871129
Sb 16.873988 -1.529061 -13.802525
Sb 16.873988 -4.597665 -16.871129
Sb 13.805384 -4.597665 -7.665316
Sb 13.805384 -1.529061 -10.733921
Sb 16.873988 -1.529061 -7.665316
Sb 16.873988 -4.597665 -10.733921
Sb 13.805384 -4.597665 -1.528108
Sb 13.805384 -1.529061 -4.596712
Sb 16.873988 -1.529061 -1.528108
Sb 16.873988 -4.597665 -4.596712
Sb 13.805384 -4.597665 4.609101
Sb 13.805384 -1.529061 1.540497
Sb 16.873988 -1.529061 4.609101
Sb 16.873988 -4.597665 1.540497
Sb 13.805384 -4.597665 10.746309
Sb 13.805384 -1.529061 7.677705
Sb 16.873988 -1.529061 10.746309
Sb 16.873988 -4.597665 7.677705
Sb 13.805384 -1.529061 13.814914
Sb 13.805384 1.539544 -13.802525
Sb 13.805384 1.539544 -7.665316
Sb 13.805384 4.608148 -10.733921
Sb 16.873988 4.608148 -7.665316
Sb 16.873988 1.539544 -10.733921
Sb 13.805384 1.539544 -1.528108
Sb 13.805384 4.608148 -4.596712
Sb 16.873988 4.608148 -1.528108
Sb 16.873988 1.539544 -4.596712
Sb 13.805384 1.539544 4.609101
Sb 13.805384 4.608148 1.540497
Sb 16.873988 4.608148 4.609101
Sb 16.873988 1.539544 1.540497
Sb 13.805384 1.539544 10.746309
Sb 13.805384 4.608148 7.677705
Sb 16.873988 4.608148 10.746309
Sb 16.873988 1.539544 7.677705
Sb 13.805384 1.539544 16.883518
Sb 13.805384 4.608148 13.814914
Sb 16.873988 4.608148 16.883518
Sb 16.873988 1.539544 13.814914
Sb 13.805384 4.608148 19.952122
Sb 13.805384 7.676752 -7.665316
Sb 13.805384 7.676752 -1.528108
Sb 13.805384 10.745357 -4.596712
Sb 16.873988 10.745357 -1.528108
Sb 16.873988 7.676752 -4.596712
Sb 13.805384 7.676752 4.609101
Sb 13.805384 10.745357 1.540497
Sb 16.873988 10.745357 4.609101
Sb 16.873988 7.676752 1.540497
Sb 13.805384 7.676752 10.746309
Sb 13.805384 10.745357 7.677705
Sb 16.873988 10.745357 10.746309
Sb 16.873988 7.676752 7.677705
Sb 13.805384 7.676752 16.883518
Sb 13.805384 10.745357 13.814914
Sb 16.873988 10.745357 16.883518
Sb 16.873988 7.676752 13.814914
Sb 13.805384 7.676752 23.020727
Sb 13.805384 10.745357 19.952122
Sb 16.873988 10.745357 23.020727
Sb 16.873988 7.676752 19.952122
Sb 13.805384 13.813961 -1.528108
Sb 13.805384 13.813961 4.609101
Sb 13.805384 16.882565 1.540497
Sb 16.873988 16.882565 4.609101
Sb 16.873988 13.813961 1.540497
Sb 13.805384 13.813961 10.746309
Sb 13.805384 16.882565 7.677705
Sb 16.873988 16.882565 10.746309
Sb 16.873988 13.813961 7.677705
Sb 13.805384 13.813961 16.883518
Sb 13.805384 16.882565 13.814914
Sb 16.873988 16.882565 16.883518
Sb 16.873988 13.813961 13.814914
Sb 13.805384 13.813961 23.020727
Sb 13.805384 16.882565 19.952122
Sb 16.873988 16.882565 23.020727
Sb 16.873988 13.813961 19.952122
Sb 13.805384 19.951169 4.609101
Sb 13.805384 19.951169 10.746309
Sb 13.805384 23.019774 7.677705
Sb 16.873988 23.019774 10.746309
Sb 16.873988 19.951169 7.677705
Sb 13.805384 19.951169 16.883518
Sb 13.805384 23.019774 13.814914
Sb 16.873988 23.019774 16.883518
Sb 16.873988 19.951169 13.814914
Sb 13.805384 19.951169 23.020727
Sb 13.805384 23.019774 19.952122
Sb 16.873988 23.019774 23.020727
Sb 16.873988 19.951169 19.952122
Sb 19.942593 -23.009291 -13.802525
Sb 19.942593 -19.940687 -16.871129
Sb 23.011197 -19.940687 -13.802525
Sb 19.942593 -19.940687 -10.733921
Sb 19.942593 -16.872082 -19.939734
Sb 19.942593 -13.803478 -23.008338
Sb 23.011197 -13.803478 -19.939734
Sb 23.011197 -16.872082 -23.008338
Sb 19.942593 -16.872082 -13.802525
Sb 19.942593 -13.803478 -16.871129
Sb 23.011197 -13.803478 -13.802525
Sb 23.011197 -16.872082 -16.871129
Sb 19.942593 -16.872082 -7.665316
Sb 19.942593 -13.803478 -10.733921
Sb 23.011197 -13.803478 -7.665316
Sb 23.011197 -16.872082 -10.733921
Sb 19.942593 -13.803478 -4.596712
Sb 19.942593 -10.734874 -19.939734
Sb 19.942593 -10.734874 -13.802525
Sb 19.942593 -7.666269 -16.871129
Sb 23.011197 -7.666269 -13.802525
Sb 23.011197 -10.734874 -16.871129
Sb 19.942593 -10.734874 -7.665316
Sb 19.942593 -7.666269 -10.733921
Sb 23.011197 -7.666269 -7.665316
Sb 23.011197 -10.734874 -10.733921
Sb 19.942593 -10.734874 -1.528108
Sb 19.942593 -7.666269 -4.596712
Sb 23.011197 -7.666269 -1.528108
Sb 23.011197 -10.734874 -4.596712
Sb 19.942593 -7.666269 1.540497
Sb 19.942593 -4.597665 -13.802525
Sb 19.942593 -4.597665 -7.665316
Sb 19.942593 -1.529061 -10.733921
Sb 23.011197 -1.529061 -7.665316
Sb 23.011197 -4.597665 -10.733921
Sb 19.942593 -4.597665 -1.528108
Sb 19.942593 -1.529061 -4.596712
Sb 23.011197 -1.529061 -1.528108
Sb 23.011197 -4.597665 -4.596712
Sb 19.942593 -4.597665 4.609101
Sb 19.942593 -1.529061 1.540497
Sb 23.011197 -1.529061 4.609101
Sb 23.011197 -4.597665 1.540497
Sb 19.942593 -1.529061 7.677705
Sb 19.942593 1.539544 -7.665316
Sb 19.942593 1.539544 -1.528108
Sb 19.942593 4.608148 -4.596712
Sb 23.011197 4.608148 -1.528108
Sb 23.011197 1.539544 -4.596712
Sb 19.942593 1.539544 4.609101
Sb 19.942593 4.608148 1.540497
Sb 23.011197 4.608148 4.609101
Sb 23.011197 1.539544 1.540497
Sb 19.942593 1.539544 10.746309
Sb 19.942593 4.608148 7.677705
Sb 23.011197 4.608148 10.746309
Sb 23.011197 1.539544 7.677705
Sb 19.942593 4.608148 13.814914
Sb 19.942593 7.676752 -1.528108
Sb 19.942593 7.676752 4.609101
Sb 19.942593 10.745357 1.540497
Sb 23.011197 10.745357 4.609101
Sb 23.011197 7.676752 1.540497
Sb 19.942593 7.676752 10.746309
Sb 19.942593 10.745357 7.677705
Sb 23.011197 10.745357 10.746309
Sb 23.011197 7.676752 7.677705
Sb 19.942593 7.676752 16.883518
Sb 19.942593 10.745357 13.814914
Sb 23.011197 10.745357 16.883518
Sb 23.011197 7.676752 13.814914
Sb 19.942593 10.745357 19.952122
Sb 19.942593 13.813961 4.609101
Sb 19.942593 13.813961 10.746309
Sb 19.942593 16.882565 7.677705
Sb 23.011197 16.882565 10.746309
Sb 23.011197 13.813961 7.677705
Sb 19.942593 13.813961 16.883518
Sb 19.942593 16.882565 13.814914
Sb 23.011197 16.882565 16.883518
Sb 23.011197 13.813961 13.814914
Sb 19.942593 13.813961 23.020727
Sb 19.942593 16.882565 19.952122
Sb 23.011197 16.882565 23.020727
Sb 23.011197 13.813961 19.952122
Sb 19.942593 19.951169 10.746309
Sb 19.942593 19.951169 16.883518
Sb 19.942593 23.019774 13.814914
Sb 23.011197 19.951169 13.814914
Cl -26.086472 -19.940687 16.883518
Cl -26.086472 -13.803478 10.746309
Cl -26.086472 -13.803478 16.883518
Cl -26.086472 -16.872082 13.814914
Cl -26.086472 -16.872082 19.952122
Cl -26.086472 -7.666269 4.609101
Cl -26.086472 -7.666269 10.746309
Cl -26.086472 -10.734874 7.677705
Cl -26.086472 -10.734874 13.814914
Cl -26.086472 -1.529061 -1.528108
Cl -26.086472 -1.529061 4.609101
Cl -26.086472 -4.597665 1.540497
Cl -26.086472 -4.597665 7.677705
Cl -26.086472 4.608148 -7.665316
Cl -26.086472 4.608148 -1.528108
Cl -26.086472 1.539544 -4.596712
Cl -26.086472 1.539544 1.540497
Cl -26.086472 10.745357 -13.802525
Cl -26.086472 10.745357 -7.665316
Cl -26.086472 7.676752 -10.733921
Cl -26.086472 7.676752 -4.596712
Cl -26.086472 16.882565 -19.939734
Cl -26.086472 16.882565 -13.802525
Cl -26.086472 13.813961 -16.871129
Cl -26.086472 13.813961 -10.733921
Cl -26.086472 19.951169 -16.871129
Cl -19.949263 -26.077895 16.883518
Cl -23.017868 -23.009291 16.883518
Cl -23.017868 -19.940687 19.952122
Cl -19.949263 -19.940687 23.020727
Cl -19.949263 -23.009291 19.952122
Cl -19.949263 -16.872082 26.089331
Cl -19.949263 16.882565 -26.076942
Cl -23.017868 19.951169 -19.939734
Cl -19.949263 23.019774 -19.939734
Cl -19.949263 19.951169 -23.008338
Cl -23.017868 23.019774 -16.871129
Cl -19.949263 26.088378 -16.871129
Cl -13.812055 -26.077895 10.746309
Cl -16.880659 -26.077895 13.814914
Cl -13.812055 -26.077895 16.883518
Cl -16.880659 -26.077895 19.952122
Cl -16.880659 -19.940687 26.089331
Cl -16.880659 -13.803478 26.089331
Cl -13.812055 -16.872082 26.089331
Cl -13.812055 -10.734874 26.089331
Cl -13.812055 10.745357 -26.076942
Cl -16.880659 13.813961 -26.076942
Cl -13.812055 16.882565 -26.076942
Cl -16.880659 19.951169 -26.076942
Cl -16.880659 26.088378 -19.939734
Cl -16.880659 26.088378 -13.802525
Cl -13.812055 26.088378 -16.871129
Cl -13.812055 26.088378 -10.733921
Cl -7.674846 -26.077895 4.609101
Cl -10.743451 -26.077895 7.677705
Cl -7.674846 -26.077895 10.746309
Cl -10.743451 -26.077895 13.814914
Cl -10.743451 -13.803478 26.089331
Cl -10.743451 -7.666269 26.089331
Cl -7.674846 -10.734874 26.089331
Cl -7.674846 -4.597665 26.089331
Cl -7.674846 4.608148 -26.076942
Cl -10.743451 7.676752 -26.076942
Cl -7.674846 10.745357 -26.076942
Cl -10.743451 13.813961 -26.076942
Cl -10.743451 26.088378 -13.802525
Cl -10.743451 26.088378 -7.665316
Cl -7.674846 26.088378 -10.733921
Cl -7.674846 26.088378 -4.596712
Cl -1.537638 -26.077895 -1.528108
Cl -4.606242 -26.077895 1.540497
Cl -1.537638 -26.077895 4.609101
Cl -4.606242 -26.077895 7.677705
Cl -4.606242 -7.666269 26.089331
Cl -1.537638 -1.529061 -26.076942
Cl -4.606242 -1.529061 26.089331
Cl -1.537638 -4.597665 26.089331
Cl -4.606242 1.539544 -26.076942
Cl -1.537638 4.608148 -26.076942
Cl -1.537638 1.539544 26.089331
Cl -4.606242 7.676752 -26.076942
Cl -4.606242 26.088378 -7.665316
Cl -4.606242 26.088378 -1.528108
Cl -1.537638 26.088378 -4.596712
Cl -1.537638 26.088378 1.540497
Cl 4.599571 -26.077895 -7.665316
Cl 1.530967 -26.077895 -4.596712
Cl 4.599571 -26.077895 -1.528108
Cl 1.530967 -26.077895 1.540497
Cl 4.599571 -7.666269 -26.076942
Cl 1.530967 -4.597665 -26.076942
Cl 4.599571 -1.529061 -26.076942
Cl 1.530967 -1.529061 26.089331
Cl 1.530967 1.539544 -26.076942
Cl 1.530967 4.608148 26.089331
Cl 4.599571 1.539544 26.089331
Cl 4.599571 7.676752 26.089331
Cl 1.530967 26.088378 -1.528108
Cl 1.530967 26.088378 4.609101
Cl 4.599571 26.088378 1.540497
Cl 4.599571 26.088378 7.677705
Cl 10.736780 -26.077895 -13.802525
Cl 7.668175 -26.077895 -10.733921
Cl 10.736780 -26.077895 -7.665316
Cl 7.668175 -26.077895 -4.596712
Cl 10.736780 -13.803478 -26.076942
Cl 7.668175 -10.734874 -26.076942
Cl 10.736780 -7.666269 -26.076942
Cl 7.668175 -4.597665 -26.076942
Cl 7.668175 4.608148 26.089331
Cl 7.668175 10.745357 26.089331
Cl 10.736780 7.676752 26.089331
Cl 10.736780 13.813961 26.089331
Cl 7.668175 26.088378 4.609101
Cl 7.668175 26.088378 10.746309
Cl 10.736780 26.088378 7.677705
Cl 10.736780 26.088378 13.814914
Cl 16.873988 -26.077895 -19.939734
Cl 13.805384 -26.077895 -16.871129
Cl 16.873988 -26.077895 -13.802525
Cl 13.805384 -26.077895 -10.733921
Cl 16.873988 -19.940687 -26.076942
Cl 13.805384 -16.872082 -26.076942
Cl 16.873988 -13.803478 -26.076942
Cl 13.805384 -10.734874 -26.076942
Cl 13.805384 10.745357 26.089331
Cl 13.805384 16.882565 26.089331
Cl 16.873988 13.813961 26.089331
Cl 16.873988 19.951169 26.089331
Cl 13.805384 26.088378 10.746309
Cl 13.805384 26.088378 16.883518
Cl 16.873988 26.088378 13.814914
Cl 16.873988 26.088378 19.952122
Cl 19.942593 -26.077895 -16.871129
Cl 19.942593 -23.009291 -19.939734
Cl 19.942593 -19.940687 -23.008338
Cl 23.011197 -19.940687 -19.939734
Cl 23.011197 -23.009291 -16.871129
Cl 19.942593 -16.872082 -26.076942
Cl 19.942593 16.882565 26.089331
Cl 23.011197 23.019774 16.883518
Cl 19.942593 19.951169 23.020727
Cl 19.942593 23.019774 19.952122
Cl 23.011197 19.951169 19.952122
Cl 19.942593 26.088378 16.883518
Cl 26.079801 -19.940687 -16.871129
Cl 26.079801 -16.872082 -19.939734
Cl 26.079801 -16.872082 -13.802525
Cl 26.079801 -13.803478 -16.871129
Cl 26.079801 -13.803478 -10.733921
Cl 26.079801 -10.734874 -13.802525
Cl 26.079801 -10.734874 -7.665316
Cl 26.079801 -7.666269 -10.733921
Cl 26.079801 -7.666269 -4.596712
Cl 26.079801 -4.597665 -7.665316
Cl 26.079801 -4.597665 -1.528108
Cl 26.079801 -1.529061 -4.596712
Cl 26.079801 -1.529061 1.540497
Cl 26.079801 1.539544 -1.528108
Cl 26.079801 1.539544 4.609101
Cl 26.079801 4.608148 1.540497
Cl 26.079801 4.608148 7.677705
Cl 26.079801 7.676752 4.609101
Cl 26.079801 7.676752 10.746309
Cl 26.079801 10.745357 7.677705
Cl 26.079801 10.745357 13.814914
Cl 26.079801 13.813961 10.746309
Cl 26.079801 13.813961 16.883518
Cl 26.079801 16.882565 13.814914
Cl 26.079801 16.882565 19.952122
Cl 26.079801 19.951169 16.883518
Cl -10.743451 -10.734874 -13.802525
Cl -13.812055 10.745357 10.746309
Cl 10.736780 -13.803478 10.746309
Cl 10.736780 10.745357 -13.802525
Cl -23.017868 -26.077895 13.814914
Cl 13.805384 23.019774 26.089331
Cl 23.011197 13.813961 26.089331
Cl 23.011197 26.088378 13.814914
Cl -26.086472 13.813961 -23.008338
Cl -23.017868 26.088378 -13.802525
Cl 26.079801 -23.009291 -13.802525
Cl 26.079801 -13.803478 -23.008338
Cl -23.017868 -13.803478 26.089331
Cl -13.812055 -23.009291 26.089331
Cl -13.812055 26.088378 -23.008338
Cl 13.805384 -26.077895 -23.008338
Cl -26.086472 -7.666269 -1.528108
Cl -1.537638 26.088378 7.677705
Cl 26.079801 -1.529061 7.677705
Cl 26.079801 7.676752 -1.528108
Cl -7.674846 -26.077895 -1.528108
Cl -1.537638 7.676752 26.089331
Cl 7.668175 -1.529061 26.089331
Cl 7.668175 26.088378 -1.528108
Cl -26.086472 10.745357 -1.528108
Cl -10.743451 1.539544 -26.076942
Cl 10.736780 -26.077895 -1.528108
Cl 10.736780 -1.529061 -26.076942
Cl -26.086472 -1.529061 10.746309
Cl -1.537638 -26.077895 10.746309
Cl -1.537638 10.745357 -26.076942
Cl 1.530967 -10.734874 -26.076942
Cl -23.017868 1.539544 -13.802525
Cl -13.812055 23.019774 -1.528108
Cl 23.011197 -13.803478 -1.528108
Cl 23.011197 -1.529061 -13.802525
Cl -13.812055 -1.529061 23.020727
Cl -1.537638 -13.803478 23.020727
Cl -1.537638 23.019774 -13.802525
Cl 1.530967 -23.009291 -13.802525
Cl -16.880659 -16.872082 -1.528108
Cl -1.537638 16.882565 16.883518
Cl 16.873988 -1.529061 16.883518
Cl 16.873988 16.882565 -1.528108
Cl -26.086472 -16.872082 7.677705
Cl 7.668175 26.088378 16.883518
Cl 26.079801 7.676752 16.883518
Cl 26.079801 16.882565 7.677705
Cl -26.086472 -7.666269 16.883518
Cl -7.674846 -26.077895 16.883518
Cl -7.674846 16.882565 -26.076942
Cl 7.668175 -16.872082 -26.076942
Cl -26.086472 16.882565 -7.665316
Cl -16.880659 7.676752 -26.076942
Cl 16.873988 -26.077895 -7.665316
Cl 16.873988 -7.666269 -26.076942
Cl -16.880659 -26.077895 7.677705
Cl 7.668175 16.882565 26.089331
Cl 16.873988 7.676752 26.089331
Cl 16.873988 26.088378 7.677705
Cl -26.086472 4.608148 4.609101
Cl -4.606242 -4.597665 -26.076942
Cl 4.599571 -26.077895 4.609101
Cl 4.599571 4.608148 -26.076942
Cl -19.949263 -7.666269 -7.665316
Cl -7.674846 19.951169 7.677705
Cl 19.942593 -7.666269 7.677705
Cl 19.942593 7.676752 -7.665316
Cl -7.674846 -19.940687 -7.665316
Cl -7.674846 7.676752 19.952122
Cl 7.668175 -7.666269 19.952122
Cl 7.668175 19.951169 -7.665316
Cl -16.880659 1.539544 -19.939734
Cl -19.949263 16.882565 -1.528108
Cl 16.873988 -19.940687 -1.528108
Cl 16.873988 -1.529061 -19.939734
Cl -19.949263 -1.529061 16.883518
Cl -1.537638 -19.940687 16.883518
Cl -1.537638 16.882565 -19.939734
Cl 1.530967 -16.872082 -19.939734
Cl -19.949263 10.745357 4.609101
Cl -10.743451 -4.597665 -19.939734
Cl 10.736780 -19.940687 4.609101
Cl 10.736780 4.608148 -19.939734
Cl -19.949263 4.608148 10.746309
Cl -4.606242 -10.734874 -19.939734
Cl 4.599571 -19.940687 10.746309
Cl 4.599571 10.745357 -19.939734
Cl -26.086472 7.676752 -16.871129
Cl -16.880659 26.088378 -7.665316
Cl 26.079801 -16.872082 -7.665316
Cl 26.079801 -7.666269 -16.871129
Cl -16.880659 -7.666269 26.089331
Cl -7.674846 -16.872082 26.089331
Cl -7.674846 26.088378 -16.871129
Cl 7.668175 -26.077895 -16.871129
Cl -26.086472 -1.529061 -7.665316
Cl -7.674846 26.088378 1.540497
Cl 26.079801 -7.666269 1.540497
Cl 26.079801 1.539544 -7.665316
Cl -7.674846 1.539544 26.089331
Cl -1.537638 -26.077895 -7.665316
Cl 1.530967 -7.666269 26.089331
Cl 1.530967 26.088378 -7.665316
Cl -19.949263 -19.940687 4.609101
Cl 4.599571 19.951169 19.952122
Cl 19.942593 4.608148 19.952122
Cl 19.942593 19.951169 4.609101
Cl -13.812055 -13.803478 -7.665316
Cl -7.674846 13.813961 13.814914
Cl 13.805384 -7.666269 13.814914
Cl 13.805384 13.813961 -7.665316
Cl -23.017868 -13.803478 1.540497
Cl 1.530967 23.019774 13.814914
Cl 23.011197 1.539544 13.814914
Cl 23.011197 13.813961 1.540497
Cl -13.812055 4.608148 16.883518
Cl -4.606242 -16.872082 -13.802525
Cl 4.599571 -13.803478 16.883518
Cl 4.599571 16.882565 -13.802525
Cl -16.880659 -4.597665 -13.802525
Cl -13.812055 16.882565 4.609101
Cl 16.873988 -13.803478 4.609101
Cl 16.873988 4.608148 -13.802525
Cl -13.812055 -23.009291 1.540497
Cl 1.530967 13.813961 23.020727
Cl 13.805384 1.539544 23.020727
Cl 13.805384 23.019774 1.540497
Cl -23.017868 13.813961 -26.076942
Cl -26.086472 23.019774 -13.802525
Cl 23.011197 -26.077895 -13.802525
Cl 23.011197 -13.803478 -26.076942
Cl -26.086472 -13.803478 23.020727
Cl -13.812055 -26.077895 23.020727
Cl -13.812055 23.019774 -26.076942
Cl 13.805384 -23.009291 -26.076942
Cl -26.086472 -23.009291 13.814914
Cl 13.805384 26.088378 23.020727
Cl 26.079801 13.813961 23.020727
Cl 26.079801 23.019774 13.814914
Cl -23.017868 7.676752 -19.939734
Cl -19.949263 -7.666269 23.020727
Cl -7.674846 -19.940687 23.020727
Cl -7.674846 23.019774 -19.939734
Cl -19.949263 23.019774 -7.665316
Cl 7.668175 -23.009291 -19.939734
Cl 23.011197 -19.940687 -7.665316
Cl 23.011197 -7.666269 -19.939734
Cl -19.949263 -10.734874 -4.596712
Cl -4.606242 10.745357 19.952122
Cl 10.736780 -4.597665 19.952122
Cl 10.736780 19.951169 -4.596712
Cl -10.743451 -19.940687 -4.596712
Cl -4.606242 19.951169 10.746309
Cl 19.942593 -4.597665 10.746309
Cl 19.942593 10.745357 -4.596712
Cl -26.086472 1.539544 -10.733921
Cl -10.743451 -1.529061 26.089331
Cl -1.537638 -10.734874 26.089331
Cl -1.537638 26.088378 -10.733921
Cl -10.743451 26.088378 -1.528108
Cl 1.530967 -26.077895 -10.733921
Cl 26.079801 -10.734874 -1.528108
Cl 26.079801 -1.529061 -10.733921
Cl -26.086472 -4.597665 13.814914
Cl -13.812055 4.608148 -26.076942
Cl -4.606242 -26.077895 13.814914
Cl -4.606242 13.813961 -26.076942
Cl -26.086472 13.813961 -4.596712
Cl 4.599571 -13.803478 -26.076942
Cl 13.805384 -26.077895 -4.596712
Cl 13.805384 -4.597665 -26.076942
Cl -26.086472 -19.940687 10.746309
Cl 10.736780 19.951169 26.089331
Cl 19.942593 10.745357 26.089331
Cl 19.942593 26.088378 10.746309
Cl -13.812055 -26.077895 4.609101
Cl 4.599571 26.088378 13.814914
Cl 26.079801 4.608148 13.814914
Cl 26.079801 13.813961 4.609101
Cl -26.086472 -10.734874 1.540497
Cl 1.530967 10.745357 26.089331
Cl 10.736780 1.539544 26.089331
Cl 10.736780 26.088378 1.540497
Cl -26.086472 7.676752 1.540497
Cl -1.537638 -7.666269 -26.076942
Cl 7.668175 -26.077895 1.540497
Cl 7.668175 1.539544 -26.076942
Cl -26.086472 -10.734874 19.952122
Cl -19.949263 10.745357 -26.076942
Cl -10.743451 -26.077895 19.952122
Cl -10.743451 19.951169 -26.076942
Cl -26.086472 19.951169 -10.733921
Cl 10.736780 -19.940687 -26.076942
Cl 19.942593 -26.077895 -10.733921
Cl 19.942593 -10.734874 -26.076942
Cl -19.949263 -26.077895 10.746309
Cl 10.736780 26.088378 19.952122
Cl 26.079801 10.745357 19.952122
Cl 26.079801 19.951169 10.746309
Cl -26.086472 1.539544 7.677705
Cl -7.674846 -1.529061 -26.076942
Cl 1.530967 -26.077895 7.677705
Cl 1.530967 7.676752 -26.076942
Cl -4.606242 -26.077895 -4.596712
Cl -4.606242 26.088378 4.609101
Cl 26.079801 -4.597665 4.609101
Cl 26.079801 4.608148 -4.596712
Cl -26.086472 -4.597665 -4.596712
Cl -4.606242 4.608148 26.089331
Cl 4.599571 -4.597665 26.089331
Cl 4.599571 26.088378 -4.596712
Cl -13.812055 13.813961 7.677705
Cl -7.674846 -13.803478 -13.802525
Cl 13.805384 -13.803478 7.677705
Cl 13.805384 7.676752 -13.802525
Cl -16.880659 -1.529061 -16.871129
Cl -16.880659 1.539544 16.883518
Cl 1.530967 -16.872082 16.883518
Cl 1.530967 16.882565 -16.871129
Cl -16.880659 19.951169 -1.528108
Cl 1.530967 -19.940687 -16.871129
Cl 19.942593 -16.872082 -1.528108
Cl 19.942593 -1.529061 -16.871129
Cl -19.949263 7.676752 7.677705
Cl -7.674846 -7.666269 -19.939734
Cl 7.668175 -19.940687 7.677705
Cl 7.668175 7.676752 -19.939734
Cl -16.880659 -7.666269 -10.733921
Cl -10.743451 7.676752 16.883518
Cl 7.668175 -10.734874 16.883518
Cl 7.668175 16.882565 -10.733921
Cl -19.949263 -4.597665 19.952122
Cl -19.949263 4.608148 -19.939734
Cl -4.606242 -19.940687 19.952122
Cl -4.606242 19.951169 -19.939734
Cl -10.743451 19.951169 4.609101
Cl -4.606242 -19.940687 -10.733921
Cl 19.942593 -10.734874 4.609101
Cl 19.942593 4.608148 -10.733921
Cl -19.949263 26.088378 -10.733921
Cl 10.736780 -26.077895 -19.939734
Cl 26.079801 -19.940687 -10.733921
Cl 26.079801 -10.734874 -19.939734
Cl -19.949263 13.813961 1.540497
Cl -1.537638 -13.803478 -19.939734
Cl 13.805384 -19.940687 1.540497
Cl 13.805384 1.539544 -19.939734
Cl -26.086472 10.745357 -19.939734
Cl -19.949263 -10.734874 26.089331
Cl -10.743451 -19.940687 26.089331
Cl -10.743451 26.088378 -19.939734
Cl -26.086472 -13.803478 4.609101
Cl 4.599571 13.813961 26.089331
Cl 13.805384 4.608148 26.089331
Cl 13.805384 26.088378 4.609101
Cl -10.743451 -26.077895 1.540497
Cl 1.530967 26.088378 10.746309
Cl 26.079801 1.539544 10.746309
Cl 26.079801 10.745357 1.540497
Cl -26.086472 4.608148 -13.802525
Cl -13.812055 -4.597665 26.089331
Cl -4.606242 -13.803478 26.089331
Cl -4.606242 26.088378 -13.802525
Cl -13.812055 26.088378 -4.596712
Cl 4.599571 -26.077895 -13.802525
Cl 26.079801 -13.803478 -4.596712
Cl 26.079801 -4.597665 -13.802525
Cl -23.017868 -19.940687 7.677705
Cl 7.668175 19.951169 23.020727
Cl 19.942593 7.676752 23.020727
Cl 19.942593 23.019774 7.677705
Cl -13.812055 -16.872082 -4.596712
Cl -4.606242 16.882565 13.814914
Cl 16.873988 -4.597665 13.814914
Cl 16.873988 13.813961 -4.596712
Cl -23.017868 1.539544 10.746309
Cl -10.743451 -1.529061 -23.008338
Cl 1.530967 -23.009291 10.746309
Cl 1.530967 10.745357 -23.008338
Cl -23.017868 19.951169 -7.665316
Cl 7.668175 -19.940687 -23.008338
Cl 19.942593 -23.009291 -7.665316
Cl 19.942593 -7.666269 -23.008338
Cl -23.017868 -4.597665 -7.665316
Cl -7.674846 4.608148 23.020727
Cl 4.599571 -7.666269 23.020727
Cl 4.599571 23.019774 -7.665316
Cl -16.880659 -19.940687 1.540497
Cl 1.530967 19.951169 16.883518
Cl 19.942593 1.539544 16.883518
Cl 19.942593 16.882565 1.540497
Cl -13.812055 -7.666269 -13.802525
Cl -13.812055 7.676752 13.814914
Cl 7.668175 -13.803478 13.814914
Cl 7.668175 13.813961 -13.802525
Cl -19.949263 -13.803478 -1.528108
Cl -1.537638 13.813961 19.952122
Cl 13.805384 -1.529061 19.952122
Cl 13.805384 19.951169 -1.528108
Cl -10.743451 -13.803478 -10.733921
Cl -10.743451 13.813961 10.746309
Cl 13.805384 -10.734874 10.746309
Cl 13.805384 10.745357 -10.733921
Cl -19.949263 -1.529061 -13.802525
Cl -13.812055 1.539544 19.952122
Cl 1.530967 -13.803478 19.952122
Cl 1.530967 19.951169 -13.802525
Cl -23.017868 -7.666269 19.952122
Cl -19.949263 7.676752 -23.008338
Cl -7.674846 -23.009291 19.952122
Cl -7.674846 19.951169 -23.008338
Cl -23.017868 13.813961 -1.528108
Cl 1.530967 -13.803478 -23.008338
Cl 13.805384 -23.009291 -1.528108
Cl 13.805384 -1.529061 -23.008338
Cl -19.949263 -23.009291 7.677705
Cl 7.668175 23.019774 19.952122
Cl 23.011197 7.676752 19.952122
Cl 23.011197 19.951169 7.677705
Cl -4.606242 -23.009291 -7.665316
Cl -7.674846 23.019774 4.609101
Cl 23.011197 -7.666269 4.609101
Cl 23.011197 4.608148 -7.665316
Cl -23.017868 7.676752 4.609101
Cl -4.606242 -7.666269 -23.008338
Cl 7.668175 -23.009291 4.609101
Cl 7.668175 4.608148 -23.008338
Cl -23.017868 -1.529061 13.814914
Cl -13.812055 1.539544 -23.008338
Cl -1.537638 -23.009291 13.814914
Cl -1.537638 13.813961 -23.008338
Cl -10.743451 -23.009291 -1.528108
Cl -1.537638 23.019774 10.746309
Cl 23.011197 -1.529061 10.746309
Cl 23.011197 10.745357 -1.528108
Cl -19.949263 19.951169 -4.596712
Cl 4.599571 -19.940687 -19.939734
Cl 19.942593 -19.940687 -4.596712
Cl 19.942593 -4.597665 -19.939734
Cl -13.812055 19.951169 1.540497
Cl -1.537638 -19.940687 -13.802525
Cl 19.942593 -13.803478 1.540497
Cl 19.942593 1.539544 -13.802525
Cl -16.880659 7.676752 10.746309
Cl -10.743451 -7.666269 -16.871129
Cl 7.668175 -16.872082 10.746309
Cl 7.668175 10.745357 -16.871129
Cl -16.880659 -10.734874 -7.665316
Cl -7.674846 10.745357 16.883518
Cl 10.736780 -7.666269 16.883518
Cl 10.736780 16.882565 -7.665316
Cl -16.880659 13.813961 4.609101
Cl -4.606242 -13.803478 -16.871129
Cl 13.805384 -16.872082 4.609101
Cl 13.805384 4.608148 -16.871129
Cl -23.017868 -10.734874 -1.528108
Cl -1.537638 10.745357 23.020727
Cl 10.736780 -1.529061 23.020727
Cl 10.736780 23.019774 -1.528108
Cl -23.017868 4.608148 -16.871129
Cl -16.880659 -4.597665 23.020727
Cl -4.606242 -16.872082 23.020727
Cl -4.606242 23.019774 -16.871129
Cl -23.017868 -16.872082 4.609101
Cl 4.599571 16.882565 23.020727
Cl 16.873988 4.608148 23.020727
Cl 16.873988 23.019774 4.609101
Cl -23.017868 -1.529061 -10.733921
Cl -10.743451 1.539544 23.020727
Cl 1.530967 -10.734874 23.020727
Cl 1.530967 23.019774 -10.733921
Cl 10.736780 -23.009291 -23.008338
Cl 23.011197 -10.734874 -23.008338
Cl 10.736780 23.019774 23.020727
Cl 23.011197 10.745357 23.020727
Cl -23.017868 -10.734874 23.020727
Cl -23.017868 10.745357 -23.008338
Cl -10.743451 -23.009291 23.020727
Cl -10.743451 23.019774 -23.008338
Cl -19.949263 1.539544 13.814914
Cl 1.530967 -19.940687 13.814914
Cl -13.812055 -1.529061 -19.939734
Cl 1.530967 13.813961 -19.939734
Cl -10.743451 -16.872082 -7.665316
Cl 16.873988 10.745357 -7.665316
Cl -7.674846 16.882565 10.746309
Cl 16.873988 -7.666269 10.746309
Cl -16.880659 -23.009291 4.609101
Cl 23.011197 16.882565 4.609101
Cl -16.880659 23.019774 -4.596712
Cl 23.011197 -16.872082 -4.596712
Cl 4.599571 23.019774 16.883518
Cl 23.011197 4.608148 16.883518
Cl 4.599571 -23.009291 -16.871129
Cl 23.011197 -4.597665 -16.871129
Cl -23.017868 16.882565 -4.596712
Cl 16.873988 -23.009291 -4.596712
Cl -1.537638 -10.734874 -23.008338
Cl 10.736780 1.539544 -23.008338
Cl -7.674846 -23.009291 -4.596712
Cl 23.011197 7.676752 -4.596712
Cl -4.606242 23.019774 7.677705
Cl 23.011197 -4.597665 7.677705
Cl -23.017868 -4.597665 16.883518
Cl -4.606242 -23.009291 16.883518
Cl -16.880659 4.608148 -23.008338
Cl -4.606242 16.882565 -23.008338
Cl -23.017868 -7.666269 -4.596712
Cl 7.668175 23.019774 -4.596712
Cl -4.606242 7.676752 23.020727
Cl 7.668175 -4.597665 23.020727
Cl -23.017868 10.745357 1.540497
Cl 10.736780 -23.009291 1.540497
Cl 4.599571 -16.872082 -23.008338
Cl 16.873988 -4.597665 -23.008338
Cl -10.743451 23.019774 1.540497
Cl 23.011197 -10.734874 1.540497
Cl -1.537638 -23.009291 -10.733921
