29
PbSe-Se-Pb14Se13Cl2-clean
Pb -3.090824 -3.090824 -3.090824
Pb -3.090824 -3.090824 3.090824
Pb -3.090824 3.090824 -3.090824
Pb -3.090824 0.000000 -0.000000
Pb -3.090824 3.090824 3.090824
Pb 3.090824 -3.090824 -3.090824
Pb -0.000000 -3.090824 -0.000000
Pb 3.090824 -3.090824 3.090824
Pb -0.000000 0.000000 -3.090824
Pb 3.090824 3.090824 -3.090824
Pb 3.090824 0.000000 0.000000
Pb -0.000000 3.090824 0.000000
Pb -0.000000 0.000000 3.090824
Pb 3.090824 3.090824 3.090824
Se -3.090824 -3.090824 -0.000000
Se -3.090824 0.000000 -3.090824
Se -3.090824 3.090824 0.000000
Se -3.090824 0.000000 3.090824
Se -0.000000 -3.090824 -3.090824
Se 3.090824 -3.090824 0.000000
Se -0.000000 -3.090824 3.090824
Se -0.000000 0.000000 0.000000
Se 3.090824 0.000000 -3.090824
Se -0.000000 3.090824 -3.090824
Se 3.090824 3.090824 0.000000
Se 3.090824 0.000000 3.090824
Se -0.000000 3.090824 3.090824
Cl -6.181647 -3.090824 -3.090824
Cl 6.181647 3.090824 3.090824
