7301
ZnS-S-Zn3552S3355Cl394-clean
Zn -25.589249 -20.203359 -1.352745
Zn -25.589249 -22.897042 1.340938
Zn -28.282932 -20.203359 1.340938
Zn -25.589249 -20.203359 4.034621
Zn -25.589249 -14.815994 -6.740110
Zn -25.589249 -17.509677 -4.046427
Zn -28.282932 -14.815994 -4.046427
Zn -28.282932 -17.509677 -1.352745
Zn -25.589249 -14.815994 -1.352745
Zn -25.589249 -17.509677 1.340938
Zn -28.282932 -14.815994 1.340938
Zn -28.282932 -17.509677 4.034621
Zn -25.589249 -14.815994 4.034621
Zn -25.589249 -17.509677 6.728304
Zn -28.282932 -14.815994 6.728304
Zn -25.589249 -14.815994 9.421987
Zn -25.589249 -9.428628 -12.127476
Zn -25.589249 -12.122311 -9.433793
Zn -28.282932 -9.428628 -9.433793
Zn -28.282932 -12.122311 -6.740110
Zn -25.589249 -9.428628 -6.740110
Zn -25.589249 -12.122311 -4.046427
Zn -28.282932 -9.428628 -4.046427
Zn -28.282932 -12.122311 -1.352745
Zn -25.589249 -9.428628 -1.352745
Zn -25.589249 -12.122311 1.340938
Zn -28.282932 -9.428628 1.340938
Zn -28.282932 -12.122311 4.034621
Zn -25.589249 -9.428628 4.034621
Zn -25.589249 -12.122311 6.728304
Zn -28.282932 -9.428628 6.728304
Zn -28.282932 -12.122311 9.421987
Zn -25.589249 -9.428628 9.421987
Zn -25.589249 -12.122311 12.115670
Zn -28.282932 -9.428628 12.115670
Zn -25.589249 -9.428628 14.809353
Zn -25.589249 -4.041262 -17.514842
Zn -25.589249 -6.734945 -14.821159
Zn -28.282932 -4.041262 -14.821159
Zn -28.282932 -6.734945 -12.127476
Zn -25.589249 -4.041262 -12.127476
Zn -25.589249 -6.734945 -9.433793
Zn -28.282932 -4.041262 -9.433793
Zn -28.282932 -6.734945 -6.740110
Zn -25.589249 -4.041262 -6.740110
Zn -25.589249 -6.734945 -4.046427
Zn -28.282932 -4.041262 -4.046427
Zn -28.282932 -6.734945 -1.352745
Zn -25.589249 -4.041262 -1.352745
Zn -25.589249 -6.734945 1.340938
Zn -28.282932 -4.041262 1.340938
Zn -28.282932 -6.734945 4.034621
Zn -25.589249 -4.041262 4.034621
Zn -25.589249 -6.734945 6.728304
Zn -28.282932 -4.041262 6.728304
Zn -28.282932 -6.734945 9.421987
Zn -25.589249 -4.041262 9.421987
Zn -25.589249 -6.734945 12.115670
Zn -28.282932 -4.041262 12.115670
Zn -28.282932 -6.734945 14.809353
Zn -25.589249 -4.041262 14.809353
Zn -25.589249 -6.734945 17.503036
Zn -28.282932 -4.041262 17.503036
Zn -25.589249 -4.041262 20.196718
Zn -25.589249 1.346104 -22.902208
Zn -25.589249 -1.347579 -20.208525
Zn -28.282932 1.346104 -20.208525
Zn -28.282932 -1.347579 -17.514842
Zn -25.589249 1.346104 -17.514842
Zn -25.589249 -1.347579 -14.821159
Zn -28.282932 1.346104 -14.821159
Zn -28.282932 -1.347579 -12.127476
Zn -25.589249 1.346104 -12.127476
Zn -25.589249 -1.347579 -9.433793
Zn -28.282932 1.346104 -9.433793
Zn -28.282932 -1.347579 -6.740110
Zn -25.589249 1.346104 -6.740110
Zn -25.589249 -1.347579 -4.046427
Zn -28.282932 1.346104 -4.046427
Zn -28.282932 -1.347579 -1.352745
Zn -25.589249 1.346104 -1.352745
Zn -25.589249 -1.347579 1.340938
Zn -28.282932 1.346104 1.340938
Zn -28.282932 -1.347579 4.034621
Zn -25.589249 1.346104 4.034621
Zn -25.589249 -1.347579 6.728304
Zn -28.282932 1.346104 6.728304
Zn -28.282932 -1.347579 9.421987
Zn -25.589249 1.346104 9.421987
Zn -25.589249 -1.347579 12.115670
Zn -28.282932 1.346104 12.115670
Zn -28.282932 -1.347579 14.809353
Zn -25.589249 1.346104 14.809353
Zn -25.589249 -1.347579 17.503036
Zn -28.282932 1.346104 17.503036
Zn -28.282932 -1.347579 20.196718
Zn -25.589249 1.346104 20.196718
Zn -25.589249 -1.347579 22.890401
Zn -25.589249 4.039786 -20.208525
Zn -28.282932 4.039786 -17.514842
Zn -25.589249 6.733469 -17.514842
Zn -25.589249 4.039786 -14.821159
Zn -28.282932 6.733469 -14.821159
Zn -28.282932 4.039786 -12.127476
Zn -25.589249 6.733469 -12.127476
Zn -25.589249 4.039786 -9.433793
Zn -28.282932 6.733469 -9.433793
Zn -28.282932 4.039786 -6.740110
Zn -25.589249 6.733469 -6.740110
Zn -25.589249 4.039786 -4.046427
Zn -28.282932 6.733469 -4.046427
Zn -28.282932 4.039786 -1.352745
Zn -25.589249 6.733469 -1.352745
Zn -25.589249 4.039786 1.340938
Zn -28.282932 6.733469 1.340938
Zn -28.282932 4.039786 4.034621
Zn -25.589249 6.733469 4.034621
Zn -25.589249 4.039786 6.728304
Zn -28.282932 6.733469 6.728304
Zn -28.282932 4.039786 9.421987
Zn -25.589249 6.733469 9.421987
Zn -25.589249 4.039786 12.115670
Zn -28.282932 6.733469 12.115670
Zn -28.282932 4.039786 14.809353
Zn -25.589249 6.733469 14.809353
Zn -25.589249 4.039786 17.503036
Zn -25.589249 9.427152 -14.821159
Zn -28.282932 9.427152 -12.127476
Zn -25.589249 12.120835 -12.127476
Zn -25.589249 9.427152 -9.433793
Zn -28.282932 12.120835 -9.433793
Zn -28.282932 9.427152 -6.740110
Zn -25.589249 12.120835 -6.740110
Zn -25.589249 9.427152 -4.046427
Zn -28.282932 12.120835 -4.046427
Zn -28.282932 9.427152 -1.352745
Zn -25.589249 12.120835 -1.352745
Zn -25.589249 9.427152 1.340938
Zn -28.282932 12.120835 1.340938
Zn -28.282932 9.427152 4.034621
Zn -25.589249 12.120835 4.034621
Zn -25.589249 9.427152 6.728304
Zn -28.282932 12.120835 6.728304
Zn -28.282932 9.427152 9.421987
Zn -25.589249 12.120835 9.421987
Zn -25.589249 9.427152 12.115670
Zn -25.589249 14.814518 -9.433793
Zn -28.282932 14.814518 -6.740110
Zn -25.589249 17.508201 -6.740110
Zn -25.589249 14.814518 -4.046427
Zn -28.282932 17.508201 -4.046427
Zn -28.282932 14.814518 -1.352745
Zn -25.589249 17.508201 -1.352745
Zn -25.589249 14.814518 1.340938
Zn -28.282932 17.508201 1.340938
Zn -28.282932 14.814518 4.034621
Zn -25.589249 17.508201 4.034621
Zn -25.589249 14.814518 6.728304
Zn -25.589249 20.201884 -4.046427
Zn -28.282932 20.201884 -1.352745
Zn -25.589249 22.895567 -1.352745
Zn -25.589249 20.201884 1.340938
Zn -20.201884 -25.590725 -1.352745
Zn -20.201884 -28.284408 1.340938
Zn -22.895567 -25.590725 1.340938
Zn -20.201884 -25.590725 4.034621
Zn -20.201884 -20.203359 -6.740110
Zn -20.201884 -22.897042 -4.046427
Zn -22.895567 -20.203359 -4.046427
Zn -22.895567 -22.897042 -1.352745
Zn -20.201884 -20.203359 -1.352745
Zn -20.201884 -22.897042 1.340938
Zn -22.895567 -20.203359 1.340938
Zn -22.895567 -22.897042 4.034621
Zn -20.201884 -20.203359 4.034621
Zn -20.201884 -22.897042 6.728304
Zn -22.895567 -20.203359 6.728304
Zn -20.201884 -20.203359 9.421987
Zn -20.201884 -14.815994 -12.127476
Zn -20.201884 -17.509677 -9.433793
Zn -22.895567 -14.815994 -9.433793
Zn -22.895567 -17.509677 -6.740110
Zn -20.201884 -14.815994 -6.740110
Zn -20.201884 -17.509677 -4.046427
Zn -22.895567 -14.815994 -4.046427
Zn -22.895567 -17.509677 -1.352745
Zn -20.201884 -14.815994 -1.352745
Zn -20.201884 -17.509677 1.340938
Zn -22.895567 -14.815994 1.340938
Zn -22.895567 -17.509677 4.034621
Zn -20.201884 -14.815994 4.034621
Zn -20.201884 -17.509677 6.728304
Zn -22.895567 -14.815994 6.728304
Zn -22.895567 -17.509677 9.421987
Zn -20.201884 -14.815994 9.421987
Zn -20.201884 -17.509677 12.115670
Zn -22.895567 -14.815994 12.115670
Zn -20.201884 -14.815994 14.809353
Zn -20.201884 -9.428628 -17.514842
Zn -20.201884 -12.122311 -14.821159
Zn -22.895567 -9.428628 -14.821159
Zn -22.895567 -12.122311 -12.127476
Zn -20.201884 -9.428628 -12.127476
Zn -20.201884 -12.122311 -9.433793
Zn -22.895567 -9.428628 -9.433793
Zn -22.895567 -12.122311 -6.740110
Zn -20.201884 -9.428628 -6.740110
Zn -20.201884 -12.122311 -4.046427
Zn -22.895567 -9.428628 -4.046427
Zn -22.895567 -12.122311 -1.352745
Zn -20.201884 -9.428628 -1.352745
Zn -20.201884 -12.122311 1.340938
Zn -22.895567 -9.428628 1.340938
Zn -22.895567 -12.122311 4.034621
Zn -20.201884 -9.428628 4.034621
Zn -20.201884 -12.122311 6.728304
Zn -22.895567 -9.428628 6.728304
Zn -22.895567 -12.122311 9.421987
Zn -20.201884 -9.428628 9.421987
Zn -20.201884 -12.122311 12.115670
Zn -22.895567 -9.428628 12.115670
Zn -22.895567 -12.122311 14.809353
Zn -20.201884 -9.428628 14.809353
Zn -20.201884 -12.122311 17.503036
Zn -22.895567 -9.428628 17.503036
Zn -20.201884 -9.428628 20.196718
Zn -20.201884 -4.041262 -22.902208
Zn -20.201884 -6.734945 -20.208525
Zn -22.895567 -4.041262 -20.208525
Zn -22.895567 -6.734945 -17.514842
Zn -20.201884 -4.041262 -17.514842
Zn -20.201884 -6.734945 -14.821159
Zn -22.895567 -4.041262 -14.821159
Zn -22.895567 -6.734945 -12.127476
Zn -20.201884 -4.041262 -12.127476
Zn -20.201884 -6.734945 -9.433793
Zn -22.895567 -4.041262 -9.433793
Zn -22.895567 -6.734945 -6.740110
Zn -20.201884 -4.041262 -6.740110
Zn -20.201884 -6.734945 -4.046427
Zn -22.895567 -4.041262 -4.046427
Zn -22.895567 -6.734945 -1.352745
Zn -20.201884 -4.041262 -1.352745
Zn -20.201884 -6.734945 1.340938
Zn -22.895567 -4.041262 1.340938
Zn -22.895567 -6.734945 4.034621
Zn -20.201884 -4.041262 4.034621
Zn -20.201884 -6.734945 6.728304
Zn -22.895567 -4.041262 6.728304
Zn -22.895567 -6.734945 9.421987
Zn -20.201884 -4.041262 9.421987
Zn -20.201884 -6.734945 12.115670
Zn -22.895567 -4.041262 12.115670
Zn -22.895567 -6.734945 14.809353
Zn -20.201884 -4.041262 14.809353
Zn -20.201884 -6.734945 17.503036
Zn -22.895567 -4.041262 17.503036
Zn -22.895567 -6.734945 20.196718
Zn -20.201884 -4.041262 20.196718
Zn -20.201884 -6.734945 22.890401
Zn -22.895567 -4.041262 22.890401
Zn -20.201884 -4.041262 25.584084
Zn -20.201884 1.346104 -28.289573
Zn -20.201884 -1.347579 -25.595890
Zn -22.895567 1.346104 -25.595890
Zn -22.895567 -1.347579 -22.902208
Zn -20.201884 1.346104 -22.902208
Zn -20.201884 -1.347579 -20.208525
Zn -22.895567 1.346104 -20.208525
Zn -22.895567 -1.347579 -17.514842
Zn -20.201884 1.346104 -17.514842
Zn -20.201884 -1.347579 -14.821159
Zn -22.895567 1.346104 -14.821159
Zn -22.895567 -1.347579 -12.127476
Zn -20.201884 1.346104 -12.127476
Zn -20.201884 -1.347579 -9.433793
Zn -22.895567 1.346104 -9.433793
Zn -22.895567 -1.347579 -6.740110
Zn -20.201884 1.346104 -6.740110
Zn -20.201884 -1.347579 -4.046427
Zn -22.895567 1.346104 -4.046427
Zn -22.895567 -1.347579 -1.352745
Zn -20.201884 1.346104 -1.352745
Zn -20.201884 -1.347579 1.340938
Zn -22.895567 1.346104 1.340938
Zn -22.895567 -1.347579 4.034621
Zn -20.201884 1.346104 4.034621
Zn -20.201884 -1.347579 6.728304
Zn -22.895567 1.346104 6.728304
Zn -22.895567 -1.347579 9.421987
Zn -20.201884 1.346104 9.421987
Zn -20.201884 -1.347579 12.115670
Zn -22.895567 1.346104 12.115670
Zn -22.895567 -1.347579 14.809353
Zn -20.201884 1.346104 14.809353
Zn -20.201884 -1.347579 17.503036
Zn -22.895567 1.346104 17.503036
Zn -22.895567 -1.347579 20.196718
Zn -20.201884 1.346104 20.196718
Zn -20.201884 -1.347579 22.890401
Zn -22.895567 1.346104 22.890401
Zn -22.895567 -1.347579 25.584084
Zn -20.201884 1.346104 25.584084
Zn -20.201884 -1.347579 28.277767
Zn -20.201884 4.039786 -25.595890
Zn -22.895567 4.039786 -22.902208
Zn -20.201884 6.733469 -22.902208
Zn -20.201884 4.039786 -20.208525
Zn -22.895567 6.733469 -20.208525
Zn -22.895567 4.039786 -17.514842
Zn -20.201884 6.733469 -17.514842
Zn -20.201884 4.039786 -14.821159
Zn -22.895567 6.733469 -14.821159
Zn -22.895567 4.039786 -12.127476
Zn -20.201884 6.733469 -12.127476
Zn -20.201884 4.039786 -9.433793
Zn -22.895567 6.733469 -9.433793
Zn -22.895567 4.039786 -6.740110
Zn -20.201884 6.733469 -6.740110
Zn -20.201884 4.039786 -4.046427
Zn -22.895567 6.733469 -4.046427
Zn -22.895567 4.039786 -1.352745
Zn -20.201884 6.733469 -1.352745
Zn -20.201884 4.039786 1.340938
Zn -22.895567 6.733469 1.340938
Zn -22.895567 4.039786 4.034621
Zn -20.201884 6.733469 4.034621
Zn -20.201884 4.039786 6.728304
Zn -22.895567 6.733469 6.728304
Zn -22.895567 4.039786 9.421987
Zn -20.201884 6.733469 9.421987
Zn -20.201884 4.039786 12.115670
Zn -22.895567 6.733469 12.115670
Zn -22.895567 4.039786 14.809353
Zn -20.201884 6.733469 14.809353
Zn -20.201884 4.039786 17.503036
Zn -22.895567 6.733469 17.503036
Zn -22.895567 4.039786 20.196718
Zn -20.201884 6.733469 20.196718
Zn -20.201884 4.039786 22.890401
Zn -20.201884 9.427152 -20.208525
Zn -22.895567 9.427152 -17.514842
Zn -20.201884 12.120835 -17.514842
Zn -20.201884 9.427152 -14.821159
Zn -22.895567 12.120835 -14.821159
Zn -22.895567 9.427152 -12.127476
Zn -20.201884 12.120835 -12.127476
Zn -20.201884 9.427152 -9.433793
Zn -22.895567 12.120835 -9.433793
Zn -22.895567 9.427152 -6.740110
Zn -20.201884 12.120835 -6.740110
Zn -20.201884 9.427152 -4.046427
Zn -22.895567 12.120835 -4.046427
Zn -22.895567 9.427152 -1.352745
Zn -20.201884 12.120835 -1.352745
Zn -20.201884 9.427152 1.340938
Zn -22.895567 12.120835 1.340938
Zn -22.895567 9.427152 4.034621
Zn -20.201884 12.120835 4.034621
Zn -20.201884 9.427152 6.728304
Zn -22.895567 12.120835 6.728304
Zn -22.895567 9.427152 9.421987
Zn -20.201884 12.120835 9.421987
Zn -20.201884 9.427152 12.115670
Zn -22.895567 12.120835 12.115670
Zn -22.895567 9.427152 14.809353
Zn -20.201884 12.120835 14.809353
Zn -20.201884 9.427152 17.503036
Zn -20.201884 14.814518 -14.821159
Zn -22.895567 14.814518 -12.127476
Zn -20.201884 17.508201 -12.127476
Zn -20.201884 14.814518 -9.433793
Zn -22.895567 17.508201 -9.433793
Zn -22.895567 14.814518 -6.740110
Zn -20.201884 17.508201 -6.740110
Zn -20.201884 14.814518 -4.046427
Zn -22.895567 17.508201 -4.046427
Zn -22.895567 14.814518 -1.352745
Zn -20.201884 17.508201 -1.352745
Zn -20.201884 14.814518 1.340938
Zn -22.895567 17.508201 1.340938
Zn -22.895567 14.814518 4.034621
Zn -20.201884 17.508201 4.034621
Zn -20.201884 14.814518 6.728304
Zn -22.895567 17.508201 6.728304
Zn -22.895567 14.814518 9.421987
Zn -20.201884 17.508201 9.421987
Zn -20.201884 14.814518 12.115670
Zn -20.201884 20.201884 -9.433793
Zn -22.895567 20.201884 -6.740110
Zn -20.201884 22.895567 -6.740110
Zn -20.201884 20.201884 -4.046427
Zn -22.895567 22.895567 -4.046427
Zn -22.895567 20.201884 -1.352745
Zn -20.201884 22.895567 -1.352745
Zn -20.201884 20.201884 1.340938
Zn -22.895567 22.895567 1.340938
Zn -22.895567 20.201884 4.034621
Zn -20.201884 22.895567 4.034621
Zn -20.201884 20.201884 6.728304
Zn -20.201884 25.589249 -4.046427
Zn -22.895567 25.589249 -1.352745
Zn -20.201884 28.282932 -1.352745
Zn -20.201884 25.589249 1.340938
Zn -14.814518 -25.590725 -6.740110
Zn -14.814518 -28.284408 -4.046427
Zn -17.508201 -25.590725 -4.046427
Zn -17.508201 -28.284408 -1.352745
Zn -14.814518 -25.590725 -1.352745
Zn -14.814518 -28.284408 1.340938
Zn -17.508201 -25.590725 1.340938
Zn -17.508201 -28.284408 4.034621
Zn -14.814518 -25.590725 4.034621
Zn -14.814518 -28.284408 6.728304
Zn -17.508201 -25.590725 6.728304
Zn -14.814518 -25.590725 9.421987
Zn -14.814518 -20.203359 -12.127476
Zn -14.814518 -22.897042 -9.433793
Zn -17.508201 -20.203359 -9.433793
Zn -17.508201 -22.897042 -6.740110
Zn -14.814518 -20.203359 -6.740110
Zn -14.814518 -22.897042 -4.046427
Zn -17.508201 -20.203359 -4.046427
Zn -17.508201 -22.897042 -1.352745
Zn -14.814518 -20.203359 -1.352745
Zn -14.814518 -22.897042 1.340938
Zn -17.508201 -20.203359 1.340938
Zn -17.508201 -22.897042 4.034621
Zn -14.814518 -20.203359 4.034621
Zn -14.814518 -22.897042 6.728304
Zn -17.508201 -20.203359 6.728304
Zn -17.508201 -22.897042 9.421987
Zn -14.814518 -20.203359 9.421987
Zn -14.814518 -22.897042 12.115670
Zn -17.508201 -20.203359 12.115670
Zn -14.814518 -20.203359 14.809353
Zn -14.814518 -14.815994 -17.514842
Zn -14.814518 -17.509677 -14.821159
Zn -17.508201 -14.815994 -14.821159
Zn -17.508201 -17.509677 -12.127476
Zn -14.814518 -14.815994 -12.127476
Zn -14.814518 -17.509677 -9.433793
Zn -17.508201 -14.815994 -9.433793
Zn -17.508201 -17.509677 -6.740110
Zn -14.814518 -14.815994 -6.740110
Zn -14.814518 -17.509677 -4.046427
Zn -17.508201 -14.815994 -4.046427
Zn -17.508201 -17.509677 -1.352745
Zn -14.814518 -14.815994 -1.352745
Zn -14.814518 -17.509677 1.340938
Zn -17.508201 -14.815994 1.340938
Zn -17.508201 -17.509677 4.034621
Zn -14.814518 -14.815994 4.034621
Zn -14.814518 -17.509677 6.728304
Zn -17.508201 -14.815994 6.728304
Zn -17.508201 -17.509677 9.421987
Zn -14.814518 -14.815994 9.421987
Zn -14.814518 -17.509677 12.115670
Zn -17.508201 -14.815994 12.115670
Zn -17.508201 -17.509677 14.809353
Zn -14.814518 -14.815994 14.809353
Zn -14.814518 -17.509677 17.503036
Zn -17.508201 -14.815994 17.503036
Zn -14.814518 -14.815994 20.196718
Zn -14.814518 -9.428628 -22.902208
Zn -14.814518 -12.122311 -20.208525
Zn -17.508201 -9.428628 -20.208525
Zn -17.508201 -12.122311 -17.514842
Zn -14.814518 -9.428628 -17.514842
Zn -14.814518 -12.122311 -14.821159
Zn -17.508201 -9.428628 -14.821159
Zn -17.508201 -12.122311 -12.127476
Zn -14.814518 -9.428628 -12.127476
Zn -14.814518 -12.122311 -9.433793
Zn -17.508201 -9.428628 -9.433793
Zn -17.508201 -12.122311 -6.740110
Zn -14.814518 -9.428628 -6.740110
Zn -14.814518 -12.122311 -4.046427
Zn -17.508201 -9.428628 -4.046427
Zn -17.508201 -12.122311 -1.352745
Zn -14.814518 -9.428628 -1.352745
Zn -14.814518 -12.122311 1.340938
Zn -17.508201 -9.428628 1.340938
Zn -17.508201 -12.122311 4.034621
Zn -14.814518 -9.428628 4.034621
Zn -14.814518 -12.122311 6.728304
Zn -17.508201 -9.428628 6.728304
Zn -17.508201 -12.122311 9.421987
Zn -14.814518 -9.428628 9.421987
Zn -14.814518 -12.122311 12.115670
Zn -17.508201 -9.428628 12.115670
Zn -17.508201 -12.122311 14.809353
Zn -14.814518 -9.428628 14.809353
Zn -14.814518 -12.122311 17.503036
Zn -17.508201 -9.428628 17.503036
Zn -17.508201 -12.122311 20.196718
Zn -14.814518 -9.428628 20.196718
Zn -14.814518 -12.122311 22.890401
Zn -17.508201 -9.428628 22.890401
Zn -14.814518 -9.428628 25.584084
Zn -14.814518 -4.041262 -28.289573
Zn -14.814518 -6.734945 -25.595890
Zn -17.508201 -4.041262 -25.595890
Zn -17.508201 -6.734945 -22.902208
Zn -14.814518 -4.041262 -22.902208
Zn -14.814518 -6.734945 -20.208525
Zn -17.508201 -4.041262 -20.208525
Zn -17.508201 -6.734945 -17.514842
Zn -14.814518 -4.041262 -17.514842
Zn -14.814518 -6.734945 -14.821159
Zn -17.508201 -4.041262 -14.821159
Zn -17.508201 -6.734945 -12.127476
Zn -14.814518 -4.041262 -12.127476
Zn -14.814518 -6.734945 -9.433793
Zn -17.508201 -4.041262 -9.433793
Zn -17.508201 -6.734945 -6.740110
Zn -14.814518 -4.041262 -6.740110
Zn -14.814518 -6.734945 -4.046427
Zn -17.508201 -4.041262 -4.046427
Zn -17.508201 -6.734945 -1.352745
Zn -14.814518 -4.041262 -1.352745
Zn -14.814518 -6.734945 1.340938
Zn -17.508201 -4.041262 1.340938
Zn -17.508201 -6.734945 4.034621
Zn -14.814518 -4.041262 4.034621
Zn -14.814518 -6.734945 6.728304
Zn -17.508201 -4.041262 6.728304
Zn -17.508201 -6.734945 9.421987
Zn -14.814518 -4.041262 9.421987
Zn -14.814518 -6.734945 12.115670
Zn -17.508201 -4.041262 12.115670
Zn -17.508201 -6.734945 14.809353
Zn -14.814518 -4.041262 14.809353
Zn -14.814518 -6.734945 17.503036
Zn -17.508201 -4.041262 17.503036
Zn -17.508201 -6.734945 20.196718
Zn -14.814518 -4.041262 20.196718
Zn -14.814518 -6.734945 22.890401
Zn -17.508201 -4.041262 22.890401
Zn -17.508201 -6.734945 25.584084
Zn -14.814518 -4.041262 25.584084
Zn -14.814518 -6.734945 28.277767
Zn -17.508201 -4.041262 28.277767
Zn -17.508201 -1.347579 -28.289573
Zn -14.814518 1.346104 -28.289573
Zn -14.814518 -1.347579 -25.595890
Zn -17.508201 1.346104 -25.595890
Zn -17.508201 -1.347579 -22.902208
Zn -14.814518 1.346104 -22.902208
Zn -14.814518 -1.347579 -20.208525
Zn -17.508201 1.346104 -20.208525
Zn -17.508201 -1.347579 -17.514842
Zn -14.814518 1.346104 -17.514842
Zn -14.814518 -1.347579 -14.821159
Zn -17.508201 1.346104 -14.821159
Zn -17.508201 -1.347579 -12.127476
Zn -14.814518 1.346104 -12.127476
Zn -14.814518 -1.347579 -9.433793
Zn -17.508201 1.346104 -9.433793
Zn -17.508201 -1.347579 -6.740110
Zn -14.814518 1.346104 -6.740110
Zn -14.814518 -1.347579 -4.046427
Zn -17.508201 1.346104 -4.046427
Zn -17.508201 -1.347579 -1.352745
Zn -14.814518 1.346104 -1.352745
Zn -14.814518 -1.347579 1.340938
Zn -17.508201 1.346104 1.340938
Zn -17.508201 -1.347579 4.034621
Zn -14.814518 1.346104 4.034621
Zn -14.814518 -1.347579 6.728304
Zn -17.508201 1.346104 6.728304
Zn -17.508201 -1.347579 9.421987
Zn -14.814518 1.346104 9.421987
Zn -14.814518 -1.347579 12.115670
Zn -17.508201 1.346104 12.115670
Zn -17.508201 -1.347579 14.809353
Zn -14.814518 1.346104 14.809353
Zn -14.814518 -1.347579 17.503036
Zn -17.508201 1.346104 17.503036
Zn -17.508201 -1.347579 20.196718
Zn -14.814518 1.346104 20.196718
Zn -14.814518 -1.347579 22.890401
Zn -17.508201 1.346104 22.890401
Zn -17.508201 -1.347579 25.584084
Zn -14.814518 1.346104 25.584084
Zn -14.814518 -1.347579 28.277767
Zn -17.508201 1.346104 28.277767
Zn -17.508201 4.039786 -28.289573
Zn -14.814518 6.733469 -28.289573
Zn -14.814518 4.039786 -25.595890
Zn -17.508201 6.733469 -25.595890
Zn -17.508201 4.039786 -22.902208
Zn -14.814518 6.733469 -22.902208
Zn -14.814518 4.039786 -20.208525
Zn -17.508201 6.733469 -20.208525
Zn -17.508201 4.039786 -17.514842
Zn -14.814518 6.733469 -17.514842
Zn -14.814518 4.039786 -14.821159
Zn -17.508201 6.733469 -14.821159
Zn -17.508201 4.039786 -12.127476
Zn -14.814518 6.733469 -12.127476
Zn -14.814518 4.039786 -9.433793
Zn -17.508201 6.733469 -9.433793
Zn -17.508201 4.039786 -6.740110
Zn -14.814518 6.733469 -6.740110
Zn -14.814518 4.039786 -4.046427
Zn -17.508201 6.733469 -4.046427
Zn -17.508201 4.039786 -1.352745
Zn -14.814518 6.733469 -1.352745
Zn -14.814518 4.039786 1.340938
Zn -17.508201 6.733469 1.340938
Zn -17.508201 4.039786 4.034621
Zn -14.814518 6.733469 4.034621
Zn -14.814518 4.039786 6.728304
Zn -17.508201 6.733469 6.728304
Zn -17.508201 4.039786 9.421987
Zn -14.814518 6.733469 9.421987
Zn -14.814518 4.039786 12.115670
Zn -17.508201 6.733469 12.115670
Zn -17.508201 4.039786 14.809353
Zn -14.814518 6.733469 14.809353
Zn -14.814518 4.039786 17.503036
Zn -17.508201 6.733469 17.503036
Zn -17.508201 4.039786 20.196718
Zn -14.814518 6.733469 20.196718
Zn -14.814518 4.039786 22.890401
Zn -17.508201 6.733469 22.890401
Zn -17.508201 4.039786 25.584084
Zn -14.814518 6.733469 25.584084
Zn -14.814518 4.039786 28.277767
Zn -14.814518 9.427152 -25.595890
Zn -17.508201 9.427152 -22.902208
Zn -14.814518 12.120835 -22.902208
Zn -14.814518 9.427152 -20.208525
Zn -17.508201 12.120835 -20.208525
Zn -17.508201 9.427152 -17.514842
Zn -14.814518 12.120835 -17.514842
Zn -14.814518 9.427152 -14.821159
Zn -17.508201 12.120835 -14.821159
Zn -17.508201 9.427152 -12.127476
Zn -14.814518 12.120835 -12.127476
Zn -14.814518 9.427152 -9.433793
Zn -17.508201 12.120835 -9.433793
Zn -17.508201 9.427152 -6.740110
Zn -14.814518 12.120835 -6.740110
Zn -14.814518 9.427152 -4.046427
Zn -17.508201 12.120835 -4.046427
Zn -17.508201 9.427152 -1.352745
Zn -14.814518 12.120835 -1.352745
Zn -14.814518 9.427152 1.340938
Zn -17.508201 12.120835 1.340938
Zn -17.508201 9.427152 4.034621
Zn -14.814518 12.120835 4.034621
Zn -14.814518 9.427152 6.728304
Zn -17.508201 12.120835 6.728304
Zn -17.508201 9.427152 9.421987
Zn -14.814518 12.120835 9.421987
Zn -14.814518 9.427152 12.115670
Zn -17.508201 12.120835 12.115670
Zn -17.508201 9.427152 14.809353
Zn -14.814518 12.120835 14.809353
Zn -14.814518 9.427152 17.503036
Zn -17.508201 12.120835 17.503036
Zn -17.508201 9.427152 20.196718
Zn -14.814518 12.120835 20.196718
Zn -14.814518 9.427152 22.890401
Zn -14.814518 14.814518 -20.208525
Zn -17.508201 14.814518 -17.514842
Zn -14.814518 17.508201 -17.514842
Zn -14.814518 14.814518 -14.821159
Zn -17.508201 17.508201 -14.821159
Zn -17.508201 14.814518 -12.127476
Zn -14.814518 17.508201 -12.127476
Zn -14.814518 14.814518 -9.433793
Zn -17.508201 17.508201 -9.433793
Zn -17.508201 14.814518 -6.740110
Zn -14.814518 17.508201 -6.740110
Zn -14.814518 14.814518 -4.046427
Zn -17.508201 17.508201 -4.046427
Zn -17.508201 14.814518 -1.352745
Zn -14.814518 17.508201 -1.352745
Zn -14.814518 14.814518 1.340938
Zn -17.508201 17.508201 1.340938
Zn -17.508201 14.814518 4.034621
Zn -14.814518 17.508201 4.034621
Zn -14.814518 14.814518 6.728304
Zn -17.508201 17.508201 6.728304
Zn -17.508201 14.814518 9.421987
Zn -14.814518 17.508201 9.421987
Zn -14.814518 14.814518 12.115670
Zn -17.508201 17.508201 12.115670
Zn -17.508201 14.814518 14.809353
Zn -14.814518 17.508201 14.809353
Zn -14.814518 14.814518 17.503036
Zn -14.814518 20.201884 -14.821159
Zn -17.508201 20.201884 -12.127476
Zn -14.814518 22.895567 -12.127476
Zn -14.814518 20.201884 -9.433793
Zn -17.508201 22.895567 -9.433793
Zn -17.508201 20.201884 -6.740110
Zn -14.814518 22.895567 -6.740110
Zn -14.814518 20.201884 -4.046427
Zn -17.508201 22.895567 -4.046427
Zn -17.508201 20.201884 -1.352745
Zn -14.814518 22.895567 -1.352745
Zn -14.814518 20.201884 1.340938
Zn -17.508201 22.895567 1.340938
Zn -17.508201 20.201884 4.034621
Zn -14.814518 22.895567 4.034621
Zn -14.814518 20.201884 6.728304
Zn -17.508201 22.895567 6.728304
Zn -17.508201 20.201884 9.421987
Zn -14.814518 22.895567 9.421987
Zn -14.814518 20.201884 12.115670
Zn -14.814518 25.589249 -9.433793
Zn -17.508201 25.589249 -6.740110
Zn -14.814518 28.282932 -6.740110
Zn -14.814518 25.589249 -4.046427
Zn -17.508201 28.282932 -4.046427
Zn -17.508201 25.589249 -1.352745
Zn -14.814518 28.282932 -1.352745
Zn -14.814518 25.589249 1.340938
Zn -17.508201 28.282932 1.340938
Zn -17.508201 25.589249 4.034621
Zn -14.814518 28.282932 4.034621
Zn -14.814518 25.589249 6.728304
Zn -9.427152 -25.590725 -12.127476
Zn -9.427152 -28.284408 -9.433793
Zn -12.120835 -25.590725 -9.433793
Zn -12.120835 -28.284408 -6.740110
Zn -9.427152 -25.590725 -6.740110
Zn -9.427152 -28.284408 -4.046427
Zn -12.120835 -25.590725 -4.046427
Zn -12.120835 -28.284408 -1.352745
Zn -9.427152 -25.590725 -1.352745
Zn -9.427152 -28.284408 1.340938
Zn -12.120835 -25.590725 1.340938
Zn -12.120835 -28.284408 4.034621
Zn -9.427152 -25.590725 4.034621
Zn -9.427152 -28.284408 6.728304
Zn -12.120835 -25.590725 6.728304
Zn -12.120835 -28.284408 9.421987
Zn -9.427152 -25.590725 9.421987
Zn -9.427152 -28.284408 12.115670
Zn -12.120835 -25.590725 12.115670
Zn -9.427152 -25.590725 14.809353
Zn -9.427152 -20.203359 -17.514842
Zn -9.427152 -22.897042 -14.821159
Zn -12.120835 -20.203359 -14.821159
Zn -12.120835 -22.897042 -12.127476
Zn -9.427152 -20.203359 -12.127476
Zn -9.427152 -22.897042 -9.433793
Zn -12.120835 -20.203359 -9.433793
Zn -12.120835 -22.897042 -6.740110
Zn -9.427152 -20.203359 -6.740110
Zn -9.427152 -22.897042 -4.046427
Zn -12.120835 -20.203359 -4.046427
Zn -12.120835 -22.897042 -1.352745
Zn -9.427152 -20.203359 -1.352745
Zn -9.427152 -22.897042 1.340938
Zn -12.120835 -20.203359 1.340938
Zn -12.120835 -22.897042 4.034621
Zn -9.427152 -20.203359 4.034621
Zn -9.427152 -22.897042 6.728304
Zn -12.120835 -20.203359 6.728304
Zn -12.120835 -22.897042 9.421987
Zn -9.427152 -20.203359 9.421987
Zn -9.427152 -22.897042 12.115670
Zn -12.120835 -20.203359 12.115670
Zn -12.120835 -22.897042 14.809353
Zn -9.427152 -20.203359 14.809353
Zn -9.427152 -22.897042 17.503036
Zn -12.120835 -20.203359 17.503036
Zn -9.427152 -20.203359 20.196718
Zn -9.427152 -14.815994 -22.902208
Zn -9.427152 -17.509677 -20.208525
Zn -12.120835 -14.815994 -20.208525
Zn -12.120835 -17.509677 -17.514842
Zn -9.427152 -14.815994 -17.514842
Zn -9.427152 -17.509677 -14.821159
Zn -12.120835 -14.815994 -14.821159
Zn -12.120835 -17.509677 -12.127476
Zn -9.427152 -14.815994 -12.127476
Zn -9.427152 -17.509677 -9.433793
Zn -12.120835 -14.815994 -9.433793
Zn -12.120835 -17.509677 -6.740110
Zn -9.427152 -14.815994 -6.740110
Zn -9.427152 -17.509677 -4.046427
Zn -12.120835 -14.815994 -4.046427
Zn -12.120835 -17.509677 -1.352745
Zn -9.427152 -14.815994 -1.352745
Zn -9.427152 -17.509677 1.340938
Zn -12.120835 -14.815994 1.340938
Zn -12.120835 -17.509677 4.034621
Zn -9.427152 -14.815994 4.034621
Zn -9.427152 -17.509677 6.728304
Zn -12.120835 -14.815994 6.728304
Zn -12.120835 -17.509677 9.421987
Zn -9.427152 -14.815994 9.421987
Zn -9.427152 -17.509677 12.115670
Zn -12.120835 -14.815994 12.115670
Zn -12.120835 -17.509677 14.809353
Zn -9.427152 -14.815994 14.809353
Zn -9.427152 -17.509677 17.503036
Zn -12.120835 -14.815994 17.503036
Zn -12.120835 -17.509677 20.196718
Zn -9.427152 -14.815994 20.196718
Zn -9.427152 -17.509677 22.890401
Zn -12.120835 -14.815994 22.890401
Zn -9.427152 -14.815994 25.584084
Zn -9.427152 -9.428628 -28.289573
Zn -9.427152 -12.122311 -25.595890
Zn -12.120835 -9.428628 -25.595890
Zn -12.120835 -12.122311 -22.902208
Zn -9.427152 -9.428628 -22.902208
Zn -9.427152 -12.122311 -20.208525
Zn -12.120835 -9.428628 -20.208525
Zn -12.120835 -12.122311 -17.514842
Zn -9.427152 -9.428628 -17.514842
Zn -9.427152 -12.122311 -14.821159
Zn -12.120835 -9.428628 -14.821159
Zn -12.120835 -12.122311 -12.127476
Zn -9.427152 -9.428628 -12.127476
Zn -9.427152 -12.122311 -9.433793
Zn -12.120835 -9.428628 -9.433793
Zn -12.120835 -12.122311 -6.740110
Zn -9.427152 -9.428628 -6.740110
Zn -9.427152 -12.122311 -4.046427
Zn -12.120835 -9.428628 -4.046427
Zn -12.120835 -12.122311 -1.352745
Zn -9.427152 -9.428628 -1.352745
Zn -9.427152 -12.122311 1.340938
Zn -12.120835 -9.428628 1.340938
Zn -12.120835 -12.122311 4.034621
Zn -9.427152 -9.428628 4.034621
Zn -9.427152 -12.122311 6.728304
Zn -12.120835 -9.428628 6.728304
Zn -12.120835 -12.122311 9.421987
Zn -9.427152 -9.428628 9.421987
Zn -9.427152 -12.122311 12.115670
Zn -12.120835 -9.428628 12.115670
Zn -12.120835 -12.122311 14.809353
Zn -9.427152 -9.428628 14.809353
Zn -9.427152 -12.122311 17.503036
Zn -12.120835 -9.428628 17.503036
Zn -12.120835 -12.122311 20.196718
Zn -9.427152 -9.428628 20.196718
Zn -9.427152 -12.122311 22.890401
Zn -12.120835 -9.428628 22.890401
Zn -12.120835 -12.122311 25.584084
Zn -9.427152 -9.428628 25.584084
Zn -9.427152 -12.122311 28.277767
Zn -12.120835 -9.428628 28.277767
Zn -12.120835 -6.734945 -28.289573
Zn -9.427152 -4.041262 -28.289573
Zn -9.427152 -6.734945 -25.595890
Zn -12.120835 -4.041262 -25.595890
Zn -12.120835 -6.734945 -22.902208
Zn -9.427152 -4.041262 -22.902208
Zn -9.427152 -6.734945 -20.208525
Zn -12.120835 -4.041262 -20.208525
Zn -12.120835 -6.734945 -17.514842
Zn -9.427152 -4.041262 -17.514842
Zn -9.427152 -6.734945 -14.821159
Zn -12.120835 -4.041262 -14.821159
Zn -12.120835 -6.734945 -12.127476
Zn -9.427152 -4.041262 -12.127476
Zn -9.427152 -6.734945 -9.433793
Zn -12.120835 -4.041262 -9.433793
Zn -12.120835 -6.734945 -6.740110
Zn -9.427152 -4.041262 -6.740110
Zn -9.427152 -6.734945 -4.046427
Zn -12.120835 -4.041262 -4.046427
Zn -12.120835 -6.734945 -1.352745
Zn -9.427152 -4.041262 -1.352745
Zn -9.427152 -6.734945 1.340938
Zn -12.120835 -4.041262 1.340938
Zn -12.120835 -6.734945 4.034621
Zn -9.427152 -4.041262 4.034621
Zn -9.427152 -6.734945 6.728304
Zn -12.120835 -4.041262 6.728304
Zn -12.120835 -6.734945 9.421987
Zn -9.427152 -4.041262 9.421987
Zn -9.427152 -6.734945 12.115670
Zn -12.120835 -4.041262 12.115670
Zn -12.120835 -6.734945 14.809353
Zn -9.427152 -4.041262 14.809353
Zn -9.427152 -6.734945 17.503036
Zn -12.120835 -4.041262 17.503036
Zn -12.120835 -6.734945 20.196718
Zn -9.427152 -4.041262 20.196718
Zn -9.427152 -6.734945 22.890401
Zn -12.120835 -4.041262 22.890401
Zn -12.120835 -6.734945 25.584084
Zn -9.427152 -4.041262 25.584084
Zn -9.427152 -6.734945 28.277767
Zn -12.120835 -4.041262 28.277767
Zn -12.120835 -1.347579 -28.289573
Zn -9.427152 1.346104 -28.289573
Zn -9.427152 -1.347579 -25.595890
Zn -12.120835 1.346104 -25.595890
Zn -12.120835 -1.347579 -22.902208
Zn -9.427152 1.346104 -22.902208
Zn -9.427152 -1.347579 -20.208525
Zn -12.120835 1.346104 -20.208525
Zn -12.120835 -1.347579 -17.514842
Zn -9.427152 1.346104 -17.514842
Zn -9.427152 -1.347579 -14.821159
Zn -12.120835 1.346104 -14.821159
Zn -12.120835 -1.347579 -12.127476
Zn -9.427152 1.346104 -12.127476
Zn -9.427152 -1.347579 -9.433793
Zn -12.120835 1.346104 -9.433793
Zn -12.120835 -1.347579 -6.740110
Zn -9.427152 1.346104 -6.740110
Zn -9.427152 -1.347579 -4.046427
Zn -12.120835 1.346104 -4.046427
Zn -12.120835 -1.347579 -1.352745
Zn -9.427152 1.346104 -1.352745
Zn -9.427152 -1.347579 1.340938
Zn -12.120835 1.346104 1.340938
Zn -12.120835 -1.347579 4.034621
Zn -9.427152 1.346104 4.034621
Zn -9.427152 -1.347579 6.728304
Zn -12.120835 1.346104 6.728304
Zn -12.120835 -1.347579 9.421987
Zn -9.427152 1.346104 9.421987
Zn -9.427152 -1.347579 12.115670
Zn -12.120835 1.346104 12.115670
Zn -12.120835 -1.347579 14.809353
Zn -9.427152 1.346104 14.809353
Zn -9.427152 -1.347579 17.503036
Zn -12.120835 1.346104 17.503036
Zn -12.120835 -1.347579 20.196718
Zn -9.427152 1.346104 20.196718
Zn -9.427152 -1.347579 22.890401
Zn -12.120835 1.346104 22.890401
Zn -12.120835 -1.347579 25.584084
Zn -9.427152 1.346104 25.584084
Zn -9.427152 -1.347579 28.277767
Zn -12.120835 1.346104 28.277767
Zn -12.120835 4.039786 -28.289573
Zn -9.427152 6.733469 -28.289573
Zn -9.427152 4.039786 -25.595890
Zn -12.120835 6.733469 -25.595890
Zn -12.120835 4.039786 -22.902208
Zn -9.427152 6.733469 -22.902208
Zn -9.427152 4.039786 -20.208525
Zn -12.120835 6.733469 -20.208525
Zn -12.120835 4.039786 -17.514842
Zn -9.427152 6.733469 -17.514842
Zn -9.427152 4.039786 -14.821159
Zn -12.120835 6.733469 -14.821159
Zn -12.120835 4.039786 -12.127476
Zn -9.427152 6.733469 -12.127476
Zn -9.427152 4.039786 -9.433793
Zn -12.120835 6.733469 -9.433793
Zn -12.120835 4.039786 -6.740110
Zn -9.427152 6.733469 -6.740110
Zn -9.427152 4.039786 -4.046427
Zn -12.120835 6.733469 -4.046427
Zn -12.120835 4.039786 -1.352745
Zn -9.427152 6.733469 -1.352745
Zn -9.427152 4.039786 1.340938
Zn -12.120835 6.733469 1.340938
Zn -12.120835 4.039786 4.034621
Zn -9.427152 6.733469 4.034621
Zn -9.427152 4.039786 6.728304
Zn -12.120835 6.733469 6.728304
Zn -12.120835 4.039786 9.421987
Zn -9.427152 6.733469 9.421987
Zn -9.427152 4.039786 12.115670
Zn -12.120835 6.733469 12.115670
Zn -12.120835 4.039786 14.809353
Zn -9.427152 6.733469 14.809353
Zn -9.427152 4.039786 17.503036
Zn -12.120835 6.733469 17.503036
Zn -12.120835 4.039786 20.196718
Zn -9.427152 6.733469 20.196718
Zn -9.427152 4.039786 22.890401
Zn -12.120835 6.733469 22.890401
Zn -12.120835 4.039786 25.584084
Zn -9.427152 6.733469 25.584084
Zn -9.427152 4.039786 28.277767
Zn -12.120835 6.733469 28.277767
Zn -12.120835 9.427152 -28.289573
Zn -9.427152 12.120835 -28.289573
Zn -9.427152 9.427152 -25.595890
Zn -12.120835 12.120835 -25.595890
Zn -12.120835 9.427152 -22.902208
Zn -9.427152 12.120835 -22.902208
Zn -9.427152 9.427152 -20.208525
Zn -12.120835 12.120835 -20.208525
Zn -12.120835 9.427152 -17.514842
Zn -9.427152 12.120835 -17.514842
Zn -9.427152 9.427152 -14.821159
Zn -12.120835 12.120835 -14.821159
Zn -12.120835 9.427152 -12.127476
Zn -9.427152 12.120835 -12.127476
Zn -9.427152 9.427152 -9.433793
Zn -12.120835 12.120835 -9.433793
Zn -12.120835 9.427152 -6.740110
Zn -9.427152 12.120835 -6.740110
Zn -9.427152 9.427152 -4.046427
Zn -12.120835 12.120835 -4.046427
Zn -12.120835 9.427152 -1.352745
Zn -9.427152 12.120835 -1.352745
Zn -9.427152 9.427152 1.340938
Zn -12.120835 12.120835 1.340938
Zn -12.120835 9.427152 4.034621
Zn -9.427152 12.120835 4.034621
Zn -9.427152 9.427152 6.728304
Zn -12.120835 12.120835 6.728304
Zn -12.120835 9.427152 9.421987
Zn -9.427152 12.120835 9.421987
Zn -9.427152 9.427152 12.115670
Zn -12.120835 12.120835 12.115670
Zn -12.120835 9.427152 14.809353
Zn -9.427152 12.120835 14.809353
Zn -9.427152 9.427152 17.503036
Zn -12.120835 12.120835 17.503036
Zn -12.120835 9.427152 20.196718
Zn -9.427152 12.120835 20.196718
Zn -9.427152 9.427152 22.890401
Zn -12.120835 12.120835 22.890401
Zn -12.120835 9.427152 25.584084
Zn -9.427152 12.120835 25.584084
Zn -9.427152 9.427152 28.277767
Zn -9.427152 14.814518 -25.595890
Zn -12.120835 14.814518 -22.902208
Zn -9.427152 17.508201 -22.902208
Zn -9.427152 14.814518 -20.208525
Zn -12.120835 17.508201 -20.208525
Zn -12.120835 14.814518 -17.514842
Zn -9.427152 17.508201 -17.514842
Zn -9.427152 14.814518 -14.821159
Zn -12.120835 17.508201 -14.821159
Zn -12.120835 14.814518 -12.127476
Zn -9.427152 17.508201 -12.127476
Zn -9.427152 14.814518 -9.433793
Zn -12.120835 17.508201 -9.433793
Zn -12.120835 14.814518 -6.740110
Zn -9.427152 17.508201 -6.740110
Zn -9.427152 14.814518 -4.046427
Zn -12.120835 17.508201 -4.046427
Zn -12.120835 14.814518 -1.352745
Zn -9.427152 17.508201 -1.352745
Zn -9.427152 14.814518 1.340938
Zn -12.120835 17.508201 1.340938
Zn -12.120835 14.814518 4.034621
Zn -9.427152 17.508201 4.034621
Zn -9.427152 14.814518 6.728304
Zn -12.120835 17.508201 6.728304
Zn -12.120835 14.814518 9.421987
Zn -9.427152 17.508201 9.421987
Zn -9.427152 14.814518 12.115670
Zn -12.120835 17.508201 12.115670
Zn -12.120835 14.814518 14.809353
Zn -9.427152 17.508201 14.809353
Zn -9.427152 14.814518 17.503036
Zn -12.120835 17.508201 17.503036
Zn -12.120835 14.814518 20.196718
Zn -9.427152 17.508201 20.196718
Zn -9.427152 14.814518 22.890401
Zn -9.427152 20.201884 -20.208525
Zn -12.120835 20.201884 -17.514842
Zn -9.427152 22.895567 -17.514842
Zn -9.427152 20.201884 -14.821159
Zn -12.120835 22.895567 -14.821159
Zn -12.120835 20.201884 -12.127476
Zn -9.427152 22.895567 -12.127476
Zn -9.427152 20.201884 -9.433793
Zn -12.120835 22.895567 -9.433793
Zn -12.120835 20.201884 -6.740110
Zn -9.427152 22.895567 -6.740110
Zn -9.427152 20.201884 -4.046427
Zn -12.120835 22.895567 -4.046427
Zn -12.120835 20.201884 -1.352745
Zn -9.427152 22.895567 -1.352745
Zn -9.427152 20.201884 1.340938
Zn -12.120835 22.895567 1.340938
Zn -12.120835 20.201884 4.034621
Zn -9.427152 22.895567 4.034621
Zn -9.427152 20.201884 6.728304
Zn -12.120835 22.895567 6.728304
Zn -12.120835 20.201884 9.421987
Zn -9.427152 22.895567 9.421987
Zn -9.427152 20.201884 12.115670
Zn -12.120835 22.895567 12.115670
Zn -12.120835 20.201884 14.809353
Zn -9.427152 22.895567 14.809353
Zn -9.427152 20.201884 17.503036
Zn -9.427152 25.589249 -14.821159
Zn -12.120835 25.589249 -12.127476
Zn -9.427152 28.282932 -12.127476
Zn -9.427152 25.589249 -9.433793
Zn -12.120835 28.282932 -9.433793
Zn -12.120835 25.589249 -6.740110
Zn -9.427152 28.282932 -6.740110
Zn -9.427152 25.589249 -4.046427
Zn -12.120835 28.282932 -4.046427
Zn -12.120835 25.589249 -1.352745
Zn -9.427152 28.282932 -1.352745
Zn -9.427152 25.589249 1.340938
Zn -12.120835 28.282932 1.340938
Zn -12.120835 25.589249 4.034621
Zn -9.427152 28.282932 4.034621
Zn -9.427152 25.589249 6.728304
Zn -12.120835 28.282932 6.728304
Zn -12.120835 25.589249 9.421987
Zn -9.427152 28.282932 9.421987
Zn -9.427152 25.589249 12.115670
Zn -4.039786 -25.590725 -17.514842
Zn -4.039786 -28.284408 -14.821159
Zn -6.733469 -25.590725 -14.821159
Zn -6.733469 -28.284408 -12.127476
Zn -4.039786 -25.590725 -12.127476
Zn -4.039786 -28.284408 -9.433793
Zn -6.733469 -25.590725 -9.433793
Zn -6.733469 -28.284408 -6.740110
Zn -4.039786 -25.590725 -6.740110
Zn -4.039786 -28.284408 -4.046427
Zn -6.733469 -25.590725 -4.046427
Zn -6.733469 -28.284408 -1.352745
Zn -4.039786 -25.590725 -1.352745
Zn -4.039786 -28.284408 1.340938
Zn -6.733469 -25.590725 1.340938
Zn -6.733469 -28.284408 4.034621
Zn -4.039786 -25.590725 4.034621
Zn -4.039786 -28.284408 6.728304
Zn -6.733469 -25.590725 6.728304
Zn -6.733469 -28.284408 9.421987
Zn -4.039786 -25.590725 9.421987
Zn -4.039786 -28.284408 12.115670
Zn -6.733469 -25.590725 12.115670
Zn -6.733469 -28.284408 14.809353
Zn -4.039786 -25.590725 14.809353
Zn -4.039786 -28.284408 17.503036
Zn -6.733469 -25.590725 17.503036
Zn -4.039786 -25.590725 20.196718
Zn -4.039786 -20.203359 -22.902208
Zn -4.039786 -22.897042 -20.208525
Zn -6.733469 -20.203359 -20.208525
Zn -6.733469 -22.897042 -17.514842
Zn -4.039786 -20.203359 -17.514842
Zn -4.039786 -22.897042 -14.821159
Zn -6.733469 -20.203359 -14.821159
Zn -6.733469 -22.897042 -12.127476
Zn -4.039786 -20.203359 -12.127476
Zn -4.039786 -22.897042 -9.433793
Zn -6.733469 -20.203359 -9.433793
Zn -6.733469 -22.897042 -6.740110
Zn -4.039786 -20.203359 -6.740110
Zn -4.039786 -22.897042 -4.046427
Zn -6.733469 -20.203359 -4.046427
Zn -6.733469 -22.897042 -1.352745
Zn -4.039786 -20.203359 -1.352745
Zn -4.039786 -22.897042 1.340938
Zn -6.733469 -20.203359 1.340938
Zn -6.733469 -22.897042 4.034621
Zn -4.039786 -20.203359 4.034621
Zn -4.039786 -22.897042 6.728304
Zn -6.733469 -20.203359 6.728304
Zn -6.733469 -22.897042 9.421987
Zn -4.039786 -20.203359 9.421987
Zn -4.039786 -22.897042 12.115670
Zn -6.733469 -20.203359 12.115670
Zn -6.733469 -22.897042 14.809353
Zn -4.039786 -20.203359 14.809353
Zn -4.039786 -22.897042 17.503036
Zn -6.733469 -20.203359 17.503036
Zn -6.733469 -22.897042 20.196718
Zn -4.039786 -20.203359 20.196718
Zn -4.039786 -22.897042 22.890401
Zn -6.733469 -20.203359 22.890401
Zn -4.039786 -20.203359 25.584084
Zn -4.039786 -14.815994 -28.289573
Zn -4.039786 -17.509677 -25.595890
Zn -6.733469 -14.815994 -25.595890
Zn -6.733469 -17.509677 -22.902208
Zn -4.039786 -14.815994 -22.902208
Zn -4.039786 -17.509677 -20.208525
Zn -6.733469 -14.815994 -20.208525
Zn -6.733469 -17.509677 -17.514842
Zn -4.039786 -14.815994 -17.514842
Zn -4.039786 -17.509677 -14.821159
Zn -6.733469 -14.815994 -14.821159
Zn -6.733469 -17.509677 -12.127476
Zn -4.039786 -14.815994 -12.127476
Zn -4.039786 -17.509677 -9.433793
Zn -6.733469 -14.815994 -9.433793
Zn -6.733469 -17.509677 -6.740110
Zn -4.039786 -14.815994 -6.740110
Zn -4.039786 -17.509677 -4.046427
Zn -6.733469 -14.815994 -4.046427
Zn -6.733469 -17.509677 -1.352745
Zn -4.039786 -14.815994 -1.352745
Zn -4.039786 -17.509677 1.340938
Zn -6.733469 -14.815994 1.340938
Zn -6.733469 -17.509677 4.034621
Zn -4.039786 -14.815994 4.034621
Zn -4.039786 -17.509677 6.728304
Zn -6.733469 -14.815994 6.728304
Zn -6.733469 -17.509677 9.421987
Zn -4.039786 -14.815994 9.421987
Zn -4.039786 -17.509677 12.115670
Zn -6.733469 -14.815994 12.115670
Zn -6.733469 -17.509677 14.809353
Zn -4.039786 -14.815994 14.809353
Zn -4.039786 -17.509677 17.503036
Zn -6.733469 -14.815994 17.503036
Zn -6.733469 -17.509677 20.196718
Zn -4.039786 -14.815994 20.196718
Zn -4.039786 -17.509677 22.890401
Zn -6.733469 -14.815994 22.890401
Zn -6.733469 -17.509677 25.584084
Zn -4.039786 -14.815994 25.584084
Zn -4.039786 -17.509677 28.277767
Zn -6.733469 -14.815994 28.277767
Zn -6.733469 -12.122311 -28.289573
Zn -4.039786 -9.428628 -28.289573
Zn -4.039786 -12.122311 -25.595890
Zn -6.733469 -9.428628 -25.595890
Zn -6.733469 -12.122311 -22.902208
Zn -4.039786 -9.428628 -22.902208
Zn -4.039786 -12.122311 -20.208525
Zn -6.733469 -9.428628 -20.208525
Zn -6.733469 -12.122311 -17.514842
Zn -4.039786 -9.428628 -17.514842
Zn -4.039786 -12.122311 -14.821159
Zn -6.733469 -9.428628 -14.821159
Zn -6.733469 -12.122311 -12.127476
Zn -4.039786 -9.428628 -12.127476
Zn -4.039786 -12.122311 -9.433793
Zn -6.733469 -9.428628 -9.433793
Zn -6.733469 -12.122311 -6.740110
Zn -4.039786 -9.428628 -6.740110
Zn -4.039786 -12.122311 -4.046427
Zn -6.733469 -9.428628 -4.046427
Zn -6.733469 -12.122311 -1.352745
Zn -4.039786 -9.428628 -1.352745
Zn -4.039786 -12.122311 1.340938
Zn -6.733469 -9.428628 1.340938
Zn -6.733469 -12.122311 4.034621
Zn -4.039786 -9.428628 4.034621
Zn -4.039786 -12.122311 6.728304
Zn -6.733469 -9.428628 6.728304
Zn -6.733469 -12.122311 9.421987
Zn -4.039786 -9.428628 9.421987
Zn -4.039786 -12.122311 12.115670
Zn -6.733469 -9.428628 12.115670
Zn -6.733469 -12.122311 14.809353
Zn -4.039786 -9.428628 14.809353
Zn -4.039786 -12.122311 17.503036
Zn -6.733469 -9.428628 17.503036
Zn -6.733469 -12.122311 20.196718
Zn -4.039786 -9.428628 20.196718
Zn -4.039786 -12.122311 22.890401
Zn -6.733469 -9.428628 22.890401
Zn -6.733469 -12.122311 25.584084
Zn -4.039786 -9.428628 25.584084
Zn -4.039786 -12.122311 28.277767
Zn -6.733469 -9.428628 28.277767
Zn -6.733469 -6.734945 -28.289573
Zn -4.039786 -4.041262 -28.289573
Zn -4.039786 -6.734945 -25.595890
Zn -6.733469 -4.041262 -25.595890
Zn -6.733469 -6.734945 -22.902208
Zn -4.039786 -4.041262 -22.902208
Zn -4.039786 -6.734945 -20.208525
Zn -6.733469 -4.041262 -20.208525
Zn -6.733469 -6.734945 -17.514842
Zn -4.039786 -4.041262 -17.514842
Zn -4.039786 -6.734945 -14.821159
Zn -6.733469 -4.041262 -14.821159
Zn -6.733469 -6.734945 -12.127476
Zn -4.039786 -4.041262 -12.127476
Zn -4.039786 -6.734945 -9.433793
Zn -6.733469 -4.041262 -9.433793
Zn -6.733469 -6.734945 -6.740110
Zn -4.039786 -4.041262 -6.740110
Zn -4.039786 -6.734945 -4.046427
Zn -6.733469 -4.041262 -4.046427
Zn -6.733469 -6.734945 -1.352745
Zn -4.039786 -4.041262 -1.352745
Zn -4.039786 -6.734945 1.340938
Zn -6.733469 -4.041262 1.340938
Zn -6.733469 -6.734945 4.034621
Zn -4.039786 -4.041262 4.034621
Zn -4.039786 -6.734945 6.728304
Zn -6.733469 -4.041262 6.728304
Zn -6.733469 -6.734945 9.421987
Zn -4.039786 -4.041262 9.421987
Zn -4.039786 -6.734945 12.115670
Zn -6.733469 -4.041262 12.115670
Zn -6.733469 -6.734945 14.809353
Zn -4.039786 -4.041262 14.809353
Zn -4.039786 -6.734945 17.503036
Zn -6.733469 -4.041262 17.503036
Zn -6.733469 -6.734945 20.196718
Zn -4.039786 -4.041262 20.196718
Zn -4.039786 -6.734945 22.890401
Zn -6.733469 -4.041262 22.890401
Zn -6.733469 -6.734945 25.584084
Zn -4.039786 -4.041262 25.584084
Zn -4.039786 -6.734945 28.277767
Zn -6.733469 -4.041262 28.277767
Zn -6.733469 -1.347579 -28.289573
Zn -4.039786 1.346104 -28.289573
Zn -4.039786 -1.347579 -25.595890
Zn -6.733469 1.346104 -25.595890
Zn -6.733469 -1.347579 -22.902208
Zn -4.039786 1.346104 -22.902208
Zn -4.039786 -1.347579 -20.208525
Zn -6.733469 1.346104 -20.208525
Zn -6.733469 -1.347579 -17.514842
Zn -4.039786 1.346104 -17.514842
Zn -4.039786 -1.347579 -14.821159
Zn -6.733469 1.346104 -14.821159
Zn -6.733469 -1.347579 -12.127476
Zn -4.039786 1.346104 -12.127476
Zn -4.039786 -1.347579 -9.433793
Zn -6.733469 1.346104 -9.433793
Zn -6.733469 -1.347579 -6.740110
Zn -4.039786 1.346104 -6.740110
Zn -4.039786 -1.347579 -4.046427
Zn -6.733469 1.346104 -4.046427
Zn -6.733469 -1.347579 -1.352745
Zn -4.039786 1.346104 -1.352745
Zn -4.039786 -1.347579 1.340938
Zn -6.733469 1.346104 1.340938
Zn -6.733469 -1.347579 4.034621
Zn -4.039786 1.346104 4.034621
Zn -4.039786 -1.347579 6.728304
Zn -6.733469 1.346104 6.728304
Zn -6.733469 -1.347579 9.421987
Zn -4.039786 1.346104 9.421987
Zn -4.039786 -1.347579 12.115670
Zn -6.733469 1.346104 12.115670
Zn -6.733469 -1.347579 14.809353
Zn -4.039786 1.346104 14.809353
Zn -4.039786 -1.347579 17.503036
Zn -6.733469 1.346104 17.503036
Zn -6.733469 -1.347579 20.196718
Zn -4.039786 1.346104 20.196718
Zn -4.039786 -1.347579 22.890401
Zn -6.733469 1.346104 22.890401
Zn -6.733469 -1.347579 25.584084
Zn -4.039786 1.346104 25.584084
Zn -4.039786 -1.347579 28.277767
Zn -6.733469 1.346104 28.277767
Zn -6.733469 4.039786 -28.289573
Zn -4.039786 6.733469 -28.289573
Zn -4.039786 4.039786 -25.595890
Zn -6.733469 6.733469 -25.595890
Zn -6.733469 4.039786 -22.902208
Zn -4.039786 6.733469 -22.902208
Zn -4.039786 4.039786 -20.208525
Zn -6.733469 6.733469 -20.208525
Zn -6.733469 4.039786 -17.514842
Zn -4.039786 6.733469 -17.514842
Zn -4.039786 4.039786 -14.821159
Zn -6.733469 6.733469 -14.821159
Zn -6.733469 4.039786 -12.127476
Zn -4.039786 6.733469 -12.127476
Zn -4.039786 4.039786 -9.433793
Zn -6.733469 6.733469 -9.433793
Zn -6.733469 4.039786 -6.740110
Zn -4.039786 6.733469 -6.740110
Zn -4.039786 4.039786 -4.046427
Zn -6.733469 6.733469 -4.046427
Zn -6.733469 4.039786 -1.352745
Zn -4.039786 6.733469 -1.352745
Zn -4.039786 4.039786 1.340938
Zn -6.733469 6.733469 1.340938
Zn -6.733469 4.039786 4.034621
Zn -4.039786 6.733469 4.034621
Zn -4.039786 4.039786 6.728304
Zn -6.733469 6.733469 6.728304
Zn -6.733469 4.039786 9.421987
Zn -4.039786 6.733469 9.421987
Zn -4.039786 4.039786 12.115670
Zn -6.733469 6.733469 12.115670
Zn -6.733469 4.039786 14.809353
Zn -4.039786 6.733469 14.809353
Zn -4.039786 4.039786 17.503036
Zn -6.733469 6.733469 17.503036
Zn -6.733469 4.039786 20.196718
Zn -4.039786 6.733469 20.196718
Zn -4.039786 4.039786 22.890401
Zn -6.733469 6.733469 22.890401
Zn -6.733469 4.039786 25.584084
Zn -4.039786 6.733469 25.584084
Zn -4.039786 4.039786 28.277767
Zn -6.733469 6.733469 28.277767
Zn -6.733469 9.427152 -28.289573
Zn -4.039786 12.120835 -28.289573
Zn -4.039786 9.427152 -25.595890
Zn -6.733469 12.120835 -25.595890
Zn -6.733469 9.427152 -22.902208
Zn -4.039786 12.120835 -22.902208
Zn -4.039786 9.427152 -20.208525
Zn -6.733469 12.120835 -20.208525
Zn -6.733469 9.427152 -17.514842
Zn -4.039786 12.120835 -17.514842
Zn -4.039786 9.427152 -14.821159
Zn -6.733469 12.120835 -14.821159
Zn -6.733469 9.427152 -12.127476
Zn -4.039786 12.120835 -12.127476
Zn -4.039786 9.427152 -9.433793
Zn -6.733469 12.120835 -9.433793
Zn -6.733469 9.427152 -6.740110
Zn -4.039786 12.120835 -6.740110
Zn -4.039786 9.427152 -4.046427
Zn -6.733469 12.120835 -4.046427
Zn -6.733469 9.427152 -1.352745
Zn -4.039786 12.120835 -1.352745
Zn -4.039786 9.427152 1.340938
Zn -6.733469 12.120835 1.340938
Zn -6.733469 9.427152 4.034621
Zn -4.039786 12.120835 4.034621
Zn -4.039786 9.427152 6.728304
Zn -6.733469 12.120835 6.728304
Zn -6.733469 9.427152 9.421987
Zn -4.039786 12.120835 9.421987
Zn -4.039786 9.427152 12.115670
Zn -6.733469 12.120835 12.115670
Zn -6.733469 9.427152 14.809353
Zn -4.039786 12.120835 14.809353
Zn -4.039786 9.427152 17.503036
Zn -6.733469 12.120835 17.503036
Zn -6.733469 9.427152 20.196718
Zn -4.039786 12.120835 20.196718
Zn -4.039786 9.427152 22.890401
Zn -6.733469 12.120835 22.890401
Zn -6.733469 9.427152 25.584084
Zn -4.039786 12.120835 25.584084
Zn -4.039786 9.427152 28.277767
Zn -6.733469 12.120835 28.277767
Zn -6.733469 14.814518 -28.289573
Zn -4.039786 17.508201 -28.289573
Zn -4.039786 14.814518 -25.595890
Zn -6.733469 17.508201 -25.595890
Zn -6.733469 14.814518 -22.902208
Zn -4.039786 17.508201 -22.902208
Zn -4.039786 14.814518 -20.208525
Zn -6.733469 17.508201 -20.208525
Zn -6.733469 14.814518 -17.514842
Zn -4.039786 17.508201 -17.514842
Zn -4.039786 14.814518 -14.821159
Zn -6.733469 17.508201 -14.821159
Zn -6.733469 14.814518 -12.127476
Zn -4.039786 17.508201 -12.127476
Zn -4.039786 14.814518 -9.433793
Zn -6.733469 17.508201 -9.433793
Zn -6.733469 14.814518 -6.740110
Zn -4.039786 17.508201 -6.740110
Zn -4.039786 14.814518 -4.046427
Zn -6.733469 17.508201 -4.046427
Zn -6.733469 14.814518 -1.352745
Zn -4.039786 17.508201 -1.352745
Zn -4.039786 14.814518 1.340938
Zn -6.733469 17.508201 1.340938
Zn -6.733469 14.814518 4.034621
Zn -4.039786 17.508201 4.034621
Zn -4.039786 14.814518 6.728304
Zn -6.733469 17.508201 6.728304
Zn -6.733469 14.814518 9.421987
Zn -4.039786 17.508201 9.421987
Zn -4.039786 14.814518 12.115670
Zn -6.733469 17.508201 12.115670
Zn -6.733469 14.814518 14.809353
Zn -4.039786 17.508201 14.809353
Zn -4.039786 14.814518 17.503036
Zn -6.733469 17.508201 17.503036
Zn -6.733469 14.814518 20.196718
Zn -4.039786 17.508201 20.196718
Zn -4.039786 14.814518 22.890401
Zn -6.733469 17.508201 22.890401
Zn -6.733469 14.814518 25.584084
Zn -4.039786 17.508201 25.584084
Zn -4.039786 14.814518 28.277767
Zn -4.039786 20.201884 -25.595890
Zn -6.733469 20.201884 -22.902208
Zn -4.039786 22.895567 -22.902208
Zn -4.039786 20.201884 -20.208525
Zn -6.733469 22.895567 -20.208525
Zn -6.733469 20.201884 -17.514842
Zn -4.039786 22.895567 -17.514842
Zn -4.039786 20.201884 -14.821159
Zn -6.733469 22.895567 -14.821159
Zn -6.733469 20.201884 -12.127476
Zn -4.039786 22.895567 -12.127476
Zn -4.039786 20.201884 -9.433793
Zn -6.733469 22.895567 -9.433793
Zn -6.733469 20.201884 -6.740110
Zn -4.039786 22.895567 -6.740110
Zn -4.039786 20.201884 -4.046427
Zn -6.733469 22.895567 -4.046427
Zn -6.733469 20.201884 -1.352745
Zn -4.039786 22.895567 -1.352745
Zn -4.039786 20.201884 1.340938
Zn -6.733469 22.895567 1.340938
Zn -6.733469 20.201884 4.034621
Zn -4.039786 22.895567 4.034621
Zn -4.039786 20.201884 6.728304
Zn -6.733469 22.895567 6.728304
Zn -6.733469 20.201884 9.421987
Zn -4.039786 22.895567 9.421987
Zn -4.039786 20.201884 12.115670
Zn -6.733469 22.895567 12.115670
Zn -6.733469 20.201884 14.809353
Zn -4.039786 22.895567 14.809353
Zn -4.039786 20.201884 17.503036
Zn -6.733469 22.895567 17.503036
Zn -6.733469 20.201884 20.196718
Zn -4.039786 22.895567 20.196718
Zn -4.039786 20.201884 22.890401
Zn -4.039786 25.589249 -20.208525
Zn -6.733469 25.589249 -17.514842
Zn -4.039786 28.282932 -17.514842
Zn -4.039786 25.589249 -14.821159
Zn -6.733469 28.282932 -14.821159
Zn -6.733469 25.589249 -12.127476
Zn -4.039786 28.282932 -12.127476
Zn -4.039786 25.589249 -9.433793
Zn -6.733469 28.282932 -9.433793
Zn -6.733469 25.589249 -6.740110
Zn -4.039786 28.282932 -6.740110
Zn -4.039786 25.589249 -4.046427
Zn -6.733469 28.282932 -4.046427
Zn -6.733469 25.589249 -1.352745
Zn -4.039786 28.282932 -1.352745
Zn -4.039786 25.589249 1.340938
Zn -6.733469 28.282932 1.340938
Zn -6.733469 25.589249 4.034621
Zn -4.039786 28.282932 4.034621
Zn -4.039786 25.589249 6.728304
Zn -6.733469 28.282932 6.728304
Zn -6.733469 25.589249 9.421987
Zn -4.039786 28.282932 9.421987
Zn -4.039786 25.589249 12.115670
Zn -6.733469 28.282932 12.115670
Zn -6.733469 25.589249 14.809353
Zn -4.039786 28.282932 14.809353
Zn -4.039786 25.589249 17.503036
Zn 1.347579 -25.590725 -22.902208
Zn 1.347579 -28.284408 -20.208525
Zn -1.346104 -25.590725 -20.208525
Zn -1.346104 -28.284408 -17.514842
Zn 1.347579 -25.590725 -17.514842
Zn 1.347579 -28.284408 -14.821159
Zn -1.346104 -25.590725 -14.821159
Zn -1.346104 -28.284408 -12.127476
Zn 1.347579 -25.590725 -12.127476
Zn 1.347579 -28.284408 -9.433793
Zn -1.346104 -25.590725 -9.433793
Zn -1.346104 -28.284408 -6.740110
Zn 1.347579 -25.590725 -6.740110
Zn 1.347579 -28.284408 -4.046427
Zn -1.346104 -25.590725 -4.046427
Zn -1.346104 -28.284408 -1.352745
Zn 1.347579 -25.590725 -1.352745
Zn 1.347579 -28.284408 1.340938
Zn -1.346104 -25.590725 1.340938
Zn -1.346104 -28.284408 4.034621
Zn 1.347579 -25.590725 4.034621
Zn 1.347579 -28.284408 6.728304
Zn -1.346104 -25.590725 6.728304
Zn -1.346104 -28.284408 9.421987
Zn 1.347579 -25.590725 9.421987
Zn 1.347579 -28.284408 12.115670
Zn -1.346104 -25.590725 12.115670
Zn -1.346104 -28.284408 14.809353
Zn 1.347579 -25.590725 14.809353
Zn 1.347579 -28.284408 17.503036
Zn -1.346104 -25.590725 17.503036
Zn -1.346104 -28.284408 20.196718
Zn 1.347579 -25.590725 20.196718
Zn -1.346104 -25.590725 22.890401
Zn 1.347579 -20.203359 -28.289573
Zn 1.347579 -22.897042 -25.595890
Zn -1.346104 -20.203359 -25.595890
Zn -1.346104 -22.897042 -22.902208
Zn 1.347579 -20.203359 -22.902208
Zn 1.347579 -22.897042 -20.208525
Zn -1.346104 -20.203359 -20.208525
Zn -1.346104 -22.897042 -17.514842
Zn 1.347579 -20.203359 -17.514842
Zn 1.347579 -22.897042 -14.821159
Zn -1.346104 -20.203359 -14.821159
Zn -1.346104 -22.897042 -12.127476
Zn 1.347579 -20.203359 -12.127476
Zn 1.347579 -22.897042 -9.433793
Zn -1.346104 -20.203359 -9.433793
Zn -1.346104 -22.897042 -6.740110
Zn 1.347579 -20.203359 -6.740110
Zn 1.347579 -22.897042 -4.046427
Zn -1.346104 -20.203359 -4.046427
Zn -1.346104 -22.897042 -1.352745
Zn 1.347579 -20.203359 -1.352745
Zn 1.347579 -22.897042 1.340938
Zn -1.346104 -20.203359 1.340938
Zn -1.346104 -22.897042 4.034621
Zn 1.347579 -20.203359 4.034621
Zn 1.347579 -22.897042 6.728304
Zn -1.346104 -20.203359 6.728304
Zn -1.346104 -22.897042 9.421987
Zn 1.347579 -20.203359 9.421987
Zn 1.347579 -22.897042 12.115670
Zn -1.346104 -20.203359 12.115670
Zn -1.346104 -22.897042 14.809353
Zn 1.347579 -20.203359 14.809353
Zn 1.347579 -22.897042 17.503036
Zn -1.346104 -20.203359 17.503036
Zn -1.346104 -22.897042 20.196718
Zn 1.347579 -20.203359 20.196718
Zn 1.347579 -22.897042 22.890401
Zn -1.346104 -20.203359 22.890401
Zn -1.346104 -22.897042 25.584084
Zn 1.347579 -20.203359 25.584084
Zn -1.346104 -20.203359 28.277767
Zn -1.346104 -17.509677 -28.289573
Zn 1.347579 -14.815994 -28.289573
Zn 1.347579 -17.509677 -25.595890
Zn -1.346104 -14.815994 -25.595890
Zn -1.346104 -17.509677 -22.902208
Zn 1.347579 -14.815994 -22.902208
Zn 1.347579 -17.509677 -20.208525
Zn -1.346104 -14.815994 -20.208525
Zn -1.346104 -17.509677 -17.514842
Zn 1.347579 -14.815994 -17.514842
Zn 1.347579 -17.509677 -14.821159
Zn -1.346104 -14.815994 -14.821159
Zn -1.346104 -17.509677 -12.127476
Zn 1.347579 -14.815994 -12.127476
Zn 1.347579 -17.509677 -9.433793
Zn -1.346104 -14.815994 -9.433793
Zn -1.346104 -17.509677 -6.740110
Zn 1.347579 -14.815994 -6.740110
Zn 1.347579 -17.509677 -4.046427
Zn -1.346104 -14.815994 -4.046427
Zn -1.346104 -17.509677 -1.352745
Zn 1.347579 -14.815994 -1.352745
Zn 1.347579 -17.509677 1.340938
Zn -1.346104 -14.815994 1.340938
Zn -1.346104 -17.509677 4.034621
Zn 1.347579 -14.815994 4.034621
Zn 1.347579 -17.509677 6.728304
Zn -1.346104 -14.815994 6.728304
Zn -1.346104 -17.509677 9.421987
Zn 1.347579 -14.815994 9.421987
Zn 1.347579 -17.509677 12.115670
Zn -1.346104 -14.815994 12.115670
Zn -1.346104 -17.509677 14.809353
Zn 1.347579 -14.815994 14.809353
Zn 1.347579 -17.509677 17.503036
Zn -1.346104 -14.815994 17.503036
Zn -1.346104 -17.509677 20.196718
Zn 1.347579 -14.815994 20.196718
Zn 1.347579 -17.509677 22.890401
Zn -1.346104 -14.815994 22.890401
Zn -1.346104 -17.509677 25.584084
Zn 1.347579 -14.815994 25.584084
Zn 1.347579 -17.509677 28.277767
Zn -1.346104 -14.815994 28.277767
Zn -1.346104 -12.122311 -28.289573
Zn 1.347579 -9.428628 -28.289573
Zn 1.347579 -12.122311 -25.595890
Zn -1.346104 -9.428628 -25.595890
Zn -1.346104 -12.122311 -22.902208
Zn 1.347579 -9.428628 -22.902208
Zn 1.347579 -12.122311 -20.208525
Zn -1.346104 -9.428628 -20.208525
Zn -1.346104 -12.122311 -17.514842
Zn 1.347579 -9.428628 -17.514842
Zn 1.347579 -12.122311 -14.821159
Zn -1.346104 -9.428628 -14.821159
Zn -1.346104 -12.122311 -12.127476
Zn 1.347579 -9.428628 -12.127476
Zn 1.347579 -12.122311 -9.433793
Zn -1.346104 -9.428628 -9.433793
Zn -1.346104 -12.122311 -6.740110
Zn 1.347579 -9.428628 -6.740110
Zn 1.347579 -12.122311 -4.046427
Zn -1.346104 -9.428628 -4.046427
Zn -1.346104 -12.122311 -1.352745
Zn 1.347579 -9.428628 -1.352745
Zn 1.347579 -12.122311 1.340938
Zn -1.346104 -9.428628 1.340938
Zn -1.346104 -12.122311 4.034621
Zn 1.347579 -9.428628 4.034621
Zn 1.347579 -12.122311 6.728304
Zn -1.346104 -9.428628 6.728304
Zn -1.346104 -12.122311 9.421987
Zn 1.347579 -9.428628 9.421987
Zn 1.347579 -12.122311 12.115670
Zn -1.346104 -9.428628 12.115670
Zn -1.346104 -12.122311 14.809353
Zn 1.347579 -9.428628 14.809353
Zn 1.347579 -12.122311 17.503036
Zn -1.346104 -9.428628 17.503036
Zn -1.346104 -12.122311 20.196718
Zn 1.347579 -9.428628 20.196718
Zn 1.347579 -12.122311 22.890401
Zn -1.346104 -9.428628 22.890401
Zn -1.346104 -12.122311 25.584084
Zn 1.347579 -9.428628 25.584084
Zn 1.347579 -12.122311 28.277767
Zn -1.346104 -9.428628 28.277767
Zn -1.346104 -6.734945 -28.289573
Zn 1.347579 -4.041262 -28.289573
Zn 1.347579 -6.734945 -25.595890
Zn -1.346104 -4.041262 -25.595890
Zn -1.346104 -6.734945 -22.902208
Zn 1.347579 -4.041262 -22.902208
Zn 1.347579 -6.734945 -20.208525
Zn -1.346104 -4.041262 -20.208525
Zn -1.346104 -6.734945 -17.514842
Zn 1.347579 -4.041262 -17.514842
Zn 1.347579 -6.734945 -14.821159
Zn -1.346104 -4.041262 -14.821159
Zn -1.346104 -6.734945 -12.127476
Zn 1.347579 -4.041262 -12.127476
Zn 1.347579 -6.734945 -9.433793
Zn -1.346104 -4.041262 -9.433793
Zn -1.346104 -6.734945 -6.740110
Zn 1.347579 -4.041262 -6.740110
Zn 1.347579 -6.734945 -4.046427
Zn -1.346104 -4.041262 -4.046427
Zn -1.346104 -6.734945 -1.352745
Zn 1.347579 -4.041262 -1.352745
Zn 1.347579 -6.734945 1.340938
Zn -1.346104 -4.041262 1.340938
Zn -1.346104 -6.734945 4.034621
Zn 1.347579 -4.041262 4.034621
Zn 1.347579 -6.734945 6.728304
Zn -1.346104 -4.041262 6.728304
Zn -1.346104 -6.734945 9.421987
Zn 1.347579 -4.041262 9.421987
Zn 1.347579 -6.734945 12.115670
Zn -1.346104 -4.041262 12.115670
Zn -1.346104 -6.734945 14.809353
Zn 1.347579 -4.041262 14.809353
Zn 1.347579 -6.734945 17.503036
Zn -1.346104 -4.041262 17.503036
Zn -1.346104 -6.734945 20.196718
Zn 1.347579 -4.041262 20.196718
Zn 1.347579 -6.734945 22.890401
Zn -1.346104 -4.041262 22.890401
Zn -1.346104 -6.734945 25.584084
Zn 1.347579 -4.041262 25.584084
Zn 1.347579 -6.734945 28.277767
Zn -1.346104 -4.041262 28.277767
Zn -1.346104 -1.347579 -28.289573
Zn 1.347579 1.346104 -28.289573
Zn 1.347579 -1.347579 -25.595890
Zn -1.346104 1.346104 -25.595890
Zn -1.346104 -1.347579 -22.902208
Zn 1.347579 1.346104 -22.902208
Zn 1.347579 -1.347579 -20.208525
Zn -1.346104 1.346104 -20.208525
Zn -1.346104 -1.347579 -17.514842
Zn 1.347579 1.346104 -17.514842
Zn 1.347579 -1.347579 -14.821159
Zn -1.346104 1.346104 -14.821159
Zn -1.346104 -1.347579 -12.127476
Zn 1.347579 1.346104 -12.127476
Zn 1.347579 -1.347579 -9.433793
Zn -1.346104 1.346104 -9.433793
Zn -1.346104 -1.347579 -6.740110
Zn 1.347579 1.346104 -6.740110
Zn 1.347579 -1.347579 -4.046427
Zn -1.346104 1.346104 -4.046427
Zn -1.346104 -1.347579 -1.352745
Zn 1.347579 1.346104 -1.352745
Zn 1.347579 -1.347579 1.340938
Zn -1.346104 1.346104 1.340938
Zn -1.346104 -1.347579 4.034621
Zn 1.347579 1.346104 4.034621
Zn 1.347579 -1.347579 6.728304
Zn -1.346104 1.346104 6.728304
Zn -1.346104 -1.347579 9.421987
Zn 1.347579 1.346104 9.421987
Zn 1.347579 -1.347579 12.115670
Zn -1.346104 1.346104 12.115670
Zn -1.346104 -1.347579 14.809353
Zn 1.347579 1.346104 14.809353
Zn 1.347579 -1.347579 17.503036
Zn -1.346104 1.346104 17.503036
Zn -1.346104 -1.347579 20.196718
Zn 1.347579 1.346104 20.196718
Zn 1.347579 -1.347579 22.890401
Zn -1.346104 1.346104 22.890401
Zn -1.346104 -1.347579 25.584084
Zn 1.347579 1.346104 25.584084
Zn 1.347579 -1.347579 28.277767
Zn -1.346104 1.346104 28.277767
Zn -1.346104 4.039786 -28.289573
Zn 1.347579 6.733469 -28.289573
Zn 1.347579 4.039786 -25.595890
Zn -1.346104 6.733469 -25.595890
Zn -1.346104 4.039786 -22.902208
Zn 1.347579 6.733469 -22.902208
Zn 1.347579 4.039786 -20.208525
Zn -1.346104 6.733469 -20.208525
Zn -1.346104 4.039786 -17.514842
Zn 1.347579 6.733469 -17.514842
Zn 1.347579 4.039786 -14.821159
Zn -1.346104 6.733469 -14.821159
Zn -1.346104 4.039786 -12.127476
Zn 1.347579 6.733469 -12.127476
Zn 1.347579 4.039786 -9.433793
Zn -1.346104 6.733469 -9.433793
Zn -1.346104 4.039786 -6.740110
Zn 1.347579 6.733469 -6.740110
Zn 1.347579 4.039786 -4.046427
Zn -1.346104 6.733469 -4.046427
Zn -1.346104 4.039786 -1.352745
Zn 1.347579 6.733469 -1.352745
Zn 1.347579 4.039786 1.340938
Zn -1.346104 6.733469 1.340938
Zn -1.346104 4.039786 4.034621
Zn 1.347579 6.733469 4.034621
Zn 1.347579 4.039786 6.728304
Zn -1.346104 6.733469 6.728304
Zn -1.346104 4.039786 9.421987
Zn 1.347579 6.733469 9.421987
Zn 1.347579 4.039786 12.115670
Zn -1.346104 6.733469 12.115670
Zn -1.346104 4.039786 14.809353
Zn 1.347579 6.733469 14.809353
Zn 1.347579 4.039786 17.503036
Zn -1.346104 6.733469 17.503036
Zn -1.346104 4.039786 20.196718
Zn 1.347579 6.733469 20.196718
Zn 1.347579 4.039786 22.890401
Zn -1.346104 6.733469 22.890401
Zn -1.346104 4.039786 25.584084
Zn 1.347579 6.733469 25.584084
Zn 1.347579 4.039786 28.277767
Zn -1.346104 6.733469 28.277767
Zn -1.346104 9.427152 -28.289573
Zn 1.347579 12.120835 -28.289573
Zn 1.347579 9.427152 -25.595890
Zn -1.346104 12.120835 -25.595890
Zn -1.346104 9.427152 -22.902208
Zn 1.347579 12.120835 -22.902208
Zn 1.347579 9.427152 -20.208525
Zn -1.346104 12.120835 -20.208525
Zn -1.346104 9.427152 -17.514842
Zn 1.347579 12.120835 -17.514842
Zn 1.347579 9.427152 -14.821159
Zn -1.346104 12.120835 -14.821159
Zn -1.346104 9.427152 -12.127476
Zn 1.347579 12.120835 -12.127476
Zn 1.347579 9.427152 -9.433793
Zn -1.346104 12.120835 -9.433793
Zn -1.346104 9.427152 -6.740110
Zn 1.347579 12.120835 -6.740110
Zn 1.347579 9.427152 -4.046427
Zn -1.346104 12.120835 -4.046427
Zn -1.346104 9.427152 -1.352745
Zn 1.347579 12.120835 -1.352745
Zn 1.347579 9.427152 1.340938
Zn -1.346104 12.120835 1.340938
Zn -1.346104 9.427152 4.034621
Zn 1.347579 12.120835 4.034621
Zn 1.347579 9.427152 6.728304
Zn -1.346104 12.120835 6.728304
Zn -1.346104 9.427152 9.421987
Zn 1.347579 12.120835 9.421987
Zn 1.347579 9.427152 12.115670
Zn -1.346104 12.120835 12.115670
Zn -1.346104 9.427152 14.809353
Zn 1.347579 12.120835 14.809353
Zn 1.347579 9.427152 17.503036
Zn -1.346104 12.120835 17.503036
Zn -1.346104 9.427152 20.196718
Zn 1.347579 12.120835 20.196718
Zn 1.347579 9.427152 22.890401
Zn -1.346104 12.120835 22.890401
Zn -1.346104 9.427152 25.584084
Zn 1.347579 12.120835 25.584084
Zn 1.347579 9.427152 28.277767
Zn -1.346104 12.120835 28.277767
Zn -1.346104 14.814518 -28.289573
Zn 1.347579 17.508201 -28.289573
Zn 1.347579 14.814518 -25.595890
Zn -1.346104 17.508201 -25.595890
Zn -1.346104 14.814518 -22.902208
Zn 1.347579 17.508201 -22.902208
Zn 1.347579 14.814518 -20.208525
Zn -1.346104 17.508201 -20.208525
Zn -1.346104 14.814518 -17.514842
Zn 1.347579 17.508201 -17.514842
Zn 1.347579 14.814518 -14.821159
Zn -1.346104 17.508201 -14.821159
Zn -1.346104 14.814518 -12.127476
Zn 1.347579 17.508201 -12.127476
Zn 1.347579 14.814518 -9.433793
Zn -1.346104 17.508201 -9.433793
Zn -1.346104 14.814518 -6.740110
Zn 1.347579 17.508201 -6.740110
Zn 1.347579 14.814518 -4.046427
Zn -1.346104 17.508201 -4.046427
Zn -1.346104 14.814518 -1.352745
Zn 1.347579 17.508201 -1.352745
Zn 1.347579 14.814518 1.340938
Zn -1.346104 17.508201 1.340938
Zn -1.346104 14.814518 4.034621
Zn 1.347579 17.508201 4.034621
Zn 1.347579 14.814518 6.728304
Zn -1.346104 17.508201 6.728304
Zn -1.346104 14.814518 9.421987
Zn 1.347579 17.508201 9.421987
Zn 1.347579 14.814518 12.115670
Zn -1.346104 17.508201 12.115670
Zn -1.346104 14.814518 14.809353
Zn 1.347579 17.508201 14.809353
Zn 1.347579 14.814518 17.503036
Zn -1.346104 17.508201 17.503036
Zn -1.346104 14.814518 20.196718
Zn 1.347579 17.508201 20.196718
Zn 1.347579 14.814518 22.890401
Zn -1.346104 17.508201 22.890401
Zn -1.346104 14.814518 25.584084
Zn 1.347579 17.508201 25.584084
Zn 1.347579 14.814518 28.277767
Zn -1.346104 17.508201 28.277767
Zn -1.346104 20.201884 -28.289573
Zn 1.347579 20.201884 -25.595890
Zn -1.346104 22.895567 -25.595890
Zn -1.346104 20.201884 -22.902208
Zn 1.347579 22.895567 -22.902208
Zn 1.347579 20.201884 -20.208525
Zn -1.346104 22.895567 -20.208525
Zn -1.346104 20.201884 -17.514842
Zn 1.347579 22.895567 -17.514842
Zn 1.347579 20.201884 -14.821159
Zn -1.346104 22.895567 -14.821159
Zn -1.346104 20.201884 -12.127476
Zn 1.347579 22.895567 -12.127476
Zn 1.347579 20.201884 -9.433793
Zn -1.346104 22.895567 -9.433793
Zn -1.346104 20.201884 -6.740110
Zn 1.347579 22.895567 -6.740110
Zn 1.347579 20.201884 -4.046427
Zn -1.346104 22.895567 -4.046427
Zn -1.346104 20.201884 -1.352745
Zn 1.347579 22.895567 -1.352745
Zn 1.347579 20.201884 1.340938
Zn -1.346104 22.895567 1.340938
Zn -1.346104 20.201884 4.034621
Zn 1.347579 22.895567 4.034621
Zn 1.347579 20.201884 6.728304
Zn -1.346104 22.895567 6.728304
Zn -1.346104 20.201884 9.421987
Zn 1.347579 22.895567 9.421987
Zn 1.347579 20.201884 12.115670
Zn -1.346104 22.895567 12.115670
Zn -1.346104 20.201884 14.809353
Zn 1.347579 22.895567 14.809353
Zn 1.347579 20.201884 17.503036
Zn -1.346104 22.895567 17.503036
Zn -1.346104 20.201884 20.196718
Zn 1.347579 22.895567 20.196718
Zn 1.347579 20.201884 22.890401
Zn -1.346104 22.895567 22.890401
Zn -1.346104 20.201884 25.584084
Zn 1.347579 22.895567 25.584084
Zn 1.347579 20.201884 28.277767
Zn -1.346104 25.589249 -22.902208
Zn 1.347579 25.589249 -20.208525
Zn -1.346104 28.282932 -20.208525
Zn -1.346104 25.589249 -17.514842
Zn 1.347579 28.282932 -17.514842
Zn 1.347579 25.589249 -14.821159
Zn -1.346104 28.282932 -14.821159
Zn -1.346104 25.589249 -12.127476
Zn 1.347579 28.282932 -12.127476
Zn 1.347579 25.589249 -9.433793
Zn -1.346104 28.282932 -9.433793
Zn -1.346104 25.589249 -6.740110
Zn 1.347579 28.282932 -6.740110
Zn 1.347579 25.589249 -4.046427
Zn -1.346104 28.282932 -4.046427
Zn -1.346104 25.589249 -1.352745
Zn 1.347579 28.282932 -1.352745
Zn 1.347579 25.589249 1.340938
Zn -1.346104 28.282932 1.340938
Zn -1.346104 25.589249 4.034621
Zn 1.347579 28.282932 4.034621
Zn 1.347579 25.589249 6.728304
Zn -1.346104 28.282932 6.728304
Zn -1.346104 25.589249 9.421987
Zn 1.347579 28.282932 9.421987
Zn 1.347579 25.589249 12.115670
Zn -1.346104 28.282932 12.115670
Zn -1.346104 25.589249 14.809353
Zn 1.347579 28.282932 14.809353
Zn 1.347579 25.589249 17.503036
Zn -1.346104 28.282932 17.503036
Zn -1.346104 25.589249 20.196718
Zn 1.347579 28.282932 20.196718
Zn 1.347579 25.589249 22.890401
Zn 4.041262 -25.590725 -20.208525
Zn 4.041262 -28.284408 -17.514842
Zn 6.734945 -25.590725 -17.514842
Zn 6.734945 -28.284408 -14.821159
Zn 4.041262 -25.590725 -14.821159
Zn 4.041262 -28.284408 -12.127476
Zn 6.734945 -25.590725 -12.127476
Zn 6.734945 -28.284408 -9.433793
Zn 4.041262 -25.590725 -9.433793
Zn 4.041262 -28.284408 -6.740110
Zn 6.734945 -25.590725 -6.740110
Zn 6.734945 -28.284408 -4.046427
Zn 4.041262 -25.590725 -4.046427
Zn 4.041262 -28.284408 -1.352745
Zn 6.734945 -25.590725 -1.352745
Zn 6.734945 -28.284408 1.340938
Zn 4.041262 -25.590725 1.340938
Zn 4.041262 -28.284408 4.034621
Zn 6.734945 -25.590725 4.034621
Zn 6.734945 -28.284408 6.728304
Zn 4.041262 -25.590725 6.728304
Zn 4.041262 -28.284408 9.421987
Zn 6.734945 -25.590725 9.421987
Zn 6.734945 -28.284408 12.115670
Zn 4.041262 -25.590725 12.115670
Zn 4.041262 -28.284408 14.809353
Zn 6.734945 -25.590725 14.809353
Zn 4.041262 -25.590725 17.503036
Zn 4.041262 -20.203359 -25.595890
Zn 4.041262 -22.897042 -22.902208
Zn 6.734945 -20.203359 -22.902208
Zn 6.734945 -22.897042 -20.208525
Zn 4.041262 -20.203359 -20.208525
Zn 4.041262 -22.897042 -17.514842
Zn 6.734945 -20.203359 -17.514842
Zn 6.734945 -22.897042 -14.821159
Zn 4.041262 -20.203359 -14.821159
Zn 4.041262 -22.897042 -12.127476
Zn 6.734945 -20.203359 -12.127476
Zn 6.734945 -22.897042 -9.433793
Zn 4.041262 -20.203359 -9.433793
Zn 4.041262 -22.897042 -6.740110
Zn 6.734945 -20.203359 -6.740110
Zn 6.734945 -22.897042 -4.046427
Zn 4.041262 -20.203359 -4.046427
Zn 4.041262 -22.897042 -1.352745
Zn 6.734945 -20.203359 -1.352745
Zn 6.734945 -22.897042 1.340938
Zn 4.041262 -20.203359 1.340938
Zn 4.041262 -22.897042 4.034621
Zn 6.734945 -20.203359 4.034621
Zn 6.734945 -22.897042 6.728304
Zn 4.041262 -20.203359 6.728304
Zn 4.041262 -22.897042 9.421987
Zn 6.734945 -20.203359 9.421987
Zn 6.734945 -22.897042 12.115670
Zn 4.041262 -20.203359 12.115670
Zn 4.041262 -22.897042 14.809353
Zn 6.734945 -20.203359 14.809353
Zn 6.734945 -22.897042 17.503036
Zn 4.041262 -20.203359 17.503036
Zn 4.041262 -22.897042 20.196718
Zn 6.734945 -20.203359 20.196718
Zn 4.041262 -20.203359 22.890401
Zn 4.041262 -17.509677 -28.289573
Zn 6.734945 -14.815994 -28.289573
Zn 6.734945 -17.509677 -25.595890
Zn 4.041262 -14.815994 -25.595890
Zn 4.041262 -17.509677 -22.902208
Zn 6.734945 -14.815994 -22.902208
Zn 6.734945 -17.509677 -20.208525
Zn 4.041262 -14.815994 -20.208525
Zn 4.041262 -17.509677 -17.514842
Zn 6.734945 -14.815994 -17.514842
Zn 6.734945 -17.509677 -14.821159
Zn 4.041262 -14.815994 -14.821159
Zn 4.041262 -17.509677 -12.127476
Zn 6.734945 -14.815994 -12.127476
Zn 6.734945 -17.509677 -9.433793
Zn 4.041262 -14.815994 -9.433793
Zn 4.041262 -17.509677 -6.740110
Zn 6.734945 -14.815994 -6.740110
Zn 6.734945 -17.509677 -4.046427
Zn 4.041262 -14.815994 -4.046427
Zn 4.041262 -17.509677 -1.352745
Zn 6.734945 -14.815994 -1.352745
Zn 6.734945 -17.509677 1.340938
Zn 4.041262 -14.815994 1.340938
Zn 4.041262 -17.509677 4.034621
Zn 6.734945 -14.815994 4.034621
Zn 6.734945 -17.509677 6.728304
Zn 4.041262 -14.815994 6.728304
Zn 4.041262 -17.509677 9.421987
Zn 6.734945 -14.815994 9.421987
Zn 6.734945 -17.509677 12.115670
Zn 4.041262 -14.815994 12.115670
Zn 4.041262 -17.509677 14.809353
Zn 6.734945 -14.815994 14.809353
Zn 6.734945 -17.509677 17.503036
Zn 4.041262 -14.815994 17.503036
Zn 4.041262 -17.509677 20.196718
Zn 6.734945 -14.815994 20.196718
Zn 6.734945 -17.509677 22.890401
Zn 4.041262 -14.815994 22.890401
Zn 4.041262 -17.509677 25.584084
Zn 6.734945 -14.815994 25.584084
Zn 4.041262 -14.815994 28.277767
Zn 4.041262 -12.122311 -28.289573
Zn 6.734945 -9.428628 -28.289573
Zn 6.734945 -12.122311 -25.595890
Zn 4.041262 -9.428628 -25.595890
Zn 4.041262 -12.122311 -22.902208
Zn 6.734945 -9.428628 -22.902208
Zn 6.734945 -12.122311 -20.208525
Zn 4.041262 -9.428628 -20.208525
Zn 4.041262 -12.122311 -17.514842
Zn 6.734945 -9.428628 -17.514842
Zn 6.734945 -12.122311 -14.821159
Zn 4.041262 -9.428628 -14.821159
Zn 4.041262 -12.122311 -12.127476
Zn 6.734945 -9.428628 -12.127476
Zn 6.734945 -12.122311 -9.433793
Zn 4.041262 -9.428628 -9.433793
Zn 4.041262 -12.122311 -6.740110
Zn 6.734945 -9.428628 -6.740110
Zn 6.734945 -12.122311 -4.046427
Zn 4.041262 -9.428628 -4.046427
Zn 4.041262 -12.122311 -1.352745
Zn 6.734945 -9.428628 -1.352745
Zn 6.734945 -12.122311 1.340938
Zn 4.041262 -9.428628 1.340938
Zn 4.041262 -12.122311 4.034621
Zn 6.734945 -9.428628 4.034621
Zn 6.734945 -12.122311 6.728304
Zn 4.041262 -9.428628 6.728304
Zn 4.041262 -12.122311 9.421987
Zn 6.734945 -9.428628 9.421987
Zn 6.734945 -12.122311 12.115670
Zn 4.041262 -9.428628 12.115670
Zn 4.041262 -12.122311 14.809353
Zn 6.734945 -9.428628 14.809353
Zn 6.734945 -12.122311 17.503036
Zn 4.041262 -9.428628 17.503036
Zn 4.041262 -12.122311 20.196718
Zn 6.734945 -9.428628 20.196718
Zn 6.734945 -12.122311 22.890401
Zn 4.041262 -9.428628 22.890401
Zn 4.041262 -12.122311 25.584084
Zn 6.734945 -9.428628 25.584084
Zn 6.734945 -12.122311 28.277767
Zn 4.041262 -9.428628 28.277767
Zn 4.041262 -6.734945 -28.289573
Zn 6.734945 -4.041262 -28.289573
Zn 6.734945 -6.734945 -25.595890
Zn 4.041262 -4.041262 -25.595890
Zn 4.041262 -6.734945 -22.902208
Zn 6.734945 -4.041262 -22.902208
Zn 6.734945 -6.734945 -20.208525
Zn 4.041262 -4.041262 -20.208525
Zn 4.041262 -6.734945 -17.514842
Zn 6.734945 -4.041262 -17.514842
Zn 6.734945 -6.734945 -14.821159
Zn 4.041262 -4.041262 -14.821159
Zn 4.041262 -6.734945 -12.127476
Zn 6.734945 -4.041262 -12.127476
Zn 6.734945 -6.734945 -9.433793
Zn 4.041262 -4.041262 -9.433793
Zn 4.041262 -6.734945 -6.740110
Zn 6.734945 -4.041262 -6.740110
Zn 6.734945 -6.734945 -4.046427
Zn 4.041262 -4.041262 -4.046427
Zn 4.041262 -6.734945 -1.352745
Zn 6.734945 -4.041262 -1.352745
Zn 6.734945 -6.734945 1.340938
Zn 4.041262 -4.041262 1.340938
Zn 4.041262 -6.734945 4.034621
Zn 6.734945 -4.041262 4.034621
Zn 6.734945 -6.734945 6.728304
Zn 4.041262 -4.041262 6.728304
Zn 4.041262 -6.734945 9.421987
Zn 6.734945 -4.041262 9.421987
Zn 6.734945 -6.734945 12.115670
Zn 4.041262 -4.041262 12.115670
Zn 4.041262 -6.734945 14.809353
Zn 6.734945 -4.041262 14.809353
Zn 6.734945 -6.734945 17.503036
Zn 4.041262 -4.041262 17.503036
Zn 4.041262 -6.734945 20.196718
Zn 6.734945 -4.041262 20.196718
Zn 6.734945 -6.734945 22.890401
Zn 4.041262 -4.041262 22.890401
Zn 4.041262 -6.734945 25.584084
Zn 6.734945 -4.041262 25.584084
Zn 6.734945 -6.734945 28.277767
Zn 4.041262 -4.041262 28.277767
Zn 4.041262 -1.347579 -28.289573
Zn 6.734945 1.346104 -28.289573
Zn 6.734945 -1.347579 -25.595890
Zn 4.041262 1.346104 -25.595890
Zn 4.041262 -1.347579 -22.902208
Zn 6.734945 1.346104 -22.902208
Zn 6.734945 -1.347579 -20.208525
Zn 4.041262 1.346104 -20.208525
Zn 4.041262 -1.347579 -17.514842
Zn 6.734945 1.346104 -17.514842
Zn 6.734945 -1.347579 -14.821159
Zn 4.041262 1.346104 -14.821159
Zn 4.041262 -1.347579 -12.127476
Zn 6.734945 1.346104 -12.127476
Zn 6.734945 -1.347579 -9.433793
Zn 4.041262 1.346104 -9.433793
Zn 4.041262 -1.347579 -6.740110
Zn 6.734945 1.346104 -6.740110
Zn 6.734945 -1.347579 -4.046427
Zn 4.041262 1.346104 -4.046427
Zn 4.041262 -1.347579 -1.352745
Zn 6.734945 1.346104 -1.352745
Zn 6.734945 -1.347579 1.340938
Zn 4.041262 1.346104 1.340938
Zn 4.041262 -1.347579 4.034621
Zn 6.734945 1.346104 4.034621
Zn 6.734945 -1.347579 6.728304
Zn 4.041262 1.346104 6.728304
Zn 4.041262 -1.347579 9.421987
Zn 6.734945 1.346104 9.421987
Zn 6.734945 -1.347579 12.115670
Zn 4.041262 1.346104 12.115670
Zn 4.041262 -1.347579 14.809353
Zn 6.734945 1.346104 14.809353
Zn 6.734945 -1.347579 17.503036
Zn 4.041262 1.346104 17.503036
Zn 4.041262 -1.347579 20.196718
Zn 6.734945 1.346104 20.196718
Zn 6.734945 -1.347579 22.890401
Zn 4.041262 1.346104 22.890401
Zn 4.041262 -1.347579 25.584084
Zn 6.734945 1.346104 25.584084
Zn 6.734945 -1.347579 28.277767
Zn 4.041262 1.346104 28.277767
Zn 4.041262 4.039786 -28.289573
Zn 6.734945 6.733469 -28.289573
Zn 6.734945 4.039786 -25.595890
Zn 4.041262 6.733469 -25.595890
Zn 4.041262 4.039786 -22.902208
Zn 6.734945 6.733469 -22.902208
Zn 6.734945 4.039786 -20.208525
Zn 4.041262 6.733469 -20.208525
Zn 4.041262 4.039786 -17.514842
Zn 6.734945 6.733469 -17.514842
Zn 6.734945 4.039786 -14.821159
Zn 4.041262 6.733469 -14.821159
Zn 4.041262 4.039786 -12.127476
Zn 6.734945 6.733469 -12.127476
Zn 6.734945 4.039786 -9.433793
Zn 4.041262 6.733469 -9.433793
Zn 4.041262 4.039786 -6.740110
Zn 6.734945 6.733469 -6.740110
Zn 6.734945 4.039786 -4.046427
Zn 4.041262 6.733469 -4.046427
Zn 4.041262 4.039786 -1.352745
Zn 6.734945 6.733469 -1.352745
Zn 6.734945 4.039786 1.340938
Zn 4.041262 6.733469 1.340938
Zn 4.041262 4.039786 4.034621
Zn 6.734945 6.733469 4.034621
Zn 6.734945 4.039786 6.728304
Zn 4.041262 6.733469 6.728304
Zn 4.041262 4.039786 9.421987
Zn 6.734945 6.733469 9.421987
Zn 6.734945 4.039786 12.115670
Zn 4.041262 6.733469 12.115670
Zn 4.041262 4.039786 14.809353
Zn 6.734945 6.733469 14.809353
Zn 6.734945 4.039786 17.503036
Zn 4.041262 6.733469 17.503036
Zn 4.041262 4.039786 20.196718
Zn 6.734945 6.733469 20.196718
Zn 6.734945 4.039786 22.890401
Zn 4.041262 6.733469 22.890401
Zn 4.041262 4.039786 25.584084
Zn 6.734945 6.733469 25.584084
Zn 6.734945 4.039786 28.277767
Zn 4.041262 6.733469 28.277767
Zn 4.041262 9.427152 -28.289573
Zn 6.734945 12.120835 -28.289573
Zn 6.734945 9.427152 -25.595890
Zn 4.041262 12.120835 -25.595890
Zn 4.041262 9.427152 -22.902208
Zn 6.734945 12.120835 -22.902208
Zn 6.734945 9.427152 -20.208525
Zn 4.041262 12.120835 -20.208525
Zn 4.041262 9.427152 -17.514842
Zn 6.734945 12.120835 -17.514842
Zn 6.734945 9.427152 -14.821159
Zn 4.041262 12.120835 -14.821159
Zn 4.041262 9.427152 -12.127476
Zn 6.734945 12.120835 -12.127476
Zn 6.734945 9.427152 -9.433793
Zn 4.041262 12.120835 -9.433793
Zn 4.041262 9.427152 -6.740110
Zn 6.734945 12.120835 -6.740110
Zn 6.734945 9.427152 -4.046427
Zn 4.041262 12.120835 -4.046427
Zn 4.041262 9.427152 -1.352745
Zn 6.734945 12.120835 -1.352745
Zn 6.734945 9.427152 1.340938
Zn 4.041262 12.120835 1.340938
Zn 4.041262 9.427152 4.034621
Zn 6.734945 12.120835 4.034621
Zn 6.734945 9.427152 6.728304
Zn 4.041262 12.120835 6.728304
Zn 4.041262 9.427152 9.421987
Zn 6.734945 12.120835 9.421987
Zn 6.734945 9.427152 12.115670
Zn 4.041262 12.120835 12.115670
Zn 4.041262 9.427152 14.809353
Zn 6.734945 12.120835 14.809353
Zn 6.734945 9.427152 17.503036
Zn 4.041262 12.120835 17.503036
Zn 4.041262 9.427152 20.196718
Zn 6.734945 12.120835 20.196718
Zn 6.734945 9.427152 22.890401
Zn 4.041262 12.120835 22.890401
Zn 4.041262 9.427152 25.584084
Zn 6.734945 12.120835 25.584084
Zn 6.734945 9.427152 28.277767
Zn 4.041262 12.120835 28.277767
Zn 4.041262 14.814518 -28.289573
Zn 6.734945 14.814518 -25.595890
Zn 4.041262 17.508201 -25.595890
Zn 4.041262 14.814518 -22.902208
Zn 6.734945 17.508201 -22.902208
Zn 6.734945 14.814518 -20.208525
Zn 4.041262 17.508201 -20.208525
Zn 4.041262 14.814518 -17.514842
Zn 6.734945 17.508201 -17.514842
Zn 6.734945 14.814518 -14.821159
Zn 4.041262 17.508201 -14.821159
Zn 4.041262 14.814518 -12.127476
Zn 6.734945 17.508201 -12.127476
Zn 6.734945 14.814518 -9.433793
Zn 4.041262 17.508201 -9.433793
Zn 4.041262 14.814518 -6.740110
Zn 6.734945 17.508201 -6.740110
Zn 6.734945 14.814518 -4.046427
Zn 4.041262 17.508201 -4.046427
Zn 4.041262 14.814518 -1.352745
Zn 6.734945 17.508201 -1.352745
Zn 6.734945 14.814518 1.340938
Zn 4.041262 17.508201 1.340938
Zn 4.041262 14.814518 4.034621
Zn 6.734945 17.508201 4.034621
Zn 6.734945 14.814518 6.728304
Zn 4.041262 17.508201 6.728304
Zn 4.041262 14.814518 9.421987
Zn 6.734945 17.508201 9.421987
Zn 6.734945 14.814518 12.115670
Zn 4.041262 17.508201 12.115670
Zn 4.041262 14.814518 14.809353
Zn 6.734945 17.508201 14.809353
Zn 6.734945 14.814518 17.503036
Zn 4.041262 17.508201 17.503036
Zn 4.041262 14.814518 20.196718
Zn 6.734945 17.508201 20.196718
Zn 6.734945 14.814518 22.890401
Zn 4.041262 17.508201 22.890401
Zn 4.041262 14.814518 25.584084
Zn 6.734945 17.508201 25.584084
Zn 6.734945 14.814518 28.277767
Zn 4.041262 17.508201 28.277767
Zn 4.041262 20.201884 -22.902208
Zn 6.734945 20.201884 -20.208525
Zn 4.041262 22.895567 -20.208525
Zn 4.041262 20.201884 -17.514842
Zn 6.734945 22.895567 -17.514842
Zn 6.734945 20.201884 -14.821159
Zn 4.041262 22.895567 -14.821159
Zn 4.041262 20.201884 -12.127476
Zn 6.734945 22.895567 -12.127476
Zn 6.734945 20.201884 -9.433793
Zn 4.041262 22.895567 -9.433793
Zn 4.041262 20.201884 -6.740110
Zn 6.734945 22.895567 -6.740110
Zn 6.734945 20.201884 -4.046427
Zn 4.041262 22.895567 -4.046427
Zn 4.041262 20.201884 -1.352745
Zn 6.734945 22.895567 -1.352745
Zn 6.734945 20.201884 1.340938
Zn 4.041262 22.895567 1.340938
Zn 4.041262 20.201884 4.034621
Zn 6.734945 22.895567 4.034621
Zn 6.734945 20.201884 6.728304
Zn 4.041262 22.895567 6.728304
Zn 4.041262 20.201884 9.421987
Zn 6.734945 22.895567 9.421987
Zn 6.734945 20.201884 12.115670
Zn 4.041262 22.895567 12.115670
Zn 4.041262 20.201884 14.809353
Zn 6.734945 22.895567 14.809353
Zn 6.734945 20.201884 17.503036
Zn 4.041262 22.895567 17.503036
Zn 4.041262 20.201884 20.196718
Zn 6.734945 22.895567 20.196718
Zn 6.734945 20.201884 22.890401
Zn 4.041262 22.895567 22.890401
Zn 4.041262 20.201884 25.584084
Zn 4.041262 25.589249 -17.514842
Zn 6.734945 25.589249 -14.821159
Zn 4.041262 28.282932 -14.821159
Zn 4.041262 25.589249 -12.127476
Zn 6.734945 28.282932 -12.127476
Zn 6.734945 25.589249 -9.433793
Zn 4.041262 28.282932 -9.433793
Zn 4.041262 25.589249 -6.740110
Zn 6.734945 28.282932 -6.740110
Zn 6.734945 25.589249 -4.046427
Zn 4.041262 28.282932 -4.046427
Zn 4.041262 25.589249 -1.352745
Zn 6.734945 28.282932 -1.352745
Zn 6.734945 25.589249 1.340938
Zn 4.041262 28.282932 1.340938
Zn 4.041262 25.589249 4.034621
Zn 6.734945 28.282932 4.034621
Zn 6.734945 25.589249 6.728304
Zn 4.041262 28.282932 6.728304
Zn 4.041262 25.589249 9.421987
Zn 6.734945 28.282932 9.421987
Zn 6.734945 25.589249 12.115670
Zn 4.041262 28.282932 12.115670
Zn 4.041262 25.589249 14.809353
Zn 6.734945 28.282932 14.809353
Zn 6.734945 25.589249 17.503036
Zn 4.041262 28.282932 17.503036
Zn 4.041262 25.589249 20.196718
Zn 9.428628 -25.590725 -14.821159
Zn 9.428628 -28.284408 -12.127476
Zn 12.122311 -25.590725 -12.127476
Zn 12.122311 -28.284408 -9.433793
Zn 9.428628 -25.590725 -9.433793
Zn 9.428628 -28.284408 -6.740110
Zn 12.122311 -25.590725 -6.740110
Zn 12.122311 -28.284408 -4.046427
Zn 9.428628 -25.590725 -4.046427
Zn 9.428628 -28.284408 -1.352745
Zn 12.122311 -25.590725 -1.352745
Zn 12.122311 -28.284408 1.340938
Zn 9.428628 -25.590725 1.340938
Zn 9.428628 -28.284408 4.034621
Zn 12.122311 -25.590725 4.034621
Zn 12.122311 -28.284408 6.728304
Zn 9.428628 -25.590725 6.728304
Zn 9.428628 -28.284408 9.421987
Zn 12.122311 -25.590725 9.421987
Zn 9.428628 -25.590725 12.115670
Zn 9.428628 -20.203359 -20.208525
Zn 9.428628 -22.897042 -17.514842
Zn 12.122311 -20.203359 -17.514842
Zn 12.122311 -22.897042 -14.821159
Zn 9.428628 -20.203359 -14.821159
Zn 9.428628 -22.897042 -12.127476
Zn 12.122311 -20.203359 -12.127476
Zn 12.122311 -22.897042 -9.433793
Zn 9.428628 -20.203359 -9.433793
Zn 9.428628 -22.897042 -6.740110
Zn 12.122311 -20.203359 -6.740110
Zn 12.122311 -22.897042 -4.046427
Zn 9.428628 -20.203359 -4.046427
Zn 9.428628 -22.897042 -1.352745
Zn 12.122311 -20.203359 -1.352745
Zn 12.122311 -22.897042 1.340938
Zn 9.428628 -20.203359 1.340938
Zn 9.428628 -22.897042 4.034621
Zn 12.122311 -20.203359 4.034621
Zn 12.122311 -22.897042 6.728304
Zn 9.428628 -20.203359 6.728304
Zn 9.428628 -22.897042 9.421987
Zn 12.122311 -20.203359 9.421987
Zn 12.122311 -22.897042 12.115670
Zn 9.428628 -20.203359 12.115670
Zn 9.428628 -22.897042 14.809353
Zn 12.122311 -20.203359 14.809353
Zn 9.428628 -20.203359 17.503036
Zn 9.428628 -14.815994 -25.595890
Zn 9.428628 -17.509677 -22.902208
Zn 12.122311 -14.815994 -22.902208
Zn 12.122311 -17.509677 -20.208525
Zn 9.428628 -14.815994 -20.208525
Zn 9.428628 -17.509677 -17.514842
Zn 12.122311 -14.815994 -17.514842
Zn 12.122311 -17.509677 -14.821159
Zn 9.428628 -14.815994 -14.821159
Zn 9.428628 -17.509677 -12.127476
Zn 12.122311 -14.815994 -12.127476
Zn 12.122311 -17.509677 -9.433793
Zn 9.428628 -14.815994 -9.433793
Zn 9.428628 -17.509677 -6.740110
Zn 12.122311 -14.815994 -6.740110
Zn 12.122311 -17.509677 -4.046427
Zn 9.428628 -14.815994 -4.046427
Zn 9.428628 -17.509677 -1.352745
Zn 12.122311 -14.815994 -1.352745
Zn 12.122311 -17.509677 1.340938
Zn 9.428628 -14.815994 1.340938
Zn 9.428628 -17.509677 4.034621
Zn 12.122311 -14.815994 4.034621
Zn 12.122311 -17.509677 6.728304
Zn 9.428628 -14.815994 6.728304
Zn 9.428628 -17.509677 9.421987
Zn 12.122311 -14.815994 9.421987
Zn 12.122311 -17.509677 12.115670
Zn 9.428628 -14.815994 12.115670
Zn 9.428628 -17.509677 14.809353
Zn 12.122311 -14.815994 14.809353
Zn 12.122311 -17.509677 17.503036
Zn 9.428628 -14.815994 17.503036
Zn 9.428628 -17.509677 20.196718
Zn 12.122311 -14.815994 20.196718
Zn 9.428628 -14.815994 22.890401
Zn 9.428628 -12.122311 -28.289573
Zn 12.122311 -9.428628 -28.289573
Zn 12.122311 -12.122311 -25.595890
Zn 9.428628 -9.428628 -25.595890
Zn 9.428628 -12.122311 -22.902208
Zn 12.122311 -9.428628 -22.902208
Zn 12.122311 -12.122311 -20.208525
Zn 9.428628 -9.428628 -20.208525
Zn 9.428628 -12.122311 -17.514842
Zn 12.122311 -9.428628 -17.514842
Zn 12.122311 -12.122311 -14.821159
Zn 9.428628 -9.428628 -14.821159
Zn 9.428628 -12.122311 -12.127476
Zn 12.122311 -9.428628 -12.127476
Zn 12.122311 -12.122311 -9.433793
Zn 9.428628 -9.428628 -9.433793
Zn 9.428628 -12.122311 -6.740110
Zn 12.122311 -9.428628 -6.740110
Zn 12.122311 -12.122311 -4.046427
Zn 9.428628 -9.428628 -4.046427
Zn 9.428628 -12.122311 -1.352745
Zn 12.122311 -9.428628 -1.352745
Zn 12.122311 -12.122311 1.340938
Zn 9.428628 -9.428628 1.340938
Zn 9.428628 -12.122311 4.034621
Zn 12.122311 -9.428628 4.034621
Zn 12.122311 -12.122311 6.728304
Zn 9.428628 -9.428628 6.728304
Zn 9.428628 -12.122311 9.421987
Zn 12.122311 -9.428628 9.421987
Zn 12.122311 -12.122311 12.115670
Zn 9.428628 -9.428628 12.115670
Zn 9.428628 -12.122311 14.809353
Zn 12.122311 -9.428628 14.809353
Zn 12.122311 -12.122311 17.503036
Zn 9.428628 -9.428628 17.503036
Zn 9.428628 -12.122311 20.196718
Zn 12.122311 -9.428628 20.196718
Zn 12.122311 -12.122311 22.890401
Zn 9.428628 -9.428628 22.890401
Zn 9.428628 -12.122311 25.584084
Zn 12.122311 -9.428628 25.584084
Zn 9.428628 -9.428628 28.277767
Zn 9.428628 -6.734945 -28.289573
Zn 12.122311 -4.041262 -28.289573
Zn 12.122311 -6.734945 -25.595890
Zn 9.428628 -4.041262 -25.595890
Zn 9.428628 -6.734945 -22.902208
Zn 12.122311 -4.041262 -22.902208
Zn 12.122311 -6.734945 -20.208525
Zn 9.428628 -4.041262 -20.208525
Zn 9.428628 -6.734945 -17.514842
Zn 12.122311 -4.041262 -17.514842
Zn 12.122311 -6.734945 -14.821159
Zn 9.428628 -4.041262 -14.821159
Zn 9.428628 -6.734945 -12.127476
Zn 12.122311 -4.041262 -12.127476
Zn 12.122311 -6.734945 -9.433793
Zn 9.428628 -4.041262 -9.433793
Zn 9.428628 -6.734945 -6.740110
Zn 12.122311 -4.041262 -6.740110
Zn 12.122311 -6.734945 -4.046427
Zn 9.428628 -4.041262 -4.046427
Zn 9.428628 -6.734945 -1.352745
Zn 12.122311 -4.041262 -1.352745
Zn 12.122311 -6.734945 1.340938
Zn 9.428628 -4.041262 1.340938
Zn 9.428628 -6.734945 4.034621
Zn 12.122311 -4.041262 4.034621
Zn 12.122311 -6.734945 6.728304
Zn 9.428628 -4.041262 6.728304
Zn 9.428628 -6.734945 9.421987
Zn 12.122311 -4.041262 9.421987
Zn 12.122311 -6.734945 12.115670
Zn 9.428628 -4.041262 12.115670
Zn 9.428628 -6.734945 14.809353
Zn 12.122311 -4.041262 14.809353
Zn 12.122311 -6.734945 17.503036
Zn 9.428628 -4.041262 17.503036
Zn 9.428628 -6.734945 20.196718
Zn 12.122311 -4.041262 20.196718
Zn 12.122311 -6.734945 22.890401
Zn 9.428628 -4.041262 22.890401
Zn 9.428628 -6.734945 25.584084
Zn 12.122311 -4.041262 25.584084
Zn 12.122311 -6.734945 28.277767
Zn 9.428628 -4.041262 28.277767
Zn 9.428628 -1.347579 -28.289573
Zn 12.122311 1.346104 -28.289573
Zn 12.122311 -1.347579 -25.595890
Zn 9.428628 1.346104 -25.595890
Zn 9.428628 -1.347579 -22.902208
Zn 12.122311 1.346104 -22.902208
Zn 12.122311 -1.347579 -20.208525
Zn 9.428628 1.346104 -20.208525
Zn 9.428628 -1.347579 -17.514842
Zn 12.122311 1.346104 -17.514842
Zn 12.122311 -1.347579 -14.821159
Zn 9.428628 1.346104 -14.821159
Zn 9.428628 -1.347579 -12.127476
Zn 12.122311 1.346104 -12.127476
Zn 12.122311 -1.347579 -9.433793
Zn 9.428628 1.346104 -9.433793
Zn 9.428628 -1.347579 -6.740110
Zn 12.122311 1.346104 -6.740110
Zn 12.122311 -1.347579 -4.046427
Zn 9.428628 1.346104 -4.046427
Zn 9.428628 -1.347579 -1.352745
Zn 12.122311 1.346104 -1.352745
Zn 12.122311 -1.347579 1.340938
Zn 9.428628 1.346104 1.340938
Zn 9.428628 -1.347579 4.034621
Zn 12.122311 1.346104 4.034621
Zn 12.122311 -1.347579 6.728304
Zn 9.428628 1.346104 6.728304
Zn 9.428628 -1.347579 9.421987
Zn 12.122311 1.346104 9.421987
Zn 12.122311 -1.347579 12.115670
Zn 9.428628 1.346104 12.115670
Zn 9.428628 -1.347579 14.809353
Zn 12.122311 1.346104 14.809353
Zn 12.122311 -1.347579 17.503036
Zn 9.428628 1.346104 17.503036
Zn 9.428628 -1.347579 20.196718
Zn 12.122311 1.346104 20.196718
Zn 12.122311 -1.347579 22.890401
Zn 9.428628 1.346104 22.890401
Zn 9.428628 -1.347579 25.584084
Zn 12.122311 1.346104 25.584084
Zn 12.122311 -1.347579 28.277767
Zn 9.428628 1.346104 28.277767
Zn 9.428628 4.039786 -28.289573
Zn 12.122311 6.733469 -28.289573
Zn 12.122311 4.039786 -25.595890
Zn 9.428628 6.733469 -25.595890
Zn 9.428628 4.039786 -22.902208
Zn 12.122311 6.733469 -22.902208
Zn 12.122311 4.039786 -20.208525
Zn 9.428628 6.733469 -20.208525
Zn 9.428628 4.039786 -17.514842
Zn 12.122311 6.733469 -17.514842
Zn 12.122311 4.039786 -14.821159
Zn 9.428628 6.733469 -14.821159
Zn 9.428628 4.039786 -12.127476
Zn 12.122311 6.733469 -12.127476
Zn 12.122311 4.039786 -9.433793
Zn 9.428628 6.733469 -9.433793
Zn 9.428628 4.039786 -6.740110
Zn 12.122311 6.733469 -6.740110
Zn 12.122311 4.039786 -4.046427
Zn 9.428628 6.733469 -4.046427
Zn 9.428628 4.039786 -1.352745
Zn 12.122311 6.733469 -1.352745
Zn 12.122311 4.039786 1.340938
Zn 9.428628 6.733469 1.340938
Zn 9.428628 4.039786 4.034621
Zn 12.122311 6.733469 4.034621
Zn 12.122311 4.039786 6.728304
Zn 9.428628 6.733469 6.728304
Zn 9.428628 4.039786 9.421987
Zn 12.122311 6.733469 9.421987
Zn 12.122311 4.039786 12.115670
Zn 9.428628 6.733469 12.115670
Zn 9.428628 4.039786 14.809353
Zn 12.122311 6.733469 14.809353
Zn 12.122311 4.039786 17.503036
Zn 9.428628 6.733469 17.503036
Zn 9.428628 4.039786 20.196718
Zn 12.122311 6.733469 20.196718
Zn 12.122311 4.039786 22.890401
Zn 9.428628 6.733469 22.890401
Zn 9.428628 4.039786 25.584084
Zn 12.122311 6.733469 25.584084
Zn 12.122311 4.039786 28.277767
Zn 9.428628 6.733469 28.277767
Zn 9.428628 9.427152 -28.289573
Zn 12.122311 9.427152 -25.595890
Zn 9.428628 12.120835 -25.595890
Zn 9.428628 9.427152 -22.902208
Zn 12.122311 12.120835 -22.902208
Zn 12.122311 9.427152 -20.208525
Zn 9.428628 12.120835 -20.208525
Zn 9.428628 9.427152 -17.514842
Zn 12.122311 12.120835 -17.514842
Zn 12.122311 9.427152 -14.821159
Zn 9.428628 12.120835 -14.821159
Zn 9.428628 9.427152 -12.127476
Zn 12.122311 12.120835 -12.127476
Zn 12.122311 9.427152 -9.433793
Zn 9.428628 12.120835 -9.433793
Zn 9.428628 9.427152 -6.740110
Zn 12.122311 12.120835 -6.740110
Zn 12.122311 9.427152 -4.046427
Zn 9.428628 12.120835 -4.046427
Zn 9.428628 9.427152 -1.352745
Zn 12.122311 12.120835 -1.352745
Zn 12.122311 9.427152 1.340938
Zn 9.428628 12.120835 1.340938
Zn 9.428628 9.427152 4.034621
Zn 12.122311 12.120835 4.034621
Zn 12.122311 9.427152 6.728304
Zn 9.428628 12.120835 6.728304
Zn 9.428628 9.427152 9.421987
Zn 12.122311 12.120835 9.421987
Zn 12.122311 9.427152 12.115670
Zn 9.428628 12.120835 12.115670
Zn 9.428628 9.427152 14.809353
Zn 12.122311 12.120835 14.809353
Zn 12.122311 9.427152 17.503036
Zn 9.428628 12.120835 17.503036
Zn 9.428628 9.427152 20.196718
Zn 12.122311 12.120835 20.196718
Zn 12.122311 9.427152 22.890401
Zn 9.428628 12.120835 22.890401
Zn 9.428628 9.427152 25.584084
Zn 12.122311 12.120835 25.584084
Zn 12.122311 9.427152 28.277767
Zn 9.428628 12.120835 28.277767
Zn 9.428628 14.814518 -22.902208
Zn 12.122311 14.814518 -20.208525
Zn 9.428628 17.508201 -20.208525
Zn 9.428628 14.814518 -17.514842
Zn 12.122311 17.508201 -17.514842
Zn 12.122311 14.814518 -14.821159
Zn 9.428628 17.508201 -14.821159
Zn 9.428628 14.814518 -12.127476
Zn 12.122311 17.508201 -12.127476
Zn 12.122311 14.814518 -9.433793
Zn 9.428628 17.508201 -9.433793
Zn 9.428628 14.814518 -6.740110
Zn 12.122311 17.508201 -6.740110
Zn 12.122311 14.814518 -4.046427
Zn 9.428628 17.508201 -4.046427
Zn 9.428628 14.814518 -1.352745
Zn 12.122311 17.508201 -1.352745
Zn 12.122311 14.814518 1.340938
Zn 9.428628 17.508201 1.340938
Zn 9.428628 14.814518 4.034621
Zn 12.122311 17.508201 4.034621
Zn 12.122311 14.814518 6.728304
Zn 9.428628 17.508201 6.728304
Zn 9.428628 14.814518 9.421987
Zn 12.122311 17.508201 9.421987
Zn 12.122311 14.814518 12.115670
Zn 9.428628 17.508201 12.115670
Zn 9.428628 14.814518 14.809353
Zn 12.122311 17.508201 14.809353
Zn 12.122311 14.814518 17.503036
Zn 9.428628 17.508201 17.503036
Zn 9.428628 14.814518 20.196718
Zn 12.122311 17.508201 20.196718
Zn 12.122311 14.814518 22.890401
Zn 9.428628 17.508201 22.890401
Zn 9.428628 14.814518 25.584084
Zn 9.428628 20.201884 -17.514842
Zn 12.122311 20.201884 -14.821159
Zn 9.428628 22.895567 -14.821159
Zn 9.428628 20.201884 -12.127476
Zn 12.122311 22.895567 -12.127476
Zn 12.122311 20.201884 -9.433793
Zn 9.428628 22.895567 -9.433793
Zn 9.428628 20.201884 -6.740110
Zn 12.122311 22.895567 -6.740110
Zn 12.122311 20.201884 -4.046427
Zn 9.428628 22.895567 -4.046427
Zn 9.428628 20.201884 -1.352745
Zn 12.122311 22.895567 -1.352745
Zn 12.122311 20.201884 1.340938
Zn 9.428628 22.895567 1.340938
Zn 9.428628 20.201884 4.034621
Zn 12.122311 22.895567 4.034621
Zn 12.122311 20.201884 6.728304
Zn 9.428628 22.895567 6.728304
Zn 9.428628 20.201884 9.421987
Zn 12.122311 22.895567 9.421987
Zn 12.122311 20.201884 12.115670
Zn 9.428628 22.895567 12.115670
Zn 9.428628 20.201884 14.809353
Zn 12.122311 22.895567 14.809353
Zn 12.122311 20.201884 17.503036
Zn 9.428628 22.895567 17.503036
Zn 9.428628 20.201884 20.196718
Zn 9.428628 25.589249 -12.127476
Zn 12.122311 25.589249 -9.433793
Zn 9.428628 28.282932 -9.433793
Zn 9.428628 25.589249 -6.740110
Zn 12.122311 28.282932 -6.740110
Zn 12.122311 25.589249 -4.046427
Zn 9.428628 28.282932 -4.046427
Zn 9.428628 25.589249 -1.352745
Zn 12.122311 28.282932 -1.352745
Zn 12.122311 25.589249 1.340938
Zn 9.428628 28.282932 1.340938
Zn 9.428628 25.589249 4.034621
Zn 12.122311 28.282932 4.034621
Zn 12.122311 25.589249 6.728304
Zn 9.428628 28.282932 6.728304
Zn 9.428628 25.589249 9.421987
Zn 12.122311 28.282932 9.421987
Zn 12.122311 25.589249 12.115670
Zn 9.428628 28.282932 12.115670
Zn 9.428628 25.589249 14.809353
Zn 14.815994 -25.590725 -9.433793
Zn 14.815994 -28.284408 -6.740110
Zn 17.509677 -25.590725 -6.740110
Zn 17.509677 -28.284408 -4.046427
Zn 14.815994 -25.590725 -4.046427
Zn 14.815994 -28.284408 -1.352745
Zn 17.509677 -25.590725 -1.352745
Zn 17.509677 -28.284408 1.340938
Zn 14.815994 -25.590725 1.340938
Zn 14.815994 -28.284408 4.034621
Zn 17.509677 -25.590725 4.034621
Zn 14.815994 -25.590725 6.728304
Zn 14.815994 -20.203359 -14.821159
Zn 14.815994 -22.897042 -12.127476
Zn 17.509677 -20.203359 -12.127476
Zn 17.509677 -22.897042 -9.433793
Zn 14.815994 -20.203359 -9.433793
Zn 14.815994 -22.897042 -6.740110
Zn 17.509677 -20.203359 -6.740110
Zn 17.509677 -22.897042 -4.046427
Zn 14.815994 -20.203359 -4.046427
Zn 14.815994 -22.897042 -1.352745
Zn 17.509677 -20.203359 -1.352745
Zn 17.509677 -22.897042 1.340938
Zn 14.815994 -20.203359 1.340938
Zn 14.815994 -22.897042 4.034621
Zn 17.509677 -20.203359 4.034621
Zn 17.509677 -22.897042 6.728304
Zn 14.815994 -20.203359 6.728304
Zn 14.815994 -22.897042 9.421987
Zn 17.509677 -20.203359 9.421987
Zn 14.815994 -20.203359 12.115670
Zn 14.815994 -14.815994 -20.208525
Zn 14.815994 -17.509677 -17.514842
Zn 17.509677 -14.815994 -17.514842
Zn 17.509677 -17.509677 -14.821159
Zn 14.815994 -14.815994 -14.821159
Zn 14.815994 -17.509677 -12.127476
Zn 17.509677 -14.815994 -12.127476
Zn 17.509677 -17.509677 -9.433793
Zn 14.815994 -14.815994 -9.433793
Zn 14.815994 -17.509677 -6.740110
Zn 17.509677 -14.815994 -6.740110
Zn 17.509677 -17.509677 -4.046427
Zn 14.815994 -14.815994 -4.046427
Zn 14.815994 -17.509677 -1.352745
Zn 17.509677 -14.815994 -1.352745
Zn 17.509677 -17.509677 1.340938
Zn 14.815994 -14.815994 1.340938
Zn 14.815994 -17.509677 4.034621
Zn 17.509677 -14.815994 4.034621
Zn 17.509677 -17.509677 6.728304
Zn 14.815994 -14.815994 6.728304
Zn 14.815994 -17.509677 9.421987
Zn 17.509677 -14.815994 9.421987
Zn 17.509677 -17.509677 12.115670
Zn 14.815994 -14.815994 12.115670
Zn 14.815994 -17.509677 14.809353
Zn 17.509677 -14.815994 14.809353
Zn 14.815994 -14.815994 17.503036
Zn 14.815994 -9.428628 -25.595890
Zn 14.815994 -12.122311 -22.902208
Zn 17.509677 -9.428628 -22.902208
Zn 17.509677 -12.122311 -20.208525
Zn 14.815994 -9.428628 -20.208525
Zn 14.815994 -12.122311 -17.514842
Zn 17.509677 -9.428628 -17.514842
Zn 17.509677 -12.122311 -14.821159
Zn 14.815994 -9.428628 -14.821159
Zn 14.815994 -12.122311 -12.127476
Zn 17.509677 -9.428628 -12.127476
Zn 17.509677 -12.122311 -9.433793
Zn 14.815994 -9.428628 -9.433793
Zn 14.815994 -12.122311 -6.740110
Zn 17.509677 -9.428628 -6.740110
Zn 17.509677 -12.122311 -4.046427
Zn 14.815994 -9.428628 -4.046427
Zn 14.815994 -12.122311 -1.352745
Zn 17.509677 -9.428628 -1.352745
Zn 17.509677 -12.122311 1.340938
Zn 14.815994 -9.428628 1.340938
Zn 14.815994 -12.122311 4.034621
Zn 17.509677 -9.428628 4.034621
Zn 17.509677 -12.122311 6.728304
Zn 14.815994 -9.428628 6.728304
Zn 14.815994 -12.122311 9.421987
Zn 17.509677 -9.428628 9.421987
Zn 17.509677 -12.122311 12.115670
Zn 14.815994 -9.428628 12.115670
Zn 14.815994 -12.122311 14.809353
Zn 17.509677 -9.428628 14.809353
Zn 17.509677 -12.122311 17.503036
Zn 14.815994 -9.428628 17.503036
Zn 14.815994 -12.122311 20.196718
Zn 17.509677 -9.428628 20.196718
Zn 14.815994 -9.428628 22.890401
Zn 14.815994 -6.734945 -28.289573
Zn 17.509677 -4.041262 -28.289573
Zn 17.509677 -6.734945 -25.595890
Zn 14.815994 -4.041262 -25.595890
Zn 14.815994 -6.734945 -22.902208
Zn 17.509677 -4.041262 -22.902208
Zn 17.509677 -6.734945 -20.208525
Zn 14.815994 -4.041262 -20.208525
Zn 14.815994 -6.734945 -17.514842
Zn 17.509677 -4.041262 -17.514842
Zn 17.509677 -6.734945 -14.821159
Zn 14.815994 -4.041262 -14.821159
Zn 14.815994 -6.734945 -12.127476
Zn 17.509677 -4.041262 -12.127476
Zn 17.509677 -6.734945 -9.433793
Zn 14.815994 -4.041262 -9.433793
Zn 14.815994 -6.734945 -6.740110
Zn 17.509677 -4.041262 -6.740110
Zn 17.509677 -6.734945 -4.046427
Zn 14.815994 -4.041262 -4.046427
Zn 14.815994 -6.734945 -1.352745
Zn 17.509677 -4.041262 -1.352745
Zn 17.509677 -6.734945 1.340938
Zn 14.815994 -4.041262 1.340938
Zn 14.815994 -6.734945 4.034621
Zn 17.509677 -4.041262 4.034621
Zn 17.509677 -6.734945 6.728304
Zn 14.815994 -4.041262 6.728304
Zn 14.815994 -6.734945 9.421987
Zn 17.509677 -4.041262 9.421987
Zn 17.509677 -6.734945 12.115670
Zn 14.815994 -4.041262 12.115670
Zn 14.815994 -6.734945 14.809353
Zn 17.509677 -4.041262 14.809353
Zn 17.509677 -6.734945 17.503036
Zn 14.815994 -4.041262 17.503036
Zn 14.815994 -6.734945 20.196718
Zn 17.509677 -4.041262 20.196718
Zn 17.509677 -6.734945 22.890401
Zn 14.815994 -4.041262 22.890401
Zn 14.815994 -6.734945 25.584084
Zn 17.509677 -4.041262 25.584084
Zn 14.815994 -4.041262 28.277767
Zn 14.815994 -1.347579 -28.289573
Zn 17.509677 1.346104 -28.289573
Zn 17.509677 -1.347579 -25.595890
Zn 14.815994 1.346104 -25.595890
Zn 14.815994 -1.347579 -22.902208
Zn 17.509677 1.346104 -22.902208
Zn 17.509677 -1.347579 -20.208525
Zn 14.815994 1.346104 -20.208525
Zn 14.815994 -1.347579 -17.514842
Zn 17.509677 1.346104 -17.514842
Zn 17.509677 -1.347579 -14.821159
Zn 14.815994 1.346104 -14.821159
Zn 14.815994 -1.347579 -12.127476
Zn 17.509677 1.346104 -12.127476
Zn 17.509677 -1.347579 -9.433793
Zn 14.815994 1.346104 -9.433793
Zn 14.815994 -1.347579 -6.740110
Zn 17.509677 1.346104 -6.740110
Zn 17.509677 -1.347579 -4.046427
Zn 14.815994 1.346104 -4.046427
Zn 14.815994 -1.347579 -1.352745
Zn 17.509677 1.346104 -1.352745
Zn 17.509677 -1.347579 1.340938
Zn 14.815994 1.346104 1.340938
Zn 14.815994 -1.347579 4.034621
Zn 17.509677 1.346104 4.034621
Zn 17.509677 -1.347579 6.728304
Zn 14.815994 1.346104 6.728304
Zn 14.815994 -1.347579 9.421987
Zn 17.509677 1.346104 9.421987
Zn 17.509677 -1.347579 12.115670
Zn 14.815994 1.346104 12.115670
Zn 14.815994 -1.347579 14.809353
Zn 17.509677 1.346104 14.809353
Zn 17.509677 -1.347579 17.503036
Zn 14.815994 1.346104 17.503036
Zn 14.815994 -1.347579 20.196718
Zn 17.509677 1.346104 20.196718
Zn 17.509677 -1.347579 22.890401
Zn 14.815994 1.346104 22.890401
Zn 14.815994 -1.347579 25.584084
Zn 17.509677 1.346104 25.584084
Zn 17.509677 -1.347579 28.277767
Zn 14.815994 1.346104 28.277767
Zn 14.815994 4.039786 -28.289573
Zn 17.509677 4.039786 -25.595890
Zn 14.815994 6.733469 -25.595890
Zn 14.815994 4.039786 -22.902208
Zn 17.509677 6.733469 -22.902208
Zn 17.509677 4.039786 -20.208525
Zn 14.815994 6.733469 -20.208525
Zn 14.815994 4.039786 -17.514842
Zn 17.509677 6.733469 -17.514842
Zn 17.509677 4.039786 -14.821159
Zn 14.815994 6.733469 -14.821159
Zn 14.815994 4.039786 -12.127476
Zn 17.509677 6.733469 -12.127476
Zn 17.509677 4.039786 -9.433793
Zn 14.815994 6.733469 -9.433793
Zn 14.815994 4.039786 -6.740110
Zn 17.509677 6.733469 -6.740110
Zn 17.509677 4.039786 -4.046427
Zn 14.815994 6.733469 -4.046427
Zn 14.815994 4.039786 -1.352745
Zn 17.509677 6.733469 -1.352745
Zn 17.509677 4.039786 1.340938
Zn 14.815994 6.733469 1.340938
Zn 14.815994 4.039786 4.034621
Zn 17.509677 6.733469 4.034621
Zn 17.509677 4.039786 6.728304
Zn 14.815994 6.733469 6.728304
Zn 14.815994 4.039786 9.421987
Zn 17.509677 6.733469 9.421987
Zn 17.509677 4.039786 12.115670
Zn 14.815994 6.733469 12.115670
Zn 14.815994 4.039786 14.809353
Zn 17.509677 6.733469 14.809353
Zn 17.509677 4.039786 17.503036
Zn 14.815994 6.733469 17.503036
Zn 14.815994 4.039786 20.196718
Zn 17.509677 6.733469 20.196718
Zn 17.509677 4.039786 22.890401
Zn 14.815994 6.733469 22.890401
Zn 14.815994 4.039786 25.584084
Zn 17.509677 6.733469 25.584084
Zn 17.509677 4.039786 28.277767
Zn 14.815994 6.733469 28.277767
Zn 14.815994 9.427152 -22.902208
Zn 17.509677 9.427152 -20.208525
Zn 14.815994 12.120835 -20.208525
Zn 14.815994 9.427152 -17.514842
Zn 17.509677 12.120835 -17.514842
Zn 17.509677 9.427152 -14.821159
Zn 14.815994 12.120835 -14.821159
Zn 14.815994 9.427152 -12.127476
Zn 17.509677 12.120835 -12.127476
Zn 17.509677 9.427152 -9.433793
Zn 14.815994 12.120835 -9.433793
Zn 14.815994 9.427152 -6.740110
Zn 17.509677 12.120835 -6.740110
Zn 17.509677 9.427152 -4.046427
Zn 14.815994 12.120835 -4.046427
Zn 14.815994 9.427152 -1.352745
Zn 17.509677 12.120835 -1.352745
Zn 17.509677 9.427152 1.340938
Zn 14.815994 12.120835 1.340938
Zn 14.815994 9.427152 4.034621
Zn 17.509677 12.120835 4.034621
Zn 17.509677 9.427152 6.728304
Zn 14.815994 12.120835 6.728304
Zn 14.815994 9.427152 9.421987
Zn 17.509677 12.120835 9.421987
Zn 17.509677 9.427152 12.115670
Zn 14.815994 12.120835 12.115670
Zn 14.815994 9.427152 14.809353
Zn 17.509677 12.120835 14.809353
Zn 17.509677 9.427152 17.503036
Zn 14.815994 12.120835 17.503036
Zn 14.815994 9.427152 20.196718
Zn 17.509677 12.120835 20.196718
Zn 17.509677 9.427152 22.890401
Zn 14.815994 12.120835 22.890401
Zn 14.815994 9.427152 25.584084
Zn 14.815994 14.814518 -17.514842
Zn 17.509677 14.814518 -14.821159
Zn 14.815994 17.508201 -14.821159
Zn 14.815994 14.814518 -12.127476
Zn 17.509677 17.508201 -12.127476
Zn 17.509677 14.814518 -9.433793
Zn 14.815994 17.508201 -9.433793
Zn 14.815994 14.814518 -6.740110
Zn 17.509677 17.508201 -6.740110
Zn 17.509677 14.814518 -4.046427
Zn 14.815994 17.508201 -4.046427
Zn 14.815994 14.814518 -1.352745
Zn 17.509677 17.508201 -1.352745
Zn 17.509677 14.814518 1.340938
Zn 14.815994 17.508201 1.340938
Zn 14.815994 14.814518 4.034621
Zn 17.509677 17.508201 4.034621
Zn 17.509677 14.814518 6.728304
Zn 14.815994 17.508201 6.728304
Zn 14.815994 14.814518 9.421987
Zn 17.509677 17.508201 9.421987
Zn 17.509677 14.814518 12.115670
Zn 14.815994 17.508201 12.115670
Zn 14.815994 14.814518 14.809353
Zn 17.509677 17.508201 14.809353
Zn 17.509677 14.814518 17.503036
Zn 14.815994 17.508201 17.503036
Zn 14.815994 14.814518 20.196718
Zn 14.815994 20.201884 -12.127476
Zn 17.509677 20.201884 -9.433793
Zn 14.815994 22.895567 -9.433793
Zn 14.815994 20.201884 -6.740110
Zn 17.509677 22.895567 -6.740110
Zn 17.509677 20.201884 -4.046427
Zn 14.815994 22.895567 -4.046427
Zn 14.815994 20.201884 -1.352745
Zn 17.509677 22.895567 -1.352745
Zn 17.509677 20.201884 1.340938
Zn 14.815994 22.895567 1.340938
Zn 14.815994 20.201884 4.034621
Zn 17.509677 22.895567 4.034621
Zn 17.509677 20.201884 6.728304
Zn 14.815994 22.895567 6.728304
Zn 14.815994 20.201884 9.421987
Zn 17.509677 22.895567 9.421987
Zn 17.509677 20.201884 12.115670
Zn 14.815994 22.895567 12.115670
Zn 14.815994 20.201884 14.809353
Zn 14.815994 25.589249 -6.740110
Zn 17.509677 25.589249 -4.046427
Zn 14.815994 28.282932 -4.046427
Zn 14.815994 25.589249 -1.352745
Zn 17.509677 28.282932 -1.352745
Zn 17.509677 25.589249 1.340938
Zn 14.815994 28.282932 1.340938
Zn 14.815994 25.589249 4.034621
Zn 17.509677 28.282932 4.034621
Zn 17.509677 25.589249 6.728304
Zn 14.815994 28.282932 6.728304
Zn 14.815994 25.589249 9.421987
Zn 20.203359 -25.590725 -4.046427
Zn 20.203359 -28.284408 -1.352745
Zn 22.897042 -25.590725 -1.352745
Zn 20.203359 -25.590725 1.340938
Zn 20.203359 -20.203359 -9.433793
Zn 20.203359 -22.897042 -6.740110
Zn 22.897042 -20.203359 -6.740110
Zn 22.897042 -22.897042 -4.046427
Zn 20.203359 -20.203359 -4.046427
Zn 20.203359 -22.897042 -1.352745
Zn 22.897042 -20.203359 -1.352745
Zn 22.897042 -22.897042 1.340938
Zn 20.203359 -20.203359 1.340938
Zn 20.203359 -22.897042 4.034621
Zn 22.897042 -20.203359 4.034621
Zn 20.203359 -20.203359 6.728304
Zn 20.203359 -14.815994 -14.821159
Zn 20.203359 -17.509677 -12.127476
Zn 22.897042 -14.815994 -12.127476
Zn 22.897042 -17.509677 -9.433793
Zn 20.203359 -14.815994 -9.433793
Zn 20.203359 -17.509677 -6.740110
Zn 22.897042 -14.815994 -6.740110
Zn 22.897042 -17.509677 -4.046427
Zn 20.203359 -14.815994 -4.046427
Zn 20.203359 -17.509677 -1.352745
Zn 22.897042 -14.815994 -1.352745
Zn 22.897042 -17.509677 1.340938
Zn 20.203359 -14.815994 1.340938
Zn 20.203359 -17.509677 4.034621
Zn 22.897042 -14.815994 4.034621
Zn 22.897042 -17.509677 6.728304
Zn 20.203359 -14.815994 6.728304
Zn 20.203359 -17.509677 9.421987
Zn 22.897042 -14.815994 9.421987
Zn 20.203359 -14.815994 12.115670
Zn 20.203359 -9.428628 -20.208525
Zn 20.203359 -12.122311 -17.514842
Zn 22.897042 -9.428628 -17.514842
Zn 22.897042 -12.122311 -14.821159
Zn 20.203359 -9.428628 -14.821159
Zn 20.203359 -12.122311 -12.127476
Zn 22.897042 -9.428628 -12.127476
Zn 22.897042 -12.122311 -9.433793
Zn 20.203359 -9.428628 -9.433793
Zn 20.203359 -12.122311 -6.740110
Zn 22.897042 -9.428628 -6.740110
Zn 22.897042 -12.122311 -4.046427
Zn 20.203359 -9.428628 -4.046427
Zn 20.203359 -12.122311 -1.352745
Zn 22.897042 -9.428628 -1.352745
Zn 22.897042 -12.122311 1.340938
Zn 20.203359 -9.428628 1.340938
Zn 20.203359 -12.122311 4.034621
Zn 22.897042 -9.428628 4.034621
Zn 22.897042 -12.122311 6.728304
Zn 20.203359 -9.428628 6.728304
Zn 20.203359 -12.122311 9.421987
Zn 22.897042 -9.428628 9.421987
Zn 22.897042 -12.122311 12.115670
Zn 20.203359 -9.428628 12.115670
Zn 20.203359 -12.122311 14.809353
Zn 22.897042 -9.428628 14.809353
Zn 20.203359 -9.428628 17.503036
Zn 20.203359 -4.041262 -25.595890
Zn 20.203359 -6.734945 -22.902208
Zn 22.897042 -4.041262 -22.902208
Zn 22.897042 -6.734945 -20.208525
Zn 20.203359 -4.041262 -20.208525
Zn 20.203359 -6.734945 -17.514842
Zn 22.897042 -4.041262 -17.514842
Zn 22.897042 -6.734945 -14.821159
Zn 20.203359 -4.041262 -14.821159
Zn 20.203359 -6.734945 -12.127476
Zn 22.897042 -4.041262 -12.127476
Zn 22.897042 -6.734945 -9.433793
Zn 20.203359 -4.041262 -9.433793
Zn 20.203359 -6.734945 -6.740110
Zn 22.897042 -4.041262 -6.740110
Zn 22.897042 -6.734945 -4.046427
Zn 20.203359 -4.041262 -4.046427
Zn 20.203359 -6.734945 -1.352745
Zn 22.897042 -4.041262 -1.352745
Zn 22.897042 -6.734945 1.340938
Zn 20.203359 -4.041262 1.340938
Zn 20.203359 -6.734945 4.034621
Zn 22.897042 -4.041262 4.034621
Zn 22.897042 -6.734945 6.728304
Zn 20.203359 -4.041262 6.728304
Zn 20.203359 -6.734945 9.421987
Zn 22.897042 -4.041262 9.421987
Zn 22.897042 -6.734945 12.115670
Zn 20.203359 -4.041262 12.115670
Zn 20.203359 -6.734945 14.809353
Zn 22.897042 -4.041262 14.809353
Zn 22.897042 -6.734945 17.503036
Zn 20.203359 -4.041262 17.503036
Zn 20.203359 -6.734945 20.196718
Zn 22.897042 -4.041262 20.196718
Zn 20.203359 -4.041262 22.890401
Zn 20.203359 -1.347579 -28.289573
Zn 22.897042 -1.347579 -25.595890
Zn 20.203359 1.346104 -25.595890
Zn 20.203359 -1.347579 -22.902208
Zn 22.897042 1.346104 -22.902208
Zn 22.897042 -1.347579 -20.208525
Zn 20.203359 1.346104 -20.208525
Zn 20.203359 -1.347579 -17.514842
Zn 22.897042 1.346104 -17.514842
Zn 22.897042 -1.347579 -14.821159
Zn 20.203359 1.346104 -14.821159
Zn 20.203359 -1.347579 -12.127476
Zn 22.897042 1.346104 -12.127476
Zn 22.897042 -1.347579 -9.433793
Zn 20.203359 1.346104 -9.433793
Zn 20.203359 -1.347579 -6.740110
Zn 22.897042 1.346104 -6.740110
Zn 22.897042 -1.347579 -4.046427
Zn 20.203359 1.346104 -4.046427
Zn 20.203359 -1.347579 -1.352745
Zn 22.897042 1.346104 -1.352745
Zn 22.897042 -1.347579 1.340938
Zn 20.203359 1.346104 1.340938
Zn 20.203359 -1.347579 4.034621
Zn 22.897042 1.346104 4.034621
Zn 22.897042 -1.347579 6.728304
Zn 20.203359 1.346104 6.728304
Zn 20.203359 -1.347579 9.421987
Zn 22.897042 1.346104 9.421987
Zn 22.897042 -1.347579 12.115670
Zn 20.203359 1.346104 12.115670
Zn 20.203359 -1.347579 14.809353
Zn 22.897042 1.346104 14.809353
Zn 22.897042 -1.347579 17.503036
Zn 20.203359 1.346104 17.503036
Zn 20.203359 -1.347579 20.196718
Zn 22.897042 1.346104 20.196718
Zn 22.897042 -1.347579 22.890401
Zn 20.203359 1.346104 22.890401
Zn 20.203359 -1.347579 25.584084
Zn 22.897042 1.346104 25.584084
Zn 20.203359 1.346104 28.277767
Zn 20.203359 4.039786 -22.902208
Zn 22.897042 4.039786 -20.208525
Zn 20.203359 6.733469 -20.208525
Zn 20.203359 4.039786 -17.514842
Zn 22.897042 6.733469 -17.514842
Zn 22.897042 4.039786 -14.821159
Zn 20.203359 6.733469 -14.821159
Zn 20.203359 4.039786 -12.127476
Zn 22.897042 6.733469 -12.127476
Zn 22.897042 4.039786 -9.433793
Zn 20.203359 6.733469 -9.433793
Zn 20.203359 4.039786 -6.740110
Zn 22.897042 6.733469 -6.740110
Zn 22.897042 4.039786 -4.046427
Zn 20.203359 6.733469 -4.046427
Zn 20.203359 4.039786 -1.352745
Zn 22.897042 6.733469 -1.352745
Zn 22.897042 4.039786 1.340938
Zn 20.203359 6.733469 1.340938
Zn 20.203359 4.039786 4.034621
Zn 22.897042 6.733469 4.034621
Zn 22.897042 4.039786 6.728304
Zn 20.203359 6.733469 6.728304
Zn 20.203359 4.039786 9.421987
Zn 22.897042 6.733469 9.421987
Zn 22.897042 4.039786 12.115670
Zn 20.203359 6.733469 12.115670
Zn 20.203359 4.039786 14.809353
Zn 22.897042 6.733469 14.809353
Zn 22.897042 4.039786 17.503036
Zn 20.203359 6.733469 17.503036
Zn 20.203359 4.039786 20.196718
Zn 22.897042 6.733469 20.196718
Zn 22.897042 4.039786 22.890401
Zn 20.203359 6.733469 22.890401
Zn 20.203359 4.039786 25.584084
Zn 20.203359 9.427152 -17.514842
Zn 22.897042 9.427152 -14.821159
Zn 20.203359 12.120835 -14.821159
Zn 20.203359 9.427152 -12.127476
Zn 22.897042 12.120835 -12.127476
Zn 22.897042 9.427152 -9.433793
Zn 20.203359 12.120835 -9.433793
Zn 20.203359 9.427152 -6.740110
Zn 22.897042 12.120835 -6.740110
Zn 22.897042 9.427152 -4.046427
Zn 20.203359 12.120835 -4.046427
Zn 20.203359 9.427152 -1.352745
Zn 22.897042 12.120835 -1.352745
Zn 22.897042 9.427152 1.340938
Zn 20.203359 12.120835 1.340938
Zn 20.203359 9.427152 4.034621
Zn 22.897042 12.120835 4.034621
Zn 22.897042 9.427152 6.728304
Zn 20.203359 12.120835 6.728304
Zn 20.203359 9.427152 9.421987
Zn 22.897042 12.120835 9.421987
Zn 22.897042 9.427152 12.115670
Zn 20.203359 12.120835 12.115670
Zn 20.203359 9.427152 14.809353
Zn 22.897042 12.120835 14.809353
Zn 22.897042 9.427152 17.503036
Zn 20.203359 12.120835 17.503036
Zn 20.203359 9.427152 20.196718
Zn 20.203359 14.814518 -12.127476
Zn 22.897042 14.814518 -9.433793
Zn 20.203359 17.508201 -9.433793
Zn 20.203359 14.814518 -6.740110
Zn 22.897042 17.508201 -6.740110
Zn 22.897042 14.814518 -4.046427
Zn 20.203359 17.508201 -4.046427
Zn 20.203359 14.814518 -1.352745
Zn 22.897042 17.508201 -1.352745
Zn 22.897042 14.814518 1.340938
Zn 20.203359 17.508201 1.340938
Zn 20.203359 14.814518 4.034621
Zn 22.897042 17.508201 4.034621
Zn 22.897042 14.814518 6.728304
Zn 20.203359 17.508201 6.728304
Zn 20.203359 14.814518 9.421987
Zn 22.897042 17.508201 9.421987
Zn 22.897042 14.814518 12.115670
Zn 20.203359 17.508201 12.115670
Zn 20.203359 14.814518 14.809353
Zn 20.203359 20.201884 -6.740110
Zn 22.897042 20.201884 -4.046427
Zn 20.203359 22.895567 -4.046427
Zn 20.203359 20.201884 -1.352745
Zn 22.897042 22.895567 -1.352745
Zn 22.897042 20.201884 1.340938
Zn 20.203359 22.895567 1.340938
Zn 20.203359 20.201884 4.034621
Zn 22.897042 22.895567 4.034621
Zn 22.897042 20.201884 6.728304
Zn 20.203359 22.895567 6.728304
Zn 20.203359 20.201884 9.421987
Zn 20.203359 25.589249 -1.352745
Zn 22.897042 25.589249 1.340938
Zn 20.203359 28.282932 1.340938
Zn 20.203359 25.589249 4.034621
Zn 25.590725 -20.203359 -4.046427
Zn 25.590725 -22.897042 -1.352745
Zn 28.284408 -20.203359 -1.352745
Zn 25.590725 -20.203359 1.340938
Zn 25.590725 -14.815994 -9.433793
Zn 25.590725 -17.509677 -6.740110
Zn 28.284408 -14.815994 -6.740110
Zn 28.284408 -17.509677 -4.046427
Zn 25.590725 -14.815994 -4.046427
Zn 25.590725 -17.509677 -1.352745
Zn 28.284408 -14.815994 -1.352745
Zn 28.284408 -17.509677 1.340938
Zn 25.590725 -14.815994 1.340938
Zn 25.590725 -17.509677 4.034621
Zn 28.284408 -14.815994 4.034621
Zn 25.590725 -14.815994 6.728304
Zn 25.590725 -9.428628 -14.821159
Zn 25.590725 -12.122311 -12.127476
Zn 28.284408 -9.428628 -12.127476
Zn 28.284408 -12.122311 -9.433793
Zn 25.590725 -9.428628 -9.433793
Zn 25.590725 -12.122311 -6.740110
Zn 28.284408 -9.428628 -6.740110
Zn 28.284408 -12.122311 -4.046427
Zn 25.590725 -9.428628 -4.046427
Zn 25.590725 -12.122311 -1.352745
Zn 28.284408 -9.428628 -1.352745
Zn 28.284408 -12.122311 1.340938
Zn 25.590725 -9.428628 1.340938
Zn 25.590725 -12.122311 4.034621
Zn 28.284408 -9.428628 4.034621
Zn 28.284408 -12.122311 6.728304
Zn 25.590725 -9.428628 6.728304
Zn 25.590725 -12.122311 9.421987
Zn 28.284408 -9.428628 9.421987
Zn 25.590725 -9.428628 12.115670
Zn 25.590725 -4.041262 -20.208525
Zn 25.590725 -6.734945 -17.514842
Zn 28.284408 -4.041262 -17.514842
Zn 28.284408 -6.734945 -14.821159
Zn 25.590725 -4.041262 -14.821159
Zn 25.590725 -6.734945 -12.127476
Zn 28.284408 -4.041262 -12.127476
Zn 28.284408 -6.734945 -9.433793
Zn 25.590725 -4.041262 -9.433793
Zn 25.590725 -6.734945 -6.740110
Zn 28.284408 -4.041262 -6.740110
Zn 28.284408 -6.734945 -4.046427
Zn 25.590725 -4.041262 -4.046427
Zn 25.590725 -6.734945 -1.352745
Zn 28.284408 -4.041262 -1.352745
Zn 28.284408 -6.734945 1.340938
Zn 25.590725 -4.041262 1.340938
Zn 25.590725 -6.734945 4.034621
Zn 28.284408 -4.041262 4.034621
Zn 28.284408 -6.734945 6.728304
Zn 25.590725 -4.041262 6.728304
Zn 25.590725 -6.734945 9.421987
Zn 28.284408 -4.041262 9.421987
Zn 28.284408 -6.734945 12.115670
Zn 25.590725 -4.041262 12.115670
Zn 25.590725 -6.734945 14.809353
Zn 28.284408 -4.041262 14.809353
Zn 25.590725 -4.041262 17.503036
Zn 25.590725 -1.347579 -22.902208
Zn 28.284408 -1.347579 -20.208525
Zn 25.590725 1.346104 -20.208525
Zn 25.590725 -1.347579 -17.514842
Zn 28.284408 1.346104 -17.514842
Zn 28.284408 -1.347579 -14.821159
Zn 25.590725 1.346104 -14.821159
Zn 25.590725 -1.347579 -12.127476
Zn 28.284408 1.346104 -12.127476
Zn 28.284408 -1.347579 -9.433793
Zn 25.590725 1.346104 -9.433793
Zn 25.590725 -1.347579 -6.740110
Zn 28.284408 1.346104 -6.740110
Zn 28.284408 -1.347579 -4.046427
Zn 25.590725 1.346104 -4.046427
Zn 25.590725 -1.347579 -1.352745
Zn 28.284408 1.346104 -1.352745
Zn 28.284408 -1.347579 1.340938
Zn 25.590725 1.346104 1.340938
Zn 25.590725 -1.347579 4.034621
Zn 28.284408 1.346104 4.034621
Zn 28.284408 -1.347579 6.728304
Zn 25.590725 1.346104 6.728304
Zn 25.590725 -1.347579 9.421987
Zn 28.284408 1.346104 9.421987
Zn 28.284408 -1.347579 12.115670
Zn 25.590725 1.346104 12.115670
Zn 25.590725 -1.347579 14.809353
Zn 28.284408 1.346104 14.809353
Zn 28.284408 -1.347579 17.503036
Zn 25.590725 1.346104 17.503036
Zn 25.590725 -1.347579 20.196718
Zn 28.284408 1.346104 20.196718
Zn 25.590725 1.346104 22.890401
Zn 25.590725 4.039786 -17.514842
Zn 28.284408 4.039786 -14.821159
Zn 25.590725 6.733469 -14.821159
Zn 25.590725 4.039786 -12.127476
Zn 28.284408 6.733469 -12.127476
Zn 28.284408 4.039786 -9.433793
Zn 25.590725 6.733469 -9.433793
Zn 25.590725 4.039786 -6.740110
Zn 28.284408 6.733469 -6.740110
Zn 28.284408 4.039786 -4.046427
Zn 25.590725 6.733469 -4.046427
Zn 25.590725 4.039786 -1.352745
Zn 28.284408 6.733469 -1.352745
Zn 28.284408 4.039786 1.340938
Zn 25.590725 6.733469 1.340938
Zn 25.590725 4.039786 4.034621
Zn 28.284408 6.733469 4.034621
Zn 28.284408 4.039786 6.728304
Zn 25.590725 6.733469 6.728304
Zn 25.590725 4.039786 9.421987
Zn 28.284408 6.733469 9.421987
Zn 28.284408 4.039786 12.115670
Zn 25.590725 6.733469 12.115670
Zn 25.590725 4.039786 14.809353
Zn 28.284408 6.733469 14.809353
Zn 28.284408 4.039786 17.503036
Zn 25.590725 6.733469 17.503036
Zn 25.590725 4.039786 20.196718
Zn 25.590725 9.427152 -12.127476
Zn 28.284408 9.427152 -9.433793
Zn 25.590725 12.120835 -9.433793
Zn 25.590725 9.427152 -6.740110
Zn 28.284408 12.120835 -6.740110
Zn 28.284408 9.427152 -4.046427
Zn 25.590725 12.120835 -4.046427
Zn 25.590725 9.427152 -1.352745
Zn 28.284408 12.120835 -1.352745
Zn 28.284408 9.427152 1.340938
Zn 25.590725 12.120835 1.340938
Zn 25.590725 9.427152 4.034621
Zn 28.284408 12.120835 4.034621
Zn 28.284408 9.427152 6.728304
Zn 25.590725 12.120835 6.728304
Zn 25.590725 9.427152 9.421987
Zn 28.284408 12.120835 9.421987
Zn 28.284408 9.427152 12.115670
Zn 25.590725 12.120835 12.115670
Zn 25.590725 9.427152 14.809353
Zn 25.590725 14.814518 -6.740110
Zn 28.284408 14.814518 -4.046427
Zn 25.590725 17.508201 -4.046427
Zn 25.590725 14.814518 -1.352745
Zn 28.284408 17.508201 -1.352745
Zn 28.284408 14.814518 1.340938
Zn 25.590725 17.508201 1.340938
Zn 25.590725 14.814518 4.034621
Zn 28.284408 17.508201 4.034621
Zn 28.284408 14.814518 6.728304
Zn 25.590725 17.508201 6.728304
Zn 25.590725 14.814518 9.421987
Zn 25.590725 20.201884 -1.352745
Zn 28.284408 20.201884 1.340938
Zn 25.590725 22.895567 1.340938
Zn 25.590725 20.201884 4.034621
S -24.242408 -24.243884 -0.005903
S -26.936091 -18.856518 -2.699586
S -24.242408 -18.856518 -5.393269
S -24.242408 -21.550201 -2.699586
S -26.936091 -21.550201 -0.005903
S -26.936091 -18.856518 2.687780
S -24.242408 -18.856518 -0.005903
S -24.242408 -21.550201 2.687780
S -24.242408 -18.856518 5.381463
S -26.936091 -13.469152 -8.086952
S -24.242408 -13.469152 -10.780635
S -24.242408 -16.162835 -8.086952
S -26.936091 -16.162835 -5.393269
S -26.936091 -13.469152 -2.699586
S -24.242408 -13.469152 -5.393269
S -24.242408 -16.162835 -2.699586
S -26.936091 -16.162835 -0.005903
S -26.936091 -13.469152 2.687780
S -24.242408 -13.469152 -0.005903
S -24.242408 -16.162835 2.687780
S -26.936091 -16.162835 5.381463
S -26.936091 -13.469152 8.075145
S -24.242408 -13.469152 5.381463
S -24.242408 -16.162835 8.075145
S -24.242408 -13.469152 10.768828
S -26.936091 -8.081787 -13.474318
S -24.242408 -8.081787 -16.168000
S -24.242408 -10.775469 -13.474318
S -26.936091 -10.775469 -10.780635
S -26.936091 -8.081787 -8.086952
S -24.242408 -8.081787 -10.780635
S -24.242408 -10.775469 -8.086952
S -26.936091 -10.775469 -5.393269
S -26.936091 -8.081787 -2.699586
S -24.242408 -8.081787 -5.393269
S -24.242408 -10.775469 -2.699586
S -26.936091 -10.775469 -0.005903
S -26.936091 -8.081787 2.687780
S -24.242408 -8.081787 -0.005903
S -24.242408 -10.775469 2.687780
S -26.936091 -10.775469 5.381463
S -26.936091 -8.081787 8.075145
S -24.242408 -8.081787 5.381463
S -24.242408 -10.775469 8.075145
S -26.936091 -10.775469 10.768828
S -26.936091 -8.081787 13.462511
S -24.242408 -8.081787 10.768828
S -24.242408 -10.775469 13.462511
S -24.242408 -8.081787 16.156194
S -26.936091 -2.694421 -18.861683
S -24.242408 -2.694421 -21.555366
S -24.242408 -5.388104 -18.861683
S -26.936091 -5.388104 -16.168000
S -26.936091 -2.694421 -13.474318
S -24.242408 -2.694421 -16.168000
S -24.242408 -5.388104 -13.474318
S -26.936091 -5.388104 -10.780635
S -26.936091 -2.694421 -8.086952
S -24.242408 -2.694421 -10.780635
S -24.242408 -5.388104 -8.086952
S -26.936091 -5.388104 -5.393269
S -26.936091 -2.694421 -2.699586
S -24.242408 -2.694421 -5.393269
S -24.242408 -5.388104 -2.699586
S -26.936091 -5.388104 -0.005903
S -26.936091 -2.694421 2.687780
S -24.242408 -2.694421 -0.005903
S -24.242408 -5.388104 2.687780
S -26.936091 -5.388104 5.381463
S -26.936091 -2.694421 8.075145
S -24.242408 -2.694421 5.381463
S -24.242408 -5.388104 8.075145
S -26.936091 -5.388104 10.768828
S -26.936091 -2.694421 13.462511
S -24.242408 -2.694421 10.768828
S -24.242408 -5.388104 13.462511
S -26.936091 -5.388104 16.156194
S -26.936091 -2.694421 18.849877
S -24.242408 -2.694421 16.156194
S -24.242408 -5.388104 18.849877
S -24.242408 -2.694421 21.543560
S -24.242408 -0.000738 -24.249049
S -26.936091 -0.000738 -21.555366
S -26.936091 2.692945 -18.861683
S -24.242408 2.692945 -21.555366
S -24.242408 -0.000738 -18.861683
S -26.936091 -0.000738 -16.168000
S -26.936091 2.692945 -13.474318
S -24.242408 2.692945 -16.168000
S -24.242408 -0.000738 -13.474318
S -26.936091 -0.000738 -10.780635
S -26.936091 2.692945 -8.086952
S -24.242408 2.692945 -10.780635
S -24.242408 -0.000738 -8.086952
S -26.936091 -0.000738 -5.393269
S -26.936091 2.692945 -2.699586
S -24.242408 2.692945 -5.393269
S -24.242408 -0.000738 -2.699586
S -26.936091 -0.000738 -0.005903
S -26.936091 2.692945 2.687780
S -24.242408 2.692945 -0.005903
S -24.242408 -0.000738 2.687780
S -26.936091 -0.000738 5.381463
S -26.936091 2.692945 8.075145
S -24.242408 2.692945 5.381463
S -24.242408 -0.000738 8.075145
S -26.936091 -0.000738 10.768828
S -26.936091 2.692945 13.462511
S -24.242408 2.692945 10.768828
S -24.242408 -0.000738 13.462511
S -26.936091 -0.000738 16.156194
S -26.936091 2.692945 18.849877
S -24.242408 2.692945 16.156194
S -24.242408 -0.000738 18.849877
S -26.936091 -0.000738 21.543560
S -24.242408 2.692945 21.543560
S -24.242408 -0.000738 24.237243
S -24.242408 5.386628 -18.861683
S -26.936091 5.386628 -16.168000
S -26.936091 8.080311 -13.474318
S -24.242408 8.080311 -16.168000
S -24.242408 5.386628 -13.474318
S -26.936091 5.386628 -10.780635
S -26.936091 8.080311 -8.086952
S -24.242408 8.080311 -10.780635
S -24.242408 5.386628 -8.086952
S -26.936091 5.386628 -5.393269
S -26.936091 8.080311 -2.699586
S -24.242408 8.080311 -5.393269
S -24.242408 5.386628 -2.699586
S -26.936091 5.386628 -0.005903
S -26.936091 8.080311 2.687780
S -24.242408 8.080311 -0.005903
S -24.242408 5.386628 2.687780
S -26.936091 5.386628 5.381463
S -26.936091 8.080311 8.075145
S -24.242408 8.080311 5.381463
S -24.242408 5.386628 8.075145
S -26.936091 5.386628 10.768828
S -26.936091 8.080311 13.462511
S -24.242408 8.080311 10.768828
S -24.242408 5.386628 13.462511
S -26.936091 5.386628 16.156194
S -24.242408 8.080311 16.156194
S -24.242408 5.386628 18.849877
S -24.242408 10.773994 -13.474318
S -26.936091 10.773994 -10.780635
S -26.936091 13.467676 -8.086952
S -24.242408 13.467676 -10.780635
S -24.242408 10.773994 -8.086952
S -26.936091 10.773994 -5.393269
S -26.936091 13.467676 -2.699586
S -24.242408 13.467676 -5.393269
S -24.242408 10.773994 -2.699586
S -26.936091 10.773994 -0.005903
S -26.936091 13.467676 2.687780
S -24.242408 13.467676 -0.005903
S -24.242408 10.773994 2.687780
S -26.936091 10.773994 5.381463
S -26.936091 13.467676 8.075145
S -24.242408 13.467676 5.381463
S -24.242408 10.773994 8.075145
S -26.936091 10.773994 10.768828
S -24.242408 13.467676 10.768828
S -24.242408 10.773994 13.462511
S -24.242408 16.161359 -8.086952
S -26.936091 16.161359 -5.393269
S -26.936091 18.855042 -2.699586
S -24.242408 18.855042 -5.393269
S -24.242408 16.161359 -2.699586
S -26.936091 16.161359 -0.005903
S -26.936091 18.855042 2.687780
S -24.242408 18.855042 -0.005903
S -24.242408 16.161359 2.687780
S -26.936091 16.161359 5.381463
S -24.242408 18.855042 5.381463
S -24.242408 16.161359 8.075145
S -24.242408 21.548725 -2.699586
S -26.936091 21.548725 -0.005903
S -24.242408 24.242408 -0.005903
S -24.242408 21.548725 2.687780
S -21.548725 -24.243884 -2.699586
S -18.855042 -24.243884 -5.393269
S -18.855042 -26.937567 -2.699586
S -21.548725 -26.937567 -0.005903
S -21.548725 -24.243884 2.687780
S -18.855042 -24.243884 -0.005903
S -18.855042 -26.937567 2.687780
S -18.855042 -24.243884 5.381463
S -21.548725 -18.856518 -8.086952
S -18.855042 -18.856518 -10.780635
S -18.855042 -21.550201 -8.086952
S -21.548725 -21.550201 -5.393269
S -21.548725 -18.856518 -2.699586
S -18.855042 -18.856518 -5.393269
S -18.855042 -21.550201 -2.699586
S -21.548725 -21.550201 -0.005903
S -21.548725 -18.856518 2.687780
S -18.855042 -18.856518 -0.005903
S -18.855042 -21.550201 2.687780
S -21.548725 -21.550201 5.381463
S -21.548725 -18.856518 8.075145
S -18.855042 -18.856518 5.381463
S -18.855042 -21.550201 8.075145
S -18.855042 -18.856518 10.768828
S -21.548725 -13.469152 -13.474318
S -18.855042 -13.469152 -16.168000
S -18.855042 -16.162835 -13.474318
S -21.548725 -16.162835 -10.780635
S -21.548725 -13.469152 -8.086952
S -18.855042 -13.469152 -10.780635
S -18.855042 -16.162835 -8.086952
S -21.548725 -16.162835 -5.393269
S -21.548725 -13.469152 -2.699586
S -18.855042 -13.469152 -5.393269
S -18.855042 -16.162835 -2.699586
S -21.548725 -16.162835 -0.005903
S -21.548725 -13.469152 2.687780
S -18.855042 -13.469152 -0.005903
S -18.855042 -16.162835 2.687780
S -21.548725 -16.162835 5.381463
S -21.548725 -13.469152 8.075145
S -18.855042 -13.469152 5.381463
S -18.855042 -16.162835 8.075145
S -21.548725 -16.162835 10.768828
S -21.548725 -13.469152 13.462511
S -18.855042 -13.469152 10.768828
S -18.855042 -16.162835 13.462511
S -18.855042 -13.469152 16.156194
S -21.548725 -8.081787 -18.861683
S -18.855042 -8.081787 -21.555366
S -18.855042 -10.775469 -18.861683
S -21.548725 -10.775469 -16.168000
S -21.548725 -8.081787 -13.474318
S -18.855042 -8.081787 -16.168000
S -18.855042 -10.775469 -13.474318
S -21.548725 -10.775469 -10.780635
S -21.548725 -8.081787 -8.086952
S -18.855042 -8.081787 -10.780635
S -18.855042 -10.775469 -8.086952
S -21.548725 -10.775469 -5.393269
S -21.548725 -8.081787 -2.699586
S -18.855042 -8.081787 -5.393269
S -18.855042 -10.775469 -2.699586
S -21.548725 -10.775469 -0.005903
S -21.548725 -8.081787 2.687780
S -18.855042 -8.081787 -0.005903
S -18.855042 -10.775469 2.687780
S -21.548725 -10.775469 5.381463
S -21.548725 -8.081787 8.075145
S -18.855042 -8.081787 5.381463
S -18.855042 -10.775469 8.075145
S -21.548725 -10.775469 10.768828
S -21.548725 -8.081787 13.462511
S -18.855042 -8.081787 10.768828
S -18.855042 -10.775469 13.462511
S -21.548725 -10.775469 16.156194
S -21.548725 -8.081787 18.849877
S -18.855042 -8.081787 16.156194
S -18.855042 -10.775469 18.849877
S -18.855042 -8.081787 21.543560
S -21.548725 -2.694421 -24.249049
S -18.855042 -2.694421 -26.942732
S -18.855042 -5.388104 -24.249049
S -21.548725 -5.388104 -21.555366
S -21.548725 -2.694421 -18.861683
S -18.855042 -2.694421 -21.555366
S -18.855042 -5.388104 -18.861683
S -21.548725 -5.388104 -16.168000
S -21.548725 -2.694421 -13.474318
S -18.855042 -2.694421 -16.168000
S -18.855042 -5.388104 -13.474318
S -21.548725 -5.388104 -10.780635
S -21.548725 -2.694421 -8.086952
S -18.855042 -2.694421 -10.780635
S -18.855042 -5.388104 -8.086952
S -21.548725 -5.388104 -5.393269
S -21.548725 -2.694421 -2.699586
S -18.855042 -2.694421 -5.393269
S -18.855042 -5.388104 -2.699586
S -21.548725 -5.388104 -0.005903
S -21.548725 -2.694421 2.687780
S -18.855042 -2.694421 -0.005903
S -18.855042 -5.388104 2.687780
S -21.548725 -5.388104 5.381463
S -21.548725 -2.694421 8.075145
S -18.855042 -2.694421 5.381463
S -18.855042 -5.388104 8.075145
S -21.548725 -5.388104 10.768828
S -21.548725 -2.694421 13.462511
S -18.855042 -2.694421 10.768828
S -18.855042 -5.388104 13.462511
S -21.548725 -5.388104 16.156194
S -21.548725 -2.694421 18.849877
S -18.855042 -2.694421 16.156194
S -18.855042 -5.388104 18.849877
S -21.548725 -5.388104 21.543560
S -21.548725 -2.694421 24.237243
S -18.855042 -2.694421 21.543560
S -18.855042 -5.388104 24.237243
S -18.855042 -2.694421 26.930926
S -21.548725 -0.000738 -26.942732
S -21.548725 2.692945 -24.249049
S -18.855042 2.692945 -26.942732
S -18.855042 -0.000738 -24.249049
S -21.548725 -0.000738 -21.555366
S -21.548725 2.692945 -18.861683
S -18.855042 2.692945 -21.555366
S -18.855042 -0.000738 -18.861683
S -21.548725 -0.000738 -16.168000
S -21.548725 2.692945 -13.474318
S -18.855042 2.692945 -16.168000
S -18.855042 -0.000738 -13.474318
S -21.548725 -0.000738 -10.780635
S -21.548725 2.692945 -8.086952
S -18.855042 2.692945 -10.780635
S -18.855042 -0.000738 -8.086952
S -21.548725 -0.000738 -5.393269
S -21.548725 2.692945 -2.699586
S -18.855042 2.692945 -5.393269
S -18.855042 -0.000738 -2.699586
S -21.548725 -0.000738 -0.005903
S -21.548725 2.692945 2.687780
S -18.855042 2.692945 -0.005903
S -18.855042 -0.000738 2.687780
S -21.548725 -0.000738 5.381463
S -21.548725 2.692945 8.075145
S -18.855042 2.692945 5.381463
S -18.855042 -0.000738 8.075145
S -21.548725 -0.000738 10.768828
S -21.548725 2.692945 13.462511
S -18.855042 2.692945 10.768828
S -18.855042 -0.000738 13.462511
S -21.548725 -0.000738 16.156194
S -21.548725 2.692945 18.849877
S -18.855042 2.692945 16.156194
S -18.855042 -0.000738 18.849877
S -21.548725 -0.000738 21.543560
S -21.548725 2.692945 24.237243
S -18.855042 2.692945 21.543560
S -18.855042 -0.000738 24.237243
S -21.548725 -0.000738 26.930926
S -18.855042 2.692945 26.930926
S -18.855042 5.386628 -24.249049
S -21.548725 5.386628 -21.555366
S -21.548725 8.080311 -18.861683
S -18.855042 8.080311 -21.555366
S -18.855042 5.386628 -18.861683
S -21.548725 5.386628 -16.168000
S -21.548725 8.080311 -13.474318
S -18.855042 8.080311 -16.168000
S -18.855042 5.386628 -13.474318
S -21.548725 5.386628 -10.780635
S -21.548725 8.080311 -8.086952
S -18.855042 8.080311 -10.780635
S -18.855042 5.386628 -8.086952
S -21.548725 5.386628 -5.393269
S -21.548725 8.080311 -2.699586
S -18.855042 8.080311 -5.393269
S -18.855042 5.386628 -2.699586
S -21.548725 5.386628 -0.005903
S -21.548725 8.080311 2.687780
S -18.855042 8.080311 -0.005903
S -18.855042 5.386628 2.687780
S -21.548725 5.386628 5.381463
S -21.548725 8.080311 8.075145
S -18.855042 8.080311 5.381463
S -18.855042 5.386628 8.075145
S -21.548725 5.386628 10.768828
S -21.548725 8.080311 13.462511
S -18.855042 8.080311 10.768828
S -18.855042 5.386628 13.462511
S -21.548725 5.386628 16.156194
S -21.548725 8.080311 18.849877
S -18.855042 8.080311 16.156194
S -18.855042 5.386628 18.849877
S -21.548725 5.386628 21.543560
S -18.855042 8.080311 21.543560
S -18.855042 5.386628 24.237243
S -18.855042 10.773994 -18.861683
S -21.548725 10.773994 -16.168000
S -21.548725 13.467676 -13.474318
S -18.855042 13.467676 -16.168000
S -18.855042 10.773994 -13.474318
S -21.548725 10.773994 -10.780635
S -21.548725 13.467676 -8.086952
S -18.855042 13.467676 -10.780635
S -18.855042 10.773994 -8.086952
S -21.548725 10.773994 -5.393269
S -21.548725 13.467676 -2.699586
S -18.855042 13.467676 -5.393269
S -18.855042 10.773994 -2.699586
S -21.548725 10.773994 -0.005903
S -21.548725 13.467676 2.687780
S -18.855042 13.467676 -0.005903
S -18.855042 10.773994 2.687780
S -21.548725 10.773994 5.381463
S -21.548725 13.467676 8.075145
S -18.855042 13.467676 5.381463
S -18.855042 10.773994 8.075145
S -21.548725 10.773994 10.768828
S -21.548725 13.467676 13.462511
S -18.855042 13.467676 10.768828
S -18.855042 10.773994 13.462511
S -21.548725 10.773994 16.156194
S -18.855042 13.467676 16.156194
S -18.855042 10.773994 18.849877
S -18.855042 16.161359 -13.474318
S -21.548725 16.161359 -10.780635
S -21.548725 18.855042 -8.086952
S -18.855042 18.855042 -10.780635
S -18.855042 16.161359 -8.086952
S -21.548725 16.161359 -5.393269
S -21.548725 18.855042 -2.699586
S -18.855042 18.855042 -5.393269
S -18.855042 16.161359 -2.699586
S -21.548725 16.161359 -0.005903
S -21.548725 18.855042 2.687780
S -18.855042 18.855042 -0.005903
S -18.855042 16.161359 2.687780
S -21.548725 16.161359 5.381463
S -21.548725 18.855042 8.075145
S -18.855042 18.855042 5.381463
S -18.855042 16.161359 8.075145
S -21.548725 16.161359 10.768828
S -18.855042 18.855042 10.768828
S -18.855042 16.161359 13.462511
S -18.855042 21.548725 -8.086952
S -21.548725 21.548725 -5.393269
S -21.548725 24.242408 -2.699586
S -18.855042 24.242408 -5.393269
S -18.855042 21.548725 -2.699586
S -21.548725 21.548725 -0.005903
S -21.548725 24.242408 2.687780
S -18.855042 24.242408 -0.005903
S -18.855042 21.548725 2.687780
S -21.548725 21.548725 5.381463
S -18.855042 24.242408 5.381463
S -18.855042 21.548725 8.075145
S -18.855042 26.936091 -2.699586
S -21.548725 26.936091 -0.005903
S -18.855042 26.936091 2.687780
S -16.161359 -24.243884 -8.086952
S -13.467676 -24.243884 -10.780635
S -13.467676 -26.937567 -8.086952
S -16.161359 -26.937567 -5.393269
S -16.161359 -24.243884 -2.699586
S -13.467676 -24.243884 -5.393269
S -13.467676 -26.937567 -2.699586
S -16.161359 -26.937567 -0.005903
S -16.161359 -24.243884 2.687780
S -13.467676 -24.243884 -0.005903
S -13.467676 -26.937567 2.687780
S -16.161359 -26.937567 5.381463
S -16.161359 -24.243884 8.075145
S -13.467676 -24.243884 5.381463
S -13.467676 -26.937567 8.075145
S -13.467676 -24.243884 10.768828
S -16.161359 -18.856518 -13.474318
S -13.467676 -18.856518 -16.168000
S -13.467676 -21.550201 -13.474318
S -16.161359 -21.550201 -10.780635
S -16.161359 -18.856518 -8.086952
S -13.467676 -18.856518 -10.780635
S -13.467676 -21.550201 -8.086952
S -16.161359 -21.550201 -5.393269
S -16.161359 -18.856518 -2.699586
S -13.467676 -18.856518 -5.393269
S -13.467676 -21.550201 -2.699586
S -16.161359 -21.550201 -0.005903
S -16.161359 -18.856518 2.687780
S -13.467676 -18.856518 -0.005903
S -13.467676 -21.550201 2.687780
S -16.161359 -21.550201 5.381463
S -16.161359 -18.856518 8.075145
S -13.467676 -18.856518 5.381463
S -13.467676 -21.550201 8.075145
S -16.161359 -21.550201 10.768828
S -16.161359 -18.856518 13.462511
S -13.467676 -18.856518 10.768828
S -13.467676 -21.550201 13.462511
S -13.467676 -18.856518 16.156194
S -16.161359 -13.469152 -18.861683
S -13.467676 -13.469152 -21.555366
S -13.467676 -16.162835 -18.861683
S -16.161359 -16.162835 -16.168000
S -16.161359 -13.469152 -13.474318
S -13.467676 -13.469152 -16.168000
S -13.467676 -16.162835 -13.474318
S -16.161359 -16.162835 -10.780635
S -16.161359 -13.469152 -8.086952
S -13.467676 -13.469152 -10.780635
S -13.467676 -16.162835 -8.086952
S -16.161359 -16.162835 -5.393269
S -16.161359 -13.469152 -2.699586
S -13.467676 -13.469152 -5.393269
S -13.467676 -16.162835 -2.699586
S -16.161359 -16.162835 -0.005903
S -16.161359 -13.469152 2.687780
S -13.467676 -13.469152 -0.005903
S -13.467676 -16.162835 2.687780
S -16.161359 -16.162835 5.381463
S -16.161359 -13.469152 8.075145
S -13.467676 -13.469152 5.381463
S -13.467676 -16.162835 8.075145
S -16.161359 -16.162835 10.768828
S -16.161359 -13.469152 13.462511
S -13.467676 -13.469152 10.768828
S -13.467676 -16.162835 13.462511
S -16.161359 -16.162835 16.156194
S -16.161359 -13.469152 18.849877
S -13.467676 -13.469152 16.156194
S -13.467676 -16.162835 18.849877
S -13.467676 -13.469152 21.543560
S -16.161359 -8.081787 -24.249049
S -13.467676 -8.081787 -26.942732
S -13.467676 -10.775469 -24.249049
S -16.161359 -10.775469 -21.555366
S -16.161359 -8.081787 -18.861683
S -13.467676 -8.081787 -21.555366
S -13.467676 -10.775469 -18.861683
S -16.161359 -10.775469 -16.168000
S -16.161359 -8.081787 -13.474318
S -13.467676 -8.081787 -16.168000
S -13.467676 -10.775469 -13.474318
S -16.161359 -10.775469 -10.780635
S -16.161359 -8.081787 -8.086952
S -13.467676 -8.081787 -10.780635
S -13.467676 -10.775469 -8.086952
S -16.161359 -10.775469 -5.393269
S -16.161359 -8.081787 -2.699586
S -13.467676 -8.081787 -5.393269
S -13.467676 -10.775469 -2.699586
S -16.161359 -10.775469 -0.005903
S -16.161359 -8.081787 2.687780
S -13.467676 -8.081787 -0.005903
S -13.467676 -10.775469 2.687780
S -16.161359 -10.775469 5.381463
S -16.161359 -8.081787 8.075145
S -13.467676 -8.081787 5.381463
S -13.467676 -10.775469 8.075145
S -16.161359 -10.775469 10.768828
S -16.161359 -8.081787 13.462511
S -13.467676 -8.081787 10.768828
S -13.467676 -10.775469 13.462511
S -16.161359 -10.775469 16.156194
S -16.161359 -8.081787 18.849877
S -13.467676 -8.081787 16.156194
S -13.467676 -10.775469 18.849877
S -16.161359 -10.775469 21.543560
S -16.161359 -8.081787 24.237243
S -13.467676 -8.081787 21.543560
S -13.467676 -10.775469 24.237243
S -13.467676 -8.081787 26.930926
S -16.161359 -5.388104 -26.942732
S -16.161359 -2.694421 -24.249049
S -13.467676 -2.694421 -26.942732
S -13.467676 -5.388104 -24.249049
S -16.161359 -5.388104 -21.555366
S -16.161359 -2.694421 -18.861683
S -13.467676 -2.694421 -21.555366
S -13.467676 -5.388104 -18.861683
S -16.161359 -5.388104 -16.168000
S -16.161359 -2.694421 -13.474318
S -13.467676 -2.694421 -16.168000
S -13.467676 -5.388104 -13.474318
S -16.161359 -5.388104 -10.780635
S -16.161359 -2.694421 -8.086952
S -13.467676 -2.694421 -10.780635
S -13.467676 -5.388104 -8.086952
S -16.161359 -5.388104 -5.393269
S -16.161359 -2.694421 -2.699586
S -13.467676 -2.694421 -5.393269
S -13.467676 -5.388104 -2.699586
S -16.161359 -5.388104 -0.005903
S -16.161359 -2.694421 2.687780
S -13.467676 -2.694421 -0.005903
S -13.467676 -5.388104 2.687780
S -16.161359 -5.388104 5.381463
S -16.161359 -2.694421 8.075145
S -13.467676 -2.694421 5.381463
S -13.467676 -5.388104 8.075145
S -16.161359 -5.388104 10.768828
S -16.161359 -2.694421 13.462511
S -13.467676 -2.694421 10.768828
S -13.467676 -5.388104 13.462511
S -16.161359 -5.388104 16.156194
S -16.161359 -2.694421 18.849877
S -13.467676 -2.694421 16.156194
S -13.467676 -5.388104 18.849877
S -16.161359 -5.388104 21.543560
S -16.161359 -2.694421 24.237243
S -13.467676 -2.694421 21.543560
S -13.467676 -5.388104 24.237243
S -16.161359 -5.388104 26.930926
S -13.467676 -2.694421 26.930926
S -16.161359 -0.000738 -26.942732
S -16.161359 2.692945 -24.249049
S -13.467676 2.692945 -26.942732
S -13.467676 -0.000738 -24.249049
S -16.161359 -0.000738 -21.555366
S -16.161359 2.692945 -18.861683
S -13.467676 2.692945 -21.555366
S -13.467676 -0.000738 -18.861683
S -16.161359 -0.000738 -16.168000
S -16.161359 2.692945 -13.474318
S -13.467676 2.692945 -16.168000
S -13.467676 -0.000738 -13.474318
S -16.161359 -0.000738 -10.780635
S -16.161359 2.692945 -8.086952
S -13.467676 2.692945 -10.780635
S -13.467676 -0.000738 -8.086952
S -16.161359 -0.000738 -5.393269
S -16.161359 2.692945 -2.699586
S -13.467676 2.692945 -5.393269
S -13.467676 -0.000738 -2.699586
S -16.161359 -0.000738 -0.005903
S -16.161359 2.692945 2.687780
S -13.467676 2.692945 -0.005903
S -13.467676 -0.000738 2.687780
S -16.161359 -0.000738 5.381463
S -16.161359 2.692945 8.075145
S -13.467676 2.692945 5.381463
S -13.467676 -0.000738 8.075145
S -16.161359 -0.000738 10.768828
S -16.161359 2.692945 13.462511
S -13.467676 2.692945 10.768828
S -13.467676 -0.000738 13.462511
S -16.161359 -0.000738 16.156194
S -16.161359 2.692945 18.849877
S -13.467676 2.692945 16.156194
S -13.467676 -0.000738 18.849877
S -16.161359 -0.000738 21.543560
S -16.161359 2.692945 24.237243
S -13.467676 2.692945 21.543560
S -13.467676 -0.000738 24.237243
S -16.161359 -0.000738 26.930926
S -13.467676 2.692945 26.930926
S -16.161359 5.386628 -26.942732
S -16.161359 8.080311 -24.249049
S -13.467676 8.080311 -26.942732
S -13.467676 5.386628 -24.249049
S -16.161359 5.386628 -21.555366
S -16.161359 8.080311 -18.861683
S -13.467676 8.080311 -21.555366
S -13.467676 5.386628 -18.861683
S -16.161359 5.386628 -16.168000
S -16.161359 8.080311 -13.474318
S -13.467676 8.080311 -16.168000
S -13.467676 5.386628 -13.474318
S -16.161359 5.386628 -10.780635
S -16.161359 8.080311 -8.086952
S -13.467676 8.080311 -10.780635
S -13.467676 5.386628 -8.086952
S -16.161359 5.386628 -5.393269
S -16.161359 8.080311 -2.699586
S -13.467676 8.080311 -5.393269
S -13.467676 5.386628 -2.699586
S -16.161359 5.386628 -0.005903
S -16.161359 8.080311 2.687780
S -13.467676 8.080311 -0.005903
S -13.467676 5.386628 2.687780
S -16.161359 5.386628 5.381463
S -16.161359 8.080311 8.075145
S -13.467676 8.080311 5.381463
S -13.467676 5.386628 8.075145
S -16.161359 5.386628 10.768828
S -16.161359 8.080311 13.462511
S -13.467676 8.080311 10.768828
S -13.467676 5.386628 13.462511
S -16.161359 5.386628 16.156194
S -16.161359 8.080311 18.849877
S -13.467676 8.080311 16.156194
S -13.467676 5.386628 18.849877
S -16.161359 5.386628 21.543560
S -16.161359 8.080311 24.237243
S -13.467676 8.080311 21.543560
S -13.467676 5.386628 24.237243
S -16.161359 5.386628 26.930926
S -13.467676 8.080311 26.930926
S -13.467676 10.773994 -24.249049
S -16.161359 10.773994 -21.555366
S -16.161359 13.467676 -18.861683
S -13.467676 13.467676 -21.555366
S -13.467676 10.773994 -18.861683
S -16.161359 10.773994 -16.168000
S -16.161359 13.467676 -13.474318
S -13.467676 13.467676 -16.168000
S -13.467676 10.773994 -13.474318
S -16.161359 10.773994 -10.780635
S -16.161359 13.467676 -8.086952
S -13.467676 13.467676 -10.780635
S -13.467676 10.773994 -8.086952
S -16.161359 10.773994 -5.393269
S -16.161359 13.467676 -2.699586
S -13.467676 13.467676 -5.393269
S -13.467676 10.773994 -2.699586
S -16.161359 10.773994 -0.005903
S -16.161359 13.467676 2.687780
S -13.467676 13.467676 -0.005903
S -13.467676 10.773994 2.687780
S -16.161359 10.773994 5.381463
S -16.161359 13.467676 8.075145
S -13.467676 13.467676 5.381463
S -13.467676 10.773994 8.075145
S -16.161359 10.773994 10.768828
S -16.161359 13.467676 13.462511
S -13.467676 13.467676 10.768828
S -13.467676 10.773994 13.462511
S -16.161359 10.773994 16.156194
S -16.161359 13.467676 18.849877
S -13.467676 13.467676 16.156194
S -13.467676 10.773994 18.849877
S -16.161359 10.773994 21.543560
S -13.467676 13.467676 21.543560
S -13.467676 10.773994 24.237243
S -13.467676 16.161359 -18.861683
S -16.161359 16.161359 -16.168000
S -16.161359 18.855042 -13.474318
S -13.467676 18.855042 -16.168000
S -13.467676 16.161359 -13.474318
S -16.161359 16.161359 -10.780635
S -16.161359 18.855042 -8.086952
S -13.467676 18.855042 -10.780635
S -13.467676 16.161359 -8.086952
S -16.161359 16.161359 -5.393269
S -16.161359 18.855042 -2.699586
S -13.467676 18.855042 -5.393269
S -13.467676 16.161359 -2.699586
S -16.161359 16.161359 -0.005903
S -16.161359 18.855042 2.687780
S -13.467676 18.855042 -0.005903
S -13.467676 16.161359 2.687780
S -16.161359 16.161359 5.381463
S -16.161359 18.855042 8.075145
S -13.467676 18.855042 5.381463
S -13.467676 16.161359 8.075145
S -16.161359 16.161359 10.768828
S -16.161359 18.855042 13.462511
S -13.467676 18.855042 10.768828
S -13.467676 16.161359 13.462511
S -16.161359 16.161359 16.156194
S -13.467676 18.855042 16.156194
S -13.467676 16.161359 18.849877
S -13.467676 21.548725 -13.474318
S -16.161359 21.548725 -10.780635
S -16.161359 24.242408 -8.086952
S -13.467676 24.242408 -10.780635
S -13.467676 21.548725 -8.086952
S -16.161359 21.548725 -5.393269
S -16.161359 24.242408 -2.699586
S -13.467676 24.242408 -5.393269
S -13.467676 21.548725 -2.699586
S -16.161359 21.548725 -0.005903
S -16.161359 24.242408 2.687780
S -13.467676 24.242408 -0.005903
S -13.467676 21.548725 2.687780
S -16.161359 21.548725 5.381463
S -16.161359 24.242408 8.075145
S -13.467676 24.242408 5.381463
S -13.467676 21.548725 8.075145
S -16.161359 21.548725 10.768828
S -13.467676 24.242408 10.768828
S -13.467676 21.548725 13.462511
S -13.467676 26.936091 -8.086952
S -16.161359 26.936091 -5.393269
S -13.467676 26.936091 -2.699586
S -16.161359 26.936091 -0.005903
S -13.467676 26.936091 2.687780
S -16.161359 26.936091 5.381463
S -13.467676 26.936091 8.075145
S -10.773994 -24.243884 -13.474318
S -8.080311 -24.243884 -16.168000
S -8.080311 -26.937567 -13.474318
S -10.773994 -26.937567 -10.780635
S -10.773994 -24.243884 -8.086952
S -8.080311 -24.243884 -10.780635
S -8.080311 -26.937567 -8.086952
S -10.773994 -26.937567 -5.393269
S -10.773994 -24.243884 -2.699586
S -8.080311 -24.243884 -5.393269
S -8.080311 -26.937567 -2.699586
S -10.773994 -26.937567 -0.005903
S -10.773994 -24.243884 2.687780
S -8.080311 -24.243884 -0.005903
S -8.080311 -26.937567 2.687780
S -10.773994 -26.937567 5.381463
S -10.773994 -24.243884 8.075145
S -8.080311 -24.243884 5.381463
S -8.080311 -26.937567 8.075145
S -10.773994 -26.937567 10.768828
S -10.773994 -24.243884 13.462511
S -8.080311 -24.243884 10.768828
S -8.080311 -26.937567 13.462511
S -8.080311 -24.243884 16.156194
S -10.773994 -18.856518 -18.861683
S -8.080311 -18.856518 -21.555366
S -8.080311 -21.550201 -18.861683
S -10.773994 -21.550201 -16.168000
S -10.773994 -18.856518 -13.474318
S -8.080311 -18.856518 -16.168000
S -8.080311 -21.550201 -13.474318
S -10.773994 -21.550201 -10.780635
S -10.773994 -18.856518 -8.086952
S -8.080311 -18.856518 -10.780635
S -8.080311 -21.550201 -8.086952
S -10.773994 -21.550201 -5.393269
S -10.773994 -18.856518 -2.699586
S -8.080311 -18.856518 -5.393269
S -8.080311 -21.550201 -2.699586
S -10.773994 -21.550201 -0.005903
S -10.773994 -18.856518 2.687780
S -8.080311 -18.856518 -0.005903
S -8.080311 -21.550201 2.687780
S -10.773994 -21.550201 5.381463
S -10.773994 -18.856518 8.075145
S -8.080311 -18.856518 5.381463
S -8.080311 -21.550201 8.075145
S -10.773994 -21.550201 10.768828
S -10.773994 -18.856518 13.462511
S -8.080311 -18.856518 10.768828
S -8.080311 -21.550201 13.462511
S -10.773994 -21.550201 16.156194
S -10.773994 -18.856518 18.849877
S -8.080311 -18.856518 16.156194
S -8.080311 -21.550201 18.849877
S -8.080311 -18.856518 21.543560
S -10.773994 -13.469152 -24.249049
S -8.080311 -13.469152 -26.942732
S -8.080311 -16.162835 -24.249049
S -10.773994 -16.162835 -21.555366
S -10.773994 -13.469152 -18.861683
S -8.080311 -13.469152 -21.555366
S -8.080311 -16.162835 -18.861683
S -10.773994 -16.162835 -16.168000
S -10.773994 -13.469152 -13.474318
S -8.080311 -13.469152 -16.168000
S -8.080311 -16.162835 -13.474318
S -10.773994 -16.162835 -10.780635
S -10.773994 -13.469152 -8.086952
S -8.080311 -13.469152 -10.780635
S -8.080311 -16.162835 -8.086952
S -10.773994 -16.162835 -5.393269
S -10.773994 -13.469152 -2.699586
S -8.080311 -13.469152 -5.393269
S -8.080311 -16.162835 -2.699586
S -10.773994 -16.162835 -0.005903
S -10.773994 -13.469152 2.687780
S -8.080311 -13.469152 -0.005903
S -8.080311 -16.162835 2.687780
S -10.773994 -16.162835 5.381463
S -10.773994 -13.469152 8.075145
S -8.080311 -13.469152 5.381463
S -8.080311 -16.162835 8.075145
S -10.773994 -16.162835 10.768828
S -10.773994 -13.469152 13.462511
S -8.080311 -13.469152 10.768828
S -8.080311 -16.162835 13.462511
S -10.773994 -16.162835 16.156194
S -10.773994 -13.469152 18.849877
S -8.080311 -13.469152 16.156194
S -8.080311 -16.162835 18.849877
S -10.773994 -16.162835 21.543560
S -10.773994 -13.469152 24.237243
S -8.080311 -13.469152 21.543560
S -8.080311 -16.162835 24.237243
S -8.080311 -13.469152 26.930926
S -10.773994 -10.775469 -26.942732
S -10.773994 -8.081787 -24.249049
S -8.080311 -8.081787 -26.942732
S -8.080311 -10.775469 -24.249049
S -10.773994 -10.775469 -21.555366
S -10.773994 -8.081787 -18.861683
S -8.080311 -8.081787 -21.555366
S -8.080311 -10.775469 -18.861683
S -10.773994 -10.775469 -16.168000
S -10.773994 -8.081787 -13.474318
S -8.080311 -8.081787 -16.168000
S -8.080311 -10.775469 -13.474318
S -10.773994 -10.775469 -10.780635
S -10.773994 -8.081787 -8.086952
S -8.080311 -8.081787 -10.780635
S -8.080311 -10.775469 -8.086952
S -10.773994 -10.775469 -5.393269
S -10.773994 -8.081787 -2.699586
S -8.080311 -8.081787 -5.393269
S -8.080311 -10.775469 -2.699586
S -10.773994 -10.775469 -0.005903
S -10.773994 -8.081787 2.687780
S -8.080311 -8.081787 -0.005903
S -8.080311 -10.775469 2.687780
S -10.773994 -10.775469 5.381463
S -10.773994 -8.081787 8.075145
S -8.080311 -8.081787 5.381463
S -8.080311 -10.775469 8.075145
S -10.773994 -10.775469 10.768828
S -10.773994 -8.081787 13.462511
S -8.080311 -8.081787 10.768828
S -8.080311 -10.775469 13.462511
S -10.773994 -10.775469 16.156194
S -10.773994 -8.081787 18.849877
S -8.080311 -8.081787 16.156194
S -8.080311 -10.775469 18.849877
S -10.773994 -10.775469 21.543560
S -10.773994 -8.081787 24.237243
S -8.080311 -8.081787 21.543560
S -8.080311 -10.775469 24.237243
S -10.773994 -10.775469 26.930926
S -8.080311 -8.081787 26.930926
S -10.773994 -5.388104 -26.942732
S -10.773994 -2.694421 -24.249049
S -8.080311 -2.694421 -26.942732
S -8.080311 -5.388104 -24.249049
S -10.773994 -5.388104 -21.555366
S -10.773994 -2.694421 -18.861683
S -8.080311 -2.694421 -21.555366
S -8.080311 -5.388104 -18.861683
S -10.773994 -5.388104 -16.168000
S -10.773994 -2.694421 -13.474318
S -8.080311 -2.694421 -16.168000
S -8.080311 -5.388104 -13.474318
S -10.773994 -5.388104 -10.780635
S -10.773994 -2.694421 -8.086952
S -8.080311 -2.694421 -10.780635
S -8.080311 -5.388104 -8.086952
S -10.773994 -5.388104 -5.393269
S -10.773994 -2.694421 -2.699586
S -8.080311 -2.694421 -5.393269
S -8.080311 -5.388104 -2.699586
S -10.773994 -5.388104 -0.005903
S -10.773994 -2.694421 2.687780
S -8.080311 -2.694421 -0.005903
S -8.080311 -5.388104 2.687780
S -10.773994 -5.388104 5.381463
S -10.773994 -2.694421 8.075145
S -8.080311 -2.694421 5.381463
S -8.080311 -5.388104 8.075145
S -10.773994 -5.388104 10.768828
S -10.773994 -2.694421 13.462511
S -8.080311 -2.694421 10.768828
S -8.080311 -5.388104 13.462511
S -10.773994 -5.388104 16.156194
S -10.773994 -2.694421 18.849877
S -8.080311 -2.694421 16.156194
S -8.080311 -5.388104 18.849877
S -10.773994 -5.388104 21.543560
S -10.773994 -2.694421 24.237243
S -8.080311 -2.694421 21.543560
S -8.080311 -5.388104 24.237243
S -10.773994 -5.388104 26.930926
S -8.080311 -2.694421 26.930926
S -10.773994 -0.000738 -26.942732
S -10.773994 2.692945 -24.249049
S -8.080311 2.692945 -26.942732
S -8.080311 -0.000738 -24.249049
S -10.773994 -0.000738 -21.555366
S -10.773994 2.692945 -18.861683
S -8.080311 2.692945 -21.555366
S -8.080311 -0.000738 -18.861683
S -10.773994 -0.000738 -16.168000
S -10.773994 2.692945 -13.474318
S -8.080311 2.692945 -16.168000
S -8.080311 -0.000738 -13.474318
S -10.773994 -0.000738 -10.780635
S -10.773994 2.692945 -8.086952
S -8.080311 2.692945 -10.780635
S -8.080311 -0.000738 -8.086952
S -10.773994 -0.000738 -5.393269
S -10.773994 2.692945 -2.699586
S -8.080311 2.692945 -5.393269
S -8.080311 -0.000738 -2.699586
S -10.773994 -0.000738 -0.005903
S -10.773994 2.692945 2.687780
S -8.080311 2.692945 -0.005903
S -8.080311 -0.000738 2.687780
S -10.773994 -0.000738 5.381463
S -10.773994 2.692945 8.075145
S -8.080311 2.692945 5.381463
S -8.080311 -0.000738 8.075145
S -10.773994 -0.000738 10.768828
S -10.773994 2.692945 13.462511
S -8.080311 2.692945 10.768828
S -8.080311 -0.000738 13.462511
S -10.773994 -0.000738 16.156194
S -10.773994 2.692945 18.849877
S -8.080311 2.692945 16.156194
S -8.080311 -0.000738 18.849877
S -10.773994 -0.000738 21.543560
S -10.773994 2.692945 24.237243
S -8.080311 2.692945 21.543560
S -8.080311 -0.000738 24.237243
S -10.773994 -0.000738 26.930926
S -8.080311 2.692945 26.930926
S -10.773994 5.386628 -26.942732
S -10.773994 8.080311 -24.249049
S -8.080311 8.080311 -26.942732
S -8.080311 5.386628 -24.249049
S -10.773994 5.386628 -21.555366
S -10.773994 8.080311 -18.861683
S -8.080311 8.080311 -21.555366
S -8.080311 5.386628 -18.861683
S -10.773994 5.386628 -16.168000
S -10.773994 8.080311 -13.474318
S -8.080311 8.080311 -16.168000
S -8.080311 5.386628 -13.474318
S -10.773994 5.386628 -10.780635
S -10.773994 8.080311 -8.086952
S -8.080311 8.080311 -10.780635
S -8.080311 5.386628 -8.086952
S -10.773994 5.386628 -5.393269
S -10.773994 8.080311 -2.699586
S -8.080311 8.080311 -5.393269
S -8.080311 5.386628 -2.699586
S -10.773994 5.386628 -0.005903
S -10.773994 8.080311 2.687780
S -8.080311 8.080311 -0.005903
S -8.080311 5.386628 2.687780
S -10.773994 5.386628 5.381463
S -10.773994 8.080311 8.075145
S -8.080311 8.080311 5.381463
S -8.080311 5.386628 8.075145
S -10.773994 5.386628 10.768828
S -10.773994 8.080311 13.462511
S -8.080311 8.080311 10.768828
S -8.080311 5.386628 13.462511
S -10.773994 5.386628 16.156194
S -10.773994 8.080311 18.849877
S -8.080311 8.080311 16.156194
S -8.080311 5.386628 18.849877
S -10.773994 5.386628 21.543560
S -10.773994 8.080311 24.237243
S -8.080311 8.080311 21.543560
S -8.080311 5.386628 24.237243
S -10.773994 5.386628 26.930926
S -8.080311 8.080311 26.930926
S -10.773994 10.773994 -26.942732
S -10.773994 13.467676 -24.249049
S -8.080311 13.467676 -26.942732
S -8.080311 10.773994 -24.249049
S -10.773994 10.773994 -21.555366
S -10.773994 13.467676 -18.861683
S -8.080311 13.467676 -21.555366
S -8.080311 10.773994 -18.861683
S -10.773994 10.773994 -16.168000
S -10.773994 13.467676 -13.474318
S -8.080311 13.467676 -16.168000
S -8.080311 10.773994 -13.474318
S -10.773994 10.773994 -10.780635
S -10.773994 13.467676 -8.086952
S -8.080311 13.467676 -10.780635
S -8.080311 10.773994 -8.086952
S -10.773994 10.773994 -5.393269
S -10.773994 13.467676 -2.699586
S -8.080311 13.467676 -5.393269
S -8.080311 10.773994 -2.699586
S -10.773994 10.773994 -0.005903
S -10.773994 13.467676 2.687780
S -8.080311 13.467676 -0.005903
S -8.080311 10.773994 2.687780
S -10.773994 10.773994 5.381463
S -10.773994 13.467676 8.075145
S -8.080311 13.467676 5.381463
S -8.080311 10.773994 8.075145
S -10.773994 10.773994 10.768828
S -10.773994 13.467676 13.462511
S -8.080311 13.467676 10.768828
S -8.080311 10.773994 13.462511
S -10.773994 10.773994 16.156194
S -10.773994 13.467676 18.849877
S -8.080311 13.467676 16.156194
S -8.080311 10.773994 18.849877
S -10.773994 10.773994 21.543560
S -10.773994 13.467676 24.237243
S -8.080311 13.467676 21.543560
S -8.080311 10.773994 24.237243
S -10.773994 10.773994 26.930926
S -8.080311 13.467676 26.930926
S -8.080311 16.161359 -24.249049
S -10.773994 16.161359 -21.555366
S -10.773994 18.855042 -18.861683
S -8.080311 18.855042 -21.555366
S -8.080311 16.161359 -18.861683
S -10.773994 16.161359 -16.168000
S -10.773994 18.855042 -13.474318
S -8.080311 18.855042 -16.168000
S -8.080311 16.161359 -13.474318
S -10.773994 16.161359 -10.780635
S -10.773994 18.855042 -8.086952
S -8.080311 18.855042 -10.780635
S -8.080311 16.161359 -8.086952
S -10.773994 16.161359 -5.393269
S -10.773994 18.855042 -2.699586
S -8.080311 18.855042 -5.393269
S -8.080311 16.161359 -2.699586
S -10.773994 16.161359 -0.005903
S -10.773994 18.855042 2.687780
S -8.080311 18.855042 -0.005903
S -8.080311 16.161359 2.687780
S -10.773994 16.161359 5.381463
S -10.773994 18.855042 8.075145
S -8.080311 18.855042 5.381463
S -8.080311 16.161359 8.075145
S -10.773994 16.161359 10.768828
S -10.773994 18.855042 13.462511
S -8.080311 18.855042 10.768828
S -8.080311 16.161359 13.462511
S -10.773994 16.161359 16.156194
S -10.773994 18.855042 18.849877
S -8.080311 18.855042 16.156194
S -8.080311 16.161359 18.849877
S -10.773994 16.161359 21.543560
S -8.080311 18.855042 21.543560
S -8.080311 16.161359 24.237243
S -8.080311 21.548725 -18.861683
S -10.773994 21.548725 -16.168000
S -10.773994 24.242408 -13.474318
S -8.080311 24.242408 -16.168000
S -8.080311 21.548725 -13.474318
S -10.773994 21.548725 -10.780635
S -10.773994 24.242408 -8.086952
S -8.080311 24.242408 -10.780635
S -8.080311 21.548725 -8.086952
S -10.773994 21.548725 -5.393269
S -10.773994 24.242408 -2.699586
S -8.080311 24.242408 -5.393269
S -8.080311 21.548725 -2.699586
S -10.773994 21.548725 -0.005903
S -10.773994 24.242408 2.687780
S -8.080311 24.242408 -0.005903
S -8.080311 21.548725 2.687780
S -10.773994 21.548725 5.381463
S -10.773994 24.242408 8.075145
S -8.080311 24.242408 5.381463
S -8.080311 21.548725 8.075145
S -10.773994 21.548725 10.768828
S -10.773994 24.242408 13.462511
S -8.080311 24.242408 10.768828
S -8.080311 21.548725 13.462511
S -10.773994 21.548725 16.156194
S -8.080311 24.242408 16.156194
S -8.080311 21.548725 18.849877
S -8.080311 26.936091 -13.474318
S -10.773994 26.936091 -10.780635
S -8.080311 26.936091 -8.086952
S -10.773994 26.936091 -5.393269
S -8.080311 26.936091 -2.699586
S -10.773994 26.936091 -0.005903
S -8.080311 26.936091 2.687780
S -10.773994 26.936091 5.381463
S -8.080311 26.936091 8.075145
S -10.773994 26.936091 10.768828
S -8.080311 26.936091 13.462511
S -5.386628 -24.243884 -18.861683
S -2.692945 -24.243884 -21.555366
S -2.692945 -26.937567 -18.861683
S -5.386628 -26.937567 -16.168000
S -5.386628 -24.243884 -13.474318
S -2.692945 -24.243884 -16.168000
S -2.692945 -26.937567 -13.474318
S -5.386628 -26.937567 -10.780635
S -5.386628 -24.243884 -8.086952
S -2.692945 -24.243884 -10.780635
S -2.692945 -26.937567 -8.086952
S -5.386628 -26.937567 -5.393269
S -5.386628 -24.243884 -2.699586
S -2.692945 -24.243884 -5.393269
S -2.692945 -26.937567 -2.699586
S -5.386628 -26.937567 -0.005903
S -5.386628 -24.243884 2.687780
S -2.692945 -24.243884 -0.005903
S -2.692945 -26.937567 2.687780
S -5.386628 -26.937567 5.381463
S -5.386628 -24.243884 8.075145
S -2.692945 -24.243884 5.381463
S -2.692945 -26.937567 8.075145
S -5.386628 -26.937567 10.768828
S -5.386628 -24.243884 13.462511
S -2.692945 -24.243884 10.768828
S -2.692945 -26.937567 13.462511
S -5.386628 -26.937567 16.156194
S -5.386628 -24.243884 18.849877
S -2.692945 -24.243884 16.156194
S -2.692945 -26.937567 18.849877
S -2.692945 -24.243884 21.543560
S -5.386628 -18.856518 -24.249049
S -2.692945 -18.856518 -26.942732
S -2.692945 -21.550201 -24.249049
S -5.386628 -21.550201 -21.555366
S -5.386628 -18.856518 -18.861683
S -2.692945 -18.856518 -21.555366
S -2.692945 -21.550201 -18.861683
S -5.386628 -21.550201 -16.168000
S -5.386628 -18.856518 -13.474318
S -2.692945 -18.856518 -16.168000
S -2.692945 -21.550201 -13.474318
S -5.386628 -21.550201 -10.780635
S -5.386628 -18.856518 -8.086952
S -2.692945 -18.856518 -10.780635
S -2.692945 -21.550201 -8.086952
S -5.386628 -21.550201 -5.393269
S -5.386628 -18.856518 -2.699586
S -2.692945 -18.856518 -5.393269
S -2.692945 -21.550201 -2.699586
S -5.386628 -21.550201 -0.005903
S -5.386628 -18.856518 2.687780
S -2.692945 -18.856518 -0.005903
S -2.692945 -21.550201 2.687780
S -5.386628 -21.550201 5.381463
S -5.386628 -18.856518 8.075145
S -2.692945 -18.856518 5.381463
S -2.692945 -21.550201 8.075145
S -5.386628 -21.550201 10.768828
S -5.386628 -18.856518 13.462511
S -2.692945 -18.856518 10.768828
S -2.692945 -21.550201 13.462511
S -5.386628 -21.550201 16.156194
S -5.386628 -18.856518 18.849877
S -2.692945 -18.856518 16.156194
S -2.692945 -21.550201 18.849877
S -5.386628 -21.550201 21.543560
S -5.386628 -18.856518 24.237243
S -2.692945 -18.856518 21.543560
S -2.692945 -21.550201 24.237243
S -2.692945 -18.856518 26.930926
S -5.386628 -16.162835 -26.942732
S -5.386628 -13.469152 -24.249049
S -2.692945 -13.469152 -26.942732
S -2.692945 -16.162835 -24.249049
S -5.386628 -16.162835 -21.555366
S -5.386628 -13.469152 -18.861683
S -2.692945 -13.469152 -21.555366
S -2.692945 -16.162835 -18.861683
S -5.386628 -16.162835 -16.168000
S -5.386628 -13.469152 -13.474318
S -2.692945 -13.469152 -16.168000
S -2.692945 -16.162835 -13.474318
S -5.386628 -16.162835 -10.780635
S -5.386628 -13.469152 -8.086952
S -2.692945 -13.469152 -10.780635
S -2.692945 -16.162835 -8.086952
S -5.386628 -16.162835 -5.393269
S -5.386628 -13.469152 -2.699586
S -2.692945 -13.469152 -5.393269
S -2.692945 -16.162835 -2.699586
S -5.386628 -16.162835 -0.005903
S -5.386628 -13.469152 2.687780
S -2.692945 -13.469152 -0.005903
S -2.692945 -16.162835 2.687780
S -5.386628 -16.162835 5.381463
S -5.386628 -13.469152 8.075145
S -2.692945 -13.469152 5.381463
S -2.692945 -16.162835 8.075145
S -5.386628 -16.162835 10.768828
S -5.386628 -13.469152 13.462511
S -2.692945 -13.469152 10.768828
S -2.692945 -16.162835 13.462511
S -5.386628 -16.162835 16.156194
S -5.386628 -13.469152 18.849877
S -2.692945 -13.469152 16.156194
S -2.692945 -16.162835 18.849877
S -5.386628 -16.162835 21.543560
S -5.386628 -13.469152 24.237243
S -2.692945 -13.469152 21.543560
S -2.692945 -16.162835 24.237243
S -5.386628 -16.162835 26.930926
S -2.692945 -13.469152 26.930926
S -5.386628 -10.775469 -26.942732
S -5.386628 -8.081787 -24.249049
S -2.692945 -8.081787 -26.942732
S -2.692945 -10.775469 -24.249049
S -5.386628 -10.775469 -21.555366
S -5.386628 -8.081787 -18.861683
S -2.692945 -8.081787 -21.555366
S -2.692945 -10.775469 -18.861683
S -5.386628 -10.775469 -16.168000
S -5.386628 -8.081787 -13.474318
S -2.692945 -8.081787 -16.168000
S -2.692945 -10.775469 -13.474318
S -5.386628 -10.775469 -10.780635
S -5.386628 -8.081787 -8.086952
S -2.692945 -8.081787 -10.780635
S -2.692945 -10.775469 -8.086952
S -5.386628 -10.775469 -5.393269
S -5.386628 -8.081787 -2.699586
S -2.692945 -8.081787 -5.393269
S -2.692945 -10.775469 -2.699586
S -5.386628 -10.775469 -0.005903
S -5.386628 -8.081787 2.687780
S -2.692945 -8.081787 -0.005903
S -2.692945 -10.775469 2.687780
S -5.386628 -10.775469 5.381463
S -5.386628 -8.081787 8.075145
S -2.692945 -8.081787 5.381463
S -2.692945 -10.775469 8.075145
S -5.386628 -10.775469 10.768828
S -5.386628 -8.081787 13.462511
S -2.692945 -8.081787 10.768828
S -2.692945 -10.775469 13.462511
S -5.386628 -10.775469 16.156194
S -5.386628 -8.081787 18.849877
S -2.692945 -8.081787 16.156194
S -2.692945 -10.775469 18.849877
S -5.386628 -10.775469 21.543560
S -5.386628 -8.081787 24.237243
S -2.692945 -8.081787 21.543560
S -2.692945 -10.775469 24.237243
S -5.386628 -10.775469 26.930926
S -2.692945 -8.081787 26.930926
S -5.386628 -5.388104 -26.942732
S -5.386628 -2.694421 -24.249049
S -2.692945 -2.694421 -26.942732
S -2.692945 -5.388104 -24.249049
S -5.386628 -5.388104 -21.555366
S -5.386628 -2.694421 -18.861683
S -2.692945 -2.694421 -21.555366
S -2.692945 -5.388104 -18.861683
S -5.386628 -5.388104 -16.168000
S -5.386628 -2.694421 -13.474318
S -2.692945 -2.694421 -16.168000
S -2.692945 -5.388104 -13.474318
S -5.386628 -5.388104 -10.780635
S -5.386628 -2.694421 -8.086952
S -2.692945 -2.694421 -10.780635
S -2.692945 -5.388104 -8.086952
S -5.386628 -5.388104 -5.393269
S -5.386628 -2.694421 -2.699586
S -2.692945 -2.694421 -5.393269
S -2.692945 -5.388104 -2.699586
S -5.386628 -5.388104 -0.005903
S -5.386628 -2.694421 2.687780
S -2.692945 -2.694421 -0.005903
S -2.692945 -5.388104 2.687780
S -5.386628 -5.388104 5.381463
S -5.386628 -2.694421 8.075145
S -2.692945 -2.694421 5.381463
S -2.692945 -5.388104 8.075145
S -5.386628 -5.388104 10.768828
S -5.386628 -2.694421 13.462511
S -2.692945 -2.694421 10.768828
S -2.692945 -5.388104 13.462511
S -5.386628 -5.388104 16.156194
S -5.386628 -2.694421 18.849877
S -2.692945 -2.694421 16.156194
S -2.692945 -5.388104 18.849877
S -5.386628 -5.388104 21.543560
S -5.386628 -2.694421 24.237243
S -2.692945 -2.694421 21.543560
S -2.692945 -5.388104 24.237243
S -5.386628 -5.388104 26.930926
S -2.692945 -2.694421 26.930926
S -5.386628 -0.000738 -26.942732
S -5.386628 2.692945 -24.249049
S -2.692945 2.692945 -26.942732
S -2.692945 -0.000738 -24.249049
S -5.386628 -0.000738 -21.555366
S -5.386628 2.692945 -18.861683
S -2.692945 2.692945 -21.555366
S -2.692945 -0.000738 -18.861683
S -5.386628 -0.000738 -16.168000
S -5.386628 2.692945 -13.474318
S -2.692945 2.692945 -16.168000
S -2.692945 -0.000738 -13.474318
S -5.386628 -0.000738 -10.780635
S -5.386628 2.692945 -8.086952
S -2.692945 2.692945 -10.780635
S -2.692945 -0.000738 -8.086952
S -5.386628 -0.000738 -5.393269
S -5.386628 2.692945 -2.699586
S -2.692945 2.692945 -5.393269
S -2.692945 -0.000738 -2.699586
S -5.386628 -0.000738 -0.005903
S -5.386628 2.692945 2.687780
S -2.692945 2.692945 -0.005903
S -2.692945 -0.000738 2.687780
S -5.386628 -0.000738 5.381463
S -5.386628 2.692945 8.075145
S -2.692945 2.692945 5.381463
S -2.692945 -0.000738 8.075145
S -5.386628 -0.000738 10.768828
S -5.386628 2.692945 13.462511
S -2.692945 2.692945 10.768828
S -2.692945 -0.000738 13.462511
S -5.386628 -0.000738 16.156194
S -5.386628 2.692945 18.849877
S -2.692945 2.692945 16.156194
S -2.692945 -0.000738 18.849877
S -5.386628 -0.000738 21.543560
S -5.386628 2.692945 24.237243
S -2.692945 2.692945 21.543560
S -2.692945 -0.000738 24.237243
S -5.386628 -0.000738 26.930926
S -2.692945 2.692945 26.930926
S -5.386628 5.386628 -26.942732
S -5.386628 8.080311 -24.249049
S -2.692945 8.080311 -26.942732
S -2.692945 5.386628 -24.249049
S -5.386628 5.386628 -21.555366
S -5.386628 8.080311 -18.861683
S -2.692945 8.080311 -21.555366
S -2.692945 5.386628 -18.861683
S -5.386628 5.386628 -16.168000
S -5.386628 8.080311 -13.474318
S -2.692945 8.080311 -16.168000
S -2.692945 5.386628 -13.474318
S -5.386628 5.386628 -10.780635
S -5.386628 8.080311 -8.086952
S -2.692945 8.080311 -10.780635
S -2.692945 5.386628 -8.086952
S -5.386628 5.386628 -5.393269
S -5.386628 8.080311 -2.699586
S -2.692945 8.080311 -5.393269
S -2.692945 5.386628 -2.699586
S -5.386628 5.386628 -0.005903
S -5.386628 8.080311 2.687780
S -2.692945 8.080311 -0.005903
S -2.692945 5.386628 2.687780
S -5.386628 5.386628 5.381463
S -5.386628 8.080311 8.075145
S -2.692945 8.080311 5.381463
S -2.692945 5.386628 8.075145
S -5.386628 5.386628 10.768828
S -5.386628 8.080311 13.462511
S -2.692945 8.080311 10.768828
S -2.692945 5.386628 13.462511
S -5.386628 5.386628 16.156194
S -5.386628 8.080311 18.849877
S -2.692945 8.080311 16.156194
S -2.692945 5.386628 18.849877
S -5.386628 5.386628 21.543560
S -5.386628 8.080311 24.237243
S -2.692945 8.080311 21.543560
S -2.692945 5.386628 24.237243
S -5.386628 5.386628 26.930926
S -2.692945 8.080311 26.930926
S -5.386628 10.773994 -26.942732
S -5.386628 13.467676 -24.249049
S -2.692945 13.467676 -26.942732
S -2.692945 10.773994 -24.249049
S -5.386628 10.773994 -21.555366
S -5.386628 13.467676 -18.861683
S -2.692945 13.467676 -21.555366
S -2.692945 10.773994 -18.861683
S -5.386628 10.773994 -16.168000
S -5.386628 13.467676 -13.474318
S -2.692945 13.467676 -16.168000
S -2.692945 10.773994 -13.474318
S -5.386628 10.773994 -10.780635
S -5.386628 13.467676 -8.086952
S -2.692945 13.467676 -10.780635
S -2.692945 10.773994 -8.086952
S -5.386628 10.773994 -5.393269
S -5.386628 13.467676 -2.699586
S -2.692945 13.467676 -5.393269
S -2.692945 10.773994 -2.699586
S -5.386628 10.773994 -0.005903
S -5.386628 13.467676 2.687780
S -2.692945 13.467676 -0.005903
S -2.692945 10.773994 2.687780
S -5.386628 10.773994 5.381463
S -5.386628 13.467676 8.075145
S -2.692945 13.467676 5.381463
S -2.692945 10.773994 8.075145
S -5.386628 10.773994 10.768828
S -5.386628 13.467676 13.462511
S -2.692945 13.467676 10.768828
S -2.692945 10.773994 13.462511
S -5.386628 10.773994 16.156194
S -5.386628 13.467676 18.849877
S -2.692945 13.467676 16.156194
S -2.692945 10.773994 18.849877
S -5.386628 10.773994 21.543560
S -5.386628 13.467676 24.237243
S -2.692945 13.467676 21.543560
S -2.692945 10.773994 24.237243
S -5.386628 10.773994 26.930926
S -2.692945 13.467676 26.930926
S -5.386628 16.161359 -26.942732
S -5.386628 18.855042 -24.249049
S -2.692945 18.855042 -26.942732
S -2.692945 16.161359 -24.249049
S -5.386628 16.161359 -21.555366
S -5.386628 18.855042 -18.861683
S -2.692945 18.855042 -21.555366
S -2.692945 16.161359 -18.861683
S -5.386628 16.161359 -16.168000
S -5.386628 18.855042 -13.474318
S -2.692945 18.855042 -16.168000
S -2.692945 16.161359 -13.474318
S -5.386628 16.161359 -10.780635
S -5.386628 18.855042 -8.086952
S -2.692945 18.855042 -10.780635
S -2.692945 16.161359 -8.086952
S -5.386628 16.161359 -5.393269
S -5.386628 18.855042 -2.699586
S -2.692945 18.855042 -5.393269
S -2.692945 16.161359 -2.699586
S -5.386628 16.161359 -0.005903
S -5.386628 18.855042 2.687780
S -2.692945 18.855042 -0.005903
S -2.692945 16.161359 2.687780
S -5.386628 16.161359 5.381463
S -5.386628 18.855042 8.075145
S -2.692945 18.855042 5.381463
S -2.692945 16.161359 8.075145
S -5.386628 16.161359 10.768828
S -5.386628 18.855042 13.462511
S -2.692945 18.855042 10.768828
S -2.692945 16.161359 13.462511
S -5.386628 16.161359 16.156194
S -5.386628 18.855042 18.849877
S -2.692945 18.855042 16.156194
S -2.692945 16.161359 18.849877
S -5.386628 16.161359 21.543560
S -5.386628 18.855042 24.237243
S -2.692945 18.855042 21.543560
S -2.692945 16.161359 24.237243
S -5.386628 16.161359 26.930926
S -2.692945 18.855042 26.930926
S -2.692945 21.548725 -24.249049
S -5.386628 21.548725 -21.555366
S -5.386628 24.242408 -18.861683
S -2.692945 24.242408 -21.555366
S -2.692945 21.548725 -18.861683
S -5.386628 21.548725 -16.168000
S -5.386628 24.242408 -13.474318
S -2.692945 24.242408 -16.168000
S -2.692945 21.548725 -13.474318
S -5.386628 21.548725 -10.780635
S -5.386628 24.242408 -8.086952
S -2.692945 24.242408 -10.780635
S -2.692945 21.548725 -8.086952
S -5.386628 21.548725 -5.393269
S -5.386628 24.242408 -2.699586
S -2.692945 24.242408 -5.393269
S -2.692945 21.548725 -2.699586
S -5.386628 21.548725 -0.005903
S -5.386628 24.242408 2.687780
S -2.692945 24.242408 -0.005903
S -2.692945 21.548725 2.687780
S -5.386628 21.548725 5.381463
S -5.386628 24.242408 8.075145
S -2.692945 24.242408 5.381463
S -2.692945 21.548725 8.075145
S -5.386628 21.548725 10.768828
S -5.386628 24.242408 13.462511
S -2.692945 24.242408 10.768828
S -2.692945 21.548725 13.462511
S -5.386628 21.548725 16.156194
S -5.386628 24.242408 18.849877
S -2.692945 24.242408 16.156194
S -2.692945 21.548725 18.849877
S -5.386628 21.548725 21.543560
S -2.692945 24.242408 21.543560
S -2.692945 21.548725 24.237243
S -2.692945 26.936091 -18.861683
S -5.386628 26.936091 -16.168000
S -2.692945 26.936091 -13.474318
S -5.386628 26.936091 -10.780635
S -2.692945 26.936091 -8.086952
S -5.386628 26.936091 -5.393269
S -2.692945 26.936091 -2.699586
S -5.386628 26.936091 -0.005903
S -2.692945 26.936091 2.687780
S -5.386628 26.936091 5.381463
S -2.692945 26.936091 8.075145
S -5.386628 26.936091 10.768828
S -2.692945 26.936091 13.462511
S -5.386628 26.936091 16.156194
S -2.692945 26.936091 18.849877
S 0.000738 -24.243884 -24.249049
S 0.000738 -26.937567 -21.555366
S 0.000738 -24.243884 -18.861683
S 2.694421 -24.243884 -21.555366
S 2.694421 -26.937567 -18.861683
S 0.000738 -26.937567 -16.168000
S 0.000738 -24.243884 -13.474318
S 2.694421 -24.243884 -16.168000
S 2.694421 -26.937567 -13.474318
S 0.000738 -26.937567 -10.780635
S 0.000738 -24.243884 -8.086952
S 2.694421 -24.243884 -10.780635
S 2.694421 -26.937567 -8.086952
S 0.000738 -26.937567 -5.393269
S 0.000738 -24.243884 -2.699586
S 2.694421 -24.243884 -5.393269
S 2.694421 -26.937567 -2.699586
S 0.000738 -26.937567 -0.005903
S 0.000738 -24.243884 2.687780
S 2.694421 -24.243884 -0.005903
S 2.694421 -26.937567 2.687780
S 0.000738 -26.937567 5.381463
S 0.000738 -24.243884 8.075145
S 2.694421 -24.243884 5.381463
S 2.694421 -26.937567 8.075145
S 0.000738 -26.937567 10.768828
S 0.000738 -24.243884 13.462511
S 2.694421 -24.243884 10.768828
S 2.694421 -26.937567 13.462511
S 0.000738 -26.937567 16.156194
S 0.000738 -24.243884 18.849877
S 2.694421 -24.243884 16.156194
S 2.694421 -26.937567 18.849877
S 0.000738 -26.937567 21.543560
S 0.000738 -24.243884 24.237243
S 2.694421 -24.243884 21.543560
S 0.000738 -21.550201 -26.942732
S 0.000738 -18.856518 -24.249049
S 2.694421 -18.856518 -26.942732
S 2.694421 -21.550201 -24.249049
S 0.000738 -21.550201 -21.555366
S 0.000738 -18.856518 -18.861683
S 2.694421 -18.856518 -21.555366
S 2.694421 -21.550201 -18.861683
S 0.000738 -21.550201 -16.168000
S 0.000738 -18.856518 -13.474318
S 2.694421 -18.856518 -16.168000
S 2.694421 -21.550201 -13.474318
S 0.000738 -21.550201 -10.780635
S 0.000738 -18.856518 -8.086952
S 2.694421 -18.856518 -10.780635
S 2.694421 -21.550201 -8.086952
S 0.000738 -21.550201 -5.393269
S 0.000738 -18.856518 -2.699586
S 2.694421 -18.856518 -5.393269
S 2.694421 -21.550201 -2.699586
S 0.000738 -21.550201 -0.005903
S 0.000738 -18.856518 2.687780
S 2.694421 -18.856518 -0.005903
S 2.694421 -21.550201 2.687780
S 0.000738 -21.550201 5.381463
S 0.000738 -18.856518 8.075145
S 2.694421 -18.856518 5.381463
S 2.694421 -21.550201 8.075145
S 0.000738 -21.550201 10.768828
S 0.000738 -18.856518 13.462511
S 2.694421 -18.856518 10.768828
S 2.694421 -21.550201 13.462511
S 0.000738 -21.550201 16.156194
S 0.000738 -18.856518 18.849877
S 2.694421 -18.856518 16.156194
S 2.694421 -21.550201 18.849877
S 0.000738 -21.550201 21.543560
S 0.000738 -18.856518 24.237243
S 2.694421 -18.856518 21.543560
S 2.694421 -21.550201 24.237243
S 0.000738 -21.550201 26.930926
S 2.694421 -18.856518 26.930926
S 0.000738 -16.162835 -26.942732
S 0.000738 -13.469152 -24.249049
S 2.694421 -13.469152 -26.942732
S 2.694421 -16.162835 -24.249049
S 0.000738 -16.162835 -21.555366
S 0.000738 -13.469152 -18.861683
S 2.694421 -13.469152 -21.555366
S 2.694421 -16.162835 -18.861683
S 0.000738 -16.162835 -16.168000
S 0.000738 -13.469152 -13.474318
S 2.694421 -13.469152 -16.168000
S 2.694421 -16.162835 -13.474318
S 0.000738 -16.162835 -10.780635
S 0.000738 -13.469152 -8.086952
S 2.694421 -13.469152 -10.780635
S 2.694421 -16.162835 -8.086952
S 0.000738 -16.162835 -5.393269
S 0.000738 -13.469152 -2.699586
S 2.694421 -13.469152 -5.393269
S 2.694421 -16.162835 -2.699586
S 0.000738 -16.162835 -0.005903
S 0.000738 -13.469152 2.687780
S 2.694421 -13.469152 -0.005903
S 2.694421 -16.162835 2.687780
S 0.000738 -16.162835 5.381463
S 0.000738 -13.469152 8.075145
S 2.694421 -13.469152 5.381463
S 2.694421 -16.162835 8.075145
S 0.000738 -16.162835 10.768828
S 0.000738 -13.469152 13.462511
S 2.694421 -13.469152 10.768828
S 2.694421 -16.162835 13.462511
S 0.000738 -16.162835 16.156194
S 0.000738 -13.469152 18.849877
S 2.694421 -13.469152 16.156194
S 2.694421 -16.162835 18.849877
S 0.000738 -16.162835 21.543560
S 0.000738 -13.469152 24.237243
S 2.694421 -13.469152 21.543560
S 2.694421 -16.162835 24.237243
S 0.000738 -16.162835 26.930926
S 2.694421 -13.469152 26.930926
S 0.000738 -10.775469 -26.942732
S 0.000738 -8.081787 -24.249049
S 2.694421 -8.081787 -26.942732
S 2.694421 -10.775469 -24.249049
S 0.000738 -10.775469 -21.555366
S 0.000738 -8.081787 -18.861683
S 2.694421 -8.081787 -21.555366
S 2.694421 -10.775469 -18.861683
S 0.000738 -10.775469 -16.168000
S 0.000738 -8.081787 -13.474318
S 2.694421 -8.081787 -16.168000
S 2.694421 -10.775469 -13.474318
S 0.000738 -10.775469 -10.780635
S 0.000738 -8.081787 -8.086952
S 2.694421 -8.081787 -10.780635
S 2.694421 -10.775469 -8.086952
S 0.000738 -10.775469 -5.393269
S 0.000738 -8.081787 -2.699586
S 2.694421 -8.081787 -5.393269
S 2.694421 -10.775469 -2.699586
S 0.000738 -10.775469 -0.005903
S 0.000738 -8.081787 2.687780
S 2.694421 -8.081787 -0.005903
S 2.694421 -10.775469 2.687780
S 0.000738 -10.775469 5.381463
S 0.000738 -8.081787 8.075145
S 2.694421 -8.081787 5.381463
S 2.694421 -10.775469 8.075145
S 0.000738 -10.775469 10.768828
S 0.000738 -8.081787 13.462511
S 2.694421 -8.081787 10.768828
S 2.694421 -10.775469 13.462511
S 0.000738 -10.775469 16.156194
S 0.000738 -8.081787 18.849877
S 2.694421 -8.081787 16.156194
S 2.694421 -10.775469 18.849877
S 0.000738 -10.775469 21.543560
S 0.000738 -8.081787 24.237243
S 2.694421 -8.081787 21.543560
S 2.694421 -10.775469 24.237243
S 0.000738 -10.775469 26.930926
S 2.694421 -8.081787 26.930926
S 0.000738 -5.388104 -26.942732
S 0.000738 -2.694421 -24.249049
S 2.694421 -2.694421 -26.942732
S 2.694421 -5.388104 -24.249049
S 0.000738 -5.388104 -21.555366
S 0.000738 -2.694421 -18.861683
S 2.694421 -2.694421 -21.555366
S 2.694421 -5.388104 -18.861683
S 0.000738 -5.388104 -16.168000
S 0.000738 -2.694421 -13.474318
S 2.694421 -2.694421 -16.168000
S 2.694421 -5.388104 -13.474318
S 0.000738 -5.388104 -10.780635
S 0.000738 -2.694421 -8.086952
S 2.694421 -2.694421 -10.780635
S 2.694421 -5.388104 -8.086952
S 0.000738 -5.388104 -5.393269
S 0.000738 -2.694421 -2.699586
S 2.694421 -2.694421 -5.393269
S 2.694421 -5.388104 -2.699586
S 0.000738 -5.388104 -0.005903
S 0.000738 -2.694421 2.687780
S 2.694421 -2.694421 -0.005903
S 2.694421 -5.388104 2.687780
S 0.000738 -5.388104 5.381463
S 0.000738 -2.694421 8.075145
S 2.694421 -2.694421 5.381463
S 2.694421 -5.388104 8.075145
S 0.000738 -5.388104 10.768828
S 0.000738 -2.694421 13.462511
S 2.694421 -2.694421 10.768828
S 2.694421 -5.388104 13.462511
S 0.000738 -5.388104 16.156194
S 0.000738 -2.694421 18.849877
S 2.694421 -2.694421 16.156194
S 2.694421 -5.388104 18.849877
S 0.000738 -5.388104 21.543560
S 0.000738 -2.694421 24.237243
S 2.694421 -2.694421 21.543560
S 2.694421 -5.388104 24.237243
S 0.000738 -5.388104 26.930926
S 2.694421 -2.694421 26.930926
S 0.000738 -0.000738 -26.942732
S 0.000738 2.692945 -24.249049
S 2.694421 2.692945 -26.942732
S 2.694421 -0.000738 -24.249049
S 0.000738 -0.000738 -21.555366
S 0.000738 2.692945 -18.861683
S 2.694421 2.692945 -21.555366
S 2.694421 -0.000738 -18.861683
S 0.000738 -0.000738 -16.168000
S 0.000738 2.692945 -13.474318
S 2.694421 2.692945 -16.168000
S 2.694421 -0.000738 -13.474318
S 0.000738 -0.000738 -10.780635
S 0.000738 2.692945 -8.086952
S 2.694421 2.692945 -10.780635
S 2.694421 -0.000738 -8.086952
S 0.000738 -0.000738 -5.393269
S 0.000738 2.692945 -2.699586
S 2.694421 2.692945 -5.393269
S 2.694421 -0.000738 -2.699586
S 0.000738 -0.000738 -0.005903
S 0.000738 2.692945 2.687780
S 2.694421 2.692945 -0.005903
S 2.694421 -0.000738 2.687780
S 0.000738 -0.000738 5.381463
S 0.000738 2.692945 8.075145
S 2.694421 2.692945 5.381463
S 2.694421 -0.000738 8.075145
S 0.000738 -0.000738 10.768828
S 0.000738 2.692945 13.462511
S 2.694421 2.692945 10.768828
S 2.694421 -0.000738 13.462511
S 0.000738 -0.000738 16.156194
S 0.000738 2.692945 18.849877
S 2.694421 2.692945 16.156194
S 2.694421 -0.000738 18.849877
S 0.000738 -0.000738 21.543560
S 0.000738 2.692945 24.237243
S 2.694421 2.692945 21.543560
S 2.694421 -0.000738 24.237243
S 0.000738 -0.000738 26.930926
S 2.694421 2.692945 26.930926
S 0.000738 5.386628 -26.942732
S 0.000738 8.080311 -24.249049
S 2.694421 8.080311 -26.942732
S 2.694421 5.386628 -24.249049
S 0.000738 5.386628 -21.555366
S 0.000738 8.080311 -18.861683
S 2.694421 8.080311 -21.555366
S 2.694421 5.386628 -18.861683
S 0.000738 5.386628 -16.168000
S 0.000738 8.080311 -13.474318
S 2.694421 8.080311 -16.168000
S 2.694421 5.386628 -13.474318
S 0.000738 5.386628 -10.780635
S 0.000738 8.080311 -8.086952
S 2.694421 8.080311 -10.780635
S 2.694421 5.386628 -8.086952
S 0.000738 5.386628 -5.393269
S 0.000738 8.080311 -2.699586
S 2.694421 8.080311 -5.393269
S 2.694421 5.386628 -2.699586
S 0.000738 5.386628 -0.005903
S 0.000738 8.080311 2.687780
S 2.694421 8.080311 -0.005903
S 2.694421 5.386628 2.687780
S 0.000738 5.386628 5.381463
S 0.000738 8.080311 8.075145
S 2.694421 8.080311 5.381463
S 2.694421 5.386628 8.075145
S 0.000738 5.386628 10.768828
S 0.000738 8.080311 13.462511
S 2.694421 8.080311 10.768828
S 2.694421 5.386628 13.462511
S 0.000738 5.386628 16.156194
S 0.000738 8.080311 18.849877
S 2.694421 8.080311 16.156194
S 2.694421 5.386628 18.849877
S 0.000738 5.386628 21.543560
S 0.000738 8.080311 24.237243
S 2.694421 8.080311 21.543560
S 2.694421 5.386628 24.237243
S 0.000738 5.386628 26.930926
S 2.694421 8.080311 26.930926
S 0.000738 10.773994 -26.942732
S 0.000738 13.467676 -24.249049
S 2.694421 13.467676 -26.942732
S 2.694421 10.773994 -24.249049
S 0.000738 10.773994 -21.555366
S 0.000738 13.467676 -18.861683
S 2.694421 13.467676 -21.555366
S 2.694421 10.773994 -18.861683
S 0.000738 10.773994 -16.168000
S 0.000738 13.467676 -13.474318
S 2.694421 13.467676 -16.168000
S 2.694421 10.773994 -13.474318
S 0.000738 10.773994 -10.780635
S 0.000738 13.467676 -8.086952
S 2.694421 13.467676 -10.780635
S 2.694421 10.773994 -8.086952
S 0.000738 10.773994 -5.393269
S 0.000738 13.467676 -2.699586
S 2.694421 13.467676 -5.393269
S 2.694421 10.773994 -2.699586
S 0.000738 10.773994 -0.005903
S 0.000738 13.467676 2.687780
S 2.694421 13.467676 -0.005903
S 2.694421 10.773994 2.687780
S 0.000738 10.773994 5.381463
S 0.000738 13.467676 8.075145
S 2.694421 13.467676 5.381463
S 2.694421 10.773994 8.075145
S 0.000738 10.773994 10.768828
S 0.000738 13.467676 13.462511
S 2.694421 13.467676 10.768828
S 2.694421 10.773994 13.462511
S 0.000738 10.773994 16.156194
S 0.000738 13.467676 18.849877
S 2.694421 13.467676 16.156194
S 2.694421 10.773994 18.849877
S 0.000738 10.773994 21.543560
S 0.000738 13.467676 24.237243
S 2.694421 13.467676 21.543560
S 2.694421 10.773994 24.237243
S 0.000738 10.773994 26.930926
S 2.694421 13.467676 26.930926
S 0.000738 16.161359 -26.942732
S 0.000738 18.855042 -24.249049
S 2.694421 18.855042 -26.942732
S 2.694421 16.161359 -24.249049
S 0.000738 16.161359 -21.555366
S 0.000738 18.855042 -18.861683
S 2.694421 18.855042 -21.555366
S 2.694421 16.161359 -18.861683
S 0.000738 16.161359 -16.168000
S 0.000738 18.855042 -13.474318
S 2.694421 18.855042 -16.168000
S 2.694421 16.161359 -13.474318
S 0.000738 16.161359 -10.780635
S 0.000738 18.855042 -8.086952
S 2.694421 18.855042 -10.780635
S 2.694421 16.161359 -8.086952
S 0.000738 16.161359 -5.393269
S 0.000738 18.855042 -2.699586
S 2.694421 18.855042 -5.393269
S 2.694421 16.161359 -2.699586
S 0.000738 16.161359 -0.005903
S 0.000738 18.855042 2.687780
S 2.694421 18.855042 -0.005903
S 2.694421 16.161359 2.687780
S 0.000738 16.161359 5.381463
S 0.000738 18.855042 8.075145
S 2.694421 18.855042 5.381463
S 2.694421 16.161359 8.075145
S 0.000738 16.161359 10.768828
S 0.000738 18.855042 13.462511
S 2.694421 18.855042 10.768828
S 2.694421 16.161359 13.462511
S 0.000738 16.161359 16.156194
S 0.000738 18.855042 18.849877
S 2.694421 18.855042 16.156194
S 2.694421 16.161359 18.849877
S 0.000738 16.161359 21.543560
S 0.000738 18.855042 24.237243
S 2.694421 18.855042 21.543560
S 2.694421 16.161359 24.237243
S 0.000738 16.161359 26.930926
S 2.694421 18.855042 26.930926
S 0.000738 21.548725 -26.942732
S 0.000738 24.242408 -24.249049
S 2.694421 21.548725 -24.249049
S 0.000738 21.548725 -21.555366
S 0.000738 24.242408 -18.861683
S 2.694421 24.242408 -21.555366
S 2.694421 21.548725 -18.861683
S 0.000738 21.548725 -16.168000
S 0.000738 24.242408 -13.474318
S 2.694421 24.242408 -16.168000
S 2.694421 21.548725 -13.474318
S 0.000738 21.548725 -10.780635
S 0.000738 24.242408 -8.086952
S 2.694421 24.242408 -10.780635
S 2.694421 21.548725 -8.086952
S 0.000738 21.548725 -5.393269
S 0.000738 24.242408 -2.699586
S 2.694421 24.242408 -5.393269
S 2.694421 21.548725 -2.699586
S 0.000738 21.548725 -0.005903
S 0.000738 24.242408 2.687780
S 2.694421 24.242408 -0.005903
S 2.694421 21.548725 2.687780
S 0.000738 21.548725 5.381463
S 0.000738 24.242408 8.075145
S 2.694421 24.242408 5.381463
S 2.694421 21.548725 8.075145
S 0.000738 21.548725 10.768828
S 0.000738 24.242408 13.462511
S 2.694421 24.242408 10.768828
S 2.694421 21.548725 13.462511
S 0.000738 21.548725 16.156194
S 0.000738 24.242408 18.849877
S 2.694421 24.242408 16.156194
S 2.694421 21.548725 18.849877
S 0.000738 21.548725 21.543560
S 0.000738 24.242408 24.237243
S 2.694421 24.242408 21.543560
S 2.694421 21.548725 24.237243
S 0.000738 21.548725 26.930926
S 0.000738 26.936091 -21.555366
S 2.694421 26.936091 -18.861683
S 0.000738 26.936091 -16.168000
S 2.694421 26.936091 -13.474318
S 0.000738 26.936091 -10.780635
S 2.694421 26.936091 -8.086952
S 0.000738 26.936091 -5.393269
S 2.694421 26.936091 -2.699586
S 0.000738 26.936091 -0.005903
S 2.694421 26.936091 2.687780
S 0.000738 26.936091 5.381463
S 2.694421 26.936091 8.075145
S 0.000738 26.936091 10.768828
S 2.694421 26.936091 13.462511
S 0.000738 26.936091 16.156194
S 2.694421 26.936091 18.849877
S 0.000738 26.936091 21.543560
S 5.388104 -24.243884 -18.861683
S 5.388104 -26.937567 -16.168000
S 5.388104 -24.243884 -13.474318
S 8.081787 -24.243884 -16.168000
S 8.081787 -26.937567 -13.474318
S 5.388104 -26.937567 -10.780635
S 5.388104 -24.243884 -8.086952
S 8.081787 -24.243884 -10.780635
S 8.081787 -26.937567 -8.086952
S 5.388104 -26.937567 -5.393269
S 5.388104 -24.243884 -2.699586
S 8.081787 -24.243884 -5.393269
S 8.081787 -26.937567 -2.699586
S 5.388104 -26.937567 -0.005903
S 5.388104 -24.243884 2.687780
S 8.081787 -24.243884 -0.005903
S 8.081787 -26.937567 2.687780
S 5.388104 -26.937567 5.381463
S 5.388104 -24.243884 8.075145
S 8.081787 -24.243884 5.381463
S 8.081787 -26.937567 8.075145
S 5.388104 -26.937567 10.768828
S 5.388104 -24.243884 13.462511
S 8.081787 -24.243884 10.768828
S 8.081787 -26.937567 13.462511
S 5.388104 -26.937567 16.156194
S 5.388104 -24.243884 18.849877
S 8.081787 -24.243884 16.156194
S 5.388104 -18.856518 -24.249049
S 5.388104 -21.550201 -21.555366
S 5.388104 -18.856518 -18.861683
S 8.081787 -18.856518 -21.555366
S 8.081787 -21.550201 -18.861683
S 5.388104 -21.550201 -16.168000
S 5.388104 -18.856518 -13.474318
S 8.081787 -18.856518 -16.168000
S 8.081787 -21.550201 -13.474318
S 5.388104 -21.550201 -10.780635
S 5.388104 -18.856518 -8.086952
S 8.081787 -18.856518 -10.780635
S 8.081787 -21.550201 -8.086952
S 5.388104 -21.550201 -5.393269
S 5.388104 -18.856518 -2.699586
S 8.081787 -18.856518 -5.393269
S 8.081787 -21.550201 -2.699586
S 5.388104 -21.550201 -0.005903
S 5.388104 -18.856518 2.687780
S 8.081787 -18.856518 -0.005903
S 8.081787 -21.550201 2.687780
S 5.388104 -21.550201 5.381463
S 5.388104 -18.856518 8.075145
S 8.081787 -18.856518 5.381463
S 8.081787 -21.550201 8.075145
S 5.388104 -21.550201 10.768828
S 5.388104 -18.856518 13.462511
S 8.081787 -18.856518 10.768828
S 8.081787 -21.550201 13.462511
S 5.388104 -21.550201 16.156194
S 5.388104 -18.856518 18.849877
S 8.081787 -18.856518 16.156194
S 8.081787 -21.550201 18.849877
S 5.388104 -21.550201 21.543560
S 5.388104 -18.856518 24.237243
S 8.081787 -18.856518 21.543560
S 5.388104 -16.162835 -26.942732
S 5.388104 -13.469152 -24.249049
S 8.081787 -13.469152 -26.942732
S 8.081787 -16.162835 -24.249049
S 5.388104 -16.162835 -21.555366
S 5.388104 -13.469152 -18.861683
S 8.081787 -13.469152 -21.555366
S 8.081787 -16.162835 -18.861683
S 5.388104 -16.162835 -16.168000
S 5.388104 -13.469152 -13.474318
S 8.081787 -13.469152 -16.168000
S 8.081787 -16.162835 -13.474318
S 5.388104 -16.162835 -10.780635
S 5.388104 -13.469152 -8.086952
S 8.081787 -13.469152 -10.780635
S 8.081787 -16.162835 -8.086952
S 5.388104 -16.162835 -5.393269
S 5.388104 -13.469152 -2.699586
S 8.081787 -13.469152 -5.393269
S 8.081787 -16.162835 -2.699586
S 5.388104 -16.162835 -0.005903
S 5.388104 -13.469152 2.687780
S 8.081787 -13.469152 -0.005903
S 8.081787 -16.162835 2.687780
S 5.388104 -16.162835 5.381463
S 5.388104 -13.469152 8.075145
S 8.081787 -13.469152 5.381463
S 8.081787 -16.162835 8.075145
S 5.388104 -16.162835 10.768828
S 5.388104 -13.469152 13.462511
S 8.081787 -13.469152 10.768828
S 8.081787 -16.162835 13.462511
S 5.388104 -16.162835 16.156194
S 5.388104 -13.469152 18.849877
S 8.081787 -13.469152 16.156194
S 8.081787 -16.162835 18.849877
S 5.388104 -16.162835 21.543560
S 5.388104 -13.469152 24.237243
S 8.081787 -13.469152 21.543560
S 8.081787 -16.162835 24.237243
S 5.388104 -16.162835 26.930926
S 8.081787 -13.469152 26.930926
S 5.388104 -10.775469 -26.942732
S 5.388104 -8.081787 -24.249049
S 8.081787 -8.081787 -26.942732
S 8.081787 -10.775469 -24.249049
S 5.388104 -10.775469 -21.555366
S 5.388104 -8.081787 -18.861683
S 8.081787 -8.081787 -21.555366
S 8.081787 -10.775469 -18.861683
S 5.388104 -10.775469 -16.168000
S 5.388104 -8.081787 -13.474318
S 8.081787 -8.081787 -16.168000
S 8.081787 -10.775469 -13.474318
S 5.388104 -10.775469 -10.780635
S 5.388104 -8.081787 -8.086952
S 8.081787 -8.081787 -10.780635
S 8.081787 -10.775469 -8.086952
S 5.388104 -10.775469 -5.393269
S 5.388104 -8.081787 -2.699586
S 8.081787 -8.081787 -5.393269
S 8.081787 -10.775469 -2.699586
S 5.388104 -10.775469 -0.005903
S 5.388104 -8.081787 2.687780
S 8.081787 -8.081787 -0.005903
S 8.081787 -10.775469 2.687780
S 5.388104 -10.775469 5.381463
S 5.388104 -8.081787 8.075145
S 8.081787 -8.081787 5.381463
S 8.081787 -10.775469 8.075145
S 5.388104 -10.775469 10.768828
S 5.388104 -8.081787 13.462511
S 8.081787 -8.081787 10.768828
S 8.081787 -10.775469 13.462511
S 5.388104 -10.775469 16.156194
S 5.388104 -8.081787 18.849877
S 8.081787 -8.081787 16.156194
S 8.081787 -10.775469 18.849877
S 5.388104 -10.775469 21.543560
S 5.388104 -8.081787 24.237243
S 8.081787 -8.081787 21.543560
S 8.081787 -10.775469 24.237243
S 5.388104 -10.775469 26.930926
S 8.081787 -8.081787 26.930926
S 5.388104 -5.388104 -26.942732
S 5.388104 -2.694421 -24.249049
S 8.081787 -2.694421 -26.942732
S 8.081787 -5.388104 -24.249049
S 5.388104 -5.388104 -21.555366
S 5.388104 -2.694421 -18.861683
S 8.081787 -2.694421 -21.555366
S 8.081787 -5.388104 -18.861683
S 5.388104 -5.388104 -16.168000
S 5.388104 -2.694421 -13.474318
S 8.081787 -2.694421 -16.168000
S 8.081787 -5.388104 -13.474318
S 5.388104 -5.388104 -10.780635
S 5.388104 -2.694421 -8.086952
S 8.081787 -2.694421 -10.780635
S 8.081787 -5.388104 -8.086952
S 5.388104 -5.388104 -5.393269
S 5.388104 -2.694421 -2.699586
S 8.081787 -2.694421 -5.393269
S 8.081787 -5.388104 -2.699586
S 5.388104 -5.388104 -0.005903
S 5.388104 -2.694421 2.687780
S 8.081787 -2.694421 -0.005903
S 8.081787 -5.388104 2.687780
S 5.388104 -5.388104 5.381463
S 5.388104 -2.694421 8.075145
S 8.081787 -2.694421 5.381463
S 8.081787 -5.388104 8.075145
S 5.388104 -5.388104 10.768828
S 5.388104 -2.694421 13.462511
S 8.081787 -2.694421 10.768828
S 8.081787 -5.388104 13.462511
S 5.388104 -5.388104 16.156194
S 5.388104 -2.694421 18.849877
S 8.081787 -2.694421 16.156194
S 8.081787 -5.388104 18.849877
S 5.388104 -5.388104 21.543560
S 5.388104 -2.694421 24.237243
S 8.081787 -2.694421 21.543560
S 8.081787 -5.388104 24.237243
S 5.388104 -5.388104 26.930926
S 8.081787 -2.694421 26.930926
S 5.388104 -0.000738 -26.942732
S 5.388104 2.692945 -24.249049
S 8.081787 2.692945 -26.942732
S 8.081787 -0.000738 -24.249049
S 5.388104 -0.000738 -21.555366
S 5.388104 2.692945 -18.861683
S 8.081787 2.692945 -21.555366
S 8.081787 -0.000738 -18.861683
S 5.388104 -0.000738 -16.168000
S 5.388104 2.692945 -13.474318
S 8.081787 2.692945 -16.168000
S 8.081787 -0.000738 -13.474318
S 5.388104 -0.000738 -10.780635
S 5.388104 2.692945 -8.086952
S 8.081787 2.692945 -10.780635
S 8.081787 -0.000738 -8.086952
S 5.388104 -0.000738 -5.393269
S 5.388104 2.692945 -2.699586
S 8.081787 2.692945 -5.393269
S 8.081787 -0.000738 -2.699586
S 5.388104 -0.000738 -0.005903
S 5.388104 2.692945 2.687780
S 8.081787 2.692945 -0.005903
S 8.081787 -0.000738 2.687780
S 5.388104 -0.000738 5.381463
S 5.388104 2.692945 8.075145
S 8.081787 2.692945 5.381463
S 8.081787 -0.000738 8.075145
S 5.388104 -0.000738 10.768828
S 5.388104 2.692945 13.462511
S 8.081787 2.692945 10.768828
S 8.081787 -0.000738 13.462511
S 5.388104 -0.000738 16.156194
S 5.388104 2.692945 18.849877
S 8.081787 2.692945 16.156194
S 8.081787 -0.000738 18.849877
S 5.388104 -0.000738 21.543560
S 5.388104 2.692945 24.237243
S 8.081787 2.692945 21.543560
S 8.081787 -0.000738 24.237243
S 5.388104 -0.000738 26.930926
S 8.081787 2.692945 26.930926
S 5.388104 5.386628 -26.942732
S 5.388104 8.080311 -24.249049
S 8.081787 8.080311 -26.942732
S 8.081787 5.386628 -24.249049
S 5.388104 5.386628 -21.555366
S 5.388104 8.080311 -18.861683
S 8.081787 8.080311 -21.555366
S 8.081787 5.386628 -18.861683
S 5.388104 5.386628 -16.168000
S 5.388104 8.080311 -13.474318
S 8.081787 8.080311 -16.168000
S 8.081787 5.386628 -13.474318
S 5.388104 5.386628 -10.780635
S 5.388104 8.080311 -8.086952
S 8.081787 8.080311 -10.780635
S 8.081787 5.386628 -8.086952
S 5.388104 5.386628 -5.393269
S 5.388104 8.080311 -2.699586
S 8.081787 8.080311 -5.393269
S 8.081787 5.386628 -2.699586
S 5.388104 5.386628 -0.005903
S 5.388104 8.080311 2.687780
S 8.081787 8.080311 -0.005903
S 8.081787 5.386628 2.687780
S 5.388104 5.386628 5.381463
S 5.388104 8.080311 8.075145
S 8.081787 8.080311 5.381463
S 8.081787 5.386628 8.075145
S 5.388104 5.386628 10.768828
S 5.388104 8.080311 13.462511
S 8.081787 8.080311 10.768828
S 8.081787 5.386628 13.462511
S 5.388104 5.386628 16.156194
S 5.388104 8.080311 18.849877
S 8.081787 8.080311 16.156194
S 8.081787 5.386628 18.849877
S 5.388104 5.386628 21.543560
S 5.388104 8.080311 24.237243
S 8.081787 8.080311 21.543560
S 8.081787 5.386628 24.237243
S 5.388104 5.386628 26.930926
S 8.081787 8.080311 26.930926
S 5.388104 10.773994 -26.942732
S 5.388104 13.467676 -24.249049
S 8.081787 13.467676 -26.942732
S 8.081787 10.773994 -24.249049
S 5.388104 10.773994 -21.555366
S 5.388104 13.467676 -18.861683
S 8.081787 13.467676 -21.555366
S 8.081787 10.773994 -18.861683
S 5.388104 10.773994 -16.168000
S 5.388104 13.467676 -13.474318
S 8.081787 13.467676 -16.168000
S 8.081787 10.773994 -13.474318
S 5.388104 10.773994 -10.780635
S 5.388104 13.467676 -8.086952
S 8.081787 13.467676 -10.780635
S 8.081787 10.773994 -8.086952
S 5.388104 10.773994 -5.393269
S 5.388104 13.467676 -2.699586
S 8.081787 13.467676 -5.393269
S 8.081787 10.773994 -2.699586
S 5.388104 10.773994 -0.005903
S 5.388104 13.467676 2.687780
S 8.081787 13.467676 -0.005903
S 8.081787 10.773994 2.687780
S 5.388104 10.773994 5.381463
S 5.388104 13.467676 8.075145
S 8.081787 13.467676 5.381463
S 8.081787 10.773994 8.075145
S 5.388104 10.773994 10.768828
S 5.388104 13.467676 13.462511
S 8.081787 13.467676 10.768828
S 8.081787 10.773994 13.462511
S 5.388104 10.773994 16.156194
S 5.388104 13.467676 18.849877
S 8.081787 13.467676 16.156194
S 8.081787 10.773994 18.849877
S 5.388104 10.773994 21.543560
S 5.388104 13.467676 24.237243
S 8.081787 13.467676 21.543560
S 8.081787 10.773994 24.237243
S 5.388104 10.773994 26.930926
S 8.081787 13.467676 26.930926
S 5.388104 16.161359 -26.942732
S 5.388104 18.855042 -24.249049
S 8.081787 16.161359 -24.249049
S 5.388104 16.161359 -21.555366
S 5.388104 18.855042 -18.861683
S 8.081787 18.855042 -21.555366
S 8.081787 16.161359 -18.861683
S 5.388104 16.161359 -16.168000
S 5.388104 18.855042 -13.474318
S 8.081787 18.855042 -16.168000
S 8.081787 16.161359 -13.474318
S 5.388104 16.161359 -10.780635
S 5.388104 18.855042 -8.086952
S 8.081787 18.855042 -10.780635
S 8.081787 16.161359 -8.086952
S 5.388104 16.161359 -5.393269
S 5.388104 18.855042 -2.699586
S 8.081787 18.855042 -5.393269
S 8.081787 16.161359 -2.699586
S 5.388104 16.161359 -0.005903
S 5.388104 18.855042 2.687780
S 8.081787 18.855042 -0.005903
S 8.081787 16.161359 2.687780
S 5.388104 16.161359 5.381463
S 5.388104 18.855042 8.075145
S 8.081787 18.855042 5.381463
S 8.081787 16.161359 8.075145
S 5.388104 16.161359 10.768828
S 5.388104 18.855042 13.462511
S 8.081787 18.855042 10.768828
S 8.081787 16.161359 13.462511
S 5.388104 16.161359 16.156194
S 5.388104 18.855042 18.849877
S 8.081787 18.855042 16.156194
S 8.081787 16.161359 18.849877
S 5.388104 16.161359 21.543560
S 5.388104 18.855042 24.237243
S 8.081787 18.855042 21.543560
S 8.081787 16.161359 24.237243
S 5.388104 16.161359 26.930926
S 5.388104 21.548725 -21.555366
S 5.388104 24.242408 -18.861683
S 8.081787 21.548725 -18.861683
S 5.388104 21.548725 -16.168000
S 5.388104 24.242408 -13.474318
S 8.081787 24.242408 -16.168000
S 8.081787 21.548725 -13.474318
S 5.388104 21.548725 -10.780635
S 5.388104 24.242408 -8.086952
S 8.081787 24.242408 -10.780635
S 8.081787 21.548725 -8.086952
S 5.388104 21.548725 -5.393269
S 5.388104 24.242408 -2.699586
S 8.081787 24.242408 -5.393269
S 8.081787 21.548725 -2.699586
S 5.388104 21.548725 -0.005903
S 5.388104 24.242408 2.687780
S 8.081787 24.242408 -0.005903
S 8.081787 21.548725 2.687780
S 5.388104 21.548725 5.381463
S 5.388104 24.242408 8.075145
S 8.081787 24.242408 5.381463
S 8.081787 21.548725 8.075145
S 5.388104 21.548725 10.768828
S 5.388104 24.242408 13.462511
S 8.081787 24.242408 10.768828
S 8.081787 21.548725 13.462511
S 5.388104 21.548725 16.156194
S 5.388104 24.242408 18.849877
S 8.081787 24.242408 16.156194
S 8.081787 21.548725 18.849877
S 5.388104 21.548725 21.543560
S 5.388104 26.936091 -16.168000
S 8.081787 26.936091 -13.474318
S 5.388104 26.936091 -10.780635
S 8.081787 26.936091 -8.086952
S 5.388104 26.936091 -5.393269
S 8.081787 26.936091 -2.699586
S 5.388104 26.936091 -0.005903
S 8.081787 26.936091 2.687780
S 5.388104 26.936091 5.381463
S 8.081787 26.936091 8.075145
S 5.388104 26.936091 10.768828
S 8.081787 26.936091 13.462511
S 5.388104 26.936091 16.156194
S 10.775469 -24.243884 -13.474318
S 10.775469 -26.937567 -10.780635
S 10.775469 -24.243884 -8.086952
S 13.469152 -24.243884 -10.780635
S 13.469152 -26.937567 -8.086952
S 10.775469 -26.937567 -5.393269
S 10.775469 -24.243884 -2.699586
S 13.469152 -24.243884 -5.393269
S 13.469152 -26.937567 -2.699586
S 10.775469 -26.937567 -0.005903
S 10.775469 -24.243884 2.687780
S 13.469152 -24.243884 -0.005903
S 13.469152 -26.937567 2.687780
S 10.775469 -26.937567 5.381463
S 10.775469 -24.243884 8.075145
S 13.469152 -24.243884 5.381463
S 13.469152 -26.937567 8.075145
S 10.775469 -26.937567 10.768828
S 10.775469 -24.243884 13.462511
S 13.469152 -24.243884 10.768828
S 10.775469 -18.856518 -18.861683
S 10.775469 -21.550201 -16.168000
S 10.775469 -18.856518 -13.474318
S 13.469152 -18.856518 -16.168000
S 13.469152 -21.550201 -13.474318
S 10.775469 -21.550201 -10.780635
S 10.775469 -18.856518 -8.086952
S 13.469152 -18.856518 -10.780635
S 13.469152 -21.550201 -8.086952
S 10.775469 -21.550201 -5.393269
S 10.775469 -18.856518 -2.699586
S 13.469152 -18.856518 -5.393269
S 13.469152 -21.550201 -2.699586
S 10.775469 -21.550201 -0.005903
S 10.775469 -18.856518 2.687780
S 13.469152 -18.856518 -0.005903
S 13.469152 -21.550201 2.687780
S 10.775469 -21.550201 5.381463
S 10.775469 -18.856518 8.075145
S 13.469152 -18.856518 5.381463
S 13.469152 -21.550201 8.075145
S 10.775469 -21.550201 10.768828
S 10.775469 -18.856518 13.462511
S 13.469152 -18.856518 10.768828
S 13.469152 -21.550201 13.462511
S 10.775469 -21.550201 16.156194
S 10.775469 -18.856518 18.849877
S 13.469152 -18.856518 16.156194
S 10.775469 -13.469152 -24.249049
S 10.775469 -16.162835 -21.555366
S 10.775469 -13.469152 -18.861683
S 13.469152 -13.469152 -21.555366
S 13.469152 -16.162835 -18.861683
S 10.775469 -16.162835 -16.168000
S 10.775469 -13.469152 -13.474318
S 13.469152 -13.469152 -16.168000
S 13.469152 -16.162835 -13.474318
S 10.775469 -16.162835 -10.780635
S 10.775469 -13.469152 -8.086952
S 13.469152 -13.469152 -10.780635
S 13.469152 -16.162835 -8.086952
S 10.775469 -16.162835 -5.393269
S 10.775469 -13.469152 -2.699586
S 13.469152 -13.469152 -5.393269
S 13.469152 -16.162835 -2.699586
S 10.775469 -16.162835 -0.005903
S 10.775469 -13.469152 2.687780
S 13.469152 -13.469152 -0.005903
S 13.469152 -16.162835 2.687780
S 10.775469 -16.162835 5.381463
S 10.775469 -13.469152 8.075145
S 13.469152 -13.469152 5.381463
S 13.469152 -16.162835 8.075145
S 10.775469 -16.162835 10.768828
S 10.775469 -13.469152 13.462511
S 13.469152 -13.469152 10.768828
S 13.469152 -16.162835 13.462511
S 10.775469 -16.162835 16.156194
S 10.775469 -13.469152 18.849877
S 13.469152 -13.469152 16.156194
S 13.469152 -16.162835 18.849877
S 10.775469 -16.162835 21.543560
S 10.775469 -13.469152 24.237243
S 13.469152 -13.469152 21.543560
S 10.775469 -10.775469 -26.942732
S 10.775469 -8.081787 -24.249049
S 13.469152 -8.081787 -26.942732
S 13.469152 -10.775469 -24.249049
S 10.775469 -10.775469 -21.555366
S 10.775469 -8.081787 -18.861683
S 13.469152 -8.081787 -21.555366
S 13.469152 -10.775469 -18.861683
S 10.775469 -10.775469 -16.168000
S 10.775469 -8.081787 -13.474318
S 13.469152 -8.081787 -16.168000
S 13.469152 -10.775469 -13.474318
S 10.775469 -10.775469 -10.780635
S 10.775469 -8.081787 -8.086952
S 13.469152 -8.081787 -10.780635
S 13.469152 -10.775469 -8.086952
S 10.775469 -10.775469 -5.393269
S 10.775469 -8.081787 -2.699586
S 13.469152 -8.081787 -5.393269
S 13.469152 -10.775469 -2.699586
S 10.775469 -10.775469 -0.005903
S 10.775469 -8.081787 2.687780
S 13.469152 -8.081787 -0.005903
S 13.469152 -10.775469 2.687780
S 10.775469 -10.775469 5.381463
S 10.775469 -8.081787 8.075145
S 13.469152 -8.081787 5.381463
S 13.469152 -10.775469 8.075145
S 10.775469 -10.775469 10.768828
S 10.775469 -8.081787 13.462511
S 13.469152 -8.081787 10.768828
S 13.469152 -10.775469 13.462511
S 10.775469 -10.775469 16.156194
S 10.775469 -8.081787 18.849877
S 13.469152 -8.081787 16.156194
S 13.469152 -10.775469 18.849877
S 10.775469 -10.775469 21.543560
S 10.775469 -8.081787 24.237243
S 13.469152 -8.081787 21.543560
S 13.469152 -10.775469 24.237243
S 10.775469 -10.775469 26.930926
S 13.469152 -8.081787 26.930926
S 10.775469 -5.388104 -26.942732
S 10.775469 -2.694421 -24.249049
S 13.469152 -2.694421 -26.942732
S 13.469152 -5.388104 -24.249049
S 10.775469 -5.388104 -21.555366
S 10.775469 -2.694421 -18.861683
S 13.469152 -2.694421 -21.555366
S 13.469152 -5.388104 -18.861683
S 10.775469 -5.388104 -16.168000
S 10.775469 -2.694421 -13.474318
S 13.469152 -2.694421 -16.168000
S 13.469152 -5.388104 -13.474318
S 10.775469 -5.388104 -10.780635
S 10.775469 -2.694421 -8.086952
S 13.469152 -2.694421 -10.780635
S 13.469152 -5.388104 -8.086952
S 10.775469 -5.388104 -5.393269
S 10.775469 -2.694421 -2.699586
S 13.469152 -2.694421 -5.393269
S 13.469152 -5.388104 -2.699586
S 10.775469 -5.388104 -0.005903
S 10.775469 -2.694421 2.687780
S 13.469152 -2.694421 -0.005903
S 13.469152 -5.388104 2.687780
S 10.775469 -5.388104 5.381463
S 10.775469 -2.694421 8.075145
S 13.469152 -2.694421 5.381463
S 13.469152 -5.388104 8.075145
S 10.775469 -5.388104 10.768828
S 10.775469 -2.694421 13.462511
S 13.469152 -2.694421 10.768828
S 13.469152 -5.388104 13.462511
S 10.775469 -5.388104 16.156194
S 10.775469 -2.694421 18.849877
S 13.469152 -2.694421 16.156194
S 13.469152 -5.388104 18.849877
S 10.775469 -5.388104 21.543560
S 10.775469 -2.694421 24.237243
S 13.469152 -2.694421 21.543560
S 13.469152 -5.388104 24.237243
S 10.775469 -5.388104 26.930926
S 13.469152 -2.694421 26.930926
S 10.775469 -0.000738 -26.942732
S 10.775469 2.692945 -24.249049
S 13.469152 2.692945 -26.942732
S 13.469152 -0.000738 -24.249049
S 10.775469 -0.000738 -21.555366
S 10.775469 2.692945 -18.861683
S 13.469152 2.692945 -21.555366
S 13.469152 -0.000738 -18.861683
S 10.775469 -0.000738 -16.168000
S 10.775469 2.692945 -13.474318
S 13.469152 2.692945 -16.168000
S 13.469152 -0.000738 -13.474318
S 10.775469 -0.000738 -10.780635
S 10.775469 2.692945 -8.086952
S 13.469152 2.692945 -10.780635
S 13.469152 -0.000738 -8.086952
S 10.775469 -0.000738 -5.393269
S 10.775469 2.692945 -2.699586
S 13.469152 2.692945 -5.393269
S 13.469152 -0.000738 -2.699586
S 10.775469 -0.000738 -0.005903
S 10.775469 2.692945 2.687780
S 13.469152 2.692945 -0.005903
S 13.469152 -0.000738 2.687780
S 10.775469 -0.000738 5.381463
S 10.775469 2.692945 8.075145
S 13.469152 2.692945 5.381463
S 13.469152 -0.000738 8.075145
S 10.775469 -0.000738 10.768828
S 10.775469 2.692945 13.462511
S 13.469152 2.692945 10.768828
S 13.469152 -0.000738 13.462511
S 10.775469 -0.000738 16.156194
S 10.775469 2.692945 18.849877
S 13.469152 2.692945 16.156194
S 13.469152 -0.000738 18.849877
S 10.775469 -0.000738 21.543560
S 10.775469 2.692945 24.237243
S 13.469152 2.692945 21.543560
S 13.469152 -0.000738 24.237243
S 10.775469 -0.000738 26.930926
S 13.469152 2.692945 26.930926
S 10.775469 5.386628 -26.942732
S 10.775469 8.080311 -24.249049
S 13.469152 8.080311 -26.942732
S 13.469152 5.386628 -24.249049
S 10.775469 5.386628 -21.555366
S 10.775469 8.080311 -18.861683
S 13.469152 8.080311 -21.555366
S 13.469152 5.386628 -18.861683
S 10.775469 5.386628 -16.168000
S 10.775469 8.080311 -13.474318
S 13.469152 8.080311 -16.168000
S 13.469152 5.386628 -13.474318
S 10.775469 5.386628 -10.780635
S 10.775469 8.080311 -8.086952
S 13.469152 8.080311 -10.780635
S 13.469152 5.386628 -8.086952
S 10.775469 5.386628 -5.393269
S 10.775469 8.080311 -2.699586
S 13.469152 8.080311 -5.393269
S 13.469152 5.386628 -2.699586
S 10.775469 5.386628 -0.005903
S 10.775469 8.080311 2.687780
S 13.469152 8.080311 -0.005903
S 13.469152 5.386628 2.687780
S 10.775469 5.386628 5.381463
S 10.775469 8.080311 8.075145
S 13.469152 8.080311 5.381463
S 13.469152 5.386628 8.075145
S 10.775469 5.386628 10.768828
S 10.775469 8.080311 13.462511
S 13.469152 8.080311 10.768828
S 13.469152 5.386628 13.462511
S 10.775469 5.386628 16.156194
S 10.775469 8.080311 18.849877
S 13.469152 8.080311 16.156194
S 13.469152 5.386628 18.849877
S 10.775469 5.386628 21.543560
S 10.775469 8.080311 24.237243
S 13.469152 8.080311 21.543560
S 13.469152 5.386628 24.237243
S 10.775469 5.386628 26.930926
S 13.469152 8.080311 26.930926
S 10.775469 10.773994 -26.942732
S 10.775469 13.467676 -24.249049
S 13.469152 10.773994 -24.249049
S 10.775469 10.773994 -21.555366
S 10.775469 13.467676 -18.861683
S 13.469152 13.467676 -21.555366
S 13.469152 10.773994 -18.861683
S 10.775469 10.773994 -16.168000
S 10.775469 13.467676 -13.474318
S 13.469152 13.467676 -16.168000
S 13.469152 10.773994 -13.474318
S 10.775469 10.773994 -10.780635
S 10.775469 13.467676 -8.086952
S 13.469152 13.467676 -10.780635
S 13.469152 10.773994 -8.086952
S 10.775469 10.773994 -5.393269
S 10.775469 13.467676 -2.699586
S 13.469152 13.467676 -5.393269
S 13.469152 10.773994 -2.699586
S 10.775469 10.773994 -0.005903
S 10.775469 13.467676 2.687780
S 13.469152 13.467676 -0.005903
S 13.469152 10.773994 2.687780
S 10.775469 10.773994 5.381463
S 10.775469 13.467676 8.075145
S 13.469152 13.467676 5.381463
S 13.469152 10.773994 8.075145
S 10.775469 10.773994 10.768828
S 10.775469 13.467676 13.462511
S 13.469152 13.467676 10.768828
S 13.469152 10.773994 13.462511
S 10.775469 10.773994 16.156194
S 10.775469 13.467676 18.849877
S 13.469152 13.467676 16.156194
S 13.469152 10.773994 18.849877
S 10.775469 10.773994 21.543560
S 10.775469 13.467676 24.237243
S 13.469152 13.467676 21.543560
S 13.469152 10.773994 24.237243
S 10.775469 10.773994 26.930926
S 10.775469 16.161359 -21.555366
S 10.775469 18.855042 -18.861683
S 13.469152 16.161359 -18.861683
S 10.775469 16.161359 -16.168000
S 10.775469 18.855042 -13.474318
S 13.469152 18.855042 -16.168000
S 13.469152 16.161359 -13.474318
S 10.775469 16.161359 -10.780635
S 10.775469 18.855042 -8.086952
S 13.469152 18.855042 -10.780635
S 13.469152 16.161359 -8.086952
S 10.775469 16.161359 -5.393269
S 10.775469 18.855042 -2.699586
S 13.469152 18.855042 -5.393269
S 13.469152 16.161359 -2.699586
S 10.775469 16.161359 -0.005903
S 10.775469 18.855042 2.687780
S 13.469152 18.855042 -0.005903
S 13.469152 16.161359 2.687780
S 10.775469 16.161359 5.381463
S 10.775469 18.855042 8.075145
S 13.469152 18.855042 5.381463
S 13.469152 16.161359 8.075145
S 10.775469 16.161359 10.768828
S 10.775469 18.855042 13.462511
S 13.469152 18.855042 10.768828
S 13.469152 16.161359 13.462511
S 10.775469 16.161359 16.156194
S 10.775469 18.855042 18.849877
S 13.469152 18.855042 16.156194
S 13.469152 16.161359 18.849877
S 10.775469 16.161359 21.543560
S 10.775469 21.548725 -16.168000
S 10.775469 24.242408 -13.474318
S 13.469152 21.548725 -13.474318
S 10.775469 21.548725 -10.780635
S 10.775469 24.242408 -8.086952
S 13.469152 24.242408 -10.780635
S 13.469152 21.548725 -8.086952
S 10.775469 21.548725 -5.393269
S 10.775469 24.242408 -2.699586
S 13.469152 24.242408 -5.393269
S 13.469152 21.548725 -2.699586
S 10.775469 21.548725 -0.005903
S 10.775469 24.242408 2.687780
S 13.469152 24.242408 -0.005903
S 13.469152 21.548725 2.687780
S 10.775469 21.548725 5.381463
S 10.775469 24.242408 8.075145
S 13.469152 24.242408 5.381463
S 13.469152 21.548725 8.075145
S 10.775469 21.548725 10.768828
S 10.775469 24.242408 13.462511
S 13.469152 24.242408 10.768828
S 13.469152 21.548725 13.462511
S 10.775469 21.548725 16.156194
S 10.775469 26.936091 -10.780635
S 13.469152 26.936091 -8.086952
S 10.775469 26.936091 -5.393269
S 13.469152 26.936091 -2.699586
S 10.775469 26.936091 -0.005903
S 13.469152 26.936091 2.687780
S 10.775469 26.936091 5.381463
S 13.469152 26.936091 8.075145
S 10.775469 26.936091 10.768828
S 16.162835 -24.243884 -8.086952
S 16.162835 -26.937567 -5.393269
S 16.162835 -24.243884 -2.699586
S 18.856518 -24.243884 -5.393269
S 18.856518 -26.937567 -2.699586
S 16.162835 -26.937567 -0.005903
S 16.162835 -24.243884 2.687780
S 18.856518 -24.243884 -0.005903
S 18.856518 -26.937567 2.687780
S 16.162835 -26.937567 5.381463
S 16.162835 -24.243884 8.075145
S 18.856518 -24.243884 5.381463
S 16.162835 -18.856518 -13.474318
S 16.162835 -21.550201 -10.780635
S 16.162835 -18.856518 -8.086952
S 18.856518 -18.856518 -10.780635
S 18.856518 -21.550201 -8.086952
S 16.162835 -21.550201 -5.393269
S 16.162835 -18.856518 -2.699586
S 18.856518 -18.856518 -5.393269
S 18.856518 -21.550201 -2.699586
S 16.162835 -21.550201 -0.005903
S 16.162835 -18.856518 2.687780
S 18.856518 -18.856518 -0.005903
S 18.856518 -21.550201 2.687780
S 16.162835 -21.550201 5.381463
S 16.162835 -18.856518 8.075145
S 18.856518 -18.856518 5.381463
S 18.856518 -21.550201 8.075145
S 16.162835 -21.550201 10.768828
S 16.162835 -18.856518 13.462511
S 18.856518 -18.856518 10.768828
S 16.162835 -13.469152 -18.861683
S 16.162835 -16.162835 -16.168000
S 16.162835 -13.469152 -13.474318
S 18.856518 -13.469152 -16.168000
S 18.856518 -16.162835 -13.474318
S 16.162835 -16.162835 -10.780635
S 16.162835 -13.469152 -8.086952
S 18.856518 -13.469152 -10.780635
S 18.856518 -16.162835 -8.086952
S 16.162835 -16.162835 -5.393269
S 16.162835 -13.469152 -2.699586
S 18.856518 -13.469152 -5.393269
S 18.856518 -16.162835 -2.699586
S 16.162835 -16.162835 -0.005903
S 16.162835 -13.469152 2.687780
S 18.856518 -13.469152 -0.005903
S 18.856518 -16.162835 2.687780
S 16.162835 -16.162835 5.381463
S 16.162835 -13.469152 8.075145
S 18.856518 -13.469152 5.381463
S 18.856518 -16.162835 8.075145
S 16.162835 -16.162835 10.768828
S 16.162835 -13.469152 13.462511
S 18.856518 -13.469152 10.768828
S 18.856518 -16.162835 13.462511
S 16.162835 -16.162835 16.156194
S 16.162835 -13.469152 18.849877
S 18.856518 -13.469152 16.156194
S 16.162835 -8.081787 -24.249049
S 16.162835 -10.775469 -21.555366
S 16.162835 -8.081787 -18.861683
S 18.856518 -8.081787 -21.555366
S 18.856518 -10.775469 -18.861683
S 16.162835 -10.775469 -16.168000
S 16.162835 -8.081787 -13.474318
S 18.856518 -8.081787 -16.168000
S 18.856518 -10.775469 -13.474318
S 16.162835 -10.775469 -10.780635
S 16.162835 -8.081787 -8.086952
S 18.856518 -8.081787 -10.780635
S 18.856518 -10.775469 -8.086952
S 16.162835 -10.775469 -5.393269
S 16.162835 -8.081787 -2.699586
S 18.856518 -8.081787 -5.393269
S 18.856518 -10.775469 -2.699586
S 16.162835 -10.775469 -0.005903
S 16.162835 -8.081787 2.687780
S 18.856518 -8.081787 -0.005903
S 18.856518 -10.775469 2.687780
S 16.162835 -10.775469 5.381463
S 16.162835 -8.081787 8.075145
S 18.856518 -8.081787 5.381463
S 18.856518 -10.775469 8.075145
S 16.162835 -10.775469 10.768828
S 16.162835 -8.081787 13.462511
S 18.856518 -8.081787 10.768828
S 18.856518 -10.775469 13.462511
S 16.162835 -10.775469 16.156194
S 16.162835 -8.081787 18.849877
S 18.856518 -8.081787 16.156194
S 18.856518 -10.775469 18.849877
S 16.162835 -10.775469 21.543560
S 16.162835 -8.081787 24.237243
S 18.856518 -8.081787 21.543560
S 16.162835 -5.388104 -26.942732
S 16.162835 -2.694421 -24.249049
S 18.856518 -2.694421 -26.942732
S 18.856518 -5.388104 -24.249049
S 16.162835 -5.388104 -21.555366
S 16.162835 -2.694421 -18.861683
S 18.856518 -2.694421 -21.555366
S 18.856518 -5.388104 -18.861683
S 16.162835 -5.388104 -16.168000
S 16.162835 -2.694421 -13.474318
S 18.856518 -2.694421 -16.168000
S 18.856518 -5.388104 -13.474318
S 16.162835 -5.388104 -10.780635
S 16.162835 -2.694421 -8.086952
S 18.856518 -2.694421 -10.780635
S 18.856518 -5.388104 -8.086952
S 16.162835 -5.388104 -5.393269
S 16.162835 -2.694421 -2.699586
S 18.856518 -2.694421 -5.393269
S 18.856518 -5.388104 -2.699586
S 16.162835 -5.388104 -0.005903
S 16.162835 -2.694421 2.687780
S 18.856518 -2.694421 -0.005903
S 18.856518 -5.388104 2.687780
S 16.162835 -5.388104 5.381463
S 16.162835 -2.694421 8.075145
S 18.856518 -2.694421 5.381463
S 18.856518 -5.388104 8.075145
S 16.162835 -5.388104 10.768828
S 16.162835 -2.694421 13.462511
S 18.856518 -2.694421 10.768828
S 18.856518 -5.388104 13.462511
S 16.162835 -5.388104 16.156194
S 16.162835 -2.694421 18.849877
S 18.856518 -2.694421 16.156194
S 18.856518 -5.388104 18.849877
S 16.162835 -5.388104 21.543560
S 16.162835 -2.694421 24.237243
S 18.856518 -2.694421 21.543560
S 18.856518 -5.388104 24.237243
S 16.162835 -5.388104 26.930926
S 18.856518 -2.694421 26.930926
S 16.162835 -0.000738 -26.942732
S 16.162835 2.692945 -24.249049
S 18.856518 2.692945 -26.942732
S 18.856518 -0.000738 -24.249049
S 16.162835 -0.000738 -21.555366
S 16.162835 2.692945 -18.861683
S 18.856518 2.692945 -21.555366
S 18.856518 -0.000738 -18.861683
S 16.162835 -0.000738 -16.168000
S 16.162835 2.692945 -13.474318
S 18.856518 2.692945 -16.168000
S 18.856518 -0.000738 -13.474318
S 16.162835 -0.000738 -10.780635
S 16.162835 2.692945 -8.086952
S 18.856518 2.692945 -10.780635
S 18.856518 -0.000738 -8.086952
S 16.162835 -0.000738 -5.393269
S 16.162835 2.692945 -2.699586
S 18.856518 2.692945 -5.393269
S 18.856518 -0.000738 -2.699586
S 16.162835 -0.000738 -0.005903
S 16.162835 2.692945 2.687780
S 18.856518 2.692945 -0.005903
S 18.856518 -0.000738 2.687780
S 16.162835 -0.000738 5.381463
S 16.162835 2.692945 8.075145
S 18.856518 2.692945 5.381463
S 18.856518 -0.000738 8.075145
S 16.162835 -0.000738 10.768828
S 16.162835 2.692945 13.462511
S 18.856518 2.692945 10.768828
S 18.856518 -0.000738 13.462511
S 16.162835 -0.000738 16.156194
S 16.162835 2.692945 18.849877
S 18.856518 2.692945 16.156194
S 18.856518 -0.000738 18.849877
S 16.162835 -0.000738 21.543560
S 16.162835 2.692945 24.237243
S 18.856518 2.692945 21.543560
S 18.856518 -0.000738 24.237243
S 16.162835 -0.000738 26.930926
S 18.856518 2.692945 26.930926
S 16.162835 5.386628 -26.942732
S 16.162835 8.080311 -24.249049
S 18.856518 5.386628 -24.249049
S 16.162835 5.386628 -21.555366
S 16.162835 8.080311 -18.861683
S 18.856518 8.080311 -21.555366
S 18.856518 5.386628 -18.861683
S 16.162835 5.386628 -16.168000
S 16.162835 8.080311 -13.474318
S 18.856518 8.080311 -16.168000
S 18.856518 5.386628 -13.474318
S 16.162835 5.386628 -10.780635
S 16.162835 8.080311 -8.086952
S 18.856518 8.080311 -10.780635
S 18.856518 5.386628 -8.086952
S 16.162835 5.386628 -5.393269
S 16.162835 8.080311 -2.699586
S 18.856518 8.080311 -5.393269
S 18.856518 5.386628 -2.699586
S 16.162835 5.386628 -0.005903
S 16.162835 8.080311 2.687780
S 18.856518 8.080311 -0.005903
S 18.856518 5.386628 2.687780
S 16.162835 5.386628 5.381463
S 16.162835 8.080311 8.075145
S 18.856518 8.080311 5.381463
S 18.856518 5.386628 8.075145
S 16.162835 5.386628 10.768828
S 16.162835 8.080311 13.462511
S 18.856518 8.080311 10.768828
S 18.856518 5.386628 13.462511
S 16.162835 5.386628 16.156194
S 16.162835 8.080311 18.849877
S 18.856518 8.080311 16.156194
S 18.856518 5.386628 18.849877
S 16.162835 5.386628 21.543560
S 16.162835 8.080311 24.237243
S 18.856518 8.080311 21.543560
S 18.856518 5.386628 24.237243
S 16.162835 5.386628 26.930926
S 16.162835 10.773994 -21.555366
S 16.162835 13.467676 -18.861683
S 18.856518 10.773994 -18.861683
S 16.162835 10.773994 -16.168000
S 16.162835 13.467676 -13.474318
S 18.856518 13.467676 -16.168000
S 18.856518 10.773994 -13.474318
S 16.162835 10.773994 -10.780635
S 16.162835 13.467676 -8.086952
S 18.856518 13.467676 -10.780635
S 18.856518 10.773994 -8.086952
S 16.162835 10.773994 -5.393269
S 16.162835 13.467676 -2.699586
S 18.856518 13.467676 -5.393269
S 18.856518 10.773994 -2.699586
S 16.162835 10.773994 -0.005903
S 16.162835 13.467676 2.687780
S 18.856518 13.467676 -0.005903
S 18.856518 10.773994 2.687780
S 16.162835 10.773994 5.381463
S 16.162835 13.467676 8.075145
S 18.856518 13.467676 5.381463
S 18.856518 10.773994 8.075145
S 16.162835 10.773994 10.768828
S 16.162835 13.467676 13.462511
S 18.856518 13.467676 10.768828
S 18.856518 10.773994 13.462511
S 16.162835 10.773994 16.156194
S 16.162835 13.467676 18.849877
S 18.856518 13.467676 16.156194
S 18.856518 10.773994 18.849877
S 16.162835 10.773994 21.543560
S 16.162835 16.161359 -16.168000
S 16.162835 18.855042 -13.474318
S 18.856518 16.161359 -13.474318
S 16.162835 16.161359 -10.780635
S 16.162835 18.855042 -8.086952
S 18.856518 18.855042 -10.780635
S 18.856518 16.161359 -8.086952
S 16.162835 16.161359 -5.393269
S 16.162835 18.855042 -2.699586
S 18.856518 18.855042 -5.393269
S 18.856518 16.161359 -2.699586
S 16.162835 16.161359 -0.005903
S 16.162835 18.855042 2.687780
S 18.856518 18.855042 -0.005903
S 18.856518 16.161359 2.687780
S 16.162835 16.161359 5.381463
S 16.162835 18.855042 8.075145
S 18.856518 18.855042 5.381463
S 18.856518 16.161359 8.075145
S 16.162835 16.161359 10.768828
S 16.162835 18.855042 13.462511
S 18.856518 18.855042 10.768828
S 18.856518 16.161359 13.462511
S 16.162835 16.161359 16.156194
S 16.162835 21.548725 -10.780635
S 16.162835 24.242408 -8.086952
S 18.856518 21.548725 -8.086952
S 16.162835 21.548725 -5.393269
S 16.162835 24.242408 -2.699586
S 18.856518 24.242408 -5.393269
S 18.856518 21.548725 -2.699586
S 16.162835 21.548725 -0.005903
S 16.162835 24.242408 2.687780
S 18.856518 24.242408 -0.005903
S 18.856518 21.548725 2.687780
S 16.162835 21.548725 5.381463
S 16.162835 24.242408 8.075145
S 18.856518 24.242408 5.381463
S 18.856518 21.548725 8.075145
S 16.162835 21.548725 10.768828
S 16.162835 26.936091 -5.393269
S 18.856518 26.936091 -2.699586
S 16.162835 26.936091 -0.005903
S 18.856518 26.936091 2.687780
S 16.162835 26.936091 5.381463
S 21.550201 -24.243884 -2.699586
S 21.550201 -26.937567 -0.005903
S 21.550201 -24.243884 2.687780
S 24.243884 -24.243884 -0.005903
S 21.550201 -18.856518 -8.086952
S 21.550201 -21.550201 -5.393269
S 21.550201 -18.856518 -2.699586
S 24.243884 -18.856518 -5.393269
S 24.243884 -21.550201 -2.699586
S 21.550201 -21.550201 -0.005903
S 21.550201 -18.856518 2.687780
S 24.243884 -18.856518 -0.005903
S 24.243884 -21.550201 2.687780
S 21.550201 -21.550201 5.381463
S 21.550201 -18.856518 8.075145
S 24.243884 -18.856518 5.381463
S 21.550201 -13.469152 -13.474318
S 21.550201 -16.162835 -10.780635
S 21.550201 -13.469152 -8.086952
S 24.243884 -13.469152 -10.780635
S 24.243884 -16.162835 -8.086952
S 21.550201 -16.162835 -5.393269
S 21.550201 -13.469152 -2.699586
S 24.243884 -13.469152 -5.393269
S 24.243884 -16.162835 -2.699586
S 21.550201 -16.162835 -0.005903
S 21.550201 -13.469152 2.687780
S 24.243884 -13.469152 -0.005903
S 24.243884 -16.162835 2.687780
S 21.550201 -16.162835 5.381463
S 21.550201 -13.469152 8.075145
S 24.243884 -13.469152 5.381463
S 24.243884 -16.162835 8.075145
S 21.550201 -16.162835 10.768828
S 21.550201 -13.469152 13.462511
S 24.243884 -13.469152 10.768828
S 21.550201 -8.081787 -18.861683
S 21.550201 -10.775469 -16.168000
S 21.550201 -8.081787 -13.474318
S 24.243884 -8.081787 -16.168000
S 24.243884 -10.775469 -13.474318
S 21.550201 -10.775469 -10.780635
S 21.550201 -8.081787 -8.086952
S 24.243884 -8.081787 -10.780635
S 24.243884 -10.775469 -8.086952
S 21.550201 -10.775469 -5.393269
S 21.550201 -8.081787 -2.699586
S 24.243884 -8.081787 -5.393269
S 24.243884 -10.775469 -2.699586
S 21.550201 -10.775469 -0.005903
S 21.550201 -8.081787 2.687780
S 24.243884 -8.081787 -0.005903
S 24.243884 -10.775469 2.687780
S 21.550201 -10.775469 5.381463
S 21.550201 -8.081787 8.075145
S 24.243884 -8.081787 5.381463
S 24.243884 -10.775469 8.075145
S 21.550201 -10.775469 10.768828
S 21.550201 -8.081787 13.462511
S 24.243884 -8.081787 10.768828
S 24.243884 -10.775469 13.462511
S 21.550201 -10.775469 16.156194
S 21.550201 -8.081787 18.849877
S 24.243884 -8.081787 16.156194
S 21.550201 -2.694421 -24.249049
S 21.550201 -5.388104 -21.555366
S 21.550201 -2.694421 -18.861683
S 24.243884 -2.694421 -21.555366
S 24.243884 -5.388104 -18.861683
S 21.550201 -5.388104 -16.168000
S 21.550201 -2.694421 -13.474318
S 24.243884 -2.694421 -16.168000
S 24.243884 -5.388104 -13.474318
S 21.550201 -5.388104 -10.780635
S 21.550201 -2.694421 -8.086952
S 24.243884 -2.694421 -10.780635
S 24.243884 -5.388104 -8.086952
S 21.550201 -5.388104 -5.393269
S 21.550201 -2.694421 -2.699586
S 24.243884 -2.694421 -5.393269
S 24.243884 -5.388104 -2.699586
S 21.550201 -5.388104 -0.005903
S 21.550201 -2.694421 2.687780
S 24.243884 -2.694421 -0.005903
S 24.243884 -5.388104 2.687780
S 21.550201 -5.388104 5.381463
S 21.550201 -2.694421 8.075145
S 24.243884 -2.694421 5.381463
S 24.243884 -5.388104 8.075145
S 21.550201 -5.388104 10.768828
S 21.550201 -2.694421 13.462511
S 24.243884 -2.694421 10.768828
S 24.243884 -5.388104 13.462511
S 21.550201 -5.388104 16.156194
S 21.550201 -2.694421 18.849877
S 24.243884 -2.694421 16.156194
S 24.243884 -5.388104 18.849877
S 21.550201 -5.388104 21.543560
S 21.550201 -2.694421 24.237243
S 24.243884 -2.694421 21.543560
S 21.550201 -0.000738 -26.942732
S 21.550201 2.692945 -24.249049
S 24.243884 -0.000738 -24.249049
S 21.550201 -0.000738 -21.555366
S 21.550201 2.692945 -18.861683
S 24.243884 2.692945 -21.555366
S 24.243884 -0.000738 -18.861683
S 21.550201 -0.000738 -16.168000
S 21.550201 2.692945 -13.474318
S 24.243884 2.692945 -16.168000
S 24.243884 -0.000738 -13.474318
S 21.550201 -0.000738 -10.780635
S 21.550201 2.692945 -8.086952
S 24.243884 2.692945 -10.780635
S 24.243884 -0.000738 -8.086952
S 21.550201 -0.000738 -5.393269
S 21.550201 2.692945 -2.699586
S 24.243884 2.692945 -5.393269
S 24.243884 -0.000738 -2.699586
S 21.550201 -0.000738 -0.005903
S 21.550201 2.692945 2.687780
S 24.243884 2.692945 -0.005903
S 24.243884 -0.000738 2.687780
S 21.550201 -0.000738 5.381463
S 21.550201 2.692945 8.075145
S 24.243884 2.692945 5.381463
S 24.243884 -0.000738 8.075145
S 21.550201 -0.000738 10.768828
S 21.550201 2.692945 13.462511
S 24.243884 2.692945 10.768828
S 24.243884 -0.000738 13.462511
S 21.550201 -0.000738 16.156194
S 21.550201 2.692945 18.849877
S 24.243884 2.692945 16.156194
S 24.243884 -0.000738 18.849877
S 21.550201 -0.000738 21.543560
S 21.550201 2.692945 24.237243
S 24.243884 2.692945 21.543560
S 24.243884 -0.000738 24.237243
S 21.550201 -0.000738 26.930926
S 21.550201 5.386628 -21.555366
S 21.550201 8.080311 -18.861683
S 24.243884 5.386628 -18.861683
S 21.550201 5.386628 -16.168000
S 21.550201 8.080311 -13.474318
S 24.243884 8.080311 -16.168000
S 24.243884 5.386628 -13.474318
S 21.550201 5.386628 -10.780635
S 21.550201 8.080311 -8.086952
S 24.243884 8.080311 -10.780635
S 24.243884 5.386628 -8.086952
S 21.550201 5.386628 -5.393269
S 21.550201 8.080311 -2.699586
S 24.243884 8.080311 -5.393269
S 24.243884 5.386628 -2.699586
S 21.550201 5.386628 -0.005903
S 21.550201 8.080311 2.687780
S 24.243884 8.080311 -0.005903
S 24.243884 5.386628 2.687780
S 21.550201 5.386628 5.381463
S 21.550201 8.080311 8.075145
S 24.243884 8.080311 5.381463
S 24.243884 5.386628 8.075145
S 21.550201 5.386628 10.768828
S 21.550201 8.080311 13.462511
S 24.243884 8.080311 10.768828
S 24.243884 5.386628 13.462511
S 21.550201 5.386628 16.156194
S 21.550201 8.080311 18.849877
S 24.243884 8.080311 16.156194
S 24.243884 5.386628 18.849877
S 21.550201 5.386628 21.543560
S 21.550201 10.773994 -16.168000
S 21.550201 13.467676 -13.474318
S 24.243884 10.773994 -13.474318
S 21.550201 10.773994 -10.780635
S 21.550201 13.467676 -8.086952
S 24.243884 13.467676 -10.780635
S 24.243884 10.773994 -8.086952
S 21.550201 10.773994 -5.393269
S 21.550201 13.467676 -2.699586
S 24.243884 13.467676 -5.393269
S 24.243884 10.773994 -2.699586
S 21.550201 10.773994 -0.005903
S 21.550201 13.467676 2.687780
S 24.243884 13.467676 -0.005903
S 24.243884 10.773994 2.687780
S 21.550201 10.773994 5.381463
S 21.550201 13.467676 8.075145
S 24.243884 13.467676 5.381463
S 24.243884 10.773994 8.075145
S 21.550201 10.773994 10.768828
S 21.550201 13.467676 13.462511
S 24.243884 13.467676 10.768828
S 24.243884 10.773994 13.462511
S 21.550201 10.773994 16.156194
S 21.550201 16.161359 -10.780635
S 21.550201 18.855042 -8.086952
S 24.243884 16.161359 -8.086952
S 21.550201 16.161359 -5.393269
S 21.550201 18.855042 -2.699586
S 24.243884 18.855042 -5.393269
S 24.243884 16.161359 -2.699586
S 21.550201 16.161359 -0.005903
S 21.550201 18.855042 2.687780
S 24.243884 18.855042 -0.005903
S 24.243884 16.161359 2.687780
S 21.550201 16.161359 5.381463
S 21.550201 18.855042 8.075145
S 24.243884 18.855042 5.381463
S 24.243884 16.161359 8.075145
S 21.550201 16.161359 10.768828
S 21.550201 21.548725 -5.393269
S 21.550201 24.242408 -2.699586
S 24.243884 21.548725 -2.699586
S 21.550201 21.548725 -0.005903
S 21.550201 24.242408 2.687780
S 24.243884 24.242408 -0.005903
S 24.243884 21.548725 2.687780
S 21.550201 21.548725 5.381463
S 21.550201 26.936091 -0.005903
S 26.937567 -18.856518 -2.699586
S 26.937567 -21.550201 -0.005903
S 26.937567 -18.856518 2.687780
S 26.937567 -13.469152 -8.086952
S 26.937567 -16.162835 -5.393269
S 26.937567 -13.469152 -2.699586
S 26.937567 -16.162835 -0.005903
S 26.937567 -13.469152 2.687780
S 26.937567 -16.162835 5.381463
S 26.937567 -13.469152 8.075145
S 26.937567 -8.081787 -13.474318
S 26.937567 -10.775469 -10.780635
S 26.937567 -8.081787 -8.086952
S 26.937567 -10.775469 -5.393269
S 26.937567 -8.081787 -2.699586
S 26.937567 -10.775469 -0.005903
S 26.937567 -8.081787 2.687780
S 26.937567 -10.775469 5.381463
S 26.937567 -8.081787 8.075145
S 26.937567 -10.775469 10.768828
S 26.937567 -8.081787 13.462511
S 26.937567 -2.694421 -18.861683
S 26.937567 -5.388104 -16.168000
S 26.937567 -2.694421 -13.474318
S 26.937567 -5.388104 -10.780635
S 26.937567 -2.694421 -8.086952
S 26.937567 -5.388104 -5.393269
S 26.937567 -2.694421 -2.699586
S 26.937567 -5.388104 -0.005903
S 26.937567 -2.694421 2.687780
S 26.937567 -5.388104 5.381463
S 26.937567 -2.694421 8.075145
S 26.937567 -5.388104 10.768828
S 26.937567 -2.694421 13.462511
S 26.937567 -5.388104 16.156194
S 26.937567 -2.694421 18.849877
S 26.937567 -0.000738 -21.555366
S 26.937567 2.692945 -18.861683
S 26.937567 -0.000738 -16.168000
S 26.937567 2.692945 -13.474318
S 26.937567 -0.000738 -10.780635
S 26.937567 2.692945 -8.086952
S 26.937567 -0.000738 -5.393269
S 26.937567 2.692945 -2.699586
S 26.937567 -0.000738 -0.005903
S 26.937567 2.692945 2.687780
S 26.937567 -0.000738 5.381463
S 26.937567 2.692945 8.075145
S 26.937567 -0.000738 10.768828
S 26.937567 2.692945 13.462511
S 26.937567 -0.000738 16.156194
S 26.937567 2.692945 18.849877
S 26.937567 -0.000738 21.543560
S 26.937567 5.386628 -16.168000
S 26.937567 8.080311 -13.474318
S 26.937567 5.386628 -10.780635
S 26.937567 8.080311 -8.086952
S 26.937567 5.386628 -5.393269
S 26.937567 8.080311 -2.699586
S 26.937567 5.386628 -0.005903
S 26.937567 8.080311 2.687780
S 26.937567 5.386628 5.381463
S 26.937567 8.080311 8.075145
S 26.937567 5.386628 10.768828
S 26.937567 8.080311 13.462511
S 26.937567 5.386628 16.156194
S 26.937567 10.773994 -10.780635
S 26.937567 13.467676 -8.086952
S 26.937567 10.773994 -5.393269
S 26.937567 13.467676 -2.699586
S 26.937567 10.773994 -0.005903
S 26.937567 13.467676 2.687780
S 26.937567 10.773994 5.381463
S 26.937567 13.467676 8.075145
S 26.937567 10.773994 10.768828
S 26.937567 16.161359 -5.393269
S 26.937567 18.855042 -2.699586
S 26.937567 16.161359 -0.005903
S 26.937567 18.855042 2.687780
S 26.937567 16.161359 5.381463
S 26.937567 21.548725 -0.005903
Cl -29.629774 -18.856518 -0.005903
Cl -29.629774 -13.469152 -5.393269
Cl -29.629774 -16.162835 -2.699586
Cl -29.629774 -13.469152 -0.005903
Cl -29.629774 -16.162835 2.687780
Cl -29.629774 -13.469152 5.381463
Cl -29.629774 -8.081787 -10.780635
Cl -29.629774 -10.775469 -8.086952
Cl -29.629774 -8.081787 -5.393269
Cl -29.629774 -10.775469 -2.699586
Cl -29.629774 -8.081787 -0.005903
Cl -29.629774 -10.775469 2.687780
Cl -29.629774 -8.081787 5.381463
Cl -29.629774 -10.775469 8.075145
Cl -29.629774 -8.081787 10.768828
Cl -29.629774 -2.694421 -16.168000
Cl -29.629774 -5.388104 -13.474318
Cl -29.629774 -2.694421 -10.780635
Cl -29.629774 -5.388104 -8.086952
Cl -29.629774 -2.694421 -5.393269
Cl -29.629774 -5.388104 -2.699586
Cl -29.629774 -2.694421 -0.005903
Cl -29.629774 -5.388104 2.687780
Cl -29.629774 -2.694421 5.381463
Cl -29.629774 -5.388104 8.075145
Cl -29.629774 -2.694421 10.768828
Cl -29.629774 -5.388104 13.462511
Cl -29.629774 -2.694421 16.156194
Cl -29.629774 -0.000738 -18.861683
Cl -29.629774 2.692945 -16.168000
Cl -29.629774 -0.000738 -13.474318
Cl -29.629774 2.692945 -10.780635
Cl -29.629774 -0.000738 -8.086952
Cl -29.629774 2.692945 -5.393269
Cl -29.629774 -0.000738 -2.699586
Cl -29.629774 2.692945 -0.005903
Cl -29.629774 -0.000738 2.687780
Cl -29.629774 2.692945 5.381463
Cl -29.629774 -0.000738 8.075145
Cl -29.629774 2.692945 10.768828
Cl -29.629774 -0.000738 13.462511
Cl -29.629774 2.692945 16.156194
Cl -29.629774 -0.000738 18.849877
Cl -29.629774 5.386628 -13.474318
Cl -29.629774 8.080311 -10.780635
Cl -29.629774 5.386628 -8.086952
Cl -29.629774 8.080311 -5.393269
Cl -29.629774 5.386628 -2.699586
Cl -29.629774 8.080311 -0.005903
Cl -29.629774 5.386628 2.687780
Cl -29.629774 8.080311 5.381463
Cl -29.629774 5.386628 8.075145
Cl -29.629774 8.080311 10.768828
Cl -29.629774 5.386628 13.462511
Cl -29.629774 10.773994 -8.086952
Cl -29.629774 13.467676 -5.393269
Cl -29.629774 10.773994 -2.699586
Cl -29.629774 13.467676 -0.005903
Cl -29.629774 10.773994 2.687780
Cl -29.629774 13.467676 5.381463
Cl -29.629774 10.773994 8.075145
Cl -29.629774 16.161359 -2.699586
Cl -29.629774 18.855042 -0.005903
Cl -29.629774 16.161359 2.687780
Cl -18.855042 -29.631250 -0.005903
Cl -18.855042 -0.000738 -29.636415
Cl -18.855042 -0.000738 29.624608
Cl -18.855042 29.629774 -0.005903
Cl -16.161359 -29.631250 -2.699586
Cl -13.467676 -29.631250 -5.393269
Cl -16.161359 -29.631250 2.687780
Cl -13.467676 -29.631250 -0.005903
Cl -13.467676 -29.631250 5.381463
Cl -16.161359 -2.694421 -29.636415
Cl -13.467676 -5.388104 -29.636415
Cl -16.161359 -2.694421 29.624608
Cl -13.467676 -5.388104 29.624608
Cl -16.161359 2.692945 -29.636415
Cl -13.467676 -0.000738 -29.636415
Cl -16.161359 2.692945 29.624608
Cl -13.467676 -0.000738 29.624608
Cl -13.467676 5.386628 -29.636415
Cl -13.467676 5.386628 29.624608
Cl -16.161359 29.629774 -2.699586
Cl -13.467676 29.629774 -5.393269
Cl -16.161359 29.629774 2.687780
Cl -13.467676 29.629774 -0.005903
Cl -13.467676 29.629774 5.381463
Cl -10.773994 -29.631250 -8.086952
Cl -8.080311 -29.631250 -10.780635
Cl -10.773994 -29.631250 -2.699586
Cl -8.080311 -29.631250 -5.393269
Cl -10.773994 -29.631250 2.687780
Cl -8.080311 -29.631250 -0.005903
Cl -10.773994 -29.631250 8.075145
Cl -8.080311 -29.631250 5.381463
Cl -8.080311 -29.631250 10.768828
Cl -10.773994 -8.081787 -29.636415
Cl -8.080311 -10.775469 -29.636415
Cl -10.773994 -8.081787 29.624608
Cl -8.080311 -10.775469 29.624608
Cl -10.773994 -2.694421 -29.636415
Cl -8.080311 -5.388104 -29.636415
Cl -10.773994 -2.694421 29.624608
Cl -8.080311 -5.388104 29.624608
Cl -10.773994 2.692945 -29.636415
Cl -8.080311 -0.000738 -29.636415
Cl -10.773994 2.692945 29.624608
Cl -8.080311 -0.000738 29.624608
Cl -10.773994 8.080311 -29.636415
Cl -8.080311 5.386628 -29.636415
Cl -10.773994 8.080311 29.624608
Cl -8.080311 5.386628 29.624608
Cl -8.080311 10.773994 -29.636415
Cl -8.080311 10.773994 29.624608
Cl -10.773994 29.629774 -8.086952
Cl -8.080311 29.629774 -10.780635
Cl -10.773994 29.629774 -2.699586
Cl -8.080311 29.629774 -5.393269
Cl -10.773994 29.629774 2.687780
Cl -8.080311 29.629774 -0.005903
Cl -10.773994 29.629774 8.075145
Cl -8.080311 29.629774 5.381463
Cl -8.080311 29.629774 10.768828
Cl -5.386628 -29.631250 -13.474318
Cl -2.692945 -29.631250 -16.168000
Cl -5.386628 -29.631250 -8.086952
Cl -2.692945 -29.631250 -10.780635
Cl -5.386628 -29.631250 -2.699586
Cl -2.692945 -29.631250 -5.393269
Cl -5.386628 -29.631250 2.687780
Cl -2.692945 -29.631250 -0.005903
Cl -5.386628 -29.631250 8.075145
Cl -2.692945 -29.631250 5.381463
Cl -5.386628 -29.631250 13.462511
Cl -2.692945 -29.631250 10.768828
Cl -2.692945 -29.631250 16.156194
Cl -5.386628 -13.469152 -29.636415
Cl -2.692945 -16.162835 -29.636415
Cl -5.386628 -13.469152 29.624608
Cl -2.692945 -16.162835 29.624608
Cl -5.386628 -8.081787 -29.636415
Cl -2.692945 -10.775469 -29.636415
Cl -5.386628 -8.081787 29.624608
Cl -2.692945 -10.775469 29.624608
Cl -5.386628 -2.694421 -29.636415
Cl -2.692945 -5.388104 -29.636415
Cl -5.386628 -2.694421 29.624608
Cl -2.692945 -5.388104 29.624608
Cl -5.386628 2.692945 -29.636415
Cl -2.692945 -0.000738 -29.636415
Cl -5.386628 2.692945 29.624608
Cl -2.692945 -0.000738 29.624608
Cl -5.386628 8.080311 -29.636415
Cl -2.692945 5.386628 -29.636415
Cl -5.386628 8.080311 29.624608
Cl -2.692945 5.386628 29.624608
Cl -5.386628 13.467676 -29.636415
Cl -2.692945 10.773994 -29.636415
Cl -5.386628 13.467676 29.624608
Cl -2.692945 10.773994 29.624608
Cl -2.692945 16.161359 -29.636415
Cl -2.692945 16.161359 29.624608
Cl -5.386628 29.629774 -13.474318
Cl -2.692945 29.629774 -16.168000
Cl -5.386628 29.629774 -8.086952
Cl -2.692945 29.629774 -10.780635
Cl -5.386628 29.629774 -2.699586
Cl -2.692945 29.629774 -5.393269
Cl -5.386628 29.629774 2.687780
Cl -2.692945 29.629774 -0.005903
Cl -5.386628 29.629774 8.075145
Cl -2.692945 29.629774 5.381463
Cl -5.386628 29.629774 13.462511
Cl -2.692945 29.629774 10.768828
Cl -2.692945 29.629774 16.156194
Cl 0.000738 -29.631250 -18.861683
Cl 0.000738 -29.631250 -13.474318
Cl 2.694421 -29.631250 -16.168000
Cl 0.000738 -29.631250 -8.086952
Cl 2.694421 -29.631250 -10.780635
Cl 0.000738 -29.631250 -2.699586
Cl 2.694421 -29.631250 -5.393269
Cl 0.000738 -29.631250 2.687780
Cl 2.694421 -29.631250 -0.005903
Cl 0.000738 -29.631250 8.075145
Cl 2.694421 -29.631250 5.381463
Cl 0.000738 -29.631250 13.462511
Cl 2.694421 -29.631250 10.768828
Cl 0.000738 -29.631250 18.849877
Cl 2.694421 -29.631250 16.156194
Cl 0.000738 -18.856518 -29.636415
Cl 0.000738 -18.856518 29.624608
Cl 0.000738 -13.469152 -29.636415
Cl 2.694421 -16.162835 -29.636415
Cl 0.000738 -13.469152 29.624608
Cl 2.694421 -16.162835 29.624608
Cl 0.000738 -8.081787 -29.636415
Cl 2.694421 -10.775469 -29.636415
Cl 0.000738 -8.081787 29.624608
Cl 2.694421 -10.775469 29.624608
Cl 0.000738 -2.694421 -29.636415
Cl 2.694421 -5.388104 -29.636415
Cl 0.000738 -2.694421 29.624608
Cl 2.694421 -5.388104 29.624608
Cl 0.000738 2.692945 -29.636415
Cl 2.694421 -0.000738 -29.636415
Cl 0.000738 2.692945 29.624608
Cl 2.694421 -0.000738 29.624608
Cl 0.000738 8.080311 -29.636415
Cl 2.694421 5.386628 -29.636415
Cl 0.000738 8.080311 29.624608
Cl 2.694421 5.386628 29.624608
Cl 0.000738 13.467676 -29.636415
Cl 2.694421 10.773994 -29.636415
Cl 0.000738 13.467676 29.624608
Cl 2.694421 10.773994 29.624608
Cl 0.000738 18.855042 -29.636415
Cl 2.694421 16.161359 -29.636415
Cl 0.000738 18.855042 29.624608
Cl 2.694421 16.161359 29.624608
Cl 0.000738 29.629774 -18.861683
Cl 0.000738 29.629774 -13.474318
Cl 2.694421 29.629774 -16.168000
Cl 0.000738 29.629774 -8.086952
Cl 2.694421 29.629774 -10.780635
Cl 0.000738 29.629774 -2.699586
Cl 2.694421 29.629774 -5.393269
Cl 0.000738 29.629774 2.687780
Cl 2.694421 29.629774 -0.005903
Cl 0.000738 29.629774 8.075145
Cl 2.694421 29.629774 5.381463
Cl 0.000738 29.629774 13.462511
Cl 2.694421 29.629774 10.768828
Cl 0.000738 29.629774 18.849877
Cl 2.694421 29.629774 16.156194
Cl 5.388104 -29.631250 -13.474318
Cl 5.388104 -29.631250 -8.086952
Cl 8.081787 -29.631250 -10.780635
Cl 5.388104 -29.631250 -2.699586
Cl 8.081787 -29.631250 -5.393269
Cl 5.388104 -29.631250 2.687780
Cl 8.081787 -29.631250 -0.005903
Cl 5.388104 -29.631250 8.075145
Cl 8.081787 -29.631250 5.381463
Cl 5.388104 -29.631250 13.462511
Cl 8.081787 -29.631250 10.768828
Cl 5.388104 -13.469152 -29.636415
Cl 5.388104 -13.469152 29.624608
Cl 5.388104 -8.081787 -29.636415
Cl 8.081787 -10.775469 -29.636415
Cl 5.388104 -8.081787 29.624608
Cl 8.081787 -10.775469 29.624608
Cl 5.388104 -2.694421 -29.636415
Cl 8.081787 -5.388104 -29.636415
Cl 5.388104 -2.694421 29.624608
Cl 8.081787 -5.388104 29.624608
Cl 5.388104 2.692945 -29.636415
Cl 8.081787 -0.000738 -29.636415
Cl 5.388104 2.692945 29.624608
Cl 8.081787 -0.000738 29.624608
Cl 5.388104 8.080311 -29.636415
Cl 8.081787 5.386628 -29.636415
Cl 5.388104 8.080311 29.624608
Cl 8.081787 5.386628 29.624608
Cl 5.388104 13.467676 -29.636415
Cl 8.081787 10.773994 -29.636415
Cl 5.388104 13.467676 29.624608
Cl 8.081787 10.773994 29.624608
Cl 5.388104 29.629774 -13.474318
Cl 5.388104 29.629774 -8.086952
Cl 8.081787 29.629774 -10.780635
Cl 5.388104 29.629774 -2.699586
Cl 8.081787 29.629774 -5.393269
Cl 5.388104 29.629774 2.687780
Cl 8.081787 29.629774 -0.005903
Cl 5.388104 29.629774 8.075145
Cl 8.081787 29.629774 5.381463
Cl 5.388104 29.629774 13.462511
Cl 8.081787 29.629774 10.768828
Cl 10.775469 -29.631250 -8.086952
Cl 10.775469 -29.631250 -2.699586
Cl 13.469152 -29.631250 -5.393269
Cl 10.775469 -29.631250 2.687780
Cl 13.469152 -29.631250 -0.005903
Cl 10.775469 -29.631250 8.075145
Cl 13.469152 -29.631250 5.381463
Cl 10.775469 -8.081787 -29.636415
Cl 10.775469 -8.081787 29.624608
Cl 10.775469 -2.694421 -29.636415
Cl 13.469152 -5.388104 -29.636415
Cl 10.775469 -2.694421 29.624608
Cl 13.469152 -5.388104 29.624608
Cl 10.775469 2.692945 -29.636415
Cl 13.469152 -0.000738 -29.636415
Cl 10.775469 2.692945 29.624608
Cl 13.469152 -0.000738 29.624608
Cl 10.775469 8.080311 -29.636415
Cl 13.469152 5.386628 -29.636415
Cl 10.775469 8.080311 29.624608
Cl 13.469152 5.386628 29.624608
Cl 10.775469 29.629774 -8.086952
Cl 10.775469 29.629774 -2.699586
Cl 13.469152 29.629774 -5.393269
Cl 10.775469 29.629774 2.687780
Cl 13.469152 29.629774 -0.005903
Cl 10.775469 29.629774 8.075145
Cl 13.469152 29.629774 5.381463
Cl 16.162835 -29.631250 -2.699586
Cl 16.162835 -29.631250 2.687780
Cl 18.856518 -29.631250 -0.005903
Cl 16.162835 -2.694421 -29.636415
Cl 16.162835 -2.694421 29.624608
Cl 16.162835 2.692945 -29.636415
Cl 18.856518 -0.000738 -29.636415
Cl 16.162835 2.692945 29.624608
Cl 18.856518 -0.000738 29.624608
Cl 16.162835 29.629774 -2.699586
Cl 16.162835 29.629774 2.687780
Cl 18.856518 29.629774 -0.005903
Cl 29.631250 -18.856518 -0.005903
Cl 29.631250 -13.469152 -5.393269
Cl 29.631250 -16.162835 -2.699586
Cl 29.631250 -13.469152 -0.005903
Cl 29.631250 -16.162835 2.687780
Cl 29.631250 -13.469152 5.381463
Cl 29.631250 -8.081787 -10.780635
Cl 29.631250 -10.775469 -8.086952
Cl 29.631250 -8.081787 -5.393269
Cl 29.631250 -10.775469 -2.699586
Cl 29.631250 -8.081787 -0.005903
Cl 29.631250 -10.775469 2.687780
Cl 29.631250 -8.081787 5.381463
Cl 29.631250 -10.775469 8.075145
Cl 29.631250 -8.081787 10.768828
Cl 29.631250 -2.694421 -16.168000
Cl 29.631250 -5.388104 -13.474318
Cl 29.631250 -2.694421 -10.780635
Cl 29.631250 -5.388104 -8.086952
Cl 29.631250 -2.694421 -5.393269
Cl 29.631250 -5.388104 -2.699586
Cl 29.631250 -2.694421 -0.005903
Cl 29.631250 -5.388104 2.687780
Cl 29.631250 -2.694421 5.381463
Cl 29.631250 -5.388104 8.075145
Cl 29.631250 -2.694421 10.768828
Cl 29.631250 -5.388104 13.462511
Cl 29.631250 -2.694421 16.156194
Cl 29.631250 -0.000738 -18.861683
Cl 29.631250 2.692945 -16.168000
Cl 29.631250 -0.000738 -13.474318
Cl 29.631250 2.692945 -10.780635
Cl 29.631250 -0.000738 -8.086952
Cl 29.631250 2.692945 -5.393269
Cl 29.631250 -0.000738 -2.699586
Cl 29.631250 2.692945 -0.005903
Cl 29.631250 -0.000738 2.687780
Cl 29.631250 2.692945 5.381463
Cl 29.631250 -0.000738 8.075145
Cl 29.631250 2.692945 10.768828
Cl 29.631250 -0.000738 13.462511
Cl 29.631250 2.692945 16.156194
Cl 29.631250 -0.000738 18.849877
Cl 29.631250 5.386628 -13.474318
Cl 29.631250 8.080311 -10.780635
Cl 29.631250 5.386628 -8.086952
Cl 29.631250 8.080311 -5.393269
Cl 29.631250 5.386628 -2.699586
Cl 29.631250 8.080311 -0.005903
Cl 29.631250 5.386628 2.687780
Cl 29.631250 8.080311 5.381463
Cl 29.631250 5.386628 8.075145
Cl 29.631250 8.080311 10.768828
Cl 29.631250 5.386628 13.462511
Cl 29.631250 10.773994 -8.086952
Cl 29.631250 13.467676 -5.393269
Cl 29.631250 10.773994 -2.699586
Cl 29.631250 13.467676 -0.005903
Cl 29.631250 10.773994 2.687780
Cl 29.631250 13.467676 5.381463
Cl 29.631250 10.773994 8.075145
Cl 29.631250 16.161359 -2.699586
Cl 29.631250 18.855042 -0.005903
Cl 29.631250 16.161359 2.687780
Cl -18.855042 -18.856518 13.462511
Cl -18.855042 13.467676 -18.861683
Cl 13.469152 -18.856518 -18.861683
Cl 13.469152 18.855042 18.849877
Cl -21.548725 -2.694421 26.930926
Cl -21.548725 26.936091 -2.699586
Cl 26.937567 -21.550201 -2.699586
Cl 26.937567 2.692945 21.543560
Cl -2.692945 -21.550201 26.930926
Cl -2.692945 26.936091 -21.555366
