316
GaAs-Ga-Ga119As80Cl117-clean
Ga -8.657118 -8.648019 -5.763830
Ga -8.657118 -5.772928 -8.638921
Ga -8.657118 -2.897837 -5.763830
Ga -8.657118 -5.772928 -2.888739
Ga -8.657118 -2.897837 -0.013648
Ga -8.657118 -0.022746 -2.888739
Ga -8.657118 2.852345 -0.013648
Ga -8.657118 -0.022746 2.861443
Ga -8.657118 2.852345 5.736535
Ga -8.657118 5.727436 2.861443
Ga -8.657118 8.602527 5.736535
Ga -8.657118 5.727436 8.611626
Ga -5.782026 -8.648019 -8.638921
Ga -2.906935 -8.648019 -5.763830
Ga -5.782026 -8.648019 -2.888739
Ga -2.906935 -8.648019 -0.013648
Ga -2.906935 -5.772928 -8.638921
Ga -5.782026 -2.897837 -8.638921
Ga -5.782026 -5.772928 -5.763830
Ga -2.906935 -2.897837 -5.763830
Ga -2.906935 -5.772928 -2.888739
Ga -5.782026 -2.897837 -2.888739
Ga -5.782026 -5.772928 -0.013648
Ga -2.906935 -2.897837 -0.013648
Ga -2.906935 -5.772928 2.861443
Ga -5.782026 -2.897837 2.861443
Ga -2.906935 -2.897837 5.736535
Ga -2.906935 -0.022746 -8.638921
Ga -5.782026 -0.022746 -5.763830
Ga -2.906935 2.852345 -5.763830
Ga -2.906935 -0.022746 -2.888739
Ga -5.782026 2.852345 -2.888739
Ga -5.782026 -0.022746 -0.013648
Ga -2.906935 2.852345 -0.013648
Ga -2.906935 -0.022746 2.861443
Ga -5.782026 2.852345 2.861443
Ga -5.782026 -0.022746 5.736535
Ga -2.906935 2.852345 5.736535
Ga -2.906935 -0.022746 8.611626
Ga -5.782026 2.852345 8.611626
Ga -2.906935 5.727436 -2.888739
Ga -5.782026 5.727436 -0.013648
Ga -2.906935 8.602527 -0.013648
Ga -2.906935 5.727436 2.861443
Ga -5.782026 8.602527 2.861443
Ga -5.782026 5.727436 5.736535
Ga -2.906935 8.602527 5.736535
Ga -2.906935 5.727436 8.611626
Ga -5.782026 8.602527 8.611626
Ga -0.031844 -8.648019 -2.888739
Ga 2.843247 -8.648019 -0.013648
Ga -0.031844 -8.648019 2.861443
Ga 2.843247 -8.648019 5.736535
Ga -0.031844 -2.897837 -8.638921
Ga -0.031844 -5.772928 -5.763830
Ga 2.843247 -2.897837 -5.763830
Ga 2.843247 -5.772928 -2.888739
Ga -0.031844 -2.897837 -2.888739
Ga -0.031844 -5.772928 -0.013648
Ga 2.843247 -2.897837 -0.013648
Ga 2.843247 -5.772928 2.861443
Ga -0.031844 -2.897837 2.861443
Ga -0.031844 -5.772928 5.736535
Ga 2.843247 -2.897837 5.736535
Ga 2.843247 -5.772928 8.611626
Ga -0.031844 -2.897837 8.611626
Ga 2.843247 -0.022746 -8.638921
Ga -0.031844 2.852345 -8.638921
Ga -0.031844 -0.022746 -5.763830
Ga 2.843247 2.852345 -5.763830
Ga 2.843247 -0.022746 -2.888739
Ga -0.031844 2.852345 -2.888739
Ga -0.031844 -0.022746 -0.013648
Ga 2.843247 2.852345 -0.013648
Ga 2.843247 -0.022746 2.861443
Ga -0.031844 2.852345 2.861443
Ga -0.031844 -0.022746 5.736535
Ga 2.843247 2.852345 5.736535
Ga 2.843247 -0.022746 8.611626
Ga -0.031844 2.852345 8.611626
Ga 2.843247 5.727436 -8.638921
Ga -0.031844 5.727436 -5.763830
Ga 2.843247 8.602527 -5.763830
Ga 2.843247 5.727436 -2.888739
Ga -0.031844 8.602527 -2.888739
Ga -0.031844 5.727436 -0.013648
Ga 2.843247 8.602527 -0.013648
Ga 2.843247 5.727436 2.861443
Ga -0.031844 8.602527 2.861443
Ga -0.031844 5.727436 5.736535
Ga 5.718338 -8.648019 2.861443
Ga 8.593429 -8.648019 5.736535
Ga 5.718338 -8.648019 8.611626
Ga 5.718338 -2.897837 -2.888739
Ga 5.718338 -5.772928 -0.013648
Ga 8.593429 -2.897837 -0.013648
Ga 8.593429 -5.772928 2.861443
Ga 5.718338 -2.897837 2.861443
Ga 5.718338 -5.772928 5.736535
Ga 8.593429 -2.897837 5.736535
Ga 8.593429 -5.772928 8.611626
Ga 5.718338 -2.897837 8.611626
Ga 5.718338 2.852345 -8.638921
Ga 5.718338 -0.022746 -5.763830
Ga 8.593429 2.852345 -5.763830
Ga 8.593429 -0.022746 -2.888739
Ga 5.718338 2.852345 -2.888739
Ga 5.718338 -0.022746 -0.013648
Ga 8.593429 2.852345 -0.013648
Ga 8.593429 -0.022746 2.861443
Ga 5.718338 2.852345 2.861443
Ga 5.718338 -0.022746 5.736535
Ga 8.593429 5.727436 -8.638921
Ga 5.718338 8.602527 -8.638921
Ga 5.718338 5.727436 -5.763830
Ga 8.593429 8.602527 -5.763830
Ga 8.593429 5.727436 -2.888739
Ga 5.718338 8.602527 -2.888739
Ga 5.718338 5.727436 -0.013648
As -7.219572 -7.210474 -4.326284
As -7.219572 -4.335383 -7.201375
As -7.219572 -1.460291 -4.326284
As -7.219572 -4.335383 -1.451193
As -7.219572 -1.460291 1.423898
As -7.219572 1.414800 -1.451193
As -7.219572 4.289891 1.423898
As -7.219572 1.414800 4.298989
As -7.219572 4.289891 7.174080
As -7.219572 7.164982 4.298989
As -4.344481 -7.210474 -7.201375
As -4.344481 -7.210474 -1.451193
As -1.469390 -7.210474 -4.326284
As -1.469390 -7.210474 1.423898
As -4.344481 -1.460291 -7.201375
As -1.469390 -4.335383 -7.201375
As -4.344481 -4.335383 -4.326284
As -4.344481 -1.460291 -1.451193
As -1.469390 -1.460291 -4.326284
As -1.469390 -4.335383 -1.451193
As -4.344481 -4.335383 1.423898
As -4.344481 -1.460291 4.298989
As -1.469390 -1.460291 1.423898
As -1.469390 -4.335383 4.298989
As -1.469390 -1.460291 7.174080
As -1.469390 1.414800 -7.201375
As -4.344481 1.414800 -4.326284
As -4.344481 4.289891 -1.451193
As -1.469390 4.289891 -4.326284
As -1.469390 1.414800 -1.451193
As -4.344481 1.414800 1.423898
As -4.344481 4.289891 4.298989
As -1.469390 4.289891 1.423898
As -1.469390 1.414800 4.298989
As -4.344481 1.414800 7.174080
As -1.469390 4.289891 7.174080
As -1.469390 7.164982 -1.451193
As -4.344481 7.164982 1.423898
As -1.469390 7.164982 4.298989
As -4.344481 7.164982 7.174080
As 1.405701 -7.210474 -1.451193
As 1.405701 -7.210474 4.298989
As 4.280792 -7.210474 1.423898
As 4.280792 -7.210474 7.174080
As 1.405701 -1.460291 -7.201375
As 1.405701 -4.335383 -4.326284
As 1.405701 -1.460291 -1.451193
As 4.280792 -1.460291 -4.326284
As 4.280792 -4.335383 -1.451193
As 1.405701 -4.335383 1.423898
As 1.405701 -1.460291 4.298989
As 4.280792 -1.460291 1.423898
As 4.280792 -4.335383 4.298989
As 1.405701 -4.335383 7.174080
As 4.280792 -1.460291 7.174080
As 1.405701 4.289891 -7.201375
As 4.280792 1.414800 -7.201375
As 1.405701 1.414800 -4.326284
As 1.405701 4.289891 -1.451193
As 4.280792 4.289891 -4.326284
As 4.280792 1.414800 -1.451193
As 1.405701 1.414800 1.423898
As 1.405701 4.289891 4.298989
As 4.280792 4.289891 1.423898
As 4.280792 1.414800 4.298989
As 1.405701 1.414800 7.174080
As 4.280792 7.164982 -7.201375
As 1.405701 7.164982 -4.326284
As 4.280792 7.164982 -1.451193
As 1.405701 7.164982 1.423898
As 7.155883 -7.210474 4.298989
As 7.155883 -1.460291 -1.451193
As 7.155883 -4.335383 1.423898
As 7.155883 -1.460291 4.298989
As 7.155883 -4.335383 7.174080
As 7.155883 4.289891 -7.201375
As 7.155883 1.414800 -4.326284
As 7.155883 4.289891 -1.451193
As 7.155883 1.414800 1.423898
As 7.155883 7.164982 -4.326284
Cl -10.094663 -7.210474 -7.201375
Cl -7.219572 -7.210474 -10.076466
Cl -7.219572 -10.085565 -7.201375
Cl -10.094663 -4.335383 -4.326284
Cl -10.094663 -1.460291 -1.451193
Cl -10.094663 1.414800 1.423898
Cl -10.094663 4.289891 4.298989
Cl -10.094663 7.164982 7.174080
Cl -7.219572 10.040073 7.174080
Cl -7.219572 7.164982 10.049171
Cl -4.344481 -10.085565 -4.326284
Cl -1.469390 -10.085565 -1.451193
Cl -4.344481 -4.335383 -10.076466
Cl -1.469390 -1.460291 -10.076466
Cl -4.344481 4.289891 10.049171
Cl -1.469390 1.414800 10.049171
Cl -4.344481 10.040073 4.298989
Cl -1.469390 10.040073 1.423898
Cl 1.405701 -10.085565 1.423898
Cl 4.280792 -10.085565 4.298989
Cl 1.405701 -1.460291 10.049171
Cl 4.280792 -4.335383 10.049171
Cl 1.405701 1.414800 -10.076466
Cl 4.280792 4.289891 -10.076466
Cl 1.405701 10.040073 -1.451193
Cl 4.280792 10.040073 -4.326284
Cl 7.155883 -10.085565 7.174080
Cl 7.155883 -7.210474 10.049171
Cl 10.030974 -7.210474 7.174080
Cl 10.030974 -1.460291 1.423898
Cl 10.030974 -4.335383 4.298989
Cl 10.030974 4.289891 -4.326284
Cl 10.030974 1.414800 -1.451193
Cl 7.155883 7.164982 -10.076466
Cl 7.155883 10.040073 -7.201375
Cl 10.030974 7.164982 -7.201375
Cl -7.219572 -7.210474 1.423898
Cl -7.219572 1.414800 -7.201375
Cl 1.405701 -7.210474 -7.201375
Cl 4.280792 4.289891 7.174080
Cl -10.094663 10.040073 4.298989
Cl -10.094663 4.289891 10.049171
Cl 10.030974 -10.085565 4.298989
Cl 10.030974 10.040073 -4.326284
Cl 4.280792 -10.085565 10.049171
Cl 10.030974 4.289891 -10.076466
Cl 4.280792 10.040073 -10.076466
Cl -4.344481 10.040073 10.049171
Cl 10.030974 -4.335383 10.049171
Cl -4.344481 -1.460291 10.049171
Cl -4.344481 10.040073 -1.451193
Cl 10.030974 -4.335383 -1.451193
Cl 4.280792 10.040073 1.423898
Cl -10.094663 -10.085565 -4.326284
Cl -10.094663 -4.335383 -10.076466
Cl -4.344481 -10.085565 -10.076466
Cl 10.030974 4.289891 1.423898
Cl -1.469390 -10.085565 4.298989
Cl 4.280792 -1.460291 -10.076466
Cl -1.469390 4.289891 -10.076466
Cl -10.094663 4.289891 -1.451193
Cl -10.094663 -1.460291 4.298989
Cl 4.280792 -10.085565 -1.451193
Cl 4.280792 1.414800 10.049171
Cl -1.469390 10.040073 7.174080
Cl 1.405701 -7.210474 10.049171
Cl 1.405701 10.040073 -7.201375
Cl 10.030974 1.414800 -7.201375
Cl 10.030974 -1.460291 7.174080
Cl -4.344481 -4.335383 7.174080
Cl -4.344481 7.164982 -4.326284
Cl 7.155883 -4.335383 -4.326284
Cl -10.094663 -1.460291 -7.201375
Cl -10.094663 -7.210474 -1.451193
Cl -1.469390 -10.085565 -7.201375
Cl 7.155883 10.040073 -1.451193
Cl -1.469390 7.164982 10.049171
Cl -10.094663 1.414800 7.174080
Cl -10.094663 7.164982 1.423898
Cl 7.155883 -10.085565 1.423898
Cl 10.030974 1.414800 4.298989
Cl -4.344481 -10.085565 1.423898
Cl -4.344481 1.414800 -10.076466
Cl 1.405701 -4.335383 -10.076466
Cl 1.405701 10.040073 4.298989
Cl 1.405701 -10.085565 7.174080
Cl 1.405701 7.164982 -10.076466
Cl 7.155883 1.414800 -10.076466
Cl 10.030974 7.164982 -1.451193
Cl -7.219572 1.414800 10.049171
Cl -7.219572 10.040073 1.423898
Cl 10.030974 -7.210474 1.423898
Cl 7.155883 -1.460291 10.049171
Cl -10.094663 -4.335383 1.423898
Cl -10.094663 1.414800 -4.326284
Cl 1.405701 -10.085565 -4.326284
Cl 1.405701 4.289891 10.049171
Cl -1.469390 -4.335383 10.049171
Cl -1.469390 10.040073 -4.326284
Cl 10.030974 -1.460291 -4.326284
Cl 4.280792 7.164982 4.298989
Cl -7.219572 -10.085565 -1.451193
Cl -1.469390 -7.210474 -10.076466
Cl -7.219572 -1.460291 -10.076466
Cl -4.344481 -7.210474 4.298989
Cl -4.344481 4.289891 -7.201375
Cl 4.280792 -4.335383 -7.201375
Cl 7.155883 4.289891 4.298989
Cl -7.219572 -1.460291 7.174080
Cl -7.219572 7.164982 -1.451193
Cl 7.155883 -7.210474 -1.451193
Cl 1.405701 7.164982 7.174080
Cl -1.469390 -7.210474 7.174080
Cl -1.469390 7.164982 -7.201375
Cl 7.155883 -1.460291 -7.201375
Cl 7.155883 1.414800 7.174080
Cl 7.155883 7.164982 1.423898
