98
InSb-Sb-In40Sb31Cl27-clean
In -4.873387 -4.974916 -1.624462
In -4.873387 -1.658305 -4.941073
In -8.189998 -1.658305 -1.624462
In -4.873387 1.658305 -1.624462
In -4.873387 -1.658305 1.692148
In -8.189998 1.658305 1.692148
In -4.873387 1.658305 5.008759
In -4.873387 4.974916 1.692148
In -1.556776 -4.974916 -4.941073
In -1.556776 -8.291527 -1.624462
In 1.759834 -4.974916 -1.624462
In 1.759834 -8.291527 1.692148
In -1.556776 -4.974916 1.692148
In 1.759834 -4.974916 5.008759
In -1.556776 -1.658305 -8.257684
In 1.759834 1.658305 -8.257684
In 1.759834 -1.658305 -4.941073
In -1.556776 1.658305 -4.941073
In -1.556776 -1.658305 -1.624462
In 1.759834 1.658305 -1.624462
In 1.759834 -1.658305 1.692148
In -1.556776 1.658305 1.692148
In -1.556776 -1.658305 5.008759
In 1.759834 1.658305 5.008759
In 1.759834 -1.658305 8.325370
In -1.556776 1.658305 8.325370
In 1.759834 4.974916 -4.941073
In -1.556776 4.974916 -1.624462
In 1.759834 8.291527 -1.624462
In 1.759834 4.974916 1.692148
In -1.556776 8.291527 1.692148
In -1.556776 4.974916 5.008759
In 5.076445 -4.974916 1.692148
In 5.076445 1.658305 -4.941073
In 5.076445 -1.658305 -1.624462
In 8.393056 1.658305 -1.624462
In 8.393056 -1.658305 1.692148
In 5.076445 1.658305 1.692148
In 5.076445 -1.658305 5.008759
In 5.076445 4.974916 -1.624462
Sb -6.531693 -3.316611 -3.282768
Sb -3.215082 -3.316611 -6.599378
Sb -3.215082 -6.633221 -3.282768
Sb -3.215082 -3.316611 0.033843
Sb -3.215082 -0.000000 -3.282768
Sb -6.531693 -0.000000 0.033843
Sb -6.531693 3.316611 3.350454
Sb -3.215082 3.316611 0.033843
Sb -3.215082 -0.000000 3.350454
Sb -3.215082 3.316611 6.667064
Sb -3.215082 6.633221 3.350454
Sb 0.101529 -3.316611 -3.282768
Sb 0.101529 -6.633221 0.033843
Sb 0.101529 -3.316611 3.350454
Sb 3.418140 -3.316611 0.033843
Sb 3.418140 -6.633221 3.350454
Sb 3.418140 -3.316611 6.667064
Sb 0.101529 -0.000000 -6.599378
Sb 0.101529 3.316611 -3.282768
Sb 3.418140 3.316611 -6.599378
Sb 3.418140 -0.000000 -3.282768
Sb 0.101529 -0.000000 0.033843
Sb 0.101529 3.316611 3.350454
Sb 3.418140 3.316611 0.033843
Sb 3.418140 -0.000000 3.350454
Sb 0.101529 -0.000000 6.667064
Sb 3.418140 6.633221 -3.282768
Sb 0.101529 6.633221 0.033843
Sb 6.734750 -3.316611 3.350454
Sb 6.734750 3.316611 -3.282768
Sb 6.734750 -0.000000 0.033843
Cl -9.848303 -3.316611 0.033843
Cl 10.051361 3.316611 0.033843
Cl 3.418140 -9.949832 0.033843
Cl -3.215082 9.949832 0.033843
Cl -3.215082 0.000000 -9.915989
Cl 0.101529 -3.316611 9.983675
Cl 3.418140 -0.000000 -9.915989
Cl 0.101529 3.316611 9.983675
Cl -9.848303 3.316611 0.033843
Cl -3.215082 -9.949832 0.033843
Cl 3.418140 9.949832 0.033843
Cl 10.051361 -3.316611 0.033843
Cl -6.531693 -0.000000 6.667064
Cl 0.101529 -6.633221 -6.599378
Cl 0.101529 6.633221 -6.599378
Cl 6.734750 0.000000 6.667064
Cl -9.848303 0.000000 -3.282768
Cl 0.101529 -9.949832 3.350454
Cl 0.101529 9.949832 3.350454
Cl 10.051361 -0.000000 -3.282768
Cl -9.848303 -0.000000 3.350454
Cl 0.101529 -9.949832 -3.282768
Cl 0.101529 3.316611 -9.915989
Cl 3.418140 0.000000 9.983675
Cl 0.101529 -3.316611 -9.915989
Cl -3.215082 -0.000000 9.983675
Cl 0.101529 9.949832 -3.282768
