137
HgS-Hg-Hg55S28Cl54-reconstructed
Hg -2.861281 -2.926310 -5.982678
Hg -2.861281 -5.895972 -3.013015
Hg -5.830943 -2.926310 -3.013015
Hg -5.830943 -5.895972 -0.043353
Hg -2.861281 -2.926310 -0.043353
Hg -2.861281 -5.895972 2.926310
Hg -5.830943 -2.926310 2.926310
Hg -2.861281 -2.926310 5.895972
Hg -5.830943 0.043353 -5.982678
Hg -2.861281 3.013015 -5.982678
Hg -2.861281 0.043353 -3.013015
Hg -5.830943 3.013015 -3.013015
Hg -5.830943 0.043353 -0.043353
Hg -2.861281 3.013015 -0.043353
Hg -2.861281 0.043353 2.926310
Hg -5.830943 3.013015 2.926310
Hg -5.830943 0.043353 5.895972
Hg -2.861281 3.013015 5.895972
Hg -2.861281 5.982678 -3.013015
Hg -5.830943 5.982678 -0.043353
Hg -2.861281 5.982678 2.926310
Hg 0.108382 -5.895972 -5.982678
Hg 3.078044 -2.926310 -5.982678
Hg 3.078044 -5.895972 -3.013015
Hg 0.108382 -2.926310 -3.013015
Hg 0.108382 -5.895972 -0.043353
Hg 3.078044 -2.926310 -0.043353
Hg 3.078044 -5.895972 2.926310
Hg 0.108382 -2.926310 2.926310
Hg 0.108382 -5.895972 5.895972
Hg 3.078044 -2.926310 5.895972
Hg 0.108382 0.043353 -5.982678
Hg 3.078044 3.013015 -5.982678
Hg 3.078044 0.043353 -3.013015
Hg 0.108382 3.013015 -3.013015
Hg 0.108382 0.043353 -0.043353
Hg 3.078044 3.013015 -0.043353
Hg 3.078044 0.043353 2.926310
Hg 0.108382 3.013015 2.926310
Hg 0.108382 0.043353 5.895972
Hg 3.078044 3.013015 5.895972
Hg 0.108382 5.982678 -5.982678
Hg 3.078044 5.982678 -3.013015
Hg 0.108382 5.982678 -0.043353
Hg 3.078044 5.982678 2.926310
Hg 0.108382 5.982678 5.895972
Hg 6.047707 -2.926310 -3.013015
Hg 6.047707 -5.895972 -0.043353
Hg 6.047707 -2.926310 2.926310
Hg 6.047707 0.043353 -5.982678
Hg 6.047707 3.013015 -3.013015
Hg 6.047707 0.043353 -0.043353
Hg 6.047707 3.013015 2.926310
Hg 6.047707 0.043353 5.895972
Hg 6.047707 5.982678 -0.043353
S -4.346112 -1.441479 -1.528184
S -1.376449 -1.441479 -4.497847
S -1.376449 -4.411141 -1.528184
S -4.346112 -4.411141 1.441479
S -4.346112 -1.441479 4.411141
S -1.376449 -1.441479 1.441479
S -1.376449 -4.411141 4.411141
S -4.346112 1.528184 -4.497847
S -4.346112 4.497847 -1.528184
S -1.376449 4.497847 -4.497847
S -1.376449 1.528184 -1.528184
S -4.346112 1.528184 1.441479
S -1.376449 4.497847 1.441479
S -1.376449 1.528184 4.411141
S 1.593213 -4.411141 -4.497847
S 1.593213 -1.441479 -1.528184
S 4.562876 -1.441479 -4.497847
S 4.562876 -4.411141 -1.528184
S 1.593213 -4.411141 1.441479
S 1.593213 -1.441479 4.411141
S 4.562876 -1.441479 1.441479
S 1.593213 1.528184 -4.497847
S 1.593213 4.497847 -1.528184
S 4.562876 1.528184 -1.528184
S 1.593213 1.528184 1.441479
S 1.593213 4.497847 4.411141
S 4.562876 4.497847 1.441479
S 4.562876 1.528184 4.411141
Cl -7.315774 -1.441479 -4.497847
Cl -7.315774 -4.411141 -1.528184
Cl -7.315774 -1.441479 1.441479
Cl -7.315774 1.528184 -1.528184
Cl -7.315774 4.497847 1.441479
Cl -7.315774 1.528184 4.411141
Cl -4.346112 -7.380804 -1.528184
Cl -1.376449 -7.380804 -4.497847
Cl -1.376449 -7.380804 1.441479
Cl -4.346112 -1.441479 -7.467509
Cl -1.376449 -4.411141 -7.467509
Cl -4.346112 -4.411141 -4.497847
Cl -1.376449 -1.441479 7.380804
Cl -1.376449 1.528184 -7.467509
Cl -4.346112 4.497847 4.411141
Cl -4.346112 1.528184 7.380804
Cl -1.376449 4.497847 7.380804
Cl -1.376449 7.467509 -1.528184
Cl -4.346112 7.467509 1.441479
Cl -1.376449 7.467509 4.411141
Cl 1.593213 -7.380804 -1.528184
Cl 1.593213 -7.380804 4.411141
Cl 4.562876 -7.380804 1.441479
Cl 1.593213 -1.441479 -7.467509
Cl 4.562876 -4.411141 4.411141
Cl 1.593213 -4.411141 7.380804
Cl 4.562876 -1.441479 7.380804
Cl 1.593213 4.497847 -7.467509
Cl 4.562876 1.528184 -7.467509
Cl 4.562876 4.497847 -4.497847
Cl 1.593213 1.528184 7.380804
Cl 1.593213 7.467509 -4.497847
Cl 4.562876 7.467509 -1.528184
Cl 1.593213 7.467509 1.441479
Cl 7.532538 -1.441479 -1.528184
Cl 7.532538 -4.411141 1.441479
Cl 7.532538 -1.441479 4.411141
Cl 7.532538 1.528184 -4.497847
Cl 7.532538 4.497847 -1.528184
Cl 7.532538 1.528184 1.441479
Cl -4.346112 -4.411141 4.411141
Cl -4.346112 4.497847 -4.497847
Cl 4.562876 -4.411141 -4.497847
Cl 4.562876 4.497847 4.411141
Cl -7.315774 -7.380804 1.441479
Cl -7.315774 1.528184 -7.467509
Cl 1.593213 -7.380804 -7.467509
Cl 1.593213 7.467509 7.380804
Cl -7.315774 -1.441479 7.380804
Cl -7.315774 7.467509 -1.528184
Cl 7.532538 -7.380804 -1.528184
Cl 7.532538 1.528184 7.380804
Cl -1.376449 -7.380804 7.380804
Cl -1.376449 7.467509 -7.467509
