4143
CdS-S-Cd1960S1737Cl446-reconstructed
Cd -22.080675 -22.082806 -1.476449
Cd -22.080675 -19.139853 -4.419403
Cd -25.023629 -16.196899 -4.419403
Cd -25.023629 -19.139853 -1.476449
Cd -22.080675 -16.196899 -1.476449
Cd -25.023629 -16.196899 1.466504
Cd -22.080675 -16.196899 4.409458
Cd -22.080675 -10.310992 -13.248263
Cd -22.080675 -13.253946 -10.305310
Cd -25.023629 -10.310992 -10.305310
Cd -25.023629 -13.253946 -7.362356
Cd -22.080675 -10.310992 -7.362356
Cd -22.080675 -13.253946 -4.419403
Cd -25.023629 -10.310992 -4.419403
Cd -25.023629 -13.253946 -1.476449
Cd -22.080675 -10.310992 -1.476449
Cd -22.080675 -13.253946 1.466504
Cd -25.023629 -10.310992 1.466504
Cd -25.023629 -13.253946 4.409458
Cd -22.080675 -10.310992 4.409458
Cd -22.080675 -13.253946 7.352411
Cd -25.023629 -10.310992 7.352411
Cd -22.080675 -4.425085 -19.134170
Cd -25.023629 -4.425085 -16.191216
Cd -25.023629 -7.368039 -13.248263
Cd -22.080675 -4.425085 -13.248263
Cd -22.080675 -7.368039 -10.305310
Cd -25.023629 -4.425085 -10.305310
Cd -25.023629 -7.368039 -7.362356
Cd -22.080675 -4.425085 -7.362356
Cd -22.080675 -7.368039 -4.419403
Cd -25.023629 -4.425085 -4.419403
Cd -25.023629 -7.368039 -1.476449
Cd -22.080675 -4.425085 -1.476449
Cd -22.080675 -7.368039 1.466504
Cd -25.023629 -4.425085 1.466504
Cd -25.023629 -7.368039 4.409458
Cd -22.080675 -4.425085 4.409458
Cd -22.080675 -7.368039 7.352411
Cd -25.023629 -4.425085 7.352411
Cd -25.023629 -7.368039 10.295365
Cd -22.080675 -4.425085 10.295365
Cd -22.080675 -7.368039 13.238318
Cd -25.023629 -4.425085 13.238318
Cd -22.080675 -4.425085 16.181272
Cd -22.080675 -1.482132 -22.077123
Cd -25.023629 -1.482132 -19.134170
Cd -22.080675 -1.482132 -16.191216
Cd -25.023629 1.460822 -16.191216
Cd -25.023629 -1.482132 -13.248263
Cd -22.080675 1.460822 -13.248263
Cd -22.080675 -1.482132 -10.305310
Cd -25.023629 1.460822 -10.305310
Cd -25.023629 -1.482132 -7.362356
Cd -22.080675 1.460822 -7.362356
Cd -22.080675 -1.482132 -4.419403
Cd -25.023629 1.460822 -4.419403
Cd -25.023629 -1.482132 -1.476449
Cd -22.080675 1.460822 -1.476449
Cd -22.080675 -1.482132 1.466504
Cd -25.023629 1.460822 1.466504
Cd -25.023629 -1.482132 4.409458
Cd -22.080675 1.460822 4.409458
Cd -22.080675 -1.482132 7.352411
Cd -25.023629 1.460822 7.352411
Cd -25.023629 -1.482132 10.295365
Cd -22.080675 1.460822 10.295365
Cd -22.080675 -1.482132 13.238318
Cd -25.023629 1.460822 13.238318
Cd -25.023629 -1.482132 16.181272
Cd -22.080675 1.460822 16.181272
Cd -25.023629 1.460822 19.124225
Cd -22.080675 1.460822 22.067179
Cd -22.080675 4.403775 -16.191216
Cd -25.023629 4.403775 -13.248263
Cd -22.080675 7.346729 -13.248263
Cd -22.080675 4.403775 -10.305310
Cd -25.023629 7.346729 -10.305310
Cd -25.023629 4.403775 -7.362356
Cd -22.080675 7.346729 -7.362356
Cd -22.080675 4.403775 -4.419403
Cd -25.023629 7.346729 -4.419403
Cd -25.023629 4.403775 -1.476449
Cd -22.080675 7.346729 -1.476449
Cd -22.080675 4.403775 1.466504
Cd -25.023629 7.346729 1.466504
Cd -25.023629 4.403775 4.409458
Cd -22.080675 7.346729 4.409458
Cd -22.080675 4.403775 7.352411
Cd -25.023629 7.346729 7.352411
Cd -25.023629 4.403775 10.295365
Cd -22.080675 7.346729 10.295365
Cd -22.080675 4.403775 13.238318
Cd -25.023629 7.346729 13.238318
Cd -25.023629 4.403775 16.181272
Cd -22.080675 4.403775 19.124225
Cd -25.023629 10.289682 -7.362356
Cd -22.080675 13.232635 -7.362356
Cd -22.080675 10.289682 -4.419403
Cd -25.023629 13.232635 -4.419403
Cd -25.023629 10.289682 -1.476449
Cd -22.080675 13.232635 -1.476449
Cd -22.080675 10.289682 1.466504
Cd -25.023629 13.232635 1.466504
Cd -25.023629 10.289682 4.409458
Cd -22.080675 13.232635 4.409458
Cd -22.080675 10.289682 7.352411
Cd -25.023629 13.232635 7.352411
Cd -25.023629 10.289682 10.295365
Cd -22.080675 13.232635 10.295365
Cd -22.080675 10.289682 13.238318
Cd -22.080675 16.175589 -4.419403
Cd -25.023629 16.175589 -1.476449
Cd -22.080675 16.175589 1.466504
Cd -25.023629 19.118542 1.466504
Cd -25.023629 16.175589 4.409458
Cd -22.080675 19.118542 4.409458
Cd -22.080675 22.061496 1.466504
Cd -16.194768 -22.082806 -7.362356
Cd -16.194768 -25.025760 -4.419403
Cd -19.137722 -25.025760 -1.476449
Cd -16.194768 -22.082806 -1.476449
Cd -16.194768 -25.025760 1.466504
Cd -19.137722 -22.082806 1.466504
Cd -16.194768 -16.196899 -13.248263
Cd -19.137722 -16.196899 -10.305310
Cd -19.137722 -19.139853 -7.362356
Cd -16.194768 -16.196899 -7.362356
Cd -16.194768 -19.139853 -4.419403
Cd -19.137722 -16.196899 -4.419403
Cd -19.137722 -19.139853 -1.476449
Cd -16.194768 -16.196899 -1.476449
Cd -16.194768 -19.139853 1.466504
Cd -19.137722 -16.196899 1.466504
Cd -19.137722 -19.139853 4.409458
Cd -16.194768 -16.196899 4.409458
Cd -16.194768 -19.139853 7.352411
Cd -16.194768 -16.196899 10.295365
Cd -16.194768 -13.253946 -16.191216
Cd -19.137722 -10.310992 -16.191216
Cd -16.194768 -10.310992 -13.248263
Cd -16.194768 -13.253946 -10.305310
Cd -19.137722 -10.310992 -10.305310
Cd -19.137722 -13.253946 -7.362356
Cd -16.194768 -10.310992 -7.362356
Cd -16.194768 -13.253946 -4.419403
Cd -19.137722 -10.310992 -4.419403
Cd -19.137722 -13.253946 -1.476449
Cd -16.194768 -10.310992 -1.476449
Cd -16.194768 -13.253946 1.466504
Cd -19.137722 -10.310992 1.466504
Cd -19.137722 -13.253946 4.409458
Cd -16.194768 -10.310992 4.409458
Cd -16.194768 -13.253946 7.352411
Cd -19.137722 -10.310992 7.352411
Cd -19.137722 -13.253946 10.295365
Cd -16.194768 -10.310992 10.295365
Cd -16.194768 -13.253946 13.238318
Cd -19.137722 -10.310992 13.238318
Cd -16.194768 -10.310992 16.181272
Cd -16.194768 -4.425085 -25.020077
Cd -16.194768 -7.368039 -22.077123
Cd -19.137722 -7.368039 -19.134170
Cd -16.194768 -4.425085 -19.134170
Cd -16.194768 -7.368039 -16.191216
Cd -19.137722 -4.425085 -16.191216
Cd -19.137722 -7.368039 -13.248263
Cd -16.194768 -4.425085 -13.248263
Cd -16.194768 -7.368039 -10.305310
Cd -19.137722 -4.425085 -10.305310
Cd -19.137722 -7.368039 -7.362356
Cd -16.194768 -4.425085 -7.362356
Cd -16.194768 -7.368039 -4.419403
Cd -19.137722 -4.425085 -4.419403
Cd -19.137722 -7.368039 -1.476449
Cd -16.194768 -4.425085 -1.476449
Cd -16.194768 -7.368039 1.466504
Cd -19.137722 -4.425085 1.466504
Cd -19.137722 -7.368039 4.409458
Cd -16.194768 -4.425085 4.409458
Cd -16.194768 -7.368039 7.352411
Cd -19.137722 -4.425085 7.352411
Cd -19.137722 -7.368039 10.295365
Cd -16.194768 -4.425085 10.295365
Cd -16.194768 -7.368039 13.238318
Cd -19.137722 -4.425085 13.238318
Cd -16.194768 -4.425085 16.181272
Cd -16.194768 -7.368039 19.124225
Cd -19.137722 -4.425085 19.124225
Cd -19.137722 -1.482132 -25.020077
Cd -16.194768 1.460822 -25.020077
Cd -16.194768 -1.482132 -22.077123
Cd -19.137722 1.460822 -22.077123
Cd -19.137722 -1.482132 -19.134170
Cd -16.194768 1.460822 -19.134170
Cd -16.194768 -1.482132 -16.191216
Cd -19.137722 1.460822 -16.191216
Cd -19.137722 -1.482132 -13.248263
Cd -16.194768 1.460822 -13.248263
Cd -16.194768 -1.482132 -10.305310
Cd -19.137722 1.460822 -10.305310
Cd -19.137722 -1.482132 -7.362356
Cd -16.194768 1.460822 -7.362356
Cd -16.194768 -1.482132 -4.419403
Cd -19.137722 1.460822 -4.419403
Cd -19.137722 -1.482132 -1.476449
Cd -16.194768 1.460822 -1.476449
Cd -16.194768 -1.482132 1.466504
Cd -19.137722 1.460822 1.466504
Cd -19.137722 -1.482132 4.409458
Cd -16.194768 1.460822 4.409458
Cd -16.194768 -1.482132 7.352411
Cd -19.137722 1.460822 7.352411
Cd -19.137722 -1.482132 10.295365
Cd -16.194768 1.460822 10.295365
Cd -16.194768 -1.482132 13.238318
Cd -19.137722 1.460822 13.238318
Cd -19.137722 -1.482132 16.181272
Cd -16.194768 1.460822 16.181272
Cd -16.194768 -1.482132 19.124225
Cd -19.137722 1.460822 19.124225
Cd -19.137722 -1.482132 22.067179
Cd -16.194768 1.460822 22.067179
Cd -16.194768 -1.482132 25.010132
Cd -19.137722 1.460822 25.010132
Cd -19.137722 4.403775 -19.134170
Cd -16.194768 7.346729 -19.134170
Cd -16.194768 4.403775 -16.191216
Cd -19.137722 4.403775 -13.248263
Cd -16.194768 7.346729 -13.248263
Cd -16.194768 4.403775 -10.305310
Cd -19.137722 7.346729 -10.305310
Cd -19.137722 4.403775 -7.362356
Cd -16.194768 7.346729 -7.362356
Cd -16.194768 4.403775 -4.419403
Cd -19.137722 7.346729 -4.419403
Cd -19.137722 4.403775 -1.476449
Cd -16.194768 7.346729 -1.476449
Cd -16.194768 4.403775 1.466504
Cd -19.137722 7.346729 1.466504
Cd -19.137722 4.403775 4.409458
Cd -16.194768 7.346729 4.409458
Cd -16.194768 4.403775 7.352411
Cd -19.137722 7.346729 7.352411
Cd -19.137722 4.403775 10.295365
Cd -16.194768 7.346729 10.295365
Cd -16.194768 4.403775 13.238318
Cd -19.137722 7.346729 13.238318
Cd -19.137722 4.403775 16.181272
Cd -16.194768 7.346729 16.181272
Cd -16.194768 4.403775 19.124225
Cd -19.137722 7.346729 19.124225
Cd -16.194768 7.346729 22.067179
Cd -16.194768 4.403775 25.010132
Cd -16.194768 10.289682 -16.191216
Cd -19.137722 10.289682 -13.248263
Cd -16.194768 13.232635 -13.248263
Cd -16.194768 10.289682 -10.305310
Cd -19.137722 13.232635 -10.305310
Cd -19.137722 10.289682 -7.362356
Cd -16.194768 13.232635 -7.362356
Cd -16.194768 10.289682 -4.419403
Cd -19.137722 13.232635 -4.419403
Cd -19.137722 10.289682 -1.476449
Cd -16.194768 13.232635 -1.476449
Cd -16.194768 10.289682 1.466504
Cd -19.137722 13.232635 1.466504
Cd -19.137722 10.289682 4.409458
Cd -16.194768 13.232635 4.409458
Cd -16.194768 10.289682 7.352411
Cd -19.137722 13.232635 7.352411
Cd -19.137722 10.289682 10.295365
Cd -16.194768 13.232635 10.295365
Cd -16.194768 10.289682 13.238318
Cd -19.137722 10.289682 16.181272
Cd -16.194768 13.232635 16.181272
Cd -16.194768 16.175589 -10.305310
Cd -16.194768 19.118542 -7.362356
Cd -16.194768 16.175589 -4.419403
Cd -19.137722 19.118542 -4.419403
Cd -19.137722 16.175589 -1.476449
Cd -16.194768 19.118542 -1.476449
Cd -16.194768 16.175589 1.466504
Cd -19.137722 19.118542 1.466504
Cd -19.137722 16.175589 4.409458
Cd -16.194768 19.118542 4.409458
Cd -16.194768 16.175589 7.352411
Cd -19.137722 19.118542 7.352411
Cd -19.137722 16.175589 10.295365
Cd -16.194768 16.175589 13.238318
Cd -19.137722 22.061496 -1.476449
Cd -16.194768 25.004449 -1.476449
Cd -16.194768 22.061496 1.466504
Cd -19.137722 25.004449 1.466504
Cd -16.194768 25.004449 4.409458
Cd -16.194768 22.061496 7.352411
Cd -10.308861 -25.025760 -10.305310
Cd -13.251815 -22.082806 -10.305310
Cd -13.251815 -25.025760 -7.362356
Cd -10.308861 -22.082806 -7.362356
Cd -10.308861 -25.025760 -4.419403
Cd -13.251815 -22.082806 -4.419403
Cd -13.251815 -25.025760 -1.476449
Cd -10.308861 -22.082806 -1.476449
Cd -10.308861 -25.025760 1.466504
Cd -13.251815 -22.082806 1.466504
Cd -13.251815 -25.025760 4.409458
Cd -10.308861 -22.082806 4.409458
Cd -10.308861 -25.025760 7.352411
Cd -13.251815 -22.082806 7.352411
Cd -10.308861 -22.082806 10.295365
Cd -10.308861 -16.196899 -19.134170
Cd -10.308861 -19.139853 -16.191216
Cd -13.251815 -19.139853 -13.248263
Cd -10.308861 -16.196899 -13.248263
Cd -10.308861 -19.139853 -10.305310
Cd -13.251815 -16.196899 -10.305310
Cd -13.251815 -19.139853 -7.362356
Cd -10.308861 -16.196899 -7.362356
Cd -10.308861 -19.139853 -4.419403
Cd -13.251815 -16.196899 -4.419403
Cd -13.251815 -19.139853 -1.476449
Cd -10.308861 -16.196899 -1.476449
Cd -10.308861 -19.139853 1.466504
Cd -13.251815 -16.196899 1.466504
Cd -13.251815 -19.139853 4.409458
Cd -10.308861 -16.196899 4.409458
Cd -10.308861 -19.139853 7.352411
Cd -13.251815 -16.196899 7.352411
Cd -10.308861 -16.196899 10.295365
Cd -10.308861 -19.139853 13.238318
Cd -13.251815 -16.196899 13.238318
Cd -10.308861 -16.196899 16.181272
Cd -10.308861 -10.310992 -25.020077
Cd -13.251815 -10.310992 -22.077123
Cd -13.251815 -13.253946 -19.134170
Cd -10.308861 -10.310992 -19.134170
Cd -10.308861 -13.253946 -16.191216
Cd -13.251815 -10.310992 -16.191216
Cd -13.251815 -13.253946 -13.248263
Cd -10.308861 -10.310992 -13.248263
Cd -10.308861 -13.253946 -10.305310
Cd -13.251815 -10.310992 -10.305310
Cd -13.251815 -13.253946 -7.362356
Cd -10.308861 -10.310992 -7.362356
Cd -10.308861 -13.253946 -4.419403
Cd -13.251815 -10.310992 -4.419403
Cd -13.251815 -13.253946 -1.476449
Cd -10.308861 -10.310992 -1.476449
Cd -10.308861 -13.253946 1.466504
Cd -13.251815 -10.310992 1.466504
Cd -13.251815 -13.253946 4.409458
Cd -10.308861 -10.310992 4.409458
Cd -10.308861 -13.253946 7.352411
Cd -13.251815 -10.310992 7.352411
Cd -13.251815 -13.253946 10.295365
Cd -10.308861 -10.310992 10.295365
Cd -10.308861 -13.253946 13.238318
Cd -13.251815 -10.310992 13.238318
Cd -13.251815 -13.253946 16.181272
Cd -10.308861 -10.310992 16.181272
Cd -10.308861 -13.253946 19.124225
Cd -13.251815 -10.310992 19.124225
Cd -10.308861 -10.310992 22.067179
Cd -13.251815 -7.368039 -25.020077
Cd -10.308861 -4.425085 -25.020077
Cd -10.308861 -7.368039 -22.077123
Cd -13.251815 -4.425085 -22.077123
Cd -13.251815 -7.368039 -19.134170
Cd -10.308861 -4.425085 -19.134170
Cd -10.308861 -7.368039 -16.191216
Cd -13.251815 -4.425085 -16.191216
Cd -13.251815 -7.368039 -13.248263
Cd -10.308861 -4.425085 -13.248263
Cd -10.308861 -7.368039 -10.305310
Cd -13.251815 -4.425085 -10.305310
Cd -13.251815 -7.368039 -7.362356
Cd -10.308861 -4.425085 -7.362356
Cd -10.308861 -7.368039 -4.419403
Cd -13.251815 -4.425085 -4.419403
Cd -13.251815 -7.368039 -1.476449
Cd -10.308861 -4.425085 -1.476449
Cd -10.308861 -7.368039 1.466504
Cd -13.251815 -4.425085 1.466504
Cd -13.251815 -7.368039 4.409458
Cd -10.308861 -4.425085 4.409458
Cd -10.308861 -7.368039 7.352411
Cd -13.251815 -4.425085 7.352411
Cd -13.251815 -7.368039 10.295365
Cd -10.308861 -4.425085 10.295365
Cd -10.308861 -7.368039 13.238318
Cd -13.251815 -4.425085 13.238318
Cd -13.251815 -7.368039 16.181272
Cd -10.308861 -4.425085 16.181272
Cd -10.308861 -7.368039 19.124225
Cd -13.251815 -4.425085 19.124225
Cd -13.251815 -7.368039 22.067179
Cd -10.308861 -4.425085 22.067179
Cd -10.308861 -7.368039 25.010132
Cd -13.251815 -4.425085 25.010132
Cd -13.251815 -1.482132 -25.020077
Cd -10.308861 1.460822 -25.020077
Cd -10.308861 -1.482132 -22.077123
Cd -13.251815 1.460822 -22.077123
Cd -13.251815 -1.482132 -19.134170
Cd -10.308861 1.460822 -19.134170
Cd -10.308861 -1.482132 -16.191216
Cd -13.251815 1.460822 -16.191216
Cd -13.251815 -1.482132 -13.248263
Cd -10.308861 1.460822 -13.248263
Cd -10.308861 -1.482132 -10.305310
Cd -13.251815 1.460822 -10.305310
Cd -13.251815 -1.482132 -7.362356
Cd -10.308861 1.460822 -7.362356
Cd -10.308861 -1.482132 -4.419403
Cd -13.251815 1.460822 -4.419403
Cd -13.251815 -1.482132 -1.476449
Cd -10.308861 1.460822 -1.476449
Cd -10.308861 -1.482132 1.466504
Cd -13.251815 1.460822 1.466504
Cd -13.251815 -1.482132 4.409458
Cd -10.308861 1.460822 4.409458
Cd -10.308861 -1.482132 7.352411
Cd -13.251815 1.460822 7.352411
Cd -13.251815 -1.482132 10.295365
Cd -10.308861 1.460822 10.295365
Cd -10.308861 -1.482132 13.238318
Cd -13.251815 1.460822 13.238318
Cd -13.251815 -1.482132 16.181272
Cd -10.308861 1.460822 16.181272
Cd -10.308861 -1.482132 19.124225
Cd -13.251815 1.460822 19.124225
Cd -13.251815 -1.482132 22.067179
Cd -10.308861 1.460822 22.067179
Cd -10.308861 -1.482132 25.010132
Cd -13.251815 1.460822 25.010132
Cd -13.251815 4.403775 -25.020077
Cd -10.308861 7.346729 -25.020077
Cd -10.308861 4.403775 -22.077123
Cd -13.251815 7.346729 -22.077123
Cd -13.251815 4.403775 -19.134170
Cd -10.308861 7.346729 -19.134170
Cd -10.308861 4.403775 -16.191216
Cd -13.251815 7.346729 -16.191216
Cd -13.251815 4.403775 -13.248263
Cd -10.308861 7.346729 -13.248263
Cd -10.308861 4.403775 -10.305310
Cd -13.251815 7.346729 -10.305310
Cd -13.251815 4.403775 -7.362356
Cd -10.308861 7.346729 -7.362356
Cd -10.308861 4.403775 -4.419403
Cd -13.251815 7.346729 -4.419403
Cd -13.251815 4.403775 -1.476449
Cd -10.308861 7.346729 -1.476449
Cd -10.308861 4.403775 1.466504
Cd -13.251815 7.346729 1.466504
Cd -13.251815 4.403775 4.409458
Cd -10.308861 7.346729 4.409458
Cd -10.308861 4.403775 7.352411
Cd -13.251815 7.346729 7.352411
Cd -13.251815 4.403775 10.295365
Cd -10.308861 7.346729 10.295365
Cd -10.308861 4.403775 13.238318
Cd -13.251815 7.346729 13.238318
Cd -13.251815 4.403775 16.181272
Cd -10.308861 7.346729 16.181272
Cd -10.308861 4.403775 19.124225
Cd -13.251815 7.346729 19.124225
Cd -13.251815 4.403775 22.067179
Cd -10.308861 7.346729 22.067179
Cd -10.308861 4.403775 25.010132
Cd -13.251815 7.346729 25.010132
Cd -10.308861 10.289682 -22.077123
Cd -10.308861 13.232635 -19.134170
Cd -10.308861 10.289682 -16.191216
Cd -13.251815 13.232635 -16.191216
Cd -13.251815 10.289682 -13.248263
Cd -10.308861 13.232635 -13.248263
Cd -10.308861 10.289682 -10.305310
Cd -13.251815 13.232635 -10.305310
Cd -13.251815 10.289682 -7.362356
Cd -10.308861 13.232635 -7.362356
Cd -10.308861 10.289682 -4.419403
Cd -13.251815 13.232635 -4.419403
Cd -13.251815 10.289682 -1.476449
Cd -10.308861 13.232635 -1.476449
Cd -10.308861 10.289682 1.466504
Cd -13.251815 13.232635 1.466504
Cd -13.251815 10.289682 4.409458
Cd -10.308861 13.232635 4.409458
Cd -10.308861 10.289682 7.352411
Cd -13.251815 13.232635 7.352411
Cd -13.251815 10.289682 10.295365
Cd -10.308861 13.232635 10.295365
Cd -10.308861 10.289682 13.238318
Cd -13.251815 13.232635 13.238318
Cd -13.251815 10.289682 16.181272
Cd -10.308861 13.232635 16.181272
Cd -10.308861 10.289682 19.124225
Cd -13.251815 13.232635 19.124225
Cd -13.251815 10.289682 22.067179
Cd -10.308861 10.289682 25.010132
Cd -10.308861 16.175589 -16.191216
Cd -13.251815 16.175589 -13.248263
Cd -10.308861 19.118542 -13.248263
Cd -10.308861 16.175589 -10.305310
Cd -13.251815 19.118542 -10.305310
Cd -13.251815 16.175589 -7.362356
Cd -10.308861 19.118542 -7.362356
Cd -10.308861 16.175589 -4.419403
Cd -13.251815 19.118542 -4.419403
Cd -13.251815 16.175589 -1.476449
Cd -10.308861 19.118542 -1.476449
Cd -10.308861 16.175589 1.466504
Cd -13.251815 19.118542 1.466504
Cd -13.251815 16.175589 4.409458
Cd -10.308861 19.118542 4.409458
Cd -10.308861 16.175589 7.352411
Cd -13.251815 19.118542 7.352411
Cd -13.251815 16.175589 10.295365
Cd -10.308861 19.118542 10.295365
Cd -10.308861 16.175589 13.238318
Cd -13.251815 19.118542 13.238318
Cd -10.308861 19.118542 16.181272
Cd -10.308861 16.175589 19.124225
Cd -10.308861 22.061496 -10.305310
Cd -13.251815 22.061496 -7.362356
Cd -10.308861 25.004449 -7.362356
Cd -10.308861 22.061496 -4.419403
Cd -13.251815 25.004449 -4.419403
Cd -13.251815 22.061496 -1.476449
Cd -10.308861 25.004449 -1.476449
Cd -10.308861 22.061496 1.466504
Cd -13.251815 25.004449 1.466504
Cd -13.251815 22.061496 4.409458
Cd -10.308861 25.004449 4.409458
Cd -10.308861 22.061496 7.352411
Cd -13.251815 25.004449 7.352411
Cd -13.251815 22.061496 10.295365
Cd -10.308861 25.004449 10.295365
Cd -4.422954 -22.082806 -19.134170
Cd -4.422954 -25.025760 -16.191216
Cd -7.365908 -22.082806 -16.191216
Cd -7.365908 -25.025760 -13.248263
Cd -4.422954 -22.082806 -13.248263
Cd -4.422954 -25.025760 -10.305310
Cd -7.365908 -22.082806 -10.305310
Cd -7.365908 -25.025760 -7.362356
Cd -4.422954 -22.082806 -7.362356
Cd -4.422954 -25.025760 -4.419403
Cd -7.365908 -22.082806 -4.419403
Cd -7.365908 -25.025760 -1.476449
Cd -4.422954 -22.082806 -1.476449
Cd -4.422954 -25.025760 1.466504
Cd -7.365908 -22.082806 1.466504
Cd -7.365908 -25.025760 4.409458
Cd -4.422954 -22.082806 4.409458
Cd -4.422954 -25.025760 7.352411
Cd -7.365908 -22.082806 7.352411
Cd -7.365908 -25.025760 10.295365
Cd -4.422954 -22.082806 10.295365
Cd -4.422954 -25.025760 13.238318
Cd -4.422954 -22.082806 16.181272
Cd -4.422954 -16.196899 -25.020077
Cd -4.422954 -19.139853 -22.077123
Cd -7.365908 -16.196899 -22.077123
Cd -4.422954 -16.196899 -19.134170
Cd -4.422954 -19.139853 -16.191216
Cd -7.365908 -16.196899 -16.191216
Cd -7.365908 -19.139853 -13.248263
Cd -4.422954 -16.196899 -13.248263
Cd -4.422954 -19.139853 -10.305310
Cd -7.365908 -16.196899 -10.305310
Cd -7.365908 -19.139853 -7.362356
Cd -4.422954 -16.196899 -7.362356
Cd -4.422954 -19.139853 -4.419403
Cd -7.365908 -16.196899 -4.419403
Cd -7.365908 -19.139853 -1.476449
Cd -4.422954 -16.196899 -1.476449
Cd -4.422954 -19.139853 1.466504
Cd -7.365908 -16.196899 1.466504
Cd -7.365908 -19.139853 4.409458
Cd -4.422954 -16.196899 4.409458
Cd -4.422954 -19.139853 7.352411
Cd -7.365908 -16.196899 7.352411
Cd -7.365908 -19.139853 10.295365
Cd -4.422954 -16.196899 10.295365
Cd -4.422954 -19.139853 13.238318
Cd -7.365908 -16.196899 13.238318
Cd -7.365908 -19.139853 16.181272
Cd -4.422954 -16.196899 16.181272
Cd -7.365908 -16.196899 19.124225
Cd -4.422954 -16.196899 22.067179
Cd -7.365908 -13.253946 -25.020077
Cd -4.422954 -10.310992 -25.020077
Cd -4.422954 -13.253946 -22.077123
Cd -7.365908 -10.310992 -22.077123
Cd -7.365908 -13.253946 -19.134170
Cd -4.422954 -10.310992 -19.134170
Cd -4.422954 -13.253946 -16.191216
Cd -7.365908 -10.310992 -16.191216
Cd -7.365908 -13.253946 -13.248263
Cd -4.422954 -10.310992 -13.248263
Cd -4.422954 -13.253946 -10.305310
Cd -7.365908 -10.310992 -10.305310
Cd -7.365908 -13.253946 -7.362356
Cd -4.422954 -10.310992 -7.362356
Cd -4.422954 -13.253946 -4.419403
Cd -7.365908 -10.310992 -4.419403
Cd -7.365908 -13.253946 -1.476449
Cd -4.422954 -10.310992 -1.476449
Cd -4.422954 -13.253946 1.466504
Cd -7.365908 -10.310992 1.466504
Cd -7.365908 -13.253946 4.409458
Cd -4.422954 -10.310992 4.409458
Cd -4.422954 -13.253946 7.352411
Cd -7.365908 -10.310992 7.352411
Cd -7.365908 -13.253946 10.295365
Cd -4.422954 -10.310992 10.295365
Cd -4.422954 -13.253946 13.238318
Cd -7.365908 -10.310992 13.238318
Cd -7.365908 -13.253946 16.181272
Cd -4.422954 -10.310992 16.181272
Cd -4.422954 -13.253946 19.124225
Cd -7.365908 -10.310992 19.124225
Cd -4.422954 -10.310992 22.067179
Cd -4.422954 -13.253946 25.010132
Cd -7.365908 -10.310992 25.010132
Cd -7.365908 -7.368039 -25.020077
Cd -4.422954 -4.425085 -25.020077
Cd -4.422954 -7.368039 -22.077123
Cd -7.365908 -4.425085 -22.077123
Cd -7.365908 -7.368039 -19.134170
Cd -4.422954 -4.425085 -19.134170
Cd -4.422954 -7.368039 -16.191216
Cd -7.365908 -4.425085 -16.191216
Cd -7.365908 -7.368039 -13.248263
Cd -4.422954 -4.425085 -13.248263
Cd -4.422954 -7.368039 -10.305310
Cd -7.365908 -4.425085 -10.305310
Cd -7.365908 -7.368039 -7.362356
Cd -4.422954 -4.425085 -7.362356
Cd -4.422954 -7.368039 -4.419403
Cd -7.365908 -4.425085 -4.419403
Cd -7.365908 -7.368039 -1.476449
Cd -4.422954 -4.425085 -1.476449
Cd -4.422954 -7.368039 1.466504
Cd -7.365908 -4.425085 1.466504
Cd -7.365908 -7.368039 4.409458
Cd -4.422954 -4.425085 4.409458
Cd -4.422954 -7.368039 7.352411
Cd -7.365908 -4.425085 7.352411
Cd -7.365908 -7.368039 10.295365
Cd -4.422954 -4.425085 10.295365
Cd -4.422954 -7.368039 13.238318
Cd -7.365908 -4.425085 13.238318
Cd -7.365908 -7.368039 16.181272
Cd -4.422954 -4.425085 16.181272
Cd -4.422954 -7.368039 19.124225
Cd -7.365908 -4.425085 19.124225
Cd -7.365908 -7.368039 22.067179
Cd -4.422954 -4.425085 22.067179
Cd -4.422954 -7.368039 25.010132
Cd -7.365908 -4.425085 25.010132
Cd -7.365908 -1.482132 -25.020077
Cd -4.422954 1.460822 -25.020077
Cd -4.422954 -1.482132 -22.077123
Cd -7.365908 1.460822 -22.077123
Cd -7.365908 -1.482132 -19.134170
Cd -4.422954 1.460822 -19.134170
Cd -4.422954 -1.482132 -16.191216
Cd -7.365908 1.460822 -16.191216
Cd -7.365908 -1.482132 -13.248263
Cd -4.422954 1.460822 -13.248263
Cd -4.422954 -1.482132 -10.305310
Cd -7.365908 1.460822 -10.305310
Cd -7.365908 -1.482132 -7.362356
Cd -4.422954 1.460822 -7.362356
Cd -4.422954 -1.482132 -4.419403
Cd -7.365908 1.460822 -4.419403
Cd -7.365908 -1.482132 -1.476449
Cd -4.422954 1.460822 -1.476449
Cd -4.422954 -1.482132 1.466504
Cd -7.365908 1.460822 1.466504
Cd -7.365908 -1.482132 4.409458
Cd -4.422954 1.460822 4.409458
Cd -4.422954 -1.482132 7.352411
Cd -7.365908 1.460822 7.352411
Cd -7.365908 -1.482132 10.295365
Cd -4.422954 1.460822 10.295365
Cd -4.422954 -1.482132 13.238318
Cd -7.365908 1.460822 13.238318
Cd -7.365908 -1.482132 16.181272
Cd -4.422954 1.460822 16.181272
Cd -4.422954 -1.482132 19.124225
Cd -7.365908 1.460822 19.124225
Cd -7.365908 -1.482132 22.067179
Cd -4.422954 1.460822 22.067179
Cd -4.422954 -1.482132 25.010132
Cd -7.365908 1.460822 25.010132
Cd -7.365908 4.403775 -25.020077
Cd -4.422954 7.346729 -25.020077
Cd -4.422954 4.403775 -22.077123
Cd -7.365908 7.346729 -22.077123
Cd -7.365908 4.403775 -19.134170
Cd -4.422954 7.346729 -19.134170
Cd -4.422954 4.403775 -16.191216
Cd -7.365908 7.346729 -16.191216
Cd -7.365908 4.403775 -13.248263
Cd -4.422954 7.346729 -13.248263
Cd -4.422954 4.403775 -10.305310
Cd -7.365908 7.346729 -10.305310
Cd -7.365908 4.403775 -7.362356
Cd -4.422954 7.346729 -7.362356
Cd -4.422954 4.403775 -4.419403
Cd -7.365908 7.346729 -4.419403
Cd -7.365908 4.403775 -1.476449
Cd -4.422954 7.346729 -1.476449
Cd -4.422954 4.403775 1.466504
Cd -7.365908 7.346729 1.466504
Cd -7.365908 4.403775 4.409458
Cd -4.422954 7.346729 4.409458
Cd -4.422954 4.403775 7.352411
Cd -7.365908 7.346729 7.352411
Cd -7.365908 4.403775 10.295365
Cd -4.422954 7.346729 10.295365
Cd -4.422954 4.403775 13.238318
Cd -7.365908 7.346729 13.238318
Cd -7.365908 4.403775 16.181272
Cd -4.422954 7.346729 16.181272
Cd -4.422954 4.403775 19.124225
Cd -7.365908 7.346729 19.124225
Cd -7.365908 4.403775 22.067179
Cd -4.422954 7.346729 22.067179
Cd -4.422954 4.403775 25.010132
Cd -7.365908 7.346729 25.010132
Cd -7.365908 10.289682 -25.020077
Cd -4.422954 13.232635 -25.020077
Cd -4.422954 10.289682 -22.077123
Cd -7.365908 10.289682 -19.134170
Cd -4.422954 13.232635 -19.134170
Cd -4.422954 10.289682 -16.191216
Cd -7.365908 13.232635 -16.191216
Cd -7.365908 10.289682 -13.248263
Cd -4.422954 13.232635 -13.248263
Cd -4.422954 10.289682 -10.305310
Cd -7.365908 13.232635 -10.305310
Cd -7.365908 10.289682 -7.362356
Cd -4.422954 13.232635 -7.362356
Cd -4.422954 10.289682 -4.419403
Cd -7.365908 13.232635 -4.419403
Cd -7.365908 10.289682 -1.476449
Cd -4.422954 13.232635 -1.476449
Cd -4.422954 10.289682 1.466504
Cd -7.365908 13.232635 1.466504
Cd -7.365908 10.289682 4.409458
Cd -4.422954 13.232635 4.409458
Cd -4.422954 10.289682 7.352411
Cd -7.365908 13.232635 7.352411
Cd -7.365908 10.289682 10.295365
Cd -4.422954 13.232635 10.295365
Cd -4.422954 10.289682 13.238318
Cd -7.365908 13.232635 13.238318
Cd -7.365908 10.289682 16.181272
Cd -4.422954 13.232635 16.181272
Cd -4.422954 10.289682 19.124225
Cd -7.365908 13.232635 19.124225
Cd -7.365908 10.289682 22.067179
Cd -4.422954 13.232635 22.067179
Cd -4.422954 10.289682 25.010132
Cd -7.365908 13.232635 25.010132
Cd -4.422954 16.175589 -22.077123
Cd -7.365908 16.175589 -19.134170
Cd -4.422954 16.175589 -16.191216
Cd -7.365908 19.118542 -16.191216
Cd -7.365908 16.175589 -13.248263
Cd -4.422954 19.118542 -13.248263
Cd -4.422954 16.175589 -10.305310
Cd -7.365908 19.118542 -10.305310
Cd -7.365908 16.175589 -7.362356
Cd -4.422954 19.118542 -7.362356
Cd -4.422954 16.175589 -4.419403
Cd -7.365908 19.118542 -4.419403
Cd -7.365908 16.175589 -1.476449
Cd -4.422954 19.118542 -1.476449
Cd -4.422954 16.175589 1.466504
Cd -7.365908 19.118542 1.466504
Cd -7.365908 16.175589 4.409458
Cd -4.422954 19.118542 4.409458
Cd -4.422954 16.175589 7.352411
Cd -7.365908 19.118542 7.352411
Cd -7.365908 16.175589 10.295365
Cd -4.422954 19.118542 10.295365
Cd -4.422954 16.175589 13.238318
Cd -7.365908 19.118542 13.238318
Cd -7.365908 16.175589 16.181272
Cd -4.422954 19.118542 16.181272
Cd -4.422954 16.175589 19.124225
Cd -7.365908 16.175589 22.067179
Cd -4.422954 19.118542 22.067179
Cd -4.422954 16.175589 25.010132
Cd -4.422954 22.061496 -16.191216
Cd -4.422954 25.004449 -13.248263
Cd -4.422954 22.061496 -10.305310
Cd -7.365908 25.004449 -10.305310
Cd -7.365908 22.061496 -7.362356
Cd -4.422954 25.004449 -7.362356
Cd -4.422954 22.061496 -4.419403
Cd -7.365908 25.004449 -4.419403
Cd -7.365908 22.061496 -1.476449
Cd -4.422954 25.004449 -1.476449
Cd -4.422954 22.061496 1.466504
Cd -7.365908 25.004449 1.466504
Cd -7.365908 22.061496 4.409458
Cd -4.422954 25.004449 4.409458
Cd -4.422954 22.061496 7.352411
Cd -7.365908 25.004449 7.352411
Cd -7.365908 22.061496 10.295365
Cd -4.422954 25.004449 10.295365
Cd -4.422954 22.061496 13.238318
Cd -7.365908 25.004449 13.238318
Cd -7.365908 22.061496 16.181272
Cd -4.422954 25.004449 16.181272
Cd -4.422954 22.061496 19.124225
Cd -1.480001 -22.082806 -22.077123
Cd -1.480001 -25.025760 -19.134170
Cd 1.462953 -25.025760 -16.191216
Cd -1.480001 -22.082806 -16.191216
Cd -1.480001 -25.025760 -13.248263
Cd 1.462953 -22.082806 -13.248263
Cd 1.462953 -25.025760 -10.305310
Cd -1.480001 -22.082806 -10.305310
Cd -1.480001 -25.025760 -7.362356
Cd 1.462953 -22.082806 -7.362356
Cd 1.462953 -25.025760 -4.419403
Cd -1.480001 -22.082806 -4.419403
Cd -1.480001 -25.025760 -1.476449
Cd 1.462953 -22.082806 -1.476449
Cd 1.462953 -25.025760 1.466504
Cd -1.480001 -22.082806 1.466504
Cd -1.480001 -25.025760 4.409458
Cd 1.462953 -22.082806 4.409458
Cd 1.462953 -25.025760 7.352411
Cd -1.480001 -22.082806 7.352411
Cd -1.480001 -25.025760 10.295365
Cd 1.462953 -22.082806 10.295365
Cd 1.462953 -25.025760 13.238318
Cd -1.480001 -22.082806 13.238318
Cd -1.480001 -25.025760 16.181272
Cd 1.462953 -22.082806 16.181272
Cd 1.462953 -25.025760 19.124225
Cd -1.480001 -22.082806 19.124225
Cd 1.462953 -22.082806 22.067179
Cd -1.480001 -19.139853 -25.020077
Cd 1.462953 -16.196899 -25.020077
Cd 1.462953 -19.139853 -22.077123
Cd -1.480001 -16.196899 -22.077123
Cd -1.480001 -19.139853 -19.134170
Cd 1.462953 -16.196899 -19.134170
Cd 1.462953 -19.139853 -16.191216
Cd -1.480001 -16.196899 -16.191216
Cd -1.480001 -19.139853 -13.248263
Cd 1.462953 -16.196899 -13.248263
Cd 1.462953 -19.139853 -10.305310
Cd -1.480001 -16.196899 -10.305310
Cd -1.480001 -19.139853 -7.362356
Cd 1.462953 -16.196899 -7.362356
Cd 1.462953 -19.139853 -4.419403
Cd -1.480001 -16.196899 -4.419403
Cd -1.480001 -19.139853 -1.476449
Cd 1.462953 -16.196899 -1.476449
Cd 1.462953 -19.139853 1.466504
Cd -1.480001 -16.196899 1.466504
Cd -1.480001 -19.139853 4.409458
Cd 1.462953 -16.196899 4.409458
Cd 1.462953 -19.139853 7.352411
Cd -1.480001 -16.196899 7.352411
Cd -1.480001 -19.139853 10.295365
Cd 1.462953 -16.196899 10.295365
Cd 1.462953 -19.139853 13.238318
Cd -1.480001 -16.196899 13.238318
Cd -1.480001 -19.139853 16.181272
Cd 1.462953 -16.196899 16.181272
Cd 1.462953 -19.139853 19.124225
Cd -1.480001 -16.196899 19.124225
Cd -1.480001 -19.139853 22.067179
Cd 1.462953 -16.196899 22.067179
Cd 1.462953 -19.139853 25.010132
Cd -1.480001 -16.196899 25.010132
Cd -1.480001 -13.253946 -25.020077
Cd 1.462953 -10.310992 -25.020077
Cd 1.462953 -13.253946 -22.077123
Cd -1.480001 -10.310992 -22.077123
Cd -1.480001 -13.253946 -19.134170
Cd 1.462953 -10.310992 -19.134170
Cd 1.462953 -13.253946 -16.191216
Cd -1.480001 -10.310992 -16.191216
Cd -1.480001 -13.253946 -13.248263
Cd 1.462953 -10.310992 -13.248263
Cd 1.462953 -13.253946 -10.305310
Cd -1.480001 -10.310992 -10.305310
Cd -1.480001 -13.253946 -7.362356
Cd 1.462953 -10.310992 -7.362356
Cd 1.462953 -13.253946 -4.419403
Cd -1.480001 -10.310992 -4.419403
Cd -1.480001 -13.253946 -1.476449
Cd 1.462953 -10.310992 -1.476449
Cd 1.462953 -13.253946 1.466504
Cd -1.480001 -10.310992 1.466504
Cd -1.480001 -13.253946 4.409458
Cd 1.462953 -10.310992 4.409458
Cd 1.462953 -13.253946 7.352411
Cd -1.480001 -10.310992 7.352411
Cd -1.480001 -13.253946 10.295365
Cd 1.462953 -10.310992 10.295365
Cd 1.462953 -13.253946 13.238318
Cd -1.480001 -10.310992 13.238318
Cd -1.480001 -13.253946 16.181272
Cd 1.462953 -10.310992 16.181272
Cd 1.462953 -13.253946 19.124225
Cd -1.480001 -10.310992 19.124225
Cd -1.480001 -13.253946 22.067179
Cd 1.462953 -10.310992 22.067179
Cd 1.462953 -13.253946 25.010132
Cd -1.480001 -10.310992 25.010132
Cd -1.480001 -7.368039 -25.020077
Cd 1.462953 -4.425085 -25.020077
Cd 1.462953 -7.368039 -22.077123
Cd -1.480001 -4.425085 -22.077123
Cd -1.480001 -7.368039 -19.134170
Cd 1.462953 -4.425085 -19.134170
Cd 1.462953 -7.368039 -16.191216
Cd -1.480001 -4.425085 -16.191216
Cd -1.480001 -7.368039 -13.248263
Cd 1.462953 -4.425085 -13.248263
Cd 1.462953 -7.368039 -10.305310
Cd -1.480001 -4.425085 -10.305310
Cd -1.480001 -7.368039 -7.362356
Cd 1.462953 -4.425085 -7.362356
Cd 1.462953 -7.368039 -4.419403
Cd -1.480001 -4.425085 -4.419403
Cd -1.480001 -7.368039 -1.476449
Cd 1.462953 -4.425085 -1.476449
Cd 1.462953 -7.368039 1.466504
Cd -1.480001 -4.425085 1.466504
Cd -1.480001 -7.368039 4.409458
Cd 1.462953 -4.425085 4.409458
Cd 1.462953 -7.368039 7.352411
Cd -1.480001 -4.425085 7.352411
Cd -1.480001 -7.368039 10.295365
Cd 1.462953 -4.425085 10.295365
Cd 1.462953 -7.368039 13.238318
Cd -1.480001 -4.425085 13.238318
Cd -1.480001 -7.368039 16.181272
Cd 1.462953 -4.425085 16.181272
Cd 1.462953 -7.368039 19.124225
Cd -1.480001 -4.425085 19.124225
Cd -1.480001 -7.368039 22.067179
Cd 1.462953 -4.425085 22.067179
Cd 1.462953 -7.368039 25.010132
Cd -1.480001 -4.425085 25.010132
Cd -1.480001 -1.482132 -25.020077
Cd 1.462953 1.460822 -25.020077
Cd 1.462953 -1.482132 -22.077123
Cd -1.480001 1.460822 -22.077123
Cd -1.480001 -1.482132 -19.134170
Cd 1.462953 1.460822 -19.134170
Cd 1.462953 -1.482132 -16.191216
Cd -1.480001 1.460822 -16.191216
Cd -1.480001 -1.482132 -13.248263
Cd 1.462953 1.460822 -13.248263
Cd 1.462953 -1.482132 -10.305310
Cd -1.480001 1.460822 -10.305310
Cd -1.480001 -1.482132 -7.362356
Cd 1.462953 1.460822 -7.362356
Cd 1.462953 -1.482132 -4.419403
Cd -1.480001 1.460822 -4.419403
Cd -1.480001 -1.482132 -1.476449
Cd 1.462953 1.460822 -1.476449
Cd 1.462953 -1.482132 1.466504
Cd -1.480001 1.460822 1.466504
Cd -1.480001 -1.482132 4.409458
Cd 1.462953 1.460822 4.409458
Cd 1.462953 -1.482132 7.352411
Cd -1.480001 1.460822 7.352411
Cd -1.480001 -1.482132 10.295365
Cd 1.462953 1.460822 10.295365
Cd 1.462953 -1.482132 13.238318
Cd -1.480001 1.460822 13.238318
Cd -1.480001 -1.482132 16.181272
Cd 1.462953 1.460822 16.181272
Cd 1.462953 -1.482132 19.124225
Cd -1.480001 1.460822 19.124225
Cd -1.480001 -1.482132 22.067179
Cd 1.462953 1.460822 22.067179
Cd 1.462953 -1.482132 25.010132
Cd -1.480001 1.460822 25.010132
Cd -1.480001 4.403775 -25.020077
Cd 1.462953 7.346729 -25.020077
Cd 1.462953 4.403775 -22.077123
Cd -1.480001 7.346729 -22.077123
Cd -1.480001 4.403775 -19.134170
Cd 1.462953 7.346729 -19.134170
Cd 1.462953 4.403775 -16.191216
Cd -1.480001 7.346729 -16.191216
Cd -1.480001 4.403775 -13.248263
Cd 1.462953 7.346729 -13.248263
Cd 1.462953 4.403775 -10.305310
Cd -1.480001 7.346729 -10.305310
Cd -1.480001 4.403775 -7.362356
Cd 1.462953 7.346729 -7.362356
Cd 1.462953 4.403775 -4.419403
Cd -1.480001 7.346729 -4.419403
Cd -1.480001 4.403775 -1.476449
Cd 1.462953 7.346729 -1.476449
Cd 1.462953 4.403775 1.466504
Cd -1.480001 7.346729 1.466504
Cd -1.480001 4.403775 4.409458
Cd 1.462953 7.346729 4.409458
Cd 1.462953 4.403775 7.352411
Cd -1.480001 7.346729 7.352411
Cd -1.480001 4.403775 10.295365
Cd 1.462953 7.346729 10.295365
Cd 1.462953 4.403775 13.238318
Cd -1.480001 7.346729 13.238318
Cd -1.480001 4.403775 16.181272
Cd 1.462953 7.346729 16.181272
Cd 1.462953 4.403775 19.124225
Cd -1.480001 7.346729 19.124225
Cd -1.480001 4.403775 22.067179
Cd 1.462953 7.346729 22.067179
Cd 1.462953 4.403775 25.010132
Cd -1.480001 7.346729 25.010132
Cd -1.480001 10.289682 -25.020077
Cd 1.462953 13.232635 -25.020077
Cd 1.462953 10.289682 -22.077123
Cd -1.480001 13.232635 -22.077123
Cd -1.480001 10.289682 -19.134170
Cd 1.462953 13.232635 -19.134170
Cd 1.462953 10.289682 -16.191216
Cd -1.480001 13.232635 -16.191216
Cd -1.480001 10.289682 -13.248263
Cd 1.462953 13.232635 -13.248263
Cd 1.462953 10.289682 -10.305310
Cd -1.480001 13.232635 -10.305310
Cd -1.480001 10.289682 -7.362356
Cd 1.462953 13.232635 -7.362356
Cd 1.462953 10.289682 -4.419403
Cd -1.480001 13.232635 -4.419403
Cd -1.480001 10.289682 -1.476449
Cd 1.462953 13.232635 -1.476449
Cd 1.462953 10.289682 1.466504
Cd -1.480001 13.232635 1.466504
Cd -1.480001 10.289682 4.409458
Cd 1.462953 13.232635 4.409458
Cd 1.462953 10.289682 7.352411
Cd -1.480001 13.232635 7.352411
Cd -1.480001 10.289682 10.295365
Cd 1.462953 13.232635 10.295365
Cd 1.462953 10.289682 13.238318
Cd -1.480001 13.232635 13.238318
Cd -1.480001 10.289682 16.181272
Cd 1.462953 13.232635 16.181272
Cd 1.462953 10.289682 19.124225
Cd -1.480001 13.232635 19.124225
Cd -1.480001 10.289682 22.067179
Cd 1.462953 13.232635 22.067179
Cd 1.462953 10.289682 25.010132
Cd -1.480001 13.232635 25.010132
Cd -1.480001 16.175589 -25.020077
Cd 1.462953 19.118542 -25.020077
Cd 1.462953 16.175589 -22.077123
Cd -1.480001 19.118542 -22.077123
Cd -1.480001 16.175589 -19.134170
Cd 1.462953 19.118542 -19.134170
Cd 1.462953 16.175589 -16.191216
Cd -1.480001 19.118542 -16.191216
Cd -1.480001 16.175589 -13.248263
Cd 1.462953 19.118542 -13.248263
Cd 1.462953 16.175589 -10.305310
Cd -1.480001 19.118542 -10.305310
Cd -1.480001 16.175589 -7.362356
Cd 1.462953 19.118542 -7.362356
Cd 1.462953 16.175589 -4.419403
Cd -1.480001 19.118542 -4.419403
Cd -1.480001 16.175589 -1.476449
Cd 1.462953 19.118542 -1.476449
Cd 1.462953 16.175589 1.466504
Cd -1.480001 19.118542 1.466504
Cd -1.480001 16.175589 4.409458
Cd 1.462953 19.118542 4.409458
Cd 1.462953 16.175589 7.352411
Cd -1.480001 19.118542 7.352411
Cd -1.480001 16.175589 10.295365
Cd 1.462953 19.118542 10.295365
Cd 1.462953 16.175589 13.238318
Cd -1.480001 19.118542 13.238318
Cd -1.480001 16.175589 16.181272
Cd 1.462953 19.118542 16.181272
Cd 1.462953 16.175589 19.124225
Cd -1.480001 19.118542 19.124225
Cd -1.480001 16.175589 22.067179
Cd 1.462953 16.175589 25.010132
Cd -1.480001 19.118542 25.010132
Cd 1.462953 22.061496 -22.077123
Cd -1.480001 22.061496 -19.134170
Cd 1.462953 25.004449 -19.134170
Cd 1.462953 22.061496 -16.191216
Cd -1.480001 25.004449 -16.191216
Cd -1.480001 22.061496 -13.248263
Cd 1.462953 25.004449 -13.248263
Cd 1.462953 22.061496 -10.305310
Cd -1.480001 25.004449 -10.305310
Cd -1.480001 22.061496 -7.362356
Cd 1.462953 25.004449 -7.362356
Cd 1.462953 22.061496 -4.419403
Cd -1.480001 25.004449 -4.419403
Cd -1.480001 22.061496 -1.476449
Cd 1.462953 25.004449 -1.476449
Cd 1.462953 22.061496 1.466504
Cd -1.480001 25.004449 1.466504
Cd -1.480001 22.061496 4.409458
Cd 1.462953 25.004449 4.409458
Cd 1.462953 22.061496 7.352411
Cd -1.480001 25.004449 7.352411
Cd -1.480001 22.061496 10.295365
Cd 1.462953 25.004449 10.295365
Cd 1.462953 22.061496 13.238318
Cd -1.480001 25.004449 13.238318
Cd -1.480001 22.061496 16.181272
Cd 1.462953 25.004449 16.181272
Cd 1.462953 22.061496 19.124225
Cd -1.480001 25.004449 19.124225
Cd -1.480001 22.061496 22.067179
Cd 4.405906 -22.082806 -16.191216
Cd 4.405906 -25.025760 -13.248263
Cd 7.348860 -22.082806 -13.248263
Cd 7.348860 -25.025760 -10.305310
Cd 4.405906 -22.082806 -10.305310
Cd 4.405906 -25.025760 -7.362356
Cd 7.348860 -22.082806 -7.362356
Cd 7.348860 -25.025760 -4.419403
Cd 4.405906 -22.082806 -4.419403
Cd 4.405906 -25.025760 -1.476449
Cd 7.348860 -22.082806 -1.476449
Cd 7.348860 -25.025760 1.466504
Cd 4.405906 -22.082806 1.466504
Cd 4.405906 -25.025760 4.409458
Cd 7.348860 -22.082806 4.409458
Cd 7.348860 -25.025760 7.352411
Cd 4.405906 -22.082806 7.352411
Cd 4.405906 -25.025760 10.295365
Cd 7.348860 -22.082806 10.295365
Cd 7.348860 -25.025760 13.238318
Cd 4.405906 -22.082806 13.238318
Cd 4.405906 -25.025760 16.181272
Cd 4.405906 -22.082806 19.124225
Cd 4.405906 -19.139853 -19.134170
Cd 7.348860 -16.196899 -19.134170
Cd 4.405906 -16.196899 -16.191216
Cd 4.405906 -19.139853 -13.248263
Cd 7.348860 -16.196899 -13.248263
Cd 7.348860 -19.139853 -10.305310
Cd 4.405906 -16.196899 -10.305310
Cd 4.405906 -19.139853 -7.362356
Cd 7.348860 -16.196899 -7.362356
Cd 7.348860 -19.139853 -4.419403
Cd 4.405906 -16.196899 -4.419403
Cd 4.405906 -19.139853 -1.476449
Cd 7.348860 -16.196899 -1.476449
Cd 7.348860 -19.139853 1.466504
Cd 4.405906 -16.196899 1.466504
Cd 4.405906 -19.139853 4.409458
Cd 7.348860 -16.196899 4.409458
Cd 7.348860 -19.139853 7.352411
Cd 4.405906 -16.196899 7.352411
Cd 4.405906 -19.139853 10.295365
Cd 7.348860 -16.196899 10.295365
Cd 7.348860 -19.139853 13.238318
Cd 4.405906 -16.196899 13.238318
Cd 4.405906 -19.139853 16.181272
Cd 7.348860 -16.196899 16.181272
Cd 7.348860 -19.139853 19.124225
Cd 4.405906 -16.196899 19.124225
Cd 7.348860 -16.196899 22.067179
Cd 4.405906 -16.196899 25.010132
Cd 4.405906 -13.253946 -25.020077
Cd 7.348860 -10.310992 -25.020077
Cd 7.348860 -13.253946 -22.077123
Cd 4.405906 -10.310992 -22.077123
Cd 4.405906 -13.253946 -19.134170
Cd 7.348860 -10.310992 -19.134170
Cd 7.348860 -13.253946 -16.191216
Cd 4.405906 -10.310992 -16.191216
Cd 4.405906 -13.253946 -13.248263
Cd 7.348860 -10.310992 -13.248263
Cd 7.348860 -13.253946 -10.305310
Cd 4.405906 -10.310992 -10.305310
Cd 4.405906 -13.253946 -7.362356
Cd 7.348860 -10.310992 -7.362356
Cd 7.348860 -13.253946 -4.419403
Cd 4.405906 -10.310992 -4.419403
Cd 4.405906 -13.253946 -1.476449
Cd 7.348860 -10.310992 -1.476449
Cd 7.348860 -13.253946 1.466504
Cd 4.405906 -10.310992 1.466504
Cd 4.405906 -13.253946 4.409458
Cd 7.348860 -10.310992 4.409458
Cd 7.348860 -13.253946 7.352411
Cd 4.405906 -10.310992 7.352411
Cd 4.405906 -13.253946 10.295365
Cd 7.348860 -10.310992 10.295365
Cd 7.348860 -13.253946 13.238318
Cd 4.405906 -10.310992 13.238318
Cd 4.405906 -13.253946 16.181272
Cd 7.348860 -10.310992 16.181272
Cd 7.348860 -13.253946 19.124225
Cd 4.405906 -10.310992 19.124225
Cd 4.405906 -13.253946 22.067179
Cd 7.348860 -10.310992 22.067179
Cd 7.348860 -13.253946 25.010132
Cd 4.405906 -10.310992 25.010132
Cd 4.405906 -7.368039 -25.020077
Cd 7.348860 -4.425085 -25.020077
Cd 7.348860 -7.368039 -22.077123
Cd 4.405906 -4.425085 -22.077123
Cd 4.405906 -7.368039 -19.134170
Cd 7.348860 -4.425085 -19.134170
Cd 7.348860 -7.368039 -16.191216
Cd 4.405906 -4.425085 -16.191216
Cd 4.405906 -7.368039 -13.248263
Cd 7.348860 -4.425085 -13.248263
Cd 7.348860 -7.368039 -10.305310
Cd 4.405906 -4.425085 -10.305310
Cd 4.405906 -7.368039 -7.362356
Cd 7.348860 -4.425085 -7.362356
Cd 7.348860 -7.368039 -4.419403
Cd 4.405906 -4.425085 -4.419403
Cd 4.405906 -7.368039 -1.476449
Cd 7.348860 -4.425085 -1.476449
Cd 7.348860 -7.368039 1.466504
Cd 4.405906 -4.425085 1.466504
Cd 4.405906 -7.368039 4.409458
Cd 7.348860 -4.425085 4.409458
Cd 7.348860 -7.368039 7.352411
Cd 4.405906 -4.425085 7.352411
Cd 4.405906 -7.368039 10.295365
Cd 7.348860 -4.425085 10.295365
Cd 7.348860 -7.368039 13.238318
Cd 4.405906 -4.425085 13.238318
Cd 4.405906 -7.368039 16.181272
Cd 7.348860 -4.425085 16.181272
Cd 7.348860 -7.368039 19.124225
Cd 4.405906 -4.425085 19.124225
Cd 4.405906 -7.368039 22.067179
Cd 7.348860 -4.425085 22.067179
Cd 7.348860 -7.368039 25.010132
Cd 4.405906 -4.425085 25.010132
Cd 4.405906 -1.482132 -25.020077
Cd 7.348860 1.460822 -25.020077
Cd 7.348860 -1.482132 -22.077123
Cd 4.405906 1.460822 -22.077123
Cd 4.405906 -1.482132 -19.134170
Cd 7.348860 1.460822 -19.134170
Cd 7.348860 -1.482132 -16.191216
Cd 4.405906 1.460822 -16.191216
Cd 4.405906 -1.482132 -13.248263
Cd 7.348860 1.460822 -13.248263
Cd 7.348860 -1.482132 -10.305310
Cd 4.405906 1.460822 -10.305310
Cd 4.405906 -1.482132 -7.362356
Cd 7.348860 1.460822 -7.362356
Cd 7.348860 -1.482132 -4.419403
Cd 4.405906 1.460822 -4.419403
Cd 4.405906 -1.482132 -1.476449
Cd 7.348860 1.460822 -1.476449
Cd 7.348860 -1.482132 1.466504
Cd 4.405906 1.460822 1.466504
Cd 4.405906 -1.482132 4.409458
Cd 7.348860 1.460822 4.409458
Cd 7.348860 -1.482132 7.352411
Cd 4.405906 1.460822 7.352411
Cd 4.405906 -1.482132 10.295365
Cd 7.348860 1.460822 10.295365
Cd 7.348860 -1.482132 13.238318
Cd 4.405906 1.460822 13.238318
Cd 4.405906 -1.482132 16.181272
Cd 7.348860 1.460822 16.181272
Cd 7.348860 -1.482132 19.124225
Cd 4.405906 1.460822 19.124225
Cd 4.405906 -1.482132 22.067179
Cd 7.348860 1.460822 22.067179
Cd 7.348860 -1.482132 25.010132
Cd 4.405906 1.460822 25.010132
Cd 4.405906 4.403775 -25.020077
Cd 7.348860 7.346729 -25.020077
Cd 7.348860 4.403775 -22.077123
Cd 4.405906 7.346729 -22.077123
Cd 4.405906 4.403775 -19.134170
Cd 7.348860 7.346729 -19.134170
Cd 7.348860 4.403775 -16.191216
Cd 4.405906 7.346729 -16.191216
Cd 4.405906 4.403775 -13.248263
Cd 7.348860 7.346729 -13.248263
Cd 7.348860 4.403775 -10.305310
Cd 4.405906 7.346729 -10.305310
Cd 4.405906 4.403775 -7.362356
Cd 7.348860 7.346729 -7.362356
Cd 7.348860 4.403775 -4.419403
Cd 4.405906 7.346729 -4.419403
Cd 4.405906 4.403775 -1.476449
Cd 7.348860 7.346729 -1.476449
Cd 7.348860 4.403775 1.466504
Cd 4.405906 7.346729 1.466504
Cd 4.405906 4.403775 4.409458
Cd 7.348860 7.346729 4.409458
Cd 7.348860 4.403775 7.352411
Cd 4.405906 7.346729 7.352411
Cd 4.405906 4.403775 10.295365
Cd 7.348860 7.346729 10.295365
Cd 7.348860 4.403775 13.238318
Cd 4.405906 7.346729 13.238318
Cd 4.405906 4.403775 16.181272
Cd 7.348860 7.346729 16.181272
Cd 7.348860 4.403775 19.124225
Cd 4.405906 7.346729 19.124225
Cd 4.405906 4.403775 22.067179
Cd 7.348860 7.346729 22.067179
Cd 7.348860 4.403775 25.010132
Cd 4.405906 7.346729 25.010132
Cd 4.405906 10.289682 -25.020077
Cd 7.348860 13.232635 -25.020077
Cd 7.348860 10.289682 -22.077123
Cd 4.405906 13.232635 -22.077123
Cd 4.405906 10.289682 -19.134170
Cd 7.348860 13.232635 -19.134170
Cd 7.348860 10.289682 -16.191216
Cd 4.405906 13.232635 -16.191216
Cd 4.405906 10.289682 -13.248263
Cd 7.348860 13.232635 -13.248263
Cd 7.348860 10.289682 -10.305310
Cd 4.405906 13.232635 -10.305310
Cd 4.405906 10.289682 -7.362356
Cd 7.348860 13.232635 -7.362356
Cd 7.348860 10.289682 -4.419403
Cd 4.405906 13.232635 -4.419403
Cd 4.405906 10.289682 -1.476449
Cd 7.348860 13.232635 -1.476449
Cd 7.348860 10.289682 1.466504
Cd 4.405906 13.232635 1.466504
Cd 4.405906 10.289682 4.409458
Cd 7.348860 13.232635 4.409458
Cd 7.348860 10.289682 7.352411
Cd 4.405906 13.232635 7.352411
Cd 4.405906 10.289682 10.295365
Cd 7.348860 13.232635 10.295365
Cd 7.348860 10.289682 13.238318
Cd 4.405906 13.232635 13.238318
Cd 4.405906 10.289682 16.181272
Cd 7.348860 13.232635 16.181272
Cd 7.348860 10.289682 19.124225
Cd 4.405906 13.232635 19.124225
Cd 4.405906 10.289682 22.067179
Cd 7.348860 13.232635 22.067179
Cd 7.348860 10.289682 25.010132
Cd 4.405906 13.232635 25.010132
Cd 4.405906 16.175589 -25.020077
Cd 4.405906 19.118542 -22.077123
Cd 4.405906 16.175589 -19.134170
Cd 7.348860 19.118542 -19.134170
Cd 7.348860 16.175589 -16.191216
Cd 4.405906 19.118542 -16.191216
Cd 4.405906 16.175589 -13.248263
Cd 7.348860 19.118542 -13.248263
Cd 7.348860 16.175589 -10.305310
Cd 4.405906 19.118542 -10.305310
Cd 4.405906 16.175589 -7.362356
Cd 7.348860 19.118542 -7.362356
Cd 7.348860 16.175589 -4.419403
Cd 4.405906 19.118542 -4.419403
Cd 4.405906 16.175589 -1.476449
Cd 7.348860 19.118542 -1.476449
Cd 7.348860 16.175589 1.466504
Cd 4.405906 19.118542 1.466504
Cd 4.405906 16.175589 4.409458
Cd 7.348860 19.118542 4.409458
Cd 7.348860 16.175589 7.352411
Cd 4.405906 19.118542 7.352411
Cd 4.405906 16.175589 10.295365
Cd 7.348860 19.118542 10.295365
Cd 7.348860 16.175589 13.238318
Cd 4.405906 19.118542 13.238318
Cd 4.405906 16.175589 16.181272
Cd 7.348860 19.118542 16.181272
Cd 4.405906 19.118542 19.124225
Cd 4.405906 16.175589 22.067179
Cd 7.348860 22.061496 -16.191216
Cd 4.405906 25.004449 -16.191216
Cd 4.405906 22.061496 -13.248263
Cd 7.348860 25.004449 -13.248263
Cd 7.348860 22.061496 -10.305310
Cd 4.405906 25.004449 -10.305310
Cd 4.405906 22.061496 -7.362356
Cd 7.348860 25.004449 -7.362356
Cd 7.348860 22.061496 -4.419403
Cd 4.405906 25.004449 -4.419403
Cd 4.405906 22.061496 -1.476449
Cd 7.348860 25.004449 -1.476449
Cd 7.348860 22.061496 1.466504
Cd 4.405906 25.004449 1.466504
Cd 4.405906 22.061496 4.409458
Cd 7.348860 25.004449 4.409458
Cd 7.348860 22.061496 7.352411
Cd 4.405906 25.004449 7.352411
Cd 4.405906 22.061496 10.295365
Cd 7.348860 25.004449 10.295365
Cd 7.348860 22.061496 13.238318
Cd 4.405906 25.004449 13.238318
Cd 10.291813 -25.025760 -7.362356
Cd 13.234766 -22.082806 -7.362356
Cd 13.234766 -25.025760 -4.419403
Cd 10.291813 -22.082806 -4.419403
Cd 10.291813 -25.025760 -1.476449
Cd 13.234766 -22.082806 -1.476449
Cd 13.234766 -25.025760 1.466504
Cd 10.291813 -22.082806 1.466504
Cd 10.291813 -25.025760 4.409458
Cd 13.234766 -22.082806 4.409458
Cd 13.234766 -25.025760 7.352411
Cd 10.291813 -22.082806 7.352411
Cd 10.291813 -25.025760 10.295365
Cd 13.234766 -22.082806 10.295365
Cd 10.291813 -22.082806 13.238318
Cd 10.291813 -16.196899 -16.191216
Cd 10.291813 -19.139853 -13.248263
Cd 13.234766 -16.196899 -13.248263
Cd 13.234766 -19.139853 -10.305310
Cd 10.291813 -16.196899 -10.305310
Cd 10.291813 -19.139853 -7.362356
Cd 13.234766 -16.196899 -7.362356
Cd 13.234766 -19.139853 -4.419403
Cd 10.291813 -16.196899 -4.419403
Cd 10.291813 -19.139853 -1.476449
Cd 13.234766 -16.196899 -1.476449
Cd 13.234766 -19.139853 1.466504
Cd 10.291813 -16.196899 1.466504
Cd 10.291813 -19.139853 4.409458
Cd 13.234766 -16.196899 4.409458
Cd 13.234766 -19.139853 7.352411
Cd 10.291813 -16.196899 7.352411
Cd 10.291813 -19.139853 10.295365
Cd 13.234766 -16.196899 10.295365
Cd 10.291813 -16.196899 13.238318
Cd 10.291813 -19.139853 16.181272
Cd 13.234766 -16.196899 16.181272
Cd 10.291813 -10.310992 -22.077123
Cd 13.234766 -10.310992 -19.134170
Cd 13.234766 -13.253946 -16.191216
Cd 10.291813 -10.310992 -16.191216
Cd 10.291813 -13.253946 -13.248263
Cd 13.234766 -10.310992 -13.248263
Cd 13.234766 -13.253946 -10.305310
Cd 10.291813 -10.310992 -10.305310
Cd 10.291813 -13.253946 -7.362356
Cd 13.234766 -10.310992 -7.362356
Cd 13.234766 -13.253946 -4.419403
Cd 10.291813 -10.310992 -4.419403
Cd 10.291813 -13.253946 -1.476449
Cd 13.234766 -10.310992 -1.476449
Cd 13.234766 -13.253946 1.466504
Cd 10.291813 -10.310992 1.466504
Cd 10.291813 -13.253946 4.409458
Cd 13.234766 -10.310992 4.409458
Cd 13.234766 -13.253946 7.352411
Cd 10.291813 -10.310992 7.352411
Cd 10.291813 -13.253946 10.295365
Cd 13.234766 -10.310992 10.295365
Cd 13.234766 -13.253946 13.238318
Cd 10.291813 -10.310992 13.238318
Cd 10.291813 -13.253946 16.181272
Cd 13.234766 -10.310992 16.181272
Cd 13.234766 -13.253946 19.124225
Cd 10.291813 -10.310992 19.124225
Cd 10.291813 -13.253946 22.067179
Cd 10.291813 -10.310992 25.010132
Cd 10.291813 -7.368039 -25.020077
Cd 13.234766 -4.425085 -25.020077
Cd 10.291813 -4.425085 -22.077123
Cd 10.291813 -7.368039 -19.134170
Cd 13.234766 -4.425085 -19.134170
Cd 13.234766 -7.368039 -16.191216
Cd 10.291813 -4.425085 -16.191216
Cd 10.291813 -7.368039 -13.248263
Cd 13.234766 -4.425085 -13.248263
Cd 13.234766 -7.368039 -10.305310
Cd 10.291813 -4.425085 -10.305310
Cd 10.291813 -7.368039 -7.362356
Cd 13.234766 -4.425085 -7.362356
Cd 13.234766 -7.368039 -4.419403
Cd 10.291813 -4.425085 -4.419403
Cd 10.291813 -7.368039 -1.476449
Cd 13.234766 -4.425085 -1.476449
Cd 13.234766 -7.368039 1.466504
Cd 10.291813 -4.425085 1.466504
Cd 10.291813 -7.368039 4.409458
Cd 13.234766 -4.425085 4.409458
Cd 13.234766 -7.368039 7.352411
Cd 10.291813 -4.425085 7.352411
Cd 10.291813 -7.368039 10.295365
Cd 13.234766 -4.425085 10.295365
Cd 13.234766 -7.368039 13.238318
Cd 10.291813 -4.425085 13.238318
Cd 10.291813 -7.368039 16.181272
Cd 13.234766 -4.425085 16.181272
Cd 13.234766 -7.368039 19.124225
Cd 10.291813 -4.425085 19.124225
Cd 10.291813 -7.368039 22.067179
Cd 13.234766 -4.425085 22.067179
Cd 13.234766 -7.368039 25.010132
Cd 10.291813 -4.425085 25.010132
Cd 10.291813 -1.482132 -25.020077
Cd 13.234766 1.460822 -25.020077
Cd 13.234766 -1.482132 -22.077123
Cd 10.291813 1.460822 -22.077123
Cd 10.291813 -1.482132 -19.134170
Cd 13.234766 1.460822 -19.134170
Cd 13.234766 -1.482132 -16.191216
Cd 10.291813 1.460822 -16.191216
Cd 10.291813 -1.482132 -13.248263
Cd 13.234766 1.460822 -13.248263
Cd 13.234766 -1.482132 -10.305310
Cd 10.291813 1.460822 -10.305310
Cd 10.291813 -1.482132 -7.362356
Cd 13.234766 1.460822 -7.362356
Cd 13.234766 -1.482132 -4.419403
Cd 10.291813 1.460822 -4.419403
Cd 10.291813 -1.482132 -1.476449
Cd 13.234766 1.460822 -1.476449
Cd 13.234766 -1.482132 1.466504
Cd 10.291813 1.460822 1.466504
Cd 10.291813 -1.482132 4.409458
Cd 13.234766 1.460822 4.409458
Cd 13.234766 -1.482132 7.352411
Cd 10.291813 1.460822 7.352411
Cd 10.291813 -1.482132 10.295365
Cd 13.234766 1.460822 10.295365
Cd 13.234766 -1.482132 13.238318
Cd 10.291813 1.460822 13.238318
Cd 10.291813 -1.482132 16.181272
Cd 13.234766 1.460822 16.181272
Cd 13.234766 -1.482132 19.124225
Cd 10.291813 1.460822 19.124225
Cd 10.291813 -1.482132 22.067179
Cd 13.234766 1.460822 22.067179
Cd 13.234766 -1.482132 25.010132
Cd 10.291813 1.460822 25.010132
Cd 10.291813 4.403775 -25.020077
Cd 13.234766 7.346729 -25.020077
Cd 13.234766 4.403775 -22.077123
Cd 10.291813 7.346729 -22.077123
Cd 10.291813 4.403775 -19.134170
Cd 13.234766 7.346729 -19.134170
Cd 13.234766 4.403775 -16.191216
Cd 10.291813 7.346729 -16.191216
Cd 10.291813 4.403775 -13.248263
Cd 13.234766 7.346729 -13.248263
Cd 13.234766 4.403775 -10.305310
Cd 10.291813 7.346729 -10.305310
Cd 10.291813 4.403775 -7.362356
Cd 13.234766 7.346729 -7.362356
Cd 13.234766 4.403775 -4.419403
Cd 10.291813 7.346729 -4.419403
Cd 10.291813 4.403775 -1.476449
Cd 13.234766 7.346729 -1.476449
Cd 13.234766 4.403775 1.466504
Cd 10.291813 7.346729 1.466504
Cd 10.291813 4.403775 4.409458
Cd 13.234766 7.346729 4.409458
Cd 13.234766 4.403775 7.352411
Cd 10.291813 7.346729 7.352411
Cd 10.291813 4.403775 10.295365
Cd 13.234766 7.346729 10.295365
Cd 13.234766 4.403775 13.238318
Cd 10.291813 7.346729 13.238318
Cd 10.291813 4.403775 16.181272
Cd 13.234766 7.346729 16.181272
Cd 13.234766 4.403775 19.124225
Cd 10.291813 7.346729 19.124225
Cd 10.291813 4.403775 22.067179
Cd 13.234766 7.346729 22.067179
Cd 13.234766 4.403775 25.010132
Cd 10.291813 7.346729 25.010132
Cd 10.291813 10.289682 -25.020077
Cd 13.234766 10.289682 -22.077123
Cd 10.291813 13.232635 -22.077123
Cd 10.291813 10.289682 -19.134170
Cd 13.234766 10.289682 -16.191216
Cd 10.291813 13.232635 -16.191216
Cd 10.291813 10.289682 -13.248263
Cd 13.234766 13.232635 -13.248263
Cd 13.234766 10.289682 -10.305310
Cd 10.291813 13.232635 -10.305310
Cd 10.291813 10.289682 -7.362356
Cd 13.234766 13.232635 -7.362356
Cd 13.234766 10.289682 -4.419403
Cd 10.291813 13.232635 -4.419403
Cd 10.291813 10.289682 -1.476449
Cd 13.234766 13.232635 -1.476449
Cd 13.234766 10.289682 1.466504
Cd 10.291813 13.232635 1.466504
Cd 10.291813 10.289682 4.409458
Cd 13.234766 13.232635 4.409458
Cd 13.234766 10.289682 7.352411
Cd 10.291813 13.232635 7.352411
Cd 10.291813 10.289682 10.295365
Cd 13.234766 13.232635 10.295365
Cd 13.234766 10.289682 13.238318
Cd 10.291813 13.232635 13.238318
Cd 10.291813 10.289682 16.181272
Cd 13.234766 13.232635 16.181272
Cd 13.234766 10.289682 19.124225
Cd 10.291813 13.232635 19.124225
Cd 10.291813 16.175589 -19.134170
Cd 13.234766 16.175589 -16.191216
Cd 10.291813 16.175589 -13.248263
Cd 13.234766 19.118542 -13.248263
Cd 13.234766 16.175589 -10.305310
Cd 10.291813 19.118542 -10.305310
Cd 10.291813 16.175589 -7.362356
Cd 13.234766 19.118542 -7.362356
Cd 13.234766 16.175589 -4.419403
Cd 10.291813 19.118542 -4.419403
Cd 10.291813 16.175589 -1.476449
Cd 13.234766 19.118542 -1.476449
Cd 13.234766 16.175589 1.466504
Cd 10.291813 19.118542 1.466504
Cd 10.291813 16.175589 4.409458
Cd 13.234766 19.118542 4.409458
Cd 13.234766 16.175589 7.352411
Cd 10.291813 19.118542 7.352411
Cd 10.291813 16.175589 10.295365
Cd 13.234766 19.118542 10.295365
Cd 13.234766 16.175589 13.238318
Cd 10.291813 16.175589 16.181272
Cd 10.291813 22.061496 -13.248263
Cd 10.291813 25.004449 -10.305310
Cd 10.291813 22.061496 -7.362356
Cd 13.234766 25.004449 -7.362356
Cd 13.234766 22.061496 -4.419403
Cd 10.291813 25.004449 -4.419403
Cd 10.291813 22.061496 -1.476449
Cd 13.234766 25.004449 -1.476449
Cd 13.234766 22.061496 1.466504
Cd 10.291813 25.004449 1.466504
Cd 10.291813 22.061496 4.409458
Cd 13.234766 25.004449 4.409458
Cd 10.291813 25.004449 7.352411
Cd 10.291813 22.061496 10.295365
Cd 16.177720 -22.082806 -4.419403
Cd 16.177720 -25.025760 -1.476449
Cd 19.120673 -25.025760 1.466504
Cd 16.177720 -22.082806 1.466504
Cd 16.177720 -25.025760 4.409458
Cd 19.120673 -22.082806 4.409458
Cd 16.177720 -16.196899 -10.305310
Cd 19.120673 -16.196899 -7.362356
Cd 19.120673 -19.139853 -4.419403
Cd 16.177720 -16.196899 -4.419403
Cd 16.177720 -19.139853 -1.476449
Cd 19.120673 -16.196899 -1.476449
Cd 19.120673 -19.139853 1.466504
Cd 16.177720 -16.196899 1.466504
Cd 16.177720 -19.139853 4.409458
Cd 19.120673 -16.196899 4.409458
Cd 19.120673 -19.139853 7.352411
Cd 16.177720 -16.196899 7.352411
Cd 16.177720 -19.139853 10.295365
Cd 16.177720 -16.196899 13.238318
Cd 16.177720 -10.310992 -16.191216
Cd 16.177720 -13.253946 -13.248263
Cd 19.120673 -10.310992 -13.248263
Cd 19.120673 -13.253946 -10.305310
Cd 16.177720 -10.310992 -10.305310
Cd 16.177720 -13.253946 -7.362356
Cd 19.120673 -10.310992 -7.362356
Cd 19.120673 -13.253946 -4.419403
Cd 16.177720 -10.310992 -4.419403
Cd 16.177720 -13.253946 -1.476449
Cd 19.120673 -10.310992 -1.476449
Cd 19.120673 -13.253946 1.466504
Cd 16.177720 -10.310992 1.466504
Cd 16.177720 -13.253946 4.409458
Cd 19.120673 -10.310992 4.409458
Cd 19.120673 -13.253946 7.352411
Cd 16.177720 -10.310992 7.352411
Cd 16.177720 -13.253946 10.295365
Cd 19.120673 -10.310992 10.295365
Cd 19.120673 -13.253946 13.238318
Cd 16.177720 -10.310992 13.238318
Cd 19.120673 -10.310992 16.181272
Cd 16.177720 -10.310992 19.124225
Cd 16.177720 -4.425085 -22.077123
Cd 16.177720 -7.368039 -19.134170
Cd 19.120673 -7.368039 -16.191216
Cd 16.177720 -4.425085 -16.191216
Cd 16.177720 -7.368039 -13.248263
Cd 19.120673 -4.425085 -13.248263
Cd 19.120673 -7.368039 -10.305310
Cd 16.177720 -4.425085 -10.305310
Cd 16.177720 -7.368039 -7.362356
Cd 19.120673 -4.425085 -7.362356
Cd 19.120673 -7.368039 -4.419403
Cd 16.177720 -4.425085 -4.419403
Cd 16.177720 -7.368039 -1.476449
Cd 19.120673 -4.425085 -1.476449
Cd 19.120673 -7.368039 1.466504
Cd 16.177720 -4.425085 1.466504
Cd 16.177720 -7.368039 4.409458
Cd 19.120673 -4.425085 4.409458
Cd 19.120673 -7.368039 7.352411
Cd 16.177720 -4.425085 7.352411
Cd 16.177720 -7.368039 10.295365
Cd 19.120673 -4.425085 10.295365
Cd 19.120673 -7.368039 13.238318
Cd 16.177720 -4.425085 13.238318
Cd 16.177720 -7.368039 16.181272
Cd 19.120673 -4.425085 16.181272
Cd 16.177720 -4.425085 19.124225
Cd 16.177720 -7.368039 22.067179
Cd 19.120673 -4.425085 22.067179
Cd 16.177720 -4.425085 25.010132
Cd 16.177720 -1.482132 -25.020077
Cd 19.120673 1.460822 -25.020077
Cd 19.120673 -1.482132 -22.077123
Cd 16.177720 1.460822 -22.077123
Cd 16.177720 -1.482132 -19.134170
Cd 19.120673 1.460822 -19.134170
Cd 19.120673 -1.482132 -16.191216
Cd 16.177720 1.460822 -16.191216
Cd 16.177720 -1.482132 -13.248263
Cd 19.120673 1.460822 -13.248263
Cd 19.120673 -1.482132 -10.305310
Cd 16.177720 1.460822 -10.305310
Cd 16.177720 -1.482132 -7.362356
Cd 19.120673 1.460822 -7.362356
Cd 19.120673 -1.482132 -4.419403
Cd 16.177720 1.460822 -4.419403
Cd 16.177720 -1.482132 -1.476449
Cd 19.120673 1.460822 -1.476449
Cd 19.120673 -1.482132 1.466504
Cd 16.177720 1.460822 1.466504
Cd 16.177720 -1.482132 4.409458
Cd 19.120673 1.460822 4.409458
Cd 19.120673 -1.482132 7.352411
Cd 16.177720 1.460822 7.352411
Cd 16.177720 -1.482132 10.295365
Cd 19.120673 1.460822 10.295365
Cd 19.120673 -1.482132 13.238318
Cd 16.177720 1.460822 13.238318
Cd 16.177720 -1.482132 16.181272
Cd 19.120673 1.460822 16.181272
Cd 19.120673 -1.482132 19.124225
Cd 16.177720 1.460822 19.124225
Cd 16.177720 -1.482132 22.067179
Cd 19.120673 -1.482132 25.010132
Cd 16.177720 1.460822 25.010132
Cd 16.177720 4.403775 -25.020077
Cd 19.120673 4.403775 -22.077123
Cd 16.177720 4.403775 -19.134170
Cd 19.120673 7.346729 -19.134170
Cd 19.120673 4.403775 -16.191216
Cd 16.177720 7.346729 -16.191216
Cd 16.177720 4.403775 -13.248263
Cd 19.120673 7.346729 -13.248263
Cd 19.120673 4.403775 -10.305310
Cd 16.177720 7.346729 -10.305310
Cd 16.177720 4.403775 -7.362356
Cd 19.120673 7.346729 -7.362356
Cd 19.120673 4.403775 -4.419403
Cd 16.177720 7.346729 -4.419403
Cd 16.177720 4.403775 -1.476449
Cd 19.120673 7.346729 -1.476449
Cd 19.120673 4.403775 1.466504
Cd 16.177720 7.346729 1.466504
Cd 16.177720 4.403775 4.409458
Cd 19.120673 7.346729 4.409458
Cd 19.120673 4.403775 7.352411
Cd 16.177720 7.346729 7.352411
Cd 16.177720 4.403775 10.295365
Cd 19.120673 7.346729 10.295365
Cd 19.120673 4.403775 13.238318
Cd 16.177720 7.346729 13.238318
Cd 16.177720 4.403775 16.181272
Cd 19.120673 7.346729 16.181272
Cd 19.120673 4.403775 19.124225
Cd 16.177720 4.403775 22.067179
Cd 16.177720 10.289682 -19.134170
Cd 16.177720 13.232635 -16.191216
Cd 16.177720 10.289682 -13.248263
Cd 19.120673 13.232635 -13.248263
Cd 19.120673 10.289682 -10.305310
Cd 16.177720 13.232635 -10.305310
Cd 16.177720 10.289682 -7.362356
Cd 19.120673 13.232635 -7.362356
Cd 19.120673 10.289682 -4.419403
Cd 16.177720 13.232635 -4.419403
Cd 16.177720 10.289682 -1.476449
Cd 19.120673 13.232635 -1.476449
Cd 19.120673 10.289682 1.466504
Cd 16.177720 13.232635 1.466504
Cd 16.177720 10.289682 4.409458
Cd 19.120673 13.232635 4.409458
Cd 19.120673 10.289682 7.352411
Cd 16.177720 13.232635 7.352411
Cd 16.177720 10.289682 10.295365
Cd 19.120673 13.232635 10.295365
Cd 19.120673 10.289682 13.238318
Cd 16.177720 13.232635 13.238318
Cd 16.177720 10.289682 16.181272
Cd 19.120673 16.175589 -10.305310
Cd 16.177720 19.118542 -10.305310
Cd 16.177720 16.175589 -7.362356
Cd 19.120673 16.175589 -4.419403
Cd 16.177720 19.118542 -4.419403
Cd 16.177720 16.175589 -1.476449
Cd 19.120673 19.118542 -1.476449
Cd 19.120673 16.175589 1.466504
Cd 16.177720 19.118542 1.466504
Cd 16.177720 16.175589 4.409458
Cd 19.120673 16.175589 7.352411
Cd 16.177720 19.118542 7.352411
Cd 16.177720 16.175589 10.295365
Cd 16.177720 22.061496 -7.362356
Cd 19.120673 22.061496 -4.419403
Cd 16.177720 25.004449 -4.419403
Cd 16.177720 22.061496 -1.476449
Cd 19.120673 25.004449 -1.476449
Cd 19.120673 22.061496 1.466504
Cd 16.177720 25.004449 1.466504
Cd 16.177720 22.061496 4.409458
Cd 22.063627 -22.082806 1.466504
Cd 22.063627 -19.139853 -1.476449
Cd 25.006580 -16.196899 -1.476449
Cd 25.006580 -19.139853 1.466504
Cd 22.063627 -16.196899 1.466504
Cd 25.006580 -16.196899 4.409458
Cd 22.063627 -16.196899 7.352411
Cd 22.063627 -10.310992 -10.305310
Cd 22.063627 -13.253946 -7.362356
Cd 25.006580 -10.310992 -7.362356
Cd 25.006580 -13.253946 -4.419403
Cd 22.063627 -10.310992 -4.419403
Cd 22.063627 -13.253946 -1.476449
Cd 25.006580 -10.310992 -1.476449
Cd 25.006580 -13.253946 1.466504
Cd 22.063627 -10.310992 1.466504
Cd 22.063627 -13.253946 4.409458
Cd 25.006580 -10.310992 4.409458
Cd 25.006580 -13.253946 7.352411
Cd 22.063627 -10.310992 7.352411
Cd 22.063627 -13.253946 10.295365
Cd 25.006580 -10.310992 10.295365
Cd 22.063627 -4.425085 -16.191216
Cd 25.006580 -4.425085 -13.248263
Cd 25.006580 -7.368039 -10.305310
Cd 22.063627 -4.425085 -10.305310
Cd 22.063627 -7.368039 -7.362356
Cd 25.006580 -4.425085 -7.362356
Cd 25.006580 -7.368039 -4.419403
Cd 22.063627 -4.425085 -4.419403
Cd 22.063627 -7.368039 -1.476449
Cd 25.006580 -4.425085 -1.476449
Cd 25.006580 -7.368039 1.466504
Cd 22.063627 -4.425085 1.466504
Cd 22.063627 -7.368039 4.409458
Cd 25.006580 -4.425085 4.409458
Cd 25.006580 -7.368039 7.352411
Cd 22.063627 -4.425085 7.352411
Cd 22.063627 -7.368039 10.295365
Cd 25.006580 -4.425085 10.295365
Cd 25.006580 -7.368039 13.238318
Cd 22.063627 -4.425085 13.238318
Cd 22.063627 -7.368039 16.181272
Cd 25.006580 -4.425085 16.181272
Cd 22.063627 -4.425085 19.124225
Cd 22.063627 1.460822 -22.077123
Cd 22.063627 -1.482132 -19.134170
Cd 25.006580 1.460822 -19.134170
Cd 25.006580 -1.482132 -16.191216
Cd 22.063627 1.460822 -16.191216
Cd 22.063627 -1.482132 -13.248263
Cd 25.006580 1.460822 -13.248263
Cd 25.006580 -1.482132 -10.305310
Cd 22.063627 1.460822 -10.305310
Cd 22.063627 -1.482132 -7.362356
Cd 25.006580 1.460822 -7.362356
Cd 25.006580 -1.482132 -4.419403
Cd 22.063627 1.460822 -4.419403
Cd 22.063627 -1.482132 -1.476449
Cd 25.006580 1.460822 -1.476449
Cd 25.006580 -1.482132 1.466504
Cd 22.063627 1.460822 1.466504
Cd 22.063627 -1.482132 4.409458
Cd 25.006580 1.460822 4.409458
Cd 25.006580 -1.482132 7.352411
Cd 22.063627 1.460822 7.352411
Cd 22.063627 -1.482132 10.295365
Cd 25.006580 1.460822 10.295365
Cd 25.006580 -1.482132 13.238318
Cd 22.063627 1.460822 13.238318
Cd 22.063627 -1.482132 16.181272
Cd 25.006580 1.460822 16.181272
Cd 25.006580 -1.482132 19.124225
Cd 22.063627 1.460822 19.124225
Cd 22.063627 -1.482132 22.067179
Cd 25.006580 4.403775 -16.191216
Cd 22.063627 7.346729 -16.191216
Cd 22.063627 4.403775 -13.248263
Cd 25.006580 7.346729 -13.248263
Cd 25.006580 4.403775 -10.305310
Cd 22.063627 7.346729 -10.305310
Cd 22.063627 4.403775 -7.362356
Cd 25.006580 7.346729 -7.362356
Cd 25.006580 4.403775 -4.419403
Cd 22.063627 7.346729 -4.419403
Cd 22.063627 4.403775 -1.476449
Cd 25.006580 7.346729 -1.476449
Cd 25.006580 4.403775 1.466504
Cd 22.063627 7.346729 1.466504
Cd 22.063627 4.403775 4.409458
Cd 25.006580 7.346729 4.409458
Cd 25.006580 4.403775 7.352411
Cd 22.063627 7.346729 7.352411
Cd 22.063627 4.403775 10.295365
Cd 25.006580 7.346729 10.295365
Cd 25.006580 4.403775 13.238318
Cd 22.063627 7.346729 13.238318
Cd 22.063627 10.289682 -13.248263
Cd 25.006580 10.289682 -10.305310
Cd 22.063627 10.289682 -7.362356
Cd 25.006580 13.232635 -7.362356
Cd 25.006580 10.289682 -4.419403
Cd 22.063627 13.232635 -4.419403
Cd 22.063627 10.289682 -1.476449
Cd 25.006580 13.232635 -1.476449
Cd 25.006580 10.289682 1.466504
Cd 22.063627 13.232635 1.466504
Cd 22.063627 10.289682 4.409458
Cd 25.006580 13.232635 4.409458
Cd 25.006580 10.289682 7.352411
Cd 22.063627 10.289682 10.295365
Cd 22.063627 16.175589 -7.362356
Cd 25.006580 16.175589 -4.419403
Cd 22.063627 19.118542 -4.419403
Cd 22.063627 16.175589 -1.476449
Cd 25.006580 19.118542 -1.476449
Cd 25.006580 16.175589 1.466504
Cd 22.063627 19.118542 1.466504
Cd 22.063627 16.175589 4.409458
Cd 22.063627 22.061496 -1.476449
S -23.552152 -20.611329 -2.947926
S -20.609198 -20.611329 -0.004972
S -23.552152 -14.725422 -2.947926
S -20.609198 -14.725422 -5.890879
S -20.609198 -17.668376 -2.947926
S -23.552152 -17.668376 -0.004972
S -23.552152 -14.725422 2.937981
S -20.609198 -14.725422 -0.004972
S -20.609198 -17.668376 2.937981
S -20.609198 -14.725422 5.880935
S -23.552152 -11.782469 -11.776786
S -23.552152 -8.839516 -8.833833
S -20.609198 -8.839516 -11.776786
S -20.609198 -11.782469 -8.833833
S -23.552152 -11.782469 -5.890879
S -23.552152 -8.839516 -2.947926
S -20.609198 -8.839516 -5.890879
S -20.609198 -11.782469 -2.947926
S -23.552152 -11.782469 -0.004972
S -23.552152 -8.839516 2.937981
S -20.609198 -8.839516 -0.004972
S -20.609198 -11.782469 2.937981
S -23.552152 -11.782469 5.880935
S -23.552152 -8.839516 8.823888
S -20.609198 -8.839516 5.880935
S -20.609198 -11.782469 8.823888
S -20.609198 -8.839516 11.766841
S -23.552152 -2.953609 -20.605647
S -23.552152 -2.953609 -14.719740
S -20.609198 -2.953609 -17.662693
S -20.609198 -5.896562 -14.719740
S -23.552152 -5.896562 -11.776786
S -23.552152 -2.953609 -8.833833
S -20.609198 -2.953609 -11.776786
S -20.609198 -5.896562 -8.833833
S -23.552152 -5.896562 -5.890879
S -23.552152 -2.953609 -2.947926
S -20.609198 -2.953609 -5.890879
S -20.609198 -5.896562 -2.947926
S -23.552152 -5.896562 -0.004972
S -23.552152 -2.953609 2.937981
S -20.609198 -2.953609 -0.004972
S -20.609198 -5.896562 2.937981
S -23.552152 -5.896562 5.880935
S -23.552152 -2.953609 8.823888
S -20.609198 -2.953609 5.880935
S -20.609198 -5.896562 8.823888
S -23.552152 -5.896562 11.766841
S -23.552152 -2.953609 14.709795
S -20.609198 -2.953609 11.766841
S -20.609198 -5.896562 14.709795
S -20.609198 -2.953609 17.652748
S -20.609198 -0.010655 -20.605647
S -23.552152 -0.010655 -17.662693
S -23.552152 2.932298 -14.719740
S -20.609198 2.932298 -17.662693
S -20.609198 -0.010655 -14.719740
S -23.552152 -0.010655 -11.776786
S -23.552152 2.932298 -8.833833
S -20.609198 2.932298 -11.776786
S -20.609198 -0.010655 -8.833833
S -23.552152 -0.010655 -5.890879
S -23.552152 2.932298 -2.947926
S -20.609198 2.932298 -5.890879
S -20.609198 -0.010655 -2.947926
S -23.552152 -0.010655 -0.004972
S -23.552152 2.932298 2.937981
S -20.609198 2.932298 -0.004972
S -20.609198 -0.010655 2.937981
S -23.552152 -0.010655 5.880935
S -23.552152 2.932298 8.823888
S -20.609198 2.932298 5.880935
S -20.609198 -0.010655 8.823888
S -23.552152 -0.010655 11.766841
S -23.552152 2.932298 14.709795
S -20.609198 2.932298 11.766841
S -20.609198 -0.010655 14.709795
S -23.552152 -0.010655 17.652748
S -23.552152 2.932298 20.595702
S -20.609198 2.932298 17.652748
S -20.609198 -0.010655 20.595702
S -20.609198 5.875252 -14.719740
S -23.552152 5.875252 -11.776786
S -23.552152 8.818205 -8.833833
S -20.609198 8.818205 -11.776786
S -20.609198 5.875252 -8.833833
S -23.552152 5.875252 -5.890879
S -23.552152 8.818205 -2.947926
S -20.609198 8.818205 -5.890879
S -20.609198 5.875252 -2.947926
S -23.552152 5.875252 -0.004972
S -23.552152 8.818205 2.937981
S -20.609198 8.818205 -0.004972
S -20.609198 5.875252 2.937981
S -23.552152 5.875252 5.880935
S -23.552152 8.818205 8.823888
S -20.609198 8.818205 5.880935
S -20.609198 5.875252 8.823888
S -23.552152 5.875252 11.766841
S -20.609198 8.818205 11.766841
S -20.609198 5.875252 14.709795
S -20.609198 11.761159 -8.833833
S -23.552152 11.761159 -5.890879
S -23.552152 14.704112 -2.947926
S -20.609198 14.704112 -5.890879
S -20.609198 11.761159 -2.947926
S -23.552152 11.761159 -0.004972
S -23.552152 14.704112 2.937981
S -20.609198 14.704112 -0.004972
S -20.609198 11.761159 2.937981
S -23.552152 11.761159 5.880935
S -20.609198 14.704112 5.880935
S -20.609198 11.761159 8.823888
S -23.552152 11.761159 11.766841
S -20.609198 17.647066 -2.947926
S -23.552152 17.647066 -0.004972
S -23.552152 20.590019 2.937981
S -20.609198 20.590019 -0.004972
S -20.609198 17.647066 2.937981
S -14.723291 -23.554283 -8.833833
S -17.666245 -20.611329 -2.947926
S -14.723291 -20.611329 -5.890879
S -14.723291 -23.554283 -2.947926
S -17.666245 -23.554283 -0.004972
S -17.666245 -20.611329 2.937981
S -14.723291 -20.611329 -0.004972
S -14.723291 -23.554283 2.937981
S -14.723291 -20.611329 5.880935
S -17.666245 -14.725422 -8.833833
S -14.723291 -14.725422 -11.776786
S -14.723291 -17.668376 -8.833833
S -17.666245 -17.668376 -5.890879
S -17.666245 -14.725422 -2.947926
S -14.723291 -14.725422 -5.890879
S -14.723291 -17.668376 -2.947926
S -17.666245 -17.668376 -0.004972
S -17.666245 -14.725422 2.937981
S -14.723291 -14.725422 -0.004972
S -14.723291 -17.668376 2.937981
S -17.666245 -17.668376 5.880935
S -17.666245 -14.725422 8.823888
S -14.723291 -14.725422 5.880935
S -14.723291 -17.668376 8.823888
S -14.723291 -14.725422 11.766841
S -14.723291 -8.839516 -23.548600
S -17.666245 -8.839516 -14.719740
S -14.723291 -8.839516 -17.662693
S -14.723291 -11.782469 -14.719740
S -17.666245 -11.782469 -11.776786
S -17.666245 -8.839516 -8.833833
S -14.723291 -8.839516 -11.776786
S -14.723291 -11.782469 -8.833833
S -17.666245 -11.782469 -5.890879
S -17.666245 -8.839516 -2.947926
S -14.723291 -8.839516 -5.890879
S -14.723291 -11.782469 -2.947926
S -17.666245 -11.782469 -0.004972
S -17.666245 -8.839516 2.937981
S -14.723291 -8.839516 -0.004972
S -14.723291 -11.782469 2.937981
S -17.666245 -11.782469 5.880935
S -17.666245 -8.839516 8.823888
S -14.723291 -8.839516 5.880935
S -14.723291 -11.782469 8.823888
S -17.666245 -11.782469 11.766841
S -17.666245 -8.839516 14.709795
S -14.723291 -8.839516 11.766841
S -14.723291 -11.782469 14.709795
S -14.723291 -8.839516 17.652748
S -17.666245 -2.953609 -20.605647
S -14.723291 -2.953609 -23.548600
S -14.723291 -5.896562 -20.605647
S -17.666245 -5.896562 -17.662693
S -17.666245 -2.953609 -14.719740
S -14.723291 -2.953609 -17.662693
S -14.723291 -5.896562 -14.719740
S -17.666245 -5.896562 -11.776786
S -17.666245 -2.953609 -8.833833
S -14.723291 -2.953609 -11.776786
S -14.723291 -5.896562 -8.833833
S -17.666245 -5.896562 -5.890879
S -17.666245 -2.953609 -2.947926
S -14.723291 -2.953609 -5.890879
S -14.723291 -5.896562 -2.947926
S -17.666245 -5.896562 -0.004972
S -17.666245 -2.953609 2.937981
S -14.723291 -2.953609 -0.004972
S -14.723291 -5.896562 2.937981
S -17.666245 -5.896562 5.880935
S -17.666245 -2.953609 8.823888
S -14.723291 -2.953609 5.880935
S -14.723291 -5.896562 8.823888
S -17.666245 -5.896562 11.766841
S -17.666245 -2.953609 14.709795
S -14.723291 -2.953609 11.766841
S -14.723291 -5.896562 14.709795
S -17.666245 -5.896562 17.652748
S -17.666245 -2.953609 20.595702
S -14.723291 -2.953609 17.652748
S -14.723291 -5.896562 20.595702
S -14.723291 -2.953609 23.538655
S -17.666245 -0.010655 -23.548600
S -17.666245 2.932298 -20.605647
S -14.723291 2.932298 -23.548600
S -14.723291 -0.010655 -20.605647
S -17.666245 -0.010655 -17.662693
S -17.666245 2.932298 -14.719740
S -14.723291 2.932298 -17.662693
S -14.723291 -0.010655 -14.719740
S -17.666245 -0.010655 -11.776786
S -17.666245 2.932298 -8.833833
S -14.723291 2.932298 -11.776786
S -14.723291 -0.010655 -8.833833
S -17.666245 -0.010655 -5.890879
S -17.666245 2.932298 -2.947926
S -14.723291 2.932298 -5.890879
S -14.723291 -0.010655 -2.947926
S -17.666245 -0.010655 -0.004972
S -17.666245 2.932298 2.937981
S -14.723291 2.932298 -0.004972
S -14.723291 -0.010655 2.937981
S -17.666245 -0.010655 5.880935
S -17.666245 2.932298 8.823888
S -14.723291 2.932298 5.880935
S -14.723291 -0.010655 8.823888
S -17.666245 -0.010655 11.766841
S -17.666245 2.932298 14.709795
S -14.723291 2.932298 11.766841
S -14.723291 -0.010655 14.709795
S -17.666245 -0.010655 17.652748
S -17.666245 2.932298 20.595702
S -14.723291 2.932298 17.652748
S -14.723291 -0.010655 20.595702
S -17.666245 -0.010655 23.538655
S -14.723291 2.932298 23.538655
S -14.723291 5.875252 -20.605647
S -17.666245 5.875252 -17.662693
S -17.666245 8.818205 -14.719740
S -14.723291 8.818205 -17.662693
S -14.723291 5.875252 -14.719740
S -17.666245 5.875252 -11.776786
S -17.666245 8.818205 -8.833833
S -14.723291 8.818205 -11.776786
S -14.723291 5.875252 -8.833833
S -17.666245 5.875252 -5.890879
S -17.666245 8.818205 -2.947926
S -14.723291 8.818205 -5.890879
S -14.723291 5.875252 -2.947926
S -17.666245 5.875252 -0.004972
S -17.666245 8.818205 2.937981
S -14.723291 8.818205 -0.004972
S -14.723291 5.875252 2.937981
S -17.666245 5.875252 5.880935
S -17.666245 8.818205 8.823888
S -14.723291 8.818205 5.880935
S -14.723291 5.875252 8.823888
S -17.666245 5.875252 11.766841
S -17.666245 8.818205 14.709795
S -14.723291 8.818205 11.766841
S -14.723291 5.875252 14.709795
S -17.666245 5.875252 17.652748
S -14.723291 8.818205 17.652748
S -14.723291 5.875252 20.595702
S -14.723291 8.818205 23.538655
S -14.723291 11.761159 -14.719740
S -17.666245 11.761159 -11.776786
S -17.666245 14.704112 -8.833833
S -14.723291 14.704112 -11.776786
S -14.723291 11.761159 -8.833833
S -17.666245 11.761159 -5.890879
S -17.666245 14.704112 -2.947926
S -14.723291 14.704112 -5.890879
S -14.723291 11.761159 -2.947926
S -17.666245 11.761159 -0.004972
S -17.666245 14.704112 2.937981
S -14.723291 14.704112 -0.004972
S -14.723291 11.761159 2.937981
S -17.666245 11.761159 5.880935
S -17.666245 14.704112 8.823888
S -14.723291 14.704112 5.880935
S -14.723291 11.761159 8.823888
S -17.666245 11.761159 11.766841
S -14.723291 14.704112 11.766841
S -14.723291 11.761159 14.709795
S -14.723291 17.647066 -8.833833
S -17.666245 17.647066 -5.890879
S -17.666245 20.590019 -2.947926
S -14.723291 20.590019 -5.890879
S -14.723291 17.647066 -2.947926
S -17.666245 17.647066 -0.004972
S -17.666245 20.590019 2.937981
S -14.723291 20.590019 -0.004972
S -14.723291 17.647066 2.937981
S -17.666245 17.647066 5.880935
S -14.723291 20.590019 5.880935
S -14.723291 17.647066 8.823888
S -14.723291 23.532973 -2.947926
S -17.666245 23.532973 -0.004972
S -14.723291 23.532973 2.937981
S -14.723291 23.532973 8.823888
S -11.780338 -20.611329 -8.833833
S -8.837385 -20.611329 -11.776786
S -8.837385 -23.554283 -8.833833
S -11.780338 -23.554283 -5.890879
S -11.780338 -20.611329 -2.947926
S -8.837385 -20.611329 -5.890879
S -8.837385 -23.554283 -2.947926
S -11.780338 -23.554283 -0.004972
S -11.780338 -20.611329 2.937981
S -8.837385 -20.611329 -0.004972
S -8.837385 -23.554283 2.937981
S -11.780338 -23.554283 5.880935
S -11.780338 -20.611329 8.823888
S -8.837385 -20.611329 5.880935
S -8.837385 -23.554283 8.823888
S -8.837385 -20.611329 11.766841
S -11.780338 -14.725422 -14.719740
S -8.837385 -14.725422 -17.662693
S -8.837385 -17.668376 -14.719740
S -11.780338 -17.668376 -11.776786
S -11.780338 -14.725422 -8.833833
S -8.837385 -14.725422 -11.776786
S -8.837385 -17.668376 -8.833833
S -11.780338 -17.668376 -5.890879
S -11.780338 -14.725422 -2.947926
S -8.837385 -14.725422 -5.890879
S -8.837385 -17.668376 -2.947926
S -11.780338 -17.668376 -0.004972
S -11.780338 -14.725422 2.937981
S -8.837385 -14.725422 -0.004972
S -8.837385 -17.668376 2.937981
S -11.780338 -17.668376 5.880935
S -11.780338 -14.725422 8.823888
S -8.837385 -14.725422 5.880935
S -8.837385 -17.668376 8.823888
S -11.780338 -17.668376 11.766841
S -11.780338 -14.725422 14.709795
S -8.837385 -14.725422 11.766841
S -8.837385 -17.668376 14.709795
S -8.837385 -14.725422 17.652748
S -11.780338 -8.839516 -20.605647
S -8.837385 -8.839516 -23.548600
S -8.837385 -11.782469 -20.605647
S -11.780338 -11.782469 -17.662693
S -11.780338 -8.839516 -14.719740
S -8.837385 -8.839516 -17.662693
S -8.837385 -11.782469 -14.719740
S -11.780338 -11.782469 -11.776786
S -11.780338 -8.839516 -8.833833
S -8.837385 -8.839516 -11.776786
S -8.837385 -11.782469 -8.833833
S -11.780338 -11.782469 -5.890879
S -11.780338 -8.839516 -2.947926
S -8.837385 -8.839516 -5.890879
S -8.837385 -11.782469 -2.947926
S -11.780338 -11.782469 -0.004972
S -11.780338 -8.839516 2.937981
S -8.837385 -8.839516 -0.004972
S -8.837385 -11.782469 2.937981
S -11.780338 -11.782469 5.880935
S -11.780338 -8.839516 8.823888
S -8.837385 -8.839516 5.880935
S -8.837385 -11.782469 8.823888
S -11.780338 -11.782469 11.766841
S -11.780338 -8.839516 14.709795
S -8.837385 -8.839516 11.766841
S -8.837385 -11.782469 14.709795
S -11.780338 -11.782469 17.652748
S -11.780338 -8.839516 20.595702
S -8.837385 -8.839516 17.652748
S -8.837385 -11.782469 20.595702
S -8.837385 -8.839516 23.538655
S -11.780338 -5.896562 -23.548600
S -11.780338 -2.953609 -20.605647
S -8.837385 -2.953609 -23.548600
S -8.837385 -5.896562 -20.605647
S -11.780338 -5.896562 -17.662693
S -11.780338 -2.953609 -14.719740
S -8.837385 -2.953609 -17.662693
S -8.837385 -5.896562 -14.719740
S -11.780338 -5.896562 -11.776786
S -11.780338 -2.953609 -8.833833
S -8.837385 -2.953609 -11.776786
S -8.837385 -5.896562 -8.833833
S -11.780338 -5.896562 -5.890879
S -11.780338 -2.953609 -2.947926
S -8.837385 -2.953609 -5.890879
S -8.837385 -5.896562 -2.947926
S -11.780338 -5.896562 -0.004972
S -11.780338 -2.953609 2.937981
S -8.837385 -2.953609 -0.004972
S -8.837385 -5.896562 2.937981
S -11.780338 -5.896562 5.880935
S -11.780338 -2.953609 8.823888
S -8.837385 -2.953609 5.880935
S -8.837385 -5.896562 8.823888
S -11.780338 -5.896562 11.766841
S -11.780338 -2.953609 14.709795
S -8.837385 -2.953609 11.766841
S -8.837385 -5.896562 14.709795
S -11.780338 -5.896562 17.652748
S -11.780338 -2.953609 20.595702
S -8.837385 -2.953609 17.652748
S -8.837385 -5.896562 20.595702
S -11.780338 -5.896562 23.538655
S -8.837385 -2.953609 23.538655
S -11.780338 -0.010655 -23.548600
S -11.780338 2.932298 -20.605647
S -8.837385 2.932298 -23.548600
S -8.837385 -0.010655 -20.605647
S -11.780338 -0.010655 -17.662693
S -11.780338 2.932298 -14.719740
S -8.837385 2.932298 -17.662693
S -8.837385 -0.010655 -14.719740
S -11.780338 -0.010655 -11.776786
S -11.780338 2.932298 -8.833833
S -8.837385 2.932298 -11.776786
S -8.837385 -0.010655 -8.833833
S -11.780338 -0.010655 -5.890879
S -11.780338 2.932298 -2.947926
S -8.837385 2.932298 -5.890879
S -8.837385 -0.010655 -2.947926
S -11.780338 -0.010655 -0.004972
S -11.780338 2.932298 2.937981
S -8.837385 2.932298 -0.004972
S -8.837385 -0.010655 2.937981
S -11.780338 -0.010655 5.880935
S -11.780338 2.932298 8.823888
S -8.837385 2.932298 5.880935
S -8.837385 -0.010655 8.823888
S -11.780338 -0.010655 11.766841
S -11.780338 2.932298 14.709795
S -8.837385 2.932298 11.766841
S -8.837385 -0.010655 14.709795
S -11.780338 -0.010655 17.652748
S -11.780338 2.932298 20.595702
S -8.837385 2.932298 17.652748
S -8.837385 -0.010655 20.595702
S -11.780338 -0.010655 23.538655
S -8.837385 2.932298 23.538655
S -11.780338 5.875252 -23.548600
S -11.780338 8.818205 -20.605647
S -8.837385 8.818205 -23.548600
S -8.837385 5.875252 -20.605647
S -11.780338 5.875252 -17.662693
S -11.780338 8.818205 -14.719740
S -8.837385 8.818205 -17.662693
S -8.837385 5.875252 -14.719740
S -11.780338 5.875252 -11.776786
S -11.780338 8.818205 -8.833833
S -8.837385 8.818205 -11.776786
S -8.837385 5.875252 -8.833833
S -11.780338 5.875252 -5.890879
S -11.780338 8.818205 -2.947926
S -8.837385 8.818205 -5.890879
S -8.837385 5.875252 -2.947926
S -11.780338 5.875252 -0.004972
S -11.780338 8.818205 2.937981
S -8.837385 8.818205 -0.004972
S -8.837385 5.875252 2.937981
S -11.780338 5.875252 5.880935
S -11.780338 8.818205 8.823888
S -8.837385 8.818205 5.880935
S -8.837385 5.875252 8.823888
S -11.780338 5.875252 11.766841
S -11.780338 8.818205 14.709795
S -8.837385 8.818205 11.766841
S -8.837385 5.875252 14.709795
S -11.780338 5.875252 17.652748
S -11.780338 8.818205 20.595702
S -8.837385 8.818205 17.652748
S -8.837385 5.875252 20.595702
S -11.780338 5.875252 23.538655
S -8.837385 8.818205 23.538655
S -8.837385 11.761159 -20.605647
S -11.780338 11.761159 -17.662693
S -11.780338 14.704112 -14.719740
S -8.837385 14.704112 -17.662693
S -8.837385 11.761159 -14.719740
S -11.780338 11.761159 -11.776786
S -11.780338 14.704112 -8.833833
S -8.837385 14.704112 -11.776786
S -8.837385 11.761159 -8.833833
S -11.780338 11.761159 -5.890879
S -11.780338 14.704112 -2.947926
S -8.837385 14.704112 -5.890879
S -8.837385 11.761159 -2.947926
S -11.780338 11.761159 -0.004972
S -11.780338 14.704112 2.937981
S -8.837385 14.704112 -0.004972
S -8.837385 11.761159 2.937981
S -11.780338 11.761159 5.880935
S -11.780338 14.704112 8.823888
S -8.837385 14.704112 5.880935
S -8.837385 11.761159 8.823888
S -11.780338 11.761159 11.766841
S -11.780338 14.704112 14.709795
S -8.837385 14.704112 11.766841
S -8.837385 11.761159 14.709795
S -11.780338 11.761159 17.652748
S -8.837385 14.704112 17.652748
S -8.837385 11.761159 20.595702
S -8.837385 17.647066 -14.719740
S -11.780338 17.647066 -11.776786
S -11.780338 20.590019 -8.833833
S -8.837385 20.590019 -11.776786
S -8.837385 17.647066 -8.833833
S -11.780338 17.647066 -5.890879
S -11.780338 20.590019 -2.947926
S -8.837385 20.590019 -5.890879
S -8.837385 17.647066 -2.947926
S -11.780338 17.647066 -0.004972
S -11.780338 20.590019 2.937981
S -8.837385 20.590019 -0.004972
S -8.837385 17.647066 2.937981
S -11.780338 17.647066 5.880935
S -11.780338 20.590019 8.823888
S -8.837385 20.590019 5.880935
S -8.837385 17.647066 8.823888
S -11.780338 17.647066 11.766841
S -8.837385 20.590019 11.766841
S -8.837385 17.647066 14.709795
S -8.837385 23.532973 -8.833833
S -11.780338 23.532973 -5.890879
S -8.837385 23.532973 -2.947926
S -11.780338 23.532973 -0.004972
S -8.837385 23.532973 2.937981
S -11.780338 23.532973 5.880935
S -8.837385 23.532973 8.823888
S -2.951478 -23.554283 -20.605647
S -5.894431 -20.611329 -14.719740
S -2.951478 -20.611329 -17.662693
S -2.951478 -23.554283 -14.719740
S -5.894431 -23.554283 -11.776786
S -5.894431 -20.611329 -8.833833
S -2.951478 -20.611329 -11.776786
S -2.951478 -23.554283 -8.833833
S -5.894431 -23.554283 -5.890879
S -5.894431 -20.611329 -2.947926
S -2.951478 -20.611329 -5.890879
S -2.951478 -23.554283 -2.947926
S -5.894431 -23.554283 -0.004972
S -5.894431 -20.611329 2.937981
S -2.951478 -20.611329 -0.004972
S -2.951478 -23.554283 2.937981
S -5.894431 -23.554283 5.880935
S -5.894431 -20.611329 8.823888
S -2.951478 -20.611329 5.880935
S -2.951478 -23.554283 8.823888
S -5.894431 -23.554283 11.766841
S -5.894431 -20.611329 14.709795
S -2.951478 -20.611329 11.766841
S -2.951478 -23.554283 14.709795
S -2.951478 -20.611329 17.652748
S -5.894431 -17.668376 -23.548600
S -5.894431 -14.725422 -20.605647
S -2.951478 -14.725422 -23.548600
S -2.951478 -17.668376 -20.605647
S -5.894431 -17.668376 -17.662693
S -5.894431 -14.725422 -14.719740
S -2.951478 -14.725422 -17.662693
S -2.951478 -17.668376 -14.719740
S -5.894431 -17.668376 -11.776786
S -5.894431 -14.725422 -8.833833
S -2.951478 -14.725422 -11.776786
S -2.951478 -17.668376 -8.833833
S -5.894431 -17.668376 -5.890879
S -5.894431 -14.725422 -2.947926
S -2.951478 -14.725422 -5.890879
S -2.951478 -17.668376 -2.947926
S -5.894431 -17.668376 -0.004972
S -5.894431 -14.725422 2.937981
S -2.951478 -14.725422 -0.004972
S -2.951478 -17.668376 2.937981
S -5.894431 -17.668376 5.880935
S -5.894431 -14.725422 8.823888
S -2.951478 -14.725422 5.880935
S -2.951478 -17.668376 8.823888
S -5.894431 -17.668376 11.766841
S -5.894431 -14.725422 14.709795
S -2.951478 -14.725422 11.766841
S -2.951478 -17.668376 14.709795
S -5.894431 -17.668376 17.652748
S -5.894431 -14.725422 20.595702
S -2.951478 -14.725422 17.652748
S -2.951478 -17.668376 20.595702
S -2.951478 -14.725422 23.538655
S -5.894431 -11.782469 -23.548600
S -5.894431 -8.839516 -20.605647
S -2.951478 -8.839516 -23.548600
S -2.951478 -11.782469 -20.605647
S -5.894431 -11.782469 -17.662693
S -5.894431 -8.839516 -14.719740
S -2.951478 -8.839516 -17.662693
S -2.951478 -11.782469 -14.719740
S -5.894431 -11.782469 -11.776786
S -5.894431 -8.839516 -8.833833
S -2.951478 -8.839516 -11.776786
S -2.951478 -11.782469 -8.833833
S -5.894431 -11.782469 -5.890879
S -5.894431 -8.839516 -2.947926
S -2.951478 -8.839516 -5.890879
S -2.951478 -11.782469 -2.947926
S -5.894431 -11.782469 -0.004972
S -5.894431 -8.839516 2.937981
S -2.951478 -8.839516 -0.004972
S -2.951478 -11.782469 2.937981
S -5.894431 -11.782469 5.880935
S -5.894431 -8.839516 8.823888
S -2.951478 -8.839516 5.880935
S -2.951478 -11.782469 8.823888
S -5.894431 -11.782469 11.766841
S -5.894431 -8.839516 14.709795
S -2.951478 -8.839516 11.766841
S -2.951478 -11.782469 14.709795
S -5.894431 -11.782469 17.652748
S -5.894431 -8.839516 20.595702
S -2.951478 -8.839516 17.652748
S -2.951478 -11.782469 20.595702
S -5.894431 -11.782469 23.538655
S -2.951478 -8.839516 23.538655
S -5.894431 -5.896562 -23.548600
S -5.894431 -2.953609 -20.605647
S -2.951478 -2.953609 -23.548600
S -2.951478 -5.896562 -20.605647
S -5.894431 -5.896562 -17.662693
S -5.894431 -2.953609 -14.719740
S -2.951478 -2.953609 -17.662693
S -2.951478 -5.896562 -14.719740
S -5.894431 -5.896562 -11.776786
S -5.894431 -2.953609 -8.833833
S -2.951478 -2.953609 -11.776786
S -2.951478 -5.896562 -8.833833
S -5.894431 -5.896562 -5.890879
S -5.894431 -2.953609 -2.947926
S -2.951478 -2.953609 -5.890879
S -2.951478 -5.896562 -2.947926
S -5.894431 -5.896562 -0.004972
S -5.894431 -2.953609 2.937981
S -2.951478 -2.953609 -0.004972
S -2.951478 -5.896562 2.937981
S -5.894431 -5.896562 5.880935
S -5.894431 -2.953609 8.823888
S -2.951478 -2.953609 5.880935
S -2.951478 -5.896562 8.823888
S -5.894431 -5.896562 11.766841
S -5.894431 -2.953609 14.709795
S -2.951478 -2.953609 11.766841
S -2.951478 -5.896562 14.709795
S -5.894431 -5.896562 17.652748
S -5.894431 -2.953609 20.595702
S -2.951478 -2.953609 17.652748
S -2.951478 -5.896562 20.595702
S -5.894431 -5.896562 23.538655
S -2.951478 -2.953609 23.538655
S -5.894431 -0.010655 -23.548600
S -5.894431 2.932298 -20.605647
S -2.951478 2.932298 -23.548600
S -2.951478 -0.010655 -20.605647
S -5.894431 -0.010655 -17.662693
S -5.894431 2.932298 -14.719740
S -2.951478 2.932298 -17.662693
S -2.951478 -0.010655 -14.719740
S -5.894431 -0.010655 -11.776786
S -5.894431 2.932298 -8.833833
S -2.951478 2.932298 -11.776786
S -2.951478 -0.010655 -8.833833
S -5.894431 -0.010655 -5.890879
S -5.894431 2.932298 -2.947926
S -2.951478 2.932298 -5.890879
S -2.951478 -0.010655 -2.947926
S -5.894431 -0.010655 -0.004972
S -5.894431 2.932298 2.937981
S -2.951478 2.932298 -0.004972
S -2.951478 -0.010655 2.937981
S -5.894431 -0.010655 5.880935
S -5.894431 2.932298 8.823888
S -2.951478 2.932298 5.880935
S -2.951478 -0.010655 8.823888
S -5.894431 -0.010655 11.766841
S -5.894431 2.932298 14.709795
S -2.951478 2.932298 11.766841
S -2.951478 -0.010655 14.709795
S -5.894431 -0.010655 17.652748
S -5.894431 2.932298 20.595702
S -2.951478 2.932298 17.652748
S -2.951478 -0.010655 20.595702
S -5.894431 -0.010655 23.538655
S -2.951478 2.932298 23.538655
S -5.894431 5.875252 -23.548600
S -5.894431 8.818205 -20.605647
S -2.951478 8.818205 -23.548600
S -2.951478 5.875252 -20.605647
S -5.894431 5.875252 -17.662693
S -5.894431 8.818205 -14.719740
S -2.951478 8.818205 -17.662693
S -2.951478 5.875252 -14.719740
S -5.894431 5.875252 -11.776786
S -5.894431 8.818205 -8.833833
S -2.951478 8.818205 -11.776786
S -2.951478 5.875252 -8.833833
S -5.894431 5.875252 -5.890879
S -5.894431 8.818205 -2.947926
S -2.951478 8.818205 -5.890879
S -2.951478 5.875252 -2.947926
S -5.894431 5.875252 -0.004972
S -5.894431 8.818205 2.937981
S -2.951478 8.818205 -0.004972
S -2.951478 5.875252 2.937981
S -5.894431 5.875252 5.880935
S -5.894431 8.818205 8.823888
S -2.951478 8.818205 5.880935
S -2.951478 5.875252 8.823888
S -5.894431 5.875252 11.766841
S -5.894431 8.818205 14.709795
S -2.951478 8.818205 11.766841
S -2.951478 5.875252 14.709795
S -5.894431 5.875252 17.652748
S -5.894431 8.818205 20.595702
S -2.951478 8.818205 17.652748
S -2.951478 5.875252 20.595702
S -5.894431 5.875252 23.538655
S -2.951478 8.818205 23.538655
S -5.894431 11.761159 -23.548600
S -5.894431 14.704112 -20.605647
S -2.951478 14.704112 -23.548600
S -2.951478 11.761159 -20.605647
S -5.894431 11.761159 -17.662693
S -5.894431 14.704112 -14.719740
S -2.951478 14.704112 -17.662693
S -2.951478 11.761159 -14.719740
S -5.894431 11.761159 -11.776786
S -5.894431 14.704112 -8.833833
S -2.951478 14.704112 -11.776786
S -2.951478 11.761159 -8.833833
S -5.894431 11.761159 -5.890879
S -5.894431 14.704112 -2.947926
S -2.951478 14.704112 -5.890879
S -2.951478 11.761159 -2.947926
S -5.894431 11.761159 -0.004972
S -5.894431 14.704112 2.937981
S -2.951478 14.704112 -0.004972
S -2.951478 11.761159 2.937981
S -5.894431 11.761159 5.880935
S -5.894431 14.704112 8.823888
S -2.951478 14.704112 5.880935
S -2.951478 11.761159 8.823888
S -5.894431 11.761159 11.766841
S -5.894431 14.704112 14.709795
S -2.951478 14.704112 11.766841
S -2.951478 11.761159 14.709795
S -5.894431 11.761159 17.652748
S -5.894431 14.704112 20.595702
S -2.951478 14.704112 17.652748
S -2.951478 11.761159 20.595702
S -5.894431 11.761159 23.538655
S -2.951478 14.704112 23.538655
S -2.951478 17.647066 -20.605647
S -5.894431 17.647066 -17.662693
S -5.894431 20.590019 -14.719740
S -2.951478 20.590019 -17.662693
S -2.951478 17.647066 -14.719740
S -5.894431 17.647066 -11.776786
S -5.894431 20.590019 -8.833833
S -2.951478 20.590019 -11.776786
S -2.951478 17.647066 -8.833833
S -5.894431 17.647066 -5.890879
S -5.894431 20.590019 -2.947926
S -2.951478 20.590019 -5.890879
S -2.951478 17.647066 -2.947926
S -5.894431 17.647066 -0.004972
S -5.894431 20.590019 2.937981
S -2.951478 20.590019 -0.004972
S -2.951478 17.647066 2.937981
S -5.894431 17.647066 5.880935
S -5.894431 20.590019 8.823888
S -2.951478 20.590019 5.880935
S -2.951478 17.647066 8.823888
S -5.894431 17.647066 11.766841
S -5.894431 20.590019 14.709795
S -2.951478 20.590019 11.766841
S -2.951478 17.647066 14.709795
S -5.894431 17.647066 17.652748
S -2.951478 20.590019 17.652748
S -2.951478 17.647066 20.595702
S -2.951478 20.590019 23.538655
S -2.951478 23.532973 -14.719740
S -5.894431 23.532973 -11.776786
S -2.951478 23.532973 -8.833833
S -5.894431 23.532973 -5.890879
S -2.951478 23.532973 -2.947926
S -5.894431 23.532973 -0.004972
S -2.951478 23.532973 2.937981
S -5.894431 23.532973 5.880935
S -2.951478 23.532973 8.823888
S -5.894431 23.532973 11.766841
S -2.951478 23.532973 14.709795
S -5.894431 23.532973 17.652748
S -0.008524 -20.611329 -20.605647
S -0.008524 -23.554283 -17.662693
S -0.008524 -20.611329 -14.719740
S 2.934429 -20.611329 -17.662693
S 2.934429 -23.554283 -14.719740
S -0.008524 -23.554283 -11.776786
S -0.008524 -20.611329 -8.833833
S 2.934429 -20.611329 -11.776786
S 2.934429 -23.554283 -8.833833
S -0.008524 -23.554283 -5.890879
S -0.008524 -20.611329 -2.947926
S 2.934429 -20.611329 -5.890879
S 2.934429 -23.554283 -2.947926
S -0.008524 -23.554283 -0.004972
S -0.008524 -20.611329 2.937981
S 2.934429 -20.611329 -0.004972
S 2.934429 -23.554283 2.937981
S -0.008524 -23.554283 5.880935
S -0.008524 -20.611329 8.823888
S 2.934429 -20.611329 5.880935
S 2.934429 -23.554283 8.823888
S -0.008524 -23.554283 11.766841
S -0.008524 -20.611329 14.709795
S 2.934429 -20.611329 11.766841
S 2.934429 -23.554283 14.709795
S -0.008524 -23.554283 17.652748
S -0.008524 -20.611329 20.595702
S 2.934429 -20.611329 17.652748
S 2.934429 -23.554283 20.595702
S -0.008524 -17.668376 -23.548600
S -0.008524 -14.725422 -20.605647
S 2.934429 -14.725422 -23.548600
S 2.934429 -17.668376 -20.605647
S -0.008524 -17.668376 -17.662693
S -0.008524 -14.725422 -14.719740
S 2.934429 -14.725422 -17.662693
S 2.934429 -17.668376 -14.719740
S -0.008524 -17.668376 -11.776786
S -0.008524 -14.725422 -8.833833
S 2.934429 -14.725422 -11.776786
S 2.934429 -17.668376 -8.833833
S -0.008524 -17.668376 -5.890879
S -0.008524 -14.725422 -2.947926
S 2.934429 -14.725422 -5.890879
S 2.934429 -17.668376 -2.947926
S -0.008524 -17.668376 -0.004972
S -0.008524 -14.725422 2.937981
S 2.934429 -14.725422 -0.004972
S 2.934429 -17.668376 2.937981
S -0.008524 -17.668376 5.880935
S -0.008524 -14.725422 8.823888
S 2.934429 -14.725422 5.880935
S 2.934429 -17.668376 8.823888
S -0.008524 -17.668376 11.766841
S -0.008524 -14.725422 14.709795
S 2.934429 -14.725422 11.766841
S 2.934429 -17.668376 14.709795
S -0.008524 -17.668376 17.652748
S -0.008524 -14.725422 20.595702
S 2.934429 -14.725422 17.652748
S 2.934429 -17.668376 20.595702
S -0.008524 -17.668376 23.538655
S 2.934429 -14.725422 23.538655
S -0.008524 -11.782469 -23.548600
S -0.008524 -8.839516 -20.605647
S 2.934429 -8.839516 -23.548600
S 2.934429 -11.782469 -20.605647
S -0.008524 -11.782469 -17.662693
S -0.008524 -8.839516 -14.719740
S 2.934429 -8.839516 -17.662693
S 2.934429 -11.782469 -14.719740
S -0.008524 -11.782469 -11.776786
S -0.008524 -8.839516 -8.833833
S 2.934429 -8.839516 -11.776786
S 2.934429 -11.782469 -8.833833
S -0.008524 -11.782469 -5.890879
S -0.008524 -8.839516 -2.947926
S 2.934429 -8.839516 -5.890879
S 2.934429 -11.782469 -2.947926
S -0.008524 -11.782469 -0.004972
S -0.008524 -8.839516 2.937981
S 2.934429 -8.839516 -0.004972
S 2.934429 -11.782469 2.937981
S -0.008524 -11.782469 5.880935
S -0.008524 -8.839516 8.823888
S 2.934429 -8.839516 5.880935
S 2.934429 -11.782469 8.823888
S -0.008524 -11.782469 11.766841
S -0.008524 -8.839516 14.709795
S 2.934429 -8.839516 11.766841
S 2.934429 -11.782469 14.709795
S -0.008524 -11.782469 17.652748
S -0.008524 -8.839516 20.595702
S 2.934429 -8.839516 17.652748
S 2.934429 -11.782469 20.595702
S -0.008524 -11.782469 23.538655
S 2.934429 -8.839516 23.538655
S -0.008524 -5.896562 -23.548600
S -0.008524 -2.953609 -20.605647
S 2.934429 -2.953609 -23.548600
S 2.934429 -5.896562 -20.605647
S -0.008524 -5.896562 -17.662693
S -0.008524 -2.953609 -14.719740
S 2.934429 -2.953609 -17.662693
S 2.934429 -5.896562 -14.719740
S -0.008524 -5.896562 -11.776786
S -0.008524 -2.953609 -8.833833
S 2.934429 -2.953609 -11.776786
S 2.934429 -5.896562 -8.833833
S -0.008524 -5.896562 -5.890879
S -0.008524 -2.953609 -2.947926
S 2.934429 -2.953609 -5.890879
S 2.934429 -5.896562 -2.947926
S -0.008524 -5.896562 -0.004972
S -0.008524 -2.953609 2.937981
S 2.934429 -2.953609 -0.004972
S 2.934429 -5.896562 2.937981
S -0.008524 -5.896562 5.880935
S -0.008524 -2.953609 8.823888
S 2.934429 -2.953609 5.880935
S 2.934429 -5.896562 8.823888
S -0.008524 -5.896562 11.766841
S -0.008524 -2.953609 14.709795
S 2.934429 -2.953609 11.766841
S 2.934429 -5.896562 14.709795
S -0.008524 -5.896562 17.652748
S -0.008524 -2.953609 20.595702
S 2.934429 -2.953609 17.652748
S 2.934429 -5.896562 20.595702
S -0.008524 -5.896562 23.538655
S 2.934429 -2.953609 23.538655
S -0.008524 -0.010655 -23.548600
S -0.008524 2.932298 -20.605647
S 2.934429 2.932298 -23.548600
S 2.934429 -0.010655 -20.605647
S -0.008524 -0.010655 -17.662693
S -0.008524 2.932298 -14.719740
S 2.934429 2.932298 -17.662693
S 2.934429 -0.010655 -14.719740
S -0.008524 -0.010655 -11.776786
S -0.008524 2.932298 -8.833833
S 2.934429 2.932298 -11.776786
S 2.934429 -0.010655 -8.833833
S -0.008524 -0.010655 -5.890879
S -0.008524 2.932298 -2.947926
S 2.934429 2.932298 -5.890879
S 2.934429 -0.010655 -2.947926
S -0.008524 -0.010655 -0.004972
S -0.008524 2.932298 2.937981
S 2.934429 2.932298 -0.004972
S 2.934429 -0.010655 2.937981
S -0.008524 -0.010655 5.880935
S -0.008524 2.932298 8.823888
S 2.934429 2.932298 5.880935
S 2.934429 -0.010655 8.823888
S -0.008524 -0.010655 11.766841
S -0.008524 2.932298 14.709795
S 2.934429 2.932298 11.766841
S 2.934429 -0.010655 14.709795
S -0.008524 -0.010655 17.652748
S -0.008524 2.932298 20.595702
S 2.934429 2.932298 17.652748
S 2.934429 -0.010655 20.595702
S -0.008524 -0.010655 23.538655
S 2.934429 2.932298 23.538655
S -0.008524 5.875252 -23.548600
S -0.008524 8.818205 -20.605647
S 2.934429 8.818205 -23.548600
S 2.934429 5.875252 -20.605647
S -0.008524 5.875252 -17.662693
S -0.008524 8.818205 -14.719740
S 2.934429 8.818205 -17.662693
S 2.934429 5.875252 -14.719740
S -0.008524 5.875252 -11.776786
S -0.008524 8.818205 -8.833833
S 2.934429 8.818205 -11.776786
S 2.934429 5.875252 -8.833833
S -0.008524 5.875252 -5.890879
S -0.008524 8.818205 -2.947926
S 2.934429 8.818205 -5.890879
S 2.934429 5.875252 -2.947926
S -0.008524 5.875252 -0.004972
S -0.008524 8.818205 2.937981
S 2.934429 8.818205 -0.004972
S 2.934429 5.875252 2.937981
S -0.008524 5.875252 5.880935
S -0.008524 8.818205 8.823888
S 2.934429 8.818205 5.880935
S 2.934429 5.875252 8.823888
S -0.008524 5.875252 11.766841
S -0.008524 8.818205 14.709795
S 2.934429 8.818205 11.766841
S 2.934429 5.875252 14.709795
S -0.008524 5.875252 17.652748
S -0.008524 8.818205 20.595702
S 2.934429 8.818205 17.652748
S 2.934429 5.875252 20.595702
S -0.008524 5.875252 23.538655
S 2.934429 8.818205 23.538655
S -0.008524 11.761159 -23.548600
S -0.008524 14.704112 -20.605647
S 2.934429 14.704112 -23.548600
S 2.934429 11.761159 -20.605647
S -0.008524 11.761159 -17.662693
S -0.008524 14.704112 -14.719740
S 2.934429 14.704112 -17.662693
S 2.934429 11.761159 -14.719740
S -0.008524 11.761159 -11.776786
S -0.008524 14.704112 -8.833833
S 2.934429 14.704112 -11.776786
S 2.934429 11.761159 -8.833833
S -0.008524 11.761159 -5.890879
S -0.008524 14.704112 -2.947926
S 2.934429 14.704112 -5.890879
S 2.934429 11.761159 -2.947926
S -0.008524 11.761159 -0.004972
S -0.008524 14.704112 2.937981
S 2.934429 14.704112 -0.004972
S 2.934429 11.761159 2.937981
S -0.008524 11.761159 5.880935
S -0.008524 14.704112 8.823888
S 2.934429 14.704112 5.880935
S 2.934429 11.761159 8.823888
S -0.008524 11.761159 11.766841
S -0.008524 14.704112 14.709795
S 2.934429 14.704112 11.766841
S 2.934429 11.761159 14.709795
S -0.008524 11.761159 17.652748
S -0.008524 14.704112 20.595702
S 2.934429 14.704112 17.652748
S 2.934429 11.761159 20.595702
S -0.008524 11.761159 23.538655
S 2.934429 14.704112 23.538655
S -0.008524 17.647066 -23.548600
S -0.008524 20.590019 -20.605647
S 2.934429 20.590019 -23.548600
S 2.934429 17.647066 -20.605647
S -0.008524 17.647066 -17.662693
S -0.008524 20.590019 -14.719740
S 2.934429 20.590019 -17.662693
S 2.934429 17.647066 -14.719740
S -0.008524 17.647066 -11.776786
S -0.008524 20.590019 -8.833833
S 2.934429 20.590019 -11.776786
S 2.934429 17.647066 -8.833833
S -0.008524 17.647066 -5.890879
S -0.008524 20.590019 -2.947926
S 2.934429 20.590019 -5.890879
S 2.934429 17.647066 -2.947926
S -0.008524 17.647066 -0.004972
S -0.008524 20.590019 2.937981
S 2.934429 20.590019 -0.004972
S 2.934429 17.647066 2.937981
S -0.008524 17.647066 5.880935
S -0.008524 20.590019 8.823888
S 2.934429 20.590019 5.880935
S 2.934429 17.647066 8.823888
S -0.008524 17.647066 11.766841
S -0.008524 20.590019 14.709795
S 2.934429 20.590019 11.766841
S 2.934429 17.647066 14.709795
S -0.008524 17.647066 17.652748
S -0.008524 20.590019 20.595702
S 2.934429 20.590019 17.652748
S 2.934429 17.647066 20.595702
S -0.008524 17.647066 23.538655
S -0.008524 23.532973 -17.662693
S 2.934429 23.532973 -14.719740
S -0.008524 23.532973 -11.776786
S 2.934429 23.532973 -8.833833
S -0.008524 23.532973 -5.890879
S 2.934429 23.532973 -2.947926
S -0.008524 23.532973 -0.004972
S 2.934429 23.532973 2.937981
S -0.008524 23.532973 5.880935
S 2.934429 23.532973 8.823888
S -0.008524 23.532973 11.766841
S 2.934429 23.532973 14.709795
S -0.008524 23.532973 17.652748
S 5.877383 -20.611329 -14.719740
S 5.877383 -23.554283 -11.776786
S 5.877383 -20.611329 -8.833833
S 8.820336 -20.611329 -11.776786
S 8.820336 -23.554283 -8.833833
S 5.877383 -23.554283 -5.890879
S 5.877383 -20.611329 -2.947926
S 8.820336 -20.611329 -5.890879
S 8.820336 -23.554283 -2.947926
S 5.877383 -23.554283 -0.004972
S 5.877383 -20.611329 2.937981
S 8.820336 -20.611329 -0.004972
S 8.820336 -23.554283 2.937981
S 5.877383 -23.554283 5.880935
S 5.877383 -20.611329 8.823888
S 8.820336 -20.611329 5.880935
S 8.820336 -23.554283 8.823888
S 5.877383 -23.554283 11.766841
S 5.877383 -20.611329 14.709795
S 8.820336 -20.611329 11.766841
S 5.877383 -14.725422 -20.605647
S 5.877383 -17.668376 -17.662693
S 5.877383 -14.725422 -14.719740
S 8.820336 -14.725422 -17.662693
S 8.820336 -17.668376 -14.719740
S 5.877383 -17.668376 -11.776786
S 5.877383 -14.725422 -8.833833
S 8.820336 -14.725422 -11.776786
S 8.820336 -17.668376 -8.833833
S 5.877383 -17.668376 -5.890879
S 5.877383 -14.725422 -2.947926
S 8.820336 -14.725422 -5.890879
S 8.820336 -17.668376 -2.947926
S 5.877383 -17.668376 -0.004972
S 5.877383 -14.725422 2.937981
S 8.820336 -14.725422 -0.004972
S 8.820336 -17.668376 2.937981
S 5.877383 -17.668376 5.880935
S 5.877383 -14.725422 8.823888
S 8.820336 -14.725422 5.880935
S 8.820336 -17.668376 8.823888
S 5.877383 -17.668376 11.766841
S 5.877383 -14.725422 14.709795
S 8.820336 -14.725422 11.766841
S 8.820336 -17.668376 14.709795
S 5.877383 -17.668376 17.652748
S 5.877383 -14.725422 20.595702
S 8.820336 -14.725422 17.652748
S 8.820336 -14.725422 23.538655
S 5.877383 -11.782469 -23.548600
S 5.877383 -8.839516 -20.605647
S 8.820336 -8.839516 -23.548600
S 8.820336 -11.782469 -20.605647
S 5.877383 -11.782469 -17.662693
S 5.877383 -8.839516 -14.719740
S 8.820336 -8.839516 -17.662693
S 8.820336 -11.782469 -14.719740
S 5.877383 -11.782469 -11.776786
S 5.877383 -8.839516 -8.833833
S 8.820336 -8.839516 -11.776786
S 8.820336 -11.782469 -8.833833
S 5.877383 -11.782469 -5.890879
S 5.877383 -8.839516 -2.947926
S 8.820336 -8.839516 -5.890879
S 8.820336 -11.782469 -2.947926
S 5.877383 -11.782469 -0.004972
S 5.877383 -8.839516 2.937981
S 8.820336 -8.839516 -0.004972
S 8.820336 -11.782469 2.937981
S 5.877383 -11.782469 5.880935
S 5.877383 -8.839516 8.823888
S 8.820336 -8.839516 5.880935
S 8.820336 -11.782469 8.823888
S 5.877383 -11.782469 11.766841
S 5.877383 -8.839516 14.709795
S 8.820336 -8.839516 11.766841
S 8.820336 -11.782469 14.709795
S 5.877383 -11.782469 17.652748
S 5.877383 -8.839516 20.595702
S 8.820336 -8.839516 17.652748
S 8.820336 -11.782469 20.595702
S 5.877383 -11.782469 23.538655
S 8.820336 -8.839516 23.538655
S 5.877383 -5.896562 -23.548600
S 5.877383 -2.953609 -20.605647
S 8.820336 -2.953609 -23.548600
S 8.820336 -5.896562 -20.605647
S 5.877383 -5.896562 -17.662693
S 5.877383 -2.953609 -14.719740
S 8.820336 -2.953609 -17.662693
S 8.820336 -5.896562 -14.719740
S 5.877383 -5.896562 -11.776786
S 5.877383 -2.953609 -8.833833
S 8.820336 -2.953609 -11.776786
S 8.820336 -5.896562 -8.833833
S 5.877383 -5.896562 -5.890879
S 5.877383 -2.953609 -2.947926
S 8.820336 -2.953609 -5.890879
S 8.820336 -5.896562 -2.947926
S 5.877383 -5.896562 -0.004972
S 5.877383 -2.953609 2.937981
S 8.820336 -2.953609 -0.004972
S 8.820336 -5.896562 2.937981
S 5.877383 -5.896562 5.880935
S 5.877383 -2.953609 8.823888
S 8.820336 -2.953609 5.880935
S 8.820336 -5.896562 8.823888
S 5.877383 -5.896562 11.766841
S 5.877383 -2.953609 14.709795
S 8.820336 -2.953609 11.766841
S 8.820336 -5.896562 14.709795
S 5.877383 -5.896562 17.652748
S 5.877383 -2.953609 20.595702
S 8.820336 -2.953609 17.652748
S 8.820336 -5.896562 20.595702
S 5.877383 -5.896562 23.538655
S 8.820336 -2.953609 23.538655
S 5.877383 -0.010655 -23.548600
S 5.877383 2.932298 -20.605647
S 8.820336 2.932298 -23.548600
S 8.820336 -0.010655 -20.605647
S 5.877383 -0.010655 -17.662693
S 5.877383 2.932298 -14.719740
S 8.820336 2.932298 -17.662693
S 8.820336 -0.010655 -14.719740
S 5.877383 -0.010655 -11.776786
S 5.877383 2.932298 -8.833833
S 8.820336 2.932298 -11.776786
S 8.820336 -0.010655 -8.833833
S 5.877383 -0.010655 -5.890879
S 5.877383 2.932298 -2.947926
S 8.820336 2.932298 -5.890879
S 8.820336 -0.010655 -2.947926
S 5.877383 -0.010655 -0.004972
S 5.877383 2.932298 2.937981
S 8.820336 2.932298 -0.004972
S 8.820336 -0.010655 2.937981
S 5.877383 -0.010655 5.880935
S 5.877383 2.932298 8.823888
S 8.820336 2.932298 5.880935
S 8.820336 -0.010655 8.823888
S 5.877383 -0.010655 11.766841
S 5.877383 2.932298 14.709795
S 8.820336 2.932298 11.766841
S 8.820336 -0.010655 14.709795
S 5.877383 -0.010655 17.652748
S 5.877383 2.932298 20.595702
S 8.820336 2.932298 17.652748
S 8.820336 -0.010655 20.595702
S 5.877383 -0.010655 23.538655
S 8.820336 2.932298 23.538655
S 5.877383 5.875252 -23.548600
S 5.877383 8.818205 -20.605647
S 8.820336 8.818205 -23.548600
S 8.820336 5.875252 -20.605647
S 5.877383 5.875252 -17.662693
S 5.877383 8.818205 -14.719740
S 8.820336 8.818205 -17.662693
S 8.820336 5.875252 -14.719740
S 5.877383 5.875252 -11.776786
S 5.877383 8.818205 -8.833833
S 8.820336 8.818205 -11.776786
S 8.820336 5.875252 -8.833833
S 5.877383 5.875252 -5.890879
S 5.877383 8.818205 -2.947926
S 8.820336 8.818205 -5.890879
S 8.820336 5.875252 -2.947926
S 5.877383 5.875252 -0.004972
S 5.877383 8.818205 2.937981
S 8.820336 8.818205 -0.004972
S 8.820336 5.875252 2.937981
S 5.877383 5.875252 5.880935
S 5.877383 8.818205 8.823888
S 8.820336 8.818205 5.880935
S 8.820336 5.875252 8.823888
S 5.877383 5.875252 11.766841
S 5.877383 8.818205 14.709795
S 8.820336 8.818205 11.766841
S 8.820336 5.875252 14.709795
S 5.877383 5.875252 17.652748
S 5.877383 8.818205 20.595702
S 8.820336 8.818205 17.652748
S 8.820336 5.875252 20.595702
S 5.877383 5.875252 23.538655
S 8.820336 8.818205 23.538655
S 5.877383 11.761159 -23.548600
S 5.877383 14.704112 -20.605647
S 8.820336 11.761159 -20.605647
S 5.877383 11.761159 -17.662693
S 5.877383 14.704112 -14.719740
S 8.820336 14.704112 -17.662693
S 8.820336 11.761159 -14.719740
S 5.877383 11.761159 -11.776786
S 5.877383 14.704112 -8.833833
S 8.820336 14.704112 -11.776786
S 8.820336 11.761159 -8.833833
S 5.877383 11.761159 -5.890879
S 5.877383 14.704112 -2.947926
S 8.820336 14.704112 -5.890879
S 8.820336 11.761159 -2.947926
S 5.877383 11.761159 -0.004972
S 5.877383 14.704112 2.937981
S 8.820336 14.704112 -0.004972
S 8.820336 11.761159 2.937981
S 5.877383 11.761159 5.880935
S 5.877383 14.704112 8.823888
S 8.820336 14.704112 5.880935
S 8.820336 11.761159 8.823888
S 5.877383 11.761159 11.766841
S 5.877383 14.704112 14.709795
S 8.820336 14.704112 11.766841
S 8.820336 11.761159 14.709795
S 5.877383 11.761159 17.652748
S 5.877383 14.704112 20.595702
S 8.820336 14.704112 17.652748
S 8.820336 11.761159 20.595702
S 5.877383 11.761159 23.538655
S 5.877383 17.647066 -17.662693
S 5.877383 20.590019 -14.719740
S 8.820336 17.647066 -14.719740
S 5.877383 17.647066 -11.776786
S 5.877383 20.590019 -8.833833
S 8.820336 20.590019 -11.776786
S 8.820336 17.647066 -8.833833
S 5.877383 17.647066 -5.890879
S 5.877383 20.590019 -2.947926
S 8.820336 20.590019 -5.890879
S 8.820336 17.647066 -2.947926
S 5.877383 17.647066 -0.004972
S 5.877383 20.590019 2.937981
S 8.820336 20.590019 -0.004972
S 8.820336 17.647066 2.937981
S 5.877383 17.647066 5.880935
S 5.877383 20.590019 8.823888
S 8.820336 20.590019 5.880935
S 8.820336 17.647066 8.823888
S 5.877383 17.647066 11.766841
S 5.877383 20.590019 14.709795
S 8.820336 20.590019 11.766841
S 8.820336 17.647066 14.709795
S 5.877383 17.647066 17.652748
S 8.820336 23.532973 -14.719740
S 5.877383 23.532973 -11.776786
S 8.820336 23.532973 -8.833833
S 5.877383 23.532973 -5.890879
S 8.820336 23.532973 -2.947926
S 5.877383 23.532973 -0.004972
S 8.820336 23.532973 2.937981
S 5.877383 23.532973 5.880935
S 8.820336 23.532973 8.823888
S 5.877383 23.532973 11.766841
S 11.763290 -20.611329 -8.833833
S 11.763290 -23.554283 -5.890879
S 11.763290 -20.611329 -2.947926
S 14.706243 -20.611329 -5.890879
S 14.706243 -23.554283 -2.947926
S 11.763290 -23.554283 -0.004972
S 11.763290 -20.611329 2.937981
S 14.706243 -20.611329 -0.004972
S 14.706243 -23.554283 2.937981
S 11.763290 -23.554283 5.880935
S 11.763290 -20.611329 8.823888
S 14.706243 -20.611329 5.880935
S 11.763290 -23.554283 11.766841
S 11.763290 -14.725422 -14.719740
S 11.763290 -17.668376 -11.776786
S 11.763290 -14.725422 -8.833833
S 14.706243 -14.725422 -11.776786
S 14.706243 -17.668376 -8.833833
S 11.763290 -17.668376 -5.890879
S 11.763290 -14.725422 -2.947926
S 14.706243 -14.725422 -5.890879
S 14.706243 -17.668376 -2.947926
S 11.763290 -17.668376 -0.004972
S 11.763290 -14.725422 2.937981
S 14.706243 -14.725422 -0.004972
S 14.706243 -17.668376 2.937981
S 11.763290 -17.668376 5.880935
S 11.763290 -14.725422 8.823888
S 14.706243 -14.725422 5.880935
S 14.706243 -17.668376 8.823888
S 11.763290 -17.668376 11.766841
S 11.763290 -14.725422 14.709795
S 14.706243 -14.725422 11.766841
S 11.763290 -8.839516 -20.605647
S 11.763290 -11.782469 -17.662693
S 11.763290 -8.839516 -14.719740
S 14.706243 -8.839516 -17.662693
S 14.706243 -11.782469 -14.719740
S 11.763290 -11.782469 -11.776786
S 11.763290 -8.839516 -8.833833
S 14.706243 -8.839516 -11.776786
S 14.706243 -11.782469 -8.833833
S 11.763290 -11.782469 -5.890879
S 11.763290 -8.839516 -2.947926
S 14.706243 -8.839516 -5.890879
S 14.706243 -11.782469 -2.947926
S 11.763290 -11.782469 -0.004972
S 11.763290 -8.839516 2.937981
S 14.706243 -8.839516 -0.004972
S 14.706243 -11.782469 2.937981
S 11.763290 -11.782469 5.880935
S 11.763290 -8.839516 8.823888
S 14.706243 -8.839516 5.880935
S 14.706243 -11.782469 8.823888
S 11.763290 -11.782469 11.766841
S 11.763290 -8.839516 14.709795
S 14.706243 -8.839516 11.766841
S 14.706243 -11.782469 14.709795
S 11.763290 -11.782469 17.652748
S 11.763290 -8.839516 20.595702
S 14.706243 -8.839516 17.652748
S 11.763290 -5.896562 -23.548600
S 11.763290 -2.953609 -20.605647
S 14.706243 -2.953609 -23.548600
S 14.706243 -5.896562 -20.605647
S 11.763290 -5.896562 -17.662693
S 11.763290 -2.953609 -14.719740
S 14.706243 -2.953609 -17.662693
S 14.706243 -5.896562 -14.719740
S 11.763290 -5.896562 -11.776786
S 11.763290 -2.953609 -8.833833
S 14.706243 -2.953609 -11.776786
S 14.706243 -5.896562 -8.833833
S 11.763290 -5.896562 -5.890879
S 11.763290 -2.953609 -2.947926
S 14.706243 -2.953609 -5.890879
S 14.706243 -5.896562 -2.947926
S 11.763290 -5.896562 -0.004972
S 11.763290 -2.953609 2.937981
S 14.706243 -2.953609 -0.004972
S 14.706243 -5.896562 2.937981
S 11.763290 -5.896562 5.880935
S 11.763290 -2.953609 8.823888
S 14.706243 -2.953609 5.880935
S 14.706243 -5.896562 8.823888
S 11.763290 -5.896562 11.766841
S 11.763290 -2.953609 14.709795
S 14.706243 -2.953609 11.766841
S 14.706243 -5.896562 14.709795
S 11.763290 -5.896562 17.652748
S 11.763290 -2.953609 20.595702
S 14.706243 -2.953609 17.652748
S 14.706243 -5.896562 20.595702
S 11.763290 -5.896562 23.538655
S 14.706243 -2.953609 23.538655
S 11.763290 -0.010655 -23.548600
S 11.763290 2.932298 -20.605647
S 14.706243 2.932298 -23.548600
S 14.706243 -0.010655 -20.605647
S 11.763290 -0.010655 -17.662693
S 11.763290 2.932298 -14.719740
S 14.706243 2.932298 -17.662693
S 14.706243 -0.010655 -14.719740
S 11.763290 -0.010655 -11.776786
S 11.763290 2.932298 -8.833833
S 14.706243 2.932298 -11.776786
S 14.706243 -0.010655 -8.833833
S 11.763290 -0.010655 -5.890879
S 11.763290 2.932298 -2.947926
S 14.706243 2.932298 -5.890879
S 14.706243 -0.010655 -2.947926
S 11.763290 -0.010655 -0.004972
S 11.763290 2.932298 2.937981
S 14.706243 2.932298 -0.004972
S 14.706243 -0.010655 2.937981
S 11.763290 -0.010655 5.880935
S 11.763290 2.932298 8.823888
S 14.706243 2.932298 5.880935
S 14.706243 -0.010655 8.823888
S 11.763290 -0.010655 11.766841
S 11.763290 2.932298 14.709795
S 14.706243 2.932298 11.766841
S 14.706243 -0.010655 14.709795
S 11.763290 -0.010655 17.652748
S 11.763290 2.932298 20.595702
S 14.706243 2.932298 17.652748
S 14.706243 -0.010655 20.595702
S 11.763290 -0.010655 23.538655
S 14.706243 2.932298 23.538655
S 11.763290 5.875252 -23.548600
S 11.763290 8.818205 -20.605647
S 14.706243 5.875252 -20.605647
S 11.763290 5.875252 -17.662693
S 11.763290 8.818205 -14.719740
S 14.706243 8.818205 -17.662693
S 14.706243 5.875252 -14.719740
S 11.763290 5.875252 -11.776786
S 11.763290 8.818205 -8.833833
S 14.706243 8.818205 -11.776786
S 14.706243 5.875252 -8.833833
S 11.763290 5.875252 -5.890879
S 11.763290 8.818205 -2.947926
S 14.706243 8.818205 -5.890879
S 14.706243 5.875252 -2.947926
S 11.763290 5.875252 -0.004972
S 11.763290 8.818205 2.937981
S 14.706243 8.818205 -0.004972
S 14.706243 5.875252 2.937981
S 11.763290 5.875252 5.880935
S 11.763290 8.818205 8.823888
S 14.706243 8.818205 5.880935
S 14.706243 5.875252 8.823888
S 11.763290 5.875252 11.766841
S 11.763290 8.818205 14.709795
S 14.706243 8.818205 11.766841
S 14.706243 5.875252 14.709795
S 11.763290 5.875252 17.652748
S 11.763290 8.818205 20.595702
S 14.706243 8.818205 17.652748
S 14.706243 5.875252 20.595702
S 11.763290 5.875252 23.538655
S 11.763290 11.761159 -23.548600
S 11.763290 11.761159 -17.662693
S 11.763290 14.704112 -14.719740
S 14.706243 11.761159 -14.719740
S 11.763290 11.761159 -11.776786
S 11.763290 14.704112 -8.833833
S 14.706243 14.704112 -11.776786
S 14.706243 11.761159 -8.833833
S 11.763290 11.761159 -5.890879
S 11.763290 14.704112 -2.947926
S 14.706243 14.704112 -5.890879
S 14.706243 11.761159 -2.947926
S 11.763290 11.761159 -0.004972
S 11.763290 14.704112 2.937981
S 14.706243 14.704112 -0.004972
S 14.706243 11.761159 2.937981
S 11.763290 11.761159 5.880935
S 11.763290 14.704112 8.823888
S 14.706243 14.704112 5.880935
S 14.706243 11.761159 8.823888
S 11.763290 11.761159 11.766841
S 11.763290 14.704112 14.709795
S 14.706243 14.704112 11.766841
S 14.706243 11.761159 14.709795
S 11.763290 11.761159 17.652748
S 11.763290 17.647066 -11.776786
S 11.763290 20.590019 -8.833833
S 14.706243 17.647066 -8.833833
S 11.763290 17.647066 -5.890879
S 11.763290 20.590019 -2.947926
S 14.706243 20.590019 -5.890879
S 14.706243 17.647066 -2.947926
S 11.763290 17.647066 -0.004972
S 11.763290 20.590019 2.937981
S 14.706243 20.590019 -0.004972
S 14.706243 17.647066 2.937981
S 11.763290 17.647066 5.880935
S 11.763290 20.590019 8.823888
S 14.706243 20.590019 5.880935
S 14.706243 17.647066 8.823888
S 11.763290 17.647066 11.766841
S 11.763290 23.532973 -5.890879
S 14.706243 23.532973 -2.947926
S 11.763290 23.532973 -0.004972
S 14.706243 23.532973 2.937981
S 11.763290 23.532973 5.880935
S 17.649197 -20.611329 -2.947926
S 17.649197 -23.554283 -0.004972
S 17.649197 -20.611329 2.937981
S 20.592150 -20.611329 -0.004972
S 20.592150 -23.554283 2.937981
S 17.649197 -14.725422 -8.833833
S 17.649197 -17.668376 -5.890879
S 17.649197 -14.725422 -2.947926
S 20.592150 -14.725422 -5.890879
S 20.592150 -17.668376 -2.947926
S 17.649197 -17.668376 -0.004972
S 17.649197 -14.725422 2.937981
S 20.592150 -14.725422 -0.004972
S 20.592150 -17.668376 2.937981
S 17.649197 -17.668376 5.880935
S 17.649197 -14.725422 8.823888
S 20.592150 -14.725422 5.880935
S 17.649197 -8.839516 -14.719740
S 17.649197 -11.782469 -11.776786
S 17.649197 -8.839516 -8.833833
S 20.592150 -8.839516 -11.776786
S 20.592150 -11.782469 -8.833833
S 17.649197 -11.782469 -5.890879
S 17.649197 -8.839516 -2.947926
S 20.592150 -8.839516 -5.890879
S 20.592150 -11.782469 -2.947926
S 17.649197 -11.782469 -0.004972
S 17.649197 -8.839516 2.937981
S 20.592150 -8.839516 -0.004972
S 20.592150 -11.782469 2.937981
S 17.649197 -11.782469 5.880935
S 17.649197 -8.839516 8.823888
S 20.592150 -8.839516 5.880935
S 20.592150 -11.782469 8.823888
S 17.649197 -11.782469 11.766841
S 17.649197 -8.839516 14.709795
S 20.592150 -8.839516 11.766841
S 17.649197 -2.953609 -20.605647
S 17.649197 -5.896562 -17.662693
S 17.649197 -2.953609 -14.719740
S 20.592150 -2.953609 -17.662693
S 20.592150 -5.896562 -14.719740
S 17.649197 -5.896562 -11.776786
S 17.649197 -2.953609 -8.833833
S 20.592150 -2.953609 -11.776786
S 20.592150 -5.896562 -8.833833
S 17.649197 -5.896562 -5.890879
S 17.649197 -2.953609 -2.947926
S 20.592150 -2.953609 -5.890879
S 20.592150 -5.896562 -2.947926
S 17.649197 -5.896562 -0.004972
S 17.649197 -2.953609 2.937981
S 20.592150 -2.953609 -0.004972
S 20.592150 -5.896562 2.937981
S 17.649197 -5.896562 5.880935
S 17.649197 -2.953609 8.823888
S 20.592150 -2.953609 5.880935
S 20.592150 -5.896562 8.823888
S 17.649197 -5.896562 11.766841
S 17.649197 -2.953609 14.709795
S 20.592150 -2.953609 11.766841
S 20.592150 -5.896562 14.709795
S 17.649197 -5.896562 17.652748
S 17.649197 -2.953609 20.595702
S 20.592150 -2.953609 17.652748
S 20.592150 -2.953609 23.538655
S 17.649197 -0.010655 -23.548600
S 17.649197 2.932298 -20.605647
S 20.592150 2.932298 -23.548600
S 20.592150 -0.010655 -20.605647
S 17.649197 -0.010655 -17.662693
S 17.649197 2.932298 -14.719740
S 20.592150 2.932298 -17.662693
S 20.592150 -0.010655 -14.719740
S 17.649197 -0.010655 -11.776786
S 17.649197 2.932298 -8.833833
S 20.592150 2.932298 -11.776786
S 20.592150 -0.010655 -8.833833
S 17.649197 -0.010655 -5.890879
S 17.649197 2.932298 -2.947926
S 20.592150 2.932298 -5.890879
S 20.592150 -0.010655 -2.947926
S 17.649197 -0.010655 -0.004972
S 17.649197 2.932298 2.937981
S 20.592150 2.932298 -0.004972
S 20.592150 -0.010655 2.937981
S 17.649197 -0.010655 5.880935
S 17.649197 2.932298 8.823888
S 20.592150 2.932298 5.880935
S 20.592150 -0.010655 8.823888
S 17.649197 -0.010655 11.766841
S 17.649197 2.932298 14.709795
S 20.592150 2.932298 11.766841
S 20.592150 -0.010655 14.709795
S 17.649197 -0.010655 17.652748
S 17.649197 2.932298 20.595702
S 20.592150 2.932298 17.652748
S 20.592150 -0.010655 20.595702
S 17.649197 -0.010655 23.538655
S 17.649197 5.875252 -17.662693
S 17.649197 8.818205 -14.719740
S 20.592150 5.875252 -14.719740
S 17.649197 5.875252 -11.776786
S 17.649197 8.818205 -8.833833
S 20.592150 8.818205 -11.776786
S 20.592150 5.875252 -8.833833
S 17.649197 5.875252 -5.890879
S 17.649197 8.818205 -2.947926
S 20.592150 8.818205 -5.890879
S 20.592150 5.875252 -2.947926
S 17.649197 5.875252 -0.004972
S 17.649197 8.818205 2.937981
S 20.592150 8.818205 -0.004972
S 20.592150 5.875252 2.937981
S 17.649197 5.875252 5.880935
S 17.649197 8.818205 8.823888
S 20.592150 8.818205 5.880935
S 20.592150 5.875252 8.823888
S 17.649197 5.875252 11.766841
S 17.649197 8.818205 14.709795
S 20.592150 8.818205 11.766841
S 20.592150 5.875252 14.709795
S 17.649197 5.875252 17.652748
S 17.649197 11.761159 -11.776786
S 17.649197 14.704112 -8.833833
S 20.592150 11.761159 -8.833833
S 17.649197 11.761159 -5.890879
S 17.649197 14.704112 -2.947926
S 20.592150 14.704112 -5.890879
S 20.592150 11.761159 -2.947926
S 17.649197 11.761159 -0.004972
S 17.649197 14.704112 2.937981
S 20.592150 14.704112 -0.004972
S 20.592150 11.761159 2.937981
S 17.649197 11.761159 5.880935
S 17.649197 14.704112 8.823888
S 20.592150 14.704112 5.880935
S 20.592150 11.761159 8.823888
S 17.649197 11.761159 11.766841
S 17.649197 17.647066 -5.890879
S 17.649197 20.590019 -2.947926
S 20.592150 17.647066 -2.947926
S 17.649197 17.647066 -0.004972
S 17.649197 20.590019 2.937981
S 20.592150 20.590019 -0.004972
S 20.592150 17.647066 2.937981
S 17.649197 17.647066 5.880935
S 20.592150 23.532973 -2.947926
S 17.649197 23.532973 -0.004972
S 23.535104 -14.725422 -2.947926
S 23.535104 -17.668376 -0.004972
S 23.535104 -14.725422 2.937981
S 23.535104 -14.725422 8.823888
S 23.535104 -8.839516 -8.833833
S 23.535104 -11.782469 -5.890879
S 23.535104 -8.839516 -2.947926
S 23.535104 -11.782469 -0.004972
S 23.535104 -8.839516 2.937981
S 23.535104 -11.782469 5.880935
S 23.535104 -8.839516 8.823888
S 23.535104 -2.953609 -14.719740
S 23.535104 -5.896562 -11.776786
S 23.535104 -2.953609 -8.833833
S 23.535104 -5.896562 -5.890879
S 23.535104 -2.953609 -2.947926
S 23.535104 -5.896562 -0.004972
S 23.535104 -2.953609 2.937981
S 23.535104 -5.896562 5.880935
S 23.535104 -2.953609 8.823888
S 23.535104 -5.896562 11.766841
S 23.535104 -2.953609 14.709795
S 23.535104 -5.896562 17.652748
S 23.535104 -0.010655 -17.662693
S 23.535104 2.932298 -14.719740
S 23.535104 -0.010655 -11.776786
S 23.535104 2.932298 -8.833833
S 23.535104 -0.010655 -5.890879
S 23.535104 2.932298 -2.947926
S 23.535104 -0.010655 -0.004972
S 23.535104 2.932298 2.937981
S 23.535104 -0.010655 5.880935
S 23.535104 2.932298 8.823888
S 23.535104 -0.010655 11.766841
S 23.535104 2.932298 14.709795
S 23.535104 -0.010655 17.652748
S 23.535104 8.818205 -14.719740
S 23.535104 5.875252 -11.776786
S 23.535104 8.818205 -8.833833
S 23.535104 5.875252 -5.890879
S 23.535104 8.818205 -2.947926
S 23.535104 5.875252 -0.004972
S 23.535104 8.818205 2.937981
S 23.535104 5.875252 5.880935
S 23.535104 8.818205 8.823888
S 23.535104 5.875252 11.766841
S 23.535104 11.761159 -5.890879
S 23.535104 14.704112 -2.947926
S 23.535104 11.761159 -0.004972
S 23.535104 14.704112 2.937981
S 23.535104 11.761159 5.880935
S 23.535104 17.647066 -5.890879
S 23.535104 17.647066 -0.004972
Cl -26.495105 -14.725422 -5.890879
Cl -26.495105 -17.668376 -2.947926
Cl -26.495105 -14.725422 -0.004972
Cl -26.495105 -8.839516 -11.776786
Cl -26.495105 -11.782469 -8.833833
Cl -26.495105 -8.839516 -5.890879
Cl -26.495105 -11.782469 -2.947926
Cl -26.495105 -8.839516 -0.004972
Cl -26.495105 -11.782469 2.937981
Cl -26.495105 -8.839516 5.880935
Cl -26.495105 -2.953609 -17.662693
Cl -26.495105 -5.896562 -14.719740
Cl -26.495105 -2.953609 -11.776786
Cl -26.495105 -5.896562 -8.833833
Cl -26.495105 -2.953609 -5.890879
Cl -26.495105 -5.896562 -2.947926
Cl -26.495105 -2.953609 -0.004972
Cl -26.495105 -5.896562 2.937981
Cl -26.495105 -2.953609 5.880935
Cl -26.495105 -5.896562 8.823888
Cl -26.495105 -2.953609 11.766841
Cl -26.495105 -0.010655 -14.719740
Cl -26.495105 2.932298 -11.776786
Cl -26.495105 -0.010655 -8.833833
Cl -26.495105 2.932298 -5.890879
Cl -26.495105 -0.010655 -2.947926
Cl -26.495105 2.932298 -0.004972
Cl -26.495105 -0.010655 2.937981
Cl -26.495105 2.932298 5.880935
Cl -26.495105 -0.010655 8.823888
Cl -26.495105 2.932298 11.766841
Cl -26.495105 -0.010655 14.709795
Cl -26.495105 2.932298 17.652748
Cl -26.495105 5.875252 -8.833833
Cl -26.495105 8.818205 -5.890879
Cl -26.495105 5.875252 -2.947926
Cl -26.495105 8.818205 -0.004972
Cl -26.495105 5.875252 2.937981
Cl -26.495105 8.818205 5.880935
Cl -26.495105 5.875252 8.823888
Cl -26.495105 8.818205 11.766841
Cl -26.495105 5.875252 14.709795
Cl -26.495105 11.761159 -2.947926
Cl -26.495105 14.704112 -0.004972
Cl -26.495105 11.761159 2.937981
Cl -26.495105 14.704112 5.880935
Cl -26.495105 11.761159 8.823888
Cl -26.495105 17.647066 2.937981
Cl -20.609198 -20.611329 -5.890879
Cl -20.609198 -23.554283 -2.947926
Cl -23.552152 -14.725422 -8.833833
Cl -20.609198 -14.725422 -11.776786
Cl -20.609198 -17.668376 -8.833833
Cl -23.552152 -17.668376 -5.890879
Cl -23.552152 -8.839516 -14.719740
Cl -20.609198 -8.839516 -17.662693
Cl -20.609198 -11.782469 -14.719740
Cl -20.609198 -2.953609 -23.548600
Cl -20.609198 -5.896562 -20.605647
Cl -23.552152 -5.896562 -17.662693
Cl -20.609198 2.932298 23.538655
Cl -23.552152 8.818205 14.709795
Cl -23.552152 5.875252 17.652748
Cl -20.609198 8.818205 17.652748
Cl -20.609198 5.875252 20.595702
Cl -23.552152 14.704112 8.823888
Cl -20.609198 14.704112 11.766841
Cl -20.609198 11.761159 14.709795
Cl -23.552152 17.647066 5.880935
Cl -20.609198 20.590019 5.880935
Cl -20.609198 17.647066 8.823888
Cl -20.609198 23.532973 2.937981
Cl -17.666245 -26.497236 -2.947926
Cl -14.723291 -26.497236 -5.890879
Cl -14.723291 -26.497236 -0.004972
Cl -17.666245 -20.611329 -8.833833
Cl -14.723291 -20.611329 -11.776786
Cl -17.666245 -23.554283 -5.890879
Cl -17.666245 -14.725422 -14.719740
Cl -14.723291 -14.725422 -17.662693
Cl -14.723291 -17.668376 -14.719740
Cl -17.666245 -17.668376 -11.776786
Cl -17.666245 -8.839516 -20.605647
Cl -14.723291 -11.782469 -20.605647
Cl -17.666245 -11.782469 -17.662693
Cl -17.666245 -2.953609 -26.491554
Cl -14.723291 -5.896562 -26.491554
Cl -17.666245 -5.896562 -23.548600
Cl -14.723291 -0.010655 -26.491554
Cl -17.666245 2.932298 26.481609
Cl -14.723291 -0.010655 26.481609
Cl -17.666245 8.818205 20.595702
Cl -17.666245 5.875252 23.538655
Cl -14.723291 5.875252 26.481609
Cl -17.666245 14.704112 14.709795
Cl -17.666245 11.761159 17.652748
Cl -14.723291 14.704112 17.652748
Cl -14.723291 11.761159 20.595702
Cl -17.666245 20.590019 8.823888
Cl -17.666245 17.647066 11.766841
Cl -14.723291 20.590019 11.766841
Cl -14.723291 17.647066 14.709795
Cl -17.666245 26.475926 2.937981
Cl -14.723291 26.475926 -0.004972
Cl -17.666245 23.532973 5.880935
Cl -14.723291 26.475926 5.880935
Cl -11.780338 -26.497236 -8.833833
Cl -8.837385 -26.497236 -11.776786
Cl -11.780338 -26.497236 -2.947926
Cl -8.837385 -26.497236 -5.890879
Cl -11.780338 -26.497236 2.937981
Cl -8.837385 -26.497236 -0.004972
Cl -8.837385 -26.497236 5.880935
Cl -11.780338 -20.611329 -14.719740
Cl -8.837385 -20.611329 -17.662693
Cl -8.837385 -23.554283 -14.719740
Cl -11.780338 -23.554283 -11.776786
Cl -11.780338 -14.725422 -20.605647
Cl -8.837385 -14.725422 -23.548600
Cl -8.837385 -17.668376 -20.605647
Cl -11.780338 -17.668376 -17.662693
Cl -11.780338 -8.839516 -26.491554
Cl -8.837385 -11.782469 -26.491554
Cl -11.780338 -11.782469 -23.548600
Cl -11.780338 -2.953609 -26.491554
Cl -8.837385 -5.896562 -26.491554
Cl -11.780338 -2.953609 26.481609
Cl -8.837385 -5.896562 26.481609
Cl -11.780338 2.932298 -26.491554
Cl -8.837385 -0.010655 -26.491554
Cl -11.780338 2.932298 26.481609
Cl -8.837385 -0.010655 26.481609
Cl -8.837385 5.875252 -26.491554
Cl -11.780338 8.818205 26.481609
Cl -8.837385 5.875252 26.481609
Cl -11.780338 14.704112 20.595702
Cl -11.780338 11.761159 23.538655
Cl -8.837385 14.704112 23.538655
Cl -8.837385 11.761159 26.481609
Cl -11.780338 20.590019 14.709795
Cl -11.780338 17.647066 17.652748
Cl -8.837385 20.590019 17.652748
Cl -8.837385 17.647066 20.595702
Cl -11.780338 26.475926 -2.947926
Cl -8.837385 26.475926 -5.890879
Cl -11.780338 26.475926 2.937981
Cl -8.837385 26.475926 -0.004972
Cl -11.780338 26.475926 8.823888
Cl -8.837385 26.475926 5.880935
Cl -11.780338 23.532973 11.766841
Cl -8.837385 26.475926 11.766841
Cl -8.837385 23.532973 14.709795
Cl -5.894431 -26.497236 -14.719740
Cl -2.951478 -26.497236 -17.662693
Cl -5.894431 -26.497236 -8.833833
Cl -2.951478 -26.497236 -11.776786
Cl -5.894431 -26.497236 -2.947926
Cl -2.951478 -26.497236 -5.890879
Cl -5.894431 -26.497236 2.937981
Cl -2.951478 -26.497236 -0.004972
Cl -5.894431 -26.497236 8.823888
Cl -2.951478 -26.497236 5.880935
Cl -2.951478 -26.497236 11.766841
Cl -5.894431 -20.611329 -20.605647
Cl -2.951478 -20.611329 -23.548600
Cl -5.894431 -23.554283 -17.662693
Cl -5.894431 -14.725422 -26.491554
Cl -2.951478 -17.668376 -26.491554
Cl -5.894431 -8.839516 -26.491554
Cl -2.951478 -11.782469 -26.491554
Cl -5.894431 -8.839516 26.481609
Cl -2.951478 -11.782469 26.481609
Cl -5.894431 -2.953609 -26.491554
Cl -2.951478 -5.896562 -26.491554
Cl -5.894431 -2.953609 26.481609
Cl -2.951478 -5.896562 26.481609
Cl -5.894431 2.932298 -26.491554
Cl -2.951478 -0.010655 -26.491554
Cl -5.894431 2.932298 26.481609
Cl -2.951478 -0.010655 26.481609
Cl -5.894431 8.818205 -26.491554
Cl -2.951478 5.875252 -26.491554
Cl -5.894431 8.818205 26.481609
Cl -2.951478 5.875252 26.481609
Cl -2.951478 11.761159 -26.491554
Cl -5.894431 14.704112 26.481609
Cl -2.951478 11.761159 26.481609
Cl -5.894431 20.590019 20.595702
Cl -5.894431 17.647066 23.538655
Cl -2.951478 17.647066 26.481609
Cl -5.894431 26.475926 -8.833833
Cl -2.951478 26.475926 -11.776786
Cl -5.894431 26.475926 -2.947926
Cl -2.951478 26.475926 -5.890879
Cl -5.894431 26.475926 2.937981
Cl -2.951478 26.475926 -0.004972
Cl -5.894431 26.475926 8.823888
Cl -2.951478 26.475926 5.880935
Cl -5.894431 26.475926 14.709795
Cl -2.951478 26.475926 11.766841
Cl -2.951478 26.475926 17.652748
Cl -2.951478 23.532973 20.595702
Cl -0.008524 -26.497236 -14.719740
Cl -0.008524 -26.497236 -8.833833
Cl 2.934429 -26.497236 -11.776786
Cl -0.008524 -26.497236 -2.947926
Cl 2.934429 -26.497236 -5.890879
Cl -0.008524 -26.497236 2.937981
Cl 2.934429 -26.497236 -0.004972
Cl -0.008524 -26.497236 8.823888
Cl 2.934429 -26.497236 5.880935
Cl -0.008524 -26.497236 14.709795
Cl 2.934429 -26.497236 11.766841
Cl 2.934429 -26.497236 17.652748
Cl 2.934429 -20.611329 23.538655
Cl -0.008524 -14.725422 -26.491554
Cl -0.008524 -14.725422 26.481609
Cl 2.934429 -17.668376 26.481609
Cl -0.008524 -8.839516 -26.491554
Cl 2.934429 -11.782469 -26.491554
Cl -0.008524 -8.839516 26.481609
Cl 2.934429 -11.782469 26.481609
Cl -0.008524 -2.953609 -26.491554
Cl 2.934429 -5.896562 -26.491554
Cl -0.008524 -2.953609 26.481609
Cl 2.934429 -5.896562 26.481609
Cl -0.008524 2.932298 -26.491554
Cl 2.934429 -0.010655 -26.491554
Cl -0.008524 2.932298 26.481609
Cl 2.934429 -0.010655 26.481609
Cl -0.008524 8.818205 -26.491554
Cl 2.934429 5.875252 -26.491554
Cl -0.008524 8.818205 26.481609
Cl 2.934429 5.875252 26.481609
Cl -0.008524 14.704112 -26.491554
Cl 2.934429 11.761159 -26.491554
Cl -0.008524 14.704112 26.481609
Cl 2.934429 11.761159 26.481609
Cl 2.934429 17.647066 -26.491554
Cl 2.934429 23.532973 -20.605647
Cl -0.008524 26.475926 -14.719740
Cl 2.934429 26.475926 -17.662693
Cl -0.008524 26.475926 -8.833833
Cl 2.934429 26.475926 -11.776786
Cl -0.008524 26.475926 -2.947926
Cl 2.934429 26.475926 -5.890879
Cl -0.008524 26.475926 2.937981
Cl 2.934429 26.475926 -0.004972
Cl -0.008524 26.475926 8.823888
Cl 2.934429 26.475926 5.880935
Cl -0.008524 26.475926 14.709795
Cl 2.934429 26.475926 11.766841
Cl 5.877383 -26.497236 -8.833833
Cl 5.877383 -26.497236 -2.947926
Cl 8.820336 -26.497236 -5.890879
Cl 5.877383 -26.497236 2.937981
Cl 8.820336 -26.497236 -0.004972
Cl 5.877383 -26.497236 8.823888
Cl 8.820336 -26.497236 5.880935
Cl 5.877383 -26.497236 14.709795
Cl 8.820336 -26.497236 11.766841
Cl 8.820336 -23.554283 14.709795
Cl 5.877383 -23.554283 17.652748
Cl 5.877383 -20.611329 20.595702
Cl 8.820336 -20.611329 17.652748
Cl 8.820336 -17.668376 20.595702
Cl 5.877383 -17.668376 23.538655
Cl 5.877383 -14.725422 26.481609
Cl 5.877383 -8.839516 -26.491554
Cl 5.877383 -8.839516 26.481609
Cl 8.820336 -11.782469 26.481609
Cl 5.877383 -2.953609 -26.491554
Cl 8.820336 -5.896562 -26.491554
Cl 5.877383 -2.953609 26.481609
Cl 8.820336 -5.896562 26.481609
Cl 5.877383 2.932298 -26.491554
Cl 8.820336 -0.010655 -26.491554
Cl 5.877383 2.932298 26.481609
Cl 8.820336 -0.010655 26.481609
Cl 5.877383 8.818205 -26.491554
Cl 8.820336 5.875252 -26.491554
Cl 5.877383 8.818205 26.481609
Cl 8.820336 5.875252 26.481609
Cl 5.877383 14.704112 -26.491554
Cl 8.820336 11.761159 -26.491554
Cl 8.820336 14.704112 -23.548600
Cl 5.877383 17.647066 -23.548600
Cl 5.877383 20.590019 -20.605647
Cl 8.820336 17.647066 -20.605647
Cl 8.820336 20.590019 -17.662693
Cl 5.877383 23.532973 -17.662693
Cl 5.877383 26.475926 -14.719740
Cl 5.877383 26.475926 -8.833833
Cl 8.820336 26.475926 -11.776786
Cl 5.877383 26.475926 -2.947926
Cl 8.820336 26.475926 -5.890879
Cl 5.877383 26.475926 2.937981
Cl 8.820336 26.475926 -0.004972
Cl 5.877383 26.475926 8.823888
Cl 8.820336 26.475926 5.880935
Cl 11.763290 -26.497236 -2.947926
Cl 11.763290 -26.497236 2.937981
Cl 14.706243 -26.497236 -0.004972
Cl 11.763290 -26.497236 8.823888
Cl 14.706243 -26.497236 5.880935
Cl 14.706243 -23.554283 8.823888
Cl 11.763290 -20.611329 14.709795
Cl 14.706243 -20.611329 11.766841
Cl 14.706243 -17.668376 14.709795
Cl 11.763290 -17.668376 17.652748
Cl 11.763290 -14.725422 20.595702
Cl 14.706243 -14.725422 17.652748
Cl 14.706243 -11.782469 20.595702
Cl 11.763290 -11.782469 23.538655
Cl 11.763290 -8.839516 26.481609
Cl 14.706243 -8.839516 23.538655
Cl 11.763290 -2.953609 -26.491554
Cl 11.763290 -2.953609 26.481609
Cl 14.706243 -5.896562 26.481609
Cl 11.763290 2.932298 -26.491554
Cl 14.706243 -0.010655 -26.491554
Cl 11.763290 2.932298 26.481609
Cl 14.706243 -0.010655 26.481609
Cl 11.763290 8.818205 -26.491554
Cl 14.706243 5.875252 -26.491554
Cl 14.706243 8.818205 -23.548600
Cl 11.763290 14.704112 -20.605647
Cl 14.706243 11.761159 -20.605647
Cl 14.706243 14.704112 -17.662693
Cl 11.763290 17.647066 -17.662693
Cl 11.763290 20.590019 -14.719740
Cl 14.706243 17.647066 -14.719740
Cl 14.706243 20.590019 -11.776786
Cl 11.763290 23.532973 -11.776786
Cl 11.763290 26.475926 -8.833833
Cl 14.706243 23.532973 -8.833833
Cl 11.763290 26.475926 -2.947926
Cl 14.706243 26.475926 -5.890879
Cl 11.763290 26.475926 2.937981
Cl 14.706243 26.475926 -0.004972
Cl 17.649197 -26.497236 2.937981
Cl 17.649197 -23.554283 5.880935
Cl 17.649197 -20.611329 8.823888
Cl 20.592150 -20.611329 5.880935
Cl 20.592150 -17.668376 8.823888
Cl 17.649197 -17.668376 11.766841
Cl 17.649197 -14.725422 14.709795
Cl 20.592150 -14.725422 11.766841
Cl 20.592150 -11.782469 14.709795
Cl 17.649197 -11.782469 17.652748
Cl 17.649197 -8.839516 20.595702
Cl 20.592150 -8.839516 17.652748
Cl 20.592150 -5.896562 20.595702
Cl 17.649197 -5.896562 23.538655
Cl 17.649197 -2.953609 26.481609
Cl 17.649197 2.932298 -26.491554
Cl 17.649197 5.875252 -23.548600
Cl 17.649197 8.818205 -20.605647
Cl 20.592150 5.875252 -20.605647
Cl 20.592150 8.818205 -17.662693
Cl 17.649197 11.761159 -17.662693
Cl 17.649197 14.704112 -14.719740
Cl 20.592150 11.761159 -14.719740
Cl 20.592150 14.704112 -11.776786
Cl 17.649197 17.647066 -11.776786
Cl 17.649197 20.590019 -8.833833
Cl 20.592150 17.647066 -8.833833
Cl 20.592150 20.590019 -5.890879
Cl 17.649197 23.532973 -5.890879
Cl 17.649197 26.475926 -2.947926
Cl 23.535104 -20.611329 2.937981
Cl 26.478057 -14.725422 -0.004972
Cl 26.478057 -17.668376 2.937981
Cl 23.535104 -17.668376 5.880935
Cl 26.478057 -14.725422 5.880935
Cl 26.478057 -8.839516 -5.890879
Cl 26.478057 -11.782469 -2.947926
Cl 26.478057 -8.839516 -0.004972
Cl 26.478057 -11.782469 2.937981
Cl 26.478057 -8.839516 5.880935
Cl 26.478057 -11.782469 8.823888
Cl 23.535104 -11.782469 11.766841
Cl 23.535104 -8.839516 14.709795
Cl 26.478057 -8.839516 11.766841
Cl 26.478057 -2.953609 -11.776786
Cl 26.478057 -5.896562 -8.833833
Cl 26.478057 -2.953609 -5.890879
Cl 26.478057 -5.896562 -2.947926
Cl 26.478057 -2.953609 -0.004972
Cl 26.478057 -5.896562 2.937981
Cl 26.478057 -2.953609 5.880935
Cl 26.478057 -5.896562 8.823888
Cl 26.478057 -2.953609 11.766841
Cl 26.478057 -5.896562 14.709795
Cl 23.535104 -2.953609 20.595702
Cl 26.478057 -2.953609 17.652748
Cl 23.535104 2.932298 -20.605647
Cl 26.478057 2.932298 -17.662693
Cl 26.478057 -0.010655 -14.719740
Cl 26.478057 2.932298 -11.776786
Cl 26.478057 -0.010655 -8.833833
Cl 26.478057 2.932298 -5.890879
Cl 26.478057 -0.010655 -2.947926
Cl 26.478057 2.932298 -0.004972
Cl 26.478057 -0.010655 2.937981
Cl 26.478057 2.932298 5.880935
Cl 26.478057 -0.010655 8.823888
Cl 26.478057 2.932298 11.766841
Cl 26.478057 -0.010655 14.709795
Cl 23.535104 5.875252 -17.662693
Cl 26.478057 5.875252 -14.719740
Cl 26.478057 8.818205 -11.776786
Cl 26.478057 5.875252 -8.833833
Cl 26.478057 8.818205 -5.890879
Cl 26.478057 5.875252 -2.947926
Cl 26.478057 8.818205 -0.004972
Cl 26.478057 5.875252 2.937981
Cl 26.478057 8.818205 5.880935
Cl 26.478057 5.875252 8.823888
Cl 23.535104 11.761159 -11.776786
Cl 23.535104 14.704112 -8.833833
Cl 26.478057 11.761159 -8.833833
Cl 26.478057 14.704112 -5.890879
Cl 26.478057 11.761159 -2.947926
Cl 26.478057 14.704112 -0.004972
Cl 26.478057 11.761159 2.937981
Cl 23.535104 20.590019 -2.947926
Cl 26.478057 17.647066 -2.947926
Cl -14.723291 -14.725422 14.709795
Cl -14.723291 14.704112 -14.719740
Cl 14.706243 -14.725422 -14.719740
Cl 14.706243 14.704112 14.709795
Cl -0.008524 -23.554283 20.595702
Cl -0.008524 20.590019 -23.548600
Cl 20.592150 -0.010655 -23.548600
Cl 20.592150 23.532973 -0.004972
Cl -23.552152 -5.896562 14.709795
Cl -23.552152 14.704112 -5.890879
Cl 14.706243 -23.554283 -5.890879
Cl 14.706243 5.875252 23.538655
Cl -23.552152 -14.725422 5.880935
Cl -23.552152 5.875252 -14.719740
Cl 5.877383 -23.554283 -14.719740
Cl 5.877383 14.704112 23.538655
Cl -11.780338 -8.839516 23.538655
Cl -11.780338 23.532973 -8.833833
