510
InP-P-In204P153Cl153-reconstructed
In -10.291400 -10.308765 -7.385729
In -10.291400 -7.356788 -10.337706
In -13.243376 -7.356788 -7.385729
In -10.291400 -4.404812 -7.385729
In -10.291400 -7.356788 -4.433753
In -13.243376 -4.404812 -4.433753
In -10.291400 -4.404812 -1.481776
In -10.291400 -1.452835 -4.433753
In -13.243376 -1.452835 -1.481776
In -10.291400 1.499141 -1.481776
In -10.291400 -1.452835 1.470200
In -13.243376 1.499141 1.470200
In -10.291400 1.499141 4.422176
In -10.291400 4.451117 1.470200
In -13.243376 4.451117 4.422176
In -10.291400 7.403094 4.422176
In -10.291400 4.451117 7.374153
In -13.243376 7.403094 7.374153
In -10.291400 7.403094 10.326129
In -10.291400 10.355070 7.374153
In -7.339424 -10.308765 -10.337706
In -7.339424 -13.260741 -7.385729
In -4.387447 -10.308765 -7.385729
In -4.387447 -13.260741 -4.433753
In -7.339424 -10.308765 -4.433753
In -4.387447 -10.308765 -1.481776
In -7.339424 -7.356788 -13.289682
In -4.387447 -4.404812 -13.289682
In -4.387447 -7.356788 -10.337706
In -7.339424 -4.404812 -10.337706
In -7.339424 -7.356788 -7.385729
In -4.387447 -4.404812 -7.385729
In -4.387447 -7.356788 -4.433753
In -7.339424 -4.404812 -4.433753
In -7.339424 -7.356788 -1.481776
In -4.387447 -4.404812 -1.481776
In -4.387447 -7.356788 1.470200
In -7.339424 -4.404812 1.470200
In -4.387447 -4.404812 4.422176
In -4.387447 -1.452835 -10.337706
In -7.339424 -1.452835 -7.385729
In -4.387447 1.499141 -7.385729
In -4.387447 -1.452835 -4.433753
In -7.339424 1.499141 -4.433753
In -7.339424 -1.452835 -1.481776
In -4.387447 1.499141 -1.481776
In -4.387447 -1.452835 1.470200
In -7.339424 1.499141 1.470200
In -7.339424 -1.452835 4.422176
In -4.387447 1.499141 4.422176
In -4.387447 -1.452835 7.374153
In -7.339424 1.499141 7.374153
In -4.387447 1.499141 10.326129
In -4.387447 4.451117 -4.433753
In -7.339424 4.451117 -1.481776
In -4.387447 7.403094 -1.481776
In -4.387447 4.451117 1.470200
In -7.339424 7.403094 1.470200
In -7.339424 4.451117 4.422176
In -4.387447 7.403094 4.422176
In -4.387447 4.451117 7.374153
In -7.339424 7.403094 7.374153
In -7.339424 4.451117 10.326129
In -4.387447 7.403094 10.326129
In -4.387447 4.451117 13.278106
In -7.339424 7.403094 13.278106
In -4.387447 10.355070 1.470200
In -7.339424 10.355070 4.422176
In -4.387447 13.307046 4.422176
In -4.387447 10.355070 7.374153
In -7.339424 13.307046 7.374153
In -7.339424 10.355070 10.326129
In -1.435471 -10.308765 -4.433753
In -1.435471 -13.260741 -1.481776
In 1.516506 -10.308765 -1.481776
In 1.516506 -13.260741 1.470200
In -1.435471 -10.308765 1.470200
In 1.516506 -10.308765 4.422176
In -1.435471 -4.404812 -10.337706
In -1.435471 -7.356788 -7.385729
In 1.516506 -4.404812 -7.385729
In 1.516506 -7.356788 -4.433753
In -1.435471 -4.404812 -4.433753
In -1.435471 -7.356788 -1.481776
In 1.516506 -4.404812 -1.481776
In 1.516506 -7.356788 1.470200
In -1.435471 -4.404812 1.470200
In -1.435471 -7.356788 4.422176
In 1.516506 -4.404812 4.422176
In 1.516506 -7.356788 7.374153
In -1.435471 -4.404812 7.374153
In 1.516506 -4.404812 10.326129
In -1.435471 -1.452835 -13.289682
In 1.516506 1.499141 -13.289682
In 1.516506 -1.452835 -10.337706
In -1.435471 1.499141 -10.337706
In -1.435471 -1.452835 -7.385729
In 1.516506 1.499141 -7.385729
In 1.516506 -1.452835 -4.433753
In -1.435471 1.499141 -4.433753
In -1.435471 -1.452835 -1.481776
In 1.516506 1.499141 -1.481776
In 1.516506 -1.452835 1.470200
In -1.435471 1.499141 1.470200
In -1.435471 -1.452835 4.422176
In 1.516506 1.499141 4.422176
In 1.516506 -1.452835 7.374153
In -1.435471 1.499141 7.374153
In -1.435471 -1.452835 10.326129
In 1.516506 1.499141 10.326129
In 1.516506 -1.452835 13.278106
In -1.435471 1.499141 13.278106
In 1.516506 4.451117 -10.337706
In -1.435471 4.451117 -7.385729
In 1.516506 7.403094 -7.385729
In 1.516506 4.451117 -4.433753
In -1.435471 7.403094 -4.433753
In -1.435471 4.451117 -1.481776
In 1.516506 7.403094 -1.481776
In 1.516506 4.451117 1.470200
In -1.435471 7.403094 1.470200
In -1.435471 4.451117 4.422176
In 1.516506 7.403094 4.422176
In 1.516506 4.451117 7.374153
In -1.435471 7.403094 7.374153
In -1.435471 4.451117 10.326129
In 1.516506 10.355070 -4.433753
In -1.435471 10.355070 -1.481776
In 1.516506 13.307046 -1.481776
In 1.516506 10.355070 1.470200
In -1.435471 13.307046 1.470200
In -1.435471 10.355070 4.422176
In 4.468482 -10.308765 1.470200
In 4.468482 -13.260741 4.422176
In 7.420458 -10.308765 4.422176
In 7.420458 -13.260741 7.374153
In 4.468482 -10.308765 7.374153
In 7.420458 -10.308765 10.326129
In 4.468482 -4.404812 -4.433753
In 4.468482 -7.356788 -1.481776
In 7.420458 -4.404812 -1.481776
In 7.420458 -7.356788 1.470200
In 4.468482 -4.404812 1.470200
In 4.468482 -7.356788 4.422176
In 7.420458 -4.404812 4.422176
In 7.420458 -7.356788 7.374153
In 4.468482 -4.404812 7.374153
In 4.468482 -7.356788 10.326129
In 7.420458 -4.404812 10.326129
In 7.420458 -7.356788 13.278106
In 4.468482 -4.404812 13.278106
In 4.468482 1.499141 -10.337706
In 4.468482 -1.452835 -7.385729
In 7.420458 1.499141 -7.385729
In 7.420458 -1.452835 -4.433753
In 4.468482 1.499141 -4.433753
In 4.468482 -1.452835 -1.481776
In 7.420458 1.499141 -1.481776
In 7.420458 -1.452835 1.470200
In 4.468482 1.499141 1.470200
In 4.468482 -1.452835 4.422176
In 7.420458 1.499141 4.422176
In 7.420458 -1.452835 7.374153
In 4.468482 1.499141 7.374153
In 4.468482 -1.452835 10.326129
In 4.468482 4.451117 -13.289682
In 7.420458 7.403094 -13.289682
In 7.420458 4.451117 -10.337706
In 4.468482 7.403094 -10.337706
In 4.468482 4.451117 -7.385729
In 7.420458 7.403094 -7.385729
In 7.420458 4.451117 -4.433753
In 4.468482 7.403094 -4.433753
In 4.468482 4.451117 -1.481776
In 7.420458 7.403094 -1.481776
In 7.420458 4.451117 1.470200
In 4.468482 7.403094 1.470200
In 4.468482 4.451117 4.422176
In 7.420458 10.355070 -10.337706
In 4.468482 10.355070 -7.385729
In 7.420458 13.307046 -7.385729
In 7.420458 10.355070 -4.433753
In 4.468482 13.307046 -4.433753
In 4.468482 10.355070 -1.481776
In 10.372435 -10.308765 7.374153
In 10.372435 -4.404812 1.470200
In 10.372435 -7.356788 4.422176
In 13.324411 -4.404812 4.422176
In 13.324411 -7.356788 7.374153
In 10.372435 -4.404812 7.374153
In 10.372435 -7.356788 10.326129
In 10.372435 1.499141 -4.433753
In 10.372435 -1.452835 -1.481776
In 13.324411 1.499141 -1.481776
In 13.324411 -1.452835 1.470200
In 10.372435 1.499141 1.470200
In 10.372435 -1.452835 4.422176
In 10.372435 7.403094 -10.337706
In 10.372435 4.451117 -7.385729
In 13.324411 7.403094 -7.385729
In 13.324411 4.451117 -4.433753
In 10.372435 7.403094 -4.433753
In 10.372435 4.451117 -1.481776
In 10.372435 10.355070 -7.385729
P -11.767388 -8.832776 -8.861717
P -8.815412 -8.832776 -5.909741
P -8.815412 -5.880800 -8.861717
P -11.767388 -5.880800 -5.909741
P -11.767388 -2.928824 -2.957765
P -8.815412 -2.928824 -5.909741
P -8.815412 -5.880800 -2.957765
P -8.815412 -2.928824 -0.005788
P -8.815412 0.023153 -2.957765
P -11.767388 0.023153 -0.005788
P -11.767388 2.975129 2.946188
P -8.815412 2.975129 -0.005788
P -8.815412 0.023153 2.946188
P -8.815412 2.975129 5.898165
P -8.815412 5.927106 2.946188
P -11.767388 5.927106 5.898165
P -11.767388 8.879082 8.850141
P -8.815412 8.879082 5.898165
P -8.815412 5.927106 8.850141
P -5.863435 -8.832776 -8.861717
P -5.863435 -11.784753 -5.909741
P -5.863435 -8.832776 -2.957765
P -2.911459 -8.832776 -5.909741
P -2.911459 -11.784753 -2.957765
P -2.911459 -8.832776 -0.005788
P -5.863435 -5.880800 -11.813694
P -5.863435 -2.928824 -8.861717
P -2.911459 -2.928824 -11.813694
P -2.911459 -5.880800 -8.861717
P -5.863435 -5.880800 -5.909741
P -5.863435 -2.928824 -2.957765
P -2.911459 -2.928824 -5.909741
P -2.911459 -5.880800 -2.957765
P -5.863435 -5.880800 -0.005788
P -5.863435 -2.928824 2.946188
P -2.911459 -2.928824 -0.005788
P -2.911459 -5.880800 2.946188
P -2.911459 -2.928824 5.898165
P -2.911459 0.023153 -8.861717
P -5.863435 0.023153 -5.909741
P -5.863435 2.975129 -2.957765
P -2.911459 2.975129 -5.909741
P -2.911459 0.023153 -2.957765
P -5.863435 0.023153 -0.005788
P -5.863435 2.975129 2.946188
P -2.911459 2.975129 -0.005788
P -2.911459 0.023153 2.946188
P -5.863435 0.023153 5.898165
P -5.863435 2.975129 8.850141
P -2.911459 2.975129 5.898165
P -2.911459 0.023153 8.850141
P -2.911459 2.975129 11.802117
P -2.911459 5.927106 -2.957765
P -5.863435 5.927106 -0.005788
P -5.863435 8.879082 2.946188
P -2.911459 8.879082 -0.005788
P -2.911459 5.927106 2.946188
P -5.863435 5.927106 5.898165
P -5.863435 8.879082 8.850141
P -2.911459 8.879082 5.898165
P -2.911459 5.927106 8.850141
P -5.863435 5.927106 11.802117
P -2.911459 11.831058 2.946188
P -5.863435 11.831058 5.898165
P 0.040517 -8.832776 -2.957765
P 0.040517 -11.784753 -0.005788
P 0.040517 -8.832776 2.946188
P 2.992494 -8.832776 -0.005788
P 2.992494 -11.784753 2.946188
P 2.992494 -8.832776 5.898165
P 0.040517 -2.928824 -8.861717
P 0.040517 -5.880800 -5.909741
P 0.040517 -2.928824 -2.957765
P 2.992494 -2.928824 -5.909741
P 2.992494 -5.880800 -2.957765
P 0.040517 -5.880800 -0.005788
P 0.040517 -2.928824 2.946188
P 2.992494 -2.928824 -0.005788
P 2.992494 -5.880800 2.946188
P 0.040517 -5.880800 5.898165
P 0.040517 -2.928824 8.850141
P 2.992494 -2.928824 5.898165
P 2.992494 -5.880800 8.850141
P 2.992494 -2.928824 11.802117
P 0.040517 0.023153 -11.813694
P 0.040517 2.975129 -8.861717
P 2.992494 2.975129 -11.813694
P 2.992494 0.023153 -8.861717
P 0.040517 0.023153 -5.909741
P 0.040517 2.975129 -2.957765
P 2.992494 2.975129 -5.909741
P 2.992494 0.023153 -2.957765
P 0.040517 0.023153 -0.005788
P 0.040517 2.975129 2.946188
P 2.992494 2.975129 -0.005788
P 2.992494 0.023153 2.946188
P 0.040517 0.023153 5.898165
P 0.040517 2.975129 8.850141
P 2.992494 2.975129 5.898165
P 2.992494 0.023153 8.850141
P 0.040517 0.023153 11.802117
P 2.992494 5.927106 -8.861717
P 0.040517 5.927106 -5.909741
P 0.040517 8.879082 -2.957765
P 2.992494 8.879082 -5.909741
P 2.992494 5.927106 -2.957765
P 0.040517 5.927106 -0.005788
P 0.040517 8.879082 2.946188
P 2.992494 8.879082 -0.005788
P 2.992494 5.927106 2.946188
P 0.040517 5.927106 5.898165
P 2.992494 11.831058 -2.957765
P 0.040517 11.831058 -0.005788
P 5.944470 -8.832776 2.946188
P 5.944470 -11.784753 5.898165
P 5.944470 -8.832776 8.850141
P 8.896446 -8.832776 5.898165
P 5.944470 -2.928824 -2.957765
P 5.944470 -5.880800 -0.005788
P 5.944470 -2.928824 2.946188
P 8.896446 -2.928824 -0.005788
P 8.896446 -5.880800 2.946188
P 5.944470 -5.880800 5.898165
P 5.944470 -2.928824 8.850141
P 8.896446 -2.928824 5.898165
P 8.896446 -5.880800 8.850141
P 5.944470 -5.880800 11.802117
P 5.944470 2.975129 -8.861717
P 5.944470 0.023153 -5.909741
P 5.944470 2.975129 -2.957765
P 8.896446 2.975129 -5.909741
P 8.896446 0.023153 -2.957765
P 5.944470 0.023153 -0.005788
P 5.944470 2.975129 2.946188
P 8.896446 2.975129 -0.005788
P 8.896446 0.023153 2.946188
P 5.944470 0.023153 5.898165
P 5.944470 5.927106 -11.813694
P 5.944470 8.879082 -8.861717
P 8.896446 5.927106 -8.861717
P 5.944470 5.927106 -5.909741
P 5.944470 8.879082 -2.957765
P 8.896446 8.879082 -5.909741
P 8.896446 5.927106 -2.957765
P 5.944470 5.927106 -0.005788
P 5.944470 11.831058 -5.909741
P 11.848423 -8.832776 8.850141
P 11.848423 -2.928824 2.946188
P 11.848423 -5.880800 5.898165
P 11.848423 2.975129 -2.957765
P 11.848423 0.023153 -0.005788
P 11.848423 8.879082 -8.861717
P 11.848423 5.927106 -5.909741
Cl -8.815412 -8.832776 -11.813694
Cl -8.815412 -11.784753 -8.861717
Cl -8.815412 8.879082 11.802117
Cl -8.815412 11.831058 8.850141
Cl 8.896446 -11.784753 8.850141
Cl 8.896446 -8.832776 11.802117
Cl 8.896446 8.879082 -11.813694
Cl 8.896446 11.831058 -8.861717
Cl -14.719365 8.879082 5.898165
Cl -8.815412 -14.736729 -5.909741
Cl 8.896446 14.783035 -5.909741
Cl 14.800399 -8.832776 5.898165
Cl -14.719365 -5.880800 -8.861717
Cl -5.863435 14.783035 8.850141
Cl 5.944470 -14.736729 8.850141
Cl 14.800399 5.927106 -8.861717
Cl -5.863435 -8.832776 -14.765670
Cl -8.815412 5.927106 14.754094
Cl 8.896446 -5.880800 14.754094
Cl 5.944470 8.879082 -14.765670
Cl -14.719365 -5.880800 -2.957765
Cl -5.863435 14.783035 2.946188
Cl 5.944470 -14.736729 2.946188
Cl 14.800399 5.927106 -2.957765
Cl -14.719365 2.975129 5.898165
Cl -2.911459 -14.736729 -5.909741
Cl 2.992494 14.783035 -5.909741
Cl 14.800399 -2.928824 5.898165
Cl -5.863435 -2.928824 -14.765670
Cl -2.911459 5.927106 14.754094
Cl 2.992494 -5.880800 14.754094
Cl 5.944470 2.975129 -14.765670
Cl -14.719365 2.975129 -0.005788
Cl -2.911459 -14.736729 -0.005788
Cl 2.992494 14.783035 -0.005788
Cl 14.800399 -2.928824 -0.005788
Cl -2.911459 0.023153 -14.765670
Cl 2.992494 0.023153 -14.765670
Cl 0.040517 -2.928824 14.754094
Cl 0.040517 2.975129 14.754094
Cl -14.719365 -2.928824 -0.005788
Cl 2.992494 -14.736729 -0.005788
Cl -2.911459 14.783035 -0.005788
Cl 14.800399 2.975129 -0.005788
Cl -5.863435 -5.880800 5.898165
Cl -5.863435 5.927106 -5.909741
Cl 5.944470 -5.880800 -5.909741
Cl 5.944470 5.927106 5.898165
Cl -11.767388 0.023153 -5.909741
Cl 0.040517 -11.784753 5.898165
Cl 0.040517 11.831058 5.898165
Cl 11.848423 0.023153 -5.909741
Cl -5.863435 0.023153 11.802117
Cl 0.040517 -5.880800 -11.813694
Cl 0.040517 5.927106 -11.813694
Cl 5.944470 0.023153 11.802117
Cl -8.815412 -8.832776 -0.005788
Cl -8.815412 8.879082 -0.005788
Cl 8.896446 -8.832776 -0.005788
Cl 8.896446 8.879082 -0.005788
Cl -14.719365 5.927106 8.850141
Cl -5.863435 -14.736729 -8.861717
Cl 5.944470 14.783035 -8.861717
Cl 14.800399 -5.880800 8.850141
Cl -8.815412 -5.880800 -14.765670
Cl -5.863435 8.879082 14.754094
Cl 5.944470 -8.832776 14.754094
Cl 8.896446 5.927106 -14.765670
Cl -14.719365 -8.832776 -5.909741
Cl -8.815412 14.783035 5.898165
Cl 8.896446 -14.736729 5.898165
Cl 14.800399 8.879082 -5.909741
Cl -8.815412 -2.928824 5.898165
Cl 2.992494 -8.832776 -5.909741
Cl -2.911459 8.879082 -5.909741
Cl 8.896446 2.975129 5.898165
Cl -8.815412 0.023153 -8.861717
Cl 0.040517 -8.832776 8.850141
Cl 0.040517 8.879082 8.850141
Cl 8.896446 0.023153 -8.861717
Cl -2.911459 -5.880800 -14.765670
Cl -5.863435 2.975129 14.754094
Cl 5.944470 -2.928824 14.754094
Cl 2.992494 5.927106 -14.765670
Cl -14.719365 5.927106 2.946188
Cl -5.863435 -14.736729 -2.957765
Cl 5.944470 14.783035 -2.957765
Cl 14.800399 -5.880800 2.946188
Cl -14.719365 -2.928824 -5.909741
Cl -2.911459 14.783035 5.898165
Cl 2.992494 -14.736729 5.898165
Cl 14.800399 2.975129 -5.909741
Cl -11.767388 5.927106 11.802117
Cl -5.863435 -11.784753 -11.813694
Cl 5.944470 11.831058 -11.813694
Cl 11.848423 -5.880800 11.802117
Cl -14.719365 0.023153 2.946188
Cl 0.040517 -14.736729 -2.957765
Cl 0.040517 14.783035 -2.957765
Cl 14.800399 0.023153 2.946188
Cl -11.767388 -11.784753 -5.909741
Cl -11.767388 11.831058 5.898165
Cl 11.848423 -11.784753 5.898165
Cl 11.848423 11.831058 -5.909741
Cl -11.767388 -5.880800 -11.813694
Cl -5.863435 11.831058 11.802117
Cl 5.944470 -11.784753 11.802117
Cl 11.848423 5.927106 -11.813694
Cl 2.992494 -2.928824 -11.813694
Cl -2.911459 2.975129 -11.813694
Cl -2.911459 -2.928824 11.802117
Cl 2.992494 2.975129 11.802117
Cl -5.863435 -8.832776 2.946188
Cl -8.815412 5.927106 -2.957765
Cl 8.896446 -5.880800 -2.957765
Cl 5.944470 8.879082 2.946188
Cl -8.815412 0.023153 8.850141
Cl 0.040517 -8.832776 -8.861717
Cl 0.040517 8.879082 -8.861717
Cl 8.896446 0.023153 8.850141
Cl -14.719365 0.023153 -2.957765
Cl 0.040517 -14.736729 2.946188
Cl 0.040517 14.783035 2.946188
Cl 14.800399 0.023153 -2.957765
Cl -11.767388 -5.880800 -0.005788
Cl -5.863435 11.831058 -0.005788
Cl 5.944470 -11.784753 -0.005788
Cl 11.848423 5.927106 -0.005788
Cl -5.863435 2.975129 -8.861717
Cl -2.911459 -5.880800 8.850141
Cl 2.992494 5.927106 8.850141
Cl 5.944470 -2.928824 -8.861717
Cl 0.040517 -2.928824 -14.765670
Cl 0.040517 2.975129 -14.765670
Cl 2.992494 0.023153 14.754094
Cl -2.911459 0.023153 14.754094
Cl -11.767388 8.879082 2.946188
Cl -8.815412 -11.784753 -2.957765
Cl 8.896446 11.831058 -2.957765
Cl 11.848423 -8.832776 2.946188
Cl -11.767388 2.975129 8.850141
Cl -2.911459 -11.784753 -8.861717
Cl 2.992494 11.831058 -8.861717
Cl 11.848423 -2.928824 8.850141
Cl -8.815412 -2.928824 -11.813694
Cl -2.911459 8.879082 11.802117
Cl 2.992494 -8.832776 11.802117
Cl 8.896446 2.975129 -11.813694
Cl -11.767388 2.975129 -2.957765
Cl -11.767388 -2.928824 2.946188
Cl 2.992494 -11.784753 -2.957765
Cl 2.992494 11.831058 2.946188
Cl -2.911459 -11.784753 2.946188
