2944
CsPbI3-Cs-Cs704Pb512I1728-clean
Cs -25.138936 -25.121884 -18.829690
Cs -25.138936 -25.121884 -6.279405
Cs -25.138936 -25.121884 6.270879
Cs -25.138936 -25.121884 18.821164
Cs -25.138936 -18.846742 -25.104832
Cs -25.138936 -18.846742 -18.829690
Cs -25.138936 -18.846742 -12.554548
Cs -25.138936 -18.846742 -6.279405
Cs -25.138936 -18.846742 -0.004263
Cs -25.138936 -18.846742 6.270879
Cs -25.138936 -18.846742 12.546022
Cs -25.138936 -18.846742 18.821164
Cs -25.138936 -18.846742 25.096306
Cs -25.138936 -12.571600 -25.104832
Cs -25.138936 -12.571600 -18.829690
Cs -25.138936 -12.571600 -12.554548
Cs -25.138936 -12.571600 -6.279405
Cs -25.138936 -12.571600 -0.004263
Cs -25.138936 -12.571600 6.270879
Cs -25.138936 -12.571600 12.546022
Cs -25.138936 -12.571600 18.821164
Cs -25.138936 -6.296457 -25.104832
Cs -25.138936 -6.296457 -18.829690
Cs -25.138936 -6.296457 -12.554548
Cs -25.138936 -6.296457 -6.279405
Cs -25.138936 -6.296457 -0.004263
Cs -25.138936 -6.296457 6.270879
Cs -25.138936 -6.296457 12.546022
Cs -25.138936 -6.296457 18.821164
Cs -25.138936 -6.296457 25.096306
Cs -25.138936 -0.021315 -18.829690
Cs -25.138936 -0.021315 -12.554548
Cs -25.138936 -0.021315 -6.279405
Cs -25.138936 -0.021315 -0.004263
Cs -25.138936 -0.021315 6.270879
Cs -25.138936 -0.021315 12.546022
Cs -25.138936 -0.021315 18.821164
Cs -25.138936 6.253827 -25.104832
Cs -25.138936 6.253827 -18.829690
Cs -25.138936 6.253827 -12.554548
Cs -25.138936 6.253827 -6.279405
Cs -25.138936 6.253827 -0.004263
Cs -25.138936 6.253827 6.270879
Cs -25.138936 6.253827 12.546022
Cs -25.138936 6.253827 18.821164
Cs -25.138936 6.253827 25.096306
Cs -25.138936 12.528970 -25.104832
Cs -25.138936 12.528970 -18.829690
Cs -25.138936 12.528970 -12.554548
Cs -25.138936 12.528970 -6.279405
Cs -25.138936 12.528970 -0.004263
Cs -25.138936 12.528970 6.270879
Cs -25.138936 12.528970 12.546022
Cs -25.138936 12.528970 18.821164
Cs -25.138936 12.528970 25.096306
Cs -25.138936 18.804112 -25.104832
Cs -25.138936 18.804112 -18.829690
Cs -25.138936 18.804112 -12.554548
Cs -25.138936 18.804112 -6.279405
Cs -25.138936 18.804112 -0.004263
Cs -25.138936 18.804112 6.270879
Cs -25.138936 18.804112 12.546022
Cs -25.138936 18.804112 18.821164
Cs -25.138936 18.804112 25.096306
Cs -25.138936 25.079254 -18.829690
Cs -25.138936 25.079254 -6.279405
Cs -25.138936 25.079254 6.270879
Cs -25.138936 25.079254 12.546022
Cs -25.138936 25.079254 18.821164
Cs -18.863794 -25.121884 -25.104832
Cs -18.863794 -25.121884 -18.829690
Cs -18.863794 -25.121884 -12.554548
Cs -18.863794 -25.121884 -6.279405
Cs -18.863794 -25.121884 -0.004263
Cs -18.863794 -25.121884 6.270879
Cs -18.863794 -25.121884 12.546022
Cs -18.863794 -25.121884 18.821164
Cs -18.863794 -25.121884 25.096306
Cs -18.863794 -18.846742 -25.104832
Cs -18.863794 -18.846742 -18.829690
Cs -18.863794 -18.846742 -12.554548
Cs -18.863794 -18.846742 -6.279405
Cs -18.863794 -18.846742 -0.004263
Cs -18.863794 -18.846742 6.270879
Cs -18.863794 -18.846742 12.546022
Cs -18.863794 -18.846742 18.821164
Cs -18.863794 -18.846742 25.096306
Cs -18.863794 -12.571600 -25.104832
Cs -18.863794 -12.571600 -18.829690
Cs -18.863794 -12.571600 -12.554548
Cs -18.863794 -12.571600 -6.279405
Cs -18.863794 -12.571600 -0.004263
Cs -18.863794 -12.571600 6.270879
Cs -18.863794 -12.571600 12.546022
Cs -18.863794 -12.571600 18.821164
Cs -18.863794 -12.571600 25.096306
Cs -18.863794 -6.296457 -25.104832
Cs -18.863794 -6.296457 -18.829690
Cs -18.863794 -6.296457 -12.554548
Cs -18.863794 -6.296457 -6.279405
Cs -18.863794 -6.296457 -0.004263
Cs -18.863794 -6.296457 6.270879
Cs -18.863794 -6.296457 12.546022
Cs -18.863794 -6.296457 18.821164
Cs -18.863794 -6.296457 25.096306
Cs -18.863794 -0.021315 -25.104832
Cs -18.863794 -0.021315 -18.829690
Cs -18.863794 -0.021315 -12.554548
Cs -18.863794 -0.021315 -6.279405
Cs -18.863794 -0.021315 -0.004263
Cs -18.863794 -0.021315 6.270879
Cs -18.863794 -0.021315 12.546022
Cs -18.863794 -0.021315 18.821164
Cs -18.863794 -0.021315 25.096306
Cs -18.863794 6.253827 -25.104832
Cs -18.863794 6.253827 -18.829690
Cs -18.863794 6.253827 -12.554548
Cs -18.863794 6.253827 -6.279405
Cs -18.863794 6.253827 -0.004263
Cs -18.863794 6.253827 6.270879
Cs -18.863794 6.253827 12.546022
Cs -18.863794 6.253827 18.821164
Cs -18.863794 6.253827 25.096306
Cs -18.863794 12.528970 -25.104832
Cs -18.863794 12.528970 -18.829690
Cs -18.863794 12.528970 -12.554548
Cs -18.863794 12.528970 -6.279405
Cs -18.863794 12.528970 -0.004263
Cs -18.863794 12.528970 6.270879
Cs -18.863794 12.528970 12.546022
Cs -18.863794 12.528970 18.821164
Cs -18.863794 12.528970 25.096306
Cs -18.863794 18.804112 -25.104832
Cs -18.863794 18.804112 -18.829690
Cs -18.863794 18.804112 -12.554548
Cs -18.863794 18.804112 -6.279405
Cs -18.863794 18.804112 -0.004263
Cs -18.863794 18.804112 6.270879
Cs -18.863794 18.804112 12.546022
Cs -18.863794 18.804112 18.821164
Cs -18.863794 18.804112 25.096306
Cs -18.863794 25.079254 -25.104832
Cs -18.863794 25.079254 -18.829690
Cs -18.863794 25.079254 -12.554548
Cs -18.863794 25.079254 -6.279405
Cs -18.863794 25.079254 -0.004263
Cs -18.863794 25.079254 6.270879
Cs -18.863794 25.079254 12.546022
Cs -18.863794 25.079254 18.821164
Cs -18.863794 25.079254 25.096306
Cs -12.588652 -25.121884 -18.829690
Cs -12.588652 -25.121884 -12.554548
Cs -12.588652 -25.121884 -6.279405
Cs -12.588652 -25.121884 -0.004263
Cs -12.588652 -25.121884 6.270879
Cs -12.588652 -25.121884 12.546022
Cs -12.588652 -25.121884 18.821164
Cs -12.588652 -25.121884 25.096306
Cs -12.588652 -18.846742 -25.104832
Cs -12.588652 -18.846742 -18.829690
Cs -12.588652 -18.846742 -12.554548
Cs -12.588652 -18.846742 -6.279405
Cs -12.588652 -18.846742 -0.004263
Cs -12.588652 -18.846742 6.270879
Cs -12.588652 -18.846742 12.546022
Cs -12.588652 -18.846742 18.821164
Cs -12.588652 -18.846742 25.096306
Cs -12.588652 -12.571600 -25.104832
Cs -12.588652 -12.571600 -18.829690
Cs -12.588652 -12.571600 -12.554548
Cs -12.588652 -12.571600 -6.279405
Cs -12.588652 -12.571600 -0.004263
Cs -12.588652 -12.571600 6.270879
Cs -12.588652 -12.571600 12.546022
Cs -12.588652 -12.571600 18.821164
Cs -12.588652 -12.571600 25.096306
Cs -12.588652 -6.296457 -25.104832
Cs -12.588652 -6.296457 -18.829690
Cs -12.588652 -6.296457 -12.554548
Cs -12.588652 -6.296457 -6.279405
Cs -12.588652 -6.296457 -0.004263
Cs -12.588652 -6.296457 6.270879
Cs -12.588652 -6.296457 12.546022
Cs -12.588652 -6.296457 18.821164
Cs -12.588652 -6.296457 25.096306
Cs -12.588652 -0.021315 -25.104832
Cs -12.588652 -0.021315 -18.829690
Cs -12.588652 -0.021315 -12.554548
Cs -12.588652 -0.021315 -6.279405
Cs -12.588652 -0.021315 -0.004263
Cs -12.588652 -0.021315 6.270879
Cs -12.588652 -0.021315 12.546022
Cs -12.588652 -0.021315 18.821164
Cs -12.588652 -0.021315 25.096306
Cs -12.588652 6.253827 -25.104832
Cs -12.588652 6.253827 -18.829690
Cs -12.588652 6.253827 -12.554548
Cs -12.588652 6.253827 -6.279405
Cs -12.588652 6.253827 -0.004263
Cs -12.588652 6.253827 6.270879
Cs -12.588652 6.253827 12.546022
Cs -12.588652 6.253827 18.821164
Cs -12.588652 6.253827 25.096306
Cs -12.588652 12.528970 -25.104832
Cs -12.588652 12.528970 -18.829690
Cs -12.588652 12.528970 -12.554548
Cs -12.588652 12.528970 -6.279405
Cs -12.588652 12.528970 -0.004263
Cs -12.588652 12.528970 6.270879
Cs -12.588652 12.528970 12.546022
Cs -12.588652 12.528970 18.821164
Cs -12.588652 12.528970 25.096306
Cs -12.588652 18.804112 -25.104832
Cs -12.588652 18.804112 -18.829690
Cs -12.588652 18.804112 -12.554548
Cs -12.588652 18.804112 -6.279405
Cs -12.588652 18.804112 -0.004263
Cs -12.588652 18.804112 6.270879
Cs -12.588652 18.804112 12.546022
Cs -12.588652 18.804112 18.821164
Cs -12.588652 18.804112 25.096306
Cs -12.588652 25.079254 -25.104832
Cs -12.588652 25.079254 -18.829690
Cs -12.588652 25.079254 -12.554548
Cs -12.588652 25.079254 -6.279405
Cs -12.588652 25.079254 -0.004263
Cs -12.588652 25.079254 6.270879
Cs -12.588652 25.079254 12.546022
Cs -12.588652 25.079254 18.821164
Cs -12.588652 25.079254 25.096306
Cs -6.313509 -25.121884 -25.104832
Cs -6.313509 -25.121884 -18.829690
Cs -6.313509 -25.121884 -12.554548
Cs -6.313509 -25.121884 -6.279405
Cs -6.313509 -25.121884 -0.004263
Cs -6.313509 -25.121884 6.270879
Cs -6.313509 -25.121884 12.546022
Cs -6.313509 -25.121884 18.821164
Cs -6.313509 -25.121884 25.096306
Cs -6.313509 -18.846742 -25.104832
Cs -6.313509 -18.846742 -18.829690
Cs -6.313509 -18.846742 -12.554548
Cs -6.313509 -18.846742 -6.279405
Cs -6.313509 -18.846742 -0.004263
Cs -6.313509 -18.846742 6.270879
Cs -6.313509 -18.846742 12.546022
Cs -6.313509 -18.846742 18.821164
Cs -6.313509 -18.846742 25.096306
Cs -6.313509 -12.571600 -25.104832
Cs -6.313509 -12.571600 -18.829690
Cs -6.313509 -12.571600 -12.554548
Cs -6.313509 -12.571600 -6.279405
Cs -6.313509 -12.571600 -0.004263
Cs -6.313509 -12.571600 6.270879
Cs -6.313509 -12.571600 12.546022
Cs -6.313509 -12.571600 18.821164
Cs -6.313509 -12.571600 25.096306
Cs -6.313509 -6.296457 -25.104832
Cs -6.313509 -6.296457 -18.829690
Cs -6.313509 -6.296457 -12.554548
Cs -6.313509 -6.296457 -6.279405
Cs -6.313509 -6.296457 -0.004263
Cs -6.313509 -6.296457 6.270879
Cs -6.313509 -6.296457 12.546022
Cs -6.313509 -6.296457 18.821164
Cs -6.313509 -6.296457 25.096306
Cs -6.313509 -0.021315 -25.104832
Cs -6.313509 -0.021315 -18.829690
Cs -6.313509 -0.021315 -12.554548
Cs -6.313509 -0.021315 -6.279405
Cs -6.313509 -0.021315 -0.004263
Cs -6.313509 -0.021315 6.270879
Cs -6.313509 -0.021315 12.546022
Cs -6.313509 -0.021315 18.821164
Cs -6.313509 -0.021315 25.096306
Cs -6.313509 6.253827 -25.104832
Cs -6.313509 6.253827 -18.829690
Cs -6.313509 6.253827 -12.554548
Cs -6.313509 6.253827 -6.279405
Cs -6.313509 6.253827 -0.004263
Cs -6.313509 6.253827 6.270879
Cs -6.313509 6.253827 12.546022
Cs -6.313509 6.253827 18.821164
Cs -6.313509 6.253827 25.096306
Cs -6.313509 12.528970 -25.104832
Cs -6.313509 12.528970 -18.829690
Cs -6.313509 12.528970 -12.554548
Cs -6.313509 12.528970 -6.279405
Cs -6.313509 12.528970 -0.004263
Cs -6.313509 12.528970 6.270879
Cs -6.313509 12.528970 12.546022
Cs -6.313509 12.528970 18.821164
Cs -6.313509 12.528970 25.096306
Cs -6.313509 18.804112 -25.104832
Cs -6.313509 18.804112 -18.829690
Cs -6.313509 18.804112 -12.554548
Cs -6.313509 18.804112 -6.279405
Cs -6.313509 18.804112 -0.004263
Cs -6.313509 18.804112 6.270879
Cs -6.313509 18.804112 12.546022
Cs -6.313509 18.804112 18.821164
Cs -6.313509 18.804112 25.096306
Cs -6.313509 25.079254 -25.104832
Cs -6.313509 25.079254 -18.829690
Cs -6.313509 25.079254 -12.554548
Cs -6.313509 25.079254 -6.279405
Cs -6.313509 25.079254 -0.004263
Cs -6.313509 25.079254 6.270879
Cs -6.313509 25.079254 12.546022
Cs -6.313509 25.079254 18.821164
Cs -6.313509 25.079254 25.096306
Cs -0.038367 -25.121884 -18.829690
Cs -0.038367 -25.121884 -12.554548
Cs -0.038367 -25.121884 -6.279405
Cs -0.038367 -25.121884 -0.004263
Cs -0.038367 -25.121884 6.270879
Cs -0.038367 -25.121884 12.546022
Cs -0.038367 -25.121884 18.821164
Cs -0.038367 -18.846742 -25.104832
Cs -0.038367 -18.846742 -18.829690
Cs -0.038367 -18.846742 -12.554548
Cs -0.038367 -18.846742 -6.279405
Cs -0.038367 -18.846742 -0.004263
Cs -0.038367 -18.846742 6.270879
Cs -0.038367 -18.846742 12.546022
Cs -0.038367 -18.846742 18.821164
Cs -0.038367 -18.846742 25.096306
Cs -0.038367 -12.571600 -25.104832
Cs -0.038367 -12.571600 -18.829690
Cs -0.038367 -12.571600 -12.554548
Cs -0.038367 -12.571600 -6.279405
Cs -0.038367 -12.571600 -0.004263
Cs -0.038367 -12.571600 6.270879
Cs -0.038367 -12.571600 12.546022
Cs -0.038367 -12.571600 18.821164
Cs -0.038367 -12.571600 25.096306
Cs -0.038367 -6.296457 -25.104832
Cs -0.038367 -6.296457 -18.829690
Cs -0.038367 -6.296457 -12.554548
Cs -0.038367 -6.296457 -6.279405
Cs -0.038367 -6.296457 -0.004263
Cs -0.038367 -6.296457 6.270879
Cs -0.038367 -6.296457 12.546022
Cs -0.038367 -6.296457 18.821164
Cs -0.038367 -6.296457 25.096306
Cs -0.038367 -0.021315 -25.104832
Cs -0.038367 -0.021315 -18.829690
Cs -0.038367 -0.021315 -12.554548
Cs -0.038367 -0.021315 -6.279405
Cs -0.038367 -0.021315 -0.004263
Cs -0.038367 -0.021315 6.270879
Cs -0.038367 -0.021315 12.546022
Cs -0.038367 -0.021315 18.821164
Cs -0.038367 -0.021315 25.096306
Cs -0.038367 6.253827 -25.104832
Cs -0.038367 6.253827 -18.829690
Cs -0.038367 6.253827 -12.554548
Cs -0.038367 6.253827 -6.279405
Cs -0.038367 6.253827 -0.004263
Cs -0.038367 6.253827 6.270879
Cs -0.038367 6.253827 12.546022
Cs -0.038367 6.253827 18.821164
Cs -0.038367 6.253827 25.096306
Cs -0.038367 12.528970 -25.104832
Cs -0.038367 12.528970 -18.829690
Cs -0.038367 12.528970 -12.554548
Cs -0.038367 12.528970 -6.279405
Cs -0.038367 12.528970 -0.004263
Cs -0.038367 12.528970 6.270879
Cs -0.038367 12.528970 12.546022
Cs -0.038367 12.528970 18.821164
Cs -0.038367 12.528970 25.096306
Cs -0.038367 18.804112 -25.104832
Cs -0.038367 18.804112 -18.829690
Cs -0.038367 18.804112 -12.554548
Cs -0.038367 18.804112 -6.279405
Cs -0.038367 18.804112 -0.004263
Cs -0.038367 18.804112 6.270879
Cs -0.038367 18.804112 12.546022
Cs -0.038367 18.804112 18.821164
Cs -0.038367 18.804112 25.096306
Cs -0.038367 25.079254 -18.829690
Cs -0.038367 25.079254 -12.554548
Cs -0.038367 25.079254 -6.279405
Cs -0.038367 25.079254 -0.004263
Cs -0.038367 25.079254 6.270879
Cs -0.038367 25.079254 12.546022
Cs -0.038367 25.079254 18.821164
Cs 6.236775 -25.121884 -25.104832
Cs 6.236775 -25.121884 -18.829690
Cs 6.236775 -25.121884 -12.554548
Cs 6.236775 -25.121884 -6.279405
Cs 6.236775 -25.121884 -0.004263
Cs 6.236775 -25.121884 6.270879
Cs 6.236775 -25.121884 12.546022
Cs 6.236775 -25.121884 18.821164
Cs 6.236775 -25.121884 25.096306
Cs 6.236775 -18.846742 -25.104832
Cs 6.236775 -18.846742 -18.829690
Cs 6.236775 -18.846742 -12.554548
Cs 6.236775 -18.846742 -6.279405
Cs 6.236775 -18.846742 -0.004263
Cs 6.236775 -18.846742 6.270879
Cs 6.236775 -18.846742 12.546022
Cs 6.236775 -18.846742 18.821164
Cs 6.236775 -18.846742 25.096306
Cs 6.236775 -12.571600 -25.104832
Cs 6.236775 -12.571600 -18.829690
Cs 6.236775 -12.571600 -12.554548
Cs 6.236775 -12.571600 -6.279405
Cs 6.236775 -12.571600 -0.004263
Cs 6.236775 -12.571600 6.270879
Cs 6.236775 -12.571600 12.546022
Cs 6.236775 -12.571600 18.821164
Cs 6.236775 -12.571600 25.096306
Cs 6.236775 -6.296457 -25.104832
Cs 6.236775 -6.296457 -18.829690
Cs 6.236775 -6.296457 -12.554548
Cs 6.236775 -6.296457 -6.279405
Cs 6.236775 -6.296457 -0.004263
Cs 6.236775 -6.296457 6.270879
Cs 6.236775 -6.296457 12.546022
Cs 6.236775 -6.296457 18.821164
Cs 6.236775 -6.296457 25.096306
Cs 6.236775 -0.021315 -25.104832
Cs 6.236775 -0.021315 -18.829690
Cs 6.236775 -0.021315 -12.554548
Cs 6.236775 -0.021315 -6.279405
Cs 6.236775 -0.021315 -0.004263
Cs 6.236775 -0.021315 6.270879
Cs 6.236775 -0.021315 12.546022
Cs 6.236775 -0.021315 18.821164
Cs 6.236775 -0.021315 25.096306
Cs 6.236775 6.253827 -25.104832
Cs 6.236775 6.253827 -18.829690
Cs 6.236775 6.253827 -12.554548
Cs 6.236775 6.253827 -6.279405
Cs 6.236775 6.253827 -0.004263
Cs 6.236775 6.253827 6.270879
Cs 6.236775 6.253827 12.546022
Cs 6.236775 6.253827 18.821164
Cs 6.236775 6.253827 25.096306
Cs 6.236775 12.528970 -25.104832
Cs 6.236775 12.528970 -18.829690
Cs 6.236775 12.528970 -12.554548
Cs 6.236775 12.528970 -6.279405
Cs 6.236775 12.528970 -0.004263
Cs 6.236775 12.528970 6.270879
Cs 6.236775 12.528970 12.546022
Cs 6.236775 12.528970 18.821164
Cs 6.236775 12.528970 25.096306
Cs 6.236775 18.804112 -25.104832
Cs 6.236775 18.804112 -18.829690
Cs 6.236775 18.804112 -12.554548
Cs 6.236775 18.804112 -6.279405
Cs 6.236775 18.804112 -0.004263
Cs 6.236775 18.804112 6.270879
Cs 6.236775 18.804112 12.546022
Cs 6.236775 18.804112 18.821164
Cs 6.236775 18.804112 25.096306
Cs 6.236775 25.079254 -25.104832
Cs 6.236775 25.079254 -18.829690
Cs 6.236775 25.079254 -12.554548
Cs 6.236775 25.079254 -6.279405
Cs 6.236775 25.079254 -0.004263
Cs 6.236775 25.079254 6.270879
Cs 6.236775 25.079254 12.546022
Cs 6.236775 25.079254 18.821164
Cs 6.236775 25.079254 25.096306
Cs 12.511918 -25.121884 -25.104832
Cs 12.511918 -25.121884 -18.829690
Cs 12.511918 -25.121884 -12.554548
Cs 12.511918 -25.121884 -6.279405
Cs 12.511918 -25.121884 -0.004263
Cs 12.511918 -25.121884 6.270879
Cs 12.511918 -25.121884 12.546022
Cs 12.511918 -25.121884 18.821164
Cs 12.511918 -25.121884 25.096306
Cs 12.511918 -18.846742 -25.104832
Cs 12.511918 -18.846742 -18.829690
Cs 12.511918 -18.846742 -12.554548
Cs 12.511918 -18.846742 -6.279405
Cs 12.511918 -18.846742 -0.004263
Cs 12.511918 -18.846742 6.270879
Cs 12.511918 -18.846742 12.546022
Cs 12.511918 -18.846742 18.821164
Cs 12.511918 -18.846742 25.096306
Cs 12.511918 -12.571600 -25.104832
Cs 12.511918 -12.571600 -18.829690
Cs 12.511918 -12.571600 -12.554548
Cs 12.511918 -12.571600 -6.279405
Cs 12.511918 -12.571600 -0.004263
Cs 12.511918 -12.571600 6.270879
Cs 12.511918 -12.571600 12.546022
Cs 12.511918 -12.571600 18.821164
Cs 12.511918 -12.571600 25.096306
Cs 12.511918 -6.296457 -25.104832
Cs 12.511918 -6.296457 -18.829690
Cs 12.511918 -6.296457 -12.554548
Cs 12.511918 -6.296457 -6.279405
Cs 12.511918 -6.296457 -0.004263
Cs 12.511918 -6.296457 6.270879
Cs 12.511918 -6.296457 12.546022
Cs 12.511918 -6.296457 18.821164
Cs 12.511918 -6.296457 25.096306
Cs 12.511918 -0.021315 -25.104832
Cs 12.511918 -0.021315 -18.829690
Cs 12.511918 -0.021315 -12.554548
Cs 12.511918 -0.021315 -6.279405
Cs 12.511918 -0.021315 -0.004263
Cs 12.511918 -0.021315 6.270879
Cs 12.511918 -0.021315 12.546022
Cs 12.511918 -0.021315 18.821164
Cs 12.511918 -0.021315 25.096306
Cs 12.511918 6.253827 -25.104832
Cs 12.511918 6.253827 -18.829690
Cs 12.511918 6.253827 -12.554548
Cs 12.511918 6.253827 -6.279405
Cs 12.511918 6.253827 -0.004263
Cs 12.511918 6.253827 6.270879
Cs 12.511918 6.253827 12.546022
Cs 12.511918 6.253827 18.821164
Cs 12.511918 6.253827 25.096306
Cs 12.511918 12.528970 -25.104832
Cs 12.511918 12.528970 -18.829690
Cs 12.511918 12.528970 -12.554548
Cs 12.511918 12.528970 -6.279405
Cs 12.511918 12.528970 -0.004263
Cs 12.511918 12.528970 6.270879
Cs 12.511918 12.528970 12.546022
Cs 12.511918 12.528970 18.821164
Cs 12.511918 12.528970 25.096306
Cs 12.511918 18.804112 -25.104832
Cs 12.511918 18.804112 -18.829690
Cs 12.511918 18.804112 -12.554548
Cs 12.511918 18.804112 -6.279405
Cs 12.511918 18.804112 -0.004263
Cs 12.511918 18.804112 6.270879
Cs 12.511918 18.804112 12.546022
Cs 12.511918 18.804112 18.821164
Cs 12.511918 18.804112 25.096306
Cs 12.511918 25.079254 -25.104832
Cs 12.511918 25.079254 -18.829690
Cs 12.511918 25.079254 -12.554548
Cs 12.511918 25.079254 -6.279405
Cs 12.511918 25.079254 -0.004263
Cs 12.511918 25.079254 6.270879
Cs 12.511918 25.079254 12.546022
Cs 12.511918 25.079254 18.821164
Cs 12.511918 25.079254 25.096306
Cs 18.787060 -25.121884 -25.104832
Cs 18.787060 -25.121884 -18.829690
Cs 18.787060 -25.121884 -12.554548
Cs 18.787060 -25.121884 -6.279405
Cs 18.787060 -25.121884 -0.004263
Cs 18.787060 -25.121884 6.270879
Cs 18.787060 -25.121884 12.546022
Cs 18.787060 -25.121884 18.821164
Cs 18.787060 -25.121884 25.096306
Cs 18.787060 -18.846742 -25.104832
Cs 18.787060 -18.846742 -18.829690
Cs 18.787060 -18.846742 -12.554548
Cs 18.787060 -18.846742 -6.279405
Cs 18.787060 -18.846742 -0.004263
Cs 18.787060 -18.846742 6.270879
Cs 18.787060 -18.846742 12.546022
Cs 18.787060 -18.846742 18.821164
Cs 18.787060 -18.846742 25.096306
Cs 18.787060 -12.571600 -25.104832
Cs 18.787060 -12.571600 -18.829690
Cs 18.787060 -12.571600 -12.554548
Cs 18.787060 -12.571600 -6.279405
Cs 18.787060 -12.571600 -0.004263
Cs 18.787060 -12.571600 6.270879
Cs 18.787060 -12.571600 12.546022
Cs 18.787060 -12.571600 18.821164
Cs 18.787060 -12.571600 25.096306
Cs 18.787060 -6.296457 -25.104832
Cs 18.787060 -6.296457 -18.829690
Cs 18.787060 -6.296457 -12.554548
Cs 18.787060 -6.296457 -6.279405
Cs 18.787060 -6.296457 -0.004263
Cs 18.787060 -6.296457 6.270879
Cs 18.787060 -6.296457 12.546022
Cs 18.787060 -6.296457 18.821164
Cs 18.787060 -6.296457 25.096306
Cs 18.787060 -0.021315 -25.104832
Cs 18.787060 -0.021315 -18.829690
Cs 18.787060 -0.021315 -12.554548
Cs 18.787060 -0.021315 -6.279405
Cs 18.787060 -0.021315 -0.004263
Cs 18.787060 -0.021315 6.270879
Cs 18.787060 -0.021315 12.546022
Cs 18.787060 -0.021315 18.821164
Cs 18.787060 -0.021315 25.096306
Cs 18.787060 6.253827 -25.104832
Cs 18.787060 6.253827 -18.829690
Cs 18.787060 6.253827 -12.554548
Cs 18.787060 6.253827 -6.279405
Cs 18.787060 6.253827 -0.004263
Cs 18.787060 6.253827 6.270879
Cs 18.787060 6.253827 12.546022
Cs 18.787060 6.253827 18.821164
Cs 18.787060 6.253827 25.096306
Cs 18.787060 12.528970 -25.104832
Cs 18.787060 12.528970 -18.829690
Cs 18.787060 12.528970 -12.554548
Cs 18.787060 12.528970 -6.279405
Cs 18.787060 12.528970 -0.004263
Cs 18.787060 12.528970 6.270879
Cs 18.787060 12.528970 12.546022
Cs 18.787060 12.528970 18.821164
Cs 18.787060 12.528970 25.096306
Cs 18.787060 18.804112 -25.104832
Cs 18.787060 18.804112 -18.829690
Cs 18.787060 18.804112 -12.554548
Cs 18.787060 18.804112 -6.279405
Cs 18.787060 18.804112 -0.004263
Cs 18.787060 18.804112 6.270879
Cs 18.787060 18.804112 12.546022
Cs 18.787060 18.804112 18.821164
Cs 18.787060 18.804112 25.096306
Cs 18.787060 25.079254 -25.104832
Cs 18.787060 25.079254 -18.829690
Cs 18.787060 25.079254 -12.554548
Cs 18.787060 25.079254 -6.279405
Cs 18.787060 25.079254 -0.004263
Cs 18.787060 25.079254 6.270879
Cs 18.787060 25.079254 12.546022
Cs 18.787060 25.079254 18.821164
Cs 18.787060 25.079254 25.096306
Cs 25.062202 -25.121884 -18.829690
Cs 25.062202 -25.121884 -12.554548
Cs 25.062202 -25.121884 -6.279405
Cs 25.062202 -25.121884 6.270879
Cs 25.062202 -25.121884 12.546022
Cs 25.062202 -25.121884 18.821164
Cs 25.062202 -18.846742 -25.104832
Cs 25.062202 -18.846742 -18.829690
Cs 25.062202 -18.846742 -12.554548
Cs 25.062202 -18.846742 -6.279405
Cs 25.062202 -18.846742 -0.004263
Cs 25.062202 -18.846742 6.270879
Cs 25.062202 -18.846742 12.546022
Cs 25.062202 -18.846742 18.821164
Cs 25.062202 -18.846742 25.096306
Cs 25.062202 -12.571600 -25.104832
Cs 25.062202 -12.571600 -18.829690
Cs 25.062202 -12.571600 -12.554548
Cs 25.062202 -12.571600 -6.279405
Cs 25.062202 -12.571600 -0.004263
Cs 25.062202 -12.571600 6.270879
Cs 25.062202 -12.571600 12.546022
Cs 25.062202 -12.571600 18.821164
Cs 25.062202 -12.571600 25.096306
Cs 25.062202 -6.296457 -25.104832
Cs 25.062202 -6.296457 -18.829690
Cs 25.062202 -6.296457 -12.554548
Cs 25.062202 -6.296457 -6.279405
Cs 25.062202 -6.296457 -0.004263
Cs 25.062202 -6.296457 6.270879
Cs 25.062202 -6.296457 12.546022
Cs 25.062202 -6.296457 18.821164
Cs 25.062202 -6.296457 25.096306
Cs 25.062202 -0.021315 -18.829690
Cs 25.062202 -0.021315 -12.554548
Cs 25.062202 -0.021315 -6.279405
Cs 25.062202 -0.021315 -0.004263
Cs 25.062202 -0.021315 6.270879
Cs 25.062202 -0.021315 12.546022
Cs 25.062202 -0.021315 18.821164
Cs 25.062202 6.253827 -25.104832
Cs 25.062202 6.253827 -18.829690
Cs 25.062202 6.253827 -12.554548
Cs 25.062202 6.253827 -6.279405
Cs 25.062202 6.253827 -0.004263
Cs 25.062202 6.253827 6.270879
Cs 25.062202 6.253827 12.546022
Cs 25.062202 6.253827 18.821164
Cs 25.062202 6.253827 25.096306
Cs 25.062202 12.528970 -25.104832
Cs 25.062202 12.528970 -18.829690
Cs 25.062202 12.528970 -12.554548
Cs 25.062202 12.528970 -6.279405
Cs 25.062202 12.528970 -0.004263
Cs 25.062202 12.528970 6.270879
Cs 25.062202 12.528970 12.546022
Cs 25.062202 12.528970 18.821164
Cs 25.062202 12.528970 25.096306
Cs 25.062202 18.804112 -25.104832
Cs 25.062202 18.804112 -18.829690
Cs 25.062202 18.804112 -12.554548
Cs 25.062202 18.804112 -6.279405
Cs 25.062202 18.804112 -0.004263
Cs 25.062202 18.804112 6.270879
Cs 25.062202 18.804112 12.546022
Cs 25.062202 18.804112 18.821164
Cs 25.062202 18.804112 25.096306
Cs 25.062202 25.079254 -18.829690
Cs 25.062202 25.079254 -12.554548
Cs 25.062202 25.079254 -6.279405
Cs 25.062202 25.079254 6.270879
Cs 25.062202 25.079254 12.546022
Cs 25.062202 25.079254 18.821164
Pb -22.001365 -21.984313 -21.967261
Pb -22.001365 -21.984313 -15.692119
Pb -22.001365 -21.984313 -9.416976
Pb -22.001365 -21.984313 -3.141834
Pb -22.001365 -21.984313 3.133308
Pb -22.001365 -21.984313 9.408450
Pb -22.001365 -21.984313 15.683593
Pb -22.001365 -21.984313 21.958735
Pb -22.001365 -15.709171 -21.967261
Pb -22.001365 -15.709171 -15.692119
Pb -22.001365 -15.709171 -9.416976
Pb -22.001365 -15.709171 -3.141834
Pb -22.001365 -15.709171 3.133308
Pb -22.001365 -15.709171 9.408450
Pb -22.001365 -15.709171 15.683593
Pb -22.001365 -15.709171 21.958735
Pb -22.001365 -9.434028 -21.967261
Pb -22.001365 -9.434028 -15.692119
Pb -22.001365 -9.434028 -9.416976
Pb -22.001365 -9.434028 -3.141834
Pb -22.001365 -9.434028 3.133308
Pb -22.001365 -9.434028 9.408450
Pb -22.001365 -9.434028 15.683593
Pb -22.001365 -9.434028 21.958735
Pb -22.001365 -3.158886 -21.967261
Pb -22.001365 -3.158886 -15.692119
Pb -22.001365 -3.158886 -9.416976
Pb -22.001365 -3.158886 -3.141834
Pb -22.001365 -3.158886 3.133308
Pb -22.001365 -3.158886 9.408450
Pb -22.001365 -3.158886 15.683593
Pb -22.001365 -3.158886 21.958735
Pb -22.001365 3.116256 -21.967261
Pb -22.001365 3.116256 -15.692119
Pb -22.001365 3.116256 -9.416976
Pb -22.001365 3.116256 -3.141834
Pb -22.001365 3.116256 3.133308
Pb -22.001365 3.116256 9.408450
Pb -22.001365 3.116256 15.683593
Pb -22.001365 3.116256 21.958735
Pb -22.001365 9.391398 -21.967261
Pb -22.001365 9.391398 -15.692119
Pb -22.001365 9.391398 -9.416976
Pb -22.001365 9.391398 -3.141834
Pb -22.001365 9.391398 3.133308
Pb -22.001365 9.391398 9.408450
Pb -22.001365 9.391398 15.683593
Pb -22.001365 9.391398 21.958735
Pb -22.001365 15.666541 -21.967261
Pb -22.001365 15.666541 -15.692119
Pb -22.001365 15.666541 -9.416976
Pb -22.001365 15.666541 -3.141834
Pb -22.001365 15.666541 3.133308
Pb -22.001365 15.666541 9.408450
Pb -22.001365 15.666541 15.683593
Pb -22.001365 15.666541 21.958735
Pb -22.001365 21.941683 -21.967261
Pb -22.001365 21.941683 -15.692119
Pb -22.001365 21.941683 -9.416976
Pb -22.001365 21.941683 -3.141834
Pb -22.001365 21.941683 3.133308
Pb -22.001365 21.941683 9.408450
Pb -22.001365 21.941683 15.683593
Pb -22.001365 21.941683 21.958735
Pb -15.726223 -21.984313 -21.967261
Pb -15.726223 -21.984313 -15.692119
Pb -15.726223 -21.984313 -9.416976
Pb -15.726223 -21.984313 -3.141834
Pb -15.726223 -21.984313 3.133308
Pb -15.726223 -21.984313 9.408450
Pb -15.726223 -21.984313 15.683593
Pb -15.726223 -21.984313 21.958735
Pb -15.726223 -15.709171 -21.967261
Pb -15.726223 -15.709171 -15.692119
Pb -15.726223 -15.709171 -9.416976
Pb -15.726223 -15.709171 -3.141834
Pb -15.726223 -15.709171 3.133308
Pb -15.726223 -15.709171 9.408450
Pb -15.726223 -15.709171 15.683593
Pb -15.726223 -15.709171 21.958735
Pb -15.726223 -9.434028 -21.967261
Pb -15.726223 -9.434028 -15.692119
Pb -15.726223 -9.434028 -9.416976
Pb -15.726223 -9.434028 -3.141834
Pb -15.726223 -9.434028 3.133308
Pb -15.726223 -9.434028 9.408450
Pb -15.726223 -9.434028 15.683593
Pb -15.726223 -9.434028 21.958735
Pb -15.726223 -3.158886 -21.967261
Pb -15.726223 -3.158886 -15.692119
Pb -15.726223 -3.158886 -9.416976
Pb -15.726223 -3.158886 -3.141834
Pb -15.726223 -3.158886 3.133308
Pb -15.726223 -3.158886 9.408450
Pb -15.726223 -3.158886 15.683593
Pb -15.726223 -3.158886 21.958735
Pb -15.726223 3.116256 -21.967261
Pb -15.726223 3.116256 -15.692119
Pb -15.726223 3.116256 -9.416976
Pb -15.726223 3.116256 -3.141834
Pb -15.726223 3.116256 3.133308
Pb -15.726223 3.116256 9.408450
Pb -15.726223 3.116256 15.683593
Pb -15.726223 3.116256 21.958735
Pb -15.726223 9.391398 -21.967261
Pb -15.726223 9.391398 -15.692119
Pb -15.726223 9.391398 -9.416976
Pb -15.726223 9.391398 -3.141834
Pb -15.726223 9.391398 3.133308
Pb -15.726223 9.391398 9.408450
Pb -15.726223 9.391398 15.683593
Pb -15.726223 9.391398 21.958735
Pb -15.726223 15.666541 -21.967261
Pb -15.726223 15.666541 -15.692119
Pb -15.726223 15.666541 -9.416976
Pb -15.726223 15.666541 -3.141834
Pb -15.726223 15.666541 3.133308
Pb -15.726223 15.666541 9.408450
Pb -15.726223 15.666541 15.683593
Pb -15.726223 15.666541 21.958735
Pb -15.726223 21.941683 -21.967261
Pb -15.726223 21.941683 -15.692119
Pb -15.726223 21.941683 -9.416976
Pb -15.726223 21.941683 -3.141834
Pb -15.726223 21.941683 3.133308
Pb -15.726223 21.941683 9.408450
Pb -15.726223 21.941683 15.683593
Pb -15.726223 21.941683 21.958735
Pb -9.451080 -21.984313 -21.967261
Pb -9.451080 -21.984313 -15.692119
Pb -9.451080 -21.984313 -9.416976
Pb -9.451080 -21.984313 -3.141834
Pb -9.451080 -21.984313 3.133308
Pb -9.451080 -21.984313 9.408450
Pb -9.451080 -21.984313 15.683593
Pb -9.451080 -21.984313 21.958735
Pb -9.451080 -15.709171 -21.967261
Pb -9.451080 -15.709171 -15.692119
Pb -9.451080 -15.709171 -9.416976
Pb -9.451080 -15.709171 -3.141834
Pb -9.451080 -15.709171 3.133308
Pb -9.451080 -15.709171 9.408450
Pb -9.451080 -15.709171 15.683593
Pb -9.451080 -15.709171 21.958735
Pb -9.451080 -9.434028 -21.967261
Pb -9.451080 -9.434028 -15.692119
Pb -9.451080 -9.434028 -9.416976
Pb -9.451080 -9.434028 -3.141834
Pb -9.451080 -9.434028 3.133308
Pb -9.451080 -9.434028 9.408450
Pb -9.451080 -9.434028 15.683593
Pb -9.451080 -9.434028 21.958735
Pb -9.451080 -3.158886 -21.967261
Pb -9.451080 -3.158886 -15.692119
Pb -9.451080 -3.158886 -9.416976
Pb -9.451080 -3.158886 -3.141834
Pb -9.451080 -3.158886 3.133308
Pb -9.451080 -3.158886 9.408450
Pb -9.451080 -3.158886 15.683593
Pb -9.451080 -3.158886 21.958735
Pb -9.451080 3.116256 -21.967261
Pb -9.451080 3.116256 -15.692119
Pb -9.451080 3.116256 -9.416976
Pb -9.451080 3.116256 -3.141834
Pb -9.451080 3.116256 3.133308
Pb -9.451080 3.116256 9.408450
Pb -9.451080 3.116256 15.683593
Pb -9.451080 3.116256 21.958735
Pb -9.451080 9.391398 -21.967261
Pb -9.451080 9.391398 -15.692119
Pb -9.451080 9.391398 -9.416976
Pb -9.451080 9.391398 -3.141834
Pb -9.451080 9.391398 3.133308
Pb -9.451080 9.391398 9.408450
Pb -9.451080 9.391398 15.683593
Pb -9.451080 9.391398 21.958735
Pb -9.451080 15.666541 -21.967261
Pb -9.451080 15.666541 -15.692119
Pb -9.451080 15.666541 -9.416976
Pb -9.451080 15.666541 -3.141834
Pb -9.451080 15.666541 3.133308
Pb -9.451080 15.666541 9.408450
Pb -9.451080 15.666541 15.683593
Pb -9.451080 15.666541 21.958735
Pb -9.451080 21.941683 -21.967261
Pb -9.451080 21.941683 -15.692119
Pb -9.451080 21.941683 -9.416976
Pb -9.451080 21.941683 -3.141834
Pb -9.451080 21.941683 3.133308
Pb -9.451080 21.941683 9.408450
Pb -9.451080 21.941683 15.683593
Pb -9.451080 21.941683 21.958735
Pb -3.175938 -21.984313 -21.967261
Pb -3.175938 -21.984313 -15.692119
Pb -3.175938 -21.984313 -9.416976
Pb -3.175938 -21.984313 -3.141834
Pb -3.175938 -21.984313 3.133308
Pb -3.175938 -21.984313 9.408450
Pb -3.175938 -21.984313 15.683593
Pb -3.175938 -21.984313 21.958735
Pb -3.175938 -15.709171 -21.967261
Pb -3.175938 -15.709171 -15.692119
Pb -3.175938 -15.709171 -9.416976
Pb -3.175938 -15.709171 -3.141834
Pb -3.175938 -15.709171 3.133308
Pb -3.175938 -15.709171 9.408450
Pb -3.175938 -15.709171 15.683593
Pb -3.175938 -15.709171 21.958735
Pb -3.175938 -9.434028 -21.967261
Pb -3.175938 -9.434028 -15.692119
Pb -3.175938 -9.434028 -9.416976
Pb -3.175938 -9.434028 -3.141834
Pb -3.175938 -9.434028 3.133308
Pb -3.175938 -9.434028 9.408450
Pb -3.175938 -9.434028 15.683593
Pb -3.175938 -9.434028 21.958735
Pb -3.175938 -3.158886 -21.967261
Pb -3.175938 -3.158886 -15.692119
Pb -3.175938 -3.158886 -9.416976
Pb -3.175938 -3.158886 -3.141834
Pb -3.175938 -3.158886 3.133308
Pb -3.175938 -3.158886 9.408450
Pb -3.175938 -3.158886 15.683593
Pb -3.175938 -3.158886 21.958735
Pb -3.175938 3.116256 -21.967261
Pb -3.175938 3.116256 -15.692119
Pb -3.175938 3.116256 -9.416976
Pb -3.175938 3.116256 -3.141834
Pb -3.175938 3.116256 3.133308
Pb -3.175938 3.116256 9.408450
Pb -3.175938 3.116256 15.683593
Pb -3.175938 3.116256 21.958735
Pb -3.175938 9.391398 -21.967261
Pb -3.175938 9.391398 -15.692119
Pb -3.175938 9.391398 -9.416976
Pb -3.175938 9.391398 -3.141834
Pb -3.175938 9.391398 3.133308
Pb -3.175938 9.391398 9.408450
Pb -3.175938 9.391398 15.683593
Pb -3.175938 9.391398 21.958735
Pb -3.175938 15.666541 -21.967261
Pb -3.175938 15.666541 -15.692119
Pb -3.175938 15.666541 -9.416976
Pb -3.175938 15.666541 -3.141834
Pb -3.175938 15.666541 3.133308
Pb -3.175938 15.666541 9.408450
Pb -3.175938 15.666541 15.683593
Pb -3.175938 15.666541 21.958735
Pb -3.175938 21.941683 -21.967261
Pb -3.175938 21.941683 -15.692119
Pb -3.175938 21.941683 -9.416976
Pb -3.175938 21.941683 -3.141834
Pb -3.175938 21.941683 3.133308
Pb -3.175938 21.941683 9.408450
Pb -3.175938 21.941683 15.683593
Pb -3.175938 21.941683 21.958735
Pb 3.099204 -21.984313 -21.967261
Pb 3.099204 -21.984313 -15.692119
Pb 3.099204 -21.984313 -9.416976
Pb 3.099204 -21.984313 -3.141834
Pb 3.099204 -21.984313 3.133308
Pb 3.099204 -21.984313 9.408450
Pb 3.099204 -21.984313 15.683593
Pb 3.099204 -21.984313 21.958735
Pb 3.099204 -15.709171 -21.967261
Pb 3.099204 -15.709171 -15.692119
Pb 3.099204 -15.709171 -9.416976
Pb 3.099204 -15.709171 -3.141834
Pb 3.099204 -15.709171 3.133308
Pb 3.099204 -15.709171 9.408450
Pb 3.099204 -15.709171 15.683593
Pb 3.099204 -15.709171 21.958735
Pb 3.099204 -9.434028 -21.967261
Pb 3.099204 -9.434028 -15.692119
Pb 3.099204 -9.434028 -9.416976
Pb 3.099204 -9.434028 -3.141834
Pb 3.099204 -9.434028 3.133308
Pb 3.099204 -9.434028 9.408450
Pb 3.099204 -9.434028 15.683593
Pb 3.099204 -9.434028 21.958735
Pb 3.099204 -3.158886 -21.967261
Pb 3.099204 -3.158886 -15.692119
Pb 3.099204 -3.158886 -9.416976
Pb 3.099204 -3.158886 -3.141834
Pb 3.099204 -3.158886 3.133308
Pb 3.099204 -3.158886 9.408450
Pb 3.099204 -3.158886 15.683593
Pb 3.099204 -3.158886 21.958735
Pb 3.099204 3.116256 -21.967261
Pb 3.099204 3.116256 -15.692119
Pb 3.099204 3.116256 -9.416976
Pb 3.099204 3.116256 -3.141834
Pb 3.099204 3.116256 3.133308
Pb 3.099204 3.116256 9.408450
Pb 3.099204 3.116256 15.683593
Pb 3.099204 3.116256 21.958735
Pb 3.099204 9.391398 -21.967261
Pb 3.099204 9.391398 -15.692119
Pb 3.099204 9.391398 -9.416976
Pb 3.099204 9.391398 -3.141834
Pb 3.099204 9.391398 3.133308
Pb 3.099204 9.391398 9.408450
Pb 3.099204 9.391398 15.683593
Pb 3.099204 9.391398 21.958735
Pb 3.099204 15.666541 -21.967261
Pb 3.099204 15.666541 -15.692119
Pb 3.099204 15.666541 -9.416976
Pb 3.099204 15.666541 -3.141834
Pb 3.099204 15.666541 3.133308
Pb 3.099204 15.666541 9.408450
Pb 3.099204 15.666541 15.683593
Pb 3.099204 15.666541 21.958735
Pb 3.099204 21.941683 -21.967261
Pb 3.099204 21.941683 -15.692119
Pb 3.099204 21.941683 -9.416976
Pb 3.099204 21.941683 -3.141834
Pb 3.099204 21.941683 3.133308
Pb 3.099204 21.941683 9.408450
Pb 3.099204 21.941683 15.683593
Pb 3.099204 21.941683 21.958735
Pb 9.374346 -21.984313 -21.967261
Pb 9.374346 -21.984313 -15.692119
Pb 9.374346 -21.984313 -9.416976
Pb 9.374346 -21.984313 -3.141834
Pb 9.374346 -21.984313 3.133308
Pb 9.374346 -21.984313 9.408450
Pb 9.374346 -21.984313 15.683593
Pb 9.374346 -21.984313 21.958735
Pb 9.374346 -15.709171 -21.967261
Pb 9.374346 -15.709171 -15.692119
Pb 9.374346 -15.709171 -9.416976
Pb 9.374346 -15.709171 -3.141834
Pb 9.374346 -15.709171 3.133308
Pb 9.374346 -15.709171 9.408450
Pb 9.374346 -15.709171 15.683593
Pb 9.374346 -15.709171 21.958735
Pb 9.374346 -9.434028 -21.967261
Pb 9.374346 -9.434028 -15.692119
Pb 9.374346 -9.434028 -9.416976
Pb 9.374346 -9.434028 -3.141834
Pb 9.374346 -9.434028 3.133308
Pb 9.374346 -9.434028 9.408450
Pb 9.374346 -9.434028 15.683593
Pb 9.374346 -9.434028 21.958735
Pb 9.374346 -3.158886 -21.967261
Pb 9.374346 -3.158886 -15.692119
Pb 9.374346 -3.158886 -9.416976
Pb 9.374346 -3.158886 -3.141834
Pb 9.374346 -3.158886 3.133308
Pb 9.374346 -3.158886 9.408450
Pb 9.374346 -3.158886 15.683593
Pb 9.374346 -3.158886 21.958735
Pb 9.374346 3.116256 -21.967261
Pb 9.374346 3.116256 -15.692119
Pb 9.374346 3.116256 -9.416976
Pb 9.374346 3.116256 -3.141834
Pb 9.374346 3.116256 3.133308
Pb 9.374346 3.116256 9.408450
Pb 9.374346 3.116256 15.683593
Pb 9.374346 3.116256 21.958735
Pb 9.374346 9.391398 -21.967261
Pb 9.374346 9.391398 -15.692119
Pb 9.374346 9.391398 -9.416976
Pb 9.374346 9.391398 -3.141834
Pb 9.374346 9.391398 3.133308
Pb 9.374346 9.391398 9.408450
Pb 9.374346 9.391398 15.683593
Pb 9.374346 9.391398 21.958735
Pb 9.374346 15.666541 -21.967261
Pb 9.374346 15.666541 -15.692119
Pb 9.374346 15.666541 -9.416976
Pb 9.374346 15.666541 -3.141834
Pb 9.374346 15.666541 3.133308
Pb 9.374346 15.666541 9.408450
Pb 9.374346 15.666541 15.683593
Pb 9.374346 15.666541 21.958735
Pb 9.374346 21.941683 -21.967261
Pb 9.374346 21.941683 -15.692119
Pb 9.374346 21.941683 -9.416976
Pb 9.374346 21.941683 -3.141834
Pb 9.374346 21.941683 3.133308
Pb 9.374346 21.941683 9.408450
Pb 9.374346 21.941683 15.683593
Pb 9.374346 21.941683 21.958735
Pb 15.649489 -21.984313 -21.967261
Pb 15.649489 -21.984313 -15.692119
Pb 15.649489 -21.984313 -9.416976
Pb 15.649489 -21.984313 -3.141834
Pb 15.649489 -21.984313 3.133308
Pb 15.649489 -21.984313 9.408450
Pb 15.649489 -21.984313 15.683593
Pb 15.649489 -21.984313 21.958735
Pb 15.649489 -15.709171 -21.967261
Pb 15.649489 -15.709171 -15.692119
Pb 15.649489 -15.709171 -9.416976
Pb 15.649489 -15.709171 -3.141834
Pb 15.649489 -15.709171 3.133308
Pb 15.649489 -15.709171 9.408450
Pb 15.649489 -15.709171 15.683593
Pb 15.649489 -15.709171 21.958735
Pb 15.649489 -9.434028 -21.967261
Pb 15.649489 -9.434028 -15.692119
Pb 15.649489 -9.434028 -9.416976
Pb 15.649489 -9.434028 -3.141834
Pb 15.649489 -9.434028 3.133308
Pb 15.649489 -9.434028 9.408450
Pb 15.649489 -9.434028 15.683593
Pb 15.649489 -9.434028 21.958735
Pb 15.649489 -3.158886 -21.967261
Pb 15.649489 -3.158886 -15.692119
Pb 15.649489 -3.158886 -9.416976
Pb 15.649489 -3.158886 -3.141834
Pb 15.649489 -3.158886 3.133308
Pb 15.649489 -3.158886 9.408450
Pb 15.649489 -3.158886 15.683593
Pb 15.649489 -3.158886 21.958735
Pb 15.649489 3.116256 -21.967261
Pb 15.649489 3.116256 -15.692119
Pb 15.649489 3.116256 -9.416976
Pb 15.649489 3.116256 -3.141834
Pb 15.649489 3.116256 3.133308
Pb 15.649489 3.116256 9.408450
Pb 15.649489 3.116256 15.683593
Pb 15.649489 3.116256 21.958735
Pb 15.649489 9.391398 -21.967261
Pb 15.649489 9.391398 -15.692119
Pb 15.649489 9.391398 -9.416976
Pb 15.649489 9.391398 -3.141834
Pb 15.649489 9.391398 3.133308
Pb 15.649489 9.391398 9.408450
Pb 15.649489 9.391398 15.683593
Pb 15.649489 9.391398 21.958735
Pb 15.649489 15.666541 -21.967261
Pb 15.649489 15.666541 -15.692119
Pb 15.649489 15.666541 -9.416976
Pb 15.649489 15.666541 -3.141834
Pb 15.649489 15.666541 3.133308
Pb 15.649489 15.666541 9.408450
Pb 15.649489 15.666541 15.683593
Pb 15.649489 15.666541 21.958735
Pb 15.649489 21.941683 -21.967261
Pb 15.649489 21.941683 -15.692119
Pb 15.649489 21.941683 -9.416976
Pb 15.649489 21.941683 -3.141834
Pb 15.649489 21.941683 3.133308
Pb 15.649489 21.941683 9.408450
Pb 15.649489 21.941683 15.683593
Pb 15.649489 21.941683 21.958735
Pb 21.924631 -21.984313 -21.967261
Pb 21.924631 -21.984313 -15.692119
Pb 21.924631 -21.984313 -9.416976
Pb 21.924631 -21.984313 -3.141834
Pb 21.924631 -21.984313 3.133308
Pb 21.924631 -21.984313 9.408450
Pb 21.924631 -21.984313 15.683593
Pb 21.924631 -21.984313 21.958735
Pb 21.924631 -15.709171 -21.967261
Pb 21.924631 -15.709171 -15.692119
Pb 21.924631 -15.709171 -9.416976
Pb 21.924631 -15.709171 -3.141834
Pb 21.924631 -15.709171 3.133308
Pb 21.924631 -15.709171 9.408450
Pb 21.924631 -15.709171 15.683593
Pb 21.924631 -15.709171 21.958735
Pb 21.924631 -9.434028 -21.967261
Pb 21.924631 -9.434028 -15.692119
Pb 21.924631 -9.434028 -9.416976
Pb 21.924631 -9.434028 -3.141834
Pb 21.924631 -9.434028 3.133308
Pb 21.924631 -9.434028 9.408450
Pb 21.924631 -9.434028 15.683593
Pb 21.924631 -9.434028 21.958735
Pb 21.924631 -3.158886 -21.967261
Pb 21.924631 -3.158886 -15.692119
Pb 21.924631 -3.158886 -9.416976
Pb 21.924631 -3.158886 -3.141834
Pb 21.924631 -3.158886 3.133308
Pb 21.924631 -3.158886 9.408450
Pb 21.924631 -3.158886 15.683593
Pb 21.924631 -3.158886 21.958735
Pb 21.924631 3.116256 -21.967261
Pb 21.924631 3.116256 -15.692119
Pb 21.924631 3.116256 -9.416976
Pb 21.924631 3.116256 -3.141834
Pb 21.924631 3.116256 3.133308
Pb 21.924631 3.116256 9.408450
Pb 21.924631 3.116256 15.683593
Pb 21.924631 3.116256 21.958735
Pb 21.924631 9.391398 -21.967261
Pb 21.924631 9.391398 -15.692119
Pb 21.924631 9.391398 -9.416976
Pb 21.924631 9.391398 -3.141834
Pb 21.924631 9.391398 3.133308
Pb 21.924631 9.391398 9.408450
Pb 21.924631 9.391398 15.683593
Pb 21.924631 9.391398 21.958735
Pb 21.924631 15.666541 -21.967261
Pb 21.924631 15.666541 -15.692119
Pb 21.924631 15.666541 -9.416976
Pb 21.924631 15.666541 -3.141834
Pb 21.924631 15.666541 3.133308
Pb 21.924631 15.666541 9.408450
Pb 21.924631 15.666541 15.683593
Pb 21.924631 15.666541 21.958735
Pb 21.924631 21.941683 -21.967261
Pb 21.924631 21.941683 -15.692119
Pb 21.924631 21.941683 -9.416976
Pb 21.924631 21.941683 -3.141834
Pb 21.924631 21.941683 3.133308
Pb 21.924631 21.941683 9.408450
Pb 21.924631 21.941683 15.683593
Pb 21.924631 21.941683 21.958735
I -25.138936 -21.984313 -21.967261
I -25.138936 -21.984313 -15.692119
I -25.138936 -21.984313 -9.416976
I -25.138936 -21.984313 -3.141834
I -25.138936 -21.984313 3.133308
I -25.138936 -21.984313 9.408450
I -25.138936 -21.984313 15.683593
I -25.138936 -21.984313 21.958735
I -25.138936 -15.709171 -21.967261
I -25.138936 -15.709171 -15.692119
I -25.138936 -15.709171 -9.416976
I -25.138936 -15.709171 -3.141834
I -25.138936 -15.709171 3.133308
I -25.138936 -15.709171 9.408450
I -25.138936 -15.709171 15.683593
I -25.138936 -15.709171 21.958735
I -25.138936 -9.434028 -21.967261
I -25.138936 -9.434028 -15.692119
I -25.138936 -9.434028 -9.416976
I -25.138936 -9.434028 -3.141834
I -25.138936 -9.434028 3.133308
I -25.138936 -9.434028 9.408450
I -25.138936 -9.434028 15.683593
I -25.138936 -9.434028 21.958735
I -25.138936 -3.158886 -21.967261
I -25.138936 -3.158886 -15.692119
I -25.138936 -3.158886 -9.416976
I -25.138936 -3.158886 -3.141834
I -25.138936 -3.158886 3.133308
I -25.138936 -3.158886 9.408450
I -25.138936 -3.158886 15.683593
I -25.138936 -3.158886 21.958735
I -25.138936 3.116256 -21.967261
I -25.138936 3.116256 -15.692119
I -25.138936 3.116256 -9.416976
I -25.138936 3.116256 -3.141834
I -25.138936 3.116256 3.133308
I -25.138936 3.116256 9.408450
I -25.138936 3.116256 15.683593
I -25.138936 3.116256 21.958735
I -25.138936 9.391398 -21.967261
I -25.138936 9.391398 -15.692119
I -25.138936 9.391398 -9.416976
I -25.138936 9.391398 -3.141834
I -25.138936 9.391398 3.133308
I -25.138936 9.391398 9.408450
I -25.138936 9.391398 15.683593
I -25.138936 9.391398 21.958735
I -25.138936 15.666541 -21.967261
I -25.138936 15.666541 -15.692119
I -25.138936 15.666541 -9.416976
I -25.138936 15.666541 -3.141834
I -25.138936 15.666541 3.133308
I -25.138936 15.666541 9.408450
I -25.138936 15.666541 15.683593
I -25.138936 15.666541 21.958735
I -25.138936 21.941683 -21.967261
I -25.138936 21.941683 -15.692119
I -25.138936 21.941683 -9.416976
I -25.138936 21.941683 -3.141834
I -25.138936 21.941683 3.133308
I -25.138936 21.941683 9.408450
I -25.138936 21.941683 15.683593
I -25.138936 21.941683 21.958735
I -22.001365 -25.121884 -21.967261
I -22.001365 -25.121884 -15.692119
I -22.001365 -25.121884 -9.416976
I -22.001365 -25.121884 -3.141834
I -22.001365 -25.121884 3.133308
I -22.001365 -25.121884 9.408450
I -22.001365 -25.121884 15.683593
I -22.001365 -25.121884 21.958735
I -22.001365 -21.984313 -25.104832
I -22.001365 -21.984313 -18.829690
I -18.863794 -21.984313 -21.967261
I -22.001365 -18.846742 -21.967261
I -22.001365 -21.984313 -12.554548
I -18.863794 -21.984313 -15.692119
I -22.001365 -18.846742 -15.692119
I -22.001365 -21.984313 -6.279405
I -18.863794 -21.984313 -9.416976
I -22.001365 -18.846742 -9.416976
I -22.001365 -21.984313 -0.004263
I -18.863794 -21.984313 -3.141834
I -22.001365 -18.846742 -3.141834
I -22.001365 -21.984313 6.270879
I -18.863794 -21.984313 3.133308
I -22.001365 -18.846742 3.133308
I -22.001365 -21.984313 12.546022
I -18.863794 -21.984313 9.408450
I -22.001365 -18.846742 9.408450
I -22.001365 -21.984313 18.821164
I -18.863794 -21.984313 15.683593
I -22.001365 -18.846742 15.683593
I -22.001365 -21.984313 25.096306
I -18.863794 -21.984313 21.958735
I -22.001365 -18.846742 21.958735
I -22.001365 -15.709171 -25.104832
I -22.001365 -15.709171 -18.829690
I -18.863794 -15.709171 -21.967261
I -22.001365 -12.571600 -21.967261
I -22.001365 -15.709171 -12.554548
I -18.863794 -15.709171 -15.692119
I -22.001365 -12.571600 -15.692119
I -22.001365 -15.709171 -6.279405
I -18.863794 -15.709171 -9.416976
I -22.001365 -12.571600 -9.416976
I -22.001365 -15.709171 -0.004263
I -18.863794 -15.709171 -3.141834
I -22.001365 -12.571600 -3.141834
I -22.001365 -15.709171 6.270879
I -18.863794 -15.709171 3.133308
I -22.001365 -12.571600 3.133308
I -22.001365 -15.709171 12.546022
I -18.863794 -15.709171 9.408450
I -22.001365 -12.571600 9.408450
I -22.001365 -15.709171 18.821164
I -18.863794 -15.709171 15.683593
I -22.001365 -12.571600 15.683593
I -22.001365 -15.709171 25.096306
I -18.863794 -15.709171 21.958735
I -22.001365 -12.571600 21.958735
I -22.001365 -9.434028 -25.104832
I -22.001365 -9.434028 -18.829690
I -18.863794 -9.434028 -21.967261
I -22.001365 -6.296457 -21.967261
I -22.001365 -9.434028 -12.554548
I -18.863794 -9.434028 -15.692119
I -22.001365 -6.296457 -15.692119
I -22.001365 -9.434028 -6.279405
I -18.863794 -9.434028 -9.416976
I -22.001365 -6.296457 -9.416976
I -22.001365 -9.434028 -0.004263
I -18.863794 -9.434028 -3.141834
I -22.001365 -6.296457 -3.141834
I -22.001365 -9.434028 6.270879
I -18.863794 -9.434028 3.133308
I -22.001365 -6.296457 3.133308
I -22.001365 -9.434028 12.546022
I -18.863794 -9.434028 9.408450
I -22.001365 -6.296457 9.408450
I -22.001365 -9.434028 18.821164
I -18.863794 -9.434028 15.683593
I -22.001365 -6.296457 15.683593
I -22.001365 -9.434028 25.096306
I -18.863794 -9.434028 21.958735
I -22.001365 -6.296457 21.958735
I -22.001365 -3.158886 -25.104832
I -22.001365 -3.158886 -18.829690
I -18.863794 -3.158886 -21.967261
I -22.001365 -0.021315 -21.967261
I -22.001365 -3.158886 -12.554548
I -18.863794 -3.158886 -15.692119
I -22.001365 -0.021315 -15.692119
I -22.001365 -3.158886 -6.279405
I -18.863794 -3.158886 -9.416976
I -22.001365 -0.021315 -9.416976
I -22.001365 -3.158886 -0.004263
I -18.863794 -3.158886 -3.141834
I -22.001365 -0.021315 -3.141834
I -22.001365 -3.158886 6.270879
I -18.863794 -3.158886 3.133308
I -22.001365 -0.021315 3.133308
I -22.001365 -3.158886 12.546022
I -18.863794 -3.158886 9.408450
I -22.001365 -0.021315 9.408450
I -22.001365 -3.158886 18.821164
I -18.863794 -3.158886 15.683593
I -22.001365 -0.021315 15.683593
I -22.001365 -3.158886 25.096306
I -18.863794 -3.158886 21.958735
I -22.001365 -0.021315 21.958735
I -22.001365 3.116256 -25.104832
I -22.001365 3.116256 -18.829690
I -18.863794 3.116256 -21.967261
I -22.001365 6.253827 -21.967261
I -22.001365 3.116256 -12.554548
I -18.863794 3.116256 -15.692119
I -22.001365 6.253827 -15.692119
I -22.001365 3.116256 -6.279405
I -18.863794 3.116256 -9.416976
I -22.001365 6.253827 -9.416976
I -22.001365 3.116256 -0.004263
I -18.863794 3.116256 -3.141834
I -22.001365 6.253827 -3.141834
I -22.001365 3.116256 6.270879
I -18.863794 3.116256 3.133308
I -22.001365 6.253827 3.133308
I -22.001365 3.116256 12.546022
I -18.863794 3.116256 9.408450
I -22.001365 6.253827 9.408450
I -22.001365 3.116256 18.821164
I -18.863794 3.116256 15.683593
I -22.001365 6.253827 15.683593
I -22.001365 3.116256 25.096306
I -18.863794 3.116256 21.958735
I -22.001365 6.253827 21.958735
I -22.001365 9.391398 -25.104832
I -22.001365 9.391398 -18.829690
I -18.863794 9.391398 -21.967261
I -22.001365 12.528970 -21.967261
I -22.001365 9.391398 -12.554548
I -18.863794 9.391398 -15.692119
I -22.001365 12.528970 -15.692119
I -22.001365 9.391398 -6.279405
I -18.863794 9.391398 -9.416976
I -22.001365 12.528970 -9.416976
I -22.001365 9.391398 -0.004263
I -18.863794 9.391398 -3.141834
I -22.001365 12.528970 -3.141834
I -22.001365 9.391398 6.270879
I -18.863794 9.391398 3.133308
I -22.001365 12.528970 3.133308
I -22.001365 9.391398 12.546022
I -18.863794 9.391398 9.408450
I -22.001365 12.528970 9.408450
I -22.001365 9.391398 18.821164
I -18.863794 9.391398 15.683593
I -22.001365 12.528970 15.683593
I -22.001365 9.391398 25.096306
I -18.863794 9.391398 21.958735
I -22.001365 12.528970 21.958735
I -22.001365 15.666541 -25.104832
I -22.001365 15.666541 -18.829690
I -18.863794 15.666541 -21.967261
I -22.001365 18.804112 -21.967261
I -22.001365 15.666541 -12.554548
I -18.863794 15.666541 -15.692119
I -22.001365 18.804112 -15.692119
I -22.001365 15.666541 -6.279405
I -18.863794 15.666541 -9.416976
I -22.001365 18.804112 -9.416976
I -22.001365 15.666541 -0.004263
I -18.863794 15.666541 -3.141834
I -22.001365 18.804112 -3.141834
I -22.001365 15.666541 6.270879
I -18.863794 15.666541 3.133308
I -22.001365 18.804112 3.133308
I -22.001365 15.666541 12.546022
I -18.863794 15.666541 9.408450
I -22.001365 18.804112 9.408450
I -22.001365 15.666541 18.821164
I -18.863794 15.666541 15.683593
I -22.001365 18.804112 15.683593
I -22.001365 15.666541 25.096306
I -18.863794 15.666541 21.958735
I -22.001365 18.804112 21.958735
I -22.001365 21.941683 -25.104832
I -22.001365 21.941683 -18.829690
I -18.863794 21.941683 -21.967261
I -22.001365 25.079254 -21.967261
I -22.001365 21.941683 -12.554548
I -18.863794 21.941683 -15.692119
I -22.001365 25.079254 -15.692119
I -22.001365 21.941683 -6.279405
I -18.863794 21.941683 -9.416976
I -22.001365 25.079254 -9.416976
I -22.001365 21.941683 -0.004263
I -18.863794 21.941683 -3.141834
I -22.001365 25.079254 -3.141834
I -22.001365 21.941683 6.270879
I -18.863794 21.941683 3.133308
I -22.001365 25.079254 3.133308
I -22.001365 21.941683 12.546022
I -18.863794 21.941683 9.408450
I -22.001365 25.079254 9.408450
I -22.001365 21.941683 18.821164
I -18.863794 21.941683 15.683593
I -22.001365 25.079254 15.683593
I -22.001365 21.941683 25.096306
I -18.863794 21.941683 21.958735
I -22.001365 25.079254 21.958735
I -15.726223 -25.121884 -21.967261
I -15.726223 -25.121884 -15.692119
I -15.726223 -25.121884 -9.416976
I -15.726223 -25.121884 -3.141834
I -15.726223 -25.121884 3.133308
I -15.726223 -25.121884 9.408450
I -15.726223 -25.121884 15.683593
I -15.726223 -25.121884 21.958735
I -15.726223 -21.984313 -25.104832
I -15.726223 -21.984313 -18.829690
I -12.588652 -21.984313 -21.967261
I -15.726223 -18.846742 -21.967261
I -15.726223 -21.984313 -12.554548
I -12.588652 -21.984313 -15.692119
I -15.726223 -18.846742 -15.692119
I -15.726223 -21.984313 -6.279405
I -12.588652 -21.984313 -9.416976
I -15.726223 -18.846742 -9.416976
I -15.726223 -21.984313 -0.004263
I -12.588652 -21.984313 -3.141834
I -15.726223 -18.846742 -3.141834
I -15.726223 -21.984313 6.270879
I -12.588652 -21.984313 3.133308
I -15.726223 -18.846742 3.133308
I -15.726223 -21.984313 12.546022
I -12.588652 -21.984313 9.408450
I -15.726223 -18.846742 9.408450
I -15.726223 -21.984313 18.821164
I -12.588652 -21.984313 15.683593
I -15.726223 -18.846742 15.683593
I -15.726223 -21.984313 25.096306
I -12.588652 -21.984313 21.958735
I -15.726223 -18.846742 21.958735
I -15.726223 -15.709171 -25.104832
I -15.726223 -15.709171 -18.829690
I -12.588652 -15.709171 -21.967261
I -15.726223 -12.571600 -21.967261
I -15.726223 -15.709171 -12.554548
I -12.588652 -15.709171 -15.692119
I -15.726223 -12.571600 -15.692119
I -15.726223 -15.709171 -6.279405
I -12.588652 -15.709171 -9.416976
I -15.726223 -12.571600 -9.416976
I -15.726223 -15.709171 -0.004263
I -12.588652 -15.709171 -3.141834
I -15.726223 -12.571600 -3.141834
I -15.726223 -15.709171 6.270879
I -12.588652 -15.709171 3.133308
I -15.726223 -12.571600 3.133308
I -15.726223 -15.709171 12.546022
I -12.588652 -15.709171 9.408450
I -15.726223 -12.571600 9.408450
I -15.726223 -15.709171 18.821164
I -12.588652 -15.709171 15.683593
I -15.726223 -12.571600 15.683593
I -15.726223 -15.709171 25.096306
I -12.588652 -15.709171 21.958735
I -15.726223 -12.571600 21.958735
I -15.726223 -9.434028 -25.104832
I -15.726223 -9.434028 -18.829690
I -12.588652 -9.434028 -21.967261
I -15.726223 -6.296457 -21.967261
I -15.726223 -9.434028 -12.554548
I -12.588652 -9.434028 -15.692119
I -15.726223 -6.296457 -15.692119
I -15.726223 -9.434028 -6.279405
I -12.588652 -9.434028 -9.416976
I -15.726223 -6.296457 -9.416976
I -15.726223 -9.434028 -0.004263
I -12.588652 -9.434028 -3.141834
I -15.726223 -6.296457 -3.141834
I -15.726223 -9.434028 6.270879
I -12.588652 -9.434028 3.133308
I -15.726223 -6.296457 3.133308
I -15.726223 -9.434028 12.546022
I -12.588652 -9.434028 9.408450
I -15.726223 -6.296457 9.408450
I -15.726223 -9.434028 18.821164
I -12.588652 -9.434028 15.683593
I -15.726223 -6.296457 15.683593
I -15.726223 -9.434028 25.096306
I -12.588652 -9.434028 21.958735
I -15.726223 -6.296457 21.958735
I -15.726223 -3.158886 -25.104832
I -15.726223 -3.158886 -18.829690
I -12.588652 -3.158886 -21.967261
I -15.726223 -0.021315 -21.967261
I -15.726223 -3.158886 -12.554548
I -12.588652 -3.158886 -15.692119
I -15.726223 -0.021315 -15.692119
I -15.726223 -3.158886 -6.279405
I -12.588652 -3.158886 -9.416976
I -15.726223 -0.021315 -9.416976
I -15.726223 -3.158886 -0.004263
I -12.588652 -3.158886 -3.141834
I -15.726223 -0.021315 -3.141834
I -15.726223 -3.158886 6.270879
I -12.588652 -3.158886 3.133308
I -15.726223 -0.021315 3.133308
I -15.726223 -3.158886 12.546022
I -12.588652 -3.158886 9.408450
I -15.726223 -0.021315 9.408450
I -15.726223 -3.158886 18.821164
I -12.588652 -3.158886 15.683593
I -15.726223 -0.021315 15.683593
I -15.726223 -3.158886 25.096306
I -12.588652 -3.158886 21.958735
I -15.726223 -0.021315 21.958735
I -15.726223 3.116256 -25.104832
I -15.726223 3.116256 -18.829690
I -12.588652 3.116256 -21.967261
I -15.726223 6.253827 -21.967261
I -15.726223 3.116256 -12.554548
I -12.588652 3.116256 -15.692119
I -15.726223 6.253827 -15.692119
I -15.726223 3.116256 -6.279405
I -12.588652 3.116256 -9.416976
I -15.726223 6.253827 -9.416976
I -15.726223 3.116256 -0.004263
I -12.588652 3.116256 -3.141834
I -15.726223 6.253827 -3.141834
I -15.726223 3.116256 6.270879
I -12.588652 3.116256 3.133308
I -15.726223 6.253827 3.133308
I -15.726223 3.116256 12.546022
I -12.588652 3.116256 9.408450
I -15.726223 6.253827 9.408450
I -15.726223 3.116256 18.821164
I -12.588652 3.116256 15.683593
I -15.726223 6.253827 15.683593
I -15.726223 3.116256 25.096306
I -12.588652 3.116256 21.958735
I -15.726223 6.253827 21.958735
I -15.726223 9.391398 -25.104832
I -15.726223 9.391398 -18.829690
I -12.588652 9.391398 -21.967261
I -15.726223 12.528970 -21.967261
I -15.726223 9.391398 -12.554548
I -12.588652 9.391398 -15.692119
I -15.726223 12.528970 -15.692119
I -15.726223 9.391398 -6.279405
I -12.588652 9.391398 -9.416976
I -15.726223 12.528970 -9.416976
I -15.726223 9.391398 -0.004263
I -12.588652 9.391398 -3.141834
I -15.726223 12.528970 -3.141834
I -15.726223 9.391398 6.270879
I -12.588652 9.391398 3.133308
I -15.726223 12.528970 3.133308
I -15.726223 9.391398 12.546022
I -12.588652 9.391398 9.408450
I -15.726223 12.528970 9.408450
I -15.726223 9.391398 18.821164
I -12.588652 9.391398 15.683593
I -15.726223 12.528970 15.683593
I -15.726223 9.391398 25.096306
I -12.588652 9.391398 21.958735
I -15.726223 12.528970 21.958735
I -15.726223 15.666541 -25.104832
I -15.726223 15.666541 -18.829690
I -12.588652 15.666541 -21.967261
I -15.726223 18.804112 -21.967261
I -15.726223 15.666541 -12.554548
I -12.588652 15.666541 -15.692119
I -15.726223 18.804112 -15.692119
I -15.726223 15.666541 -6.279405
I -12.588652 15.666541 -9.416976
I -15.726223 18.804112 -9.416976
I -15.726223 15.666541 -0.004263
I -12.588652 15.666541 -3.141834
I -15.726223 18.804112 -3.141834
I -15.726223 15.666541 6.270879
I -12.588652 15.666541 3.133308
I -15.726223 18.804112 3.133308
I -15.726223 15.666541 12.546022
I -12.588652 15.666541 9.408450
I -15.726223 18.804112 9.408450
I -15.726223 15.666541 18.821164
I -12.588652 15.666541 15.683593
I -15.726223 18.804112 15.683593
I -15.726223 15.666541 25.096306
I -12.588652 15.666541 21.958735
I -15.726223 18.804112 21.958735
I -15.726223 21.941683 -25.104832
I -15.726223 21.941683 -18.829690
I -12.588652 21.941683 -21.967261
I -15.726223 25.079254 -21.967261
I -15.726223 21.941683 -12.554548
I -12.588652 21.941683 -15.692119
I -15.726223 25.079254 -15.692119
I -15.726223 21.941683 -6.279405
I -12.588652 21.941683 -9.416976
I -15.726223 25.079254 -9.416976
I -15.726223 21.941683 -0.004263
I -12.588652 21.941683 -3.141834
I -15.726223 25.079254 -3.141834
I -15.726223 21.941683 6.270879
I -12.588652 21.941683 3.133308
I -15.726223 25.079254 3.133308
I -15.726223 21.941683 12.546022
I -12.588652 21.941683 9.408450
I -15.726223 25.079254 9.408450
I -15.726223 21.941683 18.821164
I -12.588652 21.941683 15.683593
I -15.726223 25.079254 15.683593
I -15.726223 21.941683 25.096306
I -12.588652 21.941683 21.958735
I -15.726223 25.079254 21.958735
I -9.451080 -25.121884 -21.967261
I -9.451080 -25.121884 -15.692119
I -9.451080 -25.121884 -9.416976
I -9.451080 -25.121884 -3.141834
I -9.451080 -25.121884 3.133308
I -9.451080 -25.121884 9.408450
I -9.451080 -25.121884 15.683593
I -9.451080 -25.121884 21.958735
I -9.451080 -21.984313 -25.104832
I -9.451080 -21.984313 -18.829690
I -6.313509 -21.984313 -21.967261
I -9.451080 -18.846742 -21.967261
I -9.451080 -21.984313 -12.554548
I -6.313509 -21.984313 -15.692119
I -9.451080 -18.846742 -15.692119
I -9.451080 -21.984313 -6.279405
I -6.313509 -21.984313 -9.416976
I -9.451080 -18.846742 -9.416976
I -9.451080 -21.984313 -0.004263
I -6.313509 -21.984313 -3.141834
I -9.451080 -18.846742 -3.141834
I -9.451080 -21.984313 6.270879
I -6.313509 -21.984313 3.133308
I -9.451080 -18.846742 3.133308
I -9.451080 -21.984313 12.546022
I -6.313509 -21.984313 9.408450
I -9.451080 -18.846742 9.408450
I -9.451080 -21.984313 18.821164
I -6.313509 -21.984313 15.683593
I -9.451080 -18.846742 15.683593
I -9.451080 -21.984313 25.096306
I -6.313509 -21.984313 21.958735
I -9.451080 -18.846742 21.958735
I -9.451080 -15.709171 -25.104832
I -9.451080 -15.709171 -18.829690
I -6.313509 -15.709171 -21.967261
I -9.451080 -12.571600 -21.967261
I -9.451080 -15.709171 -12.554548
I -6.313509 -15.709171 -15.692119
I -9.451080 -12.571600 -15.692119
I -9.451080 -15.709171 -6.279405
I -6.313509 -15.709171 -9.416976
I -9.451080 -12.571600 -9.416976
I -9.451080 -15.709171 -0.004263
I -6.313509 -15.709171 -3.141834
I -9.451080 -12.571600 -3.141834
I -9.451080 -15.709171 6.270879
I -6.313509 -15.709171 3.133308
I -9.451080 -12.571600 3.133308
I -9.451080 -15.709171 12.546022
I -6.313509 -15.709171 9.408450
I -9.451080 -12.571600 9.408450
I -9.451080 -15.709171 18.821164
I -6.313509 -15.709171 15.683593
I -9.451080 -12.571600 15.683593
I -9.451080 -15.709171 25.096306
I -6.313509 -15.709171 21.958735
I -9.451080 -12.571600 21.958735
I -9.451080 -9.434028 -25.104832
I -9.451080 -9.434028 -18.829690
I -6.313509 -9.434028 -21.967261
I -9.451080 -6.296457 -21.967261
I -9.451080 -9.434028 -12.554548
I -6.313509 -9.434028 -15.692119
I -9.451080 -6.296457 -15.692119
I -9.451080 -9.434028 -6.279405
I -6.313509 -9.434028 -9.416976
I -9.451080 -6.296457 -9.416976
I -9.451080 -9.434028 -0.004263
I -6.313509 -9.434028 -3.141834
I -9.451080 -6.296457 -3.141834
I -9.451080 -9.434028 6.270879
I -6.313509 -9.434028 3.133308
I -9.451080 -6.296457 3.133308
I -9.451080 -9.434028 12.546022
I -6.313509 -9.434028 9.408450
I -9.451080 -6.296457 9.408450
I -9.451080 -9.434028 18.821164
I -6.313509 -9.434028 15.683593
I -9.451080 -6.296457 15.683593
I -9.451080 -9.434028 25.096306
I -6.313509 -9.434028 21.958735
I -9.451080 -6.296457 21.958735
I -9.451080 -3.158886 -25.104832
I -9.451080 -3.158886 -18.829690
I -6.313509 -3.158886 -21.967261
I -9.451080 -0.021315 -21.967261
I -9.451080 -3.158886 -12.554548
I -6.313509 -3.158886 -15.692119
I -9.451080 -0.021315 -15.692119
I -9.451080 -3.158886 -6.279405
I -6.313509 -3.158886 -9.416976
I -9.451080 -0.021315 -9.416976
I -9.451080 -3.158886 -0.004263
I -6.313509 -3.158886 -3.141834
I -9.451080 -0.021315 -3.141834
I -9.451080 -3.158886 6.270879
I -6.313509 -3.158886 3.133308
I -9.451080 -0.021315 3.133308
I -9.451080 -3.158886 12.546022
I -6.313509 -3.158886 9.408450
I -9.451080 -0.021315 9.408450
I -9.451080 -3.158886 18.821164
I -6.313509 -3.158886 15.683593
I -9.451080 -0.021315 15.683593
I -9.451080 -3.158886 25.096306
I -6.313509 -3.158886 21.958735
I -9.451080 -0.021315 21.958735
I -9.451080 3.116256 -25.104832
I -9.451080 3.116256 -18.829690
I -6.313509 3.116256 -21.967261
I -9.451080 6.253827 -21.967261
I -9.451080 3.116256 -12.554548
I -6.313509 3.116256 -15.692119
I -9.451080 6.253827 -15.692119
I -9.451080 3.116256 -6.279405
I -6.313509 3.116256 -9.416976
I -9.451080 6.253827 -9.416976
I -9.451080 3.116256 -0.004263
I -6.313509 3.116256 -3.141834
I -9.451080 6.253827 -3.141834
I -9.451080 3.116256 6.270879
I -6.313509 3.116256 3.133308
I -9.451080 6.253827 3.133308
I -9.451080 3.116256 12.546022
I -6.313509 3.116256 9.408450
I -9.451080 6.253827 9.408450
I -9.451080 3.116256 18.821164
I -6.313509 3.116256 15.683593
I -9.451080 6.253827 15.683593
I -9.451080 3.116256 25.096306
I -6.313509 3.116256 21.958735
I -9.451080 6.253827 21.958735
I -9.451080 9.391398 -25.104832
I -9.451080 9.391398 -18.829690
I -6.313509 9.391398 -21.967261
I -9.451080 12.528970 -21.967261
I -9.451080 9.391398 -12.554548
I -6.313509 9.391398 -15.692119
I -9.451080 12.528970 -15.692119
I -9.451080 9.391398 -6.279405
I -6.313509 9.391398 -9.416976
I -9.451080 12.528970 -9.416976
I -9.451080 9.391398 -0.004263
I -6.313509 9.391398 -3.141834
I -9.451080 12.528970 -3.141834
I -9.451080 9.391398 6.270879
I -6.313509 9.391398 3.133308
I -9.451080 12.528970 3.133308
I -9.451080 9.391398 12.546022
I -6.313509 9.391398 9.408450
I -9.451080 12.528970 9.408450
I -9.451080 9.391398 18.821164
I -6.313509 9.391398 15.683593
I -9.451080 12.528970 15.683593
I -9.451080 9.391398 25.096306
I -6.313509 9.391398 21.958735
I -9.451080 12.528970 21.958735
I -9.451080 15.666541 -25.104832
I -9.451080 15.666541 -18.829690
I -6.313509 15.666541 -21.967261
I -9.451080 18.804112 -21.967261
I -9.451080 15.666541 -12.554548
I -6.313509 15.666541 -15.692119
I -9.451080 18.804112 -15.692119
I -9.451080 15.666541 -6.279405
I -6.313509 15.666541 -9.416976
I -9.451080 18.804112 -9.416976
I -9.451080 15.666541 -0.004263
I -6.313509 15.666541 -3.141834
I -9.451080 18.804112 -3.141834
I -9.451080 15.666541 6.270879
I -6.313509 15.666541 3.133308
I -9.451080 18.804112 3.133308
I -9.451080 15.666541 12.546022
I -6.313509 15.666541 9.408450
I -9.451080 18.804112 9.408450
I -9.451080 15.666541 18.821164
I -6.313509 15.666541 15.683593
I -9.451080 18.804112 15.683593
I -9.451080 15.666541 25.096306
I -6.313509 15.666541 21.958735
I -9.451080 18.804112 21.958735
I -9.451080 21.941683 -25.104832
I -9.451080 21.941683 -18.829690
I -6.313509 21.941683 -21.967261
I -9.451080 25.079254 -21.967261
I -9.451080 21.941683 -12.554548
I -6.313509 21.941683 -15.692119
I -9.451080 25.079254 -15.692119
I -9.451080 21.941683 -6.279405
I -6.313509 21.941683 -9.416976
I -9.451080 25.079254 -9.416976
I -9.451080 21.941683 -0.004263
I -6.313509 21.941683 -3.141834
I -9.451080 25.079254 -3.141834
I -9.451080 21.941683 6.270879
I -6.313509 21.941683 3.133308
I -9.451080 25.079254 3.133308
I -9.451080 21.941683 12.546022
I -6.313509 21.941683 9.408450
I -9.451080 25.079254 9.408450
I -9.451080 21.941683 18.821164
I -6.313509 21.941683 15.683593
I -9.451080 25.079254 15.683593
I -9.451080 21.941683 25.096306
I -6.313509 21.941683 21.958735
I -9.451080 25.079254 21.958735
I -3.175938 -25.121884 -21.967261
I -3.175938 -25.121884 -15.692119
I -3.175938 -25.121884 -9.416976
I -3.175938 -25.121884 -3.141834
I -3.175938 -25.121884 3.133308
I -3.175938 -25.121884 9.408450
I -3.175938 -25.121884 15.683593
I -3.175938 -25.121884 21.958735
I -3.175938 -21.984313 -25.104832
I -3.175938 -21.984313 -18.829690
I -0.038367 -21.984313 -21.967261
I -3.175938 -18.846742 -21.967261
I -3.175938 -21.984313 -12.554548
I -0.038367 -21.984313 -15.692119
I -3.175938 -18.846742 -15.692119
I -3.175938 -21.984313 -6.279405
I -0.038367 -21.984313 -9.416976
I -3.175938 -18.846742 -9.416976
I -3.175938 -21.984313 -0.004263
I -0.038367 -21.984313 -3.141834
I -3.175938 -18.846742 -3.141834
I -3.175938 -21.984313 6.270879
I -0.038367 -21.984313 3.133308
I -3.175938 -18.846742 3.133308
I -3.175938 -21.984313 12.546022
I -0.038367 -21.984313 9.408450
I -3.175938 -18.846742 9.408450
I -3.175938 -21.984313 18.821164
I -0.038367 -21.984313 15.683593
I -3.175938 -18.846742 15.683593
I -3.175938 -21.984313 25.096306
I -0.038367 -21.984313 21.958735
I -3.175938 -18.846742 21.958735
I -3.175938 -15.709171 -25.104832
I -3.175938 -15.709171 -18.829690
I -0.038367 -15.709171 -21.967261
I -3.175938 -12.571600 -21.967261
I -3.175938 -15.709171 -12.554548
I -0.038367 -15.709171 -15.692119
I -3.175938 -12.571600 -15.692119
I -3.175938 -15.709171 -6.279405
I -0.038367 -15.709171 -9.416976
I -3.175938 -12.571600 -9.416976
I -3.175938 -15.709171 -0.004263
I -0.038367 -15.709171 -3.141834
I -3.175938 -12.571600 -3.141834
I -3.175938 -15.709171 6.270879
I -0.038367 -15.709171 3.133308
I -3.175938 -12.571600 3.133308
I -3.175938 -15.709171 12.546022
I -0.038367 -15.709171 9.408450
I -3.175938 -12.571600 9.408450
I -3.175938 -15.709171 18.821164
I -0.038367 -15.709171 15.683593
I -3.175938 -12.571600 15.683593
I -3.175938 -15.709171 25.096306
I -0.038367 -15.709171 21.958735
I -3.175938 -12.571600 21.958735
I -3.175938 -9.434028 -25.104832
I -3.175938 -9.434028 -18.829690
I -0.038367 -9.434028 -21.967261
I -3.175938 -6.296457 -21.967261
I -3.175938 -9.434028 -12.554548
I -0.038367 -9.434028 -15.692119
I -3.175938 -6.296457 -15.692119
I -3.175938 -9.434028 -6.279405
I -0.038367 -9.434028 -9.416976
I -3.175938 -6.296457 -9.416976
I -3.175938 -9.434028 -0.004263
I -0.038367 -9.434028 -3.141834
I -3.175938 -6.296457 -3.141834
I -3.175938 -9.434028 6.270879
I -0.038367 -9.434028 3.133308
I -3.175938 -6.296457 3.133308
I -3.175938 -9.434028 12.546022
I -0.038367 -9.434028 9.408450
I -3.175938 -6.296457 9.408450
I -3.175938 -9.434028 18.821164
I -0.038367 -9.434028 15.683593
I -3.175938 -6.296457 15.683593
I -3.175938 -9.434028 25.096306
I -0.038367 -9.434028 21.958735
I -3.175938 -6.296457 21.958735
I -3.175938 -3.158886 -25.104832
I -3.175938 -3.158886 -18.829690
I -0.038367 -3.158886 -21.967261
I -3.175938 -0.021315 -21.967261
I -3.175938 -3.158886 -12.554548
I -0.038367 -3.158886 -15.692119
I -3.175938 -0.021315 -15.692119
I -3.175938 -3.158886 -6.279405
I -0.038367 -3.158886 -9.416976
I -3.175938 -0.021315 -9.416976
I -3.175938 -3.158886 -0.004263
I -0.038367 -3.158886 -3.141834
I -3.175938 -0.021315 -3.141834
I -3.175938 -3.158886 6.270879
I -0.038367 -3.158886 3.133308
I -3.175938 -0.021315 3.133308
I -3.175938 -3.158886 12.546022
I -0.038367 -3.158886 9.408450
I -3.175938 -0.021315 9.408450
I -3.175938 -3.158886 18.821164
I -0.038367 -3.158886 15.683593
I -3.175938 -0.021315 15.683593
I -3.175938 -3.158886 25.096306
I -0.038367 -3.158886 21.958735
I -3.175938 -0.021315 21.958735
I -3.175938 3.116256 -25.104832
I -3.175938 3.116256 -18.829690
I -0.038367 3.116256 -21.967261
I -3.175938 6.253827 -21.967261
I -3.175938 3.116256 -12.554548
I -0.038367 3.116256 -15.692119
I -3.175938 6.253827 -15.692119
I -3.175938 3.116256 -6.279405
I -0.038367 3.116256 -9.416976
I -3.175938 6.253827 -9.416976
I -3.175938 3.116256 -0.004263
I -0.038367 3.116256 -3.141834
I -3.175938 6.253827 -3.141834
I -3.175938 3.116256 6.270879
I -0.038367 3.116256 3.133308
I -3.175938 6.253827 3.133308
I -3.175938 3.116256 12.546022
I -0.038367 3.116256 9.408450
I -3.175938 6.253827 9.408450
I -3.175938 3.116256 18.821164
I -0.038367 3.116256 15.683593
I -3.175938 6.253827 15.683593
I -3.175938 3.116256 25.096306
I -0.038367 3.116256 21.958735
I -3.175938 6.253827 21.958735
I -3.175938 9.391398 -25.104832
I -3.175938 9.391398 -18.829690
I -0.038367 9.391398 -21.967261
I -3.175938 12.528970 -21.967261
I -3.175938 9.391398 -12.554548
I -0.038367 9.391398 -15.692119
I -3.175938 12.528970 -15.692119
I -3.175938 9.391398 -6.279405
I -0.038367 9.391398 -9.416976
I -3.175938 12.528970 -9.416976
I -3.175938 9.391398 -0.004263
I -0.038367 9.391398 -3.141834
I -3.175938 12.528970 -3.141834
I -3.175938 9.391398 6.270879
I -0.038367 9.391398 3.133308
I -3.175938 12.528970 3.133308
I -3.175938 9.391398 12.546022
I -0.038367 9.391398 9.408450
I -3.175938 12.528970 9.408450
I -3.175938 9.391398 18.821164
I -0.038367 9.391398 15.683593
I -3.175938 12.528970 15.683593
I -3.175938 9.391398 25.096306
I -0.038367 9.391398 21.958735
I -3.175938 12.528970 21.958735
I -3.175938 15.666541 -25.104832
I -3.175938 15.666541 -18.829690
I -0.038367 15.666541 -21.967261
I -3.175938 18.804112 -21.967261
I -3.175938 15.666541 -12.554548
I -0.038367 15.666541 -15.692119
I -3.175938 18.804112 -15.692119
I -3.175938 15.666541 -6.279405
I -0.038367 15.666541 -9.416976
I -3.175938 18.804112 -9.416976
I -3.175938 15.666541 -0.004263
I -0.038367 15.666541 -3.141834
I -3.175938 18.804112 -3.141834
I -3.175938 15.666541 6.270879
I -0.038367 15.666541 3.133308
I -3.175938 18.804112 3.133308
I -3.175938 15.666541 12.546022
I -0.038367 15.666541 9.408450
I -3.175938 18.804112 9.408450
I -3.175938 15.666541 18.821164
I -0.038367 15.666541 15.683593
I -3.175938 18.804112 15.683593
I -3.175938 15.666541 25.096306
I -0.038367 15.666541 21.958735
I -3.175938 18.804112 21.958735
I -3.175938 21.941683 -25.104832
I -3.175938 21.941683 -18.829690
I -0.038367 21.941683 -21.967261
I -3.175938 25.079254 -21.967261
I -3.175938 21.941683 -12.554548
I -0.038367 21.941683 -15.692119
I -3.175938 25.079254 -15.692119
I -3.175938 21.941683 -6.279405
I -0.038367 21.941683 -9.416976
I -3.175938 25.079254 -9.416976
I -3.175938 21.941683 -0.004263
I -0.038367 21.941683 -3.141834
I -3.175938 25.079254 -3.141834
I -3.175938 21.941683 6.270879
I -0.038367 21.941683 3.133308
I -3.175938 25.079254 3.133308
I -3.175938 21.941683 12.546022
I -0.038367 21.941683 9.408450
I -3.175938 25.079254 9.408450
I -3.175938 21.941683 18.821164
I -0.038367 21.941683 15.683593
I -3.175938 25.079254 15.683593
I -3.175938 21.941683 25.096306
I -0.038367 21.941683 21.958735
I -3.175938 25.079254 21.958735
I 3.099204 -25.121884 -21.967261
I 3.099204 -25.121884 -15.692119
I 3.099204 -25.121884 -9.416976
I 3.099204 -25.121884 -3.141834
I 3.099204 -25.121884 3.133308
I 3.099204 -25.121884 9.408450
I 3.099204 -25.121884 15.683593
I 3.099204 -25.121884 21.958735
I 3.099204 -21.984313 -25.104832
I 3.099204 -21.984313 -18.829690
I 6.236775 -21.984313 -21.967261
I 3.099204 -18.846742 -21.967261
I 3.099204 -21.984313 -12.554548
I 6.236775 -21.984313 -15.692119
I 3.099204 -18.846742 -15.692119
I 3.099204 -21.984313 -6.279405
I 6.236775 -21.984313 -9.416976
I 3.099204 -18.846742 -9.416976
I 3.099204 -21.984313 -0.004263
I 6.236775 -21.984313 -3.141834
I 3.099204 -18.846742 -3.141834
I 3.099204 -21.984313 6.270879
I 6.236775 -21.984313 3.133308
I 3.099204 -18.846742 3.133308
I 3.099204 -21.984313 12.546022
I 6.236775 -21.984313 9.408450
I 3.099204 -18.846742 9.408450
I 3.099204 -21.984313 18.821164
I 6.236775 -21.984313 15.683593
I 3.099204 -18.846742 15.683593
I 3.099204 -21.984313 25.096306
I 6.236775 -21.984313 21.958735
I 3.099204 -18.846742 21.958735
I 3.099204 -15.709171 -25.104832
I 3.099204 -15.709171 -18.829690
I 6.236775 -15.709171 -21.967261
I 3.099204 -12.571600 -21.967261
I 3.099204 -15.709171 -12.554548
I 6.236775 -15.709171 -15.692119
I 3.099204 -12.571600 -15.692119
I 3.099204 -15.709171 -6.279405
I 6.236775 -15.709171 -9.416976
I 3.099204 -12.571600 -9.416976
I 3.099204 -15.709171 -0.004263
I 6.236775 -15.709171 -3.141834
I 3.099204 -12.571600 -3.141834
I 3.099204 -15.709171 6.270879
I 6.236775 -15.709171 3.133308
I 3.099204 -12.571600 3.133308
I 3.099204 -15.709171 12.546022
I 6.236775 -15.709171 9.408450
I 3.099204 -12.571600 9.408450
I 3.099204 -15.709171 18.821164
I 6.236775 -15.709171 15.683593
I 3.099204 -12.571600 15.683593
I 3.099204 -15.709171 25.096306
I 6.236775 -15.709171 21.958735
I 3.099204 -12.571600 21.958735
I 3.099204 -9.434028 -25.104832
I 3.099204 -9.434028 -18.829690
I 6.236775 -9.434028 -21.967261
I 3.099204 -6.296457 -21.967261
I 3.099204 -9.434028 -12.554548
I 6.236775 -9.434028 -15.692119
I 3.099204 -6.296457 -15.692119
I 3.099204 -9.434028 -6.279405
I 6.236775 -9.434028 -9.416976
I 3.099204 -6.296457 -9.416976
I 3.099204 -9.434028 -0.004263
I 6.236775 -9.434028 -3.141834
I 3.099204 -6.296457 -3.141834
I 3.099204 -9.434028 6.270879
I 6.236775 -9.434028 3.133308
I 3.099204 -6.296457 3.133308
I 3.099204 -9.434028 12.546022
I 6.236775 -9.434028 9.408450
I 3.099204 -6.296457 9.408450
I 3.099204 -9.434028 18.821164
I 6.236775 -9.434028 15.683593
I 3.099204 -6.296457 15.683593
I 3.099204 -9.434028 25.096306
I 6.236775 -9.434028 21.958735
I 3.099204 -6.296457 21.958735
I 3.099204 -3.158886 -25.104832
I 3.099204 -3.158886 -18.829690
I 6.236775 -3.158886 -21.967261
I 3.099204 -0.021315 -21.967261
I 3.099204 -3.158886 -12.554548
I 6.236775 -3.158886 -15.692119
I 3.099204 -0.021315 -15.692119
I 3.099204 -3.158886 -6.279405
I 6.236775 -3.158886 -9.416976
I 3.099204 -0.021315 -9.416976
I 3.099204 -3.158886 -0.004263
I 6.236775 -3.158886 -3.141834
I 3.099204 -0.021315 -3.141834
I 3.099204 -3.158886 6.270879
I 6.236775 -3.158886 3.133308
I 3.099204 -0.021315 3.133308
I 3.099204 -3.158886 12.546022
I 6.236775 -3.158886 9.408450
I 3.099204 -0.021315 9.408450
I 3.099204 -3.158886 18.821164
I 6.236775 -3.158886 15.683593
I 3.099204 -0.021315 15.683593
I 3.099204 -3.158886 25.096306
I 6.236775 -3.158886 21.958735
I 3.099204 -0.021315 21.958735
I 3.099204 3.116256 -25.104832
I 3.099204 3.116256 -18.829690
I 6.236775 3.116256 -21.967261
I 3.099204 6.253827 -21.967261
I 3.099204 3.116256 -12.554548
I 6.236775 3.116256 -15.692119
I 3.099204 6.253827 -15.692119
I 3.099204 3.116256 -6.279405
I 6.236775 3.116256 -9.416976
I 3.099204 6.253827 -9.416976
I 3.099204 3.116256 -0.004263
I 6.236775 3.116256 -3.141834
I 3.099204 6.253827 -3.141834
I 3.099204 3.116256 6.270879
I 6.236775 3.116256 3.133308
I 3.099204 6.253827 3.133308
I 3.099204 3.116256 12.546022
I 6.236775 3.116256 9.408450
I 3.099204 6.253827 9.408450
I 3.099204 3.116256 18.821164
I 6.236775 3.116256 15.683593
I 3.099204 6.253827 15.683593
I 3.099204 3.116256 25.096306
I 6.236775 3.116256 21.958735
I 3.099204 6.253827 21.958735
I 3.099204 9.391398 -25.104832
I 3.099204 9.391398 -18.829690
I 6.236775 9.391398 -21.967261
I 3.099204 12.528970 -21.967261
I 3.099204 9.391398 -12.554548
I 6.236775 9.391398 -15.692119
I 3.099204 12.528970 -15.692119
I 3.099204 9.391398 -6.279405
I 6.236775 9.391398 -9.416976
I 3.099204 12.528970 -9.416976
I 3.099204 9.391398 -0.004263
I 6.236775 9.391398 -3.141834
I 3.099204 12.528970 -3.141834
I 3.099204 9.391398 6.270879
I 6.236775 9.391398 3.133308
I 3.099204 12.528970 3.133308
I 3.099204 9.391398 12.546022
I 6.236775 9.391398 9.408450
I 3.099204 12.528970 9.408450
I 3.099204 9.391398 18.821164
I 6.236775 9.391398 15.683593
I 3.099204 12.528970 15.683593
I 3.099204 9.391398 25.096306
I 6.236775 9.391398 21.958735
I 3.099204 12.528970 21.958735
I 3.099204 15.666541 -25.104832
I 3.099204 15.666541 -18.829690
I 6.236775 15.666541 -21.967261
I 3.099204 18.804112 -21.967261
I 3.099204 15.666541 -12.554548
I 6.236775 15.666541 -15.692119
I 3.099204 18.804112 -15.692119
I 3.099204 15.666541 -6.279405
I 6.236775 15.666541 -9.416976
I 3.099204 18.804112 -9.416976
I 3.099204 15.666541 -0.004263
I 6.236775 15.666541 -3.141834
I 3.099204 18.804112 -3.141834
I 3.099204 15.666541 6.270879
I 6.236775 15.666541 3.133308
I 3.099204 18.804112 3.133308
I 3.099204 15.666541 12.546022
I 6.236775 15.666541 9.408450
I 3.099204 18.804112 9.408450
I 3.099204 15.666541 18.821164
I 6.236775 15.666541 15.683593
I 3.099204 18.804112 15.683593
I 3.099204 15.666541 25.096306
I 6.236775 15.666541 21.958735
I 3.099204 18.804112 21.958735
I 3.099204 21.941683 -25.104832
I 3.099204 21.941683 -18.829690
I 6.236775 21.941683 -21.967261
I 3.099204 25.079254 -21.967261
I 3.099204 21.941683 -12.554548
I 6.236775 21.941683 -15.692119
I 3.099204 25.079254 -15.692119
I 3.099204 21.941683 -6.279405
I 6.236775 21.941683 -9.416976
I 3.099204 25.079254 -9.416976
I 3.099204 21.941683 -0.004263
I 6.236775 21.941683 -3.141834
I 3.099204 25.079254 -3.141834
I 3.099204 21.941683 6.270879
I 6.236775 21.941683 3.133308
I 3.099204 25.079254 3.133308
I 3.099204 21.941683 12.546022
I 6.236775 21.941683 9.408450
I 3.099204 25.079254 9.408450
I 3.099204 21.941683 18.821164
I 6.236775 21.941683 15.683593
I 3.099204 25.079254 15.683593
I 3.099204 21.941683 25.096306
I 6.236775 21.941683 21.958735
I 3.099204 25.079254 21.958735
I 9.374346 -25.121884 -21.967261
I 9.374346 -25.121884 -15.692119
I 9.374346 -25.121884 -9.416976
I 9.374346 -25.121884 -3.141834
I 9.374346 -25.121884 3.133308
I 9.374346 -25.121884 9.408450
I 9.374346 -25.121884 15.683593
I 9.374346 -25.121884 21.958735
I 9.374346 -21.984313 -25.104832
I 9.374346 -21.984313 -18.829690
I 12.511918 -21.984313 -21.967261
I 9.374346 -18.846742 -21.967261
I 9.374346 -21.984313 -12.554548
I 12.511918 -21.984313 -15.692119
I 9.374346 -18.846742 -15.692119
I 9.374346 -21.984313 -6.279405
I 12.511918 -21.984313 -9.416976
I 9.374346 -18.846742 -9.416976
I 9.374346 -21.984313 -0.004263
I 12.511918 -21.984313 -3.141834
I 9.374346 -18.846742 -3.141834
I 9.374346 -21.984313 6.270879
I 12.511918 -21.984313 3.133308
I 9.374346 -18.846742 3.133308
I 9.374346 -21.984313 12.546022
I 12.511918 -21.984313 9.408450
I 9.374346 -18.846742 9.408450
I 9.374346 -21.984313 18.821164
I 12.511918 -21.984313 15.683593
I 9.374346 -18.846742 15.683593
I 9.374346 -21.984313 25.096306
I 12.511918 -21.984313 21.958735
I 9.374346 -18.846742 21.958735
I 9.374346 -15.709171 -25.104832
I 9.374346 -15.709171 -18.829690
I 12.511918 -15.709171 -21.967261
I 9.374346 -12.571600 -21.967261
I 9.374346 -15.709171 -12.554548
I 12.511918 -15.709171 -15.692119
I 9.374346 -12.571600 -15.692119
I 9.374346 -15.709171 -6.279405
I 12.511918 -15.709171 -9.416976
I 9.374346 -12.571600 -9.416976
I 9.374346 -15.709171 -0.004263
I 12.511918 -15.709171 -3.141834
I 9.374346 -12.571600 -3.141834
I 9.374346 -15.709171 6.270879
I 12.511918 -15.709171 3.133308
I 9.374346 -12.571600 3.133308
I 9.374346 -15.709171 12.546022
I 12.511918 -15.709171 9.408450
I 9.374346 -12.571600 9.408450
I 9.374346 -15.709171 18.821164
I 12.511918 -15.709171 15.683593
I 9.374346 -12.571600 15.683593
I 9.374346 -15.709171 25.096306
I 12.511918 -15.709171 21.958735
I 9.374346 -12.571600 21.958735
I 9.374346 -9.434028 -25.104832
I 9.374346 -9.434028 -18.829690
I 12.511918 -9.434028 -21.967261
I 9.374346 -6.296457 -21.967261
I 9.374346 -9.434028 -12.554548
I 12.511918 -9.434028 -15.692119
I 9.374346 -6.296457 -15.692119
I 9.374346 -9.434028 -6.279405
I 12.511918 -9.434028 -9.416976
I 9.374346 -6.296457 -9.416976
I 9.374346 -9.434028 -0.004263
I 12.511918 -9.434028 -3.141834
I 9.374346 -6.296457 -3.141834
I 9.374346 -9.434028 6.270879
I 12.511918 -9.434028 3.133308
I 9.374346 -6.296457 3.133308
I 9.374346 -9.434028 12.546022
I 12.511918 -9.434028 9.408450
I 9.374346 -6.296457 9.408450
I 9.374346 -9.434028 18.821164
I 12.511918 -9.434028 15.683593
I 9.374346 -6.296457 15.683593
I 9.374346 -9.434028 25.096306
I 12.511918 -9.434028 21.958735
I 9.374346 -6.296457 21.958735
I 9.374346 -3.158886 -25.104832
I 9.374346 -3.158886 -18.829690
I 12.511918 -3.158886 -21.967261
I 9.374346 -0.021315 -21.967261
I 9.374346 -3.158886 -12.554548
I 12.511918 -3.158886 -15.692119
I 9.374346 -0.021315 -15.692119
I 9.374346 -3.158886 -6.279405
I 12.511918 -3.158886 -9.416976
I 9.374346 -0.021315 -9.416976
I 9.374346 -3.158886 -0.004263
I 12.511918 -3.158886 -3.141834
I 9.374346 -0.021315 -3.141834
I 9.374346 -3.158886 6.270879
I 12.511918 -3.158886 3.133308
I 9.374346 -0.021315 3.133308
I 9.374346 -3.158886 12.546022
I 12.511918 -3.158886 9.408450
I 9.374346 -0.021315 9.408450
I 9.374346 -3.158886 18.821164
I 12.511918 -3.158886 15.683593
I 9.374346 -0.021315 15.683593
I 9.374346 -3.158886 25.096306
I 12.511918 -3.158886 21.958735
I 9.374346 -0.021315 21.958735
I 9.374346 3.116256 -25.104832
I 9.374346 3.116256 -18.829690
I 12.511918 3.116256 -21.967261
I 9.374346 6.253827 -21.967261
I 9.374346 3.116256 -12.554548
I 12.511918 3.116256 -15.692119
I 9.374346 6.253827 -15.692119
I 9.374346 3.116256 -6.279405
I 12.511918 3.116256 -9.416976
I 9.374346 6.253827 -9.416976
I 9.374346 3.116256 -0.004263
I 12.511918 3.116256 -3.141834
I 9.374346 6.253827 -3.141834
I 9.374346 3.116256 6.270879
I 12.511918 3.116256 3.133308
I 9.374346 6.253827 3.133308
I 9.374346 3.116256 12.546022
I 12.511918 3.116256 9.408450
I 9.374346 6.253827 9.408450
I 9.374346 3.116256 18.821164
I 12.511918 3.116256 15.683593
I 9.374346 6.253827 15.683593
I 9.374346 3.116256 25.096306
I 12.511918 3.116256 21.958735
I 9.374346 6.253827 21.958735
I 9.374346 9.391398 -25.104832
I 9.374346 9.391398 -18.829690
I 12.511918 9.391398 -21.967261
I 9.374346 12.528970 -21.967261
I 9.374346 9.391398 -12.554548
I 12.511918 9.391398 -15.692119
I 9.374346 12.528970 -15.692119
I 9.374346 9.391398 -6.279405
I 12.511918 9.391398 -9.416976
I 9.374346 12.528970 -9.416976
I 9.374346 9.391398 -0.004263
I 12.511918 9.391398 -3.141834
I 9.374346 12.528970 -3.141834
I 9.374346 9.391398 6.270879
I 12.511918 9.391398 3.133308
I 9.374346 12.528970 3.133308
I 9.374346 9.391398 12.546022
I 12.511918 9.391398 9.408450
I 9.374346 12.528970 9.408450
I 9.374346 9.391398 18.821164
I 12.511918 9.391398 15.683593
I 9.374346 12.528970 15.683593
I 9.374346 9.391398 25.096306
I 12.511918 9.391398 21.958735
I 9.374346 12.528970 21.958735
I 9.374346 15.666541 -25.104832
I 9.374346 15.666541 -18.829690
I 12.511918 15.666541 -21.967261
I 9.374346 18.804112 -21.967261
I 9.374346 15.666541 -12.554548
I 12.511918 15.666541 -15.692119
I 9.374346 18.804112 -15.692119
I 9.374346 15.666541 -6.279405
I 12.511918 15.666541 -9.416976
I 9.374346 18.804112 -9.416976
I 9.374346 15.666541 -0.004263
I 12.511918 15.666541 -3.141834
I 9.374346 18.804112 -3.141834
I 9.374346 15.666541 6.270879
I 12.511918 15.666541 3.133308
I 9.374346 18.804112 3.133308
I 9.374346 15.666541 12.546022
I 12.511918 15.666541 9.408450
I 9.374346 18.804112 9.408450
I 9.374346 15.666541 18.821164
I 12.511918 15.666541 15.683593
I 9.374346 18.804112 15.683593
I 9.374346 15.666541 25.096306
I 12.511918 15.666541 21.958735
I 9.374346 18.804112 21.958735
I 9.374346 21.941683 -25.104832
I 9.374346 21.941683 -18.829690
I 12.511918 21.941683 -21.967261
I 9.374346 25.079254 -21.967261
I 9.374346 21.941683 -12.554548
I 12.511918 21.941683 -15.692119
I 9.374346 25.079254 -15.692119
I 9.374346 21.941683 -6.279405
I 12.511918 21.941683 -9.416976
I 9.374346 25.079254 -9.416976
I 9.374346 21.941683 -0.004263
I 12.511918 21.941683 -3.141834
I 9.374346 25.079254 -3.141834
I 9.374346 21.941683 6.270879
I 12.511918 21.941683 3.133308
I 9.374346 25.079254 3.133308
I 9.374346 21.941683 12.546022
I 12.511918 21.941683 9.408450
I 9.374346 25.079254 9.408450
I 9.374346 21.941683 18.821164
I 12.511918 21.941683 15.683593
I 9.374346 25.079254 15.683593
I 9.374346 21.941683 25.096306
I 12.511918 21.941683 21.958735
I 9.374346 25.079254 21.958735
I 15.649489 -25.121884 -21.967261
I 15.649489 -25.121884 -15.692119
I 15.649489 -25.121884 -9.416976
I 15.649489 -25.121884 -3.141834
I 15.649489 -25.121884 3.133308
I 15.649489 -25.121884 9.408450
I 15.649489 -25.121884 15.683593
I 15.649489 -25.121884 21.958735
I 15.649489 -21.984313 -25.104832
I 15.649489 -21.984313 -18.829690
I 18.787060 -21.984313 -21.967261
I 15.649489 -18.846742 -21.967261
I 15.649489 -21.984313 -12.554548
I 18.787060 -21.984313 -15.692119
I 15.649489 -18.846742 -15.692119
I 15.649489 -21.984313 -6.279405
I 18.787060 -21.984313 -9.416976
I 15.649489 -18.846742 -9.416976
I 15.649489 -21.984313 -0.004263
I 18.787060 -21.984313 -3.141834
I 15.649489 -18.846742 -3.141834
I 15.649489 -21.984313 6.270879
I 18.787060 -21.984313 3.133308
I 15.649489 -18.846742 3.133308
I 15.649489 -21.984313 12.546022
I 18.787060 -21.984313 9.408450
I 15.649489 -18.846742 9.408450
I 15.649489 -21.984313 18.821164
I 18.787060 -21.984313 15.683593
I 15.649489 -18.846742 15.683593
I 15.649489 -21.984313 25.096306
I 18.787060 -21.984313 21.958735
I 15.649489 -18.846742 21.958735
I 15.649489 -15.709171 -25.104832
I 15.649489 -15.709171 -18.829690
I 18.787060 -15.709171 -21.967261
I 15.649489 -12.571600 -21.967261
I 15.649489 -15.709171 -12.554548
I 18.787060 -15.709171 -15.692119
I 15.649489 -12.571600 -15.692119
I 15.649489 -15.709171 -6.279405
I 18.787060 -15.709171 -9.416976
I 15.649489 -12.571600 -9.416976
I 15.649489 -15.709171 -0.004263
I 18.787060 -15.709171 -3.141834
I 15.649489 -12.571600 -3.141834
I 15.649489 -15.709171 6.270879
I 18.787060 -15.709171 3.133308
I 15.649489 -12.571600 3.133308
I 15.649489 -15.709171 12.546022
I 18.787060 -15.709171 9.408450
I 15.649489 -12.571600 9.408450
I 15.649489 -15.709171 18.821164
I 18.787060 -15.709171 15.683593
I 15.649489 -12.571600 15.683593
I 15.649489 -15.709171 25.096306
I 18.787060 -15.709171 21.958735
I 15.649489 -12.571600 21.958735
I 15.649489 -9.434028 -25.104832
I 15.649489 -9.434028 -18.829690
I 18.787060 -9.434028 -21.967261
I 15.649489 -6.296457 -21.967261
I 15.649489 -9.434028 -12.554548
I 18.787060 -9.434028 -15.692119
I 15.649489 -6.296457 -15.692119
I 15.649489 -9.434028 -6.279405
I 18.787060 -9.434028 -9.416976
I 15.649489 -6.296457 -9.416976
I 15.649489 -9.434028 -0.004263
I 18.787060 -9.434028 -3.141834
I 15.649489 -6.296457 -3.141834
I 15.649489 -9.434028 6.270879
I 18.787060 -9.434028 3.133308
I 15.649489 -6.296457 3.133308
I 15.649489 -9.434028 12.546022
I 18.787060 -9.434028 9.408450
I 15.649489 -6.296457 9.408450
I 15.649489 -9.434028 18.821164
I 18.787060 -9.434028 15.683593
I 15.649489 -6.296457 15.683593
I 15.649489 -9.434028 25.096306
I 18.787060 -9.434028 21.958735
I 15.649489 -6.296457 21.958735
I 15.649489 -3.158886 -25.104832
I 15.649489 -3.158886 -18.829690
I 18.787060 -3.158886 -21.967261
I 15.649489 -0.021315 -21.967261
I 15.649489 -3.158886 -12.554548
I 18.787060 -3.158886 -15.692119
I 15.649489 -0.021315 -15.692119
I 15.649489 -3.158886 -6.279405
I 18.787060 -3.158886 -9.416976
I 15.649489 -0.021315 -9.416976
I 15.649489 -3.158886 -0.004263
I 18.787060 -3.158886 -3.141834
I 15.649489 -0.021315 -3.141834
I 15.649489 -3.158886 6.270879
I 18.787060 -3.158886 3.133308
I 15.649489 -0.021315 3.133308
I 15.649489 -3.158886 12.546022
I 18.787060 -3.158886 9.408450
I 15.649489 -0.021315 9.408450
I 15.649489 -3.158886 18.821164
I 18.787060 -3.158886 15.683593
I 15.649489 -0.021315 15.683593
I 15.649489 -3.158886 25.096306
I 18.787060 -3.158886 21.958735
I 15.649489 -0.021315 21.958735
I 15.649489 3.116256 -25.104832
I 15.649489 3.116256 -18.829690
I 18.787060 3.116256 -21.967261
I 15.649489 6.253827 -21.967261
I 15.649489 3.116256 -12.554548
I 18.787060 3.116256 -15.692119
I 15.649489 6.253827 -15.692119
I 15.649489 3.116256 -6.279405
I 18.787060 3.116256 -9.416976
I 15.649489 6.253827 -9.416976
I 15.649489 3.116256 -0.004263
I 18.787060 3.116256 -3.141834
I 15.649489 6.253827 -3.141834
I 15.649489 3.116256 6.270879
I 18.787060 3.116256 3.133308
I 15.649489 6.253827 3.133308
I 15.649489 3.116256 12.546022
I 18.787060 3.116256 9.408450
I 15.649489 6.253827 9.408450
I 15.649489 3.116256 18.821164
I 18.787060 3.116256 15.683593
I 15.649489 6.253827 15.683593
I 15.649489 3.116256 25.096306
I 18.787060 3.116256 21.958735
I 15.649489 6.253827 21.958735
I 15.649489 9.391398 -25.104832
I 15.649489 9.391398 -18.829690
I 18.787060 9.391398 -21.967261
I 15.649489 12.528970 -21.967261
I 15.649489 9.391398 -12.554548
I 18.787060 9.391398 -15.692119
I 15.649489 12.528970 -15.692119
I 15.649489 9.391398 -6.279405
I 18.787060 9.391398 -9.416976
I 15.649489 12.528970 -9.416976
I 15.649489 9.391398 -0.004263
I 18.787060 9.391398 -3.141834
I 15.649489 12.528970 -3.141834
I 15.649489 9.391398 6.270879
I 18.787060 9.391398 3.133308
I 15.649489 12.528970 3.133308
I 15.649489 9.391398 12.546022
I 18.787060 9.391398 9.408450
I 15.649489 12.528970 9.408450
I 15.649489 9.391398 18.821164
I 18.787060 9.391398 15.683593
I 15.649489 12.528970 15.683593
I 15.649489 9.391398 25.096306
I 18.787060 9.391398 21.958735
I 15.649489 12.528970 21.958735
I 15.649489 15.666541 -25.104832
I 15.649489 15.666541 -18.829690
I 18.787060 15.666541 -21.967261
I 15.649489 18.804112 -21.967261
I 15.649489 15.666541 -12.554548
I 18.787060 15.666541 -15.692119
I 15.649489 18.804112 -15.692119
I 15.649489 15.666541 -6.279405
I 18.787060 15.666541 -9.416976
I 15.649489 18.804112 -9.416976
I 15.649489 15.666541 -0.004263
I 18.787060 15.666541 -3.141834
I 15.649489 18.804112 -3.141834
I 15.649489 15.666541 6.270879
I 18.787060 15.666541 3.133308
I 15.649489 18.804112 3.133308
I 15.649489 15.666541 12.546022
I 18.787060 15.666541 9.408450
I 15.649489 18.804112 9.408450
I 15.649489 15.666541 18.821164
I 18.787060 15.666541 15.683593
I 15.649489 18.804112 15.683593
I 15.649489 15.666541 25.096306
I 18.787060 15.666541 21.958735
I 15.649489 18.804112 21.958735
I 15.649489 21.941683 -25.104832
I 15.649489 21.941683 -18.829690
I 18.787060 21.941683 -21.967261
I 15.649489 25.079254 -21.967261
I 15.649489 21.941683 -12.554548
I 18.787060 21.941683 -15.692119
I 15.649489 25.079254 -15.692119
I 15.649489 21.941683 -6.279405
I 18.787060 21.941683 -9.416976
I 15.649489 25.079254 -9.416976
I 15.649489 21.941683 -0.004263
I 18.787060 21.941683 -3.141834
I 15.649489 25.079254 -3.141834
I 15.649489 21.941683 6.270879
I 18.787060 21.941683 3.133308
I 15.649489 25.079254 3.133308
I 15.649489 21.941683 12.546022
I 18.787060 21.941683 9.408450
I 15.649489 25.079254 9.408450
I 15.649489 21.941683 18.821164
I 18.787060 21.941683 15.683593
I 15.649489 25.079254 15.683593
I 15.649489 21.941683 25.096306
I 18.787060 21.941683 21.958735
I 15.649489 25.079254 21.958735
I 21.924631 -25.121884 -21.967261
I 21.924631 -25.121884 -15.692119
I 21.924631 -25.121884 -9.416976
I 21.924631 -25.121884 -3.141834
I 21.924631 -25.121884 3.133308
I 21.924631 -25.121884 9.408450
I 21.924631 -25.121884 15.683593
I 21.924631 -25.121884 21.958735
I 21.924631 -21.984313 -25.104832
I 21.924631 -21.984313 -18.829690
I 25.062202 -21.984313 -21.967261
I 21.924631 -18.846742 -21.967261
I 21.924631 -21.984313 -12.554548
I 25.062202 -21.984313 -15.692119
I 21.924631 -18.846742 -15.692119
I 21.924631 -21.984313 -6.279405
I 25.062202 -21.984313 -9.416976
I 21.924631 -18.846742 -9.416976
I 21.924631 -21.984313 -0.004263
I 25.062202 -21.984313 -3.141834
I 21.924631 -18.846742 -3.141834
I 21.924631 -21.984313 6.270879
I 25.062202 -21.984313 3.133308
I 21.924631 -18.846742 3.133308
I 21.924631 -21.984313 12.546022
I 25.062202 -21.984313 9.408450
I 21.924631 -18.846742 9.408450
I 21.924631 -21.984313 18.821164
I 25.062202 -21.984313 15.683593
I 21.924631 -18.846742 15.683593
I 21.924631 -21.984313 25.096306
I 25.062202 -21.984313 21.958735
I 21.924631 -18.846742 21.958735
I 21.924631 -15.709171 -25.104832
I 21.924631 -15.709171 -18.829690
I 25.062202 -15.709171 -21.967261
I 21.924631 -12.571600 -21.967261
I 21.924631 -15.709171 -12.554548
I 25.062202 -15.709171 -15.692119
I 21.924631 -12.571600 -15.692119
I 21.924631 -15.709171 -6.279405
I 25.062202 -15.709171 -9.416976
I 21.924631 -12.571600 -9.416976
I 21.924631 -15.709171 -0.004263
I 25.062202 -15.709171 -3.141834
I 21.924631 -12.571600 -3.141834
I 21.924631 -15.709171 6.270879
I 25.062202 -15.709171 3.133308
I 21.924631 -12.571600 3.133308
I 21.924631 -15.709171 12.546022
I 25.062202 -15.709171 9.408450
I 21.924631 -12.571600 9.408450
I 21.924631 -15.709171 18.821164
I 25.062202 -15.709171 15.683593
I 21.924631 -12.571600 15.683593
I 21.924631 -15.709171 25.096306
I 25.062202 -15.709171 21.958735
I 21.924631 -12.571600 21.958735
I 21.924631 -9.434028 -25.104832
I 21.924631 -9.434028 -18.829690
I 25.062202 -9.434028 -21.967261
I 21.924631 -6.296457 -21.967261
I 21.924631 -9.434028 -12.554548
I 25.062202 -9.434028 -15.692119
I 21.924631 -6.296457 -15.692119
I 21.924631 -9.434028 -6.279405
I 25.062202 -9.434028 -9.416976
I 21.924631 -6.296457 -9.416976
I 21.924631 -9.434028 -0.004263
I 25.062202 -9.434028 -3.141834
I 21.924631 -6.296457 -3.141834
I 21.924631 -9.434028 6.270879
I 25.062202 -9.434028 3.133308
I 21.924631 -6.296457 3.133308
I 21.924631 -9.434028 12.546022
I 25.062202 -9.434028 9.408450
I 21.924631 -6.296457 9.408450
I 21.924631 -9.434028 18.821164
I 25.062202 -9.434028 15.683593
I 21.924631 -6.296457 15.683593
I 21.924631 -9.434028 25.096306
I 25.062202 -9.434028 21.958735
I 21.924631 -6.296457 21.958735
I 21.924631 -3.158886 -25.104832
I 21.924631 -3.158886 -18.829690
I 25.062202 -3.158886 -21.967261
I 21.924631 -0.021315 -21.967261
I 21.924631 -3.158886 -12.554548
I 25.062202 -3.158886 -15.692119
I 21.924631 -0.021315 -15.692119
I 21.924631 -3.158886 -6.279405
I 25.062202 -3.158886 -9.416976
I 21.924631 -0.021315 -9.416976
I 21.924631 -3.158886 -0.004263
I 25.062202 -3.158886 -3.141834
I 21.924631 -0.021315 -3.141834
I 21.924631 -3.158886 6.270879
I 25.062202 -3.158886 3.133308
I 21.924631 -0.021315 3.133308
I 21.924631 -3.158886 12.546022
I 25.062202 -3.158886 9.408450
I 21.924631 -0.021315 9.408450
I 21.924631 -3.158886 18.821164
I 25.062202 -3.158886 15.683593
I 21.924631 -0.021315 15.683593
I 21.924631 -3.158886 25.096306
I 25.062202 -3.158886 21.958735
I 21.924631 -0.021315 21.958735
I 21.924631 3.116256 -25.104832
I 21.924631 3.116256 -18.829690
I 25.062202 3.116256 -21.967261
I 21.924631 6.253827 -21.967261
I 21.924631 3.116256 -12.554548
I 25.062202 3.116256 -15.692119
I 21.924631 6.253827 -15.692119
I 21.924631 3.116256 -6.279405
I 25.062202 3.116256 -9.416976
I 21.924631 6.253827 -9.416976
I 21.924631 3.116256 -0.004263
I 25.062202 3.116256 -3.141834
I 21.924631 6.253827 -3.141834
I 21.924631 3.116256 6.270879
I 25.062202 3.116256 3.133308
I 21.924631 6.253827 3.133308
I 21.924631 3.116256 12.546022
I 25.062202 3.116256 9.408450
I 21.924631 6.253827 9.408450
I 21.924631 3.116256 18.821164
I 25.062202 3.116256 15.683593
I 21.924631 6.253827 15.683593
I 21.924631 3.116256 25.096306
I 25.062202 3.116256 21.958735
I 21.924631 6.253827 21.958735
I 21.924631 9.391398 -25.104832
I 21.924631 9.391398 -18.829690
I 25.062202 9.391398 -21.967261
I 21.924631 12.528970 -21.967261
I 21.924631 9.391398 -12.554548
I 25.062202 9.391398 -15.692119
I 21.924631 12.528970 -15.692119
I 21.924631 9.391398 -6.279405
I 25.062202 9.391398 -9.416976
I 21.924631 12.528970 -9.416976
I 21.924631 9.391398 -0.004263
I 25.062202 9.391398 -3.141834
I 21.924631 12.528970 -3.141834
I 21.924631 9.391398 6.270879
I 25.062202 9.391398 3.133308
I 21.924631 12.528970 3.133308
I 21.924631 9.391398 12.546022
I 25.062202 9.391398 9.408450
I 21.924631 12.528970 9.408450
I 21.924631 9.391398 18.821164
I 25.062202 9.391398 15.683593
I 21.924631 12.528970 15.683593
I 21.924631 9.391398 25.096306
I 25.062202 9.391398 21.958735
I 21.924631 12.528970 21.958735
I 21.924631 15.666541 -25.104832
I 21.924631 15.666541 -18.829690
I 25.062202 15.666541 -21.967261
I 21.924631 18.804112 -21.967261
I 21.924631 15.666541 -12.554548
I 25.062202 15.666541 -15.692119
I 21.924631 18.804112 -15.692119
I 21.924631 15.666541 -6.279405
I 25.062202 15.666541 -9.416976
I 21.924631 18.804112 -9.416976
I 21.924631 15.666541 -0.004263
I 25.062202 15.666541 -3.141834
I 21.924631 18.804112 -3.141834
I 21.924631 15.666541 6.270879
I 25.062202 15.666541 3.133308
I 21.924631 18.804112 3.133308
I 21.924631 15.666541 12.546022
I 25.062202 15.666541 9.408450
I 21.924631 18.804112 9.408450
I 21.924631 15.666541 18.821164
I 25.062202 15.666541 15.683593
I 21.924631 18.804112 15.683593
I 21.924631 15.666541 25.096306
I 25.062202 15.666541 21.958735
I 21.924631 18.804112 21.958735
I 21.924631 21.941683 -25.104832
I 21.924631 21.941683 -18.829690
I 25.062202 21.941683 -21.967261
I 21.924631 25.079254 -21.967261
I 21.924631 21.941683 -12.554548
I 25.062202 21.941683 -15.692119
I 21.924631 25.079254 -15.692119
I 21.924631 21.941683 -6.279405
I 25.062202 21.941683 -9.416976
I 21.924631 25.079254 -9.416976
I 21.924631 21.941683 -0.004263
I 25.062202 21.941683 -3.141834
I 21.924631 25.079254 -3.141834
I 21.924631 21.941683 6.270879
I 25.062202 21.941683 3.133308
I 21.924631 25.079254 3.133308
I 21.924631 21.941683 12.546022
I 25.062202 21.941683 9.408450
I 21.924631 25.079254 9.408450
I 21.924631 21.941683 18.821164
I 25.062202 21.941683 15.683593
I 21.924631 25.079254 15.683593
I 21.924631 21.941683 25.096306
I 25.062202 21.941683 21.958735
I 21.924631 25.079254 21.958735
