4871
HgS-S-Hg2340S2149Cl382-reconstructed
Hg -28.213623 -10.391990 -7.420498
Hg -28.213623 -13.361652 -4.450836
Hg -28.213623 -10.391990 -1.481173
Hg -28.213623 -13.361652 1.488489
Hg -28.213623 -10.391990 4.458152
Hg -28.213623 -13.361652 7.427814
Hg -28.213623 -10.391990 10.397477
Hg -28.213623 -4.452665 -13.359823
Hg -28.213623 -7.422327 -10.390161
Hg -28.213623 -4.452665 -7.420498
Hg -28.213623 -7.422327 -4.450836
Hg -28.213623 -4.452665 -1.481173
Hg -28.213623 -7.422327 1.488489
Hg -28.213623 -4.452665 4.458152
Hg -28.213623 -7.422327 7.427814
Hg -28.213623 -4.452665 10.397477
Hg -28.213623 -7.422327 13.367139
Hg -28.213623 1.486660 -13.359823
Hg -28.213623 -1.483002 -10.390161
Hg -28.213623 1.486660 -7.420498
Hg -28.213623 -1.483002 -4.450836
Hg -28.213623 1.486660 -1.481173
Hg -28.213623 -1.483002 1.488489
Hg -28.213623 1.486660 4.458152
Hg -28.213623 -1.483002 7.427814
Hg -28.213623 1.486660 10.397477
Hg -28.213623 -1.483002 13.367139
Hg -28.213623 7.425985 -13.359823
Hg -28.213623 4.456323 -10.390161
Hg -28.213623 7.425985 -7.420498
Hg -28.213623 4.456323 -4.450836
Hg -28.213623 7.425985 -1.481173
Hg -28.213623 4.456323 1.488489
Hg -28.213623 7.425985 4.458152
Hg -28.213623 4.456323 7.427814
Hg -28.213623 7.425985 10.397477
Hg -28.213623 4.456323 13.367139
Hg -28.213623 10.395648 -10.390161
Hg -28.213623 13.365310 -7.420498
Hg -28.213623 10.395648 -4.450836
Hg -28.213623 13.365310 -1.481173
Hg -28.213623 10.395648 1.488489
Hg -28.213623 13.365310 4.458152
Hg -28.213623 10.395648 7.427814
Hg -22.274298 -19.300977 -4.450836
Hg -25.243961 -16.331315 -4.450836
Hg -22.274298 -16.331315 -1.481173
Hg -22.274298 -19.300977 1.488489
Hg -25.243961 -16.331315 1.488489
Hg -22.274298 -16.331315 4.458152
Hg -22.274298 -19.300977 7.427814
Hg -25.243961 -16.331315 7.427814
Hg -22.274298 -10.391990 -13.359823
Hg -22.274298 -13.361652 -10.390161
Hg -25.243961 -13.361652 -7.420498
Hg -22.274298 -10.391990 -7.420498
Hg -22.274298 -13.361652 -4.450836
Hg -25.243961 -10.391990 -4.450836
Hg -25.243961 -13.361652 -1.481173
Hg -22.274298 -10.391990 -1.481173
Hg -22.274298 -13.361652 1.488489
Hg -25.243961 -10.391990 1.488489
Hg -25.243961 -13.361652 4.458152
Hg -22.274298 -10.391990 4.458152
Hg -22.274298 -13.361652 7.427814
Hg -25.243961 -10.391990 7.427814
Hg -25.243961 -13.361652 10.397477
Hg -22.274298 -10.391990 10.397477
Hg -22.274298 -13.361652 13.367139
Hg -22.274298 -10.391990 16.336802
Hg -22.274298 -4.452665 -19.299149
Hg -25.243961 -4.452665 -16.329486
Hg -25.243961 -7.422327 -13.359823
Hg -22.274298 -4.452665 -13.359823
Hg -22.274298 -7.422327 -10.390161
Hg -25.243961 -4.452665 -10.390161
Hg -25.243961 -7.422327 -7.420498
Hg -22.274298 -4.452665 -7.420498
Hg -22.274298 -7.422327 -4.450836
Hg -25.243961 -4.452665 -4.450836
Hg -25.243961 -7.422327 -1.481173
Hg -22.274298 -4.452665 -1.481173
Hg -22.274298 -7.422327 1.488489
Hg -25.243961 -4.452665 1.488489
Hg -25.243961 -7.422327 4.458152
Hg -22.274298 -4.452665 4.458152
Hg -22.274298 -7.422327 7.427814
Hg -25.243961 -4.452665 7.427814
Hg -25.243961 -7.422327 10.397477
Hg -22.274298 -4.452665 10.397477
Hg -22.274298 -7.422327 13.367139
Hg -25.243961 -4.452665 13.367139
Hg -25.243961 -7.422327 16.336802
Hg -22.274298 -4.452665 16.336802
Hg -22.274298 -7.422327 19.306464
Hg -22.274298 1.486660 -19.299149
Hg -22.274298 -1.483002 -16.329486
Hg -25.243961 1.486660 -16.329486
Hg -25.243961 -1.483002 -13.359823
Hg -22.274298 1.486660 -13.359823
Hg -22.274298 -1.483002 -10.390161
Hg -25.243961 1.486660 -10.390161
Hg -25.243961 -1.483002 -7.420498
Hg -22.274298 1.486660 -7.420498
Hg -22.274298 -1.483002 -4.450836
Hg -25.243961 1.486660 -4.450836
Hg -25.243961 -1.483002 -1.481173
Hg -22.274298 1.486660 -1.481173
Hg -22.274298 -1.483002 1.488489
Hg -25.243961 1.486660 1.488489
Hg -25.243961 -1.483002 4.458152
Hg -22.274298 1.486660 4.458152
Hg -22.274298 -1.483002 7.427814
Hg -25.243961 1.486660 7.427814
Hg -25.243961 -1.483002 10.397477
Hg -22.274298 1.486660 10.397477
Hg -22.274298 -1.483002 13.367139
Hg -25.243961 1.486660 13.367139
Hg -25.243961 -1.483002 16.336802
Hg -22.274298 1.486660 16.336802
Hg -22.274298 -1.483002 19.306464
Hg -22.274298 7.425985 -19.299149
Hg -22.274298 4.456323 -16.329486
Hg -25.243961 7.425985 -16.329486
Hg -25.243961 4.456323 -13.359823
Hg -22.274298 7.425985 -13.359823
Hg -22.274298 4.456323 -10.390161
Hg -25.243961 7.425985 -10.390161
Hg -25.243961 4.456323 -7.420498
Hg -22.274298 7.425985 -7.420498
Hg -22.274298 4.456323 -4.450836
Hg -25.243961 7.425985 -4.450836
Hg -25.243961 4.456323 -1.481173
Hg -22.274298 7.425985 -1.481173
Hg -22.274298 4.456323 1.488489
Hg -25.243961 7.425985 1.488489
Hg -25.243961 4.456323 4.458152
Hg -22.274298 7.425985 4.458152
Hg -22.274298 4.456323 7.427814
Hg -25.243961 7.425985 7.427814
Hg -25.243961 4.456323 10.397477
Hg -22.274298 7.425985 10.397477
Hg -22.274298 4.456323 13.367139
Hg -25.243961 4.456323 16.336802
Hg -22.274298 7.425985 16.336802
Hg -22.274298 4.456323 19.306464
Hg -25.243961 10.395648 -13.359823
Hg -22.274298 13.365310 -13.359823
Hg -22.274298 10.395648 -10.390161
Hg -25.243961 10.395648 -7.420498
Hg -22.274298 13.365310 -7.420498
Hg -22.274298 10.395648 -4.450836
Hg -25.243961 13.365310 -4.450836
Hg -25.243961 10.395648 -1.481173
Hg -22.274298 13.365310 -1.481173
Hg -22.274298 10.395648 1.488489
Hg -25.243961 13.365310 1.488489
Hg -25.243961 10.395648 4.458152
Hg -22.274298 13.365310 4.458152
Hg -22.274298 10.395648 7.427814
Hg -25.243961 13.365310 7.427814
Hg -25.243961 10.395648 10.397477
Hg -22.274298 10.395648 13.367139
Hg -22.274298 16.334973 -10.390161
Hg -25.243961 16.334973 -7.420498
Hg -22.274298 19.304635 -7.420498
Hg -22.274298 16.334973 -4.450836
Hg -25.243961 16.334973 -1.481173
Hg -22.274298 19.304635 -1.481173
Hg -22.274298 16.334973 1.488489
Hg -25.243961 16.334973 4.458152
Hg -22.274298 19.304635 4.458152
Hg -22.274298 16.334973 7.427814
Hg -16.334973 -22.270640 -7.420498
Hg -16.334973 -25.240303 -4.450836
Hg -19.304635 -22.270640 -4.450836
Hg -16.334973 -22.270640 -1.481173
Hg -16.334973 -25.240303 1.488489
Hg -19.304635 -22.270640 1.488489
Hg -16.334973 -22.270640 4.458152
Hg -16.334973 -25.240303 7.427814
Hg -19.304635 -22.270640 7.427814
Hg -16.334973 -22.270640 10.397477
Hg -16.334973 -16.331315 -13.359823
Hg -19.304635 -16.331315 -10.390161
Hg -19.304635 -19.300977 -7.420498
Hg -16.334973 -16.331315 -7.420498
Hg -16.334973 -19.300977 -4.450836
Hg -19.304635 -16.331315 -4.450836
Hg -19.304635 -19.300977 -1.481173
Hg -16.334973 -16.331315 -1.481173
Hg -16.334973 -19.300977 1.488489
Hg -19.304635 -16.331315 1.488489
Hg -19.304635 -19.300977 4.458152
Hg -16.334973 -16.331315 4.458152
Hg -16.334973 -19.300977 7.427814
Hg -19.304635 -16.331315 7.427814
Hg -19.304635 -19.300977 10.397477
Hg -16.334973 -16.331315 10.397477
Hg -19.304635 -16.331315 13.367139
Hg -16.334973 -16.331315 16.336802
Hg -16.334973 -13.361652 -16.329486
Hg -19.304635 -10.391990 -16.329486
Hg -16.334973 -10.391990 -13.359823
Hg -16.334973 -13.361652 -10.390161
Hg -19.304635 -10.391990 -10.390161
Hg -19.304635 -13.361652 -7.420498
Hg -16.334973 -10.391990 -7.420498
Hg -16.334973 -13.361652 -4.450836
Hg -19.304635 -10.391990 -4.450836
Hg -19.304635 -13.361652 -1.481173
Hg -16.334973 -10.391990 -1.481173
Hg -16.334973 -13.361652 1.488489
Hg -19.304635 -10.391990 1.488489
Hg -19.304635 -13.361652 4.458152
Hg -16.334973 -10.391990 4.458152
Hg -16.334973 -13.361652 7.427814
Hg -19.304635 -10.391990 7.427814
Hg -19.304635 -13.361652 10.397477
Hg -16.334973 -10.391990 10.397477
Hg -16.334973 -13.361652 13.367139
Hg -19.304635 -10.391990 13.367139
Hg -16.334973 -10.391990 16.336802
Hg -16.334973 -13.361652 19.306464
Hg -19.304635 -10.391990 19.306464
Hg -16.334973 -4.452665 -25.238474
Hg -16.334973 -7.422327 -22.268811
Hg -19.304635 -4.452665 -22.268811
Hg -19.304635 -7.422327 -19.299149
Hg -16.334973 -4.452665 -19.299149
Hg -16.334973 -7.422327 -16.329486
Hg -19.304635 -4.452665 -16.329486
Hg -19.304635 -7.422327 -13.359823
Hg -16.334973 -4.452665 -13.359823
Hg -16.334973 -7.422327 -10.390161
Hg -19.304635 -4.452665 -10.390161
Hg -19.304635 -7.422327 -7.420498
Hg -16.334973 -4.452665 -7.420498
Hg -16.334973 -7.422327 -4.450836
Hg -19.304635 -4.452665 -4.450836
Hg -19.304635 -7.422327 -1.481173
Hg -16.334973 -4.452665 -1.481173
Hg -16.334973 -7.422327 1.488489
Hg -19.304635 -4.452665 1.488489
Hg -19.304635 -7.422327 4.458152
Hg -16.334973 -4.452665 4.458152
Hg -16.334973 -7.422327 7.427814
Hg -19.304635 -4.452665 7.427814
Hg -19.304635 -7.422327 10.397477
Hg -16.334973 -4.452665 10.397477
Hg -16.334973 -7.422327 13.367139
Hg -19.304635 -4.452665 13.367139
Hg -19.304635 -7.422327 16.336802
Hg -16.334973 -4.452665 16.336802
Hg -16.334973 -7.422327 19.306464
Hg -19.304635 -4.452665 19.306464
Hg -19.304635 -7.422327 22.276127
Hg -16.334973 -4.452665 22.276127
Hg -16.334973 -7.422327 25.245790
Hg -16.334973 1.486660 -25.238474
Hg -16.334973 -1.483002 -22.268811
Hg -19.304635 1.486660 -22.268811
Hg -19.304635 -1.483002 -19.299149
Hg -16.334973 1.486660 -19.299149
Hg -16.334973 -1.483002 -16.329486
Hg -19.304635 1.486660 -16.329486
Hg -19.304635 -1.483002 -13.359823
Hg -16.334973 1.486660 -13.359823
Hg -16.334973 -1.483002 -10.390161
Hg -19.304635 1.486660 -10.390161
Hg -19.304635 -1.483002 -7.420498
Hg -16.334973 1.486660 -7.420498
Hg -16.334973 -1.483002 -4.450836
Hg -19.304635 1.486660 -4.450836
Hg -19.304635 -1.483002 -1.481173
Hg -16.334973 1.486660 -1.481173
Hg -16.334973 -1.483002 1.488489
Hg -19.304635 1.486660 1.488489
Hg -19.304635 -1.483002 4.458152
Hg -16.334973 1.486660 4.458152
Hg -16.334973 -1.483002 7.427814
Hg -19.304635 1.486660 7.427814
Hg -19.304635 -1.483002 10.397477
Hg -16.334973 1.486660 10.397477
Hg -16.334973 -1.483002 13.367139
Hg -19.304635 1.486660 13.367139
Hg -19.304635 -1.483002 16.336802
Hg -16.334973 1.486660 16.336802
Hg -16.334973 -1.483002 19.306464
Hg -19.304635 1.486660 19.306464
Hg -19.304635 -1.483002 22.276127
Hg -16.334973 1.486660 22.276127
Hg -16.334973 -1.483002 25.245790
Hg -16.334973 7.425985 -25.238474
Hg -16.334973 4.456323 -22.268811
Hg -19.304635 7.425985 -22.268811
Hg -19.304635 4.456323 -19.299149
Hg -16.334973 7.425985 -19.299149
Hg -16.334973 4.456323 -16.329486
Hg -19.304635 7.425985 -16.329486
Hg -19.304635 4.456323 -13.359823
Hg -16.334973 7.425985 -13.359823
Hg -16.334973 4.456323 -10.390161
Hg -19.304635 7.425985 -10.390161
Hg -19.304635 4.456323 -7.420498
Hg -16.334973 7.425985 -7.420498
Hg -16.334973 4.456323 -4.450836
Hg -19.304635 7.425985 -4.450836
Hg -19.304635 4.456323 -1.481173
Hg -16.334973 7.425985 -1.481173
Hg -16.334973 4.456323 1.488489
Hg -19.304635 7.425985 1.488489
Hg -19.304635 4.456323 4.458152
Hg -16.334973 7.425985 4.458152
Hg -16.334973 4.456323 7.427814
Hg -19.304635 7.425985 7.427814
Hg -19.304635 4.456323 10.397477
Hg -16.334973 7.425985 10.397477
Hg -16.334973 4.456323 13.367139
Hg -19.304635 7.425985 13.367139
Hg -19.304635 4.456323 16.336802
Hg -16.334973 7.425985 16.336802
Hg -16.334973 4.456323 19.306464
Hg -19.304635 7.425985 19.306464
Hg -19.304635 4.456323 22.276127
Hg -16.334973 4.456323 25.245790
Hg -16.334973 10.395648 -22.268811
Hg -19.304635 10.395648 -19.299149
Hg -16.334973 10.395648 -16.329486
Hg -19.304635 13.365310 -16.329486
Hg -19.304635 10.395648 -13.359823
Hg -16.334973 13.365310 -13.359823
Hg -16.334973 10.395648 -10.390161
Hg -19.304635 13.365310 -10.390161
Hg -19.304635 10.395648 -7.420498
Hg -16.334973 13.365310 -7.420498
Hg -16.334973 10.395648 -4.450836
Hg -19.304635 13.365310 -4.450836
Hg -19.304635 10.395648 -1.481173
Hg -16.334973 13.365310 -1.481173
Hg -16.334973 10.395648 1.488489
Hg -19.304635 13.365310 1.488489
Hg -19.304635 10.395648 4.458152
Hg -16.334973 13.365310 4.458152
Hg -16.334973 10.395648 7.427814
Hg -19.304635 13.365310 7.427814
Hg -19.304635 10.395648 10.397477
Hg -16.334973 13.365310 10.397477
Hg -16.334973 10.395648 13.367139
Hg -19.304635 13.365310 13.367139
Hg -16.334973 13.365310 16.336802
Hg -16.334973 10.395648 19.306464
Hg -16.334973 16.334973 -16.329486
Hg -16.334973 19.304635 -13.359823
Hg -16.334973 16.334973 -10.390161
Hg -19.304635 19.304635 -10.390161
Hg -19.304635 16.334973 -7.420498
Hg -16.334973 19.304635 -7.420498
Hg -16.334973 16.334973 -4.450836
Hg -19.304635 19.304635 -4.450836
Hg -19.304635 16.334973 -1.481173
Hg -16.334973 19.304635 -1.481173
Hg -16.334973 16.334973 1.488489
Hg -19.304635 19.304635 1.488489
Hg -19.304635 16.334973 4.458152
Hg -16.334973 19.304635 4.458152
Hg -16.334973 16.334973 7.427814
Hg -19.304635 16.334973 10.397477
Hg -16.334973 19.304635 10.397477
Hg -19.304635 22.274298 -7.420498
Hg -16.334973 25.243961 -7.420498
Hg -16.334973 22.274298 -4.450836
Hg -19.304635 22.274298 -1.481173
Hg -16.334973 25.243961 -1.481173
Hg -16.334973 22.274298 1.488489
Hg -19.304635 22.274298 4.458152
Hg -16.334973 25.243961 4.458152
Hg -16.334973 22.274298 7.427814
Hg -10.395648 -28.209965 -7.420498
Hg -13.365310 -28.209965 -4.450836
Hg -10.395648 -28.209965 -1.481173
Hg -13.365310 -28.209965 1.488489
Hg -10.395648 -28.209965 4.458152
Hg -13.365310 -28.209965 7.427814
Hg -10.395648 -28.209965 10.397477
Hg -10.395648 -25.240303 -10.390161
Hg -13.365310 -22.270640 -10.390161
Hg -10.395648 -22.270640 -7.420498
Hg -10.395648 -25.240303 -4.450836
Hg -13.365310 -22.270640 -4.450836
Hg -13.365310 -25.240303 -1.481173
Hg -10.395648 -22.270640 -1.481173
Hg -10.395648 -25.240303 1.488489
Hg -13.365310 -22.270640 1.488489
Hg -13.365310 -25.240303 4.458152
Hg -10.395648 -22.270640 4.458152
Hg -10.395648 -25.240303 7.427814
Hg -13.365310 -22.270640 7.427814
Hg -10.395648 -22.270640 10.397477
Hg -10.395648 -25.240303 13.367139
Hg -13.365310 -22.270640 13.367139
Hg -10.395648 -16.331315 -19.299149
Hg -10.395648 -19.300977 -16.329486
Hg -13.365310 -19.300977 -13.359823
Hg -10.395648 -16.331315 -13.359823
Hg -10.395648 -19.300977 -10.390161
Hg -13.365310 -16.331315 -10.390161
Hg -13.365310 -19.300977 -7.420498
Hg -10.395648 -16.331315 -7.420498
Hg -10.395648 -19.300977 -4.450836
Hg -13.365310 -16.331315 -4.450836
Hg -13.365310 -19.300977 -1.481173
Hg -10.395648 -16.331315 -1.481173
Hg -10.395648 -19.300977 1.488489
Hg -13.365310 -16.331315 1.488489
Hg -13.365310 -19.300977 4.458152
Hg -10.395648 -16.331315 4.458152
Hg -10.395648 -19.300977 7.427814
Hg -13.365310 -16.331315 7.427814
Hg -13.365310 -19.300977 10.397477
Hg -10.395648 -16.331315 10.397477
Hg -10.395648 -19.300977 13.367139
Hg -13.365310 -16.331315 13.367139
Hg -13.365310 -19.300977 16.336802
Hg -10.395648 -16.331315 16.336802
Hg -10.395648 -19.300977 19.306464
Hg -10.395648 -16.331315 22.276127
Hg -10.395648 -10.391990 -25.238474
Hg -13.365310 -10.391990 -22.268811
Hg -13.365310 -13.361652 -19.299149
Hg -10.395648 -10.391990 -19.299149
Hg -10.395648 -13.361652 -16.329486
Hg -13.365310 -10.391990 -16.329486
Hg -13.365310 -13.361652 -13.359823
Hg -10.395648 -10.391990 -13.359823
Hg -10.395648 -13.361652 -10.390161
Hg -13.365310 -10.391990 -10.390161
Hg -13.365310 -13.361652 -7.420498
Hg -10.395648 -10.391990 -7.420498
Hg -10.395648 -13.361652 -4.450836
Hg -13.365310 -10.391990 -4.450836
Hg -13.365310 -13.361652 -1.481173
Hg -10.395648 -10.391990 -1.481173
Hg -10.395648 -13.361652 1.488489
Hg -13.365310 -10.391990 1.488489
Hg -13.365310 -13.361652 4.458152
Hg -10.395648 -10.391990 4.458152
Hg -10.395648 -13.361652 7.427814
Hg -13.365310 -10.391990 7.427814
Hg -13.365310 -13.361652 10.397477
Hg -10.395648 -10.391990 10.397477
Hg -10.395648 -13.361652 13.367139
Hg -13.365310 -10.391990 13.367139
Hg -13.365310 -13.361652 16.336802
Hg -10.395648 -10.391990 16.336802
Hg -10.395648 -13.361652 19.306464
Hg -13.365310 -10.391990 19.306464
Hg -13.365310 -13.361652 22.276127
Hg -10.395648 -10.391990 22.276127
Hg -13.365310 -10.391990 25.245790
Hg -10.395648 -10.391990 28.215452
Hg -10.395648 -7.422327 -28.208136
Hg -13.365310 -4.452665 -28.208136
Hg -10.395648 -4.452665 -25.238474
Hg -10.395648 -7.422327 -22.268811
Hg -13.365310 -4.452665 -22.268811
Hg -13.365310 -7.422327 -19.299149
Hg -10.395648 -4.452665 -19.299149
Hg -10.395648 -7.422327 -16.329486
Hg -13.365310 -4.452665 -16.329486
Hg -13.365310 -7.422327 -13.359823
Hg -10.395648 -4.452665 -13.359823
Hg -10.395648 -7.422327 -10.390161
Hg -13.365310 -4.452665 -10.390161
Hg -13.365310 -7.422327 -7.420498
Hg -10.395648 -4.452665 -7.420498
Hg -10.395648 -7.422327 -4.450836
Hg -13.365310 -4.452665 -4.450836
Hg -13.365310 -7.422327 -1.481173
Hg -10.395648 -4.452665 -1.481173
Hg -10.395648 -7.422327 1.488489
Hg -13.365310 -4.452665 1.488489
Hg -13.365310 -7.422327 4.458152
Hg -10.395648 -4.452665 4.458152
Hg -10.395648 -7.422327 7.427814
Hg -13.365310 -4.452665 7.427814
Hg -13.365310 -7.422327 10.397477
Hg -10.395648 -4.452665 10.397477
Hg -10.395648 -7.422327 13.367139
Hg -13.365310 -4.452665 13.367139
Hg -13.365310 -7.422327 16.336802
Hg -10.395648 -4.452665 16.336802
Hg -10.395648 -7.422327 19.306464
Hg -13.365310 -4.452665 19.306464
Hg -13.365310 -7.422327 22.276127
Hg -10.395648 -4.452665 22.276127
Hg -10.395648 -7.422327 25.245790
Hg -13.365310 -4.452665 25.245790
Hg -13.365310 -7.422327 28.215452
Hg -10.395648 -4.452665 28.215452
Hg -10.395648 -1.483002 -28.208136
Hg -13.365310 1.486660 -28.208136
Hg -13.365310 -1.483002 -25.238474
Hg -10.395648 1.486660 -25.238474
Hg -10.395648 -1.483002 -22.268811
Hg -13.365310 1.486660 -22.268811
Hg -13.365310 -1.483002 -19.299149
Hg -10.395648 1.486660 -19.299149
Hg -10.395648 -1.483002 -16.329486
Hg -13.365310 1.486660 -16.329486
Hg -13.365310 -1.483002 -13.359823
Hg -10.395648 1.486660 -13.359823
Hg -10.395648 -1.483002 -10.390161
Hg -13.365310 1.486660 -10.390161
Hg -13.365310 -1.483002 -7.420498
Hg -10.395648 1.486660 -7.420498
Hg -10.395648 -1.483002 -4.450836
Hg -13.365310 1.486660 -4.450836
Hg -13.365310 -1.483002 -1.481173
Hg -10.395648 1.486660 -1.481173
Hg -10.395648 -1.483002 1.488489
Hg -13.365310 1.486660 1.488489
Hg -13.365310 -1.483002 4.458152
Hg -10.395648 1.486660 4.458152
Hg -10.395648 -1.483002 7.427814
Hg -13.365310 1.486660 7.427814
Hg -13.365310 -1.483002 10.397477
Hg -10.395648 1.486660 10.397477
Hg -10.395648 -1.483002 13.367139
Hg -13.365310 1.486660 13.367139
Hg -13.365310 -1.483002 16.336802
Hg -10.395648 1.486660 16.336802
Hg -10.395648 -1.483002 19.306464
Hg -13.365310 1.486660 19.306464
Hg -13.365310 -1.483002 22.276127
Hg -10.395648 1.486660 22.276127
Hg -10.395648 -1.483002 25.245790
Hg -13.365310 1.486660 25.245790
Hg -13.365310 -1.483002 28.215452
Hg -10.395648 1.486660 28.215452
Hg -10.395648 4.456323 -28.208136
Hg -13.365310 7.425985 -28.208136
Hg -13.365310 4.456323 -25.238474
Hg -10.395648 7.425985 -25.238474
Hg -10.395648 4.456323 -22.268811
Hg -13.365310 7.425985 -22.268811
Hg -13.365310 4.456323 -19.299149
Hg -10.395648 7.425985 -19.299149
Hg -10.395648 4.456323 -16.329486
Hg -13.365310 7.425985 -16.329486
Hg -13.365310 4.456323 -13.359823
Hg -10.395648 7.425985 -13.359823
Hg -10.395648 4.456323 -10.390161
Hg -13.365310 7.425985 -10.390161
Hg -13.365310 4.456323 -7.420498
Hg -10.395648 7.425985 -7.420498
Hg -10.395648 4.456323 -4.450836
Hg -13.365310 7.425985 -4.450836
Hg -13.365310 4.456323 -1.481173
Hg -10.395648 7.425985 -1.481173
Hg -10.395648 4.456323 1.488489
Hg -13.365310 7.425985 1.488489
Hg -13.365310 4.456323 4.458152
Hg -10.395648 7.425985 4.458152
Hg -10.395648 4.456323 7.427814
Hg -13.365310 7.425985 7.427814
Hg -13.365310 4.456323 10.397477
Hg -10.395648 7.425985 10.397477
Hg -10.395648 4.456323 13.367139
Hg -13.365310 7.425985 13.367139
Hg -13.365310 4.456323 16.336802
Hg -10.395648 7.425985 16.336802
Hg -10.395648 4.456323 19.306464
Hg -13.365310 7.425985 19.306464
Hg -13.365310 4.456323 22.276127
Hg -10.395648 7.425985 22.276127
Hg -10.395648 4.456323 25.245790
Hg -13.365310 7.425985 25.245790
Hg -13.365310 4.456323 28.215452
Hg -10.395648 7.425985 28.215452
Hg -10.395648 10.395648 -28.208136
Hg -10.395648 13.365310 -25.238474
Hg -10.395648 10.395648 -22.268811
Hg -13.365310 13.365310 -22.268811
Hg -13.365310 10.395648 -19.299149
Hg -10.395648 13.365310 -19.299149
Hg -10.395648 10.395648 -16.329486
Hg -13.365310 13.365310 -16.329486
Hg -13.365310 10.395648 -13.359823
Hg -10.395648 13.365310 -13.359823
Hg -10.395648 10.395648 -10.390161
Hg -13.365310 13.365310 -10.390161
Hg -13.365310 10.395648 -7.420498
Hg -10.395648 13.365310 -7.420498
Hg -10.395648 10.395648 -4.450836
Hg -13.365310 13.365310 -4.450836
Hg -13.365310 10.395648 -1.481173
Hg -10.395648 13.365310 -1.481173
Hg -10.395648 10.395648 1.488489
Hg -13.365310 13.365310 1.488489
Hg -13.365310 10.395648 4.458152
Hg -10.395648 13.365310 4.458152
Hg -10.395648 10.395648 7.427814
Hg -13.365310 13.365310 7.427814
Hg -13.365310 10.395648 10.397477
Hg -10.395648 13.365310 10.397477
Hg -10.395648 10.395648 13.367139
Hg -13.365310 13.365310 13.367139
Hg -13.365310 10.395648 16.336802
Hg -10.395648 13.365310 16.336802
Hg -10.395648 10.395648 19.306464
Hg -13.365310 10.395648 22.276127
Hg -10.395648 13.365310 22.276127
Hg -13.365310 16.334973 -19.299149
Hg -10.395648 19.304635 -19.299149
Hg -10.395648 16.334973 -16.329486
Hg -13.365310 16.334973 -13.359823
Hg -10.395648 19.304635 -13.359823
Hg -10.395648 16.334973 -10.390161
Hg -13.365310 19.304635 -10.390161
Hg -13.365310 16.334973 -7.420498
Hg -10.395648 19.304635 -7.420498
Hg -10.395648 16.334973 -4.450836
Hg -13.365310 19.304635 -4.450836
Hg -13.365310 16.334973 -1.481173
Hg -10.395648 19.304635 -1.481173
Hg -10.395648 16.334973 1.488489
Hg -13.365310 19.304635 1.488489
Hg -13.365310 16.334973 4.458152
Hg -10.395648 19.304635 4.458152
Hg -10.395648 16.334973 7.427814
Hg -13.365310 19.304635 7.427814
Hg -13.365310 16.334973 10.397477
Hg -10.395648 19.304635 10.397477
Hg -10.395648 16.334973 13.367139
Hg -13.365310 19.304635 13.367139
Hg -13.365310 16.334973 16.336802
Hg -10.395648 16.334973 19.306464
Hg -10.395648 22.274298 -16.329486
Hg -13.365310 22.274298 -13.359823
Hg -10.395648 22.274298 -10.390161
Hg -13.365310 25.243961 -10.390161
Hg -13.365310 22.274298 -7.420498
Hg -10.395648 25.243961 -7.420498
Hg -10.395648 22.274298 -4.450836
Hg -13.365310 25.243961 -4.450836
Hg -13.365310 22.274298 -1.481173
Hg -10.395648 25.243961 -1.481173
Hg -10.395648 22.274298 1.488489
Hg -13.365310 25.243961 1.488489
Hg -13.365310 22.274298 4.458152
Hg -10.395648 25.243961 4.458152
Hg -10.395648 22.274298 7.427814
Hg -13.365310 25.243961 7.427814
Hg -10.395648 25.243961 10.397477
Hg -10.395648 22.274298 13.367139
Hg -10.395648 28.213623 -10.390161
Hg -13.365310 28.213623 -7.420498
Hg -10.395648 28.213623 -4.450836
Hg -13.365310 28.213623 -1.481173
Hg -10.395648 28.213623 1.488489
Hg -13.365310 28.213623 4.458152
Hg -10.395648 28.213623 7.427814
Hg -4.456323 -28.209965 -13.359823
Hg -7.425985 -28.209965 -10.390161
Hg -4.456323 -28.209965 -7.420498
Hg -7.425985 -28.209965 -4.450836
Hg -4.456323 -28.209965 -1.481173
Hg -7.425985 -28.209965 1.488489
Hg -4.456323 -28.209965 4.458152
Hg -7.425985 -28.209965 7.427814
Hg -4.456323 -28.209965 10.397477
Hg -7.425985 -28.209965 13.367139
Hg -4.456323 -22.270640 -19.299149
Hg -4.456323 -25.240303 -16.329486
Hg -7.425985 -22.270640 -16.329486
Hg -7.425985 -25.240303 -13.359823
Hg -4.456323 -22.270640 -13.359823
Hg -4.456323 -25.240303 -10.390161
Hg -7.425985 -22.270640 -10.390161
Hg -7.425985 -25.240303 -7.420498
Hg -4.456323 -22.270640 -7.420498
Hg -4.456323 -25.240303 -4.450836
Hg -7.425985 -22.270640 -4.450836
Hg -7.425985 -25.240303 -1.481173
Hg -4.456323 -22.270640 -1.481173
Hg -4.456323 -25.240303 1.488489
Hg -7.425985 -22.270640 1.488489
Hg -7.425985 -25.240303 4.458152
Hg -4.456323 -22.270640 4.458152
Hg -4.456323 -25.240303 7.427814
Hg -7.425985 -22.270640 7.427814
Hg -7.425985 -25.240303 10.397477
Hg -4.456323 -22.270640 10.397477
Hg -4.456323 -25.240303 13.367139
Hg -7.425985 -22.270640 13.367139
Hg -7.425985 -25.240303 16.336802
Hg -4.456323 -22.270640 16.336802
Hg -7.425985 -22.270640 19.306464
Hg -4.456323 -16.331315 -25.238474
Hg -4.456323 -19.300977 -22.268811
Hg -7.425985 -16.331315 -22.268811
Hg -4.456323 -16.331315 -19.299149
Hg -4.456323 -19.300977 -16.329486
Hg -7.425985 -16.331315 -16.329486
Hg -7.425985 -19.300977 -13.359823
Hg -4.456323 -16.331315 -13.359823
Hg -4.456323 -19.300977 -10.390161
Hg -7.425985 -16.331315 -10.390161
Hg -7.425985 -19.300977 -7.420498
Hg -4.456323 -16.331315 -7.420498
Hg -4.456323 -19.300977 -4.450836
Hg -7.425985 -16.331315 -4.450836
Hg -7.425985 -19.300977 -1.481173
Hg -4.456323 -16.331315 -1.481173
Hg -4.456323 -19.300977 1.488489
Hg -7.425985 -16.331315 1.488489
Hg -7.425985 -19.300977 4.458152
Hg -4.456323 -16.331315 4.458152
Hg -4.456323 -19.300977 7.427814
Hg -7.425985 -16.331315 7.427814
Hg -7.425985 -19.300977 10.397477
Hg -4.456323 -16.331315 10.397477
Hg -4.456323 -19.300977 13.367139
Hg -7.425985 -16.331315 13.367139
Hg -7.425985 -19.300977 16.336802
Hg -4.456323 -16.331315 16.336802
Hg -4.456323 -19.300977 19.306464
Hg -7.425985 -16.331315 19.306464
Hg -7.425985 -19.300977 22.276127
Hg -4.456323 -16.331315 22.276127
Hg -7.425985 -16.331315 25.245790
Hg -4.456323 -13.361652 -28.208136
Hg -7.425985 -10.391990 -28.208136
Hg -7.425985 -13.361652 -25.238474
Hg -4.456323 -10.391990 -25.238474
Hg -4.456323 -13.361652 -22.268811
Hg -7.425985 -10.391990 -22.268811
Hg -7.425985 -13.361652 -19.299149
Hg -4.456323 -10.391990 -19.299149
Hg -4.456323 -13.361652 -16.329486
Hg -7.425985 -10.391990 -16.329486
Hg -7.425985 -13.361652 -13.359823
Hg -4.456323 -10.391990 -13.359823
Hg -4.456323 -13.361652 -10.390161
Hg -7.425985 -10.391990 -10.390161
Hg -7.425985 -13.361652 -7.420498
Hg -4.456323 -10.391990 -7.420498
Hg -4.456323 -13.361652 -4.450836
Hg -7.425985 -10.391990 -4.450836
Hg -7.425985 -13.361652 -1.481173
Hg -4.456323 -10.391990 -1.481173
Hg -4.456323 -13.361652 1.488489
Hg -7.425985 -10.391990 1.488489
Hg -7.425985 -13.361652 4.458152
Hg -4.456323 -10.391990 4.458152
Hg -4.456323 -13.361652 7.427814
Hg -7.425985 -10.391990 7.427814
Hg -7.425985 -13.361652 10.397477
Hg -4.456323 -10.391990 10.397477
Hg -4.456323 -13.361652 13.367139
Hg -7.425985 -10.391990 13.367139
Hg -7.425985 -13.361652 16.336802
Hg -4.456323 -10.391990 16.336802
Hg -4.456323 -13.361652 19.306464
Hg -7.425985 -10.391990 19.306464
Hg -7.425985 -13.361652 22.276127
Hg -4.456323 -10.391990 22.276127
Hg -4.456323 -13.361652 25.245790
Hg -7.425985 -10.391990 25.245790
Hg -7.425985 -13.361652 28.215452
Hg -4.456323 -10.391990 28.215452
Hg -4.456323 -7.422327 -28.208136
Hg -7.425985 -4.452665 -28.208136
Hg -7.425985 -7.422327 -25.238474
Hg -4.456323 -4.452665 -25.238474
Hg -4.456323 -7.422327 -22.268811
Hg -7.425985 -4.452665 -22.268811
Hg -7.425985 -7.422327 -19.299149
Hg -4.456323 -4.452665 -19.299149
Hg -4.456323 -7.422327 -16.329486
Hg -7.425985 -4.452665 -16.329486
Hg -7.425985 -7.422327 -13.359823
Hg -4.456323 -4.452665 -13.359823
Hg -4.456323 -7.422327 -10.390161
Hg -7.425985 -4.452665 -10.390161
Hg -7.425985 -7.422327 -7.420498
Hg -4.456323 -4.452665 -7.420498
Hg -4.456323 -7.422327 -4.450836
Hg -7.425985 -4.452665 -4.450836
Hg -7.425985 -7.422327 -1.481173
Hg -4.456323 -4.452665 -1.481173
Hg -4.456323 -7.422327 1.488489
Hg -7.425985 -4.452665 1.488489
Hg -7.425985 -7.422327 4.458152
Hg -4.456323 -4.452665 4.458152
Hg -4.456323 -7.422327 7.427814
Hg -7.425985 -4.452665 7.427814
Hg -7.425985 -7.422327 10.397477
Hg -4.456323 -4.452665 10.397477
Hg -4.456323 -7.422327 13.367139
Hg -7.425985 -4.452665 13.367139
Hg -7.425985 -7.422327 16.336802
Hg -4.456323 -4.452665 16.336802
Hg -4.456323 -7.422327 19.306464
Hg -7.425985 -4.452665 19.306464
Hg -7.425985 -7.422327 22.276127
Hg -4.456323 -4.452665 22.276127
Hg -4.456323 -7.422327 25.245790
Hg -7.425985 -4.452665 25.245790
Hg -7.425985 -7.422327 28.215452
Hg -4.456323 -4.452665 28.215452
Hg -4.456323 -1.483002 -28.208136
Hg -7.425985 1.486660 -28.208136
Hg -7.425985 -1.483002 -25.238474
Hg -4.456323 1.486660 -25.238474
Hg -4.456323 -1.483002 -22.268811
Hg -7.425985 1.486660 -22.268811
Hg -7.425985 -1.483002 -19.299149
Hg -4.456323 1.486660 -19.299149
Hg -4.456323 -1.483002 -16.329486
Hg -7.425985 1.486660 -16.329486
Hg -7.425985 -1.483002 -13.359823
Hg -4.456323 1.486660 -13.359823
Hg -4.456323 -1.483002 -10.390161
Hg -7.425985 1.486660 -10.390161
Hg -7.425985 -1.483002 -7.420498
Hg -4.456323 1.486660 -7.420498
Hg -4.456323 -1.483002 -4.450836
Hg -7.425985 1.486660 -4.450836
Hg -7.425985 -1.483002 -1.481173
Hg -4.456323 1.486660 -1.481173
Hg -4.456323 -1.483002 1.488489
Hg -7.425985 1.486660 1.488489
Hg -7.425985 -1.483002 4.458152
Hg -4.456323 1.486660 4.458152
Hg -4.456323 -1.483002 7.427814
Hg -7.425985 1.486660 7.427814
Hg -7.425985 -1.483002 10.397477
Hg -4.456323 1.486660 10.397477
Hg -4.456323 -1.483002 13.367139
Hg -7.425985 1.486660 13.367139
Hg -7.425985 -1.483002 16.336802
Hg -4.456323 1.486660 16.336802
Hg -4.456323 -1.483002 19.306464
Hg -7.425985 1.486660 19.306464
Hg -7.425985 -1.483002 22.276127
Hg -4.456323 1.486660 22.276127
Hg -4.456323 -1.483002 25.245790
Hg -7.425985 1.486660 25.245790
Hg -7.425985 -1.483002 28.215452
Hg -4.456323 1.486660 28.215452
Hg -4.456323 4.456323 -28.208136
Hg -7.425985 7.425985 -28.208136
Hg -7.425985 4.456323 -25.238474
Hg -4.456323 7.425985 -25.238474
Hg -4.456323 4.456323 -22.268811
Hg -7.425985 7.425985 -22.268811
Hg -7.425985 4.456323 -19.299149
Hg -4.456323 7.425985 -19.299149
Hg -4.456323 4.456323 -16.329486
Hg -7.425985 7.425985 -16.329486
Hg -7.425985 4.456323 -13.359823
Hg -4.456323 7.425985 -13.359823
Hg -4.456323 4.456323 -10.390161
Hg -7.425985 7.425985 -10.390161
Hg -7.425985 4.456323 -7.420498
Hg -4.456323 7.425985 -7.420498
Hg -4.456323 4.456323 -4.450836
Hg -7.425985 7.425985 -4.450836
Hg -7.425985 4.456323 -1.481173
Hg -4.456323 7.425985 -1.481173
Hg -4.456323 4.456323 1.488489
Hg -7.425985 7.425985 1.488489
Hg -7.425985 4.456323 4.458152
Hg -4.456323 7.425985 4.458152
Hg -4.456323 4.456323 7.427814
Hg -7.425985 7.425985 7.427814
Hg -7.425985 4.456323 10.397477
Hg -4.456323 7.425985 10.397477
Hg -4.456323 4.456323 13.367139
Hg -7.425985 7.425985 13.367139
Hg -7.425985 4.456323 16.336802
Hg -4.456323 7.425985 16.336802
Hg -4.456323 4.456323 19.306464
Hg -7.425985 7.425985 19.306464
Hg -7.425985 4.456323 22.276127
Hg -4.456323 7.425985 22.276127
Hg -4.456323 4.456323 25.245790
Hg -7.425985 7.425985 25.245790
Hg -7.425985 4.456323 28.215452
Hg -4.456323 7.425985 28.215452
Hg -4.456323 10.395648 -28.208136
Hg -7.425985 13.365310 -28.208136
Hg -7.425985 10.395648 -25.238474
Hg -4.456323 13.365310 -25.238474
Hg -4.456323 10.395648 -22.268811
Hg -7.425985 13.365310 -22.268811
Hg -7.425985 10.395648 -19.299149
Hg -4.456323 13.365310 -19.299149
Hg -4.456323 10.395648 -16.329486
Hg -7.425985 13.365310 -16.329486
Hg -7.425985 10.395648 -13.359823
Hg -4.456323 13.365310 -13.359823
Hg -4.456323 10.395648 -10.390161
Hg -7.425985 13.365310 -10.390161
Hg -7.425985 10.395648 -7.420498
Hg -4.456323 13.365310 -7.420498
Hg -4.456323 10.395648 -4.450836
Hg -7.425985 13.365310 -4.450836
Hg -7.425985 10.395648 -1.481173
Hg -4.456323 13.365310 -1.481173
Hg -4.456323 10.395648 1.488489
Hg -7.425985 13.365310 1.488489
Hg -7.425985 10.395648 4.458152
Hg -4.456323 13.365310 4.458152
Hg -4.456323 10.395648 7.427814
Hg -7.425985 13.365310 7.427814
Hg -7.425985 10.395648 10.397477
Hg -4.456323 13.365310 10.397477
Hg -4.456323 10.395648 13.367139
Hg -7.425985 13.365310 13.367139
Hg -7.425985 10.395648 16.336802
Hg -4.456323 13.365310 16.336802
Hg -4.456323 10.395648 19.306464
Hg -7.425985 13.365310 19.306464
Hg -7.425985 10.395648 22.276127
Hg -4.456323 13.365310 22.276127
Hg -4.456323 10.395648 25.245790
Hg -7.425985 13.365310 25.245790
Hg -7.425985 10.395648 28.215452
Hg -4.456323 13.365310 28.215452
Hg -7.425985 16.334973 -25.238474
Hg -4.456323 16.334973 -22.268811
Hg -7.425985 19.304635 -22.268811
Hg -7.425985 16.334973 -19.299149
Hg -4.456323 19.304635 -19.299149
Hg -4.456323 16.334973 -16.329486
Hg -7.425985 19.304635 -16.329486
Hg -7.425985 16.334973 -13.359823
Hg -4.456323 19.304635 -13.359823
Hg -4.456323 16.334973 -10.390161
Hg -7.425985 19.304635 -10.390161
Hg -7.425985 16.334973 -7.420498
Hg -4.456323 19.304635 -7.420498
Hg -4.456323 16.334973 -4.450836
Hg -7.425985 19.304635 -4.450836
Hg -7.425985 16.334973 -1.481173
Hg -4.456323 19.304635 -1.481173
Hg -4.456323 16.334973 1.488489
Hg -7.425985 19.304635 1.488489
Hg -7.425985 16.334973 4.458152
Hg -4.456323 19.304635 4.458152
Hg -4.456323 16.334973 7.427814
Hg -7.425985 19.304635 7.427814
Hg -7.425985 16.334973 10.397477
Hg -4.456323 19.304635 10.397477
Hg -4.456323 16.334973 13.367139
Hg -7.425985 19.304635 13.367139
Hg -7.425985 16.334973 16.336802
Hg -4.456323 19.304635 16.336802
Hg -4.456323 16.334973 19.306464
Hg -7.425985 19.304635 19.306464
Hg -4.456323 19.304635 22.276127
Hg -4.456323 16.334973 25.245790
Hg -7.425985 22.274298 -19.299149
Hg -4.456323 22.274298 -16.329486
Hg -7.425985 25.243961 -16.329486
Hg -7.425985 22.274298 -13.359823
Hg -4.456323 25.243961 -13.359823
Hg -4.456323 22.274298 -10.390161
Hg -7.425985 25.243961 -10.390161
Hg -7.425985 22.274298 -7.420498
Hg -4.456323 25.243961 -7.420498
Hg -4.456323 22.274298 -4.450836
Hg -7.425985 25.243961 -4.450836
Hg -7.425985 22.274298 -1.481173
Hg -4.456323 25.243961 -1.481173
Hg -4.456323 22.274298 1.488489
Hg -7.425985 25.243961 1.488489
Hg -7.425985 22.274298 4.458152
Hg -4.456323 25.243961 4.458152
Hg -4.456323 22.274298 7.427814
Hg -7.425985 25.243961 7.427814
Hg -7.425985 22.274298 10.397477
Hg -4.456323 25.243961 10.397477
Hg -4.456323 22.274298 13.367139
Hg -7.425985 22.274298 16.336802
Hg -4.456323 25.243961 16.336802
Hg -4.456323 22.274298 19.306464
Hg -7.425985 28.213623 -13.359823
Hg -4.456323 28.213623 -10.390161
Hg -7.425985 28.213623 -7.420498
Hg -4.456323 28.213623 -4.450836
Hg -7.425985 28.213623 -1.481173
Hg -4.456323 28.213623 1.488489
Hg -7.425985 28.213623 4.458152
Hg -4.456323 28.213623 7.427814
Hg -7.425985 28.213623 10.397477
Hg -4.456323 28.213623 13.367139
Hg 1.483002 -28.209965 -13.359823
Hg -1.486660 -28.209965 -10.390161
Hg 1.483002 -28.209965 -7.420498
Hg -1.486660 -28.209965 -4.450836
Hg 1.483002 -28.209965 -1.481173
Hg -1.486660 -28.209965 1.488489
Hg 1.483002 -28.209965 4.458152
Hg -1.486660 -28.209965 7.427814
Hg 1.483002 -28.209965 10.397477
Hg -1.486660 -28.209965 13.367139
Hg 1.483002 -22.270640 -19.299149
Hg 1.483002 -25.240303 -16.329486
Hg -1.486660 -22.270640 -16.329486
Hg -1.486660 -25.240303 -13.359823
Hg 1.483002 -22.270640 -13.359823
Hg 1.483002 -25.240303 -10.390161
Hg -1.486660 -22.270640 -10.390161
Hg -1.486660 -25.240303 -7.420498
Hg 1.483002 -22.270640 -7.420498
Hg 1.483002 -25.240303 -4.450836
Hg -1.486660 -22.270640 -4.450836
Hg -1.486660 -25.240303 -1.481173
Hg 1.483002 -22.270640 -1.481173
Hg 1.483002 -25.240303 1.488489
Hg -1.486660 -22.270640 1.488489
Hg -1.486660 -25.240303 4.458152
Hg 1.483002 -22.270640 4.458152
Hg 1.483002 -25.240303 7.427814
Hg -1.486660 -22.270640 7.427814
Hg -1.486660 -25.240303 10.397477
Hg 1.483002 -22.270640 10.397477
Hg 1.483002 -25.240303 13.367139
Hg -1.486660 -22.270640 13.367139
Hg -1.486660 -25.240303 16.336802
Hg 1.483002 -22.270640 16.336802
Hg -1.486660 -22.270640 19.306464
Hg 1.483002 -16.331315 -25.238474
Hg 1.483002 -19.300977 -22.268811
Hg -1.486660 -16.331315 -22.268811
Hg -1.486660 -19.300977 -19.299149
Hg 1.483002 -16.331315 -19.299149
Hg 1.483002 -19.300977 -16.329486
Hg -1.486660 -16.331315 -16.329486
Hg -1.486660 -19.300977 -13.359823
Hg 1.483002 -16.331315 -13.359823
Hg 1.483002 -19.300977 -10.390161
Hg -1.486660 -16.331315 -10.390161
Hg -1.486660 -19.300977 -7.420498
Hg 1.483002 -16.331315 -7.420498
Hg 1.483002 -19.300977 -4.450836
Hg -1.486660 -16.331315 -4.450836
Hg -1.486660 -19.300977 -1.481173
Hg 1.483002 -16.331315 -1.481173
Hg 1.483002 -19.300977 1.488489
Hg -1.486660 -16.331315 1.488489
Hg -1.486660 -19.300977 4.458152
Hg 1.483002 -16.331315 4.458152
Hg 1.483002 -19.300977 7.427814
Hg -1.486660 -16.331315 7.427814
Hg -1.486660 -19.300977 10.397477
Hg 1.483002 -16.331315 10.397477
Hg 1.483002 -19.300977 13.367139
Hg -1.486660 -16.331315 13.367139
Hg -1.486660 -19.300977 16.336802
Hg 1.483002 -16.331315 16.336802
Hg 1.483002 -19.300977 19.306464
Hg -1.486660 -16.331315 19.306464
Hg -1.486660 -19.300977 22.276127
Hg 1.483002 -16.331315 22.276127
Hg -1.486660 -16.331315 25.245790
Hg 1.483002 -13.361652 -28.208136
Hg -1.486660 -10.391990 -28.208136
Hg -1.486660 -13.361652 -25.238474
Hg 1.483002 -10.391990 -25.238474
Hg 1.483002 -13.361652 -22.268811
Hg -1.486660 -10.391990 -22.268811
Hg -1.486660 -13.361652 -19.299149
Hg 1.483002 -10.391990 -19.299149
Hg 1.483002 -13.361652 -16.329486
Hg -1.486660 -10.391990 -16.329486
Hg -1.486660 -13.361652 -13.359823
Hg 1.483002 -10.391990 -13.359823
Hg 1.483002 -13.361652 -10.390161
Hg -1.486660 -10.391990 -10.390161
Hg -1.486660 -13.361652 -7.420498
Hg 1.483002 -10.391990 -7.420498
Hg 1.483002 -13.361652 -4.450836
Hg -1.486660 -10.391990 -4.450836
Hg -1.486660 -13.361652 -1.481173
Hg 1.483002 -10.391990 -1.481173
Hg 1.483002 -13.361652 1.488489
Hg -1.486660 -10.391990 1.488489
Hg -1.486660 -13.361652 4.458152
Hg 1.483002 -10.391990 4.458152
Hg 1.483002 -13.361652 7.427814
Hg -1.486660 -10.391990 7.427814
Hg -1.486660 -13.361652 10.397477
Hg 1.483002 -10.391990 10.397477
Hg 1.483002 -13.361652 13.367139
Hg -1.486660 -10.391990 13.367139
Hg -1.486660 -13.361652 16.336802
Hg 1.483002 -10.391990 16.336802
Hg 1.483002 -13.361652 19.306464
Hg -1.486660 -10.391990 19.306464
Hg -1.486660 -13.361652 22.276127
Hg 1.483002 -10.391990 22.276127
Hg 1.483002 -13.361652 25.245790
Hg -1.486660 -10.391990 25.245790
Hg -1.486660 -13.361652 28.215452
Hg 1.483002 -10.391990 28.215452
Hg 1.483002 -7.422327 -28.208136
Hg -1.486660 -4.452665 -28.208136
Hg -1.486660 -7.422327 -25.238474
Hg 1.483002 -4.452665 -25.238474
Hg 1.483002 -7.422327 -22.268811
Hg -1.486660 -4.452665 -22.268811
Hg -1.486660 -7.422327 -19.299149
Hg 1.483002 -4.452665 -19.299149
Hg 1.483002 -7.422327 -16.329486
Hg -1.486660 -4.452665 -16.329486
Hg -1.486660 -7.422327 -13.359823
Hg 1.483002 -4.452665 -13.359823
Hg 1.483002 -7.422327 -10.390161
Hg -1.486660 -4.452665 -10.390161
Hg -1.486660 -7.422327 -7.420498
Hg 1.483002 -4.452665 -7.420498
Hg 1.483002 -7.422327 -4.450836
Hg -1.486660 -4.452665 -4.450836
Hg -1.486660 -7.422327 -1.481173
Hg 1.483002 -4.452665 -1.481173
Hg 1.483002 -7.422327 1.488489
Hg -1.486660 -4.452665 1.488489
Hg -1.486660 -7.422327 4.458152
Hg 1.483002 -4.452665 4.458152
Hg 1.483002 -7.422327 7.427814
Hg -1.486660 -4.452665 7.427814
Hg -1.486660 -7.422327 10.397477
Hg 1.483002 -4.452665 10.397477
Hg 1.483002 -7.422327 13.367139
Hg -1.486660 -4.452665 13.367139
Hg -1.486660 -7.422327 16.336802
Hg 1.483002 -4.452665 16.336802
Hg 1.483002 -7.422327 19.306464
Hg -1.486660 -4.452665 19.306464
Hg -1.486660 -7.422327 22.276127
Hg 1.483002 -4.452665 22.276127
Hg 1.483002 -7.422327 25.245790
Hg -1.486660 -4.452665 25.245790
Hg -1.486660 -7.422327 28.215452
Hg 1.483002 -4.452665 28.215452
Hg 1.483002 -1.483002 -28.208136
Hg -1.486660 1.486660 -28.208136
Hg -1.486660 -1.483002 -25.238474
Hg 1.483002 1.486660 -25.238474
Hg 1.483002 -1.483002 -22.268811
Hg -1.486660 1.486660 -22.268811
Hg -1.486660 -1.483002 -19.299149
Hg 1.483002 1.486660 -19.299149
Hg 1.483002 -1.483002 -16.329486
Hg -1.486660 1.486660 -16.329486
Hg -1.486660 -1.483002 -13.359823
Hg 1.483002 1.486660 -13.359823
Hg 1.483002 -1.483002 -10.390161
Hg -1.486660 1.486660 -10.390161
Hg -1.486660 -1.483002 -7.420498
Hg 1.483002 1.486660 -7.420498
Hg 1.483002 -1.483002 -4.450836
Hg -1.486660 1.486660 -4.450836
Hg -1.486660 -1.483002 -1.481173
Hg 1.483002 1.486660 -1.481173
Hg 1.483002 -1.483002 1.488489
Hg -1.486660 1.486660 1.488489
Hg -1.486660 -1.483002 4.458152
Hg 1.483002 1.486660 4.458152
Hg 1.483002 -1.483002 7.427814
Hg -1.486660 1.486660 7.427814
Hg -1.486660 -1.483002 10.397477
Hg 1.483002 1.486660 10.397477
Hg 1.483002 -1.483002 13.367139
Hg -1.486660 1.486660 13.367139
Hg -1.486660 -1.483002 16.336802
Hg 1.483002 1.486660 16.336802
Hg 1.483002 -1.483002 19.306464
Hg -1.486660 1.486660 19.306464
Hg -1.486660 -1.483002 22.276127
Hg 1.483002 1.486660 22.276127
Hg 1.483002 -1.483002 25.245790
Hg -1.486660 1.486660 25.245790
Hg -1.486660 -1.483002 28.215452
Hg 1.483002 1.486660 28.215452
Hg 1.483002 4.456323 -28.208136
Hg -1.486660 7.425985 -28.208136
Hg -1.486660 4.456323 -25.238474
Hg 1.483002 7.425985 -25.238474
Hg 1.483002 4.456323 -22.268811
Hg -1.486660 7.425985 -22.268811
Hg -1.486660 4.456323 -19.299149
Hg 1.483002 7.425985 -19.299149
Hg 1.483002 4.456323 -16.329486
Hg -1.486660 7.425985 -16.329486
Hg -1.486660 4.456323 -13.359823
Hg 1.483002 7.425985 -13.359823
Hg 1.483002 4.456323 -10.390161
Hg -1.486660 7.425985 -10.390161
Hg -1.486660 4.456323 -7.420498
Hg 1.483002 7.425985 -7.420498
Hg 1.483002 4.456323 -4.450836
Hg -1.486660 7.425985 -4.450836
Hg -1.486660 4.456323 -1.481173
Hg 1.483002 7.425985 -1.481173
Hg 1.483002 4.456323 1.488489
Hg -1.486660 7.425985 1.488489
Hg -1.486660 4.456323 4.458152
Hg 1.483002 7.425985 4.458152
Hg 1.483002 4.456323 7.427814
Hg -1.486660 7.425985 7.427814
Hg -1.486660 4.456323 10.397477
Hg 1.483002 7.425985 10.397477
Hg 1.483002 4.456323 13.367139
Hg -1.486660 7.425985 13.367139
Hg -1.486660 4.456323 16.336802
Hg 1.483002 7.425985 16.336802
Hg 1.483002 4.456323 19.306464
Hg -1.486660 7.425985 19.306464
Hg -1.486660 4.456323 22.276127
Hg 1.483002 7.425985 22.276127
Hg 1.483002 4.456323 25.245790
Hg -1.486660 7.425985 25.245790
Hg -1.486660 4.456323 28.215452
Hg 1.483002 7.425985 28.215452
Hg 1.483002 10.395648 -28.208136
Hg -1.486660 13.365310 -28.208136
Hg -1.486660 10.395648 -25.238474
Hg 1.483002 13.365310 -25.238474
Hg 1.483002 10.395648 -22.268811
Hg -1.486660 13.365310 -22.268811
Hg -1.486660 10.395648 -19.299149
Hg 1.483002 13.365310 -19.299149
Hg 1.483002 10.395648 -16.329486
Hg -1.486660 13.365310 -16.329486
Hg -1.486660 10.395648 -13.359823
Hg 1.483002 13.365310 -13.359823
Hg 1.483002 10.395648 -10.390161
Hg -1.486660 13.365310 -10.390161
Hg -1.486660 10.395648 -7.420498
Hg 1.483002 13.365310 -7.420498
Hg 1.483002 10.395648 -4.450836
Hg -1.486660 13.365310 -4.450836
Hg -1.486660 10.395648 -1.481173
Hg 1.483002 13.365310 -1.481173
Hg 1.483002 10.395648 1.488489
Hg -1.486660 13.365310 1.488489
Hg -1.486660 10.395648 4.458152
Hg 1.483002 13.365310 4.458152
Hg 1.483002 10.395648 7.427814
Hg -1.486660 13.365310 7.427814
Hg -1.486660 10.395648 10.397477
Hg 1.483002 13.365310 10.397477
Hg 1.483002 10.395648 13.367139
Hg -1.486660 13.365310 13.367139
Hg -1.486660 10.395648 16.336802
Hg 1.483002 13.365310 16.336802
Hg 1.483002 10.395648 19.306464
Hg -1.486660 13.365310 19.306464
Hg -1.486660 10.395648 22.276127
Hg 1.483002 13.365310 22.276127
Hg 1.483002 10.395648 25.245790
Hg -1.486660 13.365310 25.245790
Hg -1.486660 10.395648 28.215452
Hg 1.483002 13.365310 28.215452
Hg -1.486660 16.334973 -25.238474
Hg 1.483002 16.334973 -22.268811
Hg -1.486660 19.304635 -22.268811
Hg -1.486660 16.334973 -19.299149
Hg 1.483002 19.304635 -19.299149
Hg 1.483002 16.334973 -16.329486
Hg -1.486660 19.304635 -16.329486
Hg -1.486660 16.334973 -13.359823
Hg 1.483002 19.304635 -13.359823
Hg 1.483002 16.334973 -10.390161
Hg -1.486660 19.304635 -10.390161
Hg -1.486660 16.334973 -7.420498
Hg 1.483002 19.304635 -7.420498
Hg 1.483002 16.334973 -4.450836
Hg -1.486660 19.304635 -4.450836
Hg -1.486660 16.334973 -1.481173
Hg 1.483002 19.304635 -1.481173
Hg 1.483002 16.334973 1.488489
Hg -1.486660 19.304635 1.488489
Hg -1.486660 16.334973 4.458152
Hg 1.483002 19.304635 4.458152
Hg 1.483002 16.334973 7.427814
Hg -1.486660 19.304635 7.427814
Hg -1.486660 16.334973 10.397477
Hg 1.483002 19.304635 10.397477
Hg 1.483002 16.334973 13.367139
Hg -1.486660 19.304635 13.367139
Hg -1.486660 16.334973 16.336802
Hg 1.483002 19.304635 16.336802
Hg 1.483002 16.334973 19.306464
Hg -1.486660 19.304635 19.306464
Hg -1.486660 16.334973 22.276127
Hg 1.483002 19.304635 22.276127
Hg 1.483002 16.334973 25.245790
Hg -1.486660 22.274298 -19.299149
Hg 1.483002 22.274298 -16.329486
Hg -1.486660 25.243961 -16.329486
Hg -1.486660 22.274298 -13.359823
Hg 1.483002 25.243961 -13.359823
Hg 1.483002 22.274298 -10.390161
Hg -1.486660 25.243961 -10.390161
Hg -1.486660 22.274298 -7.420498
Hg 1.483002 25.243961 -7.420498
Hg 1.483002 22.274298 -4.450836
Hg -1.486660 25.243961 -4.450836
Hg -1.486660 22.274298 -1.481173
Hg 1.483002 25.243961 -1.481173
Hg 1.483002 22.274298 1.488489
Hg -1.486660 25.243961 1.488489
Hg -1.486660 22.274298 4.458152
Hg 1.483002 25.243961 4.458152
Hg 1.483002 22.274298 7.427814
Hg -1.486660 25.243961 7.427814
Hg -1.486660 22.274298 10.397477
Hg 1.483002 25.243961 10.397477
Hg 1.483002 22.274298 13.367139
Hg -1.486660 25.243961 13.367139
Hg -1.486660 22.274298 16.336802
Hg 1.483002 25.243961 16.336802
Hg 1.483002 22.274298 19.306464
Hg -1.486660 28.213623 -13.359823
Hg 1.483002 28.213623 -10.390161
Hg -1.486660 28.213623 -7.420498
Hg 1.483002 28.213623 -4.450836
Hg -1.486660 28.213623 -1.481173
Hg 1.483002 28.213623 1.488489
Hg -1.486660 28.213623 4.458152
Hg 1.483002 28.213623 7.427814
Hg -1.486660 28.213623 10.397477
Hg 1.483002 28.213623 13.367139
Hg 7.422327 -28.209965 -13.359823
Hg 4.452665 -28.209965 -10.390161
Hg 7.422327 -28.209965 -7.420498
Hg 4.452665 -28.209965 -4.450836
Hg 7.422327 -28.209965 -1.481173
Hg 4.452665 -28.209965 1.488489
Hg 7.422327 -28.209965 4.458152
Hg 4.452665 -28.209965 7.427814
Hg 7.422327 -28.209965 10.397477
Hg 4.452665 -28.209965 13.367139
Hg 7.422327 -22.270640 -19.299149
Hg 7.422327 -25.240303 -16.329486
Hg 4.452665 -22.270640 -16.329486
Hg 4.452665 -25.240303 -13.359823
Hg 7.422327 -22.270640 -13.359823
Hg 7.422327 -25.240303 -10.390161
Hg 4.452665 -22.270640 -10.390161
Hg 4.452665 -25.240303 -7.420498
Hg 7.422327 -22.270640 -7.420498
Hg 7.422327 -25.240303 -4.450836
Hg 4.452665 -22.270640 -4.450836
Hg 4.452665 -25.240303 -1.481173
Hg 7.422327 -22.270640 -1.481173
Hg 7.422327 -25.240303 1.488489
Hg 4.452665 -22.270640 1.488489
Hg 4.452665 -25.240303 4.458152
Hg 7.422327 -22.270640 4.458152
Hg 7.422327 -25.240303 7.427814
Hg 4.452665 -22.270640 7.427814
Hg 4.452665 -25.240303 10.397477
Hg 7.422327 -22.270640 10.397477
Hg 4.452665 -22.270640 13.367139
Hg 4.452665 -25.240303 16.336802
Hg 7.422327 -22.270640 16.336802
Hg 4.452665 -22.270640 19.306464
Hg 7.422327 -16.331315 -25.238474
Hg 7.422327 -19.300977 -22.268811
Hg 4.452665 -16.331315 -22.268811
Hg 4.452665 -19.300977 -19.299149
Hg 7.422327 -16.331315 -19.299149
Hg 7.422327 -19.300977 -16.329486
Hg 4.452665 -16.331315 -16.329486
Hg 4.452665 -19.300977 -13.359823
Hg 7.422327 -16.331315 -13.359823
Hg 7.422327 -19.300977 -10.390161
Hg 4.452665 -16.331315 -10.390161
Hg 4.452665 -19.300977 -7.420498
Hg 7.422327 -16.331315 -7.420498
Hg 7.422327 -19.300977 -4.450836
Hg 4.452665 -16.331315 -4.450836
Hg 4.452665 -19.300977 -1.481173
Hg 7.422327 -16.331315 -1.481173
Hg 7.422327 -19.300977 1.488489
Hg 4.452665 -16.331315 1.488489
Hg 4.452665 -19.300977 4.458152
Hg 7.422327 -16.331315 4.458152
Hg 7.422327 -19.300977 7.427814
Hg 4.452665 -16.331315 7.427814
Hg 4.452665 -19.300977 10.397477
Hg 7.422327 -16.331315 10.397477
Hg 7.422327 -19.300977 13.367139
Hg 4.452665 -16.331315 13.367139
Hg 4.452665 -19.300977 16.336802
Hg 7.422327 -16.331315 16.336802
Hg 7.422327 -19.300977 19.306464
Hg 4.452665 -16.331315 19.306464
Hg 4.452665 -19.300977 22.276127
Hg 4.452665 -16.331315 25.245790
Hg 7.422327 -13.361652 -28.208136
Hg 4.452665 -10.391990 -28.208136
Hg 4.452665 -13.361652 -25.238474
Hg 7.422327 -10.391990 -25.238474
Hg 7.422327 -13.361652 -22.268811
Hg 4.452665 -10.391990 -22.268811
Hg 4.452665 -13.361652 -19.299149
Hg 7.422327 -10.391990 -19.299149
Hg 7.422327 -13.361652 -16.329486
Hg 4.452665 -10.391990 -16.329486
Hg 4.452665 -13.361652 -13.359823
Hg 7.422327 -10.391990 -13.359823
Hg 7.422327 -13.361652 -10.390161
Hg 4.452665 -10.391990 -10.390161
Hg 4.452665 -13.361652 -7.420498
Hg 7.422327 -10.391990 -7.420498
Hg 7.422327 -13.361652 -4.450836
Hg 4.452665 -10.391990 -4.450836
Hg 4.452665 -13.361652 -1.481173
Hg 7.422327 -10.391990 -1.481173
Hg 7.422327 -13.361652 1.488489
Hg 4.452665 -10.391990 1.488489
Hg 4.452665 -13.361652 4.458152
Hg 7.422327 -10.391990 4.458152
Hg 7.422327 -13.361652 7.427814
Hg 4.452665 -10.391990 7.427814
Hg 4.452665 -13.361652 10.397477
Hg 7.422327 -10.391990 10.397477
Hg 7.422327 -13.361652 13.367139
Hg 4.452665 -10.391990 13.367139
Hg 4.452665 -13.361652 16.336802
Hg 7.422327 -10.391990 16.336802
Hg 7.422327 -13.361652 19.306464
Hg 4.452665 -10.391990 19.306464
Hg 4.452665 -13.361652 22.276127
Hg 7.422327 -10.391990 22.276127
Hg 7.422327 -13.361652 25.245790
Hg 4.452665 -10.391990 25.245790
Hg 4.452665 -13.361652 28.215452
Hg 7.422327 -10.391990 28.215452
Hg 7.422327 -7.422327 -28.208136
Hg 4.452665 -4.452665 -28.208136
Hg 4.452665 -7.422327 -25.238474
Hg 7.422327 -4.452665 -25.238474
Hg 7.422327 -7.422327 -22.268811
Hg 4.452665 -4.452665 -22.268811
Hg 4.452665 -7.422327 -19.299149
Hg 7.422327 -4.452665 -19.299149
Hg 7.422327 -7.422327 -16.329486
Hg 4.452665 -4.452665 -16.329486
Hg 4.452665 -7.422327 -13.359823
Hg 7.422327 -4.452665 -13.359823
Hg 7.422327 -7.422327 -10.390161
Hg 4.452665 -4.452665 -10.390161
Hg 4.452665 -7.422327 -7.420498
Hg 7.422327 -4.452665 -7.420498
Hg 7.422327 -7.422327 -4.450836
Hg 4.452665 -4.452665 -4.450836
Hg 4.452665 -7.422327 -1.481173
Hg 7.422327 -4.452665 -1.481173
Hg 7.422327 -7.422327 1.488489
Hg 4.452665 -4.452665 1.488489
Hg 4.452665 -7.422327 4.458152
Hg 7.422327 -4.452665 4.458152
Hg 7.422327 -7.422327 7.427814
Hg 4.452665 -4.452665 7.427814
Hg 4.452665 -7.422327 10.397477
Hg 7.422327 -4.452665 10.397477
Hg 7.422327 -7.422327 13.367139
Hg 4.452665 -4.452665 13.367139
Hg 4.452665 -7.422327 16.336802
Hg 7.422327 -4.452665 16.336802
Hg 7.422327 -7.422327 19.306464
Hg 4.452665 -4.452665 19.306464
Hg 4.452665 -7.422327 22.276127
Hg 7.422327 -4.452665 22.276127
Hg 7.422327 -7.422327 25.245790
Hg 4.452665 -4.452665 25.245790
Hg 4.452665 -7.422327 28.215452
Hg 7.422327 -4.452665 28.215452
Hg 7.422327 -1.483002 -28.208136
Hg 4.452665 1.486660 -28.208136
Hg 4.452665 -1.483002 -25.238474
Hg 7.422327 1.486660 -25.238474
Hg 7.422327 -1.483002 -22.268811
Hg 4.452665 1.486660 -22.268811
Hg 4.452665 -1.483002 -19.299149
Hg 7.422327 1.486660 -19.299149
Hg 7.422327 -1.483002 -16.329486
Hg 4.452665 1.486660 -16.329486
Hg 4.452665 -1.483002 -13.359823
Hg 7.422327 1.486660 -13.359823
Hg 7.422327 -1.483002 -10.390161
Hg 4.452665 1.486660 -10.390161
Hg 4.452665 -1.483002 -7.420498
Hg 7.422327 1.486660 -7.420498
Hg 7.422327 -1.483002 -4.450836
Hg 4.452665 1.486660 -4.450836
Hg 4.452665 -1.483002 -1.481173
Hg 7.422327 1.486660 -1.481173
Hg 7.422327 -1.483002 1.488489
Hg 4.452665 1.486660 1.488489
Hg 4.452665 -1.483002 4.458152
Hg 7.422327 1.486660 4.458152
Hg 7.422327 -1.483002 7.427814
Hg 4.452665 1.486660 7.427814
Hg 4.452665 -1.483002 10.397477
Hg 7.422327 1.486660 10.397477
Hg 7.422327 -1.483002 13.367139
Hg 4.452665 1.486660 13.367139
Hg 4.452665 -1.483002 16.336802
Hg 7.422327 1.486660 16.336802
Hg 7.422327 -1.483002 19.306464
Hg 4.452665 1.486660 19.306464
Hg 4.452665 -1.483002 22.276127
Hg 7.422327 1.486660 22.276127
Hg 7.422327 -1.483002 25.245790
Hg 4.452665 1.486660 25.245790
Hg 4.452665 -1.483002 28.215452
Hg 7.422327 1.486660 28.215452
Hg 7.422327 4.456323 -28.208136
Hg 4.452665 7.425985 -28.208136
Hg 4.452665 4.456323 -25.238474
Hg 7.422327 7.425985 -25.238474
Hg 7.422327 4.456323 -22.268811
Hg 4.452665 7.425985 -22.268811
Hg 4.452665 4.456323 -19.299149
Hg 7.422327 7.425985 -19.299149
Hg 7.422327 4.456323 -16.329486
Hg 4.452665 7.425985 -16.329486
Hg 4.452665 4.456323 -13.359823
Hg 7.422327 7.425985 -13.359823
Hg 7.422327 4.456323 -10.390161
Hg 4.452665 7.425985 -10.390161
Hg 4.452665 4.456323 -7.420498
Hg 7.422327 7.425985 -7.420498
Hg 7.422327 4.456323 -4.450836
Hg 4.452665 7.425985 -4.450836
Hg 4.452665 4.456323 -1.481173
Hg 7.422327 7.425985 -1.481173
Hg 7.422327 4.456323 1.488489
Hg 4.452665 7.425985 1.488489
Hg 4.452665 4.456323 4.458152
Hg 7.422327 7.425985 4.458152
Hg 7.422327 4.456323 7.427814
Hg 4.452665 7.425985 7.427814
Hg 4.452665 4.456323 10.397477
Hg 7.422327 7.425985 10.397477
Hg 7.422327 4.456323 13.367139
Hg 4.452665 7.425985 13.367139
Hg 4.452665 4.456323 16.336802
Hg 7.422327 7.425985 16.336802
Hg 7.422327 4.456323 19.306464
Hg 4.452665 7.425985 19.306464
Hg 4.452665 4.456323 22.276127
Hg 7.422327 7.425985 22.276127
Hg 7.422327 4.456323 25.245790
Hg 4.452665 7.425985 25.245790
Hg 4.452665 4.456323 28.215452
Hg 7.422327 7.425985 28.215452
Hg 7.422327 10.395648 -28.208136
Hg 4.452665 13.365310 -28.208136
Hg 4.452665 10.395648 -25.238474
Hg 7.422327 10.395648 -22.268811
Hg 4.452665 13.365310 -22.268811
Hg 4.452665 10.395648 -19.299149
Hg 7.422327 13.365310 -19.299149
Hg 7.422327 10.395648 -16.329486
Hg 4.452665 13.365310 -16.329486
Hg 4.452665 10.395648 -13.359823
Hg 7.422327 13.365310 -13.359823
Hg 7.422327 10.395648 -10.390161
Hg 4.452665 13.365310 -10.390161
Hg 4.452665 10.395648 -7.420498
Hg 7.422327 13.365310 -7.420498
Hg 7.422327 10.395648 -4.450836
Hg 4.452665 13.365310 -4.450836
Hg 4.452665 10.395648 -1.481173
Hg 7.422327 13.365310 -1.481173
Hg 7.422327 10.395648 1.488489
Hg 4.452665 13.365310 1.488489
Hg 4.452665 10.395648 4.458152
Hg 7.422327 13.365310 4.458152
Hg 7.422327 10.395648 7.427814
Hg 4.452665 13.365310 7.427814
Hg 4.452665 10.395648 10.397477
Hg 7.422327 13.365310 10.397477
Hg 7.422327 10.395648 13.367139
Hg 4.452665 13.365310 13.367139
Hg 4.452665 10.395648 16.336802
Hg 7.422327 13.365310 16.336802
Hg 7.422327 10.395648 19.306464
Hg 4.452665 13.365310 19.306464
Hg 4.452665 10.395648 22.276127
Hg 7.422327 13.365310 22.276127
Hg 7.422327 10.395648 25.245790
Hg 4.452665 13.365310 25.245790
Hg 4.452665 10.395648 28.215452
Hg 7.422327 13.365310 28.215452
Hg 4.452665 16.334973 -25.238474
Hg 7.422327 16.334973 -22.268811
Hg 4.452665 19.304635 -22.268811
Hg 4.452665 16.334973 -19.299149
Hg 7.422327 19.304635 -19.299149
Hg 7.422327 16.334973 -16.329486
Hg 4.452665 19.304635 -16.329486
Hg 4.452665 16.334973 -13.359823
Hg 7.422327 19.304635 -13.359823
Hg 7.422327 16.334973 -10.390161
Hg 4.452665 19.304635 -10.390161
Hg 4.452665 16.334973 -7.420498
Hg 7.422327 19.304635 -7.420498
Hg 7.422327 16.334973 -4.450836
Hg 4.452665 19.304635 -4.450836
Hg 4.452665 16.334973 -1.481173
Hg 7.422327 19.304635 -1.481173
Hg 7.422327 16.334973 1.488489
Hg 4.452665 19.304635 1.488489
Hg 4.452665 16.334973 4.458152
Hg 7.422327 19.304635 4.458152
Hg 7.422327 16.334973 7.427814
Hg 4.452665 19.304635 7.427814
Hg 4.452665 16.334973 10.397477
Hg 7.422327 19.304635 10.397477
Hg 7.422327 16.334973 13.367139
Hg 4.452665 19.304635 13.367139
Hg 4.452665 16.334973 16.336802
Hg 7.422327 19.304635 16.336802
Hg 7.422327 16.334973 19.306464
Hg 4.452665 19.304635 19.306464
Hg 4.452665 16.334973 22.276127
Hg 7.422327 19.304635 22.276127
Hg 7.422327 16.334973 25.245790
Hg 4.452665 22.274298 -19.299149
Hg 4.452665 25.243961 -16.329486
Hg 4.452665 22.274298 -13.359823
Hg 7.422327 25.243961 -13.359823
Hg 7.422327 22.274298 -10.390161
Hg 4.452665 25.243961 -10.390161
Hg 4.452665 22.274298 -7.420498
Hg 7.422327 25.243961 -7.420498
Hg 7.422327 22.274298 -4.450836
Hg 4.452665 25.243961 -4.450836
Hg 4.452665 22.274298 -1.481173
Hg 7.422327 25.243961 -1.481173
Hg 7.422327 22.274298 1.488489
Hg 4.452665 25.243961 1.488489
Hg 4.452665 22.274298 4.458152
Hg 7.422327 25.243961 4.458152
Hg 7.422327 22.274298 7.427814
Hg 4.452665 25.243961 7.427814
Hg 4.452665 22.274298 10.397477
Hg 7.422327 25.243961 10.397477
Hg 7.422327 22.274298 13.367139
Hg 4.452665 25.243961 13.367139
Hg 4.452665 22.274298 16.336802
Hg 7.422327 25.243961 16.336802
Hg 7.422327 22.274298 19.306464
Hg 4.452665 28.213623 -13.359823
Hg 7.422327 28.213623 -10.390161
Hg 4.452665 28.213623 -7.420498
Hg 7.422327 28.213623 -4.450836
Hg 4.452665 28.213623 -1.481173
Hg 7.422327 28.213623 1.488489
Hg 4.452665 28.213623 4.458152
Hg 7.422327 28.213623 7.427814
Hg 4.452665 28.213623 10.397477
Hg 7.422327 28.213623 13.367139
Hg 10.391990 -28.209965 -10.390161
Hg 13.361652 -28.209965 -7.420498
Hg 10.391990 -28.209965 -4.450836
Hg 13.361652 -28.209965 -1.481173
Hg 10.391990 -28.209965 1.488489
Hg 13.361652 -28.209965 4.458152
Hg 10.391990 -28.209965 7.427814
Hg 10.391990 -25.240303 -13.359823
Hg 13.361652 -22.270640 -13.359823
Hg 10.391990 -22.270640 -10.390161
Hg 10.391990 -25.240303 -7.420498
Hg 13.361652 -22.270640 -7.420498
Hg 13.361652 -25.240303 -4.450836
Hg 10.391990 -22.270640 -4.450836
Hg 10.391990 -25.240303 -1.481173
Hg 13.361652 -22.270640 -1.481173
Hg 13.361652 -25.240303 1.488489
Hg 10.391990 -22.270640 1.488489
Hg 10.391990 -25.240303 4.458152
Hg 13.361652 -22.270640 4.458152
Hg 13.361652 -25.240303 7.427814
Hg 10.391990 -22.270640 7.427814
Hg 10.391990 -25.240303 10.397477
Hg 10.391990 -22.270640 13.367139
Hg 10.391990 -16.331315 -22.268811
Hg 10.391990 -19.300977 -19.299149
Hg 13.361652 -19.300977 -16.329486
Hg 10.391990 -16.331315 -16.329486
Hg 10.391990 -19.300977 -13.359823
Hg 13.361652 -16.331315 -13.359823
Hg 13.361652 -19.300977 -10.390161
Hg 10.391990 -16.331315 -10.390161
Hg 10.391990 -19.300977 -7.420498
Hg 13.361652 -16.331315 -7.420498
Hg 13.361652 -19.300977 -4.450836
Hg 10.391990 -16.331315 -4.450836
Hg 10.391990 -19.300977 -1.481173
Hg 13.361652 -16.331315 -1.481173
Hg 13.361652 -19.300977 1.488489
Hg 10.391990 -16.331315 1.488489
Hg 10.391990 -19.300977 4.458152
Hg 13.361652 -16.331315 4.458152
Hg 13.361652 -19.300977 7.427814
Hg 10.391990 -16.331315 7.427814
Hg 10.391990 -19.300977 10.397477
Hg 13.361652 -16.331315 10.397477
Hg 13.361652 -19.300977 13.367139
Hg 10.391990 -16.331315 13.367139
Hg 13.361652 -16.331315 16.336802
Hg 10.391990 -16.331315 19.306464
Hg 10.391990 -10.391990 -28.208136
Hg 13.361652 -10.391990 -25.238474
Hg 13.361652 -13.361652 -22.268811
Hg 10.391990 -10.391990 -22.268811
Hg 10.391990 -13.361652 -19.299149
Hg 13.361652 -10.391990 -19.299149
Hg 13.361652 -13.361652 -16.329486
Hg 10.391990 -10.391990 -16.329486
Hg 10.391990 -13.361652 -13.359823
Hg 13.361652 -10.391990 -13.359823
Hg 13.361652 -13.361652 -10.390161
Hg 10.391990 -10.391990 -10.390161
Hg 10.391990 -13.361652 -7.420498
Hg 13.361652 -10.391990 -7.420498
Hg 13.361652 -13.361652 -4.450836
Hg 10.391990 -10.391990 -4.450836
Hg 10.391990 -13.361652 -1.481173
Hg 13.361652 -10.391990 -1.481173
Hg 13.361652 -13.361652 1.488489
Hg 10.391990 -10.391990 1.488489
Hg 10.391990 -13.361652 4.458152
Hg 13.361652 -10.391990 4.458152
Hg 13.361652 -13.361652 7.427814
Hg 10.391990 -10.391990 7.427814
Hg 10.391990 -13.361652 10.397477
Hg 13.361652 -10.391990 10.397477
Hg 13.361652 -13.361652 13.367139
Hg 10.391990 -10.391990 13.367139
Hg 10.391990 -13.361652 16.336802
Hg 13.361652 -10.391990 16.336802
Hg 10.391990 -10.391990 19.306464
Hg 10.391990 -13.361652 22.276127
Hg 13.361652 -10.391990 22.276127
Hg 13.361652 -7.422327 -28.208136
Hg 10.391990 -4.452665 -28.208136
Hg 10.391990 -7.422327 -25.238474
Hg 13.361652 -4.452665 -25.238474
Hg 13.361652 -7.422327 -22.268811
Hg 10.391990 -4.452665 -22.268811
Hg 10.391990 -7.422327 -19.299149
Hg 13.361652 -4.452665 -19.299149
Hg 13.361652 -7.422327 -16.329486
Hg 10.391990 -4.452665 -16.329486
Hg 10.391990 -7.422327 -13.359823
Hg 13.361652 -4.452665 -13.359823
Hg 13.361652 -7.422327 -10.390161
Hg 10.391990 -4.452665 -10.390161
Hg 10.391990 -7.422327 -7.420498
Hg 13.361652 -4.452665 -7.420498
Hg 13.361652 -7.422327 -4.450836
Hg 10.391990 -4.452665 -4.450836
Hg 10.391990 -7.422327 -1.481173
Hg 13.361652 -4.452665 -1.481173
Hg 13.361652 -7.422327 1.488489
Hg 10.391990 -4.452665 1.488489
Hg 10.391990 -7.422327 4.458152
Hg 13.361652 -4.452665 4.458152
Hg 13.361652 -7.422327 7.427814
Hg 10.391990 -4.452665 7.427814
Hg 10.391990 -7.422327 10.397477
Hg 13.361652 -4.452665 10.397477
Hg 13.361652 -7.422327 13.367139
Hg 10.391990 -4.452665 13.367139
Hg 10.391990 -7.422327 16.336802
Hg 13.361652 -4.452665 16.336802
Hg 13.361652 -7.422327 19.306464
Hg 10.391990 -4.452665 19.306464
Hg 10.391990 -7.422327 22.276127
Hg 13.361652 -4.452665 22.276127
Hg 13.361652 -7.422327 25.245790
Hg 10.391990 -4.452665 25.245790
Hg 10.391990 -7.422327 28.215452
Hg 13.361652 -4.452665 28.215452
Hg 13.361652 -1.483002 -28.208136
Hg 10.391990 1.486660 -28.208136
Hg 10.391990 -1.483002 -25.238474
Hg 13.361652 1.486660 -25.238474
Hg 13.361652 -1.483002 -22.268811
Hg 10.391990 1.486660 -22.268811
Hg 10.391990 -1.483002 -19.299149
Hg 13.361652 1.486660 -19.299149
Hg 13.361652 -1.483002 -16.329486
Hg 10.391990 1.486660 -16.329486
Hg 10.391990 -1.483002 -13.359823
Hg 13.361652 1.486660 -13.359823
Hg 13.361652 -1.483002 -10.390161
Hg 10.391990 1.486660 -10.390161
Hg 10.391990 -1.483002 -7.420498
Hg 13.361652 1.486660 -7.420498
Hg 13.361652 -1.483002 -4.450836
Hg 10.391990 1.486660 -4.450836
Hg 10.391990 -1.483002 -1.481173
Hg 13.361652 1.486660 -1.481173
Hg 13.361652 -1.483002 1.488489
Hg 10.391990 1.486660 1.488489
Hg 10.391990 -1.483002 4.458152
Hg 13.361652 1.486660 4.458152
Hg 13.361652 -1.483002 7.427814
Hg 10.391990 1.486660 7.427814
Hg 10.391990 -1.483002 10.397477
Hg 13.361652 1.486660 10.397477
Hg 13.361652 -1.483002 13.367139
Hg 10.391990 1.486660 13.367139
Hg 10.391990 -1.483002 16.336802
Hg 13.361652 1.486660 16.336802
Hg 13.361652 -1.483002 19.306464
Hg 10.391990 1.486660 19.306464
Hg 10.391990 -1.483002 22.276127
Hg 13.361652 1.486660 22.276127
Hg 13.361652 -1.483002 25.245790
Hg 10.391990 1.486660 25.245790
Hg 10.391990 -1.483002 28.215452
Hg 13.361652 1.486660 28.215452
Hg 13.361652 4.456323 -28.208136
Hg 10.391990 7.425985 -28.208136
Hg 10.391990 4.456323 -25.238474
Hg 13.361652 7.425985 -25.238474
Hg 13.361652 4.456323 -22.268811
Hg 10.391990 7.425985 -22.268811
Hg 10.391990 4.456323 -19.299149
Hg 13.361652 7.425985 -19.299149
Hg 13.361652 4.456323 -16.329486
Hg 10.391990 7.425985 -16.329486
Hg 10.391990 4.456323 -13.359823
Hg 13.361652 7.425985 -13.359823
Hg 13.361652 4.456323 -10.390161
Hg 10.391990 7.425985 -10.390161
Hg 10.391990 4.456323 -7.420498
Hg 13.361652 7.425985 -7.420498
Hg 13.361652 4.456323 -4.450836
Hg 10.391990 7.425985 -4.450836
Hg 10.391990 4.456323 -1.481173
Hg 13.361652 7.425985 -1.481173
Hg 13.361652 4.456323 1.488489
Hg 10.391990 7.425985 1.488489
Hg 10.391990 4.456323 4.458152
Hg 13.361652 7.425985 4.458152
Hg 13.361652 4.456323 7.427814
Hg 10.391990 7.425985 7.427814
Hg 10.391990 4.456323 10.397477
Hg 13.361652 7.425985 10.397477
Hg 13.361652 4.456323 13.367139
Hg 10.391990 7.425985 13.367139
Hg 10.391990 4.456323 16.336802
Hg 13.361652 7.425985 16.336802
Hg 13.361652 4.456323 19.306464
Hg 10.391990 7.425985 19.306464
Hg 10.391990 4.456323 22.276127
Hg 13.361652 7.425985 22.276127
Hg 13.361652 4.456323 25.245790
Hg 10.391990 7.425985 25.245790
Hg 10.391990 4.456323 28.215452
Hg 13.361652 7.425985 28.215452
Hg 10.391990 10.395648 -25.238474
Hg 10.391990 13.365310 -22.268811
Hg 10.391990 10.395648 -19.299149
Hg 13.361652 13.365310 -19.299149
Hg 13.361652 10.395648 -16.329486
Hg 10.391990 13.365310 -16.329486
Hg 10.391990 10.395648 -13.359823
Hg 13.361652 13.365310 -13.359823
Hg 13.361652 10.395648 -10.390161
Hg 10.391990 13.365310 -10.390161
Hg 10.391990 10.395648 -7.420498
Hg 13.361652 13.365310 -7.420498
Hg 13.361652 10.395648 -4.450836
Hg 10.391990 13.365310 -4.450836
Hg 10.391990 10.395648 -1.481173
Hg 13.361652 13.365310 -1.481173
Hg 13.361652 10.395648 1.488489
Hg 10.391990 13.365310 1.488489
Hg 10.391990 10.395648 4.458152
Hg 13.361652 13.365310 4.458152
Hg 13.361652 10.395648 7.427814
Hg 10.391990 13.365310 7.427814
Hg 10.391990 10.395648 10.397477
Hg 13.361652 13.365310 10.397477
Hg 13.361652 10.395648 13.367139
Hg 10.391990 13.365310 13.367139
Hg 10.391990 10.395648 16.336802
Hg 13.361652 13.365310 16.336802
Hg 13.361652 10.395648 19.306464
Hg 10.391990 13.365310 19.306464
Hg 10.391990 10.395648 22.276127
Hg 13.361652 13.365310 22.276127
Hg 13.361652 10.395648 25.245790
Hg 10.391990 10.395648 28.215452
Hg 13.361652 16.334973 -16.329486
Hg 10.391990 19.304635 -16.329486
Hg 10.391990 16.334973 -13.359823
Hg 13.361652 16.334973 -10.390161
Hg 10.391990 19.304635 -10.390161
Hg 10.391990 16.334973 -7.420498
Hg 13.361652 19.304635 -7.420498
Hg 13.361652 16.334973 -4.450836
Hg 10.391990 19.304635 -4.450836
Hg 10.391990 16.334973 -1.481173
Hg 13.361652 19.304635 -1.481173
Hg 13.361652 16.334973 1.488489
Hg 10.391990 19.304635 1.488489
Hg 10.391990 16.334973 4.458152
Hg 13.361652 19.304635 4.458152
Hg 13.361652 16.334973 7.427814
Hg 10.391990 19.304635 7.427814
Hg 10.391990 16.334973 10.397477
Hg 13.361652 19.304635 10.397477
Hg 13.361652 16.334973 13.367139
Hg 10.391990 19.304635 13.367139
Hg 10.391990 16.334973 16.336802
Hg 13.361652 19.304635 16.336802
Hg 10.391990 19.304635 19.306464
Hg 10.391990 16.334973 22.276127
Hg 10.391990 22.274298 -13.359823
Hg 13.361652 22.274298 -10.390161
Hg 10.391990 22.274298 -7.420498
Hg 13.361652 25.243961 -7.420498
Hg 13.361652 22.274298 -4.450836
Hg 10.391990 25.243961 -4.450836
Hg 10.391990 22.274298 -1.481173
Hg 13.361652 25.243961 -1.481173
Hg 13.361652 22.274298 1.488489
Hg 10.391990 25.243961 1.488489
Hg 10.391990 22.274298 4.458152
Hg 13.361652 25.243961 4.458152
Hg 13.361652 22.274298 7.427814
Hg 10.391990 25.243961 7.427814
Hg 10.391990 22.274298 10.397477
Hg 13.361652 22.274298 13.367139
Hg 10.391990 25.243961 13.367139
Hg 10.391990 28.213623 -7.420498
Hg 13.361652 28.213623 -4.450836
Hg 10.391990 28.213623 -1.481173
Hg 13.361652 28.213623 1.488489
Hg 10.391990 28.213623 4.458152
Hg 13.361652 28.213623 7.427814
Hg 10.391990 28.213623 10.397477
Hg 16.331315 -22.270640 -10.390161
Hg 16.331315 -25.240303 -7.420498
Hg 19.300977 -22.270640 -7.420498
Hg 16.331315 -22.270640 -4.450836
Hg 16.331315 -25.240303 -1.481173
Hg 19.300977 -22.270640 -1.481173
Hg 16.331315 -22.270640 1.488489
Hg 16.331315 -25.240303 4.458152
Hg 19.300977 -22.270640 4.458152
Hg 16.331315 -22.270640 7.427814
Hg 16.331315 -16.331315 -16.329486
Hg 19.300977 -16.331315 -13.359823
Hg 19.300977 -19.300977 -10.390161
Hg 16.331315 -16.331315 -10.390161
Hg 16.331315 -19.300977 -7.420498
Hg 19.300977 -16.331315 -7.420498
Hg 19.300977 -19.300977 -4.450836
Hg 16.331315 -16.331315 -4.450836
Hg 16.331315 -19.300977 -1.481173
Hg 19.300977 -16.331315 -1.481173
Hg 19.300977 -19.300977 1.488489
Hg 16.331315 -16.331315 1.488489
Hg 16.331315 -19.300977 4.458152
Hg 19.300977 -16.331315 4.458152
Hg 16.331315 -16.331315 7.427814
Hg 16.331315 -19.300977 10.397477
Hg 19.300977 -16.331315 10.397477
Hg 16.331315 -13.361652 -19.299149
Hg 19.300977 -10.391990 -19.299149
Hg 16.331315 -10.391990 -16.329486
Hg 16.331315 -13.361652 -13.359823
Hg 19.300977 -10.391990 -13.359823
Hg 19.300977 -13.361652 -10.390161
Hg 16.331315 -10.391990 -10.390161
Hg 16.331315 -13.361652 -7.420498
Hg 19.300977 -10.391990 -7.420498
Hg 19.300977 -13.361652 -4.450836
Hg 16.331315 -10.391990 -4.450836
Hg 16.331315 -13.361652 -1.481173
Hg 19.300977 -10.391990 -1.481173
Hg 19.300977 -13.361652 1.488489
Hg 16.331315 -10.391990 1.488489
Hg 16.331315 -13.361652 4.458152
Hg 19.300977 -10.391990 4.458152
Hg 19.300977 -13.361652 7.427814
Hg 16.331315 -10.391990 7.427814
Hg 16.331315 -13.361652 10.397477
Hg 19.300977 -10.391990 10.397477
Hg 19.300977 -13.361652 13.367139
Hg 16.331315 -10.391990 13.367139
Hg 16.331315 -13.361652 16.336802
Hg 16.331315 -10.391990 19.306464
Hg 16.331315 -7.422327 -25.238474
Hg 19.300977 -7.422327 -22.268811
Hg 16.331315 -4.452665 -22.268811
Hg 16.331315 -7.422327 -19.299149
Hg 19.300977 -4.452665 -19.299149
Hg 19.300977 -7.422327 -16.329486
Hg 16.331315 -4.452665 -16.329486
Hg 16.331315 -7.422327 -13.359823
Hg 19.300977 -4.452665 -13.359823
Hg 19.300977 -7.422327 -10.390161
Hg 16.331315 -4.452665 -10.390161
Hg 16.331315 -7.422327 -7.420498
Hg 19.300977 -4.452665 -7.420498
Hg 19.300977 -7.422327 -4.450836
Hg 16.331315 -4.452665 -4.450836
Hg 16.331315 -7.422327 -1.481173
Hg 19.300977 -4.452665 -1.481173
Hg 19.300977 -7.422327 1.488489
Hg 16.331315 -4.452665 1.488489
Hg 16.331315 -7.422327 4.458152
Hg 19.300977 -4.452665 4.458152
Hg 19.300977 -7.422327 7.427814
Hg 16.331315 -4.452665 7.427814
Hg 16.331315 -7.422327 10.397477
Hg 19.300977 -4.452665 10.397477
Hg 19.300977 -7.422327 13.367139
Hg 16.331315 -4.452665 13.367139
Hg 16.331315 -7.422327 16.336802
Hg 19.300977 -4.452665 16.336802
Hg 19.300977 -7.422327 19.306464
Hg 16.331315 -4.452665 19.306464
Hg 19.300977 -4.452665 22.276127
Hg 16.331315 -4.452665 25.245790
Hg 16.331315 -1.483002 -25.238474
Hg 19.300977 -1.483002 -22.268811
Hg 16.331315 1.486660 -22.268811
Hg 16.331315 -1.483002 -19.299149
Hg 19.300977 1.486660 -19.299149
Hg 19.300977 -1.483002 -16.329486
Hg 16.331315 1.486660 -16.329486
Hg 16.331315 -1.483002 -13.359823
Hg 19.300977 1.486660 -13.359823
Hg 19.300977 -1.483002 -10.390161
Hg 16.331315 1.486660 -10.390161
Hg 16.331315 -1.483002 -7.420498
Hg 19.300977 1.486660 -7.420498
Hg 19.300977 -1.483002 -4.450836
Hg 16.331315 1.486660 -4.450836
Hg 16.331315 -1.483002 -1.481173
Hg 19.300977 1.486660 -1.481173
Hg 19.300977 -1.483002 1.488489
Hg 16.331315 1.486660 1.488489
Hg 16.331315 -1.483002 4.458152
Hg 19.300977 1.486660 4.458152
Hg 19.300977 -1.483002 7.427814
Hg 16.331315 1.486660 7.427814
Hg 16.331315 -1.483002 10.397477
Hg 19.300977 1.486660 10.397477
Hg 19.300977 -1.483002 13.367139
Hg 16.331315 1.486660 13.367139
Hg 16.331315 -1.483002 16.336802
Hg 19.300977 1.486660 16.336802
Hg 19.300977 -1.483002 19.306464
Hg 16.331315 1.486660 19.306464
Hg 16.331315 -1.483002 22.276127
Hg 19.300977 1.486660 22.276127
Hg 16.331315 1.486660 25.245790
Hg 16.331315 4.456323 -25.238474
Hg 19.300977 4.456323 -22.268811
Hg 16.331315 7.425985 -22.268811
Hg 16.331315 4.456323 -19.299149
Hg 19.300977 4.456323 -16.329486
Hg 16.331315 7.425985 -16.329486
Hg 16.331315 4.456323 -13.359823
Hg 19.300977 7.425985 -13.359823
Hg 19.300977 4.456323 -10.390161
Hg 16.331315 7.425985 -10.390161
Hg 16.331315 4.456323 -7.420498
Hg 19.300977 7.425985 -7.420498
Hg 19.300977 4.456323 -4.450836
Hg 16.331315 7.425985 -4.450836
Hg 16.331315 4.456323 -1.481173
Hg 19.300977 7.425985 -1.481173
Hg 19.300977 4.456323 1.488489
Hg 16.331315 7.425985 1.488489
Hg 16.331315 4.456323 4.458152
Hg 19.300977 7.425985 4.458152
Hg 19.300977 4.456323 7.427814
Hg 16.331315 7.425985 7.427814
Hg 16.331315 4.456323 10.397477
Hg 19.300977 7.425985 10.397477
Hg 19.300977 4.456323 13.367139
Hg 16.331315 7.425985 13.367139
Hg 16.331315 4.456323 16.336802
Hg 19.300977 7.425985 16.336802
Hg 19.300977 4.456323 19.306464
Hg 16.331315 7.425985 19.306464
Hg 16.331315 4.456323 22.276127
Hg 19.300977 7.425985 22.276127
Hg 16.331315 7.425985 25.245790
Hg 16.331315 10.395648 -19.299149
Hg 19.300977 10.395648 -16.329486
Hg 16.331315 10.395648 -13.359823
Hg 19.300977 13.365310 -13.359823
Hg 19.300977 10.395648 -10.390161
Hg 16.331315 13.365310 -10.390161
Hg 16.331315 10.395648 -7.420498
Hg 19.300977 13.365310 -7.420498
Hg 19.300977 10.395648 -4.450836
Hg 16.331315 13.365310 -4.450836
Hg 16.331315 10.395648 -1.481173
Hg 19.300977 13.365310 -1.481173
Hg 19.300977 10.395648 1.488489
Hg 16.331315 13.365310 1.488489
Hg 16.331315 10.395648 4.458152
Hg 19.300977 13.365310 4.458152
Hg 19.300977 10.395648 7.427814
Hg 16.331315 13.365310 7.427814
Hg 16.331315 10.395648 10.397477
Hg 19.300977 13.365310 10.397477
Hg 19.300977 10.395648 13.367139
Hg 16.331315 13.365310 13.367139
Hg 16.331315 10.395648 16.336802
Hg 19.300977 10.395648 19.306464
Hg 16.331315 13.365310 19.306464
Hg 16.331315 16.334973 -13.359823
Hg 16.331315 19.304635 -10.390161
Hg 16.331315 16.334973 -7.420498
Hg 19.300977 19.304635 -7.420498
Hg 19.300977 16.334973 -4.450836
Hg 16.331315 19.304635 -4.450836
Hg 16.331315 16.334973 -1.481173
Hg 19.300977 19.304635 -1.481173
Hg 19.300977 16.334973 1.488489
Hg 16.331315 19.304635 1.488489
Hg 16.331315 16.334973 4.458152
Hg 19.300977 19.304635 4.458152
Hg 19.300977 16.334973 7.427814
Hg 16.331315 19.304635 7.427814
Hg 16.331315 16.334973 10.397477
Hg 19.300977 19.304635 10.397477
Hg 19.300977 16.334973 13.367139
Hg 16.331315 16.334973 16.336802
Hg 19.300977 22.274298 -4.450836
Hg 16.331315 25.243961 -4.450836
Hg 16.331315 22.274298 -1.481173
Hg 19.300977 22.274298 1.488489
Hg 16.331315 25.243961 1.488489
Hg 16.331315 22.274298 4.458152
Hg 19.300977 22.274298 7.427814
Hg 16.331315 25.243961 7.427814
Hg 16.331315 22.274298 10.397477
Hg 22.270640 -19.300977 -7.420498
Hg 25.240303 -16.331315 -7.420498
Hg 22.270640 -16.331315 -4.450836
Hg 22.270640 -19.300977 -1.481173
Hg 25.240303 -16.331315 -1.481173
Hg 22.270640 -16.331315 1.488489
Hg 22.270640 -19.300977 4.458152
Hg 25.240303 -16.331315 4.458152
Hg 22.270640 -16.331315 7.427814
Hg 22.270640 -10.391990 -16.329486
Hg 22.270640 -13.361652 -13.359823
Hg 25.240303 -13.361652 -10.390161
Hg 22.270640 -10.391990 -10.390161
Hg 22.270640 -13.361652 -7.420498
Hg 25.240303 -10.391990 -7.420498
Hg 25.240303 -13.361652 -4.450836
Hg 22.270640 -10.391990 -4.450836
Hg 22.270640 -13.361652 -1.481173
Hg 25.240303 -10.391990 -1.481173
Hg 25.240303 -13.361652 1.488489
Hg 22.270640 -10.391990 1.488489
Hg 22.270640 -13.361652 4.458152
Hg 25.240303 -10.391990 4.458152
Hg 25.240303 -13.361652 7.427814
Hg 22.270640 -10.391990 7.427814
Hg 25.240303 -10.391990 10.397477
Hg 22.270640 -10.391990 13.367139
Hg 22.270640 -7.422327 -19.299149
Hg 25.240303 -7.422327 -16.329486
Hg 22.270640 -4.452665 -16.329486
Hg 22.270640 -7.422327 -13.359823
Hg 25.240303 -4.452665 -13.359823
Hg 25.240303 -7.422327 -10.390161
Hg 22.270640 -4.452665 -10.390161
Hg 22.270640 -7.422327 -7.420498
Hg 25.240303 -4.452665 -7.420498
Hg 25.240303 -7.422327 -4.450836
Hg 22.270640 -4.452665 -4.450836
Hg 22.270640 -7.422327 -1.481173
Hg 25.240303 -4.452665 -1.481173
Hg 25.240303 -7.422327 1.488489
Hg 22.270640 -4.452665 1.488489
Hg 22.270640 -7.422327 4.458152
Hg 25.240303 -4.452665 4.458152
Hg 25.240303 -7.422327 7.427814
Hg 22.270640 -4.452665 7.427814
Hg 22.270640 -7.422327 10.397477
Hg 25.240303 -4.452665 10.397477
Hg 22.270640 -4.452665 13.367139
Hg 22.270640 -7.422327 16.336802
Hg 25.240303 -4.452665 16.336802
Hg 22.270640 -4.452665 19.306464
Hg 22.270640 -1.483002 -19.299149
Hg 25.240303 -1.483002 -16.329486
Hg 22.270640 1.486660 -16.329486
Hg 22.270640 -1.483002 -13.359823
Hg 25.240303 1.486660 -13.359823
Hg 25.240303 -1.483002 -10.390161
Hg 22.270640 1.486660 -10.390161
Hg 22.270640 -1.483002 -7.420498
Hg 25.240303 1.486660 -7.420498
Hg 25.240303 -1.483002 -4.450836
Hg 22.270640 1.486660 -4.450836
Hg 22.270640 -1.483002 -1.481173
Hg 25.240303 1.486660 -1.481173
Hg 25.240303 -1.483002 1.488489
Hg 22.270640 1.486660 1.488489
Hg 22.270640 -1.483002 4.458152
Hg 25.240303 1.486660 4.458152
Hg 25.240303 -1.483002 7.427814
Hg 22.270640 1.486660 7.427814
Hg 22.270640 -1.483002 10.397477
Hg 25.240303 1.486660 10.397477
Hg 25.240303 -1.483002 13.367139
Hg 22.270640 1.486660 13.367139
Hg 22.270640 -1.483002 16.336802
Hg 25.240303 1.486660 16.336802
Hg 22.270640 1.486660 19.306464
Hg 22.270640 4.456323 -19.299149
Hg 25.240303 4.456323 -16.329486
Hg 22.270640 7.425985 -16.329486
Hg 22.270640 4.456323 -13.359823
Hg 25.240303 7.425985 -13.359823
Hg 25.240303 4.456323 -10.390161
Hg 22.270640 7.425985 -10.390161
Hg 22.270640 4.456323 -7.420498
Hg 25.240303 7.425985 -7.420498
Hg 25.240303 4.456323 -4.450836
Hg 22.270640 7.425985 -4.450836
Hg 22.270640 4.456323 -1.481173
Hg 25.240303 7.425985 -1.481173
Hg 25.240303 4.456323 1.488489
Hg 22.270640 7.425985 1.488489
Hg 22.270640 4.456323 4.458152
Hg 25.240303 7.425985 4.458152
Hg 25.240303 4.456323 7.427814
Hg 22.270640 7.425985 7.427814
Hg 22.270640 4.456323 10.397477
Hg 25.240303 7.425985 10.397477
Hg 25.240303 4.456323 13.367139
Hg 22.270640 7.425985 13.367139
Hg 22.270640 4.456323 16.336802
Hg 25.240303 7.425985 16.336802
Hg 22.270640 7.425985 19.306464
Hg 25.240303 10.395648 -10.390161
Hg 22.270640 13.365310 -10.390161
Hg 22.270640 10.395648 -7.420498
Hg 25.240303 10.395648 -4.450836
Hg 22.270640 13.365310 -4.450836
Hg 22.270640 10.395648 -1.481173
Hg 25.240303 13.365310 -1.481173
Hg 25.240303 10.395648 1.488489
Hg 22.270640 13.365310 1.488489
Hg 22.270640 10.395648 4.458152
Hg 25.240303 13.365310 4.458152
Hg 25.240303 10.395648 7.427814
Hg 22.270640 13.365310 7.427814
Hg 22.270640 10.395648 10.397477
Hg 25.240303 13.365310 10.397477
Hg 22.270640 13.365310 13.367139
Hg 22.270640 10.395648 16.336802
Hg 22.270640 16.334973 -7.420498
Hg 25.240303 16.334973 -4.450836
Hg 22.270640 19.304635 -4.450836
Hg 22.270640 16.334973 -1.481173
Hg 25.240303 16.334973 1.488489
Hg 22.270640 19.304635 1.488489
Hg 22.270640 16.334973 4.458152
Hg 25.240303 16.334973 7.427814
Hg 22.270640 19.304635 7.427814
Hg 28.209965 -10.391990 -10.390161
Hg 28.209965 -13.361652 -7.420498
Hg 28.209965 -10.391990 -4.450836
Hg 28.209965 -13.361652 -1.481173
Hg 28.209965 -10.391990 1.488489
Hg 28.209965 -13.361652 4.458152
Hg 28.209965 -10.391990 7.427814
Hg 28.209965 -7.422327 -13.359823
Hg 28.209965 -4.452665 -10.390161
Hg 28.209965 -7.422327 -7.420498
Hg 28.209965 -4.452665 -4.450836
Hg 28.209965 -7.422327 -1.481173
Hg 28.209965 -4.452665 1.488489
Hg 28.209965 -7.422327 4.458152
Hg 28.209965 -4.452665 7.427814
Hg 28.209965 -7.422327 10.397477
Hg 28.209965 -4.452665 13.367139
Hg 28.209965 -1.483002 -13.359823
Hg 28.209965 1.486660 -10.390161
Hg 28.209965 -1.483002 -7.420498
Hg 28.209965 1.486660 -4.450836
Hg 28.209965 -1.483002 -1.481173
Hg 28.209965 1.486660 1.488489
Hg 28.209965 -1.483002 4.458152
Hg 28.209965 1.486660 7.427814
Hg 28.209965 -1.483002 10.397477
Hg 28.209965 1.486660 13.367139
Hg 28.209965 4.456323 -13.359823
Hg 28.209965 7.425985 -10.390161
Hg 28.209965 4.456323 -7.420498
Hg 28.209965 7.425985 -4.450836
Hg 28.209965 4.456323 -1.481173
Hg 28.209965 7.425985 1.488489
Hg 28.209965 4.456323 4.458152
Hg 28.209965 7.425985 7.427814
Hg 28.209965 4.456323 10.397477
Hg 28.209965 7.425985 13.367139
Hg 28.209965 10.395648 -7.420498
Hg 28.209965 13.365310 -4.450836
Hg 28.209965 10.395648 -1.481173
Hg 28.209965 13.365310 1.488489
Hg 28.209965 10.395648 4.458152
Hg 28.209965 13.365310 7.427814
Hg 28.209965 10.395648 10.397477
S -26.728792 -14.846484 -5.935667
S -26.728792 -14.846484 0.003658
S -26.728792 -14.846484 5.942983
S -26.728792 -8.907159 -5.935667
S -26.728792 -11.876821 -2.966005
S -26.728792 -8.907159 0.003658
S -26.728792 -11.876821 2.973321
S -26.728792 -8.907159 5.942983
S -26.728792 -11.876821 8.912646
S -26.728792 -8.907159 11.882308
S -26.728792 -5.937496 -14.844655
S -26.728792 -2.967834 -11.874992
S -26.728792 -5.937496 -8.905330
S -26.728792 -2.967834 -5.935667
S -26.728792 -5.937496 -2.966005
S -26.728792 -2.967834 0.003658
S -26.728792 -5.937496 2.973321
S -26.728792 -2.967834 5.942983
S -26.728792 -5.937496 8.912646
S -26.728792 -2.967834 11.882308
S -26.728792 -5.937496 14.851971
S -26.728792 0.001829 -14.844655
S -26.728792 2.971492 -11.874992
S -26.728792 0.001829 -8.905330
S -26.728792 2.971492 -5.935667
S -26.728792 0.001829 -2.966005
S -26.728792 2.971492 0.003658
S -26.728792 0.001829 2.973321
S -26.728792 2.971492 5.942983
S -26.728792 0.001829 8.912646
S -26.728792 2.971492 11.882308
S -26.728792 0.001829 14.851971
S -26.728792 5.941154 -14.844655
S -26.728792 8.910817 -11.874992
S -26.728792 5.941154 -8.905330
S -26.728792 8.910817 -5.935667
S -26.728792 5.941154 -2.966005
S -26.728792 8.910817 0.003658
S -26.728792 5.941154 2.973321
S -26.728792 8.910817 5.942983
S -26.728792 5.941154 8.912646
S -26.728792 11.880479 -8.905330
S -26.728792 14.850142 -5.935667
S -26.728792 11.880479 -2.966005
S -26.728792 14.850142 0.003658
S -26.728792 11.880479 2.973321
S -26.728792 11.880479 8.912646
S -20.789467 -20.785809 0.003658
S -20.789467 -20.785809 5.942983
S -23.759129 -14.846484 -2.966005
S -20.789467 -14.846484 -5.935667
S -20.789467 -17.816146 -2.966005
S -23.759129 -17.816146 0.003658
S -23.759129 -14.846484 2.973321
S -20.789467 -14.846484 0.003658
S -20.789467 -17.816146 2.973321
S -23.759129 -17.816146 5.942983
S -23.759129 -14.846484 8.912646
S -20.789467 -14.846484 5.942983
S -20.789467 -17.816146 8.912646
S -20.789467 -14.846484 11.882308
S -23.759129 -8.907159 -8.905330
S -20.789467 -8.907159 -11.874992
S -20.789467 -11.876821 -8.905330
S -23.759129 -11.876821 -5.935667
S -23.759129 -8.907159 -2.966005
S -20.789467 -8.907159 -5.935667
S -20.789467 -11.876821 -2.966005
S -23.759129 -11.876821 0.003658
S -23.759129 -8.907159 2.973321
S -20.789467 -8.907159 0.003658
S -20.789467 -11.876821 2.973321
S -23.759129 -11.876821 5.942983
S -23.759129 -8.907159 8.912646
S -20.789467 -8.907159 5.942983
S -20.789467 -11.876821 8.912646
S -23.759129 -11.876821 11.882308
S -23.759129 -8.907159 14.851971
S -20.789467 -8.907159 11.882308
S -20.789467 -11.876821 14.851971
S -20.789467 -8.907159 17.821633
S -23.759129 -2.967834 -14.844655
S -20.789467 -2.967834 -17.814317
S -20.789467 -5.937496 -14.844655
S -23.759129 -5.937496 -11.874992
S -23.759129 -2.967834 -8.905330
S -20.789467 -2.967834 -11.874992
S -20.789467 -5.937496 -8.905330
S -23.759129 -5.937496 -5.935667
S -23.759129 -2.967834 -2.966005
S -20.789467 -2.967834 -5.935667
S -20.789467 -5.937496 -2.966005
S -23.759129 -5.937496 0.003658
S -23.759129 -2.967834 2.973321
S -20.789467 -2.967834 0.003658
S -20.789467 -5.937496 2.973321
S -23.759129 -5.937496 5.942983
S -23.759129 -2.967834 8.912646
S -20.789467 -2.967834 5.942983
S -20.789467 -5.937496 8.912646
S -23.759129 -5.937496 11.882308
S -23.759129 -2.967834 14.851971
S -20.789467 -2.967834 11.882308
S -20.789467 -5.937496 14.851971
S -23.759129 -5.937496 17.821633
S -20.789467 -2.967834 17.821633
S -20.789467 -5.937496 20.791296
S -20.789467 0.001829 -20.783980
S -23.759129 0.001829 -17.814317
S -23.759129 2.971492 -14.844655
S -20.789467 2.971492 -17.814317
S -20.789467 0.001829 -14.844655
S -23.759129 0.001829 -11.874992
S -23.759129 2.971492 -8.905330
S -20.789467 2.971492 -11.874992
S -20.789467 0.001829 -8.905330
S -23.759129 0.001829 -5.935667
S -23.759129 2.971492 -2.966005
S -20.789467 2.971492 -5.935667
S -20.789467 0.001829 -2.966005
S -23.759129 0.001829 0.003658
S -23.759129 2.971492 2.973321
S -20.789467 2.971492 0.003658
S -20.789467 0.001829 2.973321
S -23.759129 0.001829 5.942983
S -23.759129 2.971492 8.912646
S -20.789467 2.971492 5.942983
S -20.789467 0.001829 8.912646
S -23.759129 0.001829 11.882308
S -23.759129 2.971492 14.851971
S -20.789467 2.971492 11.882308
S -20.789467 0.001829 14.851971
S -23.759129 0.001829 17.821633
S -20.789467 2.971492 17.821633
S -20.789467 0.001829 20.791296
S -20.789467 5.941154 -20.783980
S -23.759129 5.941154 -17.814317
S -23.759129 8.910817 -14.844655
S -20.789467 8.910817 -17.814317
S -20.789467 5.941154 -14.844655
S -23.759129 5.941154 -11.874992
S -23.759129 8.910817 -8.905330
S -20.789467 8.910817 -11.874992
S -20.789467 5.941154 -8.905330
S -23.759129 5.941154 -5.935667
S -23.759129 8.910817 -2.966005
S -20.789467 8.910817 -5.935667
S -20.789467 5.941154 -2.966005
S -23.759129 5.941154 0.003658
S -23.759129 8.910817 2.973321
S -20.789467 8.910817 0.003658
S -20.789467 5.941154 2.973321
S -23.759129 5.941154 5.942983
S -23.759129 8.910817 8.912646
S -20.789467 8.910817 5.942983
S -20.789467 5.941154 8.912646
S -23.759129 5.941154 11.882308
S -20.789467 8.910817 11.882308
S -20.789467 5.941154 14.851971
S -20.789467 5.941154 20.791296
S -20.789467 11.880479 -14.844655
S -23.759129 11.880479 -11.874992
S -23.759129 14.850142 -8.905330
S -20.789467 14.850142 -11.874992
S -20.789467 11.880479 -8.905330
S -23.759129 11.880479 -5.935667
S -23.759129 14.850142 -2.966005
S -20.789467 14.850142 -5.935667
S -20.789467 11.880479 -2.966005
S -23.759129 11.880479 0.003658
S -23.759129 14.850142 2.973321
S -20.789467 14.850142 0.003658
S -20.789467 11.880479 2.973321
S -23.759129 11.880479 5.942983
S -20.789467 14.850142 5.942983
S -20.789467 11.880479 8.912646
S -20.789467 17.819804 -8.905330
S -23.759129 17.819804 -5.935667
S -20.789467 20.789467 -5.935667
S -20.789467 17.819804 -2.966005
S -23.759129 17.819804 0.003658
S -20.789467 20.789467 0.003658
S -20.789467 17.819804 2.973321
S -23.759129 17.819804 5.942983
S -14.850142 -26.725134 0.003658
S -14.850142 -26.725134 5.942983
S -17.819804 -23.755471 -5.935667
S -17.819804 -20.785809 -2.966005
S -14.850142 -20.785809 -5.935667
S -14.850142 -23.755471 -2.966005
S -17.819804 -23.755471 0.003658
S -17.819804 -20.785809 2.973321
S -14.850142 -20.785809 0.003658
S -14.850142 -23.755471 2.973321
S -17.819804 -23.755471 5.942983
S -17.819804 -20.785809 8.912646
S -14.850142 -20.785809 5.942983
S -14.850142 -23.755471 8.912646
S -14.850142 -20.785809 11.882308
S -17.819804 -14.846484 -8.905330
S -14.850142 -14.846484 -11.874992
S -14.850142 -17.816146 -8.905330
S -17.819804 -17.816146 -5.935667
S -17.819804 -14.846484 -2.966005
S -14.850142 -14.846484 -5.935667
S -14.850142 -17.816146 -2.966005
S -17.819804 -17.816146 0.003658
S -17.819804 -14.846484 2.973321
S -14.850142 -14.846484 0.003658
S -14.850142 -17.816146 2.973321
S -17.819804 -17.816146 5.942983
S -17.819804 -14.846484 8.912646
S -14.850142 -14.846484 5.942983
S -14.850142 -17.816146 8.912646
S -17.819804 -17.816146 11.882308
S -17.819804 -14.846484 14.851971
S -14.850142 -14.846484 11.882308
S -14.850142 -17.816146 14.851971
S -14.850142 -14.846484 17.821633
S -17.819804 -8.907159 -14.844655
S -14.850142 -8.907159 -17.814317
S -14.850142 -11.876821 -14.844655
S -17.819804 -11.876821 -11.874992
S -17.819804 -8.907159 -8.905330
S -14.850142 -8.907159 -11.874992
S -14.850142 -11.876821 -8.905330
S -17.819804 -11.876821 -5.935667
S -17.819804 -8.907159 -2.966005
S -14.850142 -8.907159 -5.935667
S -14.850142 -11.876821 -2.966005
S -17.819804 -11.876821 0.003658
S -17.819804 -8.907159 2.973321
S -14.850142 -8.907159 0.003658
S -14.850142 -11.876821 2.973321
S -17.819804 -11.876821 5.942983
S -17.819804 -8.907159 8.912646
S -14.850142 -8.907159 5.942983
S -14.850142 -11.876821 8.912646
S -17.819804 -11.876821 11.882308
S -17.819804 -8.907159 14.851971
S -14.850142 -8.907159 11.882308
S -14.850142 -11.876821 14.851971
S -17.819804 -11.876821 17.821633
S -17.819804 -8.907159 20.791296
S -14.850142 -8.907159 17.821633
S -14.850142 -11.876821 20.791296
S -14.850142 -8.907159 23.760958
S -17.819804 -5.937496 -23.753642
S -17.819804 -2.967834 -20.783980
S -14.850142 -2.967834 -23.753642
S -14.850142 -5.937496 -20.783980
S -17.819804 -5.937496 -17.814317
S -17.819804 -2.967834 -14.844655
S -14.850142 -2.967834 -17.814317
S -14.850142 -5.937496 -14.844655
S -17.819804 -5.937496 -11.874992
S -17.819804 -2.967834 -8.905330
S -14.850142 -2.967834 -11.874992
S -14.850142 -5.937496 -8.905330
S -17.819804 -5.937496 -5.935667
S -17.819804 -2.967834 -2.966005
S -14.850142 -2.967834 -5.935667
S -14.850142 -5.937496 -2.966005
S -17.819804 -5.937496 0.003658
S -17.819804 -2.967834 2.973321
S -14.850142 -2.967834 0.003658
S -14.850142 -5.937496 2.973321
S -17.819804 -5.937496 5.942983
S -17.819804 -2.967834 8.912646
S -14.850142 -2.967834 5.942983
S -14.850142 -5.937496 8.912646
S -17.819804 -5.937496 11.882308
S -17.819804 -2.967834 14.851971
S -14.850142 -2.967834 11.882308
S -14.850142 -5.937496 14.851971
S -17.819804 -5.937496 17.821633
S -17.819804 -2.967834 20.791296
S -14.850142 -2.967834 17.821633
S -14.850142 -5.937496 20.791296
S -17.819804 -5.937496 23.760958
S -14.850142 -2.967834 23.760958
S -14.850142 -5.937496 26.730621
S -14.850142 0.001829 -26.723305
S -17.819804 0.001829 -23.753642
S -17.819804 2.971492 -20.783980
S -14.850142 2.971492 -23.753642
S -14.850142 0.001829 -20.783980
S -17.819804 0.001829 -17.814317
S -17.819804 2.971492 -14.844655
S -14.850142 2.971492 -17.814317
S -14.850142 0.001829 -14.844655
S -17.819804 0.001829 -11.874992
S -17.819804 2.971492 -8.905330
S -14.850142 2.971492 -11.874992
S -14.850142 0.001829 -8.905330
S -17.819804 0.001829 -5.935667
S -17.819804 2.971492 -2.966005
S -14.850142 2.971492 -5.935667
S -14.850142 0.001829 -2.966005
S -17.819804 0.001829 0.003658
S -17.819804 2.971492 2.973321
S -14.850142 2.971492 0.003658
S -14.850142 0.001829 2.973321
S -17.819804 0.001829 5.942983
S -17.819804 2.971492 8.912646
S -14.850142 2.971492 5.942983
S -14.850142 0.001829 8.912646
S -17.819804 0.001829 11.882308
S -17.819804 2.971492 14.851971
S -14.850142 2.971492 11.882308
S -14.850142 0.001829 14.851971
S -17.819804 0.001829 17.821633
S -17.819804 2.971492 20.791296
S -14.850142 2.971492 17.821633
S -14.850142 0.001829 20.791296
S -17.819804 0.001829 23.760958
S -14.850142 2.971492 23.760958
S -14.850142 0.001829 26.730621
S -14.850142 5.941154 -26.723305
S -17.819804 5.941154 -23.753642
S -17.819804 8.910817 -20.783980
S -14.850142 8.910817 -23.753642
S -14.850142 5.941154 -20.783980
S -17.819804 5.941154 -17.814317
S -17.819804 8.910817 -14.844655
S -14.850142 8.910817 -17.814317
S -14.850142 5.941154 -14.844655
S -17.819804 5.941154 -11.874992
S -17.819804 8.910817 -8.905330
S -14.850142 8.910817 -11.874992
S -14.850142 5.941154 -8.905330
S -17.819804 5.941154 -5.935667
S -17.819804 8.910817 -2.966005
S -14.850142 8.910817 -5.935667
S -14.850142 5.941154 -2.966005
S -17.819804 5.941154 0.003658
S -17.819804 8.910817 2.973321
S -14.850142 8.910817 0.003658
S -14.850142 5.941154 2.973321
S -17.819804 5.941154 5.942983
S -17.819804 8.910817 8.912646
S -14.850142 8.910817 5.942983
S -14.850142 5.941154 8.912646
S -17.819804 5.941154 11.882308
S -17.819804 8.910817 14.851971
S -14.850142 8.910817 11.882308
S -14.850142 5.941154 14.851971
S -17.819804 5.941154 17.821633
S -14.850142 8.910817 17.821633
S -14.850142 5.941154 20.791296
S -14.850142 5.941154 26.730621
S -14.850142 11.880479 -20.783980
S -17.819804 11.880479 -17.814317
S -17.819804 14.850142 -14.844655
S -14.850142 14.850142 -17.814317
S -14.850142 11.880479 -14.844655
S -17.819804 11.880479 -11.874992
S -17.819804 14.850142 -8.905330
S -14.850142 14.850142 -11.874992
S -14.850142 11.880479 -8.905330
S -17.819804 11.880479 -5.935667
S -17.819804 14.850142 -2.966005
S -14.850142 14.850142 -5.935667
S -14.850142 11.880479 -2.966005
S -17.819804 11.880479 0.003658
S -17.819804 14.850142 2.973321
S -14.850142 14.850142 0.003658
S -14.850142 11.880479 2.973321
S -17.819804 11.880479 5.942983
S -17.819804 14.850142 8.912646
S -14.850142 14.850142 5.942983
S -14.850142 11.880479 8.912646
S -17.819804 11.880479 11.882308
S -14.850142 14.850142 11.882308
S -14.850142 11.880479 14.851971
S -14.850142 17.819804 -14.844655
S -17.819804 17.819804 -11.874992
S -17.819804 20.789467 -8.905330
S -14.850142 20.789467 -11.874992
S -14.850142 17.819804 -8.905330
S -17.819804 17.819804 -5.935667
S -17.819804 20.789467 -2.966005
S -14.850142 20.789467 -5.935667
S -14.850142 17.819804 -2.966005
S -17.819804 17.819804 0.003658
S -17.819804 20.789467 2.973321
S -14.850142 20.789467 0.003658
S -14.850142 17.819804 2.973321
S -17.819804 17.819804 5.942983
S -14.850142 20.789467 5.942983
S -14.850142 17.819804 8.912646
S -14.850142 23.759129 -8.905330
S -17.819804 23.759129 -5.935667
S -14.850142 26.728792 -5.935667
S -14.850142 23.759129 -2.966005
S -17.819804 23.759129 0.003658
S -14.850142 26.728792 0.003658
S -14.850142 23.759129 2.973321
S -17.819804 23.759129 5.942983
S -8.910817 -26.725134 -11.874992
S -11.880479 -26.725134 -2.966005
S -8.910817 -26.725134 -5.935667
S -11.880479 -26.725134 2.973321
S -8.910817 -26.725134 0.003658
S -11.880479 -26.725134 8.912646
S -8.910817 -26.725134 5.942983
S -8.910817 -26.725134 11.882308
S -11.880479 -20.785809 -8.905330
S -8.910817 -20.785809 -11.874992
S -8.910817 -23.755471 -8.905330
S -11.880479 -23.755471 -5.935667
S -11.880479 -20.785809 -2.966005
S -8.910817 -20.785809 -5.935667
S -8.910817 -23.755471 -2.966005
S -11.880479 -23.755471 0.003658
S -11.880479 -20.785809 2.973321
S -8.910817 -20.785809 0.003658
S -8.910817 -23.755471 2.973321
S -11.880479 -23.755471 5.942983
S -11.880479 -20.785809 8.912646
S -8.910817 -20.785809 5.942983
S -8.910817 -23.755471 8.912646
S -11.880479 -23.755471 11.882308
S -11.880479 -20.785809 14.851971
S -8.910817 -20.785809 11.882308
S -8.910817 -23.755471 14.851971
S -8.910817 -20.785809 17.821633
S -11.880479 -14.846484 -14.844655
S -8.910817 -14.846484 -17.814317
S -8.910817 -17.816146 -14.844655
S -11.880479 -17.816146 -11.874992
S -11.880479 -14.846484 -8.905330
S -8.910817 -14.846484 -11.874992
S -8.910817 -17.816146 -8.905330
S -11.880479 -17.816146 -5.935667
S -11.880479 -14.846484 -2.966005
S -8.910817 -14.846484 -5.935667
S -8.910817 -17.816146 -2.966005
S -11.880479 -17.816146 0.003658
S -11.880479 -14.846484 2.973321
S -8.910817 -14.846484 0.003658
S -8.910817 -17.816146 2.973321
S -11.880479 -17.816146 5.942983
S -11.880479 -14.846484 8.912646
S -8.910817 -14.846484 5.942983
S -8.910817 -17.816146 8.912646
S -11.880479 -17.816146 11.882308
S -11.880479 -14.846484 14.851971
S -8.910817 -14.846484 11.882308
S -8.910817 -17.816146 14.851971
S -11.880479 -17.816146 17.821633
S -11.880479 -14.846484 20.791296
S -8.910817 -14.846484 17.821633
S -8.910817 -17.816146 20.791296
S -8.910817 -14.846484 23.760958
S -8.910817 -11.876821 -26.723305
S -11.880479 -8.907159 -20.783980
S -8.910817 -8.907159 -23.753642
S -8.910817 -11.876821 -20.783980
S -11.880479 -11.876821 -17.814317
S -11.880479 -8.907159 -14.844655
S -8.910817 -8.907159 -17.814317
S -8.910817 -11.876821 -14.844655
S -11.880479 -11.876821 -11.874992
S -11.880479 -8.907159 -8.905330
S -8.910817 -8.907159 -11.874992
S -8.910817 -11.876821 -8.905330
S -11.880479 -11.876821 -5.935667
S -11.880479 -8.907159 -2.966005
S -8.910817 -8.907159 -5.935667
S -8.910817 -11.876821 -2.966005
S -11.880479 -11.876821 0.003658
S -11.880479 -8.907159 2.973321
S -8.910817 -8.907159 0.003658
S -8.910817 -11.876821 2.973321
S -11.880479 -11.876821 5.942983
S -11.880479 -8.907159 8.912646
S -8.910817 -8.907159 5.942983
S -8.910817 -11.876821 8.912646
S -11.880479 -11.876821 11.882308
S -11.880479 -8.907159 14.851971
S -8.910817 -8.907159 11.882308
S -8.910817 -11.876821 14.851971
S -11.880479 -11.876821 17.821633
S -11.880479 -8.907159 20.791296
S -8.910817 -8.907159 17.821633
S -8.910817 -11.876821 20.791296
S -11.880479 -11.876821 23.760958
S -11.880479 -8.907159 26.730621
S -8.910817 -8.907159 23.760958
S -8.910817 -11.876821 26.730621
S -11.880479 -2.967834 -26.723305
S -8.910817 -5.937496 -26.723305
S -11.880479 -5.937496 -23.753642
S -11.880479 -2.967834 -20.783980
S -8.910817 -2.967834 -23.753642
S -8.910817 -5.937496 -20.783980
S -11.880479 -5.937496 -17.814317
S -11.880479 -2.967834 -14.844655
S -8.910817 -2.967834 -17.814317
S -8.910817 -5.937496 -14.844655
S -11.880479 -5.937496 -11.874992
S -11.880479 -2.967834 -8.905330
S -8.910817 -2.967834 -11.874992
S -8.910817 -5.937496 -8.905330
S -11.880479 -5.937496 -5.935667
S -11.880479 -2.967834 -2.966005
S -8.910817 -2.967834 -5.935667
S -8.910817 -5.937496 -2.966005
S -11.880479 -5.937496 0.003658
S -11.880479 -2.967834 2.973321
S -8.910817 -2.967834 0.003658
S -8.910817 -5.937496 2.973321
S -11.880479 -5.937496 5.942983
S -11.880479 -2.967834 8.912646
S -8.910817 -2.967834 5.942983
S -8.910817 -5.937496 8.912646
S -11.880479 -5.937496 11.882308
S -11.880479 -2.967834 14.851971
S -8.910817 -2.967834 11.882308
S -8.910817 -5.937496 14.851971
S -11.880479 -5.937496 17.821633
S -11.880479 -2.967834 20.791296
S -8.910817 -2.967834 17.821633
S -8.910817 -5.937496 20.791296
S -11.880479 -5.937496 23.760958
S -11.880479 -2.967834 26.730621
S -8.910817 -2.967834 23.760958
S -8.910817 -5.937496 26.730621
S -11.880479 2.971492 -26.723305
S -8.910817 0.001829 -26.723305
S -11.880479 0.001829 -23.753642
S -11.880479 2.971492 -20.783980
S -8.910817 2.971492 -23.753642
S -8.910817 0.001829 -20.783980
S -11.880479 0.001829 -17.814317
S -11.880479 2.971492 -14.844655
S -8.910817 2.971492 -17.814317
S -8.910817 0.001829 -14.844655
S -11.880479 0.001829 -11.874992
S -11.880479 2.971492 -8.905330
S -8.910817 2.971492 -11.874992
S -8.910817 0.001829 -8.905330
S -11.880479 0.001829 -5.935667
S -11.880479 2.971492 -2.966005
S -8.910817 2.971492 -5.935667
S -8.910817 0.001829 -2.966005
S -11.880479 0.001829 0.003658
S -11.880479 2.971492 2.973321
S -8.910817 2.971492 0.003658
S -8.910817 0.001829 2.973321
S -11.880479 0.001829 5.942983
S -11.880479 2.971492 8.912646
S -8.910817 2.971492 5.942983
S -8.910817 0.001829 8.912646
S -11.880479 0.001829 11.882308
S -11.880479 2.971492 14.851971
S -8.910817 2.971492 11.882308
S -8.910817 0.001829 14.851971
S -11.880479 0.001829 17.821633
S -11.880479 2.971492 20.791296
S -8.910817 2.971492 17.821633
S -8.910817 0.001829 20.791296
S -11.880479 0.001829 23.760958
S -11.880479 2.971492 26.730621
S -8.910817 2.971492 23.760958
S -8.910817 0.001829 26.730621
S -11.880479 8.910817 -26.723305
S -8.910817 5.941154 -26.723305
S -11.880479 5.941154 -23.753642
S -11.880479 8.910817 -20.783980
S -8.910817 8.910817 -23.753642
S -8.910817 5.941154 -20.783980
S -11.880479 5.941154 -17.814317
S -11.880479 8.910817 -14.844655
S -8.910817 8.910817 -17.814317
S -8.910817 5.941154 -14.844655
S -11.880479 5.941154 -11.874992
S -11.880479 8.910817 -8.905330
S -8.910817 8.910817 -11.874992
S -8.910817 5.941154 -8.905330
S -11.880479 5.941154 -5.935667
S -11.880479 8.910817 -2.966005
S -8.910817 8.910817 -5.935667
S -8.910817 5.941154 -2.966005
S -11.880479 5.941154 0.003658
S -11.880479 8.910817 2.973321
S -8.910817 8.910817 0.003658
S -8.910817 5.941154 2.973321
S -11.880479 5.941154 5.942983
S -11.880479 8.910817 8.912646
S -8.910817 8.910817 5.942983
S -8.910817 5.941154 8.912646
S -11.880479 5.941154 11.882308
S -11.880479 8.910817 14.851971
S -8.910817 8.910817 11.882308
S -8.910817 5.941154 14.851971
S -11.880479 5.941154 17.821633
S -11.880479 8.910817 20.791296
S -8.910817 8.910817 17.821633
S -8.910817 5.941154 20.791296
S -11.880479 5.941154 23.760958
S -8.910817 8.910817 23.760958
S -8.910817 5.941154 26.730621
S -8.910817 11.880479 -26.723305
S -11.880479 11.880479 -23.753642
S -11.880479 14.850142 -20.783980
S -8.910817 14.850142 -23.753642
S -8.910817 11.880479 -20.783980
S -11.880479 11.880479 -17.814317
S -11.880479 14.850142 -14.844655
S -8.910817 14.850142 -17.814317
S -8.910817 11.880479 -14.844655
S -11.880479 11.880479 -11.874992
S -11.880479 14.850142 -8.905330
S -8.910817 14.850142 -11.874992
S -8.910817 11.880479 -8.905330
S -11.880479 11.880479 -5.935667
S -11.880479 14.850142 -2.966005
S -8.910817 14.850142 -5.935667
S -8.910817 11.880479 -2.966005
S -11.880479 11.880479 0.003658
S -11.880479 14.850142 2.973321
S -8.910817 14.850142 0.003658
S -8.910817 11.880479 2.973321
S -11.880479 11.880479 5.942983
S -11.880479 14.850142 8.912646
S -8.910817 14.850142 5.942983
S -8.910817 11.880479 8.912646
S -11.880479 11.880479 11.882308
S -11.880479 14.850142 14.851971
S -8.910817 14.850142 11.882308
S -8.910817 11.880479 14.851971
S -11.880479 11.880479 17.821633
S -8.910817 14.850142 17.821633
S -8.910817 11.880479 20.791296
S -8.910817 17.819804 -20.783980
S -11.880479 17.819804 -17.814317
S -11.880479 20.789467 -14.844655
S -8.910817 20.789467 -17.814317
S -8.910817 17.819804 -14.844655
S -11.880479 17.819804 -11.874992
S -11.880479 20.789467 -8.905330
S -8.910817 20.789467 -11.874992
S -8.910817 17.819804 -8.905330
S -11.880479 17.819804 -5.935667
S -11.880479 20.789467 -2.966005
S -8.910817 20.789467 -5.935667
S -8.910817 17.819804 -2.966005
S -11.880479 17.819804 0.003658
S -11.880479 20.789467 2.973321
S -8.910817 20.789467 0.003658
S -8.910817 17.819804 2.973321
S -11.880479 17.819804 5.942983
S -11.880479 20.789467 8.912646
S -8.910817 20.789467 5.942983
S -8.910817 17.819804 8.912646
S -11.880479 17.819804 11.882308
S -8.910817 20.789467 11.882308
S -8.910817 17.819804 14.851971
S -8.910817 23.759129 -14.844655
S -11.880479 23.759129 -11.874992
S -11.880479 26.728792 -8.905330
S -8.910817 26.728792 -11.874992
S -8.910817 23.759129 -8.905330
S -11.880479 23.759129 -5.935667
S -11.880479 26.728792 -2.966005
S -8.910817 26.728792 -5.935667
S -8.910817 23.759129 -2.966005
S -11.880479 23.759129 0.003658
S -11.880479 26.728792 2.973321
S -8.910817 26.728792 0.003658
S -8.910817 23.759129 2.973321
S -11.880479 23.759129 5.942983
S -11.880479 26.728792 8.912646
S -8.910817 26.728792 5.942983
S -8.910817 23.759129 8.912646
S -5.941154 -26.725134 -8.905330
S -2.971492 -26.725134 -11.874992
S -5.941154 -26.725134 -2.966005
S -2.971492 -26.725134 -5.935667
S -5.941154 -26.725134 2.973321
S -2.971492 -26.725134 0.003658
S -5.941154 -26.725134 8.912646
S -2.971492 -26.725134 5.942983
S -5.941154 -26.725134 14.851971
S -2.971492 -26.725134 11.882308
S -5.941154 -23.755471 -17.814317
S -5.941154 -20.785809 -14.844655
S -2.971492 -20.785809 -17.814317
S -2.971492 -23.755471 -14.844655
S -5.941154 -23.755471 -11.874992
S -5.941154 -20.785809 -8.905330
S -2.971492 -20.785809 -11.874992
S -2.971492 -23.755471 -8.905330
S -5.941154 -23.755471 -5.935667
S -5.941154 -20.785809 -2.966005
S -2.971492 -20.785809 -5.935667
S -2.971492 -23.755471 -2.966005
S -5.941154 -23.755471 0.003658
S -5.941154 -20.785809 2.973321
S -2.971492 -20.785809 0.003658
S -2.971492 -23.755471 2.973321
S -5.941154 -23.755471 5.942983
S -5.941154 -20.785809 8.912646
S -2.971492 -20.785809 5.942983
S -2.971492 -23.755471 8.912646
S -5.941154 -23.755471 11.882308
S -5.941154 -20.785809 14.851971
S -2.971492 -20.785809 11.882308
S -2.971492 -23.755471 14.851971
S -5.941154 -23.755471 17.821633
S -5.941154 -20.785809 20.791296
S -2.971492 -20.785809 17.821633
S -5.941154 -17.816146 -23.753642
S -5.941154 -14.846484 -20.783980
S -2.971492 -14.846484 -23.753642
S -2.971492 -17.816146 -20.783980
S -5.941154 -17.816146 -17.814317
S -5.941154 -14.846484 -14.844655
S -2.971492 -14.846484 -17.814317
S -2.971492 -17.816146 -14.844655
S -5.941154 -17.816146 -11.874992
S -5.941154 -14.846484 -8.905330
S -2.971492 -14.846484 -11.874992
S -2.971492 -17.816146 -8.905330
S -5.941154 -17.816146 -5.935667
S -5.941154 -14.846484 -2.966005
S -2.971492 -14.846484 -5.935667
S -2.971492 -17.816146 -2.966005
S -5.941154 -17.816146 0.003658
S -5.941154 -14.846484 2.973321
S -2.971492 -14.846484 0.003658
S -2.971492 -17.816146 2.973321
S -5.941154 -17.816146 5.942983
S -5.941154 -14.846484 8.912646
S -2.971492 -14.846484 5.942983
S -2.971492 -17.816146 8.912646
S -5.941154 -17.816146 11.882308
S -5.941154 -14.846484 14.851971
S -2.971492 -14.846484 11.882308
S -2.971492 -17.816146 14.851971
S -5.941154 -17.816146 17.821633
S -5.941154 -14.846484 20.791296
S -2.971492 -14.846484 17.821633
S -2.971492 -17.816146 20.791296
S -5.941154 -17.816146 23.760958
S -5.941154 -14.846484 26.730621
S -2.971492 -14.846484 23.760958
S -5.941154 -8.907159 -26.723305
S -2.971492 -11.876821 -26.723305
S -5.941154 -11.876821 -23.753642
S -5.941154 -8.907159 -20.783980
S -2.971492 -8.907159 -23.753642
S -2.971492 -11.876821 -20.783980
S -5.941154 -11.876821 -17.814317
S -5.941154 -8.907159 -14.844655
S -2.971492 -8.907159 -17.814317
S -2.971492 -11.876821 -14.844655
S -5.941154 -11.876821 -11.874992
S -5.941154 -8.907159 -8.905330
S -2.971492 -8.907159 -11.874992
S -2.971492 -11.876821 -8.905330
S -5.941154 -11.876821 -5.935667
S -5.941154 -8.907159 -2.966005
S -2.971492 -8.907159 -5.935667
S -2.971492 -11.876821 -2.966005
S -5.941154 -11.876821 0.003658
S -5.941154 -8.907159 2.973321
S -2.971492 -8.907159 0.003658
S -2.971492 -11.876821 2.973321
S -5.941154 -11.876821 5.942983
S -5.941154 -8.907159 8.912646
S -2.971492 -8.907159 5.942983
S -2.971492 -11.876821 8.912646
S -5.941154 -11.876821 11.882308
S -5.941154 -8.907159 14.851971
S -2.971492 -8.907159 11.882308
S -2.971492 -11.876821 14.851971
S -5.941154 -11.876821 17.821633
S -5.941154 -8.907159 20.791296
S -2.971492 -8.907159 17.821633
S -2.971492 -11.876821 20.791296
S -5.941154 -11.876821 23.760958
S -5.941154 -8.907159 26.730621
S -2.971492 -8.907159 23.760958
S -2.971492 -11.876821 26.730621
S -5.941154 -2.967834 -26.723305
S -2.971492 -5.937496 -26.723305
S -5.941154 -5.937496 -23.753642
S -5.941154 -2.967834 -20.783980
S -2.971492 -2.967834 -23.753642
S -2.971492 -5.937496 -20.783980
S -5.941154 -5.937496 -17.814317
S -5.941154 -2.967834 -14.844655
S -2.971492 -2.967834 -17.814317
S -2.971492 -5.937496 -14.844655
S -5.941154 -5.937496 -11.874992
S -5.941154 -2.967834 -8.905330
S -2.971492 -2.967834 -11.874992
S -2.971492 -5.937496 -8.905330
S -5.941154 -5.937496 -5.935667
S -5.941154 -2.967834 -2.966005
S -2.971492 -2.967834 -5.935667
S -2.971492 -5.937496 -2.966005
S -5.941154 -5.937496 0.003658
S -5.941154 -2.967834 2.973321
S -2.971492 -2.967834 0.003658
S -2.971492 -5.937496 2.973321
S -5.941154 -5.937496 5.942983
S -5.941154 -2.967834 8.912646
S -2.971492 -2.967834 5.942983
S -2.971492 -5.937496 8.912646
S -5.941154 -5.937496 11.882308
S -5.941154 -2.967834 14.851971
S -2.971492 -2.967834 11.882308
S -2.971492 -5.937496 14.851971
S -5.941154 -5.937496 17.821633
S -5.941154 -2.967834 20.791296
S -2.971492 -2.967834 17.821633
S -2.971492 -5.937496 20.791296
S -5.941154 -5.937496 23.760958
S -5.941154 -2.967834 26.730621
S -2.971492 -2.967834 23.760958
S -2.971492 -5.937496 26.730621
S -5.941154 2.971492 -26.723305
S -2.971492 0.001829 -26.723305
S -5.941154 0.001829 -23.753642
S -5.941154 2.971492 -20.783980
S -2.971492 2.971492 -23.753642
S -2.971492 0.001829 -20.783980
S -5.941154 0.001829 -17.814317
S -5.941154 2.971492 -14.844655
S -2.971492 2.971492 -17.814317
S -2.971492 0.001829 -14.844655
S -5.941154 0.001829 -11.874992
S -5.941154 2.971492 -8.905330
S -2.971492 2.971492 -11.874992
S -2.971492 0.001829 -8.905330
S -5.941154 0.001829 -5.935667
S -5.941154 2.971492 -2.966005
S -2.971492 2.971492 -5.935667
S -2.971492 0.001829 -2.966005
S -5.941154 0.001829 0.003658
S -5.941154 2.971492 2.973321
S -2.971492 2.971492 0.003658
S -2.971492 0.001829 2.973321
S -5.941154 0.001829 5.942983
S -5.941154 2.971492 8.912646
S -2.971492 2.971492 5.942983
S -2.971492 0.001829 8.912646
S -5.941154 0.001829 11.882308
S -5.941154 2.971492 14.851971
S -2.971492 2.971492 11.882308
S -2.971492 0.001829 14.851971
S -5.941154 0.001829 17.821633
S -5.941154 2.971492 20.791296
S -2.971492 2.971492 17.821633
S -2.971492 0.001829 20.791296
S -5.941154 0.001829 23.760958
S -5.941154 2.971492 26.730621
S -2.971492 2.971492 23.760958
S -2.971492 0.001829 26.730621
S -5.941154 8.910817 -26.723305
S -2.971492 5.941154 -26.723305
S -5.941154 5.941154 -23.753642
S -5.941154 8.910817 -20.783980
S -2.971492 8.910817 -23.753642
S -2.971492 5.941154 -20.783980
S -5.941154 5.941154 -17.814317
S -5.941154 8.910817 -14.844655
S -2.971492 8.910817 -17.814317
S -2.971492 5.941154 -14.844655
S -5.941154 5.941154 -11.874992
S -5.941154 8.910817 -8.905330
S -2.971492 8.910817 -11.874992
S -2.971492 5.941154 -8.905330
S -5.941154 5.941154 -5.935667
S -5.941154 8.910817 -2.966005
S -2.971492 8.910817 -5.935667
S -2.971492 5.941154 -2.966005
S -5.941154 5.941154 0.003658
S -5.941154 8.910817 2.973321
S -2.971492 8.910817 0.003658
S -2.971492 5.941154 2.973321
S -5.941154 5.941154 5.942983
S -5.941154 8.910817 8.912646
S -2.971492 8.910817 5.942983
S -2.971492 5.941154 8.912646
S -5.941154 5.941154 11.882308
S -5.941154 8.910817 14.851971
S -2.971492 8.910817 11.882308
S -2.971492 5.941154 14.851971
S -5.941154 5.941154 17.821633
S -5.941154 8.910817 20.791296
S -2.971492 8.910817 17.821633
S -2.971492 5.941154 20.791296
S -5.941154 5.941154 23.760958
S -5.941154 8.910817 26.730621
S -2.971492 8.910817 23.760958
S -2.971492 5.941154 26.730621
S -5.941154 14.850142 -26.723305
S -2.971492 11.880479 -26.723305
S -5.941154 11.880479 -23.753642
S -5.941154 14.850142 -20.783980
S -2.971492 14.850142 -23.753642
S -2.971492 11.880479 -20.783980
S -5.941154 11.880479 -17.814317
S -5.941154 14.850142 -14.844655
S -2.971492 14.850142 -17.814317
S -2.971492 11.880479 -14.844655
S -5.941154 11.880479 -11.874992
S -5.941154 14.850142 -8.905330
S -2.971492 14.850142 -11.874992
S -2.971492 11.880479 -8.905330
S -5.941154 11.880479 -5.935667
S -5.941154 14.850142 -2.966005
S -2.971492 14.850142 -5.935667
S -2.971492 11.880479 -2.966005
S -5.941154 11.880479 0.003658
S -5.941154 14.850142 2.973321
S -2.971492 14.850142 0.003658
S -2.971492 11.880479 2.973321
S -5.941154 11.880479 5.942983
S -5.941154 14.850142 8.912646
S -2.971492 14.850142 5.942983
S -2.971492 11.880479 8.912646
S -5.941154 11.880479 11.882308
S -5.941154 14.850142 14.851971
S -2.971492 14.850142 11.882308
S -2.971492 11.880479 14.851971
S -5.941154 11.880479 17.821633
S -5.941154 14.850142 20.791296
S -2.971492 14.850142 17.821633
S -2.971492 11.880479 20.791296
S -5.941154 11.880479 23.760958
S -5.941154 14.850142 26.730621
S -2.971492 14.850142 23.760958
S -2.971492 11.880479 26.730621
S -5.941154 17.819804 -23.753642
S -5.941154 20.789467 -20.783980
S -2.971492 17.819804 -20.783980
S -5.941154 17.819804 -17.814317
S -5.941154 20.789467 -14.844655
S -2.971492 20.789467 -17.814317
S -2.971492 17.819804 -14.844655
S -5.941154 17.819804 -11.874992
S -5.941154 20.789467 -8.905330
S -2.971492 20.789467 -11.874992
S -2.971492 17.819804 -8.905330
S -5.941154 17.819804 -5.935667
S -5.941154 20.789467 -2.966005
S -2.971492 20.789467 -5.935667
S -2.971492 17.819804 -2.966005
S -5.941154 17.819804 0.003658
S -5.941154 20.789467 2.973321
S -2.971492 20.789467 0.003658
S -2.971492 17.819804 2.973321
S -5.941154 17.819804 5.942983
S -5.941154 20.789467 8.912646
S -2.971492 20.789467 5.942983
S -2.971492 17.819804 8.912646
S -5.941154 17.819804 11.882308
S -5.941154 20.789467 14.851971
S -2.971492 20.789467 11.882308
S -2.971492 17.819804 14.851971
S -5.941154 17.819804 17.821633
S -2.971492 20.789467 17.821633
S -2.971492 17.819804 20.791296
S -5.941154 23.759129 -17.814317
S -5.941154 26.728792 -14.844655
S -2.971492 23.759129 -14.844655
S -5.941154 23.759129 -11.874992
S -5.941154 26.728792 -8.905330
S -2.971492 26.728792 -11.874992
S -2.971492 23.759129 -8.905330
S -5.941154 23.759129 -5.935667
S -5.941154 26.728792 -2.966005
S -2.971492 26.728792 -5.935667
S -2.971492 23.759129 -2.966005
S -5.941154 23.759129 0.003658
S -5.941154 26.728792 2.973321
S -2.971492 26.728792 0.003658
S -2.971492 23.759129 2.973321
S -5.941154 23.759129 5.942983
S -5.941154 26.728792 8.912646
S -2.971492 26.728792 5.942983
S -2.971492 23.759129 8.912646
S -5.941154 23.759129 11.882308
S -2.971492 26.728792 11.882308
S -2.971492 23.759129 14.851971
S -5.941154 23.759129 17.821633
S -0.001829 -26.725134 -14.844655
S -0.001829 -26.725134 -8.905330
S 2.967834 -26.725134 -11.874992
S -0.001829 -26.725134 -2.966005
S 2.967834 -26.725134 -5.935667
S -0.001829 -26.725134 2.973321
S 2.967834 -26.725134 0.003658
S -0.001829 -26.725134 8.912646
S 2.967834 -26.725134 5.942983
S -0.001829 -26.725134 14.851971
S 2.967834 -26.725134 11.882308
S -0.001829 -20.785809 -20.783980
S -0.001829 -23.755471 -17.814317
S -0.001829 -20.785809 -14.844655
S 2.967834 -20.785809 -17.814317
S 2.967834 -23.755471 -14.844655
S -0.001829 -23.755471 -11.874992
S -0.001829 -20.785809 -8.905330
S 2.967834 -20.785809 -11.874992
S 2.967834 -23.755471 -8.905330
S -0.001829 -23.755471 -5.935667
S -0.001829 -20.785809 -2.966005
S 2.967834 -20.785809 -5.935667
S 2.967834 -23.755471 -2.966005
S -0.001829 -23.755471 0.003658
S -0.001829 -20.785809 2.973321
S 2.967834 -20.785809 0.003658
S 2.967834 -23.755471 2.973321
S -0.001829 -23.755471 5.942983
S -0.001829 -20.785809 8.912646
S 2.967834 -20.785809 5.942983
S 2.967834 -23.755471 8.912646
S -0.001829 -23.755471 11.882308
S -0.001829 -20.785809 14.851971
S 2.967834 -20.785809 11.882308
S 2.967834 -23.755471 14.851971
S -0.001829 -23.755471 17.821633
S -0.001829 -20.785809 20.791296
S 2.967834 -20.785809 17.821633
S -0.001829 -14.846484 -26.723305
S -0.001829 -17.816146 -23.753642
S -0.001829 -14.846484 -20.783980
S 2.967834 -14.846484 -23.753642
S 2.967834 -17.816146 -20.783980
S -0.001829 -17.816146 -17.814317
S -0.001829 -14.846484 -14.844655
S 2.967834 -14.846484 -17.814317
S 2.967834 -17.816146 -14.844655
S -0.001829 -17.816146 -11.874992
S -0.001829 -14.846484 -8.905330
S 2.967834 -14.846484 -11.874992
S 2.967834 -17.816146 -8.905330
S -0.001829 -17.816146 -5.935667
S -0.001829 -14.846484 -2.966005
S 2.967834 -14.846484 -5.935667
S 2.967834 -17.816146 -2.966005
S -0.001829 -17.816146 0.003658
S -0.001829 -14.846484 2.973321
S 2.967834 -14.846484 0.003658
S 2.967834 -17.816146 2.973321
S -0.001829 -17.816146 5.942983
S -0.001829 -14.846484 8.912646
S 2.967834 -14.846484 5.942983
S 2.967834 -17.816146 8.912646
S -0.001829 -17.816146 11.882308
S -0.001829 -14.846484 14.851971
S 2.967834 -14.846484 11.882308
S 2.967834 -17.816146 14.851971
S -0.001829 -17.816146 17.821633
S -0.001829 -14.846484 20.791296
S 2.967834 -14.846484 17.821633
S 2.967834 -17.816146 20.791296
S -0.001829 -17.816146 23.760958
S -0.001829 -14.846484 26.730621
S 2.967834 -14.846484 23.760958
S -0.001829 -8.907159 -26.723305
S 2.967834 -11.876821 -26.723305
S -0.001829 -11.876821 -23.753642
S -0.001829 -8.907159 -20.783980
S 2.967834 -8.907159 -23.753642
S 2.967834 -11.876821 -20.783980
S -0.001829 -11.876821 -17.814317
S -0.001829 -8.907159 -14.844655
S 2.967834 -8.907159 -17.814317
S 2.967834 -11.876821 -14.844655
S -0.001829 -11.876821 -11.874992
S -0.001829 -8.907159 -8.905330
S 2.967834 -8.907159 -11.874992
S 2.967834 -11.876821 -8.905330
S -0.001829 -11.876821 -5.935667
S -0.001829 -8.907159 -2.966005
S 2.967834 -8.907159 -5.935667
S 2.967834 -11.876821 -2.966005
S -0.001829 -11.876821 0.003658
S -0.001829 -8.907159 2.973321
S 2.967834 -8.907159 0.003658
S 2.967834 -11.876821 2.973321
S -0.001829 -11.876821 5.942983
S -0.001829 -8.907159 8.912646
S 2.967834 -8.907159 5.942983
S 2.967834 -11.876821 8.912646
S -0.001829 -11.876821 11.882308
S -0.001829 -8.907159 14.851971
S 2.967834 -8.907159 11.882308
S 2.967834 -11.876821 14.851971
S -0.001829 -11.876821 17.821633
S -0.001829 -8.907159 20.791296
S 2.967834 -8.907159 17.821633
S 2.967834 -11.876821 20.791296
S -0.001829 -11.876821 23.760958
S -0.001829 -8.907159 26.730621
S 2.967834 -8.907159 23.760958
S 2.967834 -11.876821 26.730621
S -0.001829 -2.967834 -26.723305
S 2.967834 -5.937496 -26.723305
S -0.001829 -5.937496 -23.753642
S -0.001829 -2.967834 -20.783980
S 2.967834 -2.967834 -23.753642
S 2.967834 -5.937496 -20.783980
S -0.001829 -5.937496 -17.814317
S -0.001829 -2.967834 -14.844655
S 2.967834 -2.967834 -17.814317
S 2.967834 -5.937496 -14.844655
S -0.001829 -5.937496 -11.874992
S -0.001829 -2.967834 -8.905330
S 2.967834 -2.967834 -11.874992
S 2.967834 -5.937496 -8.905330
S -0.001829 -5.937496 -5.935667
S -0.001829 -2.967834 -2.966005
S 2.967834 -2.967834 -5.935667
S 2.967834 -5.937496 -2.966005
S -0.001829 -5.937496 0.003658
S -0.001829 -2.967834 2.973321
S 2.967834 -2.967834 0.003658
S 2.967834 -5.937496 2.973321
S -0.001829 -5.937496 5.942983
S -0.001829 -2.967834 8.912646
S 2.967834 -2.967834 5.942983
S 2.967834 -5.937496 8.912646
S -0.001829 -5.937496 11.882308
S -0.001829 -2.967834 14.851971
S 2.967834 -2.967834 11.882308
S 2.967834 -5.937496 14.851971
S -0.001829 -5.937496 17.821633
S -0.001829 -2.967834 20.791296
S 2.967834 -2.967834 17.821633
S 2.967834 -5.937496 20.791296
S -0.001829 -5.937496 23.760958
S -0.001829 -2.967834 26.730621
S 2.967834 -2.967834 23.760958
S 2.967834 -5.937496 26.730621
S -0.001829 2.971492 -26.723305
S 2.967834 0.001829 -26.723305
S -0.001829 0.001829 -23.753642
S -0.001829 2.971492 -20.783980
S 2.967834 2.971492 -23.753642
S 2.967834 0.001829 -20.783980
S -0.001829 0.001829 -17.814317
S -0.001829 2.971492 -14.844655
S 2.967834 2.971492 -17.814317
S 2.967834 0.001829 -14.844655
S -0.001829 0.001829 -11.874992
S -0.001829 2.971492 -8.905330
S 2.967834 2.971492 -11.874992
S 2.967834 0.001829 -8.905330
S -0.001829 0.001829 -5.935667
S -0.001829 2.971492 -2.966005
S 2.967834 2.971492 -5.935667
S 2.967834 0.001829 -2.966005
S -0.001829 0.001829 0.003658
S -0.001829 2.971492 2.973321
S 2.967834 2.971492 0.003658
S 2.967834 0.001829 2.973321
S -0.001829 0.001829 5.942983
S -0.001829 2.971492 8.912646
S 2.967834 2.971492 5.942983
S 2.967834 0.001829 8.912646
S -0.001829 0.001829 11.882308
S -0.001829 2.971492 14.851971
S 2.967834 2.971492 11.882308
S 2.967834 0.001829 14.851971
S -0.001829 0.001829 17.821633
S -0.001829 2.971492 20.791296
S 2.967834 2.971492 17.821633
S 2.967834 0.001829 20.791296
S -0.001829 0.001829 23.760958
S -0.001829 2.971492 26.730621
S 2.967834 2.971492 23.760958
S 2.967834 0.001829 26.730621
S -0.001829 8.910817 -26.723305
S 2.967834 5.941154 -26.723305
S -0.001829 5.941154 -23.753642
S -0.001829 8.910817 -20.783980
S 2.967834 8.910817 -23.753642
S 2.967834 5.941154 -20.783980
S -0.001829 5.941154 -17.814317
S -0.001829 8.910817 -14.844655
S 2.967834 8.910817 -17.814317
S 2.967834 5.941154 -14.844655
S -0.001829 5.941154 -11.874992
S -0.001829 8.910817 -8.905330
S 2.967834 8.910817 -11.874992
S 2.967834 5.941154 -8.905330
S -0.001829 5.941154 -5.935667
S -0.001829 8.910817 -2.966005
S 2.967834 8.910817 -5.935667
S 2.967834 5.941154 -2.966005
S -0.001829 5.941154 0.003658
S -0.001829 8.910817 2.973321
S 2.967834 8.910817 0.003658
S 2.967834 5.941154 2.973321
S -0.001829 5.941154 5.942983
S -0.001829 8.910817 8.912646
S 2.967834 8.910817 5.942983
S 2.967834 5.941154 8.912646
S -0.001829 5.941154 11.882308
S -0.001829 8.910817 14.851971
S 2.967834 8.910817 11.882308
S 2.967834 5.941154 14.851971
S -0.001829 5.941154 17.821633
S -0.001829 8.910817 20.791296
S 2.967834 8.910817 17.821633
S 2.967834 5.941154 20.791296
S -0.001829 5.941154 23.760958
S -0.001829 8.910817 26.730621
S 2.967834 8.910817 23.760958
S 2.967834 5.941154 26.730621
S -0.001829 14.850142 -26.723305
S 2.967834 11.880479 -26.723305
S -0.001829 11.880479 -23.753642
S -0.001829 14.850142 -20.783980
S 2.967834 14.850142 -23.753642
S 2.967834 11.880479 -20.783980
S -0.001829 11.880479 -17.814317
S -0.001829 14.850142 -14.844655
S 2.967834 14.850142 -17.814317
S 2.967834 11.880479 -14.844655
S -0.001829 11.880479 -11.874992
S -0.001829 14.850142 -8.905330
S 2.967834 14.850142 -11.874992
S 2.967834 11.880479 -8.905330
S -0.001829 11.880479 -5.935667
S -0.001829 14.850142 -2.966005
S 2.967834 14.850142 -5.935667
S 2.967834 11.880479 -2.966005
S -0.001829 11.880479 0.003658
S -0.001829 14.850142 2.973321
S 2.967834 14.850142 0.003658
S 2.967834 11.880479 2.973321
S -0.001829 11.880479 5.942983
S -0.001829 14.850142 8.912646
S 2.967834 14.850142 5.942983
S 2.967834 11.880479 8.912646
S -0.001829 11.880479 11.882308
S -0.001829 14.850142 14.851971
S 2.967834 14.850142 11.882308
S 2.967834 11.880479 14.851971
S -0.001829 11.880479 17.821633
S -0.001829 14.850142 20.791296
S 2.967834 14.850142 17.821633
S 2.967834 11.880479 20.791296
S -0.001829 11.880479 23.760958
S -0.001829 14.850142 26.730621
S 2.967834 14.850142 23.760958
S 2.967834 11.880479 26.730621
S -0.001829 17.819804 -23.753642
S -0.001829 20.789467 -20.783980
S 2.967834 17.819804 -20.783980
S -0.001829 17.819804 -17.814317
S -0.001829 20.789467 -14.844655
S 2.967834 20.789467 -17.814317
S 2.967834 17.819804 -14.844655
S -0.001829 17.819804 -11.874992
S -0.001829 20.789467 -8.905330
S 2.967834 20.789467 -11.874992
S 2.967834 17.819804 -8.905330
S -0.001829 17.819804 -5.935667
S -0.001829 20.789467 -2.966005
S 2.967834 20.789467 -5.935667
S 2.967834 17.819804 -2.966005
S -0.001829 17.819804 0.003658
S -0.001829 20.789467 2.973321
S 2.967834 20.789467 0.003658
S 2.967834 17.819804 2.973321
S -0.001829 17.819804 5.942983
S -0.001829 20.789467 8.912646
S 2.967834 20.789467 5.942983
S 2.967834 17.819804 8.912646
S -0.001829 17.819804 11.882308
S -0.001829 20.789467 14.851971
S 2.967834 20.789467 11.882308
S 2.967834 17.819804 14.851971
S -0.001829 17.819804 17.821633
S -0.001829 20.789467 20.791296
S 2.967834 20.789467 17.821633
S 2.967834 17.819804 20.791296
S -0.001829 17.819804 23.760958
S -0.001829 23.759129 -17.814317
S -0.001829 26.728792 -14.844655
S 2.967834 23.759129 -14.844655
S -0.001829 23.759129 -11.874992
S -0.001829 26.728792 -8.905330
S 2.967834 26.728792 -11.874992
S 2.967834 23.759129 -8.905330
S -0.001829 23.759129 -5.935667
S -0.001829 26.728792 -2.966005
S 2.967834 26.728792 -5.935667
S 2.967834 23.759129 -2.966005
S -0.001829 23.759129 0.003658
S -0.001829 26.728792 2.973321
S 2.967834 26.728792 0.003658
S 2.967834 23.759129 2.973321
S -0.001829 23.759129 5.942983
S -0.001829 26.728792 8.912646
S 2.967834 26.728792 5.942983
S 2.967834 23.759129 8.912646
S -0.001829 23.759129 11.882308
S -0.001829 26.728792 14.851971
S 2.967834 26.728792 11.882308
S 2.967834 23.759129 14.851971
S -0.001829 23.759129 17.821633
S 5.937496 -26.725134 -14.844655
S 5.937496 -26.725134 -8.905330
S 8.907159 -26.725134 -11.874992
S 5.937496 -26.725134 -2.966005
S 8.907159 -26.725134 -5.935667
S 5.937496 -26.725134 2.973321
S 8.907159 -26.725134 0.003658
S 5.937496 -26.725134 8.912646
S 8.907159 -26.725134 5.942983
S 5.937496 -20.785809 -20.783980
S 5.937496 -23.755471 -17.814317
S 5.937496 -20.785809 -14.844655
S 8.907159 -20.785809 -17.814317
S 8.907159 -23.755471 -14.844655
S 5.937496 -23.755471 -11.874992
S 5.937496 -20.785809 -8.905330
S 8.907159 -20.785809 -11.874992
S 8.907159 -23.755471 -8.905330
S 5.937496 -23.755471 -5.935667
S 5.937496 -20.785809 -2.966005
S 8.907159 -20.785809 -5.935667
S 8.907159 -23.755471 -2.966005
S 5.937496 -23.755471 0.003658
S 5.937496 -20.785809 2.973321
S 8.907159 -20.785809 0.003658
S 8.907159 -23.755471 2.973321
S 5.937496 -23.755471 5.942983
S 5.937496 -20.785809 8.912646
S 8.907159 -20.785809 5.942983
S 8.907159 -23.755471 8.912646
S 5.937496 -23.755471 11.882308
S 5.937496 -20.785809 14.851971
S 8.907159 -20.785809 11.882308
S 5.937496 -20.785809 20.791296
S 5.937496 -14.846484 -26.723305
S 5.937496 -17.816146 -23.753642
S 5.937496 -14.846484 -20.783980
S 8.907159 -14.846484 -23.753642
S 8.907159 -17.816146 -20.783980
S 5.937496 -17.816146 -17.814317
S 5.937496 -14.846484 -14.844655
S 8.907159 -14.846484 -17.814317
S 8.907159 -17.816146 -14.844655
S 5.937496 -17.816146 -11.874992
S 5.937496 -14.846484 -8.905330
S 8.907159 -14.846484 -11.874992
S 8.907159 -17.816146 -8.905330
S 5.937496 -17.816146 -5.935667
S 5.937496 -14.846484 -2.966005
S 8.907159 -14.846484 -5.935667
S 8.907159 -17.816146 -2.966005
S 5.937496 -17.816146 0.003658
S 5.937496 -14.846484 2.973321
S 8.907159 -14.846484 0.003658
S 8.907159 -17.816146 2.973321
S 5.937496 -17.816146 5.942983
S 5.937496 -14.846484 8.912646
S 8.907159 -14.846484 5.942983
S 8.907159 -17.816146 8.912646
S 5.937496 -17.816146 11.882308
S 5.937496 -14.846484 14.851971
S 8.907159 -14.846484 11.882308
S 8.907159 -17.816146 14.851971
S 5.937496 -17.816146 17.821633
S 5.937496 -14.846484 20.791296
S 8.907159 -14.846484 17.821633
S 5.937496 -14.846484 26.730621
S 5.937496 -8.907159 -26.723305
S 8.907159 -11.876821 -26.723305
S 5.937496 -11.876821 -23.753642
S 5.937496 -8.907159 -20.783980
S 8.907159 -8.907159 -23.753642
S 8.907159 -11.876821 -20.783980
S 5.937496 -11.876821 -17.814317
S 5.937496 -8.907159 -14.844655
S 8.907159 -8.907159 -17.814317
S 8.907159 -11.876821 -14.844655
S 5.937496 -11.876821 -11.874992
S 5.937496 -8.907159 -8.905330
S 8.907159 -8.907159 -11.874992
S 8.907159 -11.876821 -8.905330
S 5.937496 -11.876821 -5.935667
S 5.937496 -8.907159 -2.966005
S 8.907159 -8.907159 -5.935667
S 8.907159 -11.876821 -2.966005
S 5.937496 -11.876821 0.003658
S 5.937496 -8.907159 2.973321
S 8.907159 -8.907159 0.003658
S 8.907159 -11.876821 2.973321
S 5.937496 -11.876821 5.942983
S 5.937496 -8.907159 8.912646
S 8.907159 -8.907159 5.942983
S 8.907159 -11.876821 8.912646
S 5.937496 -11.876821 11.882308
S 5.937496 -8.907159 14.851971
S 8.907159 -8.907159 11.882308
S 8.907159 -11.876821 14.851971
S 5.937496 -11.876821 17.821633
S 5.937496 -8.907159 20.791296
S 8.907159 -8.907159 17.821633
S 8.907159 -11.876821 20.791296
S 5.937496 -11.876821 23.760958
S 5.937496 -8.907159 26.730621
S 8.907159 -8.907159 23.760958
S 5.937496 -2.967834 -26.723305
S 8.907159 -5.937496 -26.723305
S 5.937496 -5.937496 -23.753642
S 5.937496 -2.967834 -20.783980
S 8.907159 -2.967834 -23.753642
S 8.907159 -5.937496 -20.783980
S 5.937496 -5.937496 -17.814317
S 5.937496 -2.967834 -14.844655
S 8.907159 -2.967834 -17.814317
S 8.907159 -5.937496 -14.844655
S 5.937496 -5.937496 -11.874992
S 5.937496 -2.967834 -8.905330
S 8.907159 -2.967834 -11.874992
S 8.907159 -5.937496 -8.905330
S 5.937496 -5.937496 -5.935667
S 5.937496 -2.967834 -2.966005
S 8.907159 -2.967834 -5.935667
S 8.907159 -5.937496 -2.966005
S 5.937496 -5.937496 0.003658
S 5.937496 -2.967834 2.973321
S 8.907159 -2.967834 0.003658
S 8.907159 -5.937496 2.973321
S 5.937496 -5.937496 5.942983
S 5.937496 -2.967834 8.912646
S 8.907159 -2.967834 5.942983
S 8.907159 -5.937496 8.912646
S 5.937496 -5.937496 11.882308
S 5.937496 -2.967834 14.851971
S 8.907159 -2.967834 11.882308
S 8.907159 -5.937496 14.851971
S 5.937496 -5.937496 17.821633
S 5.937496 -2.967834 20.791296
S 8.907159 -2.967834 17.821633
S 8.907159 -5.937496 20.791296
S 5.937496 -5.937496 23.760958
S 5.937496 -2.967834 26.730621
S 8.907159 -2.967834 23.760958
S 8.907159 -5.937496 26.730621
S 5.937496 2.971492 -26.723305
S 8.907159 0.001829 -26.723305
S 5.937496 0.001829 -23.753642
S 5.937496 2.971492 -20.783980
S 8.907159 2.971492 -23.753642
S 8.907159 0.001829 -20.783980
S 5.937496 0.001829 -17.814317
S 5.937496 2.971492 -14.844655
S 8.907159 2.971492 -17.814317
S 8.907159 0.001829 -14.844655
S 5.937496 0.001829 -11.874992
S 5.937496 2.971492 -8.905330
S 8.907159 2.971492 -11.874992
S 8.907159 0.001829 -8.905330
S 5.937496 0.001829 -5.935667
S 5.937496 2.971492 -2.966005
S 8.907159 2.971492 -5.935667
S 8.907159 0.001829 -2.966005
S 5.937496 0.001829 0.003658
S 5.937496 2.971492 2.973321
S 8.907159 2.971492 0.003658
S 8.907159 0.001829 2.973321
S 5.937496 0.001829 5.942983
S 5.937496 2.971492 8.912646
S 8.907159 2.971492 5.942983
S 8.907159 0.001829 8.912646
S 5.937496 0.001829 11.882308
S 5.937496 2.971492 14.851971
S 8.907159 2.971492 11.882308
S 8.907159 0.001829 14.851971
S 5.937496 0.001829 17.821633
S 5.937496 2.971492 20.791296
S 8.907159 2.971492 17.821633
S 8.907159 0.001829 20.791296
S 5.937496 0.001829 23.760958
S 5.937496 2.971492 26.730621
S 8.907159 2.971492 23.760958
S 8.907159 0.001829 26.730621
S 5.937496 8.910817 -26.723305
S 8.907159 5.941154 -26.723305
S 5.937496 5.941154 -23.753642
S 5.937496 8.910817 -20.783980
S 8.907159 8.910817 -23.753642
S 8.907159 5.941154 -20.783980
S 5.937496 5.941154 -17.814317
S 5.937496 8.910817 -14.844655
S 8.907159 8.910817 -17.814317
S 8.907159 5.941154 -14.844655
S 5.937496 5.941154 -11.874992
S 5.937496 8.910817 -8.905330
S 8.907159 8.910817 -11.874992
S 8.907159 5.941154 -8.905330
S 5.937496 5.941154 -5.935667
S 5.937496 8.910817 -2.966005
S 8.907159 8.910817 -5.935667
S 8.907159 5.941154 -2.966005
S 5.937496 5.941154 0.003658
S 5.937496 8.910817 2.973321
S 8.907159 8.910817 0.003658
S 8.907159 5.941154 2.973321
S 5.937496 5.941154 5.942983
S 5.937496 8.910817 8.912646
S 8.907159 8.910817 5.942983
S 8.907159 5.941154 8.912646
S 5.937496 5.941154 11.882308
S 5.937496 8.910817 14.851971
S 8.907159 8.910817 11.882308
S 8.907159 5.941154 14.851971
S 5.937496 5.941154 17.821633
S 5.937496 8.910817 20.791296
S 8.907159 8.910817 17.821633
S 8.907159 5.941154 20.791296
S 5.937496 5.941154 23.760958
S 5.937496 8.910817 26.730621
S 8.907159 8.910817 23.760958
S 8.907159 5.941154 26.730621
S 5.937496 11.880479 -23.753642
S 5.937496 14.850142 -20.783980
S 8.907159 11.880479 -20.783980
S 5.937496 11.880479 -17.814317
S 5.937496 14.850142 -14.844655
S 8.907159 14.850142 -17.814317
S 8.907159 11.880479 -14.844655
S 5.937496 11.880479 -11.874992
S 5.937496 14.850142 -8.905330
S 8.907159 14.850142 -11.874992
S 8.907159 11.880479 -8.905330
S 5.937496 11.880479 -5.935667
S 5.937496 14.850142 -2.966005
S 8.907159 14.850142 -5.935667
S 8.907159 11.880479 -2.966005
S 5.937496 11.880479 0.003658
S 5.937496 14.850142 2.973321
S 8.907159 14.850142 0.003658
S 8.907159 11.880479 2.973321
S 5.937496 11.880479 5.942983
S 5.937496 14.850142 8.912646
S 8.907159 14.850142 5.942983
S 8.907159 11.880479 8.912646
S 5.937496 11.880479 11.882308
S 5.937496 14.850142 14.851971
S 8.907159 14.850142 11.882308
S 8.907159 11.880479 14.851971
S 5.937496 11.880479 17.821633
S 5.937496 14.850142 20.791296
S 8.907159 14.850142 17.821633
S 8.907159 11.880479 20.791296
S 5.937496 11.880479 23.760958
S 5.937496 14.850142 26.730621
S 8.907159 14.850142 23.760958
S 8.907159 11.880479 26.730621
S 5.937496 20.789467 -20.783980
S 5.937496 17.819804 -17.814317
S 5.937496 20.789467 -14.844655
S 8.907159 17.819804 -14.844655
S 5.937496 17.819804 -11.874992
S 5.937496 20.789467 -8.905330
S 8.907159 20.789467 -11.874992
S 8.907159 17.819804 -8.905330
S 5.937496 17.819804 -5.935667
S 5.937496 20.789467 -2.966005
S 8.907159 20.789467 -5.935667
S 8.907159 17.819804 -2.966005
S 5.937496 17.819804 0.003658
S 5.937496 20.789467 2.973321
S 8.907159 20.789467 0.003658
S 8.907159 17.819804 2.973321
S 5.937496 17.819804 5.942983
S 5.937496 20.789467 8.912646
S 8.907159 20.789467 5.942983
S 8.907159 17.819804 8.912646
S 5.937496 17.819804 11.882308
S 5.937496 20.789467 14.851971
S 8.907159 20.789467 11.882308
S 8.907159 17.819804 14.851971
S 5.937496 17.819804 17.821633
S 5.937496 20.789467 20.791296
S 8.907159 20.789467 17.821633
S 8.907159 17.819804 20.791296
S 5.937496 17.819804 23.760958
S 5.937496 26.728792 -14.844655
S 5.937496 23.759129 -11.874992
S 5.937496 26.728792 -8.905330
S 8.907159 23.759129 -8.905330
S 5.937496 23.759129 -5.935667
S 5.937496 26.728792 -2.966005
S 8.907159 26.728792 -5.935667
S 8.907159 23.759129 -2.966005
S 5.937496 23.759129 0.003658
S 5.937496 26.728792 2.973321
S 8.907159 26.728792 0.003658
S 8.907159 23.759129 2.973321
S 5.937496 23.759129 5.942983
S 5.937496 26.728792 8.912646
S 8.907159 26.728792 5.942983
S 8.907159 23.759129 8.912646
S 5.937496 23.759129 11.882308
S 5.937496 26.728792 14.851971
S 8.907159 26.728792 11.882308
S 8.907159 23.759129 14.851971
S 5.937496 23.759129 17.821633
S 11.876821 -26.725134 -8.905330
S 11.876821 -26.725134 -2.966005
S 14.846484 -26.725134 -5.935667
S 11.876821 -26.725134 2.973321
S 14.846484 -26.725134 0.003658
S 11.876821 -26.725134 8.912646
S 11.876821 -20.785809 -14.844655
S 11.876821 -23.755471 -11.874992
S 11.876821 -20.785809 -8.905330
S 14.846484 -20.785809 -11.874992
S 14.846484 -23.755471 -8.905330
S 11.876821 -23.755471 -5.935667
S 11.876821 -20.785809 -2.966005
S 14.846484 -20.785809 -5.935667
S 14.846484 -23.755471 -2.966005
S 11.876821 -23.755471 0.003658
S 11.876821 -20.785809 2.973321
S 14.846484 -20.785809 0.003658
S 14.846484 -23.755471 2.973321
S 11.876821 -23.755471 5.942983
S 11.876821 -20.785809 8.912646
S 14.846484 -20.785809 5.942983
S 11.876821 -14.846484 -20.783980
S 11.876821 -17.816146 -17.814317
S 11.876821 -14.846484 -14.844655
S 14.846484 -14.846484 -17.814317
S 14.846484 -17.816146 -14.844655
S 11.876821 -17.816146 -11.874992
S 11.876821 -14.846484 -8.905330
S 14.846484 -14.846484 -11.874992
S 14.846484 -17.816146 -8.905330
S 11.876821 -17.816146 -5.935667
S 11.876821 -14.846484 -2.966005
S 14.846484 -14.846484 -5.935667
S 14.846484 -17.816146 -2.966005
S 11.876821 -17.816146 0.003658
S 11.876821 -14.846484 2.973321
S 14.846484 -14.846484 0.003658
S 14.846484 -17.816146 2.973321
S 11.876821 -17.816146 5.942983
S 11.876821 -14.846484 8.912646
S 14.846484 -14.846484 5.942983
S 14.846484 -17.816146 8.912646
S 11.876821 -17.816146 11.882308
S 11.876821 -14.846484 14.851971
S 14.846484 -14.846484 11.882308
S 11.876821 -8.907159 -26.723305
S 11.876821 -11.876821 -23.753642
S 11.876821 -8.907159 -20.783980
S 14.846484 -8.907159 -23.753642
S 14.846484 -11.876821 -20.783980
S 11.876821 -11.876821 -17.814317
S 11.876821 -8.907159 -14.844655
S 14.846484 -8.907159 -17.814317
S 14.846484 -11.876821 -14.844655
S 11.876821 -11.876821 -11.874992
S 11.876821 -8.907159 -8.905330
S 14.846484 -8.907159 -11.874992
S 14.846484 -11.876821 -8.905330
S 11.876821 -11.876821 -5.935667
S 11.876821 -8.907159 -2.966005
S 14.846484 -8.907159 -5.935667
S 14.846484 -11.876821 -2.966005
S 11.876821 -11.876821 0.003658
S 11.876821 -8.907159 2.973321
S 14.846484 -8.907159 0.003658
S 14.846484 -11.876821 2.973321
S 11.876821 -11.876821 5.942983
S 11.876821 -8.907159 8.912646
S 14.846484 -8.907159 5.942983
S 14.846484 -11.876821 8.912646
S 11.876821 -11.876821 11.882308
S 11.876821 -8.907159 14.851971
S 14.846484 -8.907159 11.882308
S 14.846484 -11.876821 14.851971
S 11.876821 -11.876821 17.821633
S 11.876821 -8.907159 20.791296
S 14.846484 -8.907159 17.821633
S 11.876821 -2.967834 -26.723305
S 14.846484 -5.937496 -26.723305
S 11.876821 -5.937496 -23.753642
S 11.876821 -2.967834 -20.783980
S 14.846484 -2.967834 -23.753642
S 14.846484 -5.937496 -20.783980
S 11.876821 -5.937496 -17.814317
S 11.876821 -2.967834 -14.844655
S 14.846484 -2.967834 -17.814317
S 14.846484 -5.937496 -14.844655
S 11.876821 -5.937496 -11.874992
S 11.876821 -2.967834 -8.905330
S 14.846484 -2.967834 -11.874992
S 14.846484 -5.937496 -8.905330
S 11.876821 -5.937496 -5.935667
S 11.876821 -2.967834 -2.966005
S 14.846484 -2.967834 -5.935667
S 14.846484 -5.937496 -2.966005
S 11.876821 -5.937496 0.003658
S 11.876821 -2.967834 2.973321
S 14.846484 -2.967834 0.003658
S 14.846484 -5.937496 2.973321
S 11.876821 -5.937496 5.942983
S 11.876821 -2.967834 8.912646
S 14.846484 -2.967834 5.942983
S 14.846484 -5.937496 8.912646
S 11.876821 -5.937496 11.882308
S 11.876821 -2.967834 14.851971
S 14.846484 -2.967834 11.882308
S 14.846484 -5.937496 14.851971
S 11.876821 -5.937496 17.821633
S 11.876821 -2.967834 20.791296
S 14.846484 -2.967834 17.821633
S 14.846484 -5.937496 20.791296
S 11.876821 -5.937496 23.760958
S 11.876821 -2.967834 26.730621
S 14.846484 -2.967834 23.760958
S 14.846484 -5.937496 26.730621
S 11.876821 2.971492 -26.723305
S 14.846484 0.001829 -26.723305
S 11.876821 0.001829 -23.753642
S 11.876821 2.971492 -20.783980
S 14.846484 2.971492 -23.753642
S 14.846484 0.001829 -20.783980
S 11.876821 0.001829 -17.814317
S 11.876821 2.971492 -14.844655
S 14.846484 2.971492 -17.814317
S 14.846484 0.001829 -14.844655
S 11.876821 0.001829 -11.874992
S 11.876821 2.971492 -8.905330
S 14.846484 2.971492 -11.874992
S 14.846484 0.001829 -8.905330
S 11.876821 0.001829 -5.935667
S 11.876821 2.971492 -2.966005
S 14.846484 2.971492 -5.935667
S 14.846484 0.001829 -2.966005
S 11.876821 0.001829 0.003658
S 11.876821 2.971492 2.973321
S 14.846484 2.971492 0.003658
S 14.846484 0.001829 2.973321
S 11.876821 0.001829 5.942983
S 11.876821 2.971492 8.912646
S 14.846484 2.971492 5.942983
S 14.846484 0.001829 8.912646
S 11.876821 0.001829 11.882308
S 11.876821 2.971492 14.851971
S 14.846484 2.971492 11.882308
S 14.846484 0.001829 14.851971
S 11.876821 0.001829 17.821633
S 11.876821 2.971492 20.791296
S 14.846484 2.971492 17.821633
S 14.846484 0.001829 20.791296
S 11.876821 0.001829 23.760958
S 11.876821 2.971492 26.730621
S 14.846484 2.971492 23.760958
S 14.846484 0.001829 26.730621
S 11.876821 8.910817 -26.723305
S 11.876821 5.941154 -23.753642
S 11.876821 8.910817 -20.783980
S 14.846484 5.941154 -20.783980
S 11.876821 5.941154 -17.814317
S 11.876821 8.910817 -14.844655
S 14.846484 8.910817 -17.814317
S 14.846484 5.941154 -14.844655
S 11.876821 5.941154 -11.874992
S 11.876821 8.910817 -8.905330
S 14.846484 8.910817 -11.874992
S 14.846484 5.941154 -8.905330
S 11.876821 5.941154 -5.935667
S 11.876821 8.910817 -2.966005
S 14.846484 8.910817 -5.935667
S 14.846484 5.941154 -2.966005
S 11.876821 5.941154 0.003658
S 11.876821 8.910817 2.973321
S 14.846484 8.910817 0.003658
S 14.846484 5.941154 2.973321
S 11.876821 5.941154 5.942983
S 11.876821 8.910817 8.912646
S 14.846484 8.910817 5.942983
S 14.846484 5.941154 8.912646
S 11.876821 5.941154 11.882308
S 11.876821 8.910817 14.851971
S 14.846484 8.910817 11.882308
S 14.846484 5.941154 14.851971
S 11.876821 5.941154 17.821633
S 11.876821 8.910817 20.791296
S 14.846484 8.910817 17.821633
S 14.846484 5.941154 20.791296
S 11.876821 5.941154 23.760958
S 11.876821 8.910817 26.730621
S 14.846484 8.910817 23.760958
S 14.846484 5.941154 26.730621
S 11.876821 11.880479 -17.814317
S 11.876821 14.850142 -14.844655
S 14.846484 11.880479 -14.844655
S 11.876821 11.880479 -11.874992
S 11.876821 14.850142 -8.905330
S 14.846484 14.850142 -11.874992
S 14.846484 11.880479 -8.905330
S 11.876821 11.880479 -5.935667
S 11.876821 14.850142 -2.966005
S 14.846484 14.850142 -5.935667
S 14.846484 11.880479 -2.966005
S 11.876821 11.880479 0.003658
S 11.876821 14.850142 2.973321
S 14.846484 14.850142 0.003658
S 14.846484 11.880479 2.973321
S 11.876821 11.880479 5.942983
S 11.876821 14.850142 8.912646
S 14.846484 14.850142 5.942983
S 14.846484 11.880479 8.912646
S 11.876821 11.880479 11.882308
S 11.876821 14.850142 14.851971
S 14.846484 14.850142 11.882308
S 14.846484 11.880479 14.851971
S 11.876821 11.880479 17.821633
S 11.876821 14.850142 20.791296
S 14.846484 14.850142 17.821633
S 14.846484 11.880479 20.791296
S 11.876821 11.880479 23.760958
S 11.876821 17.819804 -11.874992
S 11.876821 20.789467 -8.905330
S 14.846484 17.819804 -8.905330
S 11.876821 17.819804 -5.935667
S 11.876821 20.789467 -2.966005
S 14.846484 20.789467 -5.935667
S 14.846484 17.819804 -2.966005
S 11.876821 17.819804 0.003658
S 11.876821 20.789467 2.973321
S 14.846484 20.789467 0.003658
S 14.846484 17.819804 2.973321
S 11.876821 17.819804 5.942983
S 11.876821 20.789467 8.912646
S 14.846484 20.789467 5.942983
S 14.846484 17.819804 8.912646
S 11.876821 17.819804 11.882308
S 11.876821 20.789467 14.851971
S 14.846484 20.789467 11.882308
S 14.846484 17.819804 14.851971
S 11.876821 17.819804 17.821633
S 11.876821 23.759129 -5.935667
S 11.876821 26.728792 -2.966005
S 14.846484 26.728792 -5.935667
S 14.846484 23.759129 -2.966005
S 11.876821 23.759129 0.003658
S 11.876821 26.728792 2.973321
S 14.846484 26.728792 0.003658
S 14.846484 23.759129 2.973321
S 11.876821 23.759129 5.942983
S 11.876821 26.728792 8.912646
S 14.846484 26.728792 5.942983
S 14.846484 23.759129 8.912646
S 11.876821 23.759129 11.882308
S 17.816146 -20.785809 -8.905330
S 17.816146 -23.755471 -5.935667
S 17.816146 -20.785809 -2.966005
S 20.785809 -20.785809 -5.935667
S 17.816146 -23.755471 0.003658
S 17.816146 -20.785809 2.973321
S 20.785809 -20.785809 0.003658
S 17.816146 -23.755471 5.942983
S 17.816146 -14.846484 -14.844655
S 17.816146 -17.816146 -11.874992
S 17.816146 -14.846484 -8.905330
S 20.785809 -14.846484 -11.874992
S 20.785809 -17.816146 -8.905330
S 17.816146 -17.816146 -5.935667
S 17.816146 -14.846484 -2.966005
S 20.785809 -14.846484 -5.935667
S 20.785809 -17.816146 -2.966005
S 17.816146 -17.816146 0.003658
S 17.816146 -14.846484 2.973321
S 20.785809 -14.846484 0.003658
S 20.785809 -17.816146 2.973321
S 17.816146 -17.816146 5.942983
S 17.816146 -14.846484 8.912646
S 20.785809 -14.846484 5.942983
S 17.816146 -8.907159 -20.783980
S 17.816146 -11.876821 -17.814317
S 17.816146 -8.907159 -14.844655
S 20.785809 -8.907159 -17.814317
S 20.785809 -11.876821 -14.844655
S 17.816146 -11.876821 -11.874992
S 17.816146 -8.907159 -8.905330
S 20.785809 -8.907159 -11.874992
S 20.785809 -11.876821 -8.905330
S 17.816146 -11.876821 -5.935667
S 17.816146 -8.907159 -2.966005
S 20.785809 -8.907159 -5.935667
S 20.785809 -11.876821 -2.966005
S 17.816146 -11.876821 0.003658
S 17.816146 -8.907159 2.973321
S 20.785809 -8.907159 0.003658
S 20.785809 -11.876821 2.973321
S 17.816146 -11.876821 5.942983
S 17.816146 -8.907159 8.912646
S 20.785809 -8.907159 5.942983
S 20.785809 -11.876821 8.912646
S 17.816146 -11.876821 11.882308
S 17.816146 -8.907159 14.851971
S 20.785809 -8.907159 11.882308
S 17.816146 -5.937496 -23.753642
S 17.816146 -2.967834 -20.783980
S 20.785809 -5.937496 -20.783980
S 17.816146 -5.937496 -17.814317
S 17.816146 -2.967834 -14.844655
S 20.785809 -2.967834 -17.814317
S 20.785809 -5.937496 -14.844655
S 17.816146 -5.937496 -11.874992
S 17.816146 -2.967834 -8.905330
S 20.785809 -2.967834 -11.874992
S 20.785809 -5.937496 -8.905330
S 17.816146 -5.937496 -5.935667
S 17.816146 -2.967834 -2.966005
S 20.785809 -2.967834 -5.935667
S 20.785809 -5.937496 -2.966005
S 17.816146 -5.937496 0.003658
S 17.816146 -2.967834 2.973321
S 20.785809 -2.967834 0.003658
S 20.785809 -5.937496 2.973321
S 17.816146 -5.937496 5.942983
S 17.816146 -2.967834 8.912646
S 20.785809 -2.967834 5.942983
S 20.785809 -5.937496 8.912646
S 17.816146 -5.937496 11.882308
S 17.816146 -2.967834 14.851971
S 20.785809 -2.967834 11.882308
S 20.785809 -5.937496 14.851971
S 17.816146 -5.937496 17.821633
S 17.816146 -2.967834 20.791296
S 20.785809 -2.967834 17.821633
S 17.816146 0.001829 -23.753642
S 17.816146 2.971492 -20.783980
S 20.785809 0.001829 -20.783980
S 17.816146 0.001829 -17.814317
S 17.816146 2.971492 -14.844655
S 20.785809 2.971492 -17.814317
S 20.785809 0.001829 -14.844655
S 17.816146 0.001829 -11.874992
S 17.816146 2.971492 -8.905330
S 20.785809 2.971492 -11.874992
S 20.785809 0.001829 -8.905330
S 17.816146 0.001829 -5.935667
S 17.816146 2.971492 -2.966005
S 20.785809 2.971492 -5.935667
S 20.785809 0.001829 -2.966005
S 17.816146 0.001829 0.003658
S 17.816146 2.971492 2.973321
S 20.785809 2.971492 0.003658
S 20.785809 0.001829 2.973321
S 17.816146 0.001829 5.942983
S 17.816146 2.971492 8.912646
S 20.785809 2.971492 5.942983
S 20.785809 0.001829 8.912646
S 17.816146 0.001829 11.882308
S 17.816146 2.971492 14.851971
S 20.785809 2.971492 11.882308
S 20.785809 0.001829 14.851971
S 17.816146 0.001829 17.821633
S 17.816146 2.971492 20.791296
S 20.785809 2.971492 17.821633
S 20.785809 0.001829 20.791296
S 17.816146 0.001829 23.760958
S 17.816146 5.941154 -23.753642
S 17.816146 5.941154 -17.814317
S 17.816146 8.910817 -14.844655
S 20.785809 5.941154 -14.844655
S 17.816146 5.941154 -11.874992
S 17.816146 8.910817 -8.905330
S 20.785809 8.910817 -11.874992
S 20.785809 5.941154 -8.905330
S 17.816146 5.941154 -5.935667
S 17.816146 8.910817 -2.966005
S 20.785809 8.910817 -5.935667
S 20.785809 5.941154 -2.966005
S 17.816146 5.941154 0.003658
S 17.816146 8.910817 2.973321
S 20.785809 8.910817 0.003658
S 20.785809 5.941154 2.973321
S 17.816146 5.941154 5.942983
S 17.816146 8.910817 8.912646
S 20.785809 8.910817 5.942983
S 20.785809 5.941154 8.912646
S 17.816146 5.941154 11.882308
S 17.816146 8.910817 14.851971
S 20.785809 8.910817 11.882308
S 20.785809 5.941154 14.851971
S 17.816146 5.941154 17.821633
S 17.816146 8.910817 20.791296
S 20.785809 8.910817 17.821633
S 20.785809 5.941154 20.791296
S 17.816146 5.941154 23.760958
S 17.816146 11.880479 -11.874992
S 17.816146 14.850142 -8.905330
S 20.785809 11.880479 -8.905330
S 17.816146 11.880479 -5.935667
S 17.816146 14.850142 -2.966005
S 20.785809 14.850142 -5.935667
S 20.785809 11.880479 -2.966005
S 17.816146 11.880479 0.003658
S 17.816146 14.850142 2.973321
S 20.785809 14.850142 0.003658
S 20.785809 11.880479 2.973321
S 17.816146 11.880479 5.942983
S 17.816146 14.850142 8.912646
S 20.785809 14.850142 5.942983
S 20.785809 11.880479 8.912646
S 17.816146 11.880479 11.882308
S 17.816146 14.850142 14.851971
S 20.785809 14.850142 11.882308
S 20.785809 11.880479 14.851971
S 17.816146 11.880479 17.821633
S 17.816146 17.819804 -5.935667
S 17.816146 20.789467 -2.966005
S 20.785809 17.819804 -2.966005
S 17.816146 17.819804 0.003658
S 17.816146 20.789467 2.973321
S 20.785809 20.789467 0.003658
S 20.785809 17.819804 2.973321
S 17.816146 17.819804 5.942983
S 17.816146 20.789467 8.912646
S 20.785809 20.789467 5.942983
S 20.785809 17.819804 8.912646
S 17.816146 17.819804 11.882308
S 17.816146 23.759129 0.003658
S 17.816146 23.759129 5.942983
S 23.755471 -14.846484 -8.905330
S 23.755471 -17.816146 -5.935667
S 23.755471 -14.846484 -2.966005
S 26.725134 -14.846484 -5.935667
S 23.755471 -17.816146 0.003658
S 23.755471 -14.846484 2.973321
S 26.725134 -14.846484 0.003658
S 23.755471 -17.816146 5.942983
S 23.755471 -8.907159 -14.844655
S 23.755471 -11.876821 -11.874992
S 23.755471 -8.907159 -8.905330
S 26.725134 -8.907159 -11.874992
S 26.725134 -11.876821 -8.905330
S 23.755471 -11.876821 -5.935667
S 23.755471 -8.907159 -2.966005
S 26.725134 -8.907159 -5.935667
S 26.725134 -11.876821 -2.966005
S 23.755471 -11.876821 0.003658
S 23.755471 -8.907159 2.973321
S 26.725134 -8.907159 0.003658
S 26.725134 -11.876821 2.973321
S 23.755471 -11.876821 5.942983
S 23.755471 -8.907159 8.912646
S 26.725134 -8.907159 5.942983
S 26.725134 -11.876821 8.912646
S 23.755471 -5.937496 -17.814317
S 23.755471 -2.967834 -14.844655
S 26.725134 -5.937496 -14.844655
S 23.755471 -5.937496 -11.874992
S 23.755471 -2.967834 -8.905330
S 26.725134 -2.967834 -11.874992
S 26.725134 -5.937496 -8.905330
S 23.755471 -5.937496 -5.935667
S 23.755471 -2.967834 -2.966005
S 26.725134 -2.967834 -5.935667
S 26.725134 -5.937496 -2.966005
S 23.755471 -5.937496 0.003658
S 23.755471 -2.967834 2.973321
S 26.725134 -2.967834 0.003658
S 26.725134 -5.937496 2.973321
S 23.755471 -5.937496 5.942983
S 23.755471 -2.967834 8.912646
S 26.725134 -2.967834 5.942983
S 26.725134 -5.937496 8.912646
S 23.755471 -5.937496 11.882308
S 23.755471 -2.967834 14.851971
S 26.725134 -2.967834 11.882308
S 23.755471 -5.937496 17.821633
S 23.755471 0.001829 -17.814317
S 23.755471 2.971492 -14.844655
S 26.725134 0.001829 -14.844655
S 23.755471 0.001829 -11.874992
S 23.755471 2.971492 -8.905330
S 26.725134 2.971492 -11.874992
S 26.725134 0.001829 -8.905330
S 23.755471 0.001829 -5.935667
S 23.755471 2.971492 -2.966005
S 26.725134 2.971492 -5.935667
S 26.725134 0.001829 -2.966005
S 23.755471 0.001829 0.003658
S 23.755471 2.971492 2.973321
S 26.725134 2.971492 0.003658
S 26.725134 0.001829 2.973321
S 23.755471 0.001829 5.942983
S 23.755471 2.971492 8.912646
S 26.725134 2.971492 5.942983
S 26.725134 0.001829 8.912646
S 23.755471 0.001829 11.882308
S 23.755471 2.971492 14.851971
S 26.725134 2.971492 11.882308
S 26.725134 0.001829 14.851971
S 23.755471 0.001829 17.821633
S 23.755471 5.941154 -17.814317
S 23.755471 5.941154 -11.874992
S 23.755471 8.910817 -8.905330
S 26.725134 8.910817 -11.874992
S 26.725134 5.941154 -8.905330
S 23.755471 5.941154 -5.935667
S 23.755471 8.910817 -2.966005
S 26.725134 8.910817 -5.935667
S 26.725134 5.941154 -2.966005
S 23.755471 5.941154 0.003658
S 23.755471 8.910817 2.973321
S 26.725134 8.910817 0.003658
S 26.725134 5.941154 2.973321
S 23.755471 5.941154 5.942983
S 23.755471 8.910817 8.912646
S 26.725134 8.910817 5.942983
S 26.725134 5.941154 8.912646
S 23.755471 5.941154 11.882308
S 23.755471 8.910817 14.851971
S 26.725134 8.910817 11.882308
S 26.725134 5.941154 14.851971
S 23.755471 5.941154 17.821633
S 23.755471 11.880479 -5.935667
S 23.755471 14.850142 -2.966005
S 26.725134 11.880479 -2.966005
S 23.755471 11.880479 0.003658
S 23.755471 14.850142 2.973321
S 26.725134 14.850142 0.003658
S 26.725134 11.880479 2.973321
S 23.755471 11.880479 5.942983
S 23.755471 14.850142 8.912646
S 26.725134 14.850142 5.942983
S 26.725134 11.880479 8.912646
S 23.755471 11.880479 11.882308
S 23.755471 17.819804 -5.935667
S 23.755471 17.819804 0.003658
S 23.755471 17.819804 5.942983
Cl -29.698454 -8.907159 -8.905330
Cl -26.728792 -8.907159 -11.874992
Cl -26.728792 -11.876821 -8.905330
Cl -29.698454 -11.876821 -5.935667
Cl -29.698454 -8.907159 -2.966005
Cl -29.698454 -11.876821 0.003658
Cl -29.698454 -8.907159 2.973321
Cl -29.698454 -11.876821 5.942983
Cl -29.698454 -8.907159 8.912646
Cl -29.698454 -5.937496 -11.874992
Cl -29.698454 -2.967834 -8.905330
Cl -29.698454 -5.937496 -5.935667
Cl -29.698454 -2.967834 -2.966005
Cl -29.698454 -5.937496 0.003658
Cl -29.698454 -2.967834 2.973321
Cl -29.698454 -5.937496 5.942983
Cl -29.698454 -2.967834 8.912646
Cl -29.698454 -5.937496 11.882308
Cl -29.698454 0.001829 -11.874992
Cl -29.698454 2.971492 -8.905330
Cl -29.698454 0.001829 -5.935667
Cl -29.698454 2.971492 -2.966005
Cl -29.698454 0.001829 0.003658
Cl -29.698454 2.971492 2.973321
Cl -29.698454 0.001829 5.942983
Cl -29.698454 2.971492 8.912646
Cl -29.698454 0.001829 11.882308
Cl -29.698454 5.941154 -11.874992
Cl -29.698454 8.910817 -8.905330
Cl -29.698454 5.941154 -5.935667
Cl -29.698454 8.910817 -2.966005
Cl -29.698454 5.941154 0.003658
Cl -29.698454 8.910817 2.973321
Cl -29.698454 5.941154 5.942983
Cl -29.698454 8.910817 8.912646
Cl -29.698454 5.941154 11.882308
Cl -26.728792 8.910817 11.882308
Cl -26.728792 5.941154 14.851971
Cl -29.698454 11.880479 -5.935667
Cl -29.698454 11.880479 0.003658
Cl -29.698454 11.880479 5.942983
Cl -26.728792 14.850142 5.942983
Cl -20.789467 -20.785809 -5.935667
Cl -23.759129 -14.846484 -8.905330
Cl -20.789467 -14.846484 -11.874992
Cl -20.789467 -17.816146 -8.905330
Cl -23.759129 -17.816146 -5.935667
Cl -23.759129 -8.907159 -14.844655
Cl -20.789467 -8.907159 -17.814317
Cl -20.789467 -11.876821 -14.844655
Cl -23.759129 -11.876821 -11.874992
Cl -20.789467 -5.937496 -20.783980
Cl -23.759129 -5.937496 -17.814317
Cl -23.759129 8.910817 14.851971
Cl -23.759129 5.941154 17.821633
Cl -20.789467 8.910817 17.821633
Cl -23.759129 14.850142 8.912646
Cl -23.759129 11.880479 11.882308
Cl -20.789467 14.850142 11.882308
Cl -20.789467 11.880479 14.851971
Cl -20.789467 20.789467 5.942983
Cl -20.789467 17.819804 8.912646
Cl -14.850142 -26.725134 -5.935667
Cl -17.819804 -20.785809 -8.905330
Cl -14.850142 -20.785809 -11.874992
Cl -14.850142 -23.755471 -8.905330
Cl -17.819804 -14.846484 -14.844655
Cl -14.850142 -14.846484 -17.814317
Cl -14.850142 -17.816146 -14.844655
Cl -17.819804 -17.816146 -11.874992
Cl -17.819804 -8.907159 -20.783980
Cl -14.850142 -8.907159 -23.753642
Cl -14.850142 -11.876821 -20.783980
Cl -17.819804 -11.876821 -17.814317
Cl -14.850142 -5.937496 -26.723305
Cl -17.819804 8.910817 20.791296
Cl -17.819804 5.941154 23.760958
Cl -14.850142 8.910817 23.760958
Cl -17.819804 14.850142 14.851971
Cl -17.819804 11.880479 17.821633
Cl -14.850142 14.850142 17.821633
Cl -14.850142 11.880479 20.791296
Cl -17.819804 20.789467 8.912646
Cl -17.819804 17.819804 11.882308
Cl -14.850142 20.789467 11.882308
Cl -14.850142 17.819804 14.851971
Cl -14.850142 26.728792 5.942983
Cl -14.850142 23.759129 8.912646
Cl -11.880479 -26.725134 -8.905330
Cl -8.910817 -29.694796 -8.905330
Cl -11.880479 -29.694796 -5.935667
Cl -8.910817 -29.694796 -2.966005
Cl -11.880479 -29.694796 0.003658
Cl -8.910817 -29.694796 2.973321
Cl -11.880479 -29.694796 5.942983
Cl -8.910817 -29.694796 8.912646
Cl -11.880479 -20.785809 -14.844655
Cl -8.910817 -20.785809 -17.814317
Cl -8.910817 -23.755471 -14.844655
Cl -11.880479 -23.755471 -11.874992
Cl -11.880479 -14.846484 -20.783980
Cl -8.910817 -14.846484 -23.753642
Cl -8.910817 -17.816146 -20.783980
Cl -11.880479 -17.816146 -17.814317
Cl -11.880479 -8.907159 -26.723305
Cl -8.910817 -8.907159 -29.692967
Cl -11.880479 -11.876821 -23.753642
Cl -8.910817 -8.907159 29.700283
Cl -11.880479 -5.937496 -29.692967
Cl -8.910817 -2.967834 -29.692967
Cl -11.880479 -5.937496 29.700283
Cl -8.910817 -2.967834 29.700283
Cl -11.880479 0.001829 -29.692967
Cl -8.910817 2.971492 -29.692967
Cl -11.880479 0.001829 29.700283
Cl -8.910817 2.971492 29.700283
Cl -11.880479 5.941154 -29.692967
Cl -8.910817 8.910817 -29.692967
Cl -11.880479 8.910817 26.730621
Cl -11.880479 5.941154 29.700283
Cl -8.910817 8.910817 29.700283
Cl -11.880479 14.850142 20.791296
Cl -11.880479 11.880479 23.760958
Cl -8.910817 14.850142 23.760958
Cl -8.910817 11.880479 26.730621
Cl -11.880479 20.789467 14.851971
Cl -11.880479 17.819804 17.821633
Cl -8.910817 20.789467 17.821633
Cl -8.910817 17.819804 20.791296
Cl -11.880479 23.759129 11.882308
Cl -8.910817 26.728792 11.882308
Cl -8.910817 23.759129 14.851971
Cl -8.910817 29.698454 -8.905330
Cl -11.880479 29.698454 -5.935667
Cl -8.910817 29.698454 -2.966005
Cl -11.880479 29.698454 0.003658
Cl -8.910817 29.698454 2.973321
Cl -11.880479 29.698454 5.942983
Cl -8.910817 29.698454 8.912646
Cl -5.941154 -26.725134 -14.844655
Cl -5.941154 -29.694796 -11.874992
Cl -2.971492 -29.694796 -8.905330
Cl -5.941154 -29.694796 -5.935667
Cl -2.971492 -29.694796 -2.966005
Cl -5.941154 -29.694796 0.003658
Cl -2.971492 -29.694796 2.973321
Cl -5.941154 -29.694796 5.942983
Cl -2.971492 -29.694796 8.912646
Cl -5.941154 -29.694796 11.882308
Cl -5.941154 -20.785809 -20.783980
Cl -5.941154 -14.846484 -26.723305
Cl -5.941154 -11.876821 -29.692967
Cl -2.971492 -8.907159 -29.692967
Cl -5.941154 -11.876821 29.700283
Cl -2.971492 -8.907159 29.700283
Cl -5.941154 -5.937496 -29.692967
Cl -2.971492 -2.967834 -29.692967
Cl -5.941154 -5.937496 29.700283
Cl -2.971492 -2.967834 29.700283
Cl -5.941154 0.001829 -29.692967
Cl -2.971492 2.971492 -29.692967
Cl -5.941154 0.001829 29.700283
Cl -2.971492 2.971492 29.700283
Cl -5.941154 5.941154 -29.692967
Cl -2.971492 8.910817 -29.692967
Cl -5.941154 5.941154 29.700283
Cl -2.971492 8.910817 29.700283
Cl -5.941154 11.880479 -29.692967
Cl -5.941154 11.880479 29.700283
Cl -5.941154 20.789467 20.791296
Cl -5.941154 17.819804 23.760958
Cl -5.941154 26.728792 14.851971
Cl -5.941154 29.698454 -11.874992
Cl -2.971492 29.698454 -8.905330
Cl -5.941154 29.698454 -5.935667
Cl -2.971492 29.698454 -2.966005
Cl -5.941154 29.698454 0.003658
Cl -2.971492 29.698454 2.973321
Cl -5.941154 29.698454 5.942983
Cl -2.971492 29.698454 8.912646
Cl -5.941154 29.698454 11.882308
Cl -0.001829 -29.694796 -11.874992
Cl 2.967834 -29.694796 -8.905330
Cl -0.001829 -29.694796 -5.935667
Cl 2.967834 -29.694796 -2.966005
Cl -0.001829 -29.694796 0.003658
Cl 2.967834 -29.694796 2.973321
Cl -0.001829 -29.694796 5.942983
Cl 2.967834 -29.694796 8.912646
Cl -0.001829 -29.694796 11.882308
Cl -0.001829 -11.876821 -29.692967
Cl 2.967834 -8.907159 -29.692967
Cl -0.001829 -11.876821 29.700283
Cl 2.967834 -8.907159 29.700283
Cl -0.001829 -5.937496 -29.692967
Cl 2.967834 -2.967834 -29.692967
Cl -0.001829 -5.937496 29.700283
Cl 2.967834 -2.967834 29.700283
Cl -0.001829 0.001829 -29.692967
Cl 2.967834 2.971492 -29.692967
Cl -0.001829 0.001829 29.700283
Cl 2.967834 2.971492 29.700283
Cl -0.001829 5.941154 -29.692967
Cl 2.967834 8.910817 -29.692967
Cl -0.001829 5.941154 29.700283
Cl 2.967834 8.910817 29.700283
Cl -0.001829 11.880479 -29.692967
Cl -0.001829 11.880479 29.700283
Cl -0.001829 29.698454 -11.874992
Cl 2.967834 29.698454 -8.905330
Cl -0.001829 29.698454 -5.935667
Cl 2.967834 29.698454 -2.966005
Cl -0.001829 29.698454 0.003658
Cl 2.967834 29.698454 2.973321
Cl -0.001829 29.698454 5.942983
Cl 2.967834 29.698454 8.912646
Cl -0.001829 29.698454 11.882308
Cl 5.937496 -29.694796 -11.874992
Cl 8.907159 -29.694796 -8.905330
Cl 5.937496 -29.694796 -5.935667
Cl 8.907159 -29.694796 -2.966005
Cl 5.937496 -29.694796 0.003658
Cl 8.907159 -29.694796 2.973321
Cl 5.937496 -29.694796 5.942983
Cl 8.907159 -29.694796 8.912646
Cl 5.937496 -29.694796 11.882308
Cl 5.937496 -26.725134 14.851971
Cl 8.907159 -26.725134 11.882308
Cl 8.907159 -23.755471 14.851971
Cl 5.937496 -23.755471 17.821633
Cl 8.907159 -20.785809 17.821633
Cl 8.907159 -17.816146 20.791296
Cl 5.937496 -17.816146 23.760958
Cl 8.907159 -14.846484 23.760958
Cl 5.937496 -11.876821 -29.692967
Cl 8.907159 -8.907159 -29.692967
Cl 8.907159 -11.876821 26.730621
Cl 5.937496 -11.876821 29.700283
Cl 8.907159 -8.907159 29.700283
Cl 5.937496 -5.937496 -29.692967
Cl 8.907159 -2.967834 -29.692967
Cl 5.937496 -5.937496 29.700283
Cl 8.907159 -2.967834 29.700283
Cl 5.937496 0.001829 -29.692967
Cl 8.907159 2.971492 -29.692967
Cl 5.937496 0.001829 29.700283
Cl 8.907159 2.971492 29.700283
Cl 5.937496 5.941154 -29.692967
Cl 8.907159 8.910817 -29.692967
Cl 5.937496 5.941154 29.700283
Cl 8.907159 8.910817 29.700283
Cl 5.937496 11.880479 -29.692967
Cl 5.937496 14.850142 -26.723305
Cl 8.907159 11.880479 -26.723305
Cl 8.907159 14.850142 -23.753642
Cl 5.937496 11.880479 29.700283
Cl 5.937496 17.819804 -23.753642
Cl 8.907159 17.819804 -20.783980
Cl 8.907159 20.789467 -17.814317
Cl 5.937496 23.759129 -17.814317
Cl 8.907159 23.759129 -14.844655
Cl 8.907159 26.728792 -11.874992
Cl 5.937496 29.698454 -11.874992
Cl 8.907159 29.698454 -8.905330
Cl 5.937496 29.698454 -5.935667
Cl 8.907159 29.698454 -2.966005
Cl 5.937496 29.698454 0.003658
Cl 8.907159 29.698454 2.973321
Cl 5.937496 29.698454 5.942983
Cl 8.907159 29.698454 8.912646
Cl 5.937496 29.698454 11.882308
Cl 11.876821 -29.694796 -5.935667
Cl 11.876821 -29.694796 0.003658
Cl 11.876821 -29.694796 5.942983
Cl 14.846484 -26.725134 5.942983
Cl 14.846484 -23.755471 8.912646
Cl 11.876821 -23.755471 11.882308
Cl 11.876821 -20.785809 14.851971
Cl 14.846484 -20.785809 11.882308
Cl 14.846484 -17.816146 14.851971
Cl 11.876821 -17.816146 17.821633
Cl 11.876821 -14.846484 20.791296
Cl 14.846484 -14.846484 17.821633
Cl 14.846484 -11.876821 20.791296
Cl 11.876821 -11.876821 23.760958
Cl 11.876821 -8.907159 26.730621
Cl 14.846484 -8.907159 23.760958
Cl 11.876821 -5.937496 -29.692967
Cl 11.876821 -5.937496 29.700283
Cl 11.876821 0.001829 -29.692967
Cl 11.876821 0.001829 29.700283
Cl 11.876821 5.941154 -29.692967
Cl 14.846484 5.941154 -26.723305
Cl 14.846484 8.910817 -23.753642
Cl 11.876821 5.941154 29.700283
Cl 11.876821 11.880479 -23.753642
Cl 11.876821 14.850142 -20.783980
Cl 14.846484 11.880479 -20.783980
Cl 14.846484 14.850142 -17.814317
Cl 11.876821 17.819804 -17.814317
Cl 11.876821 20.789467 -14.844655
Cl 14.846484 17.819804 -14.844655
Cl 14.846484 20.789467 -11.874992
Cl 11.876821 23.759129 -11.874992
Cl 11.876821 26.728792 -8.905330
Cl 14.846484 23.759129 -8.905330
Cl 11.876821 29.698454 -5.935667
Cl 11.876821 29.698454 0.003658
Cl 11.876821 29.698454 5.942983
Cl 17.816146 -20.785809 8.912646
Cl 20.785809 -20.785809 5.942983
Cl 20.785809 -17.816146 8.912646
Cl 17.816146 -17.816146 11.882308
Cl 17.816146 -14.846484 14.851971
Cl 20.785809 -14.846484 11.882308
Cl 20.785809 -11.876821 14.851971
Cl 17.816146 -11.876821 17.821633
Cl 17.816146 -8.907159 20.791296
Cl 20.785809 -8.907159 17.821633
Cl 20.785809 -5.937496 20.791296
Cl 17.816146 -5.937496 23.760958
Cl 17.816146 8.910817 -20.783980
Cl 20.785809 5.941154 -20.783980
Cl 20.785809 8.910817 -17.814317
Cl 17.816146 11.880479 -17.814317
Cl 17.816146 14.850142 -14.844655
Cl 20.785809 11.880479 -14.844655
Cl 20.785809 14.850142 -11.874992
Cl 17.816146 17.819804 -11.874992
Cl 17.816146 20.789467 -8.905330
Cl 20.785809 17.819804 -8.905330
Cl 20.785809 20.789467 -5.935667
Cl 17.816146 23.759129 -5.935667
Cl 23.755471 -14.846484 8.912646
Cl 26.725134 -14.846484 5.942983
Cl 23.755471 -11.876821 11.882308
Cl 23.755471 -8.907159 14.851971
Cl 26.725134 -8.907159 11.882308
Cl 26.725134 -5.937496 14.851971
Cl 23.755471 8.910817 -14.844655
Cl 26.725134 5.941154 -14.844655
Cl 23.755471 11.880479 -11.874992
Cl 23.755471 14.850142 -8.905330
Cl 26.725134 11.880479 -8.905330
Cl 26.725134 14.850142 -5.935667
Cl 29.694796 -8.907159 -8.905330
Cl 29.694796 -11.876821 -5.935667
Cl 29.694796 -8.907159 -2.966005
Cl 29.694796 -11.876821 0.003658
Cl 29.694796 -8.907159 2.973321
Cl 29.694796 -11.876821 5.942983
Cl 29.694796 -8.907159 8.912646
Cl 29.694796 -5.937496 -11.874992
Cl 29.694796 -2.967834 -8.905330
Cl 29.694796 -5.937496 -5.935667
Cl 29.694796 -2.967834 -2.966005
Cl 29.694796 -5.937496 0.003658
Cl 29.694796 -2.967834 2.973321
Cl 29.694796 -5.937496 5.942983
Cl 29.694796 -2.967834 8.912646
Cl 29.694796 -5.937496 11.882308
Cl 29.694796 0.001829 -11.874992
Cl 29.694796 2.971492 -8.905330
Cl 29.694796 0.001829 -5.935667
Cl 29.694796 2.971492 -2.966005
Cl 29.694796 0.001829 0.003658
Cl 29.694796 2.971492 2.973321
Cl 29.694796 0.001829 5.942983
Cl 29.694796 2.971492 8.912646
Cl 29.694796 0.001829 11.882308
Cl 29.694796 5.941154 -11.874992
Cl 29.694796 8.910817 -8.905330
Cl 29.694796 5.941154 -5.935667
Cl 29.694796 8.910817 -2.966005
Cl 29.694796 5.941154 0.003658
Cl 29.694796 8.910817 2.973321
Cl 29.694796 5.941154 5.942983
Cl 29.694796 8.910817 8.912646
Cl 29.694796 5.941154 11.882308
Cl 29.694796 11.880479 -5.935667
Cl 29.694796 11.880479 0.003658
Cl 29.694796 11.880479 5.942983
