434
InSb-Sb-In168Sb119Cl147-clean
In -11.569928 -11.592854 -8.283885
In -11.569928 -8.276243 -11.600496
In -11.569928 -4.959632 -8.283885
In -11.569928 -8.276243 -4.967274
In -11.569928 -4.959632 -1.650663
In -11.569928 -1.643021 -4.967274
In -11.569928 1.673589 -1.650663
In -11.569928 -1.643021 1.665947
In -11.569928 1.673589 4.982558
In -11.569928 4.990200 1.665947
In -11.569928 8.306811 4.982558
In -11.569928 4.990200 8.299169
In -11.569928 8.306811 11.615779
In -11.569928 11.623421 8.299169
In -8.253317 -11.592854 -11.600496
In -4.936706 -11.592854 -8.283885
In -8.253317 -11.592854 -4.967274
In -4.936706 -11.592854 -1.650663
In -4.936706 -8.276243 -11.600496
In -8.253317 -4.959632 -11.600496
In -8.253317 -8.276243 -8.283885
In -4.936706 -4.959632 -8.283885
In -4.936706 -8.276243 -4.967274
In -8.253317 -4.959632 -4.967274
In -8.253317 -8.276243 -1.650663
In -4.936706 -4.959632 -1.650663
In -4.936706 -8.276243 1.665947
In -8.253317 -4.959632 1.665947
In -4.936706 -4.959632 4.982558
In -4.936706 -1.643021 -11.600496
In -8.253317 -1.643021 -8.283885
In -4.936706 1.673589 -8.283885
In -4.936706 -1.643021 -4.967274
In -8.253317 1.673589 -4.967274
In -8.253317 -1.643021 -1.650663
In -4.936706 1.673589 -1.650663
In -4.936706 -1.643021 1.665947
In -8.253317 1.673589 1.665947
In -8.253317 -1.643021 4.982558
In -4.936706 1.673589 4.982558
In -4.936706 -1.643021 8.299169
In -8.253317 1.673589 8.299169
In -4.936706 1.673589 11.615779
In -4.936706 4.990200 -4.967274
In -8.253317 4.990200 -1.650663
In -4.936706 8.306811 -1.650663
In -4.936706 4.990200 1.665947
In -8.253317 8.306811 1.665947
In -8.253317 4.990200 4.982558
In -4.936706 8.306811 4.982558
In -4.936706 4.990200 8.299169
In -8.253317 8.306811 8.299169
In -8.253317 4.990200 11.615779
In -4.936706 8.306811 11.615779
In -4.936706 11.623421 1.665947
In -8.253317 11.623421 4.982558
In -4.936706 11.623421 8.299169
In -8.253317 11.623421 11.615779
In -1.620096 -11.592854 -4.967274
In 1.696515 -11.592854 -1.650663
In -1.620096 -11.592854 1.665947
In 1.696515 -11.592854 4.982558
In -1.620096 -4.959632 -11.600496
In -1.620096 -8.276243 -8.283885
In 1.696515 -4.959632 -8.283885
In 1.696515 -8.276243 -4.967274
In -1.620096 -4.959632 -4.967274
In -1.620096 -8.276243 -1.650663
In 1.696515 -4.959632 -1.650663
In 1.696515 -8.276243 1.665947
In -1.620096 -4.959632 1.665947
In -1.620096 -8.276243 4.982558
In 1.696515 -4.959632 4.982558
In 1.696515 -8.276243 8.299169
In -1.620096 -4.959632 8.299169
In 1.696515 -4.959632 11.615779
In 1.696515 -1.643021 -11.600496
In -1.620096 1.673589 -11.600496
In -1.620096 -1.643021 -8.283885
In 1.696515 1.673589 -8.283885
In 1.696515 -1.643021 -4.967274
In -1.620096 1.673589 -4.967274
In -1.620096 -1.643021 -1.650663
In 1.696515 1.673589 -1.650663
In 1.696515 -1.643021 1.665947
In -1.620096 1.673589 1.665947
In -1.620096 -1.643021 4.982558
In 1.696515 1.673589 4.982558
In 1.696515 -1.643021 8.299169
In -1.620096 1.673589 8.299169
In -1.620096 -1.643021 11.615779
In 1.696515 1.673589 11.615779
In 1.696515 4.990200 -11.600496
In -1.620096 4.990200 -8.283885
In 1.696515 8.306811 -8.283885
In 1.696515 4.990200 -4.967274
In -1.620096 8.306811 -4.967274
In -1.620096 4.990200 -1.650663
In 1.696515 8.306811 -1.650663
In 1.696515 4.990200 1.665947
In -1.620096 8.306811 1.665947
In -1.620096 4.990200 4.982558
In 1.696515 8.306811 4.982558
In 1.696515 4.990200 8.299169
In -1.620096 8.306811 8.299169
In -1.620096 4.990200 11.615779
In 1.696515 11.623421 -4.967274
In -1.620096 11.623421 -1.650663
In 1.696515 11.623421 1.665947
In -1.620096 11.623421 4.982558
In 5.013126 -11.592854 1.665947
In 8.329737 -11.592854 4.982558
In 5.013126 -11.592854 8.299169
In 8.329737 -11.592854 11.615779
In 5.013126 -4.959632 -4.967274
In 5.013126 -8.276243 -1.650663
In 8.329737 -4.959632 -1.650663
In 8.329737 -8.276243 1.665947
In 5.013126 -4.959632 1.665947
In 5.013126 -8.276243 4.982558
In 8.329737 -4.959632 4.982558
In 8.329737 -8.276243 8.299169
In 5.013126 -4.959632 8.299169
In 5.013126 -8.276243 11.615779
In 8.329737 -4.959632 11.615779
In 5.013126 1.673589 -11.600496
In 5.013126 -1.643021 -8.283885
In 8.329737 1.673589 -8.283885
In 8.329737 -1.643021 -4.967274
In 5.013126 1.673589 -4.967274
In 5.013126 -1.643021 -1.650663
In 8.329737 1.673589 -1.650663
In 8.329737 -1.643021 1.665947
In 5.013126 1.673589 1.665947
In 5.013126 -1.643021 4.982558
In 8.329737 1.673589 4.982558
In 8.329737 -1.643021 8.299169
In 5.013126 1.673589 8.299169
In 5.013126 -1.643021 11.615779
In 8.329737 4.990200 -11.600496
In 5.013126 8.306811 -11.600496
In 5.013126 4.990200 -8.283885
In 8.329737 8.306811 -8.283885
In 8.329737 4.990200 -4.967274
In 5.013126 8.306811 -4.967274
In 5.013126 4.990200 -1.650663
In 8.329737 8.306811 -1.650663
In 8.329737 4.990200 1.665947
In 5.013126 8.306811 1.665947
In 5.013126 4.990200 4.982558
In 8.329737 11.623421 -11.600496
In 5.013126 11.623421 -8.283885
In 8.329737 11.623421 -4.967274
In 5.013126 11.623421 -1.650663
In 11.646347 -11.592854 8.299169
In 11.646347 -4.959632 1.665947
In 11.646347 -8.276243 4.982558
In 11.646347 -4.959632 8.299169
In 11.646347 -8.276243 11.615779
In 11.646347 1.673589 -4.967274
In 11.646347 -1.643021 -1.650663
In 11.646347 1.673589 1.665947
In 11.646347 -1.643021 4.982558
In 11.646347 8.306811 -11.600496
In 11.646347 4.990200 -8.283885
In 11.646347 8.306811 -4.967274
In 11.646347 4.990200 -1.650663
In 11.646347 11.623421 -8.283885
Sb -9.911622 -9.934548 -6.625579
Sb -9.911622 -6.617937 -9.942190
Sb -9.911622 -3.301327 -6.625579
Sb -9.911622 -6.617937 -3.308969
Sb -9.911622 -3.301327 0.007642
Sb -9.911622 0.015284 -3.308969
Sb -9.911622 3.331895 0.007642
Sb -9.911622 0.015284 3.324253
Sb -9.911622 3.331895 6.640863
Sb -9.911622 6.648505 3.324253
Sb -9.911622 9.965116 6.640863
Sb -9.911622 6.648505 9.957474
Sb -6.595012 -9.934548 -9.942190
Sb -6.595012 -9.934548 -3.308969
Sb -3.278401 -9.934548 -6.625579
Sb -3.278401 -9.934548 0.007642
Sb -6.595012 -3.301327 -9.942190
Sb -3.278401 -6.617937 -9.942190
Sb -6.595012 -6.617937 -6.625579
Sb -6.595012 -3.301327 -3.308969
Sb -3.278401 -3.301327 -6.625579
Sb -3.278401 -6.617937 -3.308969
Sb -6.595012 -6.617937 0.007642
Sb -6.595012 -3.301327 3.324253
Sb -3.278401 -3.301327 0.007642
Sb -3.278401 -6.617937 3.324253
Sb -3.278401 -3.301327 6.640863
Sb -3.278401 0.015284 -9.942190
Sb -6.595012 0.015284 -6.625579
Sb -6.595012 3.331895 -3.308969
Sb -3.278401 3.331895 -6.625579
Sb -3.278401 0.015284 -3.308969
Sb -6.595012 0.015284 0.007642
Sb -6.595012 3.331895 3.324253
Sb -3.278401 3.331895 0.007642
Sb -3.278401 0.015284 3.324253
Sb -6.595012 0.015284 6.640863
Sb -6.595012 3.331895 9.957474
Sb -3.278401 3.331895 6.640863
Sb -3.278401 0.015284 9.957474
Sb -3.278401 6.648505 -3.308969
Sb -6.595012 6.648505 0.007642
Sb -6.595012 9.965116 3.324253
Sb -3.278401 9.965116 0.007642
Sb -3.278401 6.648505 3.324253
Sb -6.595012 6.648505 6.640863
Sb -6.595012 9.965116 9.957474
Sb -3.278401 9.965116 6.640863
Sb -3.278401 6.648505 9.957474
Sb 0.038210 -9.934548 -3.308969
Sb 0.038210 -9.934548 3.324253
Sb 3.354821 -9.934548 0.007642
Sb 3.354821 -9.934548 6.640863
Sb 0.038210 -3.301327 -9.942190
Sb 0.038210 -6.617937 -6.625579
Sb 0.038210 -3.301327 -3.308969
Sb 3.354821 -3.301327 -6.625579
Sb 3.354821 -6.617937 -3.308969
Sb 0.038210 -6.617937 0.007642
Sb 0.038210 -3.301327 3.324253
Sb 3.354821 -3.301327 0.007642
Sb 3.354821 -6.617937 3.324253
Sb 0.038210 -6.617937 6.640863
Sb 0.038210 -3.301327 9.957474
Sb 3.354821 -3.301327 6.640863
Sb 3.354821 -6.617937 9.957474
Sb 0.038210 3.331895 -9.942190
Sb 3.354821 0.015284 -9.942190
Sb 0.038210 0.015284 -6.625579
Sb 0.038210 3.331895 -3.308969
Sb 3.354821 3.331895 -6.625579
Sb 3.354821 0.015284 -3.308969
Sb 0.038210 0.015284 0.007642
Sb 0.038210 3.331895 3.324253
Sb 3.354821 3.331895 0.007642
Sb 3.354821 0.015284 3.324253
Sb 0.038210 0.015284 6.640863
Sb 0.038210 3.331895 9.957474
Sb 3.354821 3.331895 6.640863
Sb 3.354821 0.015284 9.957474
Sb 3.354821 6.648505 -9.942190
Sb 0.038210 6.648505 -6.625579
Sb 0.038210 9.965116 -3.308969
Sb 3.354821 9.965116 -6.625579
Sb 3.354821 6.648505 -3.308969
Sb 0.038210 6.648505 0.007642
Sb 0.038210 9.965116 3.324253
Sb 3.354821 9.965116 0.007642
Sb 3.354821 6.648505 3.324253
Sb 0.038210 6.648505 6.640863
Sb 6.671431 -9.934548 3.324253
Sb 6.671431 -9.934548 9.957474
Sb 9.988042 -9.934548 6.640863
Sb 6.671431 -3.301327 -3.308969
Sb 6.671431 -6.617937 0.007642
Sb 6.671431 -3.301327 3.324253
Sb 9.988042 -3.301327 0.007642
Sb 9.988042 -6.617937 3.324253
Sb 6.671431 -6.617937 6.640863
Sb 6.671431 -3.301327 9.957474
Sb 9.988042 -3.301327 6.640863
Sb 9.988042 -6.617937 9.957474
Sb 6.671431 3.331895 -9.942190
Sb 6.671431 0.015284 -6.625579
Sb 6.671431 3.331895 -3.308969
Sb 9.988042 3.331895 -6.625579
Sb 9.988042 0.015284 -3.308969
Sb 6.671431 0.015284 0.007642
Sb 6.671431 3.331895 3.324253
Sb 9.988042 3.331895 0.007642
Sb 9.988042 0.015284 3.324253
Sb 6.671431 0.015284 6.640863
Sb 6.671431 9.965116 -9.942190
Sb 9.988042 6.648505 -9.942190
Sb 6.671431 6.648505 -6.625579
Sb 6.671431 9.965116 -3.308969
Sb 9.988042 9.965116 -6.625579
Sb 9.988042 6.648505 -3.308969
Sb 6.671431 6.648505 0.007642
Cl -13.228233 -9.934548 -9.942190
Cl -9.911622 -9.934548 -13.258801
Cl -9.911622 -13.251159 -9.942190
Cl -13.228233 -6.617937 -6.625579
Cl -13.228233 -3.301327 -3.308969
Cl -13.228233 0.015284 0.007642
Cl -13.228233 3.331895 3.324253
Cl -13.228233 6.648505 6.640863
Cl -13.228233 9.965116 9.957474
Cl -9.911622 9.965116 13.274085
Cl -9.911622 13.281727 9.957474
Cl -6.595012 -13.251159 -6.625579
Cl -3.278401 -13.251159 -3.308969
Cl -6.595012 -6.617937 -13.258801
Cl -3.278401 -3.301327 -13.258801
Cl -3.278401 3.331895 13.274085
Cl -6.595012 6.648505 13.274085
Cl -3.278401 13.281727 3.324253
Cl -6.595012 13.281727 6.640863
Cl 0.038210 -13.251159 0.007642
Cl 3.354821 -13.251159 3.324253
Cl 3.354821 -3.301327 13.274085
Cl 0.038210 0.015284 -13.258801
Cl 3.354821 3.331895 -13.258801
Cl 0.038210 0.015284 13.274085
Cl 3.354821 13.281727 -3.308969
Cl 0.038210 13.281727 0.007642
Cl 6.671431 -13.251159 6.640863
Cl 9.988042 -13.251159 9.957474
Cl 9.988042 -9.934548 13.274085
Cl 6.671431 -6.617937 13.274085
Cl 6.671431 6.648505 -13.258801
Cl 9.988042 9.965116 -13.258801
Cl 9.988042 13.281727 -9.942190
Cl 6.671431 13.281727 -6.625579
Cl 13.304653 -9.934548 9.957474
Cl 13.304653 -3.301327 3.324253
Cl 13.304653 -6.617937 6.640863
Cl 13.304653 3.331895 -3.308969
Cl 13.304653 0.015284 0.007642
Cl 13.304653 9.965116 -9.942190
Cl 13.304653 6.648505 -6.625579
Cl -6.595012 -6.617937 6.640863
Cl -6.595012 6.648505 -6.625579
Cl 6.671431 -6.617937 -6.625579
Cl 6.671431 6.648505 6.640863
Cl -13.228233 -13.251159 -6.625579
Cl -13.228233 -6.617937 -13.258801
Cl -6.595012 -13.251159 -13.258801
Cl -6.595012 13.281727 13.274085
Cl -13.228233 6.648505 13.274085
Cl -13.228233 13.281727 6.640863
Cl 13.304653 -13.251159 6.640863
Cl 13.304653 -6.617937 13.274085
Cl 6.671431 -13.251159 13.274085
Cl 6.671431 13.281727 -13.258801
Cl 13.304653 6.648505 -13.258801
Cl 13.304653 13.281727 -6.625579
Cl -13.228233 -6.617937 0.007642
Cl -13.228233 0.015284 -6.625579
Cl 0.038210 -13.251159 -6.625579
Cl 0.038210 6.648505 13.274085
Cl 0.038210 -6.617937 13.274085
Cl 0.038210 13.281727 -6.625579
Cl 13.304653 0.015284 -6.625579
Cl 13.304653 6.648505 0.007642
Cl -13.228233 0.015284 6.640863
Cl -13.228233 6.648505 0.007642
Cl 0.038210 -6.617937 -13.258801
Cl 0.038210 13.281727 6.640863
Cl 0.038210 -13.251159 6.640863
Cl 0.038210 6.648505 -13.258801
Cl 13.304653 -6.617937 0.007642
Cl 13.304653 0.015284 6.640863
Cl -6.595012 -13.251159 0.007642
Cl -6.595012 0.015284 -13.258801
Cl 6.671431 -13.251159 0.007642
Cl 6.671431 0.015284 13.274085
Cl -6.595012 0.015284 13.274085
Cl -6.595012 13.281727 0.007642
Cl 6.671431 0.015284 -13.258801
Cl 6.671431 13.281727 0.007642
Cl -13.228233 -3.301327 -9.942190
Cl -13.228233 -9.934548 -3.308969
Cl -3.278401 -13.251159 -9.942190
Cl -3.278401 9.965116 13.274085
Cl 3.354821 -9.934548 13.274085
Cl 3.354821 13.281727 -9.942190
Cl 13.304653 3.331895 -9.942190
Cl 13.304653 9.965116 -3.308969
Cl -13.228233 9.965116 3.324253
Cl -13.228233 3.331895 9.957474
Cl 9.988042 -13.251159 3.324253
Cl 9.988042 -3.301327 13.274085
Cl -3.278401 -13.251159 3.324253
Cl 3.354821 -3.301327 -13.258801
Cl -3.278401 3.331895 -13.258801
Cl 3.354821 13.281727 3.324253
Cl -3.278401 -3.301327 13.274085
Cl -3.278401 13.281727 -3.308969
Cl 13.304653 -3.301327 -3.308969
Cl 13.304653 3.331895 3.324253
Cl -13.228233 3.331895 -3.308969
Cl -13.228233 -3.301327 3.324253
Cl 3.354821 -13.251159 -3.308969
Cl 3.354821 3.331895 13.274085
Cl 3.354821 -13.251159 9.957474
Cl 9.988042 3.331895 -13.258801
Cl 3.354821 9.965116 -13.258801
Cl 9.988042 13.281727 -3.308969
Cl -9.911622 -13.251159 -3.308969
Cl -3.278401 -9.934548 -13.258801
Cl -9.911622 -3.301327 -13.258801
Cl -3.278401 13.281727 9.957474
Cl -9.911622 3.331895 13.274085
Cl -9.911622 13.281727 3.324253
Cl 13.304653 -9.934548 3.324253
Cl 13.304653 -3.301327 9.957474
Cl -6.595012 -9.934548 3.324253
Cl -6.595012 3.331895 -9.942190
Cl 3.354821 -6.617937 -9.942190
Cl 3.354821 9.965116 6.640863
Cl -6.595012 -3.301327 9.957474
Cl -6.595012 9.965116 -3.308969
Cl 9.988042 -6.617937 -3.308969
Cl 9.988042 3.331895 6.640863
Cl 0.038210 -9.934548 9.957474
Cl 0.038210 9.965116 -9.942190
Cl 9.988042 0.015284 -9.942190
Cl 9.988042 9.965116 0.007642
Cl -9.911622 -6.617937 3.324253
Cl -9.911622 3.331895 -6.625579
Cl 3.354821 -9.934548 -6.625579
Cl 3.354821 6.648505 9.957474
Cl -9.911622 0.015284 9.957474
Cl -9.911622 9.965116 0.007642
Cl 9.988042 -9.934548 0.007642
Cl 9.988042 0.015284 9.957474
Cl -3.278401 -9.934548 6.640863
Cl -3.278401 6.648505 -9.942190
Cl 6.671431 -3.301327 -9.942190
Cl 6.671431 9.965116 3.324253
Cl -9.911622 -9.934548 0.007642
Cl -9.911622 0.015284 -9.942190
Cl 0.038210 -9.934548 -9.942190
Cl 0.038210 9.965116 9.957474
Cl -9.911622 -3.301327 6.640863
