1231
CdSe-Se-Cd593Se548Cl90-reconstructed
Cd -19.562680 -1.233204 -12.259527
Cd -19.562680 -1.233204 -5.169687
Cd -19.562680 -1.233204 1.920152
Cd -19.562680 -1.233204 9.009992
Cd -19.562680 -1.233204 16.099832
Cd -8.697467 -15.033878 -15.804447
Cd -8.697467 -15.033878 -8.714607
Cd -6.524424 -16.288485 -12.259527
Cd -8.697467 -15.033878 -1.624768
Cd -6.524424 -16.288485 -5.169687
Cd -8.697467 -15.033878 5.465072
Cd -6.524424 -16.288485 1.920152
Cd -8.697467 -15.033878 12.554912
Cd -6.524424 -16.288485 9.009992
Cd -6.524424 -16.288485 16.099832
Cd -10.870509 -11.270058 -15.804447
Cd -10.870509 -11.270058 -8.714607
Cd -8.697467 -12.524665 -12.259527
Cd -10.870509 -11.270058 -1.624768
Cd -8.697467 -12.524665 -5.169687
Cd -10.870509 -11.270058 5.465072
Cd -8.697467 -12.524665 1.920152
Cd -10.870509 -11.270058 12.554912
Cd -8.697467 -12.524665 9.009992
Cd -8.697467 -12.524665 16.099832
Cd -13.043552 -7.506238 -15.804447
Cd -13.043552 -7.506238 -8.714607
Cd -10.870509 -8.760844 -12.259527
Cd -13.043552 -7.506238 -1.624768
Cd -10.870509 -8.760844 -5.169687
Cd -13.043552 -7.506238 5.465072
Cd -10.870509 -8.760844 1.920152
Cd -13.043552 -7.506238 12.554912
Cd -10.870509 -8.760844 9.009992
Cd -10.870509 -8.760844 16.099832
Cd -15.216595 -3.742417 -15.804447
Cd -15.216595 -3.742417 -8.714607
Cd -13.043552 -4.997024 -12.259527
Cd -15.216595 -3.742417 -1.624768
Cd -13.043552 -4.997024 -5.169687
Cd -15.216595 -3.742417 5.465072
Cd -13.043552 -4.997024 1.920152
Cd -15.216595 -3.742417 12.554912
Cd -13.043552 -4.997024 9.009992
Cd -13.043552 -4.997024 16.099832
Cd -17.389638 0.021403 -15.804447
Cd -17.389638 0.021403 -8.714607
Cd -15.216595 -1.233204 -12.259527
Cd -17.389638 0.021403 -1.624768
Cd -15.216595 -1.233204 -5.169687
Cd -17.389638 0.021403 5.465072
Cd -15.216595 -1.233204 1.920152
Cd -17.389638 0.021403 12.554912
Cd -15.216595 -1.233204 9.009992
Cd -15.216595 -1.233204 16.099832
Cd -17.389638 2.530617 -12.259527
Cd -17.389638 2.530617 -5.169687
Cd -17.389638 2.530617 1.920152
Cd -17.389638 2.530617 9.009992
Cd -17.389638 2.530617 16.099832
Cd -4.351381 -15.033878 -15.804447
Cd -4.351381 -15.033878 -8.714607
Cd -2.178339 -16.288485 -12.259527
Cd -4.351381 -15.033878 -1.624768
Cd -2.178339 -16.288485 -5.169687
Cd -4.351381 -15.033878 5.465072
Cd -2.178339 -16.288485 1.920152
Cd -4.351381 -15.033878 12.554912
Cd -2.178339 -16.288485 9.009992
Cd -2.178339 -16.288485 16.099832
Cd -6.524424 -11.270058 -8.714607
Cd -4.351381 -12.524665 -12.259527
Cd -6.524424 -11.270058 -1.624768
Cd -4.351381 -12.524665 -5.169687
Cd -6.524424 -11.270058 5.465072
Cd -4.351381 -12.524665 1.920152
Cd -6.524424 -11.270058 12.554912
Cd -4.351381 -12.524665 9.009992
Cd -8.697467 -7.506238 -15.804447
Cd -8.697467 -7.506238 -8.714607
Cd -6.524424 -8.760844 -12.259527
Cd -8.697467 -7.506238 -1.624768
Cd -6.524424 -8.760844 -5.169687
Cd -8.697467 -7.506238 5.465072
Cd -6.524424 -8.760844 1.920152
Cd -8.697467 -7.506238 12.554912
Cd -6.524424 -8.760844 9.009992
Cd -6.524424 -8.760844 16.099832
Cd -10.870509 -3.742417 -15.804447
Cd -10.870509 -3.742417 -8.714607
Cd -8.697467 -4.997024 -12.259527
Cd -10.870509 -3.742417 -1.624768
Cd -8.697467 -4.997024 -5.169687
Cd -10.870509 -3.742417 5.465072
Cd -8.697467 -4.997024 1.920152
Cd -10.870509 -3.742417 12.554912
Cd -8.697467 -4.997024 9.009992
Cd -8.697467 -4.997024 16.099832
Cd -13.043552 0.021403 -8.714607
Cd -10.870509 -1.233204 -12.259527
Cd -13.043552 0.021403 -1.624768
Cd -10.870509 -1.233204 -5.169687
Cd -13.043552 0.021403 5.465072
Cd -10.870509 -1.233204 1.920152
Cd -13.043552 0.021403 12.554912
Cd -10.870509 -1.233204 9.009992
Cd -15.216595 3.785223 -15.804447
Cd -15.216595 3.785223 -8.714607
Cd -13.043552 2.530617 -12.259527
Cd -15.216595 3.785223 -1.624768
Cd -13.043552 2.530617 -5.169687
Cd -15.216595 3.785223 5.465072
Cd -13.043552 2.530617 1.920152
Cd -15.216595 3.785223 12.554912
Cd -13.043552 2.530617 9.009992
Cd -13.043552 2.530617 16.099832
Cd -15.216595 6.294437 -12.259527
Cd -15.216595 6.294437 -5.169687
Cd -15.216595 6.294437 1.920152
Cd -15.216595 6.294437 9.009992
Cd -15.216595 6.294437 16.099832
Cd -0.005296 -15.033878 -15.804447
Cd -0.005296 -15.033878 -8.714607
Cd 2.167747 -16.288485 -12.259527
Cd -0.005296 -15.033878 -1.624768
Cd 2.167747 -16.288485 -5.169687
Cd -0.005296 -15.033878 5.465072
Cd 2.167747 -16.288485 1.920152
Cd -0.005296 -15.033878 12.554912
Cd 2.167747 -16.288485 9.009992
Cd 2.167747 -16.288485 16.099832
Cd -2.178339 -11.270058 -15.804447
Cd -2.178339 -11.270058 -8.714607
Cd -0.005296 -12.524665 -12.259527
Cd -2.178339 -11.270058 -1.624768
Cd -0.005296 -12.524665 -5.169687
Cd -2.178339 -11.270058 5.465072
Cd -0.005296 -12.524665 1.920152
Cd -2.178339 -11.270058 12.554912
Cd -0.005296 -12.524665 9.009992
Cd -0.005296 -12.524665 16.099832
Cd -4.351381 -7.506238 -15.804447
Cd -4.351381 -7.506238 -8.714607
Cd -2.178339 -8.760844 -12.259527
Cd -4.351381 -7.506238 -1.624768
Cd -2.178339 -8.760844 -5.169687
Cd -4.351381 -7.506238 5.465072
Cd -2.178339 -8.760844 1.920152
Cd -4.351381 -7.506238 12.554912
Cd -2.178339 -8.760844 9.009992
Cd -2.178339 -8.760844 16.099832
Cd -6.524424 -3.742417 -8.714607
Cd -4.351381 -4.997024 -12.259527
Cd -6.524424 -3.742417 -1.624768
Cd -4.351381 -4.997024 -5.169687
Cd -6.524424 -3.742417 5.465072
Cd -4.351381 -4.997024 1.920152
Cd -6.524424 -3.742417 12.554912
Cd -4.351381 -4.997024 9.009992
Cd -8.697467 0.021403 -15.804447
Cd -8.697467 0.021403 -8.714607
Cd -6.524424 -1.233204 -12.259527
Cd -8.697467 0.021403 -1.624768
Cd -6.524424 -1.233204 -5.169687
Cd -8.697467 0.021403 5.465072
Cd -6.524424 -1.233204 1.920152
Cd -8.697467 0.021403 12.554912
Cd -6.524424 -1.233204 9.009992
Cd -6.524424 -1.233204 16.099832
Cd -10.870509 3.785223 -15.804447
Cd -10.870509 3.785223 -8.714607
Cd -8.697467 2.530617 -12.259527
Cd -10.870509 3.785223 -1.624768
Cd -8.697467 2.530617 -5.169687
Cd -10.870509 3.785223 5.465072
Cd -8.697467 2.530617 1.920152
Cd -10.870509 3.785223 12.554912
Cd -8.697467 2.530617 9.009992
Cd -8.697467 2.530617 16.099832
Cd -13.043552 7.549044 -15.804447
Cd -13.043552 7.549044 -8.714607
Cd -10.870509 6.294437 -12.259527
Cd -13.043552 7.549044 -1.624768
Cd -10.870509 6.294437 -5.169687
Cd -13.043552 7.549044 5.465072
Cd -10.870509 6.294437 1.920152
Cd -13.043552 7.549044 12.554912
Cd -10.870509 6.294437 9.009992
Cd -13.043552 10.058257 -12.259527
Cd -13.043552 10.058257 -5.169687
Cd -13.043552 10.058257 1.920152
Cd -13.043552 10.058257 9.009992
Cd -13.043552 10.058257 16.099832
Cd 4.340789 -15.033878 -15.804447
Cd 4.340789 -15.033878 -8.714607
Cd 6.513832 -16.288485 -12.259527
Cd 4.340789 -15.033878 -1.624768
Cd 6.513832 -16.288485 -5.169687
Cd 4.340789 -15.033878 5.465072
Cd 6.513832 -16.288485 1.920152
Cd 4.340789 -15.033878 12.554912
Cd 6.513832 -16.288485 9.009992
Cd 6.513832 -16.288485 16.099832
Cd 2.167747 -11.270058 -15.804447
Cd 2.167747 -11.270058 -8.714607
Cd 4.340789 -12.524665 -12.259527
Cd 2.167747 -11.270058 -1.624768
Cd 4.340789 -12.524665 -5.169687
Cd 2.167747 -11.270058 5.465072
Cd 4.340789 -12.524665 1.920152
Cd 2.167747 -11.270058 12.554912
Cd 4.340789 -12.524665 9.009992
Cd 4.340789 -12.524665 16.099832
Cd -0.005296 -7.506238 -8.714607
Cd 2.167747 -8.760844 -12.259527
Cd -0.005296 -7.506238 -1.624768
Cd 2.167747 -8.760844 -5.169687
Cd -0.005296 -7.506238 5.465072
Cd 2.167747 -8.760844 1.920152
Cd -0.005296 -7.506238 12.554912
Cd 2.167747 -8.760844 9.009992
Cd -2.178339 -3.742417 -15.804447
Cd -2.178339 -3.742417 -8.714607
Cd -0.005296 -4.997024 -12.259527
Cd -2.178339 -3.742417 -1.624768
Cd -0.005296 -4.997024 -5.169687
Cd -2.178339 -3.742417 5.465072
Cd -0.005296 -4.997024 1.920152
Cd -2.178339 -3.742417 12.554912
Cd -0.005296 -4.997024 9.009992
Cd -0.005296 -4.997024 16.099832
Cd -4.351381 0.021403 -15.804447
Cd -4.351381 0.021403 -8.714607
Cd -2.178339 -1.233204 -12.259527
Cd -4.351381 0.021403 -1.624768
Cd -2.178339 -1.233204 -5.169687
Cd -4.351381 0.021403 5.465072
Cd -2.178339 -1.233204 1.920152
Cd -4.351381 0.021403 12.554912
Cd -2.178339 -1.233204 9.009992
Cd -2.178339 -1.233204 16.099832
Cd -6.524424 3.785223 -8.714607
Cd -4.351381 2.530617 -12.259527
Cd -6.524424 3.785223 -1.624768
Cd -4.351381 2.530617 -5.169687
Cd -6.524424 3.785223 5.465072
Cd -4.351381 2.530617 1.920152
Cd -6.524424 3.785223 12.554912
Cd -4.351381 2.530617 9.009992
Cd -4.351381 2.530617 16.099832
Cd -8.697467 7.549044 -15.804447
Cd -8.697467 7.549044 -8.714607
Cd -6.524424 6.294437 -12.259527
Cd -8.697467 7.549044 -1.624768
Cd -6.524424 6.294437 -5.169687
Cd -8.697467 7.549044 5.465072
Cd -6.524424 6.294437 1.920152
Cd -8.697467 7.549044 12.554912
Cd -6.524424 6.294437 9.009992
Cd -6.524424 6.294437 16.099832
Cd -10.870509 11.312864 -15.804447
Cd -10.870509 11.312864 -8.714607
Cd -8.697467 10.058257 -12.259527
Cd -10.870509 11.312864 -1.624768
Cd -8.697467 10.058257 -5.169687
Cd -10.870509 11.312864 5.465072
Cd -8.697467 10.058257 1.920152
Cd -10.870509 11.312864 12.554912
Cd -8.697467 10.058257 9.009992
Cd -8.697467 10.058257 16.099832
Cd -10.870509 13.822078 -12.259527
Cd -10.870509 13.822078 -5.169687
Cd -10.870509 13.822078 1.920152
Cd -10.870509 13.822078 9.009992
Cd -10.870509 13.822078 16.099832
Cd 8.686875 -15.033878 -15.804447
Cd 8.686875 -15.033878 -8.714607
Cd 8.686875 -15.033878 -1.624768
Cd 8.686875 -15.033878 5.465072
Cd 8.686875 -15.033878 12.554912
Cd 6.513832 -11.270058 -8.714607
Cd 8.686875 -12.524665 -12.259527
Cd 6.513832 -11.270058 -1.624768
Cd 8.686875 -12.524665 -5.169687
Cd 6.513832 -11.270058 5.465072
Cd 8.686875 -12.524665 1.920152
Cd 6.513832 -11.270058 12.554912
Cd 8.686875 -12.524665 9.009992
Cd 8.686875 -12.524665 16.099832
Cd 4.340789 -7.506238 -15.804447
Cd 4.340789 -7.506238 -8.714607
Cd 6.513832 -8.760844 -12.259527
Cd 4.340789 -7.506238 -1.624768
Cd 6.513832 -8.760844 -5.169687
Cd 4.340789 -7.506238 5.465072
Cd 6.513832 -8.760844 1.920152
Cd 4.340789 -7.506238 12.554912
Cd 6.513832 -8.760844 9.009992
Cd 6.513832 -8.760844 16.099832
Cd 2.167747 -3.742417 -15.804447
Cd 2.167747 -3.742417 -8.714607
Cd 4.340789 -4.997024 -12.259527
Cd 2.167747 -3.742417 -1.624768
Cd 4.340789 -4.997024 -5.169687
Cd 2.167747 -3.742417 5.465072
Cd 4.340789 -4.997024 1.920152
Cd 2.167747 -3.742417 12.554912
Cd 4.340789 -4.997024 9.009992
Cd 4.340789 -4.997024 16.099832
Cd -0.005296 0.021403 -8.714607
Cd 2.167747 -1.233204 -12.259527
Cd -0.005296 0.021403 -1.624768
Cd 2.167747 -1.233204 -5.169687
Cd -0.005296 0.021403 5.465072
Cd 2.167747 -1.233204 1.920152
Cd -0.005296 0.021403 12.554912
Cd 2.167747 -1.233204 9.009992
Cd 2.167747 -1.233204 16.099832
Cd -2.178339 3.785223 -15.804447
Cd -2.178339 3.785223 -8.714607
Cd -0.005296 2.530617 -12.259527
Cd -2.178339 3.785223 -1.624768
Cd -0.005296 2.530617 -5.169687
Cd -2.178339 3.785223 5.465072
Cd -0.005296 2.530617 1.920152
Cd -2.178339 3.785223 12.554912
Cd -0.005296 2.530617 9.009992
Cd -0.005296 2.530617 16.099832
Cd -4.351381 7.549044 -15.804447
Cd -4.351381 7.549044 -8.714607
Cd -2.178339 6.294437 -12.259527
Cd -4.351381 7.549044 -1.624768
Cd -2.178339 6.294437 -5.169687
Cd -4.351381 7.549044 5.465072
Cd -2.178339 6.294437 1.920152
Cd -4.351381 7.549044 12.554912
Cd -2.178339 6.294437 9.009992
Cd -2.178339 6.294437 16.099832
Cd -6.524424 11.312864 -8.714607
Cd -4.351381 10.058257 -12.259527
Cd -6.524424 11.312864 -1.624768
Cd -4.351381 10.058257 -5.169687
Cd -6.524424 11.312864 5.465072
Cd -4.351381 10.058257 1.920152
Cd -6.524424 11.312864 12.554912
Cd -4.351381 10.058257 9.009992
Cd -8.697467 15.076684 -15.804447
Cd -8.697467 15.076684 -8.714607
Cd -6.524424 13.822078 -12.259527
Cd -8.697467 15.076684 -1.624768
Cd -6.524424 13.822078 -5.169687
Cd -8.697467 15.076684 5.465072
Cd -6.524424 13.822078 1.920152
Cd -8.697467 15.076684 12.554912
Cd -6.524424 13.822078 9.009992
Cd -6.524424 13.822078 16.099832
Cd 10.859917 -11.270058 -15.804447
Cd 10.859917 -11.270058 -8.714607
Cd 10.859917 -11.270058 -1.624768
Cd 10.859917 -11.270058 5.465072
Cd 10.859917 -11.270058 12.554912
Cd 8.686875 -7.506238 -15.804447
Cd 8.686875 -7.506238 -8.714607
Cd 10.859917 -8.760844 -12.259527
Cd 8.686875 -7.506238 -1.624768
Cd 10.859917 -8.760844 -5.169687
Cd 8.686875 -7.506238 5.465072
Cd 10.859917 -8.760844 1.920152
Cd 8.686875 -7.506238 12.554912
Cd 10.859917 -8.760844 9.009992
Cd 10.859917 -8.760844 16.099832
Cd 6.513832 -3.742417 -8.714607
Cd 8.686875 -4.997024 -12.259527
Cd 6.513832 -3.742417 -1.624768
Cd 8.686875 -4.997024 -5.169687
Cd 6.513832 -3.742417 5.465072
Cd 8.686875 -4.997024 1.920152
Cd 6.513832 -3.742417 12.554912
Cd 8.686875 -4.997024 9.009992
Cd 4.340789 0.021403 -15.804447
Cd 4.340789 0.021403 -8.714607
Cd 6.513832 -1.233204 -12.259527
Cd 4.340789 0.021403 -1.624768
Cd 6.513832 -1.233204 -5.169687
Cd 4.340789 0.021403 5.465072
Cd 6.513832 -1.233204 1.920152
Cd 4.340789 0.021403 12.554912
Cd 6.513832 -1.233204 9.009992
Cd 6.513832 -1.233204 16.099832
Cd 2.167747 3.785223 -15.804447
Cd 2.167747 3.785223 -8.714607
Cd 4.340789 2.530617 -12.259527
Cd 2.167747 3.785223 -1.624768
Cd 4.340789 2.530617 -5.169687
Cd 2.167747 3.785223 5.465072
Cd 4.340789 2.530617 1.920152
Cd 2.167747 3.785223 12.554912
Cd 4.340789 2.530617 9.009992
Cd 4.340789 2.530617 16.099832
Cd -0.005296 7.549044 -8.714607
Cd 2.167747 6.294437 -12.259527
Cd -0.005296 7.549044 -1.624768
Cd 2.167747 6.294437 -5.169687
Cd -0.005296 7.549044 5.465072
Cd 2.167747 6.294437 1.920152
Cd -0.005296 7.549044 12.554912
Cd 2.167747 6.294437 9.009992
Cd 2.167747 6.294437 16.099832
Cd -2.178339 11.312864 -15.804447
Cd -2.178339 11.312864 -8.714607
Cd -0.005296 10.058257 -12.259527
Cd -2.178339 11.312864 -1.624768
Cd -0.005296 10.058257 -5.169687
Cd -2.178339 11.312864 5.465072
Cd -0.005296 10.058257 1.920152
Cd -2.178339 11.312864 12.554912
Cd -0.005296 10.058257 9.009992
Cd -0.005296 10.058257 16.099832
Cd -4.351381 15.076684 -15.804447
Cd -4.351381 15.076684 -8.714607
Cd -2.178339 13.822078 -12.259527
Cd -4.351381 15.076684 -1.624768
Cd -2.178339 13.822078 -5.169687
Cd -4.351381 15.076684 5.465072
Cd -2.178339 13.822078 1.920152
Cd -4.351381 15.076684 12.554912
Cd -2.178339 13.822078 9.009992
Cd -2.178339 13.822078 16.099832
Cd 13.032960 -7.506238 -15.804447
Cd 13.032960 -7.506238 -8.714607
Cd 13.032960 -7.506238 -1.624768
Cd 13.032960 -7.506238 5.465072
Cd 13.032960 -7.506238 12.554912
Cd 10.859917 -3.742417 -15.804447
Cd 10.859917 -3.742417 -8.714607
Cd 13.032960 -4.997024 -12.259527
Cd 10.859917 -3.742417 -1.624768
Cd 13.032960 -4.997024 -5.169687
Cd 10.859917 -3.742417 5.465072
Cd 13.032960 -4.997024 1.920152
Cd 10.859917 -3.742417 12.554912
Cd 13.032960 -4.997024 9.009992
Cd 13.032960 -4.997024 16.099832
Cd 8.686875 0.021403 -15.804447
Cd 8.686875 0.021403 -8.714607
Cd 10.859917 -1.233204 -12.259527
Cd 8.686875 0.021403 -1.624768
Cd 10.859917 -1.233204 -5.169687
Cd 8.686875 0.021403 5.465072
Cd 10.859917 -1.233204 1.920152
Cd 8.686875 0.021403 12.554912
Cd 10.859917 -1.233204 9.009992
Cd 10.859917 -1.233204 16.099832
Cd 6.513832 3.785223 -8.714607
Cd 8.686875 2.530617 -12.259527
Cd 6.513832 3.785223 -1.624768
Cd 8.686875 2.530617 -5.169687
Cd 6.513832 3.785223 5.465072
Cd 8.686875 2.530617 1.920152
Cd 6.513832 3.785223 12.554912
Cd 8.686875 2.530617 9.009992
Cd 4.340789 7.549044 -15.804447
Cd 4.340789 7.549044 -8.714607
Cd 6.513832 6.294437 -12.259527
Cd 4.340789 7.549044 -1.624768
Cd 6.513832 6.294437 -5.169687
Cd 4.340789 7.549044 5.465072
Cd 6.513832 6.294437 1.920152
Cd 4.340789 7.549044 12.554912
Cd 6.513832 6.294437 9.009992
Cd 6.513832 6.294437 16.099832
Cd 2.167747 11.312864 -15.804447
Cd 2.167747 11.312864 -8.714607
Cd 4.340789 10.058257 -12.259527
Cd 2.167747 11.312864 -1.624768
Cd 4.340789 10.058257 -5.169687
Cd 2.167747 11.312864 5.465072
Cd 4.340789 10.058257 1.920152
Cd 2.167747 11.312864 12.554912
Cd 4.340789 10.058257 9.009992
Cd 4.340789 10.058257 16.099832
Cd -0.005296 15.076684 -15.804447
Cd -0.005296 15.076684 -8.714607
Cd 2.167747 13.822078 -12.259527
Cd -0.005296 15.076684 -1.624768
Cd 2.167747 13.822078 -5.169687
Cd -0.005296 15.076684 5.465072
Cd 2.167747 13.822078 1.920152
Cd -0.005296 15.076684 12.554912
Cd 2.167747 13.822078 9.009992
Cd 2.167747 13.822078 16.099832
Cd 15.206003 -3.742417 -15.804447
Cd 15.206003 -3.742417 -8.714607
Cd 15.206003 -3.742417 -1.624768
Cd 15.206003 -3.742417 5.465072
Cd 15.206003 -3.742417 12.554912
Cd 13.032960 0.021403 -8.714607
Cd 15.206003 -1.233204 -12.259527
Cd 13.032960 0.021403 -1.624768
Cd 15.206003 -1.233204 -5.169687
Cd 13.032960 0.021403 5.465072
Cd 15.206003 -1.233204 1.920152
Cd 13.032960 0.021403 12.554912
Cd 15.206003 -1.233204 9.009992
Cd 15.206003 -1.233204 16.099832
Cd 10.859917 3.785223 -15.804447
Cd 10.859917 3.785223 -8.714607
Cd 13.032960 2.530617 -12.259527
Cd 10.859917 3.785223 -1.624768
Cd 13.032960 2.530617 -5.169687
Cd 10.859917 3.785223 5.465072
Cd 13.032960 2.530617 1.920152
Cd 10.859917 3.785223 12.554912
Cd 13.032960 2.530617 9.009992
Cd 13.032960 2.530617 16.099832
Cd 8.686875 7.549044 -15.804447
Cd 8.686875 7.549044 -8.714607
Cd 10.859917 6.294437 -12.259527
Cd 8.686875 7.549044 -1.624768
Cd 10.859917 6.294437 -5.169687
Cd 8.686875 7.549044 5.465072
Cd 10.859917 6.294437 1.920152
Cd 8.686875 7.549044 12.554912
Cd 10.859917 6.294437 9.009992
Cd 10.859917 6.294437 16.099832
Cd 6.513832 11.312864 -8.714607
Cd 8.686875 10.058257 -12.259527
Cd 6.513832 11.312864 -1.624768
Cd 8.686875 10.058257 -5.169687
Cd 6.513832 11.312864 5.465072
Cd 8.686875 10.058257 1.920152
Cd 6.513832 11.312864 12.554912
Cd 8.686875 10.058257 9.009992
Cd 4.340789 15.076684 -15.804447
Cd 4.340789 15.076684 -8.714607
Cd 6.513832 13.822078 -12.259527
Cd 4.340789 15.076684 -1.624768
Cd 6.513832 13.822078 -5.169687
Cd 4.340789 15.076684 5.465072
Cd 6.513832 13.822078 1.920152
Cd 4.340789 15.076684 12.554912
Cd 6.513832 13.822078 9.009992
Cd 6.513832 13.822078 16.099832
Cd 17.379046 0.021403 -15.804447
Cd 17.379046 0.021403 -8.714607
Cd 19.552088 -1.233204 -12.259527
Cd 17.379046 0.021403 -1.624768
Cd 19.552088 -1.233204 -5.169687
Cd 17.379046 0.021403 5.465072
Cd 19.552088 -1.233204 1.920152
Cd 17.379046 0.021403 12.554912
Cd 19.552088 -1.233204 9.009992
Cd 19.552088 -1.233204 16.099832
Cd 15.206003 3.785223 -15.804447
Cd 15.206003 3.785223 -8.714607
Cd 17.379046 2.530617 -12.259527
Cd 15.206003 3.785223 -1.624768
Cd 17.379046 2.530617 -5.169687
Cd 15.206003 3.785223 5.465072
Cd 17.379046 2.530617 1.920152
Cd 15.206003 3.785223 12.554912
Cd 17.379046 2.530617 9.009992
Cd 17.379046 2.530617 16.099832
Cd 13.032960 7.549044 -15.804447
Cd 13.032960 7.549044 -8.714607
Cd 15.206003 6.294437 -12.259527
Cd 13.032960 7.549044 -1.624768
Cd 15.206003 6.294437 -5.169687
Cd 13.032960 7.549044 5.465072
Cd 15.206003 6.294437 1.920152
Cd 13.032960 7.549044 12.554912
Cd 15.206003 6.294437 9.009992
Cd 15.206003 6.294437 16.099832
Cd 10.859917 11.312864 -15.804447
Cd 10.859917 11.312864 -8.714607
Cd 13.032960 10.058257 -12.259527
Cd 10.859917 11.312864 -1.624768
Cd 13.032960 10.058257 -5.169687
Cd 10.859917 11.312864 5.465072
Cd 13.032960 10.058257 1.920152
Cd 10.859917 11.312864 12.554912
Cd 13.032960 10.058257 9.009992
Cd 13.032960 10.058257 16.099832
Cd 8.686875 15.076684 -15.804447
Cd 8.686875 15.076684 -8.714607
Cd 10.859917 13.822078 -12.259527
Cd 8.686875 15.076684 -1.624768
Cd 10.859917 13.822078 -5.169687
Cd 8.686875 15.076684 5.465072
Cd 10.859917 13.822078 1.920152
Cd 8.686875 15.076684 12.554912
Cd 10.859917 13.822078 9.009992
Cd 10.859917 13.822078 16.099832
Se -8.697467 -15.033878 -13.138999
Se -6.524424 -16.288485 -9.594079
Se -8.697467 -15.033878 -6.049159
Se -6.524424 -16.288485 -2.504239
Se -8.697467 -15.033878 1.040681
Se -6.524424 -16.288485 4.585601
Se -8.697467 -15.033878 8.130521
Se -6.524424 -16.288485 11.675441
Se -8.697467 -15.033878 15.220361
Se -10.870509 -11.270058 -13.138999
Se -8.697467 -12.524665 -9.594079
Se -10.870509 -11.270058 -6.049159
Se -8.697467 -12.524665 -2.504239
Se -10.870509 -11.270058 1.040681
Se -8.697467 -12.524665 4.585601
Se -10.870509 -11.270058 8.130521
Se -8.697467 -12.524665 11.675441
Se -10.870509 -11.270058 15.220361
Se -13.043552 -7.506238 -13.138999
Se -10.870509 -8.760844 -9.594079
Se -13.043552 -7.506238 -6.049159
Se -10.870509 -8.760844 -2.504239
Se -13.043552 -7.506238 1.040681
Se -10.870509 -8.760844 4.585601
Se -13.043552 -7.506238 8.130521
Se -10.870509 -8.760844 11.675441
Se -13.043552 -7.506238 15.220361
Se -15.216595 -3.742417 -13.138999
Se -13.043552 -4.997024 -9.594079
Se -15.216595 -3.742417 -6.049159
Se -13.043552 -4.997024 -2.504239
Se -15.216595 -3.742417 1.040681
Se -13.043552 -4.997024 4.585601
Se -15.216595 -3.742417 8.130521
Se -13.043552 -4.997024 11.675441
Se -15.216595 -3.742417 15.220361
Se -17.389638 0.021403 -13.138999
Se -15.216595 -1.233204 -9.594079
Se -17.389638 0.021403 -6.049159
Se -15.216595 -1.233204 -2.504239
Se -17.389638 0.021403 1.040681
Se -15.216595 -1.233204 4.585601
Se -17.389638 0.021403 8.130521
Se -15.216595 -1.233204 11.675441
Se -17.389638 0.021403 15.220361
Se -17.389638 2.530617 -9.594079
Se -17.389638 2.530617 -2.504239
Se -17.389638 2.530617 4.585601
Se -17.389638 2.530617 11.675441
Se -4.351381 -15.033878 -13.138999
Se -2.178339 -16.288485 -9.594079
Se -4.351381 -15.033878 -6.049159
Se -2.178339 -16.288485 -2.504239
Se -4.351381 -15.033878 1.040681
Se -2.178339 -16.288485 4.585601
Se -4.351381 -15.033878 8.130521
Se -2.178339 -16.288485 11.675441
Se -4.351381 -15.033878 15.220361
Se -6.524424 -11.270058 -13.138999
Se -4.351381 -12.524665 -9.594079
Se -6.524424 -11.270058 -6.049159
Se -4.351381 -12.524665 -2.504239
Se -6.524424 -11.270058 1.040681
Se -4.351381 -12.524665 4.585601
Se -6.524424 -11.270058 8.130521
Se -4.351381 -12.524665 11.675441
Se -6.524424 -11.270058 15.220361
Se -8.697467 -7.506238 -13.138999
Se -6.524424 -8.760844 -9.594079
Se -8.697467 -7.506238 -6.049159
Se -6.524424 -8.760844 -2.504239
Se -8.697467 -7.506238 1.040681
Se -6.524424 -8.760844 4.585601
Se -8.697467 -7.506238 8.130521
Se -6.524424 -8.760844 11.675441
Se -8.697467 -7.506238 15.220361
Se -10.870509 -3.742417 -13.138999
Se -8.697467 -4.997024 -9.594079
Se -10.870509 -3.742417 -6.049159
Se -8.697467 -4.997024 -2.504239
Se -10.870509 -3.742417 1.040681
Se -8.697467 -4.997024 4.585601
Se -10.870509 -3.742417 8.130521
Se -8.697467 -4.997024 11.675441
Se -10.870509 -3.742417 15.220361
Se -13.043552 0.021403 -13.138999
Se -10.870509 -1.233204 -9.594079
Se -13.043552 0.021403 -6.049159
Se -10.870509 -1.233204 -2.504239
Se -13.043552 0.021403 1.040681
Se -10.870509 -1.233204 4.585601
Se -13.043552 0.021403 8.130521
Se -10.870509 -1.233204 11.675441
Se -13.043552 0.021403 15.220361
Se -15.216595 3.785223 -13.138999
Se -13.043552 2.530617 -9.594079
Se -15.216595 3.785223 -6.049159
Se -13.043552 2.530617 -2.504239
Se -15.216595 3.785223 1.040681
Se -13.043552 2.530617 4.585601
Se -15.216595 3.785223 8.130521
Se -13.043552 2.530617 11.675441
Se -15.216595 3.785223 15.220361
Se -15.216595 6.294437 -9.594079
Se -15.216595 6.294437 -2.504239
Se -15.216595 6.294437 4.585601
Se -15.216595 6.294437 11.675441
Se -0.005296 -15.033878 -13.138999
Se 2.167747 -16.288485 -9.594079
Se -0.005296 -15.033878 -6.049159
Se 2.167747 -16.288485 -2.504239
Se -0.005296 -15.033878 1.040681
Se 2.167747 -16.288485 4.585601
Se -0.005296 -15.033878 8.130521
Se 2.167747 -16.288485 11.675441
Se -0.005296 -15.033878 15.220361
Se -0.005296 -12.524665 -16.683919
Se -2.178339 -11.270058 -13.138999
Se -0.005296 -12.524665 -9.594079
Se -2.178339 -11.270058 -6.049159
Se -0.005296 -12.524665 -2.504239
Se -2.178339 -11.270058 1.040681
Se -0.005296 -12.524665 4.585601
Se -2.178339 -11.270058 8.130521
Se -0.005296 -12.524665 11.675441
Se -2.178339 -11.270058 15.220361
Se -4.351381 -7.506238 -13.138999
Se -2.178339 -8.760844 -9.594079
Se -4.351381 -7.506238 -6.049159
Se -2.178339 -8.760844 -2.504239
Se -4.351381 -7.506238 1.040681
Se -2.178339 -8.760844 4.585601
Se -4.351381 -7.506238 8.130521
Se -2.178339 -8.760844 11.675441
Se -4.351381 -7.506238 15.220361
Se -6.524424 -3.742417 -13.138999
Se -4.351381 -4.997024 -9.594079
Se -6.524424 -3.742417 -6.049159
Se -4.351381 -4.997024 -2.504239
Se -6.524424 -3.742417 1.040681
Se -4.351381 -4.997024 4.585601
Se -6.524424 -3.742417 8.130521
Se -4.351381 -4.997024 11.675441
Se -6.524424 -3.742417 15.220361
Se -8.697467 0.021403 -13.138999
Se -6.524424 -1.233204 -9.594079
Se -8.697467 0.021403 -6.049159
Se -6.524424 -1.233204 -2.504239
Se -8.697467 0.021403 1.040681
Se -6.524424 -1.233204 4.585601
Se -8.697467 0.021403 8.130521
Se -6.524424 -1.233204 11.675441
Se -8.697467 0.021403 15.220361
Se -10.870509 3.785223 -13.138999
Se -8.697467 2.530617 -9.594079
Se -10.870509 3.785223 -6.049159
Se -8.697467 2.530617 -2.504239
Se -10.870509 3.785223 1.040681
Se -8.697467 2.530617 4.585601
Se -10.870509 3.785223 8.130521
Se -8.697467 2.530617 11.675441
Se -10.870509 3.785223 15.220361
Se -10.870509 6.294437 -16.683919
Se -13.043552 7.549044 -13.138999
Se -10.870509 6.294437 -9.594079
Se -13.043552 7.549044 -6.049159
Se -10.870509 6.294437 -2.504239
Se -13.043552 7.549044 1.040681
Se -10.870509 6.294437 4.585601
Se -13.043552 7.549044 8.130521
Se -10.870509 6.294437 11.675441
Se -13.043552 7.549044 15.220361
Se -13.043552 10.058257 -9.594079
Se -13.043552 10.058257 -2.504239
Se -13.043552 10.058257 4.585601
Se -13.043552 10.058257 11.675441
Se 4.340789 -15.033878 -13.138999
Se 6.513832 -16.288485 -9.594079
Se 4.340789 -15.033878 -6.049159
Se 6.513832 -16.288485 -2.504239
Se 4.340789 -15.033878 1.040681
Se 6.513832 -16.288485 4.585601
Se 4.340789 -15.033878 8.130521
Se 6.513832 -16.288485 11.675441
Se 4.340789 -15.033878 15.220361
Se 2.167747 -11.270058 -13.138999
Se 4.340789 -12.524665 -9.594079
Se 2.167747 -11.270058 -6.049159
Se 4.340789 -12.524665 -2.504239
Se 2.167747 -11.270058 1.040681
Se 4.340789 -12.524665 4.585601
Se 2.167747 -11.270058 8.130521
Se 4.340789 -12.524665 11.675441
Se 2.167747 -11.270058 15.220361
Se -0.005296 -7.506238 -13.138999
Se 2.167747 -8.760844 -9.594079
Se -0.005296 -7.506238 -6.049159
Se 2.167747 -8.760844 -2.504239
Se -0.005296 -7.506238 1.040681
Se 2.167747 -8.760844 4.585601
Se -0.005296 -7.506238 8.130521
Se 2.167747 -8.760844 11.675441
Se -0.005296 -7.506238 15.220361
Se -2.178339 -3.742417 -13.138999
Se -0.005296 -4.997024 -9.594079
Se -2.178339 -3.742417 -6.049159
Se -0.005296 -4.997024 -2.504239
Se -2.178339 -3.742417 1.040681
Se -0.005296 -4.997024 4.585601
Se -2.178339 -3.742417 8.130521
Se -0.005296 -4.997024 11.675441
Se -2.178339 -3.742417 15.220361
Se -4.351381 0.021403 -13.138999
Se -2.178339 -1.233204 -9.594079
Se -4.351381 0.021403 -6.049159
Se -2.178339 -1.233204 -2.504239
Se -4.351381 0.021403 1.040681
Se -2.178339 -1.233204 4.585601
Se -4.351381 0.021403 8.130521
Se -2.178339 -1.233204 11.675441
Se -4.351381 0.021403 15.220361
Se -6.524424 3.785223 -13.138999
Se -4.351381 2.530617 -9.594079
Se -6.524424 3.785223 -6.049159
Se -4.351381 2.530617 -2.504239
Se -6.524424 3.785223 1.040681
Se -4.351381 2.530617 4.585601
Se -6.524424 3.785223 8.130521
Se -4.351381 2.530617 11.675441
Se -6.524424 3.785223 15.220361
Se -8.697467 7.549044 -13.138999
Se -6.524424 6.294437 -9.594079
Se -8.697467 7.549044 -6.049159
Se -6.524424 6.294437 -2.504239
Se -8.697467 7.549044 1.040681
Se -6.524424 6.294437 4.585601
Se -8.697467 7.549044 8.130521
Se -6.524424 6.294437 11.675441
Se -8.697467 7.549044 15.220361
Se -10.870509 11.312864 -13.138999
Se -8.697467 10.058257 -9.594079
Se -10.870509 11.312864 -6.049159
Se -8.697467 10.058257 -2.504239
Se -10.870509 11.312864 1.040681
Se -8.697467 10.058257 4.585601
Se -10.870509 11.312864 8.130521
Se -8.697467 10.058257 11.675441
Se -10.870509 11.312864 15.220361
Se -10.870509 13.822078 -9.594079
Se -10.870509 13.822078 -2.504239
Se -10.870509 13.822078 4.585601
Se -10.870509 13.822078 11.675441
Se 8.686875 -15.033878 -13.138999
Se 8.686875 -15.033878 -6.049159
Se 8.686875 -15.033878 1.040681
Se 8.686875 -15.033878 8.130521
Se 8.686875 -15.033878 15.220361
Se 6.513832 -11.270058 -13.138999
Se 8.686875 -12.524665 -9.594079
Se 6.513832 -11.270058 -6.049159
Se 8.686875 -12.524665 -2.504239
Se 6.513832 -11.270058 1.040681
Se 8.686875 -12.524665 4.585601
Se 6.513832 -11.270058 8.130521
Se 8.686875 -12.524665 11.675441
Se 6.513832 -11.270058 15.220361
Se 4.340789 -7.506238 -13.138999
Se 6.513832 -8.760844 -9.594079
Se 4.340789 -7.506238 -6.049159
Se 6.513832 -8.760844 -2.504239
Se 4.340789 -7.506238 1.040681
Se 6.513832 -8.760844 4.585601
Se 4.340789 -7.506238 8.130521
Se 6.513832 -8.760844 11.675441
Se 4.340789 -7.506238 15.220361
Se 2.167747 -3.742417 -13.138999
Se 4.340789 -4.997024 -9.594079
Se 2.167747 -3.742417 -6.049159
Se 4.340789 -4.997024 -2.504239
Se 2.167747 -3.742417 1.040681
Se 4.340789 -4.997024 4.585601
Se 2.167747 -3.742417 8.130521
Se 4.340789 -4.997024 11.675441
Se 2.167747 -3.742417 15.220361
Se -0.005296 0.021403 -13.138999
Se 2.167747 -1.233204 -9.594079
Se -0.005296 0.021403 -6.049159
Se 2.167747 -1.233204 -2.504239
Se -0.005296 0.021403 1.040681
Se 2.167747 -1.233204 4.585601
Se -0.005296 0.021403 8.130521
Se 2.167747 -1.233204 11.675441
Se -0.005296 0.021403 15.220361
Se -2.178339 3.785223 -13.138999
Se -0.005296 2.530617 -9.594079
Se -2.178339 3.785223 -6.049159
Se -0.005296 2.530617 -2.504239
Se -2.178339 3.785223 1.040681
Se -0.005296 2.530617 4.585601
Se -2.178339 3.785223 8.130521
Se -0.005296 2.530617 11.675441
Se -2.178339 3.785223 15.220361
Se -4.351381 7.549044 -13.138999
Se -2.178339 6.294437 -9.594079
Se -4.351381 7.549044 -6.049159
Se -2.178339 6.294437 -2.504239
Se -4.351381 7.549044 1.040681
Se -2.178339 6.294437 4.585601
Se -4.351381 7.549044 8.130521
Se -2.178339 6.294437 11.675441
Se -4.351381 7.549044 15.220361
Se -6.524424 11.312864 -13.138999
Se -4.351381 10.058257 -9.594079
Se -6.524424 11.312864 -6.049159
Se -4.351381 10.058257 -2.504239
Se -6.524424 11.312864 1.040681
Se -4.351381 10.058257 4.585601
Se -6.524424 11.312864 8.130521
Se -4.351381 10.058257 11.675441
Se -6.524424 11.312864 15.220361
Se -8.697467 15.076684 -13.138999
Se -6.524424 13.822078 -9.594079
Se -8.697467 15.076684 -6.049159
Se -6.524424 13.822078 -2.504239
Se -8.697467 15.076684 1.040681
Se -6.524424 13.822078 4.585601
Se -8.697467 15.076684 8.130521
Se -6.524424 13.822078 11.675441
Se -8.697467 15.076684 15.220361
Se 10.859917 -11.270058 -13.138999
Se 10.859917 -11.270058 -6.049159
Se 10.859917 -11.270058 1.040681
Se 10.859917 -11.270058 8.130521
Se 10.859917 -11.270058 15.220361
Se 8.686875 -7.506238 -13.138999
Se 10.859917 -8.760844 -9.594079
Se 8.686875 -7.506238 -6.049159
Se 10.859917 -8.760844 -2.504239
Se 8.686875 -7.506238 1.040681
Se 10.859917 -8.760844 4.585601
Se 8.686875 -7.506238 8.130521
Se 10.859917 -8.760844 11.675441
Se 8.686875 -7.506238 15.220361
Se 6.513832 -3.742417 -13.138999
Se 8.686875 -4.997024 -9.594079
Se 6.513832 -3.742417 -6.049159
Se 8.686875 -4.997024 -2.504239
Se 6.513832 -3.742417 1.040681
Se 8.686875 -4.997024 4.585601
Se 6.513832 -3.742417 8.130521
Se 8.686875 -4.997024 11.675441
Se 6.513832 -3.742417 15.220361
Se 4.340789 0.021403 -13.138999
Se 6.513832 -1.233204 -9.594079
Se 4.340789 0.021403 -6.049159
Se 6.513832 -1.233204 -2.504239
Se 4.340789 0.021403 1.040681
Se 6.513832 -1.233204 4.585601
Se 4.340789 0.021403 8.130521
Se 6.513832 -1.233204 11.675441
Se 4.340789 0.021403 15.220361
Se 2.167747 3.785223 -13.138999
Se 4.340789 2.530617 -9.594079
Se 2.167747 3.785223 -6.049159
Se 4.340789 2.530617 -2.504239
Se 2.167747 3.785223 1.040681
Se 4.340789 2.530617 4.585601
Se 2.167747 3.785223 8.130521
Se 4.340789 2.530617 11.675441
Se 2.167747 3.785223 15.220361
Se -0.005296 7.549044 -13.138999
Se 2.167747 6.294437 -9.594079
Se -0.005296 7.549044 -6.049159
Se 2.167747 6.294437 -2.504239
Se -0.005296 7.549044 1.040681
Se 2.167747 6.294437 4.585601
Se -0.005296 7.549044 8.130521
Se 2.167747 6.294437 11.675441
Se -0.005296 7.549044 15.220361
Se -2.178339 11.312864 -13.138999
Se -0.005296 10.058257 -9.594079
Se -2.178339 11.312864 -6.049159
Se -0.005296 10.058257 -2.504239
Se -2.178339 11.312864 1.040681
Se -0.005296 10.058257 4.585601
Se -2.178339 11.312864 8.130521
Se -0.005296 10.058257 11.675441
Se -2.178339 11.312864 15.220361
Se -4.351381 15.076684 -13.138999
Se -2.178339 13.822078 -9.594079
Se -4.351381 15.076684 -6.049159
Se -2.178339 13.822078 -2.504239
Se -4.351381 15.076684 1.040681
Se -2.178339 13.822078 4.585601
Se -4.351381 15.076684 8.130521
Se -2.178339 13.822078 11.675441
Se -4.351381 15.076684 15.220361
Se 13.032960 -7.506238 -13.138999
Se 13.032960 -7.506238 -6.049159
Se 13.032960 -7.506238 1.040681
Se 13.032960 -7.506238 8.130521
Se 13.032960 -7.506238 15.220361
Se 10.859917 -3.742417 -13.138999
Se 13.032960 -4.997024 -9.594079
Se 10.859917 -3.742417 -6.049159
Se 13.032960 -4.997024 -2.504239
Se 10.859917 -3.742417 1.040681
Se 13.032960 -4.997024 4.585601
Se 10.859917 -3.742417 8.130521
Se 13.032960 -4.997024 11.675441
Se 10.859917 -3.742417 15.220361
Se 8.686875 0.021403 -13.138999
Se 10.859917 -1.233204 -9.594079
Se 8.686875 0.021403 -6.049159
Se 10.859917 -1.233204 -2.504239
Se 8.686875 0.021403 1.040681
Se 10.859917 -1.233204 4.585601
Se 8.686875 0.021403 8.130521
Se 10.859917 -1.233204 11.675441
Se 8.686875 0.021403 15.220361
Se 6.513832 3.785223 -13.138999
Se 8.686875 2.530617 -9.594079
Se 6.513832 3.785223 -6.049159
Se 8.686875 2.530617 -2.504239
Se 6.513832 3.785223 1.040681
Se 8.686875 2.530617 4.585601
Se 6.513832 3.785223 8.130521
Se 8.686875 2.530617 11.675441
Se 6.513832 3.785223 15.220361
Se 4.340789 7.549044 -13.138999
Se 6.513832 6.294437 -9.594079
Se 4.340789 7.549044 -6.049159
Se 6.513832 6.294437 -2.504239
Se 4.340789 7.549044 1.040681
Se 6.513832 6.294437 4.585601
Se 4.340789 7.549044 8.130521
Se 6.513832 6.294437 11.675441
Se 4.340789 7.549044 15.220361
Se 2.167747 11.312864 -13.138999
Se 4.340789 10.058257 -9.594079
Se 2.167747 11.312864 -6.049159
Se 4.340789 10.058257 -2.504239
Se 2.167747 11.312864 1.040681
Se 4.340789 10.058257 4.585601
Se 2.167747 11.312864 8.130521
Se 4.340789 10.058257 11.675441
Se 2.167747 11.312864 15.220361
Se -0.005296 15.076684 -13.138999
Se 2.167747 13.822078 -9.594079
Se -0.005296 15.076684 -6.049159
Se 2.167747 13.822078 -2.504239
Se -0.005296 15.076684 1.040681
Se 2.167747 13.822078 4.585601
Se -0.005296 15.076684 8.130521
Se 2.167747 13.822078 11.675441
Se -0.005296 15.076684 15.220361
Se 15.206003 -3.742417 -13.138999
Se 15.206003 -3.742417 -6.049159
Se 15.206003 -3.742417 1.040681
Se 15.206003 -3.742417 8.130521
Se 15.206003 -3.742417 15.220361
Se 13.032960 0.021403 -13.138999
Se 15.206003 -1.233204 -9.594079
Se 13.032960 0.021403 -6.049159
Se 15.206003 -1.233204 -2.504239
Se 13.032960 0.021403 1.040681
Se 15.206003 -1.233204 4.585601
Se 13.032960 0.021403 8.130521
Se 15.206003 -1.233204 11.675441
Se 13.032960 0.021403 15.220361
Se 10.859917 3.785223 -13.138999
Se 13.032960 2.530617 -9.594079
Se 10.859917 3.785223 -6.049159
Se 13.032960 2.530617 -2.504239
Se 10.859917 3.785223 1.040681
Se 13.032960 2.530617 4.585601
Se 10.859917 3.785223 8.130521
Se 13.032960 2.530617 11.675441
Se 10.859917 3.785223 15.220361
Se 10.859917 6.294437 -16.683919
Se 8.686875 7.549044 -13.138999
Se 10.859917 6.294437 -9.594079
Se 8.686875 7.549044 -6.049159
Se 10.859917 6.294437 -2.504239
Se 8.686875 7.549044 1.040681
Se 10.859917 6.294437 4.585601
Se 8.686875 7.549044 8.130521
Se 10.859917 6.294437 11.675441
Se 8.686875 7.549044 15.220361
Se 6.513832 11.312864 -13.138999
Se 8.686875 10.058257 -9.594079
Se 6.513832 11.312864 -6.049159
Se 8.686875 10.058257 -2.504239
Se 6.513832 11.312864 1.040681
Se 8.686875 10.058257 4.585601
Se 6.513832 11.312864 8.130521
Se 8.686875 10.058257 11.675441
Se 6.513832 11.312864 15.220361
Se 4.340789 15.076684 -13.138999
Se 6.513832 13.822078 -9.594079
Se 4.340789 15.076684 -6.049159
Se 6.513832 13.822078 -2.504239
Se 4.340789 15.076684 1.040681
Se 6.513832 13.822078 4.585601
Se 4.340789 15.076684 8.130521
Se 6.513832 13.822078 11.675441
Se 4.340789 15.076684 15.220361
Se 17.379046 0.021403 -13.138999
Se 17.379046 0.021403 -6.049159
Se 17.379046 0.021403 1.040681
Se 17.379046 0.021403 8.130521
Se 17.379046 0.021403 15.220361
Se 15.206003 3.785223 -13.138999
Se 17.379046 2.530617 -9.594079
Se 15.206003 3.785223 -6.049159
Se 17.379046 2.530617 -2.504239
Se 15.206003 3.785223 1.040681
Se 17.379046 2.530617 4.585601
Se 15.206003 3.785223 8.130521
Se 17.379046 2.530617 11.675441
Se 15.206003 3.785223 15.220361
Se 13.032960 7.549044 -13.138999
Se 15.206003 6.294437 -9.594079
Se 13.032960 7.549044 -6.049159
Se 15.206003 6.294437 -2.504239
Se 13.032960 7.549044 1.040681
Se 15.206003 6.294437 4.585601
Se 13.032960 7.549044 8.130521
Se 15.206003 6.294437 11.675441
Se 13.032960 7.549044 15.220361
Se 10.859917 11.312864 -13.138999
Se 13.032960 10.058257 -9.594079
Se 10.859917 11.312864 -6.049159
Se 13.032960 10.058257 -2.504239
Se 10.859917 11.312864 1.040681
Se 13.032960 10.058257 4.585601
Se 10.859917 11.312864 8.130521
Se 13.032960 10.058257 11.675441
Se 10.859917 11.312864 15.220361
Se 8.686875 15.076684 -13.138999
Se 10.859917 13.822078 -9.594079
Se 8.686875 15.076684 -6.049159
Se 10.859917 13.822078 -2.504239
Se 8.686875 15.076684 1.040681
Se 10.859917 13.822078 4.585601
Se 8.686875 15.076684 8.130521
Se 10.859917 13.822078 11.675441
Se 8.686875 15.076684 15.220361
Cl -19.562680 -1.233204 -9.594079
Cl -19.562680 -1.233204 -2.504239
Cl -19.562680 -1.233204 4.585601
Cl -19.562680 -1.233204 11.675441
Cl -6.524424 -16.288485 -16.683919
Cl -8.697467 -12.524665 -16.683919
Cl -10.870509 -8.760844 -16.683919
Cl -13.043552 -4.997024 -16.683919
Cl -15.216595 -1.233204 -16.683919
Cl -17.389638 2.530617 -16.683919
Cl -2.178339 -16.288485 -16.683919
Cl -4.351381 -12.524665 -16.683919
Cl -6.524424 -8.760844 -16.683919
Cl -8.697467 -4.997024 -16.683919
Cl -10.870509 -1.233204 -16.683919
Cl -13.043552 2.530617 -16.683919
Cl -15.216595 6.294437 -16.683919
Cl 2.167747 -16.288485 -16.683919
Cl -2.178339 -8.760844 -16.683919
Cl -4.351381 -4.997024 -16.683919
Cl -6.524424 -1.233204 -16.683919
Cl -8.697467 2.530617 -16.683919
Cl -13.043552 10.058257 -16.683919
Cl 6.513832 -16.288485 -16.683919
Cl 4.340789 -12.524665 -16.683919
Cl 2.167747 -8.760844 -16.683919
Cl -0.005296 -4.997024 -16.683919
Cl -2.178339 -1.233204 -16.683919
Cl -4.351381 2.530617 -16.683919
Cl -6.524424 6.294437 -16.683919
Cl -8.697467 10.058257 -16.683919
Cl -10.870509 13.822078 -16.683919
Cl 8.686875 -12.524665 -16.683919
Cl 6.513832 -8.760844 -16.683919
Cl 4.340789 -4.997024 -16.683919
Cl 2.167747 -1.233204 -16.683919
Cl -0.005296 2.530617 -16.683919
Cl -2.178339 6.294437 -16.683919
Cl -4.351381 10.058257 -16.683919
Cl -6.524424 13.822078 -16.683919
Cl 10.859917 -8.760844 -16.683919
Cl 8.686875 -4.997024 -16.683919
Cl 6.513832 -1.233204 -16.683919
Cl 4.340789 2.530617 -16.683919
Cl 2.167747 6.294437 -16.683919
Cl -0.005296 10.058257 -16.683919
Cl -2.178339 13.822078 -16.683919
Cl 13.032960 -4.997024 -16.683919
Cl 10.859917 -1.233204 -16.683919
Cl 8.686875 2.530617 -16.683919
Cl 6.513832 6.294437 -16.683919
Cl 4.340789 10.058257 -16.683919
Cl 2.167747 13.822078 -16.683919
Cl 15.206003 -1.233204 -16.683919
Cl 13.032960 2.530617 -16.683919
Cl 8.686875 10.058257 -16.683919
Cl 6.513832 13.822078 -16.683919
Cl 19.552088 -1.233204 -9.594079
Cl 19.552088 -1.233204 -2.504239
Cl 19.552088 -1.233204 4.585601
Cl 19.552088 -1.233204 11.675441
Cl 17.379046 2.530617 -16.683919
Cl 15.206003 6.294437 -16.683919
Cl 13.032960 10.058257 -16.683919
Cl 10.859917 13.822078 -16.683919
Cl -19.562680 -1.233204 18.765281
Cl 21.725131 0.021403 15.220361
Cl -2.178339 -18.797699 15.220361
Cl -13.043552 15.076684 15.220361
Cl 19.552088 -1.233204 18.765281
Cl -21.735723 0.021403 -13.138999
Cl 21.725131 0.021403 -13.138999
Cl 6.513832 -18.797699 15.220361
Cl 2.167747 -16.288485 18.765281
Cl -21.735723 0.021403 8.130521
Cl 13.032960 15.076684 15.220361
Cl -6.524424 -18.797699 15.220361
Cl 21.725131 0.021403 1.040681
Cl -13.043552 10.058257 18.765281
Cl -17.389638 7.549044 15.220361
Cl 13.032960 10.058257 18.765281
Cl 17.379046 7.549044 15.220361
Cl -21.735723 0.021403 -6.049159
Cl -21.735723 0.021403 15.220361
Cl 21.725131 0.021403 -6.049159
Cl -17.389638 2.530617 18.765281
Cl -21.735723 0.021403 1.040681
Cl 21.725131 0.021403 8.130521
Cl 17.379046 2.530617 18.765281
Cl -0.005296 -2.487811 16.979304
