1369
HgS-Hg-Hg643S560Cl166-reconstructed
Hg -14.846143 -11.878650 -2.969663
Hg -17.815806 -8.908988 -2.969663
Hg -14.846143 -8.908988 -0.000000
Hg -14.846143 -11.878650 2.969663
Hg -17.815806 -8.908988 2.969663
Hg -14.846143 -2.969663 -11.878650
Hg -14.846143 -5.939325 -8.908988
Hg -17.815806 -2.969663 -8.908988
Hg -17.815806 -5.939325 -5.939325
Hg -14.846143 -2.969663 -5.939325
Hg -14.846143 -5.939325 -2.969663
Hg -17.815806 -2.969663 -2.969663
Hg -17.815806 -5.939325 -0.000000
Hg -14.846143 -2.969663 -0.000000
Hg -14.846143 -5.939325 2.969663
Hg -17.815806 -2.969663 2.969663
Hg -17.815806 -5.939325 5.939325
Hg -14.846143 -2.969663 5.939325
Hg -14.846143 -5.939325 8.908988
Hg -17.815806 -2.969663 8.908988
Hg -14.846143 -2.969663 11.878650
Hg -14.846143 2.969663 -11.878650
Hg -14.846143 -0.000000 -8.908988
Hg -17.815806 2.969663 -8.908988
Hg -17.815806 -0.000000 -5.939325
Hg -14.846143 2.969663 -5.939325
Hg -14.846143 -0.000000 -2.969663
Hg -17.815806 2.969663 -2.969663
Hg -17.815806 -0.000000 -0.000000
Hg -14.846143 2.969663 -0.000000
Hg -14.846143 -0.000000 2.969663
Hg -17.815806 2.969663 2.969663
Hg -17.815806 -0.000000 5.939325
Hg -14.846143 2.969663 5.939325
Hg -14.846143 -0.000000 8.908988
Hg -17.815806 2.969663 8.908988
Hg -14.846143 2.969663 11.878650
Hg -17.815806 5.939325 -5.939325
Hg -14.846143 8.908988 -5.939325
Hg -14.846143 5.939325 -2.969663
Hg -17.815806 8.908988 -2.969663
Hg -17.815806 5.939325 -0.000000
Hg -14.846143 8.908988 -0.000000
Hg -14.846143 5.939325 2.969663
Hg -17.815806 8.908988 2.969663
Hg -17.815806 5.939325 5.939325
Hg -14.846143 5.939325 8.908988
Hg -14.846143 11.878650 -2.969663
Hg -14.846143 11.878650 2.969663
Hg -8.906818 -14.848313 -5.939325
Hg -8.906818 -17.817975 -2.969663
Hg -11.876481 -14.848313 -2.969663
Hg -8.906818 -14.848313 -0.000000
Hg -8.906818 -17.817975 2.969663
Hg -11.876481 -14.848313 2.969663
Hg -8.906818 -14.848313 5.939325
Hg -8.906818 -8.908988 -11.878650
Hg -11.876481 -8.908988 -8.908988
Hg -11.876481 -11.878650 -5.939325
Hg -8.906818 -8.908988 -5.939325
Hg -8.906818 -11.878650 -2.969663
Hg -11.876481 -8.908988 -2.969663
Hg -11.876481 -11.878650 -0.000000
Hg -8.906818 -8.908988 -0.000000
Hg -8.906818 -11.878650 2.969663
Hg -11.876481 -8.908988 2.969663
Hg -11.876481 -11.878650 5.939325
Hg -8.906818 -8.908988 5.939325
Hg -11.876481 -8.908988 8.908988
Hg -8.906818 -8.908988 11.878650
Hg -8.906818 -2.969663 -17.817975
Hg -8.906818 -5.939325 -14.848313
Hg -11.876481 -2.969663 -14.848313
Hg -8.906818 -2.969663 -11.878650
Hg -8.906818 -5.939325 -8.908988
Hg -11.876481 -2.969663 -8.908988
Hg -11.876481 -5.939325 -5.939325
Hg -8.906818 -2.969663 -5.939325
Hg -8.906818 -5.939325 -2.969663
Hg -11.876481 -2.969663 -2.969663
Hg -11.876481 -5.939325 -0.000000
Hg -8.906818 -2.969663 -0.000000
Hg -8.906818 -5.939325 2.969663
Hg -11.876481 -2.969663 2.969663
Hg -11.876481 -5.939325 5.939325
Hg -8.906818 -2.969663 5.939325
Hg -8.906818 -5.939325 8.908988
Hg -11.876481 -2.969663 8.908988
Hg -8.906818 -2.969663 11.878650
Hg -8.906818 -5.939325 14.848313
Hg -11.876481 -2.969663 14.848313
Hg -8.906818 -2.969663 17.817975
Hg -8.906818 2.969663 -17.817975
Hg -8.906818 -0.000000 -14.848313
Hg -11.876481 2.969663 -14.848313
Hg -11.876481 -0.000000 -11.878650
Hg -8.906818 2.969663 -11.878650
Hg -8.906818 -0.000000 -8.908988
Hg -11.876481 2.969663 -8.908988
Hg -11.876481 -0.000000 -5.939325
Hg -8.906818 2.969663 -5.939325
Hg -8.906818 -0.000000 -2.969663
Hg -11.876481 2.969663 -2.969663
Hg -11.876481 -0.000000 -0.000000
Hg -8.906818 2.969663 -0.000000
Hg -8.906818 -0.000000 2.969663
Hg -11.876481 2.969663 2.969663
Hg -11.876481 -0.000000 5.939325
Hg -8.906818 2.969663 5.939325
Hg -8.906818 -0.000000 8.908988
Hg -11.876481 2.969663 8.908988
Hg -11.876481 -0.000000 11.878650
Hg -8.906818 2.969663 11.878650
Hg -8.906818 -0.000000 14.848313
Hg -11.876481 2.969663 14.848313
Hg -8.906818 2.969663 17.817975
Hg -8.906818 5.939325 -14.848313
Hg -11.876481 5.939325 -11.878650
Hg -8.906818 5.939325 -8.908988
Hg -11.876481 8.908988 -8.908988
Hg -11.876481 5.939325 -5.939325
Hg -8.906818 8.908988 -5.939325
Hg -8.906818 5.939325 -2.969663
Hg -11.876481 8.908988 -2.969663
Hg -11.876481 5.939325 -0.000000
Hg -8.906818 8.908988 0.000000
Hg -8.906818 5.939325 2.969663
Hg -11.876481 8.908988 2.969663
Hg -11.876481 5.939325 5.939325
Hg -8.906818 8.908988 5.939325
Hg -8.906818 5.939325 8.908988
Hg -11.876481 8.908988 8.908988
Hg -8.906818 8.908988 11.878650
Hg -8.906818 5.939325 14.848313
Hg -8.906818 11.878650 -8.908988
Hg -8.906818 14.848313 -5.939325
Hg -8.906818 11.878650 -2.969663
Hg -11.876481 14.848313 -2.969663
Hg -11.876481 11.878650 0.000000
Hg -8.906818 14.848313 0.000000
Hg -8.906818 11.878650 2.969663
Hg -11.876481 14.848313 2.969663
Hg -11.876481 11.878650 5.939325
Hg -8.906818 14.848313 5.939325
Hg -8.906818 17.817975 -2.969663
Hg -8.906818 17.817975 2.969663
Hg -2.967493 -14.848313 -11.878650
Hg -2.967493 -17.817975 -8.908988
Hg -5.937156 -14.848313 -8.908988
Hg -5.937156 -17.817975 -5.939325
Hg -2.967493 -14.848313 -5.939325
Hg -2.967493 -17.817975 -2.969663
Hg -5.937156 -14.848313 -2.969663
Hg -5.937156 -17.817975 -0.000000
Hg -2.967493 -14.848313 -0.000000
Hg -2.967493 -17.817975 2.969663
Hg -5.937156 -14.848313 2.969663
Hg -5.937156 -17.817975 5.939325
Hg -2.967493 -14.848313 5.939325
Hg -2.967493 -17.817975 8.908988
Hg -5.937156 -14.848313 8.908988
Hg -2.967493 -14.848313 11.878650
Hg -2.967493 -8.908988 -17.817975
Hg -2.967493 -11.878650 -14.848313
Hg -5.937156 -11.878650 -11.878650
Hg -2.967493 -8.908988 -11.878650
Hg -2.967493 -11.878650 -8.908988
Hg -5.937156 -8.908988 -8.908988
Hg -5.937156 -11.878650 -5.939325
Hg -2.967493 -8.908988 -5.939325
Hg -2.967493 -11.878650 -2.969663
Hg -5.937156 -8.908988 -2.969663
Hg -5.937156 -11.878650 -0.000000
Hg -2.967493 -8.908988 -0.000000
Hg -2.967493 -11.878650 2.969663
Hg -5.937156 -8.908988 2.969663
Hg -5.937156 -11.878650 5.939325
Hg -2.967493 -8.908988 5.939325
Hg -2.967493 -11.878650 8.908988
Hg -5.937156 -8.908988 8.908988
Hg -5.937156 -11.878650 11.878650
Hg -2.967493 -8.908988 11.878650
Hg -2.967493 -11.878650 14.848313
Hg -2.967493 -8.908988 17.817975
Hg -5.937156 -5.939325 -17.817975
Hg -2.967493 -2.969663 -17.817975
Hg -2.967493 -5.939325 -14.848313
Hg -5.937156 -2.969663 -14.848313
Hg -5.937156 -5.939325 -11.878650
Hg -2.967493 -2.969663 -11.878650
Hg -2.967493 -5.939325 -8.908988
Hg -5.937156 -2.969663 -8.908988
Hg -5.937156 -5.939325 -5.939325
Hg -2.967493 -2.969663 -5.939325
Hg -2.967493 -5.939325 -2.969663
Hg -5.937156 -2.969663 -2.969663
Hg -5.937156 -5.939325 -0.000000
Hg -2.967493 -2.969663 -0.000000
Hg -2.967493 -5.939325 2.969663
Hg -5.937156 -2.969663 2.969663
Hg -5.937156 -5.939325 5.939325
Hg -2.967493 -2.969663 5.939325
Hg -2.967493 -5.939325 8.908988
Hg -5.937156 -2.969663 8.908988
Hg -5.937156 -5.939325 11.878650
Hg -2.967493 -2.969663 11.878650
Hg -2.967493 -5.939325 14.848313
Hg -5.937156 -2.969663 14.848313
Hg -5.937156 -5.939325 17.817975
Hg -2.967493 -2.969663 17.817975
Hg -5.937156 -0.000000 -17.817975
Hg -2.967493 2.969663 -17.817975
Hg -2.967493 -0.000000 -14.848313
Hg -5.937156 2.969663 -14.848313
Hg -5.937156 -0.000000 -11.878650
Hg -2.967493 2.969663 -11.878650
Hg -2.967493 -0.000000 -8.908988
Hg -5.937156 2.969663 -8.908988
Hg -5.937156 -0.000000 -5.939325
Hg -2.967493 2.969663 -5.939325
Hg -2.967493 -0.000000 -2.969663
Hg -5.937156 2.969663 -2.969663
Hg -5.937156 -0.000000 -0.000000
Hg -2.967493 2.969663 0.000000
Hg -2.967493 -0.000000 2.969663
Hg -5.937156 2.969663 2.969663
Hg -5.937156 -0.000000 5.939325
Hg -2.967493 2.969663 5.939325
Hg -2.967493 -0.000000 8.908988
Hg -5.937156 2.969663 8.908988
Hg -5.937156 -0.000000 11.878650
Hg -2.967493 2.969663 11.878650
Hg -2.967493 -0.000000 14.848313
Hg -5.937156 2.969663 14.848313
Hg -5.937156 -0.000000 17.817975
Hg -2.967493 2.969663 17.817975
Hg -5.937156 5.939325 -17.817975
Hg -2.967493 8.908988 -17.817975
Hg -2.967493 5.939325 -14.848313
Hg -5.937156 8.908988 -14.848313
Hg -5.937156 5.939325 -11.878650
Hg -2.967493 8.908988 -11.878650
Hg -2.967493 5.939325 -8.908988
Hg -5.937156 8.908988 -8.908988
Hg -5.937156 5.939325 -5.939325
Hg -2.967493 8.908988 -5.939325
Hg -2.967493 5.939325 -2.969663
Hg -5.937156 8.908988 -2.969663
Hg -5.937156 5.939325 0.000000
Hg -2.967493 8.908988 0.000000
Hg -2.967493 5.939325 2.969663
Hg -5.937156 8.908988 2.969663
Hg -5.937156 5.939325 5.939325
Hg -2.967493 8.908988 5.939325
Hg -2.967493 5.939325 8.908988
Hg -5.937156 8.908988 8.908988
Hg -5.937156 5.939325 11.878650
Hg -2.967493 8.908988 11.878650
Hg -2.967493 5.939325 14.848313
Hg -5.937156 5.939325 17.817975
Hg -2.967493 8.908988 17.817975
Hg -2.967493 11.878650 -14.848313
Hg -5.937156 11.878650 -11.878650
Hg -2.967493 14.848313 -11.878650
Hg -2.967493 11.878650 -8.908988
Hg -5.937156 11.878650 -5.939325
Hg -2.967493 14.848313 -5.939325
Hg -2.967493 11.878650 -2.969663
Hg -5.937156 14.848313 -2.969663
Hg -5.937156 11.878650 0.000000
Hg -2.967493 14.848313 0.000000
Hg -2.967493 11.878650 2.969663
Hg -5.937156 14.848313 2.969663
Hg -5.937156 11.878650 5.939325
Hg -2.967493 14.848313 5.939325
Hg -2.967493 11.878650 8.908988
Hg -5.937156 14.848313 8.908988
Hg -5.937156 11.878650 11.878650
Hg -2.967493 14.848313 11.878650
Hg -2.967493 11.878650 14.848313
Hg -2.967493 17.817975 -8.908988
Hg -5.937156 17.817975 -5.939325
Hg -2.967493 17.817975 -2.969663
Hg -5.937156 17.817975 0.000000
Hg -2.967493 17.817975 2.969663
Hg -5.937156 17.817975 5.939325
Hg -2.967493 17.817975 8.908988
Hg 2.971832 -14.848313 -11.878650
Hg 2.971832 -17.817975 -8.908988
Hg 0.002169 -14.848313 -8.908988
Hg 0.002169 -17.817975 -5.939325
Hg 2.971832 -14.848313 -5.939325
Hg 2.971832 -17.817975 -2.969663
Hg 0.002169 -14.848313 -2.969663
Hg 0.002169 -17.817975 -0.000000
Hg 2.971832 -14.848313 -0.000000
Hg 2.971832 -17.817975 2.969663
Hg 0.002169 -14.848313 2.969663
Hg 0.002169 -17.817975 5.939325
Hg 2.971832 -14.848313 5.939325
Hg 2.971832 -17.817975 8.908988
Hg 0.002169 -14.848313 8.908988
Hg 2.971832 -14.848313 11.878650
Hg 2.971832 -8.908988 -17.817975
Hg 2.971832 -11.878650 -14.848313
Hg 0.002169 -8.908988 -14.848313
Hg 0.002169 -11.878650 -11.878650
Hg 2.971832 -8.908988 -11.878650
Hg 2.971832 -11.878650 -8.908988
Hg 0.002169 -8.908988 -8.908988
Hg 0.002169 -11.878650 -5.939325
Hg 2.971832 -8.908988 -5.939325
Hg 2.971832 -11.878650 -2.969663
Hg 0.002169 -8.908988 -2.969663
Hg 0.002169 -11.878650 -0.000000
Hg 2.971832 -8.908988 -0.000000
Hg 2.971832 -11.878650 2.969663
Hg 0.002169 -8.908988 2.969663
Hg 0.002169 -11.878650 5.939325
Hg 2.971832 -8.908988 5.939325
Hg 2.971832 -11.878650 8.908988
Hg 0.002169 -8.908988 8.908988
Hg 0.002169 -11.878650 11.878650
Hg 2.971832 -8.908988 11.878650
Hg 2.971832 -11.878650 14.848313
Hg 0.002169 -8.908988 14.848313
Hg 2.971832 -8.908988 17.817975
Hg 0.002169 -5.939325 -17.817975
Hg 2.971832 -2.969663 -17.817975
Hg 2.971832 -5.939325 -14.848313
Hg 0.002169 -2.969663 -14.848313
Hg 0.002169 -5.939325 -11.878650
Hg 2.971832 -2.969663 -11.878650
Hg 2.971832 -5.939325 -8.908988
Hg 0.002169 -2.969663 -8.908988
Hg 0.002169 -5.939325 -5.939325
Hg 2.971832 -2.969663 -5.939325
Hg 2.971832 -5.939325 -2.969663
Hg 0.002169 -2.969663 -2.969663
Hg 0.002169 -5.939325 -0.000000
Hg 2.971832 -2.969663 0.000000
Hg 2.971832 -5.939325 2.969663
Hg 0.002169 -2.969663 2.969663
Hg 0.002169 -5.939325 5.939325
Hg 2.971832 -2.969663 5.939325
Hg 2.971832 -5.939325 8.908988
Hg 0.002169 -2.969663 8.908988
Hg 0.002169 -5.939325 11.878650
Hg 2.971832 -2.969663 11.878650
Hg 2.971832 -5.939325 14.848313
Hg 0.002169 -2.969663 14.848313
Hg 0.002169 -5.939325 17.817975
Hg 2.971832 -2.969663 17.817975
Hg 0.002169 -0.000000 -17.817975
Hg 2.971832 2.969663 -17.817975
Hg 2.971832 -0.000000 -14.848313
Hg 0.002169 2.969663 -14.848313
Hg 0.002169 -0.000000 -11.878650
Hg 2.971832 2.969663 -11.878650
Hg 2.971832 -0.000000 -8.908988
Hg 0.002169 2.969663 -8.908988
Hg 0.002169 -0.000000 -5.939325
Hg 2.971832 2.969663 -5.939325
Hg 2.971832 -0.000000 -2.969663
Hg 0.002169 2.969663 -2.969663
Hg 0.002169 -0.000000 0.000000
Hg 2.971832 2.969663 0.000000
Hg 2.971832 -0.000000 2.969663
Hg 0.002169 2.969663 2.969663
Hg 0.002169 -0.000000 5.939325
Hg 2.971832 2.969663 5.939325
Hg 2.971832 -0.000000 8.908988
Hg 0.002169 2.969663 8.908988
Hg 0.002169 -0.000000 11.878650
Hg 2.971832 2.969663 11.878650
Hg 2.971832 -0.000000 14.848313
Hg 0.002169 2.969663 14.848313
Hg 0.002169 -0.000000 17.817975
Hg 2.971832 2.969663 17.817975
Hg 0.002169 5.939325 -17.817975
Hg 2.971832 8.908988 -17.817975
Hg 2.971832 5.939325 -14.848313
Hg 0.002169 8.908988 -14.848313
Hg 0.002169 5.939325 -11.878650
Hg 2.971832 8.908988 -11.878650
Hg 2.971832 5.939325 -8.908988
Hg 0.002169 8.908988 -8.908988
Hg 0.002169 5.939325 -5.939325
Hg 2.971832 8.908988 -5.939325
Hg 2.971832 5.939325 -2.969663
Hg 0.002169 8.908988 -2.969663
Hg 0.002169 5.939325 0.000000
Hg 2.971832 8.908988 0.000000
Hg 2.971832 5.939325 2.969663
Hg 0.002169 8.908988 2.969663
Hg 0.002169 5.939325 5.939325
Hg 2.971832 8.908988 5.939325
Hg 2.971832 5.939325 8.908988
Hg 0.002169 8.908988 8.908988
Hg 0.002169 5.939325 11.878650
Hg 2.971832 8.908988 11.878650
Hg 2.971832 5.939325 14.848313
Hg 0.002169 8.908988 14.848313
Hg 0.002169 5.939325 17.817975
Hg 2.971832 8.908988 17.817975
Hg 2.971832 11.878650 -14.848313
Hg 0.002169 11.878650 -11.878650
Hg 2.971832 14.848313 -11.878650
Hg 2.971832 11.878650 -8.908988
Hg 0.002169 14.848313 -8.908988
Hg 0.002169 11.878650 -5.939325
Hg 2.971832 14.848313 -5.939325
Hg 2.971832 11.878650 -2.969663
Hg 0.002169 14.848313 -2.969663
Hg 0.002169 11.878650 0.000000
Hg 2.971832 14.848313 0.000000
Hg 2.971832 11.878650 2.969663
Hg 0.002169 14.848313 2.969663
Hg 0.002169 11.878650 5.939325
Hg 2.971832 14.848313 5.939325
Hg 2.971832 11.878650 8.908988
Hg 0.002169 14.848313 8.908988
Hg 0.002169 11.878650 11.878650
Hg 2.971832 14.848313 11.878650
Hg 2.971832 11.878650 14.848313
Hg 2.971832 17.817975 -8.908988
Hg 0.002169 17.817975 -5.939325
Hg 2.971832 17.817975 -2.969663
Hg 0.002169 17.817975 0.000000
Hg 2.971832 17.817975 2.969663
Hg 0.002169 17.817975 5.939325
Hg 2.971832 17.817975 8.908988
Hg 5.941494 -17.817975 -5.939325
Hg 8.911157 -14.848313 -5.939325
Hg 8.911157 -17.817975 -2.969663
Hg 5.941494 -14.848313 -2.969663
Hg 5.941494 -17.817975 -0.000000
Hg 8.911157 -14.848313 -0.000000
Hg 8.911157 -17.817975 2.969663
Hg 5.941494 -14.848313 2.969663
Hg 5.941494 -17.817975 5.939325
Hg 5.941494 -14.848313 8.908988
Hg 5.941494 -8.908988 -14.848313
Hg 5.941494 -11.878650 -11.878650
Hg 8.911157 -11.878650 -8.908988
Hg 5.941494 -8.908988 -8.908988
Hg 5.941494 -11.878650 -5.939325
Hg 8.911157 -8.908988 -5.939325
Hg 8.911157 -11.878650 -2.969663
Hg 5.941494 -8.908988 -2.969663
Hg 5.941494 -11.878650 -0.000000
Hg 8.911157 -8.908988 0.000000
Hg 8.911157 -11.878650 2.969663
Hg 5.941494 -8.908988 2.969663
Hg 5.941494 -11.878650 5.939325
Hg 8.911157 -8.908988 5.939325
Hg 8.911157 -11.878650 8.908988
Hg 5.941494 -8.908988 8.908988
Hg 8.911157 -8.908988 11.878650
Hg 5.941494 -8.908988 14.848313
Hg 5.941494 -5.939325 -17.817975
Hg 8.911157 -2.969663 -17.817975
Hg 8.911157 -5.939325 -14.848313
Hg 5.941494 -2.969663 -14.848313
Hg 5.941494 -5.939325 -11.878650
Hg 8.911157 -2.969663 -11.878650
Hg 8.911157 -5.939325 -8.908988
Hg 5.941494 -2.969663 -8.908988
Hg 5.941494 -5.939325 -5.939325
Hg 8.911157 -2.969663 -5.939325
Hg 8.911157 -5.939325 -2.969663
Hg 5.941494 -2.969663 -2.969663
Hg 5.941494 -5.939325 0.000000
Hg 8.911157 -2.969663 0.000000
Hg 8.911157 -5.939325 2.969663
Hg 5.941494 -2.969663 2.969663
Hg 5.941494 -5.939325 5.939325
Hg 8.911157 -2.969663 5.939325
Hg 8.911157 -5.939325 8.908988
Hg 5.941494 -2.969663 8.908988
Hg 5.941494 -5.939325 11.878650
Hg 8.911157 -2.969663 11.878650
Hg 5.941494 -2.969663 14.848313
Hg 5.941494 -5.939325 17.817975
Hg 8.911157 -2.969663 17.817975
Hg 5.941494 -0.000000 -17.817975
Hg 8.911157 2.969663 -17.817975
Hg 8.911157 -0.000000 -14.848313
Hg 5.941494 2.969663 -14.848313
Hg 5.941494 -0.000000 -11.878650
Hg 8.911157 2.969663 -11.878650
Hg 8.911157 -0.000000 -8.908988
Hg 5.941494 2.969663 -8.908988
Hg 5.941494 -0.000000 -5.939325
Hg 8.911157 2.969663 -5.939325
Hg 8.911157 -0.000000 -2.969663
Hg 5.941494 2.969663 -2.969663
Hg 5.941494 -0.000000 0.000000
Hg 8.911157 2.969663 0.000000
Hg 8.911157 -0.000000 2.969663
Hg 5.941494 2.969663 2.969663
Hg 5.941494 -0.000000 5.939325
Hg 8.911157 2.969663 5.939325
Hg 8.911157 -0.000000 8.908988
Hg 5.941494 2.969663 8.908988
Hg 5.941494 -0.000000 11.878650
Hg 8.911157 2.969663 11.878650
Hg 8.911157 -0.000000 14.848313
Hg 5.941494 2.969663 14.848313
Hg 5.941494 -0.000000 17.817975
Hg 8.911157 2.969663 17.817975
Hg 5.941494 5.939325 -17.817975
Hg 5.941494 8.908988 -14.848313
Hg 5.941494 5.939325 -11.878650
Hg 8.911157 8.908988 -11.878650
Hg 8.911157 5.939325 -8.908988
Hg 5.941494 8.908988 -8.908988
Hg 5.941494 5.939325 -5.939325
Hg 8.911157 8.908988 -5.939325
Hg 8.911157 5.939325 -2.969663
Hg 5.941494 8.908988 -2.969663
Hg 5.941494 5.939325 0.000000
Hg 8.911157 8.908988 0.000000
Hg 8.911157 5.939325 2.969663
Hg 5.941494 8.908988 2.969663
Hg 5.941494 5.939325 5.939325
Hg 8.911157 8.908988 5.939325
Hg 8.911157 5.939325 8.908988
Hg 5.941494 8.908988 8.908988
Hg 5.941494 5.939325 11.878650
Hg 8.911157 5.939325 14.848313
Hg 5.941494 8.908988 14.848313
Hg 5.941494 5.939325 17.817975
Hg 8.911157 11.878650 -8.908988
Hg 5.941494 14.848313 -8.908988
Hg 5.941494 11.878650 -5.939325
Hg 8.911157 11.878650 -2.969663
Hg 5.941494 14.848313 -2.969663
Hg 5.941494 11.878650 0.000000
Hg 8.911157 14.848313 0.000000
Hg 8.911157 11.878650 2.969663
Hg 5.941494 14.848313 2.969663
Hg 5.941494 11.878650 5.939325
Hg 8.911157 14.848313 5.939325
Hg 8.911157 11.878650 8.908988
Hg 5.941494 11.878650 11.878650
Hg 5.941494 17.817975 -5.939325
Hg 8.911157 17.817975 -2.969663
Hg 5.941494 17.817975 0.000000
Hg 8.911157 17.817975 2.969663
Hg 5.941494 17.817975 5.939325
Hg 11.880819 -14.848313 -2.969663
Hg 11.880819 -14.848313 2.969663
Hg 11.880819 -8.908988 -8.908988
Hg 14.850482 -8.908988 -5.939325
Hg 14.850482 -11.878650 -2.969663
Hg 11.880819 -8.908988 -2.969663
Hg 11.880819 -11.878650 0.000000
Hg 14.850482 -8.908988 0.000000
Hg 14.850482 -11.878650 2.969663
Hg 11.880819 -8.908988 2.969663
Hg 11.880819 -11.878650 5.939325
Hg 14.850482 -8.908988 5.939325
Hg 11.880819 -2.969663 -14.848313
Hg 11.880819 -5.939325 -11.878650
Hg 14.850482 -2.969663 -11.878650
Hg 11.880819 -2.969663 -8.908988
Hg 11.880819 -5.939325 -5.939325
Hg 14.850482 -2.969663 -5.939325
Hg 14.850482 -5.939325 -2.969663
Hg 11.880819 -2.969663 -2.969663
Hg 11.880819 -5.939325 0.000000
Hg 14.850482 -2.969663 0.000000
Hg 14.850482 -5.939325 2.969663
Hg 11.880819 -2.969663 2.969663
Hg 11.880819 -5.939325 5.939325
Hg 14.850482 -2.969663 5.939325
Hg 14.850482 -5.939325 8.908988
Hg 11.880819 -2.969663 8.908988
Hg 11.880819 -5.939325 11.878650
Hg 14.850482 -2.969663 11.878650
Hg 11.880819 -2.969663 14.848313
Hg 11.880819 2.969663 -14.848313
Hg 11.880819 -0.000000 -11.878650
Hg 14.850482 2.969663 -11.878650
Hg 14.850482 -0.000000 -8.908988
Hg 11.880819 2.969663 -8.908988
Hg 11.880819 -0.000000 -5.939325
Hg 14.850482 2.969663 -5.939325
Hg 14.850482 -0.000000 -2.969663
Hg 11.880819 2.969663 -2.969663
Hg 11.880819 -0.000000 0.000000
Hg 14.850482 2.969663 0.000000
Hg 14.850482 -0.000000 2.969663
Hg 11.880819 2.969663 2.969663
Hg 11.880819 -0.000000 5.939325
Hg 14.850482 2.969663 5.939325
Hg 14.850482 -0.000000 8.908988
Hg 11.880819 2.969663 8.908988
Hg 11.880819 -0.000000 11.878650
Hg 14.850482 2.969663 11.878650
Hg 11.880819 2.969663 14.848313
Hg 11.880819 5.939325 -11.878650
Hg 14.850482 5.939325 -8.908988
Hg 11.880819 5.939325 -5.939325
Hg 14.850482 8.908988 -5.939325
Hg 14.850482 5.939325 -2.969663
Hg 11.880819 8.908988 -2.969663
Hg 11.880819 5.939325 0.000000
Hg 14.850482 8.908988 0.000000
Hg 14.850482 5.939325 2.969663
Hg 11.880819 8.908988 2.969663
Hg 11.880819 5.939325 5.939325
Hg 14.850482 8.908988 5.939325
Hg 11.880819 8.908988 8.908988
Hg 11.880819 5.939325 11.878650
Hg 11.880819 11.878650 -5.939325
Hg 14.850482 11.878650 -2.969663
Hg 11.880819 14.848313 -2.969663
Hg 11.880819 11.878650 0.000000
Hg 14.850482 11.878650 2.969663
Hg 11.880819 14.848313 2.969663
Hg 17.820144 -8.908988 -2.969663
Hg 17.820144 -8.908988 2.969663
Hg 17.820144 -2.969663 -8.908988
Hg 17.820144 -5.939325 -5.939325
Hg 17.820144 -2.969663 -2.969663
Hg 17.820144 -5.939325 0.000000
Hg 17.820144 -2.969663 2.969663
Hg 17.820144 -5.939325 5.939325
Hg 17.820144 -2.969663 8.908988
Hg 17.820144 2.969663 -8.908988
Hg 17.820144 -0.000000 -5.939325
Hg 17.820144 2.969663 -2.969663
Hg 17.820144 -0.000000 0.000000
Hg 17.820144 2.969663 2.969663
Hg 17.820144 -0.000000 5.939325
Hg 17.820144 2.969663 8.908988
Hg 17.820144 5.939325 -5.939325
Hg 17.820144 8.908988 -2.969663
Hg 17.820144 5.939325 0.000000
Hg 17.820144 8.908988 2.969663
Hg 17.820144 5.939325 5.939325
S -13.361312 -13.363481 -4.454494
S -13.361312 -13.363481 1.484831
S -16.330975 -7.424156 -1.484831
S -13.361312 -7.424156 -4.454494
S -13.361312 -10.393819 -1.484831
S -16.330975 -10.393819 1.484831
S -16.330975 -7.424156 4.454494
S -13.361312 -7.424156 1.484831
S -13.361312 -10.393819 4.454494
S -13.361312 -7.424156 7.424156
S -16.330975 -4.454494 -10.393819
S -16.330975 -1.484831 -7.424156
S -13.361312 -1.484831 -10.393819
S -13.361312 -4.454494 -7.424156
S -16.330975 -4.454494 -4.454494
S -16.330975 -1.484831 -1.484831
S -13.361312 -1.484831 -4.454494
S -13.361312 -4.454494 -1.484831
S -16.330975 -4.454494 1.484831
S -16.330975 -1.484831 4.454494
S -13.361312 -1.484831 1.484831
S -13.361312 -4.454494 4.454494
S -16.330975 -4.454494 7.424156
S -16.330975 -1.484831 10.393819
S -13.361312 -1.484831 7.424156
S -13.361312 -4.454494 10.393819
S -13.361312 -1.484831 13.363481
S -13.361312 1.484831 -13.363481
S -16.330975 1.484831 -10.393819
S -16.330975 4.454494 -7.424156
S -13.361312 4.454494 -10.393819
S -13.361312 1.484831 -7.424156
S -16.330975 1.484831 -4.454494
S -16.330975 4.454494 -1.484831
S -13.361312 4.454494 -4.454494
S -13.361312 1.484831 -1.484831
S -16.330975 1.484831 1.484831
S -16.330975 4.454494 4.454494
S -13.361312 4.454494 1.484831
S -13.361312 1.484831 4.454494
S -16.330975 1.484831 7.424156
S -16.330975 4.454494 10.393819
S -13.361312 4.454494 7.424156
S -13.361312 1.484831 10.393819
S -13.361312 7.424156 -7.424156
S -16.330975 7.424156 -4.454494
S -16.330975 10.393819 -1.484831
S -13.361312 10.393819 -4.454494
S -13.361312 7.424156 -1.484831
S -16.330975 7.424156 1.484831
S -13.361312 10.393819 1.484831
S -13.361312 7.424156 4.454494
S -13.361312 13.363481 -1.484831
S -13.361312 13.363481 4.454494
S -7.421987 -16.333144 -7.424156
S -10.391650 -13.363481 -1.484831
S -7.421987 -13.363481 -4.454494
S -7.421987 -16.333144 -1.484831
S -10.391650 -16.333144 1.484831
S -10.391650 -13.363481 4.454494
S -7.421987 -13.363481 1.484831
S -7.421987 -16.333144 4.454494
S -7.421987 -13.363481 7.424156
S -10.391650 -7.424156 -7.424156
S -7.421987 -7.424156 -10.393819
S -7.421987 -10.393819 -7.424156
S -10.391650 -10.393819 -4.454494
S -10.391650 -7.424156 -1.484831
S -7.421987 -7.424156 -4.454494
S -7.421987 -10.393819 -1.484831
S -10.391650 -10.393819 1.484831
S -10.391650 -7.424156 4.454494
S -7.421987 -7.424156 1.484831
S -7.421987 -10.393819 4.454494
S -10.391650 -10.393819 7.424156
S -10.391650 -7.424156 10.393819
S -7.421987 -7.424156 7.424156
S -7.421987 -10.393819 10.393819
S -7.421987 -7.424156 13.363481
S -10.391650 -4.454494 -16.333144
S -10.391650 -1.484831 -13.363481
S -7.421987 -1.484831 -16.333144
S -7.421987 -4.454494 -13.363481
S -10.391650 -4.454494 -10.393819
S -10.391650 -1.484831 -7.424156
S -7.421987 -1.484831 -10.393819
S -7.421987 -4.454494 -7.424156
S -10.391650 -4.454494 -4.454494
S -10.391650 -1.484831 -1.484831
S -7.421987 -1.484831 -4.454494
S -7.421987 -4.454494 -1.484831
S -10.391650 -4.454494 1.484831
S -10.391650 -1.484831 4.454494
S -7.421987 -1.484831 1.484831
S -7.421987 -4.454494 4.454494
S -10.391650 -4.454494 7.424156
S -10.391650 -1.484831 10.393819
S -7.421987 -1.484831 7.424156
S -7.421987 -4.454494 10.393819
S -10.391650 -4.454494 13.363481
S -10.391650 -1.484831 16.333144
S -7.421987 -1.484831 13.363481
S -7.421987 -4.454494 16.333144
S -10.391650 1.484831 -16.333144
S -10.391650 4.454494 -13.363481
S -7.421987 4.454494 -16.333144
S -7.421987 1.484831 -13.363481
S -10.391650 1.484831 -10.393819
S -10.391650 4.454494 -7.424156
S -7.421987 4.454494 -10.393819
S -7.421987 1.484831 -7.424156
S -10.391650 1.484831 -4.454494
S -10.391650 4.454494 -1.484831
S -7.421987 4.454494 -4.454494
S -7.421987 1.484831 -1.484831
S -10.391650 1.484831 1.484831
S -10.391650 4.454494 4.454494
S -7.421987 4.454494 1.484831
S -7.421987 1.484831 4.454494
S -10.391650 1.484831 7.424156
S -10.391650 4.454494 10.393819
S -7.421987 4.454494 7.424156
S -7.421987 1.484831 10.393819
S -10.391650 1.484831 13.363481
S -10.391650 4.454494 16.333144
S -7.421987 4.454494 13.363481
S -7.421987 1.484831 16.333144
S -7.421987 7.424156 -13.363481
S -10.391650 7.424156 -10.393819
S -10.391650 10.393819 -7.424156
S -7.421987 10.393819 -10.393819
S -7.421987 7.424156 -7.424156
S -10.391650 7.424156 -4.454494
S -10.391650 10.393819 -1.484831
S -7.421987 10.393819 -4.454494
S -7.421987 7.424156 -1.484831
S -10.391650 7.424156 1.484831
S -10.391650 10.393819 4.454494
S -7.421987 10.393819 1.484831
S -7.421987 7.424156 4.454494
S -10.391650 7.424156 7.424156
S -7.421987 10.393819 7.424156
S -7.421987 7.424156 10.393819
S -7.421987 13.363481 -7.424156
S -10.391650 13.363481 -4.454494
S -10.391650 16.333144 -1.484831
S -7.421987 16.333144 -4.454494
S -7.421987 13.363481 -1.484831
S -10.391650 13.363481 1.484831
S -7.421987 16.333144 1.484831
S -7.421987 13.363481 4.454494
S -7.421987 16.333144 7.424156
S -4.452325 -13.363481 -13.363481
S -4.452325 -13.363481 -7.424156
S -1.482662 -13.363481 -10.393819
S -1.482662 -16.333144 -7.424156
S -4.452325 -16.333144 -4.454494
S -4.452325 -13.363481 -1.484831
S -1.482662 -13.363481 -4.454494
S -1.482662 -16.333144 -1.484831
S -4.452325 -16.333144 1.484831
S -4.452325 -13.363481 4.454494
S -1.482662 -13.363481 1.484831
S -1.482662 -16.333144 4.454494
S -4.452325 -16.333144 7.424156
S -4.452325 -13.363481 10.393819
S -1.482662 -13.363481 7.424156
S -1.482662 -16.333144 10.393819
S -1.482662 -13.363481 13.363481
S -4.452325 -7.424156 -13.363481
S -1.482662 -7.424156 -16.333144
S -1.482662 -10.393819 -13.363481
S -4.452325 -10.393819 -10.393819
S -4.452325 -7.424156 -7.424156
S -1.482662 -7.424156 -10.393819
S -1.482662 -10.393819 -7.424156
S -4.452325 -10.393819 -4.454494
S -4.452325 -7.424156 -1.484831
S -1.482662 -7.424156 -4.454494
S -1.482662 -10.393819 -1.484831
S -4.452325 -10.393819 1.484831
S -4.452325 -7.424156 4.454494
S -1.482662 -7.424156 1.484831
S -1.482662 -10.393819 4.454494
S -4.452325 -10.393819 7.424156
S -4.452325 -7.424156 10.393819
S -1.482662 -7.424156 7.424156
S -1.482662 -10.393819 10.393819
S -4.452325 -10.393819 13.363481
S -4.452325 -7.424156 16.333144
S -1.482662 -7.424156 13.363481
S -1.482662 -10.393819 16.333144
S -4.452325 -4.454494 -16.333144
S -4.452325 -1.484831 -13.363481
S -1.482662 -1.484831 -16.333144
S -1.482662 -4.454494 -13.363481
S -4.452325 -4.454494 -10.393819
S -4.452325 -1.484831 -7.424156
S -1.482662 -1.484831 -10.393819
S -1.482662 -4.454494 -7.424156
S -4.452325 -4.454494 -4.454494
S -4.452325 -1.484831 -1.484831
S -1.482662 -1.484831 -4.454494
S -1.482662 -4.454494 -1.484831
S -4.452325 -4.454494 1.484831
S -4.452325 -1.484831 4.454494
S -1.482662 -1.484831 1.484831
S -1.482662 -4.454494 4.454494
S -4.452325 -4.454494 7.424156
S -4.452325 -1.484831 10.393819
S -1.482662 -1.484831 7.424156
S -1.482662 -4.454494 10.393819
S -4.452325 -4.454494 13.363481
S -4.452325 -1.484831 16.333144
S -1.482662 -1.484831 13.363481
S -1.482662 -4.454494 16.333144
S -4.452325 1.484831 -16.333144
S -4.452325 4.454494 -13.363481
S -1.482662 4.454494 -16.333144
S -1.482662 1.484831 -13.363481
S -4.452325 1.484831 -10.393819
S -4.452325 4.454494 -7.424156
S -1.482662 4.454494 -10.393819
S -1.482662 1.484831 -7.424156
S -4.452325 1.484831 -4.454494
S -4.452325 4.454494 -1.484831
S -1.482662 4.454494 -4.454494
S -1.482662 1.484831 -1.484831
S -4.452325 1.484831 1.484831
S -4.452325 4.454494 4.454494
S -1.482662 4.454494 1.484831
S -1.482662 1.484831 4.454494
S -4.452325 1.484831 7.424156
S -4.452325 4.454494 10.393819
S -1.482662 4.454494 7.424156
S -1.482662 1.484831 10.393819
S -4.452325 1.484831 13.363481
S -4.452325 4.454494 16.333144
S -1.482662 4.454494 13.363481
S -1.482662 1.484831 16.333144
S -4.452325 7.424156 -16.333144
S -4.452325 10.393819 -13.363481
S -1.482662 10.393819 -16.333144
S -1.482662 7.424156 -13.363481
S -4.452325 7.424156 -10.393819
S -4.452325 10.393819 -7.424156
S -1.482662 10.393819 -10.393819
S -1.482662 7.424156 -7.424156
S -4.452325 7.424156 -4.454494
S -4.452325 10.393819 -1.484831
S -1.482662 10.393819 -4.454494
S -1.482662 7.424156 -1.484831
S -4.452325 7.424156 1.484831
S -4.452325 10.393819 4.454494
S -1.482662 10.393819 1.484831
S -1.482662 7.424156 4.454494
S -4.452325 7.424156 7.424156
S -4.452325 10.393819 10.393819
S -1.482662 10.393819 7.424156
S -1.482662 7.424156 10.393819
S -4.452325 7.424156 13.363481
S -1.482662 10.393819 13.363481
S -1.482662 7.424156 16.333144
S -1.482662 13.363481 -13.363481
S -4.452325 13.363481 -10.393819
S -4.452325 16.333144 -7.424156
S -1.482662 16.333144 -10.393819
S -1.482662 13.363481 -7.424156
S -4.452325 13.363481 -4.454494
S -4.452325 16.333144 -1.484831
S -1.482662 16.333144 -4.454494
S -1.482662 13.363481 -1.484831
S -4.452325 13.363481 1.484831
S -4.452325 16.333144 4.454494
S -1.482662 16.333144 1.484831
S -1.482662 13.363481 4.454494
S -4.452325 13.363481 7.424156
S -1.482662 16.333144 7.424156
S -1.482662 13.363481 10.393819
S -4.452325 13.363481 13.363481
S 1.487000 -13.363481 -13.363481
S 1.487000 -16.333144 -10.393819
S 1.487000 -13.363481 -7.424156
S 4.456663 -13.363481 -10.393819
S 4.456663 -16.333144 -7.424156
S 1.487000 -16.333144 -4.454494
S 1.487000 -13.363481 -1.484831
S 4.456663 -13.363481 -4.454494
S 4.456663 -16.333144 -1.484831
S 1.487000 -16.333144 1.484831
S 1.487000 -13.363481 4.454494
S 4.456663 -13.363481 1.484831
S 4.456663 -16.333144 4.454494
S 1.487000 -16.333144 7.424156
S 1.487000 -13.363481 10.393819
S 4.456663 -13.363481 7.424156
S 4.456663 -16.333144 10.393819
S 1.487000 -10.393819 -16.333144
S 1.487000 -7.424156 -13.363481
S 4.456663 -7.424156 -16.333144
S 4.456663 -10.393819 -13.363481
S 1.487000 -10.393819 -10.393819
S 1.487000 -7.424156 -7.424156
S 4.456663 -7.424156 -10.393819
S 4.456663 -10.393819 -7.424156
S 1.487000 -10.393819 -4.454494
S 1.487000 -7.424156 -1.484831
S 4.456663 -7.424156 -4.454494
S 4.456663 -10.393819 -1.484831
S 1.487000 -10.393819 1.484831
S 1.487000 -7.424156 4.454494
S 4.456663 -7.424156 1.484831
S 4.456663 -10.393819 4.454494
S 1.487000 -10.393819 7.424156
S 1.487000 -7.424156 10.393819
S 4.456663 -7.424156 7.424156
S 4.456663 -10.393819 10.393819
S 1.487000 -10.393819 13.363481
S 1.487000 -7.424156 16.333144
S 4.456663 -7.424156 13.363481
S 4.456663 -10.393819 16.333144
S 1.487000 -4.454494 -16.333144
S 1.487000 -1.484831 -13.363481
S 4.456663 -1.484831 -16.333144
S 4.456663 -4.454494 -13.363481
S 1.487000 -4.454494 -10.393819
S 1.487000 -1.484831 -7.424156
S 4.456663 -1.484831 -10.393819
S 4.456663 -4.454494 -7.424156
S 1.487000 -4.454494 -4.454494
S 1.487000 -1.484831 -1.484831
S 4.456663 -1.484831 -4.454494
S 4.456663 -4.454494 -1.484831
S 1.487000 -4.454494 1.484831
S 1.487000 -1.484831 4.454494
S 4.456663 -1.484831 1.484831
S 4.456663 -4.454494 4.454494
S 1.487000 -4.454494 7.424156
S 1.487000 -1.484831 10.393819
S 4.456663 -1.484831 7.424156
S 4.456663 -4.454494 10.393819
S 1.487000 -4.454494 13.363481
S 1.487000 -1.484831 16.333144
S 4.456663 -1.484831 13.363481
S 4.456663 -4.454494 16.333144
S 1.487000 1.484831 -16.333144
S 1.487000 4.454494 -13.363481
S 4.456663 4.454494 -16.333144
S 4.456663 1.484831 -13.363481
S 1.487000 1.484831 -10.393819
S 1.487000 4.454494 -7.424156
S 4.456663 4.454494 -10.393819
S 4.456663 1.484831 -7.424156
S 1.487000 1.484831 -4.454494
S 1.487000 4.454494 -1.484831
S 4.456663 4.454494 -4.454494
S 4.456663 1.484831 -1.484831
S 1.487000 1.484831 1.484831
S 1.487000 4.454494 4.454494
S 4.456663 4.454494 1.484831
S 4.456663 1.484831 4.454494
S 1.487000 1.484831 7.424156
S 1.487000 4.454494 10.393819
S 4.456663 4.454494 7.424156
S 4.456663 1.484831 10.393819
S 1.487000 1.484831 13.363481
S 1.487000 4.454494 16.333144
S 4.456663 4.454494 13.363481
S 4.456663 1.484831 16.333144
S 1.487000 7.424156 -16.333144
S 1.487000 10.393819 -13.363481
S 4.456663 10.393819 -16.333144
S 4.456663 7.424156 -13.363481
S 1.487000 7.424156 -10.393819
S 1.487000 10.393819 -7.424156
S 4.456663 10.393819 -10.393819
S 4.456663 7.424156 -7.424156
S 1.487000 7.424156 -4.454494
S 1.487000 10.393819 -1.484831
S 4.456663 10.393819 -4.454494
S 4.456663 7.424156 -1.484831
S 1.487000 7.424156 1.484831
S 1.487000 10.393819 4.454494
S 4.456663 10.393819 1.484831
S 4.456663 7.424156 4.454494
S 1.487000 7.424156 7.424156
S 1.487000 10.393819 10.393819
S 4.456663 10.393819 7.424156
S 4.456663 7.424156 10.393819
S 1.487000 7.424156 13.363481
S 1.487000 10.393819 16.333144
S 4.456663 10.393819 13.363481
S 4.456663 7.424156 16.333144
S 1.487000 13.363481 -10.393819
S 1.487000 16.333144 -7.424156
S 4.456663 16.333144 -10.393819
S 4.456663 13.363481 -7.424156
S 1.487000 13.363481 -4.454494
S 1.487000 16.333144 -1.484831
S 4.456663 16.333144 -4.454494
S 4.456663 13.363481 -1.484831
S 1.487000 13.363481 1.484831
S 1.487000 16.333144 4.454494
S 4.456663 16.333144 1.484831
S 4.456663 13.363481 4.454494
S 1.487000 13.363481 7.424156
S 1.487000 16.333144 10.393819
S 4.456663 16.333144 7.424156
S 4.456663 13.363481 10.393819
S 1.487000 13.363481 13.363481
S 7.426326 -13.363481 -7.424156
S 7.426326 -16.333144 -4.454494
S 7.426326 -13.363481 -1.484831
S 10.395988 -13.363481 -4.454494
S 10.395988 -16.333144 -1.484831
S 7.426326 -16.333144 1.484831
S 7.426326 -13.363481 4.454494
S 10.395988 -13.363481 1.484831
S 7.426326 -7.424156 -13.363481
S 7.426326 -10.393819 -10.393819
S 7.426326 -7.424156 -7.424156
S 10.395988 -7.424156 -10.393819
S 10.395988 -10.393819 -7.424156
S 7.426326 -10.393819 -4.454494
S 7.426326 -7.424156 -1.484831
S 10.395988 -7.424156 -4.454494
S 10.395988 -10.393819 -1.484831
S 7.426326 -10.393819 1.484831
S 7.426326 -7.424156 4.454494
S 10.395988 -7.424156 1.484831
S 10.395988 -10.393819 4.454494
S 7.426326 -10.393819 7.424156
S 7.426326 -7.424156 10.393819
S 10.395988 -7.424156 7.424156
S 7.426326 -4.454494 -16.333144
S 7.426326 -1.484831 -13.363481
S 10.395988 -1.484831 -16.333144
S 10.395988 -4.454494 -13.363481
S 7.426326 -4.454494 -10.393819
S 7.426326 -1.484831 -7.424156
S 10.395988 -1.484831 -10.393819
S 10.395988 -4.454494 -7.424156
S 7.426326 -4.454494 -4.454494
S 7.426326 -1.484831 -1.484831
S 10.395988 -1.484831 -4.454494
S 10.395988 -4.454494 -1.484831
S 7.426326 -4.454494 1.484831
S 7.426326 -1.484831 4.454494
S 10.395988 -1.484831 1.484831
S 10.395988 -4.454494 4.454494
S 7.426326 -4.454494 7.424156
S 7.426326 -1.484831 10.393819
S 10.395988 -1.484831 7.424156
S 10.395988 -4.454494 10.393819
S 7.426326 -4.454494 13.363481
S 7.426326 -1.484831 16.333144
S 10.395988 -1.484831 13.363481
S 7.426326 1.484831 -16.333144
S 7.426326 4.454494 -13.363481
S 10.395988 1.484831 -13.363481
S 7.426326 1.484831 -10.393819
S 7.426326 4.454494 -7.424156
S 10.395988 4.454494 -10.393819
S 10.395988 1.484831 -7.424156
S 7.426326 1.484831 -4.454494
S 7.426326 4.454494 -1.484831
S 10.395988 4.454494 -4.454494
S 10.395988 1.484831 -1.484831
S 7.426326 1.484831 1.484831
S 7.426326 4.454494 4.454494
S 10.395988 4.454494 1.484831
S 10.395988 1.484831 4.454494
S 7.426326 1.484831 7.424156
S 7.426326 4.454494 10.393819
S 10.395988 4.454494 7.424156
S 10.395988 1.484831 10.393819
S 7.426326 1.484831 13.363481
S 7.426326 4.454494 16.333144
S 10.395988 4.454494 13.363481
S 10.395988 1.484831 16.333144
S 7.426326 7.424156 -10.393819
S 7.426326 10.393819 -7.424156
S 10.395988 7.424156 -7.424156
S 7.426326 7.424156 -4.454494
S 7.426326 10.393819 -1.484831
S 10.395988 10.393819 -4.454494
S 10.395988 7.424156 -1.484831
S 7.426326 7.424156 1.484831
S 7.426326 10.393819 4.454494
S 10.395988 10.393819 1.484831
S 10.395988 7.424156 4.454494
S 7.426326 7.424156 7.424156
S 7.426326 10.393819 10.393819
S 10.395988 10.393819 7.424156
S 10.395988 7.424156 10.393819
S 7.426326 7.424156 13.363481
S 7.426326 13.363481 -4.454494
S 7.426326 16.333144 -1.484831
S 10.395988 13.363481 -1.484831
S 7.426326 13.363481 1.484831
S 7.426326 16.333144 4.454494
S 10.395988 16.333144 1.484831
S 10.395988 13.363481 4.454494
S 7.426326 13.363481 7.424156
S 13.365651 -13.363481 -1.484831
S 13.365651 -13.363481 4.454494
S 13.365651 -7.424156 -7.424156
S 13.365651 -10.393819 -4.454494
S 13.365651 -7.424156 -1.484831
S 16.335313 -7.424156 -4.454494
S 16.335313 -10.393819 -1.484831
S 13.365651 -10.393819 1.484831
S 13.365651 -7.424156 4.454494
S 16.335313 -7.424156 1.484831
S 16.335313 -7.424156 7.424156
S 13.365651 -1.484831 -13.363481
S 13.365651 -4.454494 -10.393819
S 13.365651 -1.484831 -7.424156
S 16.335313 -1.484831 -10.393819
S 16.335313 -4.454494 -7.424156
S 13.365651 -4.454494 -4.454494
S 13.365651 -1.484831 -1.484831
S 16.335313 -1.484831 -4.454494
S 16.335313 -4.454494 -1.484831
S 13.365651 -4.454494 1.484831
S 13.365651 -1.484831 4.454494
S 16.335313 -1.484831 1.484831
S 16.335313 -4.454494 4.454494
S 13.365651 -4.454494 7.424156
S 13.365651 -1.484831 10.393819
S 16.335313 -1.484831 7.424156
S 13.365651 -4.454494 13.363481
S 13.365651 4.454494 -13.363481
S 13.365651 1.484831 -10.393819
S 13.365651 4.454494 -7.424156
S 16.335313 1.484831 -7.424156
S 13.365651 1.484831 -4.454494
S 13.365651 4.454494 -1.484831
S 16.335313 4.454494 -4.454494
S 16.335313 1.484831 -1.484831
S 13.365651 1.484831 1.484831
S 13.365651 4.454494 4.454494
S 16.335313 4.454494 1.484831
S 16.335313 1.484831 4.454494
S 13.365651 1.484831 7.424156
S 13.365651 4.454494 10.393819
S 16.335313 4.454494 7.424156
S 16.335313 1.484831 10.393819
S 13.365651 1.484831 13.363481
S 16.335313 7.424156 -7.424156
S 13.365651 7.424156 -4.454494
S 13.365651 10.393819 -1.484831
S 16.335313 7.424156 -1.484831
S 13.365651 7.424156 1.484831
S 13.365651 10.393819 4.454494
S 16.335313 10.393819 1.484831
S 16.335313 7.424156 4.454494
S 13.365651 7.424156 7.424156
S 13.365651 13.363481 -4.454494
S 13.365651 13.363481 1.484831
Cl -19.300637 -7.424156 -4.454494
Cl -19.300637 -7.424156 1.484831
Cl -19.300637 -4.454494 -7.424156
Cl -19.300637 -1.484831 -4.454494
Cl -19.300637 -4.454494 -1.484831
Cl -19.300637 -1.484831 1.484831
Cl -19.300637 -4.454494 4.454494
Cl -19.300637 -1.484831 7.424156
Cl -19.300637 1.484831 -7.424156
Cl -19.300637 4.454494 -4.454494
Cl -19.300637 1.484831 -1.484831
Cl -19.300637 4.454494 1.484831
Cl -19.300637 1.484831 4.454494
Cl -19.300637 4.454494 7.424156
Cl -19.300637 7.424156 -1.484831
Cl -19.300637 7.424156 4.454494
Cl -16.330975 -7.424156 -7.424156
Cl -13.361312 -7.424156 -10.393819
Cl -13.361312 -10.393819 -7.424156
Cl -16.330975 -10.393819 -4.454494
Cl -13.361312 -4.454494 -13.363481
Cl -13.361312 4.454494 13.363481
Cl -16.330975 10.393819 4.454494
Cl -16.330975 7.424156 7.424156
Cl -13.361312 10.393819 7.424156
Cl -13.361312 7.424156 10.393819
Cl -7.421987 -19.302806 -4.454494
Cl -7.421987 -19.302806 1.484831
Cl -10.391650 -13.363481 -7.424156
Cl -7.421987 -13.363481 -10.393819
Cl -10.391650 -16.333144 -4.454494
Cl -10.391650 -7.424156 -13.363481
Cl -7.421987 -7.424156 -16.333144
Cl -7.421987 -10.393819 -13.363481
Cl -10.391650 -10.393819 -10.393819
Cl -7.421987 -4.454494 -19.302806
Cl -7.421987 -1.484831 19.302806
Cl -7.421987 1.484831 -19.302806
Cl -7.421987 4.454494 19.302806
Cl -10.391650 10.393819 10.393819
Cl -10.391650 7.424156 13.363481
Cl -7.421987 10.393819 13.363481
Cl -7.421987 7.424156 16.333144
Cl -10.391650 16.333144 4.454494
Cl -10.391650 13.363481 7.424156
Cl -7.421987 13.363481 10.393819
Cl -7.421987 19.302806 -1.484831
Cl -7.421987 19.302806 4.454494
Cl -4.452325 -19.302806 -7.424156
Cl -4.452325 -19.302806 -1.484831
Cl -1.482662 -19.302806 -4.454494
Cl -4.452325 -19.302806 4.454494
Cl -1.482662 -19.302806 1.484831
Cl -1.482662 -19.302806 7.424156
Cl -4.452325 -16.333144 -10.393819
Cl -4.452325 -7.424156 -19.302806
Cl -4.452325 -10.393819 -16.333144
Cl -1.482662 -7.424156 19.302806
Cl -4.452325 -1.484831 -19.302806
Cl -1.482662 -4.454494 -19.302806
Cl -4.452325 -4.454494 19.302806
Cl -1.482662 -1.484831 19.302806
Cl -4.452325 4.454494 -19.302806
Cl -1.482662 1.484831 -19.302806
Cl -4.452325 1.484831 19.302806
Cl -1.482662 4.454494 19.302806
Cl -1.482662 7.424156 -19.302806
Cl -4.452325 10.393819 16.333144
Cl -4.452325 7.424156 19.302806
Cl -4.452325 16.333144 10.393819
Cl -1.482662 19.302806 -7.424156
Cl -4.452325 19.302806 -4.454494
Cl -1.482662 19.302806 -1.484831
Cl -4.452325 19.302806 1.484831
Cl -1.482662 19.302806 4.454494
Cl -4.452325 19.302806 7.424156
Cl 1.487000 -19.302806 -7.424156
Cl 1.487000 -19.302806 -1.484831
Cl 4.456663 -19.302806 -4.454494
Cl 1.487000 -19.302806 4.454494
Cl 4.456663 -19.302806 1.484831
Cl 4.456663 -19.302806 7.424156
Cl 4.456663 -13.363481 13.363481
Cl 1.487000 -7.424156 -19.302806
Cl 4.456663 -7.424156 19.302806
Cl 1.487000 -1.484831 -19.302806
Cl 4.456663 -4.454494 -19.302806
Cl 1.487000 -4.454494 19.302806
Cl 4.456663 -1.484831 19.302806
Cl 1.487000 4.454494 -19.302806
Cl 4.456663 1.484831 -19.302806
Cl 1.487000 1.484831 19.302806
Cl 4.456663 4.454494 19.302806
Cl 4.456663 7.424156 -19.302806
Cl 1.487000 7.424156 19.302806
Cl 4.456663 13.363481 -13.363481
Cl 4.456663 19.302806 -7.424156
Cl 1.487000 19.302806 -4.454494
Cl 4.456663 19.302806 -1.484831
Cl 1.487000 19.302806 1.484831
Cl 4.456663 19.302806 4.454494
Cl 1.487000 19.302806 7.424156
Cl 7.426326 -19.302806 -1.484831
Cl 7.426326 -19.302806 4.454494
Cl 10.395988 -16.333144 4.454494
Cl 7.426326 -16.333144 7.424156
Cl 7.426326 -13.363481 10.393819
Cl 10.395988 -13.363481 7.424156
Cl 10.395988 -10.393819 10.393819
Cl 7.426326 -10.393819 13.363481
Cl 7.426326 -7.424156 16.333144
Cl 10.395988 -7.424156 13.363481
Cl 7.426326 -1.484831 -19.302806
Cl 10.395988 -4.454494 16.333144
Cl 7.426326 -4.454494 19.302806
Cl 7.426326 4.454494 -19.302806
Cl 10.395988 4.454494 -16.333144
Cl 7.426326 1.484831 19.302806
Cl 7.426326 7.424156 -16.333144
Cl 7.426326 10.393819 -13.363481
Cl 10.395988 7.424156 -13.363481
Cl 10.395988 10.393819 -10.393819
Cl 7.426326 13.363481 -10.393819
Cl 7.426326 16.333144 -7.424156
Cl 10.395988 13.363481 -7.424156
Cl 10.395988 16.333144 -4.454494
Cl 7.426326 19.302806 -4.454494
Cl 7.426326 19.302806 1.484831
Cl 16.335313 -10.393819 4.454494
Cl 13.365651 -10.393819 7.424156
Cl 13.365651 -7.424156 10.393819
Cl 16.335313 -4.454494 10.393819
Cl 16.335313 4.454494 -10.393819
Cl 13.365651 7.424156 -10.393819
Cl 13.365651 10.393819 -7.424156
Cl 16.335313 10.393819 -4.454494
Cl 19.304976 -7.424156 -1.484831
Cl 19.304976 -7.424156 4.454494
Cl 19.304976 -1.484831 -7.424156
Cl 19.304976 -4.454494 -4.454494
Cl 19.304976 -1.484831 -1.484831
Cl 19.304976 -4.454494 1.484831
Cl 19.304976 -1.484831 4.454494
Cl 19.304976 -4.454494 7.424156
Cl 19.304976 4.454494 -7.424156
Cl 19.304976 1.484831 -4.454494
Cl 19.304976 4.454494 -1.484831
Cl 19.304976 1.484831 1.484831
Cl 19.304976 4.454494 4.454494
Cl 19.304976 1.484831 7.424156
Cl 19.304976 7.424156 -4.454494
Cl 19.304976 7.424156 1.484831
Cl -10.391650 -16.333144 4.454494
Cl -10.391650 4.454494 -16.333144
Cl 4.456663 -10.393819 -16.333144
Cl 4.456663 10.393819 16.333144
Cl -10.391650 -4.454494 16.333144
Cl -10.391650 16.333144 -4.454494
Cl 16.335313 -10.393819 -4.454494
Cl 16.335313 10.393819 4.454494
Cl -4.452325 -13.363481 13.363481
Cl -4.452325 13.363481 -13.363481
Cl 13.365651 -4.454494 -13.363481
Cl 13.365651 4.454494 13.363481
Cl -16.330975 -4.454494 10.393819
Cl -16.330975 10.393819 -4.454494
