9137
CdSe-Cd-Cd4494Se4345Cl298-reconstructed
Cd -39.112865 -0.065360 -27.973753
Cd -39.112865 -0.065360 -20.883913
Cd -39.112865 -0.065360 -13.794073
Cd -39.112865 -0.065360 -6.704233
Cd -39.112865 -0.065360 0.385607
Cd -39.112865 -0.065360 7.475447
Cd -39.112865 -0.065360 14.565287
Cd -39.112865 -0.065360 21.655127
Cd -39.112865 -0.065360 28.744967
Cd -17.382439 -32.685136 -31.518672
Cd -17.382439 -32.685136 -24.428833
Cd -15.209396 -33.939743 -27.973753
Cd -17.382439 -32.685136 -17.338993
Cd -15.209396 -33.939743 -20.883913
Cd -17.382439 -32.685136 -10.249153
Cd -15.209396 -33.939743 -13.794073
Cd -17.382439 -32.685136 -3.159313
Cd -15.209396 -33.939743 -6.704233
Cd -17.382439 -32.685136 3.930527
Cd -15.209396 -33.939743 0.385607
Cd -17.382439 -32.685136 11.020367
Cd -15.209396 -33.939743 7.475447
Cd -17.382439 -32.685136 18.110207
Cd -15.209396 -33.939743 14.565287
Cd -17.382439 -32.685136 25.200047
Cd -15.209396 -33.939743 21.655127
Cd -15.209396 -33.939743 28.744967
Cd -19.555481 -28.921316 -31.518672
Cd -19.555481 -28.921316 -24.428833
Cd -17.382439 -30.175923 -27.973753
Cd -19.555481 -28.921316 -17.338993
Cd -17.382439 -30.175923 -20.883913
Cd -19.555481 -28.921316 -10.249153
Cd -17.382439 -30.175923 -13.794073
Cd -19.555481 -28.921316 -3.159313
Cd -17.382439 -30.175923 -6.704233
Cd -19.555481 -28.921316 3.930527
Cd -17.382439 -30.175923 0.385607
Cd -19.555481 -28.921316 11.020367
Cd -17.382439 -30.175923 7.475447
Cd -19.555481 -28.921316 18.110207
Cd -17.382439 -30.175923 14.565287
Cd -19.555481 -28.921316 25.200047
Cd -17.382439 -30.175923 21.655127
Cd -17.382439 -30.175923 28.744967
Cd -21.728524 -25.157496 -31.518672
Cd -21.728524 -25.157496 -24.428833
Cd -19.555481 -26.412102 -27.973753
Cd -21.728524 -25.157496 -17.338993
Cd -19.555481 -26.412102 -20.883913
Cd -21.728524 -25.157496 -10.249153
Cd -19.555481 -26.412102 -13.794073
Cd -21.728524 -25.157496 -3.159313
Cd -19.555481 -26.412102 -6.704233
Cd -21.728524 -25.157496 3.930527
Cd -19.555481 -26.412102 0.385607
Cd -21.728524 -25.157496 11.020367
Cd -19.555481 -26.412102 7.475447
Cd -21.728524 -25.157496 18.110207
Cd -19.555481 -26.412102 14.565287
Cd -21.728524 -25.157496 25.200047
Cd -19.555481 -26.412102 21.655127
Cd -19.555481 -26.412102 28.744967
Cd -23.901567 -21.393675 -31.518672
Cd -23.901567 -21.393675 -24.428833
Cd -21.728524 -22.648282 -27.973753
Cd -23.901567 -21.393675 -17.338993
Cd -21.728524 -22.648282 -20.883913
Cd -23.901567 -21.393675 -10.249153
Cd -21.728524 -22.648282 -13.794073
Cd -23.901567 -21.393675 -3.159313
Cd -21.728524 -22.648282 -6.704233
Cd -23.901567 -21.393675 3.930527
Cd -21.728524 -22.648282 0.385607
Cd -23.901567 -21.393675 11.020367
Cd -21.728524 -22.648282 7.475447
Cd -23.901567 -21.393675 18.110207
Cd -21.728524 -22.648282 14.565287
Cd -23.901567 -21.393675 25.200047
Cd -21.728524 -22.648282 21.655127
Cd -21.728524 -22.648282 28.744967
Cd -26.074609 -17.629855 -31.518672
Cd -26.074609 -17.629855 -24.428833
Cd -23.901567 -18.884462 -27.973753
Cd -26.074609 -17.629855 -17.338993
Cd -23.901567 -18.884462 -20.883913
Cd -26.074609 -17.629855 -10.249153
Cd -23.901567 -18.884462 -13.794073
Cd -26.074609 -17.629855 -3.159313
Cd -23.901567 -18.884462 -6.704233
Cd -26.074609 -17.629855 3.930527
Cd -23.901567 -18.884462 0.385607
Cd -26.074609 -17.629855 11.020367
Cd -23.901567 -18.884462 7.475447
Cd -26.074609 -17.629855 18.110207
Cd -23.901567 -18.884462 14.565287
Cd -26.074609 -17.629855 25.200047
Cd -23.901567 -18.884462 21.655127
Cd -23.901567 -18.884462 28.744967
Cd -28.247652 -13.866035 -31.518672
Cd -28.247652 -13.866035 -24.428833
Cd -26.074609 -15.120641 -27.973753
Cd -28.247652 -13.866035 -17.338993
Cd -26.074609 -15.120641 -20.883913
Cd -28.247652 -13.866035 -10.249153
Cd -26.074609 -15.120641 -13.794073
Cd -28.247652 -13.866035 -3.159313
Cd -26.074609 -15.120641 -6.704233
Cd -28.247652 -13.866035 3.930527
Cd -26.074609 -15.120641 0.385607
Cd -28.247652 -13.866035 11.020367
Cd -26.074609 -15.120641 7.475447
Cd -28.247652 -13.866035 18.110207
Cd -26.074609 -15.120641 14.565287
Cd -28.247652 -13.866035 25.200047
Cd -26.074609 -15.120641 21.655127
Cd -26.074609 -15.120641 28.744967
Cd -30.420695 -10.102214 -31.518672
Cd -30.420695 -10.102214 -24.428833
Cd -28.247652 -11.356821 -27.973753
Cd -30.420695 -10.102214 -17.338993
Cd -28.247652 -11.356821 -20.883913
Cd -30.420695 -10.102214 -10.249153
Cd -28.247652 -11.356821 -13.794073
Cd -30.420695 -10.102214 -3.159313
Cd -28.247652 -11.356821 -6.704233
Cd -30.420695 -10.102214 3.930527
Cd -28.247652 -11.356821 0.385607
Cd -30.420695 -10.102214 11.020367
Cd -28.247652 -11.356821 7.475447
Cd -30.420695 -10.102214 18.110207
Cd -28.247652 -11.356821 14.565287
Cd -30.420695 -10.102214 25.200047
Cd -28.247652 -11.356821 21.655127
Cd -28.247652 -11.356821 28.744967
Cd -32.593737 -6.338394 -31.518672
Cd -32.593737 -6.338394 -24.428833
Cd -30.420695 -7.593001 -27.973753
Cd -32.593737 -6.338394 -17.338993
Cd -30.420695 -7.593001 -20.883913
Cd -32.593737 -6.338394 -10.249153
Cd -30.420695 -7.593001 -13.794073
Cd -32.593737 -6.338394 -3.159313
Cd -30.420695 -7.593001 -6.704233
Cd -32.593737 -6.338394 3.930527
Cd -30.420695 -7.593001 0.385607
Cd -32.593737 -6.338394 11.020367
Cd -30.420695 -7.593001 7.475447
Cd -32.593737 -6.338394 18.110207
Cd -30.420695 -7.593001 14.565287
Cd -32.593737 -6.338394 25.200047
Cd -30.420695 -7.593001 21.655127
Cd -30.420695 -7.593001 28.744967
Cd -34.766780 -2.574574 -31.518672
Cd -34.766780 -2.574574 -24.428833
Cd -32.593737 -3.829180 -27.973753
Cd -34.766780 -2.574574 -17.338993
Cd -32.593737 -3.829180 -20.883913
Cd -34.766780 -2.574574 -10.249153
Cd -32.593737 -3.829180 -13.794073
Cd -34.766780 -2.574574 -3.159313
Cd -32.593737 -3.829180 -6.704233
Cd -34.766780 -2.574574 3.930527
Cd -32.593737 -3.829180 0.385607
Cd -34.766780 -2.574574 11.020367
Cd -32.593737 -3.829180 7.475447
Cd -34.766780 -2.574574 18.110207
Cd -32.593737 -3.829180 14.565287
Cd -34.766780 -2.574574 25.200047
Cd -32.593737 -3.829180 21.655127
Cd -32.593737 -3.829180 28.744967
Cd -36.939823 1.189247 -31.518672
Cd -36.939823 1.189247 -24.428833
Cd -34.766780 -0.065360 -27.973753
Cd -36.939823 1.189247 -17.338993
Cd -34.766780 -0.065360 -20.883913
Cd -36.939823 1.189247 -10.249153
Cd -34.766780 -0.065360 -13.794073
Cd -36.939823 1.189247 -3.159313
Cd -34.766780 -0.065360 -6.704233
Cd -36.939823 1.189247 3.930527
Cd -34.766780 -0.065360 0.385607
Cd -36.939823 1.189247 11.020367
Cd -34.766780 -0.065360 7.475447
Cd -36.939823 1.189247 18.110207
Cd -34.766780 -0.065360 14.565287
Cd -36.939823 1.189247 25.200047
Cd -34.766780 -0.065360 21.655127
Cd -36.939823 1.189247 32.289886
Cd -34.766780 -0.065360 28.744967
Cd -36.939823 3.698460 -27.973753
Cd -36.939823 3.698460 -20.883913
Cd -36.939823 3.698460 -13.794073
Cd -36.939823 3.698460 -6.704233
Cd -36.939823 3.698460 0.385607
Cd -36.939823 3.698460 7.475447
Cd -36.939823 3.698460 14.565287
Cd -36.939823 3.698460 21.655127
Cd -36.939823 3.698460 28.744967
Cd -13.036353 -32.685136 -31.518672
Cd -13.036353 -32.685136 -24.428833
Cd -10.863310 -33.939743 -27.973753
Cd -13.036353 -32.685136 -17.338993
Cd -10.863310 -33.939743 -20.883913
Cd -13.036353 -32.685136 -10.249153
Cd -10.863310 -33.939743 -13.794073
Cd -13.036353 -32.685136 -3.159313
Cd -10.863310 -33.939743 -6.704233
Cd -13.036353 -32.685136 3.930527
Cd -10.863310 -33.939743 0.385607
Cd -13.036353 -32.685136 11.020367
Cd -10.863310 -33.939743 7.475447
Cd -13.036353 -32.685136 18.110207
Cd -10.863310 -33.939743 14.565287
Cd -13.036353 -32.685136 25.200047
Cd -10.863310 -33.939743 21.655127
Cd -13.036353 -32.685136 32.289886
Cd -10.863310 -33.939743 28.744967
Cd -15.209396 -28.921316 -24.428833
Cd -13.036353 -30.175923 -27.973753
Cd -15.209396 -28.921316 -17.338993
Cd -13.036353 -30.175923 -20.883913
Cd -15.209396 -28.921316 -10.249153
Cd -13.036353 -30.175923 -13.794073
Cd -15.209396 -28.921316 -3.159313
Cd -13.036353 -30.175923 -6.704233
Cd -15.209396 -28.921316 3.930527
Cd -13.036353 -30.175923 0.385607
Cd -15.209396 -28.921316 11.020367
Cd -13.036353 -30.175923 7.475447
Cd -15.209396 -28.921316 18.110207
Cd -13.036353 -30.175923 14.565287
Cd -15.209396 -28.921316 25.200047
Cd -13.036353 -30.175923 21.655127
Cd -15.209396 -28.921316 32.289886
Cd -13.036353 -30.175923 28.744967
Cd -17.382439 -25.157496 -31.518672
Cd -17.382439 -25.157496 -24.428833
Cd -15.209396 -26.412102 -27.973753
Cd -17.382439 -25.157496 -17.338993
Cd -15.209396 -26.412102 -20.883913
Cd -17.382439 -25.157496 -10.249153
Cd -15.209396 -26.412102 -13.794073
Cd -17.382439 -25.157496 -3.159313
Cd -15.209396 -26.412102 -6.704233
Cd -17.382439 -25.157496 3.930527
Cd -15.209396 -26.412102 0.385607
Cd -17.382439 -25.157496 11.020367
Cd -15.209396 -26.412102 7.475447
Cd -17.382439 -25.157496 18.110207
Cd -15.209396 -26.412102 14.565287
Cd -17.382439 -25.157496 25.200047
Cd -15.209396 -26.412102 21.655127
Cd -17.382439 -25.157496 32.289886
Cd -15.209396 -26.412102 28.744967
Cd -19.555481 -21.393675 -31.518672
Cd -19.555481 -21.393675 -24.428833
Cd -17.382439 -22.648282 -27.973753
Cd -19.555481 -21.393675 -17.338993
Cd -17.382439 -22.648282 -20.883913
Cd -19.555481 -21.393675 -10.249153
Cd -17.382439 -22.648282 -13.794073
Cd -19.555481 -21.393675 -3.159313
Cd -17.382439 -22.648282 -6.704233
Cd -19.555481 -21.393675 3.930527
Cd -17.382439 -22.648282 0.385607
Cd -19.555481 -21.393675 11.020367
Cd -17.382439 -22.648282 7.475447
Cd -19.555481 -21.393675 18.110207
Cd -17.382439 -22.648282 14.565287
Cd -19.555481 -21.393675 25.200047
Cd -17.382439 -22.648282 21.655127
Cd -19.555481 -21.393675 32.289886
Cd -17.382439 -22.648282 28.744967
Cd -21.728524 -17.629855 -24.428833
Cd -19.555481 -18.884462 -27.973753
Cd -21.728524 -17.629855 -17.338993
Cd -19.555481 -18.884462 -20.883913
Cd -21.728524 -17.629855 -10.249153
Cd -19.555481 -18.884462 -13.794073
Cd -21.728524 -17.629855 -3.159313
Cd -19.555481 -18.884462 -6.704233
Cd -21.728524 -17.629855 3.930527
Cd -19.555481 -18.884462 0.385607
Cd -21.728524 -17.629855 11.020367
Cd -19.555481 -18.884462 7.475447
Cd -21.728524 -17.629855 18.110207
Cd -19.555481 -18.884462 14.565287
Cd -21.728524 -17.629855 25.200047
Cd -19.555481 -18.884462 21.655127
Cd -21.728524 -17.629855 32.289886
Cd -19.555481 -18.884462 28.744967
Cd -23.901567 -13.866035 -31.518672
Cd -23.901567 -13.866035 -24.428833
Cd -21.728524 -15.120641 -27.973753
Cd -23.901567 -13.866035 -17.338993
Cd -21.728524 -15.120641 -20.883913
Cd -23.901567 -13.866035 -10.249153
Cd -21.728524 -15.120641 -13.794073
Cd -23.901567 -13.866035 -3.159313
Cd -21.728524 -15.120641 -6.704233
Cd -23.901567 -13.866035 3.930527
Cd -21.728524 -15.120641 0.385607
Cd -23.901567 -13.866035 11.020367
Cd -21.728524 -15.120641 7.475447
Cd -23.901567 -13.866035 18.110207
Cd -21.728524 -15.120641 14.565287
Cd -23.901567 -13.866035 25.200047
Cd -21.728524 -15.120641 21.655127
Cd -23.901567 -13.866035 32.289886
Cd -21.728524 -15.120641 28.744967
Cd -26.074609 -10.102214 -31.518672
Cd -26.074609 -10.102214 -24.428833
Cd -23.901567 -11.356821 -27.973753
Cd -26.074609 -10.102214 -17.338993
Cd -23.901567 -11.356821 -20.883913
Cd -26.074609 -10.102214 -10.249153
Cd -23.901567 -11.356821 -13.794073
Cd -26.074609 -10.102214 -3.159313
Cd -23.901567 -11.356821 -6.704233
Cd -26.074609 -10.102214 3.930527
Cd -23.901567 -11.356821 0.385607
Cd -26.074609 -10.102214 11.020367
Cd -23.901567 -11.356821 7.475447
Cd -26.074609 -10.102214 18.110207
Cd -23.901567 -11.356821 14.565287
Cd -26.074609 -10.102214 25.200047
Cd -23.901567 -11.356821 21.655127
Cd -26.074609 -10.102214 32.289886
Cd -23.901567 -11.356821 28.744967
Cd -28.247652 -6.338394 -24.428833
Cd -26.074609 -7.593001 -27.973753
Cd -28.247652 -6.338394 -17.338993
Cd -26.074609 -7.593001 -20.883913
Cd -28.247652 -6.338394 -10.249153
Cd -26.074609 -7.593001 -13.794073
Cd -28.247652 -6.338394 -3.159313
Cd -26.074609 -7.593001 -6.704233
Cd -28.247652 -6.338394 3.930527
Cd -26.074609 -7.593001 0.385607
Cd -28.247652 -6.338394 11.020367
Cd -26.074609 -7.593001 7.475447
Cd -28.247652 -6.338394 18.110207
Cd -26.074609 -7.593001 14.565287
Cd -28.247652 -6.338394 25.200047
Cd -26.074609 -7.593001 21.655127
Cd -28.247652 -6.338394 32.289886
Cd -26.074609 -7.593001 28.744967
Cd -30.420695 -2.574574 -31.518672
Cd -30.420695 -2.574574 -24.428833
Cd -28.247652 -3.829180 -27.973753
Cd -30.420695 -2.574574 -17.338993
Cd -28.247652 -3.829180 -20.883913
Cd -30.420695 -2.574574 -10.249153
Cd -28.247652 -3.829180 -13.794073
Cd -30.420695 -2.574574 -3.159313
Cd -28.247652 -3.829180 -6.704233
Cd -30.420695 -2.574574 3.930527
Cd -28.247652 -3.829180 0.385607
Cd -30.420695 -2.574574 11.020367
Cd -28.247652 -3.829180 7.475447
Cd -30.420695 -2.574574 18.110207
Cd -28.247652 -3.829180 14.565287
Cd -30.420695 -2.574574 25.200047
Cd -28.247652 -3.829180 21.655127
Cd -30.420695 -2.574574 32.289886
Cd -28.247652 -3.829180 28.744967
Cd -32.593737 1.189247 -31.518672
Cd -32.593737 1.189247 -24.428833
Cd -30.420695 -0.065360 -27.973753
Cd -32.593737 1.189247 -17.338993
Cd -30.420695 -0.065360 -20.883913
Cd -32.593737 1.189247 -10.249153
Cd -30.420695 -0.065360 -13.794073
Cd -32.593737 1.189247 -3.159313
Cd -30.420695 -0.065360 -6.704233
Cd -32.593737 1.189247 3.930527
Cd -30.420695 -0.065360 0.385607
Cd -32.593737 1.189247 11.020367
Cd -30.420695 -0.065360 7.475447
Cd -32.593737 1.189247 18.110207
Cd -30.420695 -0.065360 14.565287
Cd -32.593737 1.189247 25.200047
Cd -30.420695 -0.065360 21.655127
Cd -32.593737 1.189247 32.289886
Cd -30.420695 -0.065360 28.744967
Cd -34.766780 4.953067 -31.518672
Cd -34.766780 4.953067 -24.428833
Cd -32.593737 3.698460 -27.973753
Cd -34.766780 4.953067 -17.338993
Cd -32.593737 3.698460 -20.883913
Cd -34.766780 4.953067 -10.249153
Cd -32.593737 3.698460 -13.794073
Cd -34.766780 4.953067 -3.159313
Cd -32.593737 3.698460 -6.704233
Cd -34.766780 4.953067 3.930527
Cd -32.593737 3.698460 0.385607
Cd -34.766780 4.953067 11.020367
Cd -32.593737 3.698460 7.475447
Cd -34.766780 4.953067 18.110207
Cd -32.593737 3.698460 14.565287
Cd -34.766780 4.953067 25.200047
Cd -32.593737 3.698460 21.655127
Cd -34.766780 4.953067 32.289886
Cd -32.593737 3.698460 28.744967
Cd -34.766780 7.462281 -27.973753
Cd -34.766780 7.462281 -20.883913
Cd -34.766780 7.462281 -13.794073
Cd -34.766780 7.462281 -6.704233
Cd -34.766780 7.462281 0.385607
Cd -34.766780 7.462281 7.475447
Cd -34.766780 7.462281 14.565287
Cd -34.766780 7.462281 21.655127
Cd -34.766780 7.462281 28.744967
Cd -8.690268 -32.685136 -31.518672
Cd -8.690268 -32.685136 -24.428833
Cd -6.517225 -33.939743 -27.973753
Cd -8.690268 -32.685136 -17.338993
Cd -6.517225 -33.939743 -20.883913
Cd -8.690268 -32.685136 -10.249153
Cd -6.517225 -33.939743 -13.794073
Cd -8.690268 -32.685136 -3.159313
Cd -6.517225 -33.939743 -6.704233
Cd -8.690268 -32.685136 3.930527
Cd -6.517225 -33.939743 0.385607
Cd -8.690268 -32.685136 11.020367
Cd -6.517225 -33.939743 7.475447
Cd -8.690268 -32.685136 18.110207
Cd -6.517225 -33.939743 14.565287
Cd -8.690268 -32.685136 25.200047
Cd -6.517225 -33.939743 21.655127
Cd -8.690268 -32.685136 32.289886
Cd -6.517225 -33.939743 28.744967
Cd -10.863310 -28.921316 -31.518672
Cd -10.863310 -28.921316 -24.428833
Cd -8.690268 -30.175923 -27.973753
Cd -10.863310 -28.921316 -17.338993
Cd -8.690268 -30.175923 -20.883913
Cd -10.863310 -28.921316 -10.249153
Cd -8.690268 -30.175923 -13.794073
Cd -10.863310 -28.921316 -3.159313
Cd -8.690268 -30.175923 -6.704233
Cd -10.863310 -28.921316 3.930527
Cd -8.690268 -30.175923 0.385607
Cd -10.863310 -28.921316 11.020367
Cd -8.690268 -30.175923 7.475447
Cd -10.863310 -28.921316 18.110207
Cd -8.690268 -30.175923 14.565287
Cd -10.863310 -28.921316 25.200047
Cd -8.690268 -30.175923 21.655127
Cd -10.863310 -28.921316 32.289886
Cd -8.690268 -30.175923 28.744967
Cd -13.036353 -25.157496 -31.518672
Cd -13.036353 -25.157496 -24.428833
Cd -10.863310 -26.412102 -27.973753
Cd -13.036353 -25.157496 -17.338993
Cd -10.863310 -26.412102 -20.883913
Cd -13.036353 -25.157496 -10.249153
Cd -10.863310 -26.412102 -13.794073
Cd -13.036353 -25.157496 -3.159313
Cd -10.863310 -26.412102 -6.704233
Cd -13.036353 -25.157496 3.930527
Cd -10.863310 -26.412102 0.385607
Cd -13.036353 -25.157496 11.020367
Cd -10.863310 -26.412102 7.475447
Cd -13.036353 -25.157496 18.110207
Cd -10.863310 -26.412102 14.565287
Cd -13.036353 -25.157496 25.200047
Cd -10.863310 -26.412102 21.655127
Cd -10.863310 -26.412102 28.744967
Cd -15.209396 -21.393675 -24.428833
Cd -13.036353 -22.648282 -27.973753
Cd -15.209396 -21.393675 -17.338993
Cd -13.036353 -22.648282 -20.883913
Cd -15.209396 -21.393675 -10.249153
Cd -13.036353 -22.648282 -13.794073
Cd -15.209396 -21.393675 -3.159313
Cd -13.036353 -22.648282 -6.704233
Cd -15.209396 -21.393675 3.930527
Cd -13.036353 -22.648282 0.385607
Cd -15.209396 -21.393675 11.020367
Cd -13.036353 -22.648282 7.475447
Cd -15.209396 -21.393675 18.110207
Cd -13.036353 -22.648282 14.565287
Cd -15.209396 -21.393675 25.200047
Cd -13.036353 -22.648282 21.655127
Cd -15.209396 -21.393675 32.289886
Cd -13.036353 -22.648282 28.744967
Cd -17.382439 -17.629855 -31.518672
Cd -17.382439 -17.629855 -24.428833
Cd -15.209396 -18.884462 -27.973753
Cd -17.382439 -17.629855 -17.338993
Cd -15.209396 -18.884462 -20.883913
Cd -17.382439 -17.629855 -10.249153
Cd -15.209396 -18.884462 -13.794073
Cd -17.382439 -17.629855 -3.159313
Cd -15.209396 -18.884462 -6.704233
Cd -17.382439 -17.629855 3.930527
Cd -15.209396 -18.884462 0.385607
Cd -17.382439 -17.629855 11.020367
Cd -15.209396 -18.884462 7.475447
Cd -17.382439 -17.629855 18.110207
Cd -15.209396 -18.884462 14.565287
Cd -17.382439 -17.629855 25.200047
Cd -15.209396 -18.884462 21.655127
Cd -17.382439 -17.629855 32.289886
Cd -15.209396 -18.884462 28.744967
Cd -19.555481 -13.866035 -31.518672
Cd -19.555481 -13.866035 -24.428833
Cd -17.382439 -15.120641 -27.973753
Cd -19.555481 -13.866035 -17.338993
Cd -17.382439 -15.120641 -20.883913
Cd -19.555481 -13.866035 -10.249153
Cd -17.382439 -15.120641 -13.794073
Cd -19.555481 -13.866035 -3.159313
Cd -17.382439 -15.120641 -6.704233
Cd -19.555481 -13.866035 3.930527
Cd -17.382439 -15.120641 0.385607
Cd -19.555481 -13.866035 11.020367
Cd -17.382439 -15.120641 7.475447
Cd -19.555481 -13.866035 18.110207
Cd -17.382439 -15.120641 14.565287
Cd -19.555481 -13.866035 25.200047
Cd -17.382439 -15.120641 21.655127
Cd -17.382439 -15.120641 28.744967
Cd -21.728524 -10.102214 -24.428833
Cd -19.555481 -11.356821 -27.973753
Cd -21.728524 -10.102214 -17.338993
Cd -19.555481 -11.356821 -20.883913
Cd -21.728524 -10.102214 -10.249153
Cd -19.555481 -11.356821 -13.794073
Cd -21.728524 -10.102214 -3.159313
Cd -19.555481 -11.356821 -6.704233
Cd -21.728524 -10.102214 3.930527
Cd -19.555481 -11.356821 0.385607
Cd -21.728524 -10.102214 11.020367
Cd -19.555481 -11.356821 7.475447
Cd -21.728524 -10.102214 18.110207
Cd -19.555481 -11.356821 14.565287
Cd -21.728524 -10.102214 25.200047
Cd -19.555481 -11.356821 21.655127
Cd -21.728524 -10.102214 32.289886
Cd -19.555481 -11.356821 28.744967
Cd -23.901567 -6.338394 -31.518672
Cd -23.901567 -6.338394 -24.428833
Cd -21.728524 -7.593001 -27.973753
Cd -23.901567 -6.338394 -17.338993
Cd -21.728524 -7.593001 -20.883913
Cd -23.901567 -6.338394 -10.249153
Cd -21.728524 -7.593001 -13.794073
Cd -23.901567 -6.338394 -3.159313
Cd -21.728524 -7.593001 -6.704233
Cd -23.901567 -6.338394 3.930527
Cd -21.728524 -7.593001 0.385607
Cd -23.901567 -6.338394 11.020367
Cd -21.728524 -7.593001 7.475447
Cd -23.901567 -6.338394 18.110207
Cd -21.728524 -7.593001 14.565287
Cd -23.901567 -6.338394 25.200047
Cd -21.728524 -7.593001 21.655127
Cd -23.901567 -6.338394 32.289886
Cd -21.728524 -7.593001 28.744967
Cd -26.074609 -2.574574 -31.518672
Cd -26.074609 -2.574574 -24.428833
Cd -23.901567 -3.829180 -27.973753
Cd -26.074609 -2.574574 -17.338993
Cd -23.901567 -3.829180 -20.883913
Cd -26.074609 -2.574574 -10.249153
Cd -23.901567 -3.829180 -13.794073
Cd -26.074609 -2.574574 -3.159313
Cd -23.901567 -3.829180 -6.704233
Cd -26.074609 -2.574574 3.930527
Cd -23.901567 -3.829180 0.385607
Cd -26.074609 -2.574574 11.020367
Cd -23.901567 -3.829180 7.475447
Cd -26.074609 -2.574574 18.110207
Cd -23.901567 -3.829180 14.565287
Cd -26.074609 -2.574574 25.200047
Cd -23.901567 -3.829180 21.655127
Cd -23.901567 -3.829180 28.744967
Cd -28.247652 1.189247 -24.428833
Cd -26.074609 -0.065360 -27.973753
Cd -28.247652 1.189247 -17.338993
Cd -26.074609 -0.065360 -20.883913
Cd -28.247652 1.189247 -10.249153
Cd -26.074609 -0.065360 -13.794073
Cd -28.247652 1.189247 -3.159313
Cd -26.074609 -0.065360 -6.704233
Cd -28.247652 1.189247 3.930527
Cd -26.074609 -0.065360 0.385607
Cd -28.247652 1.189247 11.020367
Cd -26.074609 -0.065360 7.475447
Cd -28.247652 1.189247 18.110207
Cd -26.074609 -0.065360 14.565287
Cd -28.247652 1.189247 25.200047
Cd -26.074609 -0.065360 21.655127
Cd -28.247652 1.189247 32.289886
Cd -26.074609 -0.065360 28.744967
Cd -30.420695 4.953067 -31.518672
Cd -30.420695 4.953067 -24.428833
Cd -28.247652 3.698460 -27.973753
Cd -30.420695 4.953067 -17.338993
Cd -28.247652 3.698460 -20.883913
Cd -30.420695 4.953067 -10.249153
Cd -28.247652 3.698460 -13.794073
Cd -30.420695 4.953067 -3.159313
Cd -28.247652 3.698460 -6.704233
Cd -30.420695 4.953067 3.930527
Cd -28.247652 3.698460 0.385607
Cd -30.420695 4.953067 11.020367
Cd -28.247652 3.698460 7.475447
Cd -30.420695 4.953067 18.110207
Cd -28.247652 3.698460 14.565287
Cd -30.420695 4.953067 25.200047
Cd -28.247652 3.698460 21.655127
Cd -30.420695 4.953067 32.289886
Cd -28.247652 3.698460 28.744967
Cd -32.593737 8.716887 -31.518672
Cd -32.593737 8.716887 -24.428833
Cd -30.420695 7.462281 -27.973753
Cd -32.593737 8.716887 -17.338993
Cd -30.420695 7.462281 -20.883913
Cd -32.593737 8.716887 -10.249153
Cd -30.420695 7.462281 -13.794073
Cd -32.593737 8.716887 -3.159313
Cd -30.420695 7.462281 -6.704233
Cd -32.593737 8.716887 3.930527
Cd -30.420695 7.462281 0.385607
Cd -32.593737 8.716887 11.020367
Cd -30.420695 7.462281 7.475447
Cd -32.593737 8.716887 18.110207
Cd -30.420695 7.462281 14.565287
Cd -32.593737 8.716887 25.200047
Cd -30.420695 7.462281 21.655127
Cd -32.593737 8.716887 32.289886
Cd -30.420695 7.462281 28.744967
Cd -32.593737 11.226101 -27.973753
Cd -32.593737 11.226101 -20.883913
Cd -32.593737 11.226101 -13.794073
Cd -32.593737 11.226101 -6.704233
Cd -32.593737 11.226101 0.385607
Cd -32.593737 11.226101 7.475447
Cd -32.593737 11.226101 14.565287
Cd -32.593737 11.226101 21.655127
Cd -32.593737 11.226101 28.744967
Cd -4.344182 -32.685136 -31.518672
Cd -4.344182 -32.685136 -24.428833
Cd -2.171140 -33.939743 -27.973753
Cd -4.344182 -32.685136 -17.338993
Cd -2.171140 -33.939743 -20.883913
Cd -4.344182 -32.685136 -10.249153
Cd -2.171140 -33.939743 -13.794073
Cd -4.344182 -32.685136 -3.159313
Cd -2.171140 -33.939743 -6.704233
Cd -4.344182 -32.685136 3.930527
Cd -2.171140 -33.939743 0.385607
Cd -4.344182 -32.685136 11.020367
Cd -2.171140 -33.939743 7.475447
Cd -4.344182 -32.685136 18.110207
Cd -2.171140 -33.939743 14.565287
Cd -4.344182 -32.685136 25.200047
Cd -2.171140 -33.939743 21.655127
Cd -4.344182 -32.685136 32.289886
Cd -2.171140 -33.939743 28.744967
Cd -6.517225 -28.921316 -31.518672
Cd -6.517225 -28.921316 -24.428833
Cd -4.344182 -30.175923 -27.973753
Cd -6.517225 -28.921316 -17.338993
Cd -4.344182 -30.175923 -20.883913
Cd -6.517225 -28.921316 -10.249153
Cd -4.344182 -30.175923 -13.794073
Cd -6.517225 -28.921316 -3.159313
Cd -4.344182 -30.175923 -6.704233
Cd -6.517225 -28.921316 3.930527
Cd -4.344182 -30.175923 0.385607
Cd -6.517225 -28.921316 11.020367
Cd -4.344182 -30.175923 7.475447
Cd -6.517225 -28.921316 18.110207
Cd -4.344182 -30.175923 14.565287
Cd -6.517225 -28.921316 25.200047
Cd -4.344182 -30.175923 21.655127
Cd -4.344182 -30.175923 28.744967
Cd -8.690268 -25.157496 -24.428833
Cd -6.517225 -26.412102 -27.973753
Cd -8.690268 -25.157496 -17.338993
Cd -6.517225 -26.412102 -20.883913
Cd -8.690268 -25.157496 -10.249153
Cd -6.517225 -26.412102 -13.794073
Cd -8.690268 -25.157496 -3.159313
Cd -6.517225 -26.412102 -6.704233
Cd -8.690268 -25.157496 3.930527
Cd -6.517225 -26.412102 0.385607
Cd -8.690268 -25.157496 11.020367
Cd -6.517225 -26.412102 7.475447
Cd -8.690268 -25.157496 18.110207
Cd -6.517225 -26.412102 14.565287
Cd -8.690268 -25.157496 25.200047
Cd -6.517225 -26.412102 21.655127
Cd -8.690268 -25.157496 32.289886
Cd -6.517225 -26.412102 28.744967
Cd -10.863310 -21.393675 -31.518672
Cd -10.863310 -21.393675 -24.428833
Cd -8.690268 -22.648282 -27.973753
Cd -10.863310 -21.393675 -17.338993
Cd -8.690268 -22.648282 -20.883913
Cd -10.863310 -21.393675 -10.249153
Cd -8.690268 -22.648282 -13.794073
Cd -10.863310 -21.393675 -3.159313
Cd -8.690268 -22.648282 -6.704233
Cd -10.863310 -21.393675 3.930527
Cd -8.690268 -22.648282 0.385607
Cd -10.863310 -21.393675 11.020367
Cd -8.690268 -22.648282 7.475447
Cd -10.863310 -21.393675 18.110207
Cd -8.690268 -22.648282 14.565287
Cd -10.863310 -21.393675 25.200047
Cd -8.690268 -22.648282 21.655127
Cd -10.863310 -21.393675 32.289886
Cd -8.690268 -22.648282 28.744967
Cd -13.036353 -17.629855 -31.518672
Cd -13.036353 -17.629855 -24.428833
Cd -10.863310 -18.884462 -27.973753
Cd -13.036353 -17.629855 -17.338993
Cd -10.863310 -18.884462 -20.883913
Cd -13.036353 -17.629855 -10.249153
Cd -10.863310 -18.884462 -13.794073
Cd -13.036353 -17.629855 -3.159313
Cd -10.863310 -18.884462 -6.704233
Cd -13.036353 -17.629855 3.930527
Cd -10.863310 -18.884462 0.385607
Cd -13.036353 -17.629855 11.020367
Cd -10.863310 -18.884462 7.475447
Cd -13.036353 -17.629855 18.110207
Cd -10.863310 -18.884462 14.565287
Cd -13.036353 -17.629855 25.200047
Cd -10.863310 -18.884462 21.655127
Cd -10.863310 -18.884462 28.744967
Cd -15.209396 -13.866035 -24.428833
Cd -13.036353 -15.120641 -27.973753
Cd -15.209396 -13.866035 -17.338993
Cd -13.036353 -15.120641 -20.883913
Cd -15.209396 -13.866035 -10.249153
Cd -13.036353 -15.120641 -13.794073
Cd -15.209396 -13.866035 -3.159313
Cd -13.036353 -15.120641 -6.704233
Cd -15.209396 -13.866035 3.930527
Cd -13.036353 -15.120641 0.385607
Cd -15.209396 -13.866035 11.020367
Cd -13.036353 -15.120641 7.475447
Cd -15.209396 -13.866035 18.110207
Cd -13.036353 -15.120641 14.565287
Cd -15.209396 -13.866035 25.200047
Cd -13.036353 -15.120641 21.655127
Cd -15.209396 -13.866035 32.289886
Cd -13.036353 -15.120641 28.744967
Cd -17.382439 -10.102214 -31.518672
Cd -17.382439 -10.102214 -24.428833
Cd -15.209396 -11.356821 -27.973753
Cd -17.382439 -10.102214 -17.338993
Cd -15.209396 -11.356821 -20.883913
Cd -17.382439 -10.102214 -10.249153
Cd -15.209396 -11.356821 -13.794073
Cd -17.382439 -10.102214 -3.159313
Cd -15.209396 -11.356821 -6.704233
Cd -17.382439 -10.102214 3.930527
Cd -15.209396 -11.356821 0.385607
Cd -17.382439 -10.102214 11.020367
Cd -15.209396 -11.356821 7.475447
Cd -17.382439 -10.102214 18.110207
Cd -15.209396 -11.356821 14.565287
Cd -17.382439 -10.102214 25.200047
Cd -15.209396 -11.356821 21.655127
Cd -17.382439 -10.102214 32.289886
Cd -15.209396 -11.356821 28.744967
Cd -19.555481 -6.338394 -31.518672
Cd -19.555481 -6.338394 -24.428833
Cd -17.382439 -7.593001 -27.973753
Cd -19.555481 -6.338394 -17.338993
Cd -17.382439 -7.593001 -20.883913
Cd -19.555481 -6.338394 -10.249153
Cd -17.382439 -7.593001 -13.794073
Cd -19.555481 -6.338394 -3.159313
Cd -17.382439 -7.593001 -6.704233
Cd -19.555481 -6.338394 3.930527
Cd -17.382439 -7.593001 0.385607
Cd -19.555481 -6.338394 11.020367
Cd -17.382439 -7.593001 7.475447
Cd -19.555481 -6.338394 18.110207
Cd -17.382439 -7.593001 14.565287
Cd -19.555481 -6.338394 25.200047
Cd -17.382439 -7.593001 21.655127
Cd -17.382439 -7.593001 28.744967
Cd -21.728524 -2.574574 -24.428833
Cd -19.555481 -3.829180 -27.973753
Cd -21.728524 -2.574574 -17.338993
Cd -19.555481 -3.829180 -20.883913
Cd -21.728524 -2.574574 -10.249153
Cd -19.555481 -3.829180 -13.794073
Cd -21.728524 -2.574574 -3.159313
Cd -19.555481 -3.829180 -6.704233
Cd -21.728524 -2.574574 3.930527
Cd -19.555481 -3.829180 0.385607
Cd -21.728524 -2.574574 11.020367
Cd -19.555481 -3.829180 7.475447
Cd -21.728524 -2.574574 18.110207
Cd -19.555481 -3.829180 14.565287
Cd -21.728524 -2.574574 25.200047
Cd -19.555481 -3.829180 21.655127
Cd -21.728524 -2.574574 32.289886
Cd -19.555481 -3.829180 28.744967
Cd -23.901567 1.189247 -31.518672
Cd -23.901567 1.189247 -24.428833
Cd -21.728524 -0.065360 -27.973753
Cd -23.901567 1.189247 -17.338993
Cd -21.728524 -0.065360 -20.883913
Cd -23.901567 1.189247 -10.249153
Cd -21.728524 -0.065360 -13.794073
Cd -23.901567 1.189247 -3.159313
Cd -21.728524 -0.065360 -6.704233
Cd -23.901567 1.189247 3.930527
Cd -21.728524 -0.065360 0.385607
Cd -23.901567 1.189247 11.020367
Cd -21.728524 -0.065360 7.475447
Cd -23.901567 1.189247 18.110207
Cd -21.728524 -0.065360 14.565287
Cd -23.901567 1.189247 25.200047
Cd -21.728524 -0.065360 21.655127
Cd -23.901567 1.189247 32.289886
Cd -21.728524 -0.065360 28.744967
Cd -26.074609 4.953067 -31.518672
Cd -26.074609 4.953067 -24.428833
Cd -23.901567 3.698460 -27.973753
Cd -26.074609 4.953067 -17.338993
Cd -23.901567 3.698460 -20.883913
Cd -26.074609 4.953067 -10.249153
Cd -23.901567 3.698460 -13.794073
Cd -26.074609 4.953067 -3.159313
Cd -23.901567 3.698460 -6.704233
Cd -26.074609 4.953067 3.930527
Cd -23.901567 3.698460 0.385607
Cd -26.074609 4.953067 11.020367
Cd -23.901567 3.698460 7.475447
Cd -26.074609 4.953067 18.110207
Cd -23.901567 3.698460 14.565287
Cd -26.074609 4.953067 25.200047
Cd -23.901567 3.698460 21.655127
Cd -23.901567 3.698460 28.744967
Cd -28.247652 8.716887 -24.428833
Cd -26.074609 7.462281 -27.973753
Cd -28.247652 8.716887 -17.338993
Cd -26.074609 7.462281 -20.883913
Cd -28.247652 8.716887 -10.249153
Cd -26.074609 7.462281 -13.794073
Cd -28.247652 8.716887 -3.159313
Cd -26.074609 7.462281 -6.704233
Cd -28.247652 8.716887 3.930527
Cd -26.074609 7.462281 0.385607
Cd -28.247652 8.716887 11.020367
Cd -26.074609 7.462281 7.475447
Cd -28.247652 8.716887 18.110207
Cd -26.074609 7.462281 14.565287
Cd -28.247652 8.716887 25.200047
Cd -26.074609 7.462281 21.655127
Cd -28.247652 8.716887 32.289886
Cd -26.074609 7.462281 28.744967
Cd -30.420695 12.480708 -31.518672
Cd -30.420695 12.480708 -24.428833
Cd -28.247652 11.226101 -27.973753
Cd -30.420695 12.480708 -17.338993
Cd -28.247652 11.226101 -20.883913
Cd -30.420695 12.480708 -10.249153
Cd -28.247652 11.226101 -13.794073
Cd -30.420695 12.480708 -3.159313
Cd -28.247652 11.226101 -6.704233
Cd -30.420695 12.480708 3.930527
Cd -28.247652 11.226101 0.385607
Cd -30.420695 12.480708 11.020367
Cd -28.247652 11.226101 7.475447
Cd -30.420695 12.480708 18.110207
Cd -28.247652 11.226101 14.565287
Cd -30.420695 12.480708 25.200047
Cd -28.247652 11.226101 21.655127
Cd -30.420695 12.480708 32.289886
Cd -28.247652 11.226101 28.744967
Cd -30.420695 14.989921 -27.973753
Cd -30.420695 14.989921 -20.883913
Cd -30.420695 14.989921 -13.794073
Cd -30.420695 14.989921 -6.704233
Cd -30.420695 14.989921 0.385607
Cd -30.420695 14.989921 7.475447
Cd -30.420695 14.989921 14.565287
Cd -30.420695 14.989921 21.655127
Cd -30.420695 14.989921 28.744967
Cd 0.001903 -32.685136 -31.518672
Cd 0.001903 -32.685136 -24.428833
Cd 2.174946 -33.939743 -27.973753
Cd 0.001903 -32.685136 -17.338993
Cd 2.174946 -33.939743 -20.883913
Cd 0.001903 -32.685136 -10.249153
Cd 2.174946 -33.939743 -13.794073
Cd 0.001903 -32.685136 -3.159313
Cd 2.174946 -33.939743 -6.704233
Cd 0.001903 -32.685136 3.930527
Cd 2.174946 -33.939743 0.385607
Cd 0.001903 -32.685136 11.020367
Cd 2.174946 -33.939743 7.475447
Cd 0.001903 -32.685136 18.110207
Cd 2.174946 -33.939743 14.565287
Cd 0.001903 -32.685136 25.200047
Cd 2.174946 -33.939743 21.655127
Cd 0.001903 -32.685136 32.289886
Cd 2.174946 -33.939743 28.744967
Cd -2.171140 -28.921316 -24.428833
Cd 0.001903 -30.175923 -27.973753
Cd -2.171140 -28.921316 -17.338993
Cd 0.001903 -30.175923 -20.883913
Cd -2.171140 -28.921316 -10.249153
Cd 0.001903 -30.175923 -13.794073
Cd -2.171140 -28.921316 -3.159313
Cd 0.001903 -30.175923 -6.704233
Cd -2.171140 -28.921316 3.930527
Cd 0.001903 -30.175923 0.385607
Cd -2.171140 -28.921316 11.020367
Cd 0.001903 -30.175923 7.475447
Cd -2.171140 -28.921316 18.110207
Cd 0.001903 -30.175923 14.565287
Cd -2.171140 -28.921316 25.200047
Cd 0.001903 -30.175923 21.655127
Cd -2.171140 -28.921316 32.289886
Cd 0.001903 -30.175923 28.744967
Cd -4.344182 -25.157496 -31.518672
Cd -4.344182 -25.157496 -24.428833
Cd -2.171140 -26.412102 -27.973753
Cd -4.344182 -25.157496 -17.338993
Cd -2.171140 -26.412102 -20.883913
Cd -4.344182 -25.157496 -10.249153
Cd -2.171140 -26.412102 -13.794073
Cd -4.344182 -25.157496 -3.159313
Cd -2.171140 -26.412102 -6.704233
Cd -4.344182 -25.157496 3.930527
Cd -2.171140 -26.412102 0.385607
Cd -4.344182 -25.157496 11.020367
Cd -2.171140 -26.412102 7.475447
Cd -4.344182 -25.157496 18.110207
Cd -2.171140 -26.412102 14.565287
Cd -4.344182 -25.157496 25.200047
Cd -2.171140 -26.412102 21.655127
Cd -4.344182 -25.157496 32.289886
Cd -2.171140 -26.412102 28.744967
Cd -6.517225 -21.393675 -31.518672
Cd -6.517225 -21.393675 -24.428833
Cd -4.344182 -22.648282 -27.973753
Cd -6.517225 -21.393675 -17.338993
Cd -4.344182 -22.648282 -20.883913
Cd -6.517225 -21.393675 -10.249153
Cd -4.344182 -22.648282 -13.794073
Cd -6.517225 -21.393675 -3.159313
Cd -4.344182 -22.648282 -6.704233
Cd -6.517225 -21.393675 3.930527
Cd -4.344182 -22.648282 0.385607
Cd -6.517225 -21.393675 11.020367
Cd -4.344182 -22.648282 7.475447
Cd -6.517225 -21.393675 18.110207
Cd -4.344182 -22.648282 14.565287
Cd -6.517225 -21.393675 25.200047
Cd -4.344182 -22.648282 21.655127
Cd -4.344182 -22.648282 28.744967
Cd -8.690268 -17.629855 -24.428833
Cd -6.517225 -18.884462 -27.973753
Cd -8.690268 -17.629855 -17.338993
Cd -6.517225 -18.884462 -20.883913
Cd -8.690268 -17.629855 -10.249153
Cd -6.517225 -18.884462 -13.794073
Cd -8.690268 -17.629855 -3.159313
Cd -6.517225 -18.884462 -6.704233
Cd -8.690268 -17.629855 3.930527
Cd -6.517225 -18.884462 0.385607
Cd -8.690268 -17.629855 11.020367
Cd -6.517225 -18.884462 7.475447
Cd -8.690268 -17.629855 18.110207
Cd -6.517225 -18.884462 14.565287
Cd -8.690268 -17.629855 25.200047
Cd -6.517225 -18.884462 21.655127
Cd -8.690268 -17.629855 32.289886
Cd -6.517225 -18.884462 28.744967
Cd -10.863310 -13.866035 -31.518672
Cd -10.863310 -13.866035 -24.428833
Cd -8.690268 -15.120641 -27.973753
Cd -10.863310 -13.866035 -17.338993
Cd -8.690268 -15.120641 -20.883913
Cd -10.863310 -13.866035 -10.249153
Cd -8.690268 -15.120641 -13.794073
Cd -10.863310 -13.866035 -3.159313
Cd -8.690268 -15.120641 -6.704233
Cd -10.863310 -13.866035 3.930527
Cd -8.690268 -15.120641 0.385607
Cd -10.863310 -13.866035 11.020367
Cd -8.690268 -15.120641 7.475447
Cd -10.863310 -13.866035 18.110207
Cd -8.690268 -15.120641 14.565287
Cd -10.863310 -13.866035 25.200047
Cd -8.690268 -15.120641 21.655127
Cd -10.863310 -13.866035 32.289886
Cd -8.690268 -15.120641 28.744967
Cd -13.036353 -10.102214 -31.518672
Cd -13.036353 -10.102214 -24.428833
Cd -10.863310 -11.356821 -27.973753
Cd -13.036353 -10.102214 -17.338993
Cd -10.863310 -11.356821 -20.883913
Cd -13.036353 -10.102214 -10.249153
Cd -10.863310 -11.356821 -13.794073
Cd -13.036353 -10.102214 -3.159313
Cd -10.863310 -11.356821 -6.704233
Cd -13.036353 -10.102214 3.930527
Cd -10.863310 -11.356821 0.385607
Cd -13.036353 -10.102214 11.020367
Cd -10.863310 -11.356821 7.475447
Cd -13.036353 -10.102214 18.110207
Cd -10.863310 -11.356821 14.565287
Cd -13.036353 -10.102214 25.200047
Cd -10.863310 -11.356821 21.655127
Cd -13.036353 -10.102214 32.289886
Cd -10.863310 -11.356821 28.744967
Cd -15.209396 -6.338394 -24.428833
Cd -13.036353 -7.593001 -27.973753
Cd -15.209396 -6.338394 -17.338993
Cd -13.036353 -7.593001 -20.883913
Cd -15.209396 -6.338394 -10.249153
Cd -13.036353 -7.593001 -13.794073
Cd -15.209396 -6.338394 -3.159313
Cd -13.036353 -7.593001 -6.704233
Cd -15.209396 -6.338394 3.930527
Cd -13.036353 -7.593001 0.385607
Cd -15.209396 -6.338394 11.020367
Cd -13.036353 -7.593001 7.475447
Cd -15.209396 -6.338394 18.110207
Cd -13.036353 -7.593001 14.565287
Cd -15.209396 -6.338394 25.200047
Cd -13.036353 -7.593001 21.655127
Cd -15.209396 -6.338394 32.289886
Cd -13.036353 -7.593001 28.744967
Cd -17.382439 -2.574574 -31.518672
Cd -17.382439 -2.574574 -24.428833
Cd -15.209396 -3.829180 -27.973753
Cd -17.382439 -2.574574 -17.338993
Cd -15.209396 -3.829180 -20.883913
Cd -17.382439 -2.574574 -10.249153
Cd -15.209396 -3.829180 -13.794073
Cd -17.382439 -2.574574 -3.159313
Cd -15.209396 -3.829180 -6.704233
Cd -17.382439 -2.574574 3.930527
Cd -15.209396 -3.829180 0.385607
Cd -17.382439 -2.574574 11.020367
Cd -15.209396 -3.829180 7.475447
Cd -17.382439 -2.574574 18.110207
Cd -15.209396 -3.829180 14.565287
Cd -17.382439 -2.574574 25.200047
Cd -15.209396 -3.829180 21.655127
Cd -17.382439 -2.574574 32.289886
Cd -15.209396 -3.829180 28.744967
Cd -19.555481 1.189247 -31.518672
Cd -19.555481 1.189247 -24.428833
Cd -17.382439 -0.065360 -27.973753
Cd -19.555481 1.189247 -17.338993
Cd -17.382439 -0.065360 -20.883913
Cd -19.555481 1.189247 -10.249153
Cd -17.382439 -0.065360 -13.794073
Cd -19.555481 1.189247 -3.159313
Cd -17.382439 -0.065360 -6.704233
Cd -19.555481 1.189247 3.930527
Cd -17.382439 -0.065360 0.385607
Cd -19.555481 1.189247 11.020367
Cd -17.382439 -0.065360 7.475447
Cd -19.555481 1.189247 18.110207
Cd -17.382439 -0.065360 14.565287
Cd -19.555481 1.189247 25.200047
Cd -17.382439 -0.065360 21.655127
Cd -17.382439 -0.065360 28.744967
Cd -21.728524 4.953067 -24.428833
Cd -19.555481 3.698460 -27.973753
Cd -21.728524 4.953067 -17.338993
Cd -19.555481 3.698460 -20.883913
Cd -21.728524 4.953067 -10.249153
Cd -19.555481 3.698460 -13.794073
Cd -21.728524 4.953067 -3.159313
Cd -19.555481 3.698460 -6.704233
Cd -21.728524 4.953067 3.930527
Cd -19.555481 3.698460 0.385607
Cd -21.728524 4.953067 11.020367
Cd -19.555481 3.698460 7.475447
Cd -21.728524 4.953067 18.110207
Cd -19.555481 3.698460 14.565287
Cd -21.728524 4.953067 25.200047
Cd -19.555481 3.698460 21.655127
Cd -21.728524 4.953067 32.289886
Cd -19.555481 3.698460 28.744967
Cd -23.901567 8.716887 -31.518672
Cd -23.901567 8.716887 -24.428833
Cd -21.728524 7.462281 -27.973753
Cd -23.901567 8.716887 -17.338993
Cd -21.728524 7.462281 -20.883913
Cd -23.901567 8.716887 -10.249153
Cd -21.728524 7.462281 -13.794073
Cd -23.901567 8.716887 -3.159313
Cd -21.728524 7.462281 -6.704233
Cd -23.901567 8.716887 3.930527
Cd -21.728524 7.462281 0.385607
Cd -23.901567 8.716887 11.020367
Cd -21.728524 7.462281 7.475447
Cd -23.901567 8.716887 18.110207
Cd -21.728524 7.462281 14.565287
Cd -23.901567 8.716887 25.200047
Cd -21.728524 7.462281 21.655127
Cd -23.901567 8.716887 32.289886
Cd -21.728524 7.462281 28.744967
Cd -26.074609 12.480708 -31.518672
Cd -26.074609 12.480708 -24.428833
Cd -23.901567 11.226101 -27.973753
Cd -26.074609 12.480708 -17.338993
Cd -23.901567 11.226101 -20.883913
Cd -26.074609 12.480708 -10.249153
Cd -23.901567 11.226101 -13.794073
Cd -26.074609 12.480708 -3.159313
Cd -23.901567 11.226101 -6.704233
Cd -26.074609 12.480708 3.930527
Cd -23.901567 11.226101 0.385607
Cd -26.074609 12.480708 11.020367
Cd -23.901567 11.226101 7.475447
Cd -26.074609 12.480708 18.110207
Cd -23.901567 11.226101 14.565287
Cd -26.074609 12.480708 25.200047
Cd -23.901567 11.226101 21.655127
Cd -23.901567 11.226101 28.744967
Cd -28.247652 16.244528 -31.518672
Cd -28.247652 16.244528 -24.428833
Cd -26.074609 14.989921 -27.973753
Cd -28.247652 16.244528 -17.338993
Cd -26.074609 14.989921 -20.883913
Cd -28.247652 16.244528 -10.249153
Cd -26.074609 14.989921 -13.794073
Cd -28.247652 16.244528 -3.159313
Cd -26.074609 14.989921 -6.704233
Cd -28.247652 16.244528 3.930527
Cd -26.074609 14.989921 0.385607
Cd -28.247652 16.244528 11.020367
Cd -26.074609 14.989921 7.475447
Cd -28.247652 16.244528 18.110207
Cd -26.074609 14.989921 14.565287
Cd -28.247652 16.244528 25.200047
Cd -26.074609 14.989921 21.655127
Cd -28.247652 16.244528 32.289886
Cd -26.074609 14.989921 28.744967
Cd -28.247652 18.753742 -27.973753
Cd -28.247652 18.753742 -20.883913
Cd -28.247652 18.753742 -13.794073
Cd -28.247652 18.753742 -6.704233
Cd -28.247652 18.753742 0.385607
Cd -28.247652 18.753742 7.475447
Cd -28.247652 18.753742 14.565287
Cd -28.247652 18.753742 21.655127
Cd -28.247652 18.753742 28.744967
Cd 4.347988 -32.685136 -31.518672
Cd 4.347988 -32.685136 -24.428833
Cd 6.521031 -33.939743 -27.973753
Cd 4.347988 -32.685136 -17.338993
Cd 6.521031 -33.939743 -20.883913
Cd 4.347988 -32.685136 -10.249153
Cd 6.521031 -33.939743 -13.794073
Cd 4.347988 -32.685136 -3.159313
Cd 6.521031 -33.939743 -6.704233
Cd 4.347988 -32.685136 3.930527
Cd 6.521031 -33.939743 0.385607
Cd 4.347988 -32.685136 11.020367
Cd 6.521031 -33.939743 7.475447
Cd 4.347988 -32.685136 18.110207
Cd 6.521031 -33.939743 14.565287
Cd 4.347988 -32.685136 25.200047
Cd 6.521031 -33.939743 21.655127
Cd 4.347988 -32.685136 32.289886
Cd 6.521031 -33.939743 28.744967
Cd 2.174946 -28.921316 -31.518672
Cd 2.174946 -28.921316 -24.428833
Cd 4.347988 -30.175923 -27.973753
Cd 2.174946 -28.921316 -17.338993
Cd 4.347988 -30.175923 -20.883913
Cd 2.174946 -28.921316 -10.249153
Cd 4.347988 -30.175923 -13.794073
Cd 2.174946 -28.921316 -3.159313
Cd 4.347988 -30.175923 -6.704233
Cd 2.174946 -28.921316 3.930527
Cd 4.347988 -30.175923 0.385607
Cd 2.174946 -28.921316 11.020367
Cd 4.347988 -30.175923 7.475447
Cd 2.174946 -28.921316 18.110207
Cd 4.347988 -30.175923 14.565287
Cd 2.174946 -28.921316 25.200047
Cd 4.347988 -30.175923 21.655127
Cd 2.174946 -28.921316 32.289886
Cd 4.347988 -30.175923 28.744967
Cd 0.001903 -25.157496 -31.518672
Cd 0.001903 -25.157496 -24.428833
Cd 2.174946 -26.412102 -27.973753
Cd 0.001903 -25.157496 -17.338993
Cd 2.174946 -26.412102 -20.883913
Cd 0.001903 -25.157496 -10.249153
Cd 2.174946 -26.412102 -13.794073
Cd 0.001903 -25.157496 -3.159313
Cd 2.174946 -26.412102 -6.704233
Cd 0.001903 -25.157496 3.930527
Cd 2.174946 -26.412102 0.385607
Cd 0.001903 -25.157496 11.020367
Cd 2.174946 -26.412102 7.475447
Cd 0.001903 -25.157496 18.110207
Cd 2.174946 -26.412102 14.565287
Cd 0.001903 -25.157496 25.200047
Cd 2.174946 -26.412102 21.655127
Cd 2.174946 -26.412102 28.744967
Cd -2.171140 -21.393675 -24.428833
Cd 0.001903 -22.648282 -27.973753
Cd -2.171140 -21.393675 -17.338993
Cd 0.001903 -22.648282 -20.883913
Cd -2.171140 -21.393675 -10.249153
Cd 0.001903 -22.648282 -13.794073
Cd -2.171140 -21.393675 -3.159313
Cd 0.001903 -22.648282 -6.704233
Cd -2.171140 -21.393675 3.930527
Cd 0.001903 -22.648282 0.385607
Cd -2.171140 -21.393675 11.020367
Cd 0.001903 -22.648282 7.475447
Cd -2.171140 -21.393675 18.110207
Cd 0.001903 -22.648282 14.565287
Cd -2.171140 -21.393675 25.200047
Cd 0.001903 -22.648282 21.655127
Cd -2.171140 -21.393675 32.289886
Cd 0.001903 -22.648282 28.744967
Cd -4.344182 -17.629855 -31.518672
Cd -4.344182 -17.629855 -24.428833
Cd -2.171140 -18.884462 -27.973753
Cd -4.344182 -17.629855 -17.338993
Cd -2.171140 -18.884462 -20.883913
Cd -4.344182 -17.629855 -10.249153
Cd -2.171140 -18.884462 -13.794073
Cd -4.344182 -17.629855 -3.159313
Cd -2.171140 -18.884462 -6.704233
Cd -4.344182 -17.629855 3.930527
Cd -2.171140 -18.884462 0.385607
Cd -4.344182 -17.629855 11.020367
Cd -2.171140 -18.884462 7.475447
Cd -4.344182 -17.629855 18.110207
Cd -2.171140 -18.884462 14.565287
Cd -4.344182 -17.629855 25.200047
Cd -2.171140 -18.884462 21.655127
Cd -4.344182 -17.629855 32.289886
Cd -2.171140 -18.884462 28.744967
Cd -6.517225 -13.866035 -31.518672
Cd -6.517225 -13.866035 -24.428833
Cd -4.344182 -15.120641 -27.973753
Cd -6.517225 -13.866035 -17.338993
Cd -4.344182 -15.120641 -20.883913
Cd -6.517225 -13.866035 -10.249153
Cd -4.344182 -15.120641 -13.794073
Cd -6.517225 -13.866035 -3.159313
Cd -4.344182 -15.120641 -6.704233
Cd -6.517225 -13.866035 3.930527
Cd -4.344182 -15.120641 0.385607
Cd -6.517225 -13.866035 11.020367
Cd -4.344182 -15.120641 7.475447
Cd -6.517225 -13.866035 18.110207
Cd -4.344182 -15.120641 14.565287
Cd -6.517225 -13.866035 25.200047
Cd -4.344182 -15.120641 21.655127
Cd -6.517225 -13.866035 32.289886
Cd -4.344182 -15.120641 28.744967
Cd -8.690268 -10.102214 -24.428833
Cd -6.517225 -11.356821 -27.973753
Cd -8.690268 -10.102214 -17.338993
Cd -6.517225 -11.356821 -20.883913
Cd -8.690268 -10.102214 -10.249153
Cd -6.517225 -11.356821 -13.794073
Cd -8.690268 -10.102214 -3.159313
Cd -6.517225 -11.356821 -6.704233
Cd -8.690268 -10.102214 3.930527
Cd -6.517225 -11.356821 0.385607
Cd -8.690268 -10.102214 11.020367
Cd -6.517225 -11.356821 7.475447
Cd -8.690268 -10.102214 18.110207
Cd -6.517225 -11.356821 14.565287
Cd -8.690268 -10.102214 25.200047
Cd -6.517225 -11.356821 21.655127
Cd -8.690268 -10.102214 32.289886
Cd -6.517225 -11.356821 28.744967
Cd -10.863310 -6.338394 -31.518672
Cd -10.863310 -6.338394 -24.428833
Cd -8.690268 -7.593001 -27.973753
Cd -10.863310 -6.338394 -17.338993
Cd -8.690268 -7.593001 -20.883913
Cd -10.863310 -6.338394 -10.249153
Cd -8.690268 -7.593001 -13.794073
Cd -10.863310 -6.338394 -3.159313
Cd -8.690268 -7.593001 -6.704233
Cd -10.863310 -6.338394 3.930527
Cd -8.690268 -7.593001 0.385607
Cd -10.863310 -6.338394 11.020367
Cd -8.690268 -7.593001 7.475447
Cd -10.863310 -6.338394 18.110207
Cd -8.690268 -7.593001 14.565287
Cd -10.863310 -6.338394 25.200047
Cd -8.690268 -7.593001 21.655127
Cd -10.863310 -6.338394 32.289886
Cd -8.690268 -7.593001 28.744967
Cd -13.036353 -2.574574 -31.518672
Cd -13.036353 -2.574574 -24.428833
Cd -10.863310 -3.829180 -27.973753
Cd -13.036353 -2.574574 -17.338993
Cd -10.863310 -3.829180 -20.883913
Cd -13.036353 -2.574574 -10.249153
Cd -10.863310 -3.829180 -13.794073
Cd -13.036353 -2.574574 -3.159313
Cd -10.863310 -3.829180 -6.704233
Cd -13.036353 -2.574574 3.930527
Cd -10.863310 -3.829180 0.385607
Cd -13.036353 -2.574574 11.020367
Cd -10.863310 -3.829180 7.475447
Cd -13.036353 -2.574574 18.110207
Cd -10.863310 -3.829180 14.565287
Cd -13.036353 -2.574574 25.200047
Cd -10.863310 -3.829180 21.655127
Cd -13.036353 -2.574574 32.289886
Cd -10.863310 -3.829180 28.744967
Cd -15.209396 1.189247 -24.428833
Cd -13.036353 -0.065360 -27.973753
Cd -15.209396 1.189247 -17.338993
Cd -13.036353 -0.065360 -20.883913
Cd -15.209396 1.189247 -10.249153
Cd -13.036353 -0.065360 -13.794073
Cd -15.209396 1.189247 -3.159313
Cd -13.036353 -0.065360 -6.704233
Cd -15.209396 1.189247 3.930527
Cd -13.036353 -0.065360 0.385607
Cd -15.209396 1.189247 11.020367
Cd -13.036353 -0.065360 7.475447
Cd -15.209396 1.189247 18.110207
Cd -13.036353 -0.065360 14.565287
Cd -15.209396 1.189247 25.200047
Cd -13.036353 -0.065360 21.655127
Cd -15.209396 1.189247 32.289886
Cd -13.036353 -0.065360 28.744967
Cd -17.382439 4.953067 -31.518672
Cd -17.382439 4.953067 -24.428833
Cd -15.209396 3.698460 -27.973753
Cd -17.382439 4.953067 -17.338993
Cd -15.209396 3.698460 -20.883913
Cd -17.382439 4.953067 -10.249153
Cd -15.209396 3.698460 -13.794073
Cd -17.382439 4.953067 -3.159313
Cd -15.209396 3.698460 -6.704233
Cd -17.382439 4.953067 3.930527
Cd -15.209396 3.698460 0.385607
Cd -17.382439 4.953067 11.020367
Cd -15.209396 3.698460 7.475447
Cd -17.382439 4.953067 18.110207
Cd -15.209396 3.698460 14.565287
Cd -17.382439 4.953067 25.200047
Cd -15.209396 3.698460 21.655127
Cd -17.382439 4.953067 32.289886
Cd -15.209396 3.698460 28.744967
Cd -19.555481 8.716887 -31.518672
Cd -19.555481 8.716887 -24.428833
Cd -17.382439 7.462281 -27.973753
Cd -19.555481 8.716887 -17.338993
Cd -17.382439 7.462281 -20.883913
Cd -19.555481 8.716887 -10.249153
Cd -17.382439 7.462281 -13.794073
Cd -19.555481 8.716887 -3.159313
Cd -17.382439 7.462281 -6.704233
Cd -19.555481 8.716887 3.930527
Cd -17.382439 7.462281 0.385607
Cd -19.555481 8.716887 11.020367
Cd -17.382439 7.462281 7.475447
Cd -19.555481 8.716887 18.110207
Cd -17.382439 7.462281 14.565287
Cd -19.555481 8.716887 25.200047
Cd -17.382439 7.462281 21.655127
Cd -17.382439 7.462281 28.744967
Cd -21.728524 12.480708 -24.428833
Cd -19.555481 11.226101 -27.973753
Cd -21.728524 12.480708 -17.338993
Cd -19.555481 11.226101 -20.883913
Cd -21.728524 12.480708 -10.249153
Cd -19.555481 11.226101 -13.794073
Cd -21.728524 12.480708 -3.159313
Cd -19.555481 11.226101 -6.704233
Cd -21.728524 12.480708 3.930527
Cd -19.555481 11.226101 0.385607
Cd -21.728524 12.480708 11.020367
Cd -19.555481 11.226101 7.475447
Cd -21.728524 12.480708 18.110207
Cd -19.555481 11.226101 14.565287
Cd -21.728524 12.480708 25.200047
Cd -19.555481 11.226101 21.655127
Cd -21.728524 12.480708 32.289886
Cd -19.555481 11.226101 28.744967
Cd -23.901567 16.244528 -31.518672
Cd -23.901567 16.244528 -24.428833
Cd -21.728524 14.989921 -27.973753
Cd -23.901567 16.244528 -17.338993
Cd -21.728524 14.989921 -20.883913
Cd -23.901567 16.244528 -10.249153
Cd -21.728524 14.989921 -13.794073
Cd -23.901567 16.244528 -3.159313
Cd -21.728524 14.989921 -6.704233
Cd -23.901567 16.244528 3.930527
Cd -21.728524 14.989921 0.385607
Cd -23.901567 16.244528 11.020367
Cd -21.728524 14.989921 7.475447
Cd -23.901567 16.244528 18.110207
Cd -21.728524 14.989921 14.565287
Cd -23.901567 16.244528 25.200047
Cd -21.728524 14.989921 21.655127
Cd -23.901567 16.244528 32.289886
Cd -21.728524 14.989921 28.744967
Cd -26.074609 20.008349 -31.518672
Cd -26.074609 20.008349 -24.428833
Cd -23.901567 18.753742 -27.973753
Cd -26.074609 20.008349 -17.338993
Cd -23.901567 18.753742 -20.883913
Cd -26.074609 20.008349 -10.249153
Cd -23.901567 18.753742 -13.794073
Cd -26.074609 20.008349 -3.159313
Cd -23.901567 18.753742 -6.704233
Cd -26.074609 20.008349 3.930527
Cd -23.901567 18.753742 0.385607
Cd -26.074609 20.008349 11.020367
Cd -23.901567 18.753742 7.475447
Cd -26.074609 20.008349 18.110207
Cd -23.901567 18.753742 14.565287
Cd -26.074609 20.008349 25.200047
Cd -23.901567 18.753742 21.655127
Cd -26.074609 20.008349 32.289886
Cd -23.901567 18.753742 28.744967
Cd -26.074609 22.517562 -27.973753
Cd -26.074609 22.517562 -20.883913
Cd -26.074609 22.517562 -13.794073
Cd -26.074609 22.517562 -6.704233
Cd -26.074609 22.517562 0.385607
Cd -26.074609 22.517562 7.475447
Cd -26.074609 22.517562 14.565287
Cd -26.074609 22.517562 21.655127
Cd -26.074609 22.517562 28.744967
Cd 8.694074 -32.685136 -31.518672
Cd 8.694074 -32.685136 -24.428833
Cd 10.867116 -33.939743 -27.973753
Cd 8.694074 -32.685136 -17.338993
Cd 10.867116 -33.939743 -20.883913
Cd 8.694074 -32.685136 -10.249153
Cd 10.867116 -33.939743 -13.794073
Cd 8.694074 -32.685136 -3.159313
Cd 10.867116 -33.939743 -6.704233
Cd 8.694074 -32.685136 3.930527
Cd 10.867116 -33.939743 0.385607
Cd 8.694074 -32.685136 11.020367
Cd 10.867116 -33.939743 7.475447
Cd 8.694074 -32.685136 18.110207
Cd 10.867116 -33.939743 14.565287
Cd 8.694074 -32.685136 25.200047
Cd 10.867116 -33.939743 21.655127
Cd 8.694074 -32.685136 32.289886
Cd 10.867116 -33.939743 28.744967
Cd 6.521031 -28.921316 -31.518672
Cd 6.521031 -28.921316 -24.428833
Cd 8.694074 -30.175923 -27.973753
Cd 6.521031 -28.921316 -17.338993
Cd 8.694074 -30.175923 -20.883913
Cd 6.521031 -28.921316 -10.249153
Cd 8.694074 -30.175923 -13.794073
Cd 6.521031 -28.921316 -3.159313
Cd 8.694074 -30.175923 -6.704233
Cd 6.521031 -28.921316 3.930527
Cd 8.694074 -30.175923 0.385607
Cd 6.521031 -28.921316 11.020367
Cd 8.694074 -30.175923 7.475447
Cd 6.521031 -28.921316 18.110207
Cd 8.694074 -30.175923 14.565287
Cd 6.521031 -28.921316 25.200047
Cd 8.694074 -30.175923 21.655127
Cd 8.694074 -30.175923 28.744967
Cd 4.347988 -25.157496 -24.428833
Cd 6.521031 -26.412102 -27.973753
Cd 4.347988 -25.157496 -17.338993
Cd 6.521031 -26.412102 -20.883913
Cd 4.347988 -25.157496 -10.249153
Cd 6.521031 -26.412102 -13.794073
Cd 4.347988 -25.157496 -3.159313
Cd 6.521031 -26.412102 -6.704233
Cd 4.347988 -25.157496 3.930527
Cd 6.521031 -26.412102 0.385607
Cd 4.347988 -25.157496 11.020367
Cd 6.521031 -26.412102 7.475447
Cd 4.347988 -25.157496 18.110207
Cd 6.521031 -26.412102 14.565287
Cd 4.347988 -25.157496 25.200047
Cd 6.521031 -26.412102 21.655127
Cd 4.347988 -25.157496 32.289886
Cd 6.521031 -26.412102 28.744967
Cd 2.174946 -21.393675 -31.518672
Cd 2.174946 -21.393675 -24.428833
Cd 4.347988 -22.648282 -27.973753
Cd 2.174946 -21.393675 -17.338993
Cd 4.347988 -22.648282 -20.883913
Cd 2.174946 -21.393675 -10.249153
Cd 4.347988 -22.648282 -13.794073
Cd 2.174946 -21.393675 -3.159313
Cd 4.347988 -22.648282 -6.704233
Cd 2.174946 -21.393675 3.930527
Cd 4.347988 -22.648282 0.385607
Cd 2.174946 -21.393675 11.020367
Cd 4.347988 -22.648282 7.475447
Cd 2.174946 -21.393675 18.110207
Cd 4.347988 -22.648282 14.565287
Cd 2.174946 -21.393675 25.200047
Cd 4.347988 -22.648282 21.655127
Cd 2.174946 -21.393675 32.289886
Cd 4.347988 -22.648282 28.744967
Cd 0.001903 -17.629855 -31.518672
Cd 0.001903 -17.629855 -24.428833
Cd 2.174946 -18.884462 -27.973753
Cd 0.001903 -17.629855 -17.338993
Cd 2.174946 -18.884462 -20.883913
Cd 0.001903 -17.629855 -10.249153
Cd 2.174946 -18.884462 -13.794073
Cd 0.001903 -17.629855 -3.159313
Cd 2.174946 -18.884462 -6.704233
Cd 0.001903 -17.629855 3.930527
Cd 2.174946 -18.884462 0.385607
Cd 0.001903 -17.629855 11.020367
Cd 2.174946 -18.884462 7.475447
Cd 0.001903 -17.629855 18.110207
Cd 2.174946 -18.884462 14.565287
Cd 0.001903 -17.629855 25.200047
Cd 2.174946 -18.884462 21.655127
Cd 2.174946 -18.884462 28.744967
Cd -2.171140 -13.866035 -24.428833
Cd 0.001903 -15.120641 -27.973753
Cd -2.171140 -13.866035 -17.338993
Cd 0.001903 -15.120641 -20.883913
Cd -2.171140 -13.866035 -10.249153
Cd 0.001903 -15.120641 -13.794073
Cd -2.171140 -13.866035 -3.159313
Cd 0.001903 -15.120641 -6.704233
Cd -2.171140 -13.866035 3.930527
Cd 0.001903 -15.120641 0.385607
Cd -2.171140 -13.866035 11.020367
Cd 0.001903 -15.120641 7.475447
Cd -2.171140 -13.866035 18.110207
Cd 0.001903 -15.120641 14.565287
Cd -2.171140 -13.866035 25.200047
Cd 0.001903 -15.120641 21.655127
Cd -2.171140 -13.866035 32.289886
Cd 0.001903 -15.120641 28.744967
Cd -4.344182 -10.102214 -31.518672
Cd -4.344182 -10.102214 -24.428833
Cd -2.171140 -11.356821 -27.973753
Cd -4.344182 -10.102214 -17.338993
Cd -2.171140 -11.356821 -20.883913
Cd -4.344182 -10.102214 -10.249153
Cd -2.171140 -11.356821 -13.794073
Cd -4.344182 -10.102214 -3.159313
Cd -2.171140 -11.356821 -6.704233
Cd -4.344182 -10.102214 3.930527
Cd -2.171140 -11.356821 0.385607
Cd -4.344182 -10.102214 11.020367
Cd -2.171140 -11.356821 7.475447
Cd -4.344182 -10.102214 18.110207
Cd -2.171140 -11.356821 14.565287
Cd -4.344182 -10.102214 25.200047
Cd -2.171140 -11.356821 21.655127
Cd -4.344182 -10.102214 32.289886
Cd -2.171140 -11.356821 28.744967
Cd -6.517225 -6.338394 -31.518672
Cd -6.517225 -6.338394 -24.428833
Cd -4.344182 -7.593001 -27.973753
Cd -6.517225 -6.338394 -17.338993
Cd -4.344182 -7.593001 -20.883913
Cd -6.517225 -6.338394 -10.249153
Cd -4.344182 -7.593001 -13.794073
Cd -6.517225 -6.338394 -3.159313
Cd -4.344182 -7.593001 -6.704233
Cd -6.517225 -6.338394 3.930527
Cd -4.344182 -7.593001 0.385607
Cd -6.517225 -6.338394 11.020367
Cd -4.344182 -7.593001 7.475447
Cd -6.517225 -6.338394 18.110207
Cd -4.344182 -7.593001 14.565287
Cd -6.517225 -6.338394 25.200047
Cd -4.344182 -7.593001 21.655127
Cd -4.344182 -7.593001 28.744967
Cd -8.690268 -2.574574 -24.428833
Cd -6.517225 -3.829180 -27.973753
Cd -8.690268 -2.574574 -17.338993
Cd -6.517225 -3.829180 -20.883913
Cd -8.690268 -2.574574 -10.249153
Cd -6.517225 -3.829180 -13.794073
Cd -8.690268 -2.574574 -3.159313
Cd -6.517225 -3.829180 -6.704233
Cd -8.690268 -2.574574 3.930527
Cd -6.517225 -3.829180 0.385607
Cd -8.690268 -2.574574 11.020367
Cd -6.517225 -3.829180 7.475447
Cd -8.690268 -2.574574 18.110207
Cd -6.517225 -3.829180 14.565287
Cd -8.690268 -2.574574 25.200047
Cd -6.517225 -3.829180 21.655127
Cd -8.690268 -2.574574 32.289886
Cd -6.517225 -3.829180 28.744967
Cd -10.863310 1.189247 -31.518672
Cd -10.863310 1.189247 -24.428833
Cd -8.690268 -0.065360 -27.973753
Cd -10.863310 1.189247 -17.338993
Cd -8.690268 -0.065360 -20.883913
Cd -10.863310 1.189247 -10.249153
Cd -8.690268 -0.065360 -13.794073
Cd -10.863310 1.189247 -3.159313
Cd -8.690268 -0.065360 -6.704233
Cd -10.863310 1.189247 3.930527
Cd -8.690268 -0.065360 0.385607
Cd -10.863310 1.189247 11.020367
Cd -8.690268 -0.065360 7.475447
Cd -10.863310 1.189247 18.110207
Cd -8.690268 -0.065360 14.565287
Cd -10.863310 1.189247 25.200047
Cd -8.690268 -0.065360 21.655127
Cd -10.863310 1.189247 32.289886
Cd -8.690268 -0.065360 28.744967
Cd -13.036353 4.953067 -31.518672
Cd -13.036353 4.953067 -24.428833
Cd -10.863310 3.698460 -27.973753
Cd -13.036353 4.953067 -17.338993
Cd -10.863310 3.698460 -20.883913
Cd -13.036353 4.953067 -10.249153
Cd -10.863310 3.698460 -13.794073
Cd -13.036353 4.953067 -3.159313
Cd -10.863310 3.698460 -6.704233
Cd -13.036353 4.953067 3.930527
Cd -10.863310 3.698460 0.385607
Cd -13.036353 4.953067 11.020367
Cd -10.863310 3.698460 7.475447
Cd -13.036353 4.953067 18.110207
Cd -10.863310 3.698460 14.565287
Cd -13.036353 4.953067 25.200047
Cd -10.863310 3.698460 21.655127
Cd -13.036353 4.953067 32.289886
Cd -10.863310 3.698460 28.744967
Cd -15.209396 8.716887 -24.428833
Cd -13.036353 7.462281 -27.973753
Cd -15.209396 8.716887 -17.338993
Cd -13.036353 7.462281 -20.883913
Cd -15.209396 8.716887 -10.249153
Cd -13.036353 7.462281 -13.794073
Cd -15.209396 8.716887 -3.159313
Cd -13.036353 7.462281 -6.704233
Cd -15.209396 8.716887 3.930527
Cd -13.036353 7.462281 0.385607
Cd -15.209396 8.716887 11.020367
Cd -13.036353 7.462281 7.475447
Cd -15.209396 8.716887 18.110207
Cd -13.036353 7.462281 14.565287
Cd -15.209396 8.716887 25.200047
Cd -13.036353 7.462281 21.655127
Cd -15.209396 8.716887 32.289886
Cd -13.036353 7.462281 28.744967
Cd -17.382439 12.480708 -31.518672
Cd -17.382439 12.480708 -24.428833
Cd -15.209396 11.226101 -27.973753
Cd -17.382439 12.480708 -17.338993
Cd -15.209396 11.226101 -20.883913
Cd -17.382439 12.480708 -10.249153
Cd -15.209396 11.226101 -13.794073
Cd -17.382439 12.480708 -3.159313
Cd -15.209396 11.226101 -6.704233
Cd -17.382439 12.480708 3.930527
Cd -15.209396 11.226101 0.385607
Cd -17.382439 12.480708 11.020367
Cd -15.209396 11.226101 7.475447
Cd -17.382439 12.480708 18.110207
Cd -15.209396 11.226101 14.565287
Cd -17.382439 12.480708 25.200047
Cd -15.209396 11.226101 21.655127
Cd -17.382439 12.480708 32.289886
Cd -15.209396 11.226101 28.744967
Cd -19.555481 16.244528 -31.518672
Cd -19.555481 16.244528 -24.428833
Cd -17.382439 14.989921 -27.973753
Cd -19.555481 16.244528 -17.338993
Cd -17.382439 14.989921 -20.883913
Cd -19.555481 16.244528 -10.249153
Cd -17.382439 14.989921 -13.794073
Cd -19.555481 16.244528 -3.159313
Cd -17.382439 14.989921 -6.704233
Cd -19.555481 16.244528 3.930527
Cd -17.382439 14.989921 0.385607
Cd -19.555481 16.244528 11.020367
Cd -17.382439 14.989921 7.475447
Cd -19.555481 16.244528 18.110207
Cd -17.382439 14.989921 14.565287
Cd -19.555481 16.244528 25.200047
Cd -17.382439 14.989921 21.655127
Cd -17.382439 14.989921 28.744967
Cd -21.728524 20.008349 -24.428833
Cd -19.555481 18.753742 -27.973753
Cd -21.728524 20.008349 -17.338993
Cd -19.555481 18.753742 -20.883913
Cd -21.728524 20.008349 -10.249153
Cd -19.555481 18.753742 -13.794073
Cd -21.728524 20.008349 -3.159313
Cd -19.555481 18.753742 -6.704233
Cd -21.728524 20.008349 3.930527
Cd -19.555481 18.753742 0.385607
Cd -21.728524 20.008349 11.020367
Cd -19.555481 18.753742 7.475447
Cd -21.728524 20.008349 18.110207
Cd -19.555481 18.753742 14.565287
Cd -21.728524 20.008349 25.200047
Cd -19.555481 18.753742 21.655127
Cd -21.728524 20.008349 32.289886
Cd -19.555481 18.753742 28.744967
Cd -23.901567 23.772169 -31.518672
Cd -23.901567 23.772169 -24.428833
Cd -21.728524 22.517562 -27.973753
Cd -23.901567 23.772169 -17.338993
Cd -21.728524 22.517562 -20.883913
Cd -23.901567 23.772169 -10.249153
Cd -21.728524 22.517562 -13.794073
Cd -23.901567 23.772169 -3.159313
Cd -21.728524 22.517562 -6.704233
Cd -23.901567 23.772169 3.930527
Cd -21.728524 22.517562 0.385607
Cd -23.901567 23.772169 11.020367
Cd -21.728524 22.517562 7.475447
Cd -23.901567 23.772169 18.110207
Cd -21.728524 22.517562 14.565287
Cd -23.901567 23.772169 25.200047
Cd -21.728524 22.517562 21.655127
Cd -23.901567 23.772169 32.289886
Cd -21.728524 22.517562 28.744967
Cd -23.901567 26.281382 -27.973753
Cd -23.901567 26.281382 -20.883913
Cd -23.901567 26.281382 -13.794073
Cd -23.901567 26.281382 -6.704233
Cd -23.901567 26.281382 0.385607
Cd -23.901567 26.281382 7.475447
Cd -23.901567 26.281382 14.565287
Cd -23.901567 26.281382 21.655127
Cd -23.901567 26.281382 28.744967
Cd 13.040159 -32.685136 -31.518672
Cd 13.040159 -32.685136 -24.428833
Cd 15.213202 -33.939743 -27.973753
Cd 13.040159 -32.685136 -17.338993
Cd 15.213202 -33.939743 -20.883913
Cd 13.040159 -32.685136 -10.249153
Cd 15.213202 -33.939743 -13.794073
Cd 13.040159 -32.685136 -3.159313
Cd 15.213202 -33.939743 -6.704233
Cd 13.040159 -32.685136 3.930527
Cd 15.213202 -33.939743 0.385607
Cd 13.040159 -32.685136 11.020367
Cd 15.213202 -33.939743 7.475447
Cd 13.040159 -32.685136 18.110207
Cd 15.213202 -33.939743 14.565287
Cd 13.040159 -32.685136 25.200047
Cd 15.213202 -33.939743 21.655127
Cd 13.040159 -32.685136 32.289886
Cd 15.213202 -33.939743 28.744967
Cd 10.867116 -28.921316 -24.428833
Cd 13.040159 -30.175923 -27.973753
Cd 10.867116 -28.921316 -17.338993
Cd 13.040159 -30.175923 -20.883913
Cd 10.867116 -28.921316 -10.249153
Cd 13.040159 -30.175923 -13.794073
Cd 10.867116 -28.921316 -3.159313
Cd 13.040159 -30.175923 -6.704233
Cd 10.867116 -28.921316 3.930527
Cd 13.040159 -30.175923 0.385607
Cd 10.867116 -28.921316 11.020367
Cd 13.040159 -30.175923 7.475447
Cd 10.867116 -28.921316 18.110207
Cd 13.040159 -30.175923 14.565287
Cd 10.867116 -28.921316 25.200047
Cd 13.040159 -30.175923 21.655127
Cd 10.867116 -28.921316 32.289886
Cd 13.040159 -30.175923 28.744967
Cd 8.694074 -25.157496 -31.518672
Cd 8.694074 -25.157496 -24.428833
Cd 10.867116 -26.412102 -27.973753
Cd 8.694074 -25.157496 -17.338993
Cd 10.867116 -26.412102 -20.883913
Cd 8.694074 -25.157496 -10.249153
Cd 10.867116 -26.412102 -13.794073
Cd 8.694074 -25.157496 -3.159313
Cd 10.867116 -26.412102 -6.704233
Cd 8.694074 -25.157496 3.930527
Cd 10.867116 -26.412102 0.385607
Cd 8.694074 -25.157496 11.020367
Cd 10.867116 -26.412102 7.475447
Cd 8.694074 -25.157496 18.110207
Cd 10.867116 -26.412102 14.565287
Cd 8.694074 -25.157496 25.200047
Cd 10.867116 -26.412102 21.655127
Cd 8.694074 -25.157496 32.289886
Cd 10.867116 -26.412102 28.744967
Cd 6.521031 -21.393675 -31.518672
Cd 6.521031 -21.393675 -24.428833
Cd 8.694074 -22.648282 -27.973753
Cd 6.521031 -21.393675 -17.338993
Cd 8.694074 -22.648282 -20.883913
Cd 6.521031 -21.393675 -10.249153
Cd 8.694074 -22.648282 -13.794073
Cd 6.521031 -21.393675 -3.159313
Cd 8.694074 -22.648282 -6.704233
Cd 6.521031 -21.393675 3.930527
Cd 8.694074 -22.648282 0.385607
Cd 6.521031 -21.393675 11.020367
Cd 8.694074 -22.648282 7.475447
Cd 6.521031 -21.393675 18.110207
Cd 8.694074 -22.648282 14.565287
Cd 6.521031 -21.393675 25.200047
Cd 8.694074 -22.648282 21.655127
Cd 8.694074 -22.648282 28.744967
Cd 4.347988 -17.629855 -24.428833
Cd 6.521031 -18.884462 -27.973753
Cd 4.347988 -17.629855 -17.338993
Cd 6.521031 -18.884462 -20.883913
Cd 4.347988 -17.629855 -10.249153
Cd 6.521031 -18.884462 -13.794073
Cd 4.347988 -17.629855 -3.159313
Cd 6.521031 -18.884462 -6.704233
Cd 4.347988 -17.629855 3.930527
Cd 6.521031 -18.884462 0.385607
Cd 4.347988 -17.629855 11.020367
Cd 6.521031 -18.884462 7.475447
Cd 4.347988 -17.629855 18.110207
Cd 6.521031 -18.884462 14.565287
Cd 4.347988 -17.629855 25.200047
Cd 6.521031 -18.884462 21.655127
Cd 4.347988 -17.629855 32.289886
Cd 6.521031 -18.884462 28.744967
Cd 2.174946 -13.866035 -31.518672
Cd 2.174946 -13.866035 -24.428833
Cd 4.347988 -15.120641 -27.973753
Cd 2.174946 -13.866035 -17.338993
Cd 4.347988 -15.120641 -20.883913
Cd 2.174946 -13.866035 -10.249153
Cd 4.347988 -15.120641 -13.794073
Cd 2.174946 -13.866035 -3.159313
Cd 4.347988 -15.120641 -6.704233
Cd 2.174946 -13.866035 3.930527
Cd 4.347988 -15.120641 0.385607
Cd 2.174946 -13.866035 11.020367
Cd 4.347988 -15.120641 7.475447
Cd 2.174946 -13.866035 18.110207
Cd 4.347988 -15.120641 14.565287
Cd 2.174946 -13.866035 25.200047
Cd 4.347988 -15.120641 21.655127
Cd 2.174946 -13.866035 32.289886
Cd 4.347988 -15.120641 28.744967
Cd 0.001903 -10.102214 -31.518672
Cd 0.001903 -10.102214 -24.428833
Cd 2.174946 -11.356821 -27.973753
Cd 0.001903 -10.102214 -17.338993
Cd 2.174946 -11.356821 -20.883913
Cd 0.001903 -10.102214 -10.249153
Cd 2.174946 -11.356821 -13.794073
Cd 0.001903 -10.102214 -3.159313
Cd 2.174946 -11.356821 -6.704233
Cd 0.001903 -10.102214 3.930527
Cd 2.174946 -11.356821 0.385607
Cd 0.001903 -10.102214 11.020367
Cd 2.174946 -11.356821 7.475447
Cd 0.001903 -10.102214 18.110207
Cd 2.174946 -11.356821 14.565287
Cd 0.001903 -10.102214 25.200047
Cd 2.174946 -11.356821 21.655127
Cd 0.001903 -10.102214 32.289886
Cd 2.174946 -11.356821 28.744967
Cd -2.171140 -6.338394 -24.428833
Cd 0.001903 -7.593001 -27.973753
Cd -2.171140 -6.338394 -17.338993
Cd 0.001903 -7.593001 -20.883913
Cd -2.171140 -6.338394 -10.249153
Cd 0.001903 -7.593001 -13.794073
Cd -2.171140 -6.338394 -3.159313
Cd 0.001903 -7.593001 -6.704233
Cd -2.171140 -6.338394 3.930527
Cd 0.001903 -7.593001 0.385607
Cd -2.171140 -6.338394 11.020367
Cd 0.001903 -7.593001 7.475447
Cd -2.171140 -6.338394 18.110207
Cd 0.001903 -7.593001 14.565287
Cd -2.171140 -6.338394 25.200047
Cd 0.001903 -7.593001 21.655127
Cd -2.171140 -6.338394 32.289886
Cd 0.001903 -7.593001 28.744967
Cd -4.344182 -2.574574 -31.518672
Cd -4.344182 -2.574574 -24.428833
Cd -2.171140 -3.829180 -27.973753
Cd -4.344182 -2.574574 -17.338993
Cd -2.171140 -3.829180 -20.883913
Cd -4.344182 -2.574574 -10.249153
Cd -2.171140 -3.829180 -13.794073
Cd -4.344182 -2.574574 -3.159313
Cd -2.171140 -3.829180 -6.704233
Cd -4.344182 -2.574574 3.930527
Cd -2.171140 -3.829180 0.385607
Cd -4.344182 -2.574574 11.020367
Cd -2.171140 -3.829180 7.475447
Cd -4.344182 -2.574574 18.110207
Cd -2.171140 -3.829180 14.565287
Cd -4.344182 -2.574574 25.200047
Cd -2.171140 -3.829180 21.655127
Cd -4.344182 -2.574574 32.289886
Cd -2.171140 -3.829180 28.744967
Cd -6.517225 1.189247 -31.518672
Cd -6.517225 1.189247 -24.428833
Cd -4.344182 -0.065360 -27.973753
Cd -6.517225 1.189247 -17.338993
Cd -4.344182 -0.065360 -20.883913
Cd -6.517225 1.189247 -10.249153
Cd -4.344182 -0.065360 -13.794073
Cd -6.517225 1.189247 -3.159313
Cd -4.344182 -0.065360 -6.704233
Cd -6.517225 1.189247 3.930527
Cd -4.344182 -0.065360 0.385607
Cd -6.517225 1.189247 11.020367
Cd -4.344182 -0.065360 7.475447
Cd -6.517225 1.189247 18.110207
Cd -4.344182 -0.065360 14.565287
Cd -6.517225 1.189247 25.200047
Cd -4.344182 -0.065360 21.655127
Cd -6.517225 1.189247 32.289886
Cd -4.344182 -0.065360 28.744967
Cd -8.690268 4.953067 -24.428833
Cd -6.517225 3.698460 -27.973753
Cd -8.690268 4.953067 -17.338993
Cd -6.517225 3.698460 -20.883913
Cd -8.690268 4.953067 -10.249153
Cd -6.517225 3.698460 -13.794073
Cd -8.690268 4.953067 -3.159313
Cd -6.517225 3.698460 -6.704233
Cd -8.690268 4.953067 3.930527
Cd -6.517225 3.698460 0.385607
Cd -8.690268 4.953067 11.020367
Cd -6.517225 3.698460 7.475447
Cd -8.690268 4.953067 18.110207
Cd -6.517225 3.698460 14.565287
Cd -8.690268 4.953067 25.200047
Cd -6.517225 3.698460 21.655127
Cd -8.690268 4.953067 32.289886
Cd -6.517225 3.698460 28.744967
Cd -10.863310 8.716887 -31.518672
Cd -10.863310 8.716887 -24.428833
Cd -8.690268 7.462281 -27.973753
Cd -10.863310 8.716887 -17.338993
Cd -8.690268 7.462281 -20.883913
Cd -10.863310 8.716887 -10.249153
Cd -8.690268 7.462281 -13.794073
Cd -10.863310 8.716887 -3.159313
Cd -8.690268 7.462281 -6.704233
Cd -10.863310 8.716887 3.930527
Cd -8.690268 7.462281 0.385607
Cd -10.863310 8.716887 11.020367
Cd -8.690268 7.462281 7.475447
Cd -10.863310 8.716887 18.110207
Cd -8.690268 7.462281 14.565287
Cd -10.863310 8.716887 25.200047
Cd -8.690268 7.462281 21.655127
Cd -10.863310 8.716887 32.289886
Cd -8.690268 7.462281 28.744967
Cd -13.036353 12.480708 -31.518672
Cd -13.036353 12.480708 -24.428833
Cd -10.863310 11.226101 -27.973753
Cd -13.036353 12.480708 -17.338993
Cd -10.863310 11.226101 -20.883913
Cd -13.036353 12.480708 -10.249153
Cd -10.863310 11.226101 -13.794073
Cd -13.036353 12.480708 -3.159313
Cd -10.863310 11.226101 -6.704233
Cd -13.036353 12.480708 3.930527
Cd -10.863310 11.226101 0.385607
Cd -13.036353 12.480708 11.020367
Cd -10.863310 11.226101 7.475447
Cd -13.036353 12.480708 18.110207
Cd -10.863310 11.226101 14.565287
Cd -13.036353 12.480708 25.200047
Cd -10.863310 11.226101 21.655127
Cd -10.863310 11.226101 28.744967
Cd -15.209396 16.244528 -24.428833
Cd -13.036353 14.989921 -27.973753
Cd -15.209396 16.244528 -17.338993
Cd -13.036353 14.989921 -20.883913
Cd -15.209396 16.244528 -10.249153
Cd -13.036353 14.989921 -13.794073
Cd -15.209396 16.244528 -3.159313
Cd -13.036353 14.989921 -6.704233
Cd -15.209396 16.244528 3.930527
Cd -13.036353 14.989921 0.385607
Cd -15.209396 16.244528 11.020367
Cd -13.036353 14.989921 7.475447
Cd -15.209396 16.244528 18.110207
Cd -13.036353 14.989921 14.565287
Cd -15.209396 16.244528 25.200047
Cd -13.036353 14.989921 21.655127
Cd -15.209396 16.244528 32.289886
Cd -13.036353 14.989921 28.744967
Cd -17.382439 20.008349 -31.518672
Cd -17.382439 20.008349 -24.428833
Cd -15.209396 18.753742 -27.973753
Cd -17.382439 20.008349 -17.338993
Cd -15.209396 18.753742 -20.883913
Cd -17.382439 20.008349 -10.249153
Cd -15.209396 18.753742 -13.794073
Cd -17.382439 20.008349 -3.159313
Cd -15.209396 18.753742 -6.704233
Cd -17.382439 20.008349 3.930527
Cd -15.209396 18.753742 0.385607
Cd -17.382439 20.008349 11.020367
Cd -15.209396 18.753742 7.475447
Cd -17.382439 20.008349 18.110207
Cd -15.209396 18.753742 14.565287
Cd -17.382439 20.008349 25.200047
Cd -15.209396 18.753742 21.655127
Cd -17.382439 20.008349 32.289886
Cd -15.209396 18.753742 28.744967
Cd -19.555481 23.772169 -31.518672
Cd -19.555481 23.772169 -24.428833
Cd -17.382439 22.517562 -27.973753
Cd -19.555481 23.772169 -17.338993
Cd -17.382439 22.517562 -20.883913
Cd -19.555481 23.772169 -10.249153
Cd -17.382439 22.517562 -13.794073
Cd -19.555481 23.772169 -3.159313
Cd -17.382439 22.517562 -6.704233
Cd -19.555481 23.772169 3.930527
Cd -17.382439 22.517562 0.385607
Cd -19.555481 23.772169 11.020367
Cd -17.382439 22.517562 7.475447
Cd -19.555481 23.772169 18.110207
Cd -17.382439 22.517562 14.565287
Cd -19.555481 23.772169 25.200047
Cd -17.382439 22.517562 21.655127
Cd -17.382439 22.517562 28.744967
Cd -21.728524 27.535989 -31.518672
Cd -21.728524 27.535989 -24.428833
Cd -19.555481 26.281382 -27.973753
Cd -21.728524 27.535989 -17.338993
Cd -19.555481 26.281382 -20.883913
Cd -21.728524 27.535989 -10.249153
Cd -19.555481 26.281382 -13.794073
Cd -21.728524 27.535989 -3.159313
Cd -19.555481 26.281382 -6.704233
Cd -21.728524 27.535989 3.930527
Cd -19.555481 26.281382 0.385607
Cd -21.728524 27.535989 11.020367
Cd -19.555481 26.281382 7.475447
Cd -21.728524 27.535989 18.110207
Cd -19.555481 26.281382 14.565287
Cd -21.728524 27.535989 25.200047
Cd -19.555481 26.281382 21.655127
Cd -21.728524 27.535989 32.289886
Cd -19.555481 26.281382 28.744967
Cd -21.728524 30.045203 -27.973753
Cd -21.728524 30.045203 -20.883913
Cd -21.728524 30.045203 -13.794073
Cd -21.728524 30.045203 -6.704233
Cd -21.728524 30.045203 0.385607
Cd -21.728524 30.045203 7.475447
Cd -21.728524 30.045203 14.565287
Cd -21.728524 30.045203 21.655127
Cd -21.728524 30.045203 28.744967
Cd 17.386245 -32.685136 -31.518672
Cd 17.386245 -32.685136 -24.428833
Cd 17.386245 -32.685136 -17.338993
Cd 17.386245 -32.685136 -10.249153
Cd 17.386245 -32.685136 -3.159313
Cd 17.386245 -32.685136 3.930527
Cd 17.386245 -32.685136 11.020367
Cd 17.386245 -32.685136 18.110207
Cd 17.386245 -32.685136 25.200047
Cd 15.213202 -28.921316 -31.518672
Cd 15.213202 -28.921316 -24.428833
Cd 17.386245 -30.175923 -27.973753
Cd 15.213202 -28.921316 -17.338993
Cd 17.386245 -30.175923 -20.883913
Cd 15.213202 -28.921316 -10.249153
Cd 17.386245 -30.175923 -13.794073
Cd 15.213202 -28.921316 -3.159313
Cd 17.386245 -30.175923 -6.704233
Cd 15.213202 -28.921316 3.930527
Cd 17.386245 -30.175923 0.385607
Cd 15.213202 -28.921316 11.020367
Cd 17.386245 -30.175923 7.475447
Cd 15.213202 -28.921316 18.110207
Cd 17.386245 -30.175923 14.565287
Cd 15.213202 -28.921316 25.200047
Cd 17.386245 -30.175923 21.655127
Cd 15.213202 -28.921316 32.289886
Cd 17.386245 -30.175923 28.744967
Cd 13.040159 -25.157496 -31.518672
Cd 13.040159 -25.157496 -24.428833
Cd 15.213202 -26.412102 -27.973753
Cd 13.040159 -25.157496 -17.338993
Cd 15.213202 -26.412102 -20.883913
Cd 13.040159 -25.157496 -10.249153
Cd 15.213202 -26.412102 -13.794073
Cd 13.040159 -25.157496 -3.159313
Cd 15.213202 -26.412102 -6.704233
Cd 13.040159 -25.157496 3.930527
Cd 15.213202 -26.412102 0.385607
Cd 13.040159 -25.157496 11.020367
Cd 15.213202 -26.412102 7.475447
Cd 13.040159 -25.157496 18.110207
Cd 15.213202 -26.412102 14.565287
Cd 13.040159 -25.157496 25.200047
Cd 15.213202 -26.412102 21.655127
Cd 15.213202 -26.412102 28.744967
Cd 10.867116 -21.393675 -24.428833
Cd 13.040159 -22.648282 -27.973753
Cd 10.867116 -21.393675 -17.338993
Cd 13.040159 -22.648282 -20.883913
Cd 10.867116 -21.393675 -10.249153
Cd 13.040159 -22.648282 -13.794073
Cd 10.867116 -21.393675 -3.159313
Cd 13.040159 -22.648282 -6.704233
Cd 10.867116 -21.393675 3.930527
Cd 13.040159 -22.648282 0.385607
Cd 10.867116 -21.393675 11.020367
Cd 13.040159 -22.648282 7.475447
Cd 10.867116 -21.393675 18.110207
Cd 13.040159 -22.648282 14.565287
Cd 10.867116 -21.393675 25.200047
Cd 13.040159 -22.648282 21.655127
Cd 10.867116 -21.393675 32.289886
Cd 13.040159 -22.648282 28.744967
Cd 8.694074 -17.629855 -31.518672
Cd 8.694074 -17.629855 -24.428833
Cd 10.867116 -18.884462 -27.973753
Cd 8.694074 -17.629855 -17.338993
Cd 10.867116 -18.884462 -20.883913
Cd 8.694074 -17.629855 -10.249153
Cd 10.867116 -18.884462 -13.794073
Cd 8.694074 -17.629855 -3.159313
Cd 10.867116 -18.884462 -6.704233
Cd 8.694074 -17.629855 3.930527
Cd 10.867116 -18.884462 0.385607
Cd 8.694074 -17.629855 11.020367
Cd 10.867116 -18.884462 7.475447
Cd 8.694074 -17.629855 18.110207
Cd 10.867116 -18.884462 14.565287
Cd 8.694074 -17.629855 25.200047
Cd 10.867116 -18.884462 21.655127
Cd 8.694074 -17.629855 32.289886
Cd 10.867116 -18.884462 28.744967
Cd 6.521031 -13.866035 -31.518672
Cd 6.521031 -13.866035 -24.428833
Cd 8.694074 -15.120641 -27.973753
Cd 6.521031 -13.866035 -17.338993
Cd 8.694074 -15.120641 -20.883913
Cd 6.521031 -13.866035 -10.249153
Cd 8.694074 -15.120641 -13.794073
Cd 6.521031 -13.866035 -3.159313
Cd 8.694074 -15.120641 -6.704233
Cd 6.521031 -13.866035 3.930527
Cd 8.694074 -15.120641 0.385607
Cd 6.521031 -13.866035 11.020367
Cd 8.694074 -15.120641 7.475447
Cd 6.521031 -13.866035 18.110207
Cd 8.694074 -15.120641 14.565287
Cd 6.521031 -13.866035 25.200047
Cd 8.694074 -15.120641 21.655127
Cd 6.521031 -13.866035 32.289886
Cd 8.694074 -15.120641 28.744967
Cd 4.347988 -10.102214 -24.428833
Cd 6.521031 -11.356821 -27.973753
Cd 4.347988 -10.102214 -17.338993
Cd 6.521031 -11.356821 -20.883913
Cd 4.347988 -10.102214 -10.249153
Cd 6.521031 -11.356821 -13.794073
Cd 4.347988 -10.102214 -3.159313
Cd 6.521031 -11.356821 -6.704233
Cd 4.347988 -10.102214 3.930527
Cd 6.521031 -11.356821 0.385607
Cd 4.347988 -10.102214 11.020367
Cd 6.521031 -11.356821 7.475447
Cd 4.347988 -10.102214 18.110207
Cd 6.521031 -11.356821 14.565287
Cd 4.347988 -10.102214 25.200047
Cd 6.521031 -11.356821 21.655127
Cd 4.347988 -10.102214 32.289886
Cd 6.521031 -11.356821 28.744967
Cd 2.174946 -6.338394 -31.518672
Cd 2.174946 -6.338394 -24.428833
Cd 4.347988 -7.593001 -27.973753
Cd 2.174946 -6.338394 -17.338993
Cd 4.347988 -7.593001 -20.883913
Cd 2.174946 -6.338394 -10.249153
Cd 4.347988 -7.593001 -13.794073
Cd 2.174946 -6.338394 -3.159313
Cd 4.347988 -7.593001 -6.704233
Cd 2.174946 -6.338394 3.930527
Cd 4.347988 -7.593001 0.385607
Cd 2.174946 -6.338394 11.020367
Cd 4.347988 -7.593001 7.475447
Cd 2.174946 -6.338394 18.110207
Cd 4.347988 -7.593001 14.565287
Cd 2.174946 -6.338394 25.200047
Cd 4.347988 -7.593001 21.655127
Cd 2.174946 -6.338394 32.289886
Cd 4.347988 -7.593001 28.744967
Cd 0.001903 -2.574574 -31.518672
Cd 0.001903 -2.574574 -24.428833
Cd 2.174946 -3.829180 -27.973753
Cd 0.001903 -2.574574 -17.338993
Cd 2.174946 -3.829180 -20.883913
Cd 0.001903 -2.574574 -10.249153
Cd 2.174946 -3.829180 -13.794073
Cd 0.001903 -2.574574 -3.159313
Cd 2.174946 -3.829180 -6.704233
Cd 0.001903 -2.574574 3.930527
Cd 2.174946 -3.829180 0.385607
Cd 0.001903 -2.574574 11.020367
Cd 2.174946 -3.829180 7.475447
Cd 0.001903 -2.574574 18.110207
Cd 2.174946 -3.829180 14.565287
Cd 0.001903 -2.574574 25.200047
Cd 2.174946 -3.829180 21.655127
Cd 0.001903 -2.574574 32.289886
Cd 2.174946 -3.829180 28.744967
Cd -2.171140 1.189247 -24.428833
Cd 0.001903 -0.065360 -27.973753
Cd -2.171140 1.189247 -17.338993
Cd 0.001903 -0.065360 -20.883913
Cd -2.171140 1.189247 -10.249153
Cd 0.001903 -0.065360 -13.794073
Cd -2.171140 1.189247 -3.159313
Cd 0.001903 -0.065360 -6.704233
Cd -2.171140 1.189247 3.930527
Cd 0.001903 -0.065360 0.385607
Cd -2.171140 1.189247 11.020367
Cd 0.001903 -0.065360 7.475447
Cd -2.171140 1.189247 18.110207
Cd 0.001903 -0.065360 14.565287
Cd -2.171140 1.189247 25.200047
Cd 0.001903 -0.065360 21.655127
Cd -2.171140 1.189247 32.289886
Cd 0.001903 -0.065360 28.744967
Cd -4.344182 4.953067 -31.518672
Cd -4.344182 4.953067 -24.428833
Cd -2.171140 3.698460 -27.973753
Cd -4.344182 4.953067 -17.338993
Cd -2.171140 3.698460 -20.883913
Cd -4.344182 4.953067 -10.249153
Cd -2.171140 3.698460 -13.794073
Cd -4.344182 4.953067 -3.159313
Cd -2.171140 3.698460 -6.704233
Cd -4.344182 4.953067 3.930527
Cd -2.171140 3.698460 0.385607
Cd -4.344182 4.953067 11.020367
Cd -2.171140 3.698460 7.475447
Cd -4.344182 4.953067 18.110207
Cd -2.171140 3.698460 14.565287
Cd -4.344182 4.953067 25.200047
Cd -2.171140 3.698460 21.655127
Cd -4.344182 4.953067 32.289886
Cd -2.171140 3.698460 28.744967
Cd -6.517225 8.716887 -31.518672
Cd -6.517225 8.716887 -24.428833
Cd -4.344182 7.462281 -27.973753
Cd -6.517225 8.716887 -17.338993
Cd -4.344182 7.462281 -20.883913
Cd -6.517225 8.716887 -10.249153
Cd -4.344182 7.462281 -13.794073
Cd -6.517225 8.716887 -3.159313
Cd -4.344182 7.462281 -6.704233
Cd -6.517225 8.716887 3.930527
Cd -4.344182 7.462281 0.385607
Cd -6.517225 8.716887 11.020367
Cd -4.344182 7.462281 7.475447
Cd -6.517225 8.716887 18.110207
Cd -4.344182 7.462281 14.565287
Cd -6.517225 8.716887 25.200047
Cd -4.344182 7.462281 21.655127
Cd -6.517225 8.716887 32.289886
Cd -4.344182 7.462281 28.744967
Cd -8.690268 12.480708 -24.428833
Cd -6.517225 11.226101 -27.973753
Cd -8.690268 12.480708 -17.338993
Cd -6.517225 11.226101 -20.883913
Cd -8.690268 12.480708 -10.249153
Cd -6.517225 11.226101 -13.794073
Cd -8.690268 12.480708 -3.159313
Cd -6.517225 11.226101 -6.704233
Cd -8.690268 12.480708 3.930527
Cd -6.517225 11.226101 0.385607
Cd -8.690268 12.480708 11.020367
Cd -6.517225 11.226101 7.475447
Cd -8.690268 12.480708 18.110207
Cd -6.517225 11.226101 14.565287
Cd -8.690268 12.480708 25.200047
Cd -6.517225 11.226101 21.655127
Cd -8.690268 12.480708 32.289886
Cd -6.517225 11.226101 28.744967
Cd -10.863310 16.244528 -31.518672
Cd -10.863310 16.244528 -24.428833
Cd -8.690268 14.989921 -27.973753
Cd -10.863310 16.244528 -17.338993
Cd -8.690268 14.989921 -20.883913
Cd -10.863310 16.244528 -10.249153
Cd -8.690268 14.989921 -13.794073
Cd -10.863310 16.244528 -3.159313
Cd -8.690268 14.989921 -6.704233
Cd -10.863310 16.244528 3.930527
Cd -8.690268 14.989921 0.385607
Cd -10.863310 16.244528 11.020367
Cd -8.690268 14.989921 7.475447
Cd -10.863310 16.244528 18.110207
Cd -8.690268 14.989921 14.565287
Cd -10.863310 16.244528 25.200047
Cd -8.690268 14.989921 21.655127
Cd -10.863310 16.244528 32.289886
Cd -8.690268 14.989921 28.744967
Cd -13.036353 20.008349 -31.518672
Cd -13.036353 20.008349 -24.428833
Cd -10.863310 18.753742 -27.973753
Cd -13.036353 20.008349 -17.338993
Cd -10.863310 18.753742 -20.883913
Cd -13.036353 20.008349 -10.249153
Cd -10.863310 18.753742 -13.794073
Cd -13.036353 20.008349 -3.159313
Cd -10.863310 18.753742 -6.704233
Cd -13.036353 20.008349 3.930527
Cd -10.863310 18.753742 0.385607
Cd -13.036353 20.008349 11.020367
Cd -10.863310 18.753742 7.475447
Cd -13.036353 20.008349 18.110207
Cd -10.863310 18.753742 14.565287
Cd -13.036353 20.008349 25.200047
Cd -10.863310 18.753742 21.655127
Cd -10.863310 18.753742 28.744967
Cd -15.209396 23.772169 -24.428833
Cd -13.036353 22.517562 -27.973753
Cd -15.209396 23.772169 -17.338993
Cd -13.036353 22.517562 -20.883913
Cd -15.209396 23.772169 -10.249153
Cd -13.036353 22.517562 -13.794073
Cd -15.209396 23.772169 -3.159313
Cd -13.036353 22.517562 -6.704233
Cd -15.209396 23.772169 3.930527
Cd -13.036353 22.517562 0.385607
Cd -15.209396 23.772169 11.020367
Cd -13.036353 22.517562 7.475447
Cd -15.209396 23.772169 18.110207
Cd -13.036353 22.517562 14.565287
Cd -15.209396 23.772169 25.200047
Cd -13.036353 22.517562 21.655127
Cd -15.209396 23.772169 32.289886
Cd -13.036353 22.517562 28.744967
Cd -17.382439 27.535989 -31.518672
Cd -17.382439 27.535989 -24.428833
Cd -15.209396 26.281382 -27.973753
Cd -17.382439 27.535989 -17.338993
Cd -15.209396 26.281382 -20.883913
Cd -17.382439 27.535989 -10.249153
Cd -15.209396 26.281382 -13.794073
Cd -17.382439 27.535989 -3.159313
Cd -15.209396 26.281382 -6.704233
Cd -17.382439 27.535989 3.930527
Cd -15.209396 26.281382 0.385607
Cd -17.382439 27.535989 11.020367
Cd -15.209396 26.281382 7.475447
Cd -17.382439 27.535989 18.110207
Cd -15.209396 26.281382 14.565287
Cd -17.382439 27.535989 25.200047
Cd -15.209396 26.281382 21.655127
Cd -17.382439 27.535989 32.289886
Cd -15.209396 26.281382 28.744967
Cd -19.555481 31.299810 -31.518672
Cd -19.555481 31.299810 -24.428833
Cd -17.382439 30.045203 -27.973753
Cd -19.555481 31.299810 -17.338993
Cd -17.382439 30.045203 -20.883913
Cd -19.555481 31.299810 -10.249153
Cd -17.382439 30.045203 -13.794073
Cd -19.555481 31.299810 -3.159313
Cd -17.382439 30.045203 -6.704233
Cd -19.555481 31.299810 3.930527
Cd -17.382439 30.045203 0.385607
Cd -19.555481 31.299810 11.020367
Cd -17.382439 30.045203 7.475447
Cd -19.555481 31.299810 18.110207
Cd -17.382439 30.045203 14.565287
Cd -19.555481 31.299810 25.200047
Cd -17.382439 30.045203 21.655127
Cd -19.555481 31.299810 32.289886
Cd -17.382439 30.045203 28.744967
Cd 19.559287 -28.921316 -31.518672
Cd 19.559287 -28.921316 -24.428833
Cd 19.559287 -28.921316 -17.338993
Cd 19.559287 -28.921316 -10.249153
Cd 19.559287 -28.921316 -3.159313
Cd 19.559287 -28.921316 3.930527
Cd 19.559287 -28.921316 11.020367
Cd 19.559287 -28.921316 18.110207
Cd 19.559287 -28.921316 25.200047
Cd 17.386245 -25.157496 -24.428833
Cd 19.559287 -26.412102 -27.973753
Cd 17.386245 -25.157496 -17.338993
Cd 19.559287 -26.412102 -20.883913
Cd 17.386245 -25.157496 -10.249153
Cd 19.559287 -26.412102 -13.794073
Cd 17.386245 -25.157496 -3.159313
Cd 19.559287 -26.412102 -6.704233
Cd 17.386245 -25.157496 3.930527
Cd 19.559287 -26.412102 0.385607
Cd 17.386245 -25.157496 11.020367
Cd 19.559287 -26.412102 7.475447
Cd 17.386245 -25.157496 18.110207
Cd 19.559287 -26.412102 14.565287
Cd 17.386245 -25.157496 25.200047
Cd 19.559287 -26.412102 21.655127
Cd 17.386245 -25.157496 32.289886
Cd 19.559287 -26.412102 28.744967
Cd 15.213202 -21.393675 -31.518672
Cd 15.213202 -21.393675 -24.428833
Cd 17.386245 -22.648282 -27.973753
Cd 15.213202 -21.393675 -17.338993
Cd 17.386245 -22.648282 -20.883913
Cd 15.213202 -21.393675 -10.249153
Cd 17.386245 -22.648282 -13.794073
Cd 15.213202 -21.393675 -3.159313
Cd 17.386245 -22.648282 -6.704233
Cd 15.213202 -21.393675 3.930527
Cd 17.386245 -22.648282 0.385607
Cd 15.213202 -21.393675 11.020367
Cd 17.386245 -22.648282 7.475447
Cd 15.213202 -21.393675 18.110207
Cd 17.386245 -22.648282 14.565287
Cd 15.213202 -21.393675 25.200047
Cd 17.386245 -22.648282 21.655127
Cd 15.213202 -21.393675 32.289886
Cd 17.386245 -22.648282 28.744967
Cd 13.040159 -17.629855 -31.518672
Cd 13.040159 -17.629855 -24.428833
Cd 15.213202 -18.884462 -27.973753
Cd 13.040159 -17.629855 -17.338993
Cd 15.213202 -18.884462 -20.883913
Cd 13.040159 -17.629855 -10.249153
Cd 15.213202 -18.884462 -13.794073
Cd 13.040159 -17.629855 -3.159313
Cd 15.213202 -18.884462 -6.704233
Cd 13.040159 -17.629855 3.930527
Cd 15.213202 -18.884462 0.385607
Cd 13.040159 -17.629855 11.020367
Cd 15.213202 -18.884462 7.475447
Cd 13.040159 -17.629855 18.110207
Cd 15.213202 -18.884462 14.565287
Cd 13.040159 -17.629855 25.200047
Cd 15.213202 -18.884462 21.655127
Cd 15.213202 -18.884462 28.744967
Cd 10.867116 -13.866035 -24.428833
Cd 13.040159 -15.120641 -27.973753
Cd 10.867116 -13.866035 -17.338993
Cd 13.040159 -15.120641 -20.883913
Cd 10.867116 -13.866035 -10.249153
Cd 13.040159 -15.120641 -13.794073
Cd 10.867116 -13.866035 -3.159313
Cd 13.040159 -15.120641 -6.704233
Cd 10.867116 -13.866035 3.930527
Cd 13.040159 -15.120641 0.385607
Cd 10.867116 -13.866035 11.020367
Cd 13.040159 -15.120641 7.475447
Cd 10.867116 -13.866035 18.110207
Cd 13.040159 -15.120641 14.565287
Cd 10.867116 -13.866035 25.200047
Cd 13.040159 -15.120641 21.655127
Cd 10.867116 -13.866035 32.289886
Cd 13.040159 -15.120641 28.744967
Cd 8.694074 -10.102214 -31.518672
Cd 8.694074 -10.102214 -24.428833
Cd 10.867116 -11.356821 -27.973753
Cd 8.694074 -10.102214 -17.338993
Cd 10.867116 -11.356821 -20.883913
Cd 8.694074 -10.102214 -10.249153
Cd 10.867116 -11.356821 -13.794073
Cd 8.694074 -10.102214 -3.159313
Cd 10.867116 -11.356821 -6.704233
Cd 8.694074 -10.102214 3.930527
Cd 10.867116 -11.356821 0.385607
Cd 8.694074 -10.102214 11.020367
Cd 10.867116 -11.356821 7.475447
Cd 8.694074 -10.102214 18.110207
Cd 10.867116 -11.356821 14.565287
Cd 8.694074 -10.102214 25.200047
Cd 10.867116 -11.356821 21.655127
Cd 8.694074 -10.102214 32.289886
Cd 10.867116 -11.356821 28.744967
Cd 6.521031 -6.338394 -31.518672
Cd 6.521031 -6.338394 -24.428833
Cd 8.694074 -7.593001 -27.973753
Cd 6.521031 -6.338394 -17.338993
Cd 8.694074 -7.593001 -20.883913
Cd 6.521031 -6.338394 -10.249153
Cd 8.694074 -7.593001 -13.794073
Cd 6.521031 -6.338394 -3.159313
Cd 8.694074 -7.593001 -6.704233
Cd 6.521031 -6.338394 3.930527
Cd 8.694074 -7.593001 0.385607
Cd 6.521031 -6.338394 11.020367
Cd 8.694074 -7.593001 7.475447
Cd 6.521031 -6.338394 18.110207
Cd 8.694074 -7.593001 14.565287
Cd 6.521031 -6.338394 25.200047
Cd 8.694074 -7.593001 21.655127
Cd 8.694074 -7.593001 28.744967
Cd 4.347988 -2.574574 -24.428833
Cd 6.521031 -3.829180 -27.973753
Cd 4.347988 -2.574574 -17.338993
Cd 6.521031 -3.829180 -20.883913
Cd 4.347988 -2.574574 -10.249153
Cd 6.521031 -3.829180 -13.794073
Cd 4.347988 -2.574574 -3.159313
Cd 6.521031 -3.829180 -6.704233
Cd 4.347988 -2.574574 3.930527
Cd 6.521031 -3.829180 0.385607
Cd 4.347988 -2.574574 11.020367
Cd 6.521031 -3.829180 7.475447
Cd 4.347988 -2.574574 18.110207
Cd 6.521031 -3.829180 14.565287
Cd 4.347988 -2.574574 25.200047
Cd 6.521031 -3.829180 21.655127
Cd 4.347988 -2.574574 32.289886
Cd 6.521031 -3.829180 28.744967
Cd 2.174946 1.189247 -31.518672
Cd 2.174946 1.189247 -24.428833
Cd 4.347988 -0.065360 -27.973753
Cd 2.174946 1.189247 -17.338993
Cd 4.347988 -0.065360 -20.883913
Cd 2.174946 1.189247 -10.249153
Cd 4.347988 -0.065360 -13.794073
Cd 2.174946 1.189247 -3.159313
Cd 4.347988 -0.065360 -6.704233
Cd 2.174946 1.189247 3.930527
Cd 4.347988 -0.065360 0.385607
Cd 2.174946 1.189247 11.020367
Cd 4.347988 -0.065360 7.475447
Cd 2.174946 1.189247 18.110207
Cd 4.347988 -0.065360 14.565287
Cd 2.174946 1.189247 25.200047
Cd 4.347988 -0.065360 21.655127
Cd 2.174946 1.189247 32.289886
Cd 4.347988 -0.065360 28.744967
Cd 0.001903 4.953067 -31.518672
Cd 0.001903 4.953067 -24.428833
Cd 2.174946 3.698460 -27.973753
Cd 0.001903 4.953067 -17.338993
Cd 2.174946 3.698460 -20.883913
Cd 0.001903 4.953067 -10.249153
Cd 2.174946 3.698460 -13.794073
Cd 0.001903 4.953067 -3.159313
Cd 2.174946 3.698460 -6.704233
Cd 0.001903 4.953067 3.930527
Cd 2.174946 3.698460 0.385607
Cd 0.001903 4.953067 11.020367
Cd 2.174946 3.698460 7.475447
Cd 0.001903 4.953067 18.110207
Cd 2.174946 3.698460 14.565287
Cd 0.001903 4.953067 25.200047
Cd 2.174946 3.698460 21.655127
Cd 0.001903 4.953067 32.289886
Cd 2.174946 3.698460 28.744967
Cd -2.171140 8.716887 -24.428833
Cd 0.001903 7.462281 -27.973753
Cd -2.171140 8.716887 -17.338993
Cd 0.001903 7.462281 -20.883913
Cd -2.171140 8.716887 -10.249153
Cd 0.001903 7.462281 -13.794073
Cd -2.171140 8.716887 -3.159313
Cd 0.001903 7.462281 -6.704233
Cd -2.171140 8.716887 3.930527
Cd 0.001903 7.462281 0.385607
Cd -2.171140 8.716887 11.020367
Cd 0.001903 7.462281 7.475447
Cd -2.171140 8.716887 18.110207
Cd 0.001903 7.462281 14.565287
Cd -2.171140 8.716887 25.200047
Cd 0.001903 7.462281 21.655127
Cd -2.171140 8.716887 32.289886
Cd 0.001903 7.462281 28.744967
Cd -4.344182 12.480708 -31.518672
Cd -4.344182 12.480708 -24.428833
Cd -2.171140 11.226101 -27.973753
Cd -4.344182 12.480708 -17.338993
Cd -2.171140 11.226101 -20.883913
Cd -4.344182 12.480708 -10.249153
Cd -2.171140 11.226101 -13.794073
Cd -4.344182 12.480708 -3.159313
Cd -2.171140 11.226101 -6.704233
Cd -4.344182 12.480708 3.930527
Cd -2.171140 11.226101 0.385607
Cd -4.344182 12.480708 11.020367
Cd -2.171140 11.226101 7.475447
Cd -4.344182 12.480708 18.110207
Cd -2.171140 11.226101 14.565287
Cd -4.344182 12.480708 25.200047
Cd -2.171140 11.226101 21.655127
Cd -4.344182 12.480708 32.289886
Cd -2.171140 11.226101 28.744967
Cd -6.517225 16.244528 -31.518672
Cd -6.517225 16.244528 -24.428833
Cd -4.344182 14.989921 -27.973753
Cd -6.517225 16.244528 -17.338993
Cd -4.344182 14.989921 -20.883913
Cd -6.517225 16.244528 -10.249153
Cd -4.344182 14.989921 -13.794073
Cd -6.517225 16.244528 -3.159313
Cd -4.344182 14.989921 -6.704233
Cd -6.517225 16.244528 3.930527
Cd -4.344182 14.989921 0.385607
Cd -6.517225 16.244528 11.020367
Cd -4.344182 14.989921 7.475447
Cd -6.517225 16.244528 18.110207
Cd -4.344182 14.989921 14.565287
Cd -6.517225 16.244528 25.200047
Cd -4.344182 14.989921 21.655127
Cd -6.517225 16.244528 32.289886
Cd -4.344182 14.989921 28.744967
Cd -8.690268 20.008349 -24.428833
Cd -6.517225 18.753742 -27.973753
Cd -8.690268 20.008349 -17.338993
Cd -6.517225 18.753742 -20.883913
Cd -8.690268 20.008349 -10.249153
Cd -6.517225 18.753742 -13.794073
Cd -8.690268 20.008349 -3.159313
Cd -6.517225 18.753742 -6.704233
Cd -8.690268 20.008349 3.930527
Cd -6.517225 18.753742 0.385607
Cd -8.690268 20.008349 11.020367
Cd -6.517225 18.753742 7.475447
Cd -8.690268 20.008349 18.110207
Cd -6.517225 18.753742 14.565287
Cd -8.690268 20.008349 25.200047
Cd -6.517225 18.753742 21.655127
Cd -8.690268 20.008349 32.289886
Cd -6.517225 18.753742 28.744967
Cd -10.863310 23.772169 -31.518672
Cd -10.863310 23.772169 -24.428833
Cd -8.690268 22.517562 -27.973753
Cd -10.863310 23.772169 -17.338993
Cd -8.690268 22.517562 -20.883913
Cd -10.863310 23.772169 -10.249153
Cd -8.690268 22.517562 -13.794073
Cd -10.863310 23.772169 -3.159313
Cd -8.690268 22.517562 -6.704233
Cd -10.863310 23.772169 3.930527
Cd -8.690268 22.517562 0.385607
Cd -10.863310 23.772169 11.020367
Cd -8.690268 22.517562 7.475447
Cd -10.863310 23.772169 18.110207
Cd -8.690268 22.517562 14.565287
Cd -10.863310 23.772169 25.200047
Cd -8.690268 22.517562 21.655127
Cd -10.863310 23.772169 32.289886
Cd -8.690268 22.517562 28.744967
Cd -13.036353 27.535989 -31.518672
Cd -13.036353 27.535989 -24.428833
Cd -10.863310 26.281382 -27.973753
Cd -13.036353 27.535989 -17.338993
Cd -10.863310 26.281382 -20.883913
Cd -13.036353 27.535989 -10.249153
Cd -10.863310 26.281382 -13.794073
Cd -13.036353 27.535989 -3.159313
Cd -10.863310 26.281382 -6.704233
Cd -13.036353 27.535989 3.930527
Cd -10.863310 26.281382 0.385607
Cd -13.036353 27.535989 11.020367
Cd -10.863310 26.281382 7.475447
Cd -13.036353 27.535989 18.110207
Cd -10.863310 26.281382 14.565287
Cd -13.036353 27.535989 25.200047
Cd -10.863310 26.281382 21.655127
Cd -10.863310 26.281382 28.744967
Cd -15.209396 31.299810 -31.518672
Cd -15.209396 31.299810 -24.428833
Cd -13.036353 30.045203 -27.973753
Cd -15.209396 31.299810 -17.338993
Cd -13.036353 30.045203 -20.883913
Cd -15.209396 31.299810 -10.249153
Cd -13.036353 30.045203 -13.794073
Cd -15.209396 31.299810 -3.159313
Cd -13.036353 30.045203 -6.704233
Cd -15.209396 31.299810 3.930527
Cd -13.036353 30.045203 0.385607
Cd -15.209396 31.299810 11.020367
Cd -13.036353 30.045203 7.475447
Cd -15.209396 31.299810 18.110207
Cd -13.036353 30.045203 14.565287
Cd -15.209396 31.299810 25.200047
Cd -13.036353 30.045203 21.655127
Cd -15.209396 31.299810 32.289886
Cd -13.036353 30.045203 28.744967
Cd 21.732330 -25.157496 -31.518672
Cd 21.732330 -25.157496 -24.428833
Cd 21.732330 -25.157496 -17.338993
Cd 21.732330 -25.157496 -10.249153
Cd 21.732330 -25.157496 -3.159313
Cd 21.732330 -25.157496 3.930527
Cd 21.732330 -25.157496 11.020367
Cd 21.732330 -25.157496 18.110207
Cd 21.732330 -25.157496 25.200047
Cd 19.559287 -21.393675 -31.518672
Cd 19.559287 -21.393675 -24.428833
Cd 21.732330 -22.648282 -27.973753
Cd 19.559287 -21.393675 -17.338993
Cd 21.732330 -22.648282 -20.883913
Cd 19.559287 -21.393675 -10.249153
Cd 21.732330 -22.648282 -13.794073
Cd 19.559287 -21.393675 -3.159313
Cd 21.732330 -22.648282 -6.704233
Cd 19.559287 -21.393675 3.930527
Cd 21.732330 -22.648282 0.385607
Cd 19.559287 -21.393675 11.020367
Cd 21.732330 -22.648282 7.475447
Cd 19.559287 -21.393675 18.110207
Cd 21.732330 -22.648282 14.565287
Cd 19.559287 -21.393675 25.200047
Cd 21.732330 -22.648282 21.655127
Cd 19.559287 -21.393675 32.289886
Cd 21.732330 -22.648282 28.744967
Cd 17.386245 -17.629855 -24.428833
Cd 19.559287 -18.884462 -27.973753
Cd 17.386245 -17.629855 -17.338993
Cd 19.559287 -18.884462 -20.883913
Cd 17.386245 -17.629855 -10.249153
Cd 19.559287 -18.884462 -13.794073
Cd 17.386245 -17.629855 -3.159313
Cd 19.559287 -18.884462 -6.704233
Cd 17.386245 -17.629855 3.930527
Cd 19.559287 -18.884462 0.385607
Cd 17.386245 -17.629855 11.020367
Cd 19.559287 -18.884462 7.475447
Cd 17.386245 -17.629855 18.110207
Cd 19.559287 -18.884462 14.565287
Cd 17.386245 -17.629855 25.200047
Cd 19.559287 -18.884462 21.655127
Cd 17.386245 -17.629855 32.289886
Cd 19.559287 -18.884462 28.744967
Cd 15.213202 -13.866035 -31.518672
Cd 15.213202 -13.866035 -24.428833
Cd 17.386245 -15.120641 -27.973753
Cd 15.213202 -13.866035 -17.338993
Cd 17.386245 -15.120641 -20.883913
Cd 15.213202 -13.866035 -10.249153
Cd 17.386245 -15.120641 -13.794073
Cd 15.213202 -13.866035 -3.159313
Cd 17.386245 -15.120641 -6.704233
Cd 15.213202 -13.866035 3.930527
Cd 17.386245 -15.120641 0.385607
Cd 15.213202 -13.866035 11.020367
Cd 17.386245 -15.120641 7.475447
Cd 15.213202 -13.866035 18.110207
Cd 17.386245 -15.120641 14.565287
Cd 15.213202 -13.866035 25.200047
Cd 17.386245 -15.120641 21.655127
Cd 15.213202 -13.866035 32.289886
Cd 17.386245 -15.120641 28.744967
Cd 13.040159 -10.102214 -31.518672
Cd 13.040159 -10.102214 -24.428833
Cd 15.213202 -11.356821 -27.973753
Cd 13.040159 -10.102214 -17.338993
Cd 15.213202 -11.356821 -20.883913
Cd 13.040159 -10.102214 -10.249153
Cd 15.213202 -11.356821 -13.794073
Cd 13.040159 -10.102214 -3.159313
Cd 15.213202 -11.356821 -6.704233
Cd 13.040159 -10.102214 3.930527
Cd 15.213202 -11.356821 0.385607
Cd 13.040159 -10.102214 11.020367
Cd 15.213202 -11.356821 7.475447
Cd 13.040159 -10.102214 18.110207
Cd 15.213202 -11.356821 14.565287
Cd 13.040159 -10.102214 25.200047
Cd 15.213202 -11.356821 21.655127
Cd 13.040159 -10.102214 32.289886
Cd 15.213202 -11.356821 28.744967
Cd 10.867116 -6.338394 -24.428833
Cd 13.040159 -7.593001 -27.973753
Cd 10.867116 -6.338394 -17.338993
Cd 13.040159 -7.593001 -20.883913
Cd 10.867116 -6.338394 -10.249153
Cd 13.040159 -7.593001 -13.794073
Cd 10.867116 -6.338394 -3.159313
Cd 13.040159 -7.593001 -6.704233
Cd 10.867116 -6.338394 3.930527
Cd 13.040159 -7.593001 0.385607
Cd 10.867116 -6.338394 11.020367
Cd 13.040159 -7.593001 7.475447
Cd 10.867116 -6.338394 18.110207
Cd 13.040159 -7.593001 14.565287
Cd 10.867116 -6.338394 25.200047
Cd 13.040159 -7.593001 21.655127
Cd 10.867116 -6.338394 32.289886
Cd 13.040159 -7.593001 28.744967
Cd 8.694074 -2.574574 -31.518672
Cd 8.694074 -2.574574 -24.428833
Cd 10.867116 -3.829180 -27.973753
Cd 8.694074 -2.574574 -17.338993
Cd 10.867116 -3.829180 -20.883913
Cd 8.694074 -2.574574 -10.249153
Cd 10.867116 -3.829180 -13.794073
Cd 8.694074 -2.574574 -3.159313
Cd 10.867116 -3.829180 -6.704233
Cd 8.694074 -2.574574 3.930527
Cd 10.867116 -3.829180 0.385607
Cd 8.694074 -2.574574 11.020367
Cd 10.867116 -3.829180 7.475447
Cd 8.694074 -2.574574 18.110207
Cd 10.867116 -3.829180 14.565287
Cd 8.694074 -2.574574 25.200047
Cd 10.867116 -3.829180 21.655127
Cd 8.694074 -2.574574 32.289886
Cd 10.867116 -3.829180 28.744967
Cd 6.521031 1.189247 -31.518672
Cd 6.521031 1.189247 -24.428833
Cd 8.694074 -0.065360 -27.973753
Cd 6.521031 1.189247 -17.338993
Cd 8.694074 -0.065360 -20.883913
Cd 6.521031 1.189247 -10.249153
Cd 8.694074 -0.065360 -13.794073
Cd 6.521031 1.189247 -3.159313
Cd 8.694074 -0.065360 -6.704233
Cd 6.521031 1.189247 3.930527
Cd 8.694074 -0.065360 0.385607
Cd 6.521031 1.189247 11.020367
Cd 8.694074 -0.065360 7.475447
Cd 6.521031 1.189247 18.110207
Cd 8.694074 -0.065360 14.565287
Cd 6.521031 1.189247 25.200047
Cd 8.694074 -0.065360 21.655127
Cd 6.521031 1.189247 32.289886
Cd 8.694074 -0.065360 28.744967
Cd 4.347988 4.953067 -24.428833
Cd 6.521031 3.698460 -27.973753
Cd 4.347988 4.953067 -17.338993
Cd 6.521031 3.698460 -20.883913
Cd 4.347988 4.953067 -10.249153
Cd 6.521031 3.698460 -13.794073
Cd 4.347988 4.953067 -3.159313
Cd 6.521031 3.698460 -6.704233
Cd 4.347988 4.953067 3.930527
Cd 6.521031 3.698460 0.385607
Cd 4.347988 4.953067 11.020367
Cd 6.521031 3.698460 7.475447
Cd 4.347988 4.953067 18.110207
Cd 6.521031 3.698460 14.565287
Cd 4.347988 4.953067 25.200047
Cd 6.521031 3.698460 21.655127
Cd 4.347988 4.953067 32.289886
Cd 6.521031 3.698460 28.744967
Cd 2.174946 8.716887 -31.518672
Cd 2.174946 8.716887 -24.428833
Cd 4.347988 7.462281 -27.973753
Cd 2.174946 8.716887 -17.338993
Cd 4.347988 7.462281 -20.883913
Cd 2.174946 8.716887 -10.249153
Cd 4.347988 7.462281 -13.794073
Cd 2.174946 8.716887 -3.159313
Cd 4.347988 7.462281 -6.704233
Cd 2.174946 8.716887 3.930527
Cd 4.347988 7.462281 0.385607
Cd 2.174946 8.716887 11.020367
Cd 4.347988 7.462281 7.475447
Cd 2.174946 8.716887 18.110207
Cd 4.347988 7.462281 14.565287
Cd 2.174946 8.716887 25.200047
Cd 4.347988 7.462281 21.655127
Cd 2.174946 8.716887 32.289886
Cd 4.347988 7.462281 28.744967
Cd 0.001903 12.480708 -31.518672
Cd 0.001903 12.480708 -24.428833
Cd 2.174946 11.226101 -27.973753
Cd 0.001903 12.480708 -17.338993
Cd 2.174946 11.226101 -20.883913
Cd 0.001903 12.480708 -10.249153
Cd 2.174946 11.226101 -13.794073
Cd 0.001903 12.480708 -3.159313
Cd 2.174946 11.226101 -6.704233
Cd 0.001903 12.480708 3.930527
Cd 2.174946 11.226101 0.385607
Cd 0.001903 12.480708 11.020367
Cd 2.174946 11.226101 7.475447
Cd 0.001903 12.480708 18.110207
Cd 2.174946 11.226101 14.565287
Cd 0.001903 12.480708 25.200047
Cd 2.174946 11.226101 21.655127
Cd 2.174946 11.226101 28.744967
Cd -2.171140 16.244528 -24.428833
Cd 0.001903 14.989921 -27.973753
Cd -2.171140 16.244528 -17.338993
Cd 0.001903 14.989921 -20.883913
Cd -2.171140 16.244528 -10.249153
Cd 0.001903 14.989921 -13.794073
Cd -2.171140 16.244528 -3.159313
Cd 0.001903 14.989921 -6.704233
Cd -2.171140 16.244528 3.930527
Cd 0.001903 14.989921 0.385607
Cd -2.171140 16.244528 11.020367
Cd 0.001903 14.989921 7.475447
Cd -2.171140 16.244528 18.110207
Cd 0.001903 14.989921 14.565287
Cd -2.171140 16.244528 25.200047
Cd 0.001903 14.989921 21.655127
Cd -2.171140 16.244528 32.289886
Cd 0.001903 14.989921 28.744967
Cd -4.344182 20.008349 -31.518672
Cd -4.344182 20.008349 -24.428833
Cd -2.171140 18.753742 -27.973753
Cd -4.344182 20.008349 -17.338993
Cd -2.171140 18.753742 -20.883913
Cd -4.344182 20.008349 -10.249153
Cd -2.171140 18.753742 -13.794073
Cd -4.344182 20.008349 -3.159313
Cd -2.171140 18.753742 -6.704233
Cd -4.344182 20.008349 3.930527
Cd -2.171140 18.753742 0.385607
Cd -4.344182 20.008349 11.020367
Cd -2.171140 18.753742 7.475447
Cd -4.344182 20.008349 18.110207
Cd -2.171140 18.753742 14.565287
Cd -4.344182 20.008349 25.200047
Cd -2.171140 18.753742 21.655127
Cd -4.344182 20.008349 32.289886
Cd -2.171140 18.753742 28.744967
Cd -6.517225 23.772169 -31.518672
Cd -6.517225 23.772169 -24.428833
Cd -4.344182 22.517562 -27.973753
Cd -6.517225 23.772169 -17.338993
Cd -4.344182 22.517562 -20.883913
Cd -6.517225 23.772169 -10.249153
Cd -4.344182 22.517562 -13.794073
Cd -6.517225 23.772169 -3.159313
Cd -4.344182 22.517562 -6.704233
Cd -6.517225 23.772169 3.930527
Cd -4.344182 22.517562 0.385607
Cd -6.517225 23.772169 11.020367
Cd -4.344182 22.517562 7.475447
Cd -6.517225 23.772169 18.110207
Cd -4.344182 22.517562 14.565287
Cd -6.517225 23.772169 25.200047
Cd -4.344182 22.517562 21.655127
Cd -4.344182 22.517562 28.744967
Cd -8.690268 27.535989 -24.428833
Cd -6.517225 26.281382 -27.973753
Cd -8.690268 27.535989 -17.338993
Cd -6.517225 26.281382 -20.883913
Cd -8.690268 27.535989 -10.249153
Cd -6.517225 26.281382 -13.794073
Cd -8.690268 27.535989 -3.159313
Cd -6.517225 26.281382 -6.704233
Cd -8.690268 27.535989 3.930527
Cd -6.517225 26.281382 0.385607
Cd -8.690268 27.535989 11.020367
Cd -6.517225 26.281382 7.475447
Cd -8.690268 27.535989 18.110207
Cd -6.517225 26.281382 14.565287
Cd -8.690268 27.535989 25.200047
Cd -6.517225 26.281382 21.655127
Cd -8.690268 27.535989 32.289886
Cd -6.517225 26.281382 28.744967
Cd -10.863310 31.299810 -31.518672
Cd -10.863310 31.299810 -24.428833
Cd -8.690268 30.045203 -27.973753
Cd -10.863310 31.299810 -17.338993
Cd -8.690268 30.045203 -20.883913
Cd -10.863310 31.299810 -10.249153
Cd -8.690268 30.045203 -13.794073
Cd -10.863310 31.299810 -3.159313
Cd -8.690268 30.045203 -6.704233
Cd -10.863310 31.299810 3.930527
Cd -8.690268 30.045203 0.385607
Cd -10.863310 31.299810 11.020367
Cd -8.690268 30.045203 7.475447
Cd -10.863310 31.299810 18.110207
Cd -8.690268 30.045203 14.565287
Cd -10.863310 31.299810 25.200047
Cd -8.690268 30.045203 21.655127
Cd -10.863310 31.299810 32.289886
Cd -8.690268 30.045203 28.744967
Cd 23.905373 -21.393675 -31.518672
Cd 23.905373 -21.393675 -24.428833
Cd 23.905373 -21.393675 -17.338993
Cd 23.905373 -21.393675 -10.249153
Cd 23.905373 -21.393675 -3.159313
Cd 23.905373 -21.393675 3.930527
Cd 23.905373 -21.393675 11.020367
Cd 23.905373 -21.393675 18.110207
Cd 23.905373 -21.393675 25.200047
Cd 21.732330 -17.629855 -31.518672
Cd 21.732330 -17.629855 -24.428833
Cd 23.905373 -18.884462 -27.973753
Cd 21.732330 -17.629855 -17.338993
Cd 23.905373 -18.884462 -20.883913
Cd 21.732330 -17.629855 -10.249153
Cd 23.905373 -18.884462 -13.794073
Cd 21.732330 -17.629855 -3.159313
Cd 23.905373 -18.884462 -6.704233
Cd 21.732330 -17.629855 3.930527
Cd 23.905373 -18.884462 0.385607
Cd 21.732330 -17.629855 11.020367
Cd 23.905373 -18.884462 7.475447
Cd 21.732330 -17.629855 18.110207
Cd 23.905373 -18.884462 14.565287
Cd 21.732330 -17.629855 25.200047
Cd 23.905373 -18.884462 21.655127
Cd 21.732330 -17.629855 32.289886
Cd 23.905373 -18.884462 28.744967
Cd 19.559287 -13.866035 -31.518672
Cd 19.559287 -13.866035 -24.428833
Cd 21.732330 -15.120641 -27.973753
Cd 19.559287 -13.866035 -17.338993
Cd 21.732330 -15.120641 -20.883913
Cd 19.559287 -13.866035 -10.249153
Cd 21.732330 -15.120641 -13.794073
Cd 19.559287 -13.866035 -3.159313
Cd 21.732330 -15.120641 -6.704233
Cd 19.559287 -13.866035 3.930527
Cd 21.732330 -15.120641 0.385607
Cd 19.559287 -13.866035 11.020367
Cd 21.732330 -15.120641 7.475447
Cd 19.559287 -13.866035 18.110207
Cd 21.732330 -15.120641 14.565287
Cd 19.559287 -13.866035 25.200047
Cd 21.732330 -15.120641 21.655127
Cd 21.732330 -15.120641 28.744967
Cd 17.386245 -10.102214 -24.428833
Cd 19.559287 -11.356821 -27.973753
Cd 17.386245 -10.102214 -17.338993
Cd 19.559287 -11.356821 -20.883913
Cd 17.386245 -10.102214 -10.249153
Cd 19.559287 -11.356821 -13.794073
Cd 17.386245 -10.102214 -3.159313
Cd 19.559287 -11.356821 -6.704233
Cd 17.386245 -10.102214 3.930527
Cd 19.559287 -11.356821 0.385607
Cd 17.386245 -10.102214 11.020367
Cd 19.559287 -11.356821 7.475447
Cd 17.386245 -10.102214 18.110207
Cd 19.559287 -11.356821 14.565287
Cd 17.386245 -10.102214 25.200047
Cd 19.559287 -11.356821 21.655127
Cd 17.386245 -10.102214 32.289886
Cd 19.559287 -11.356821 28.744967
Cd 15.213202 -6.338394 -31.518672
Cd 15.213202 -6.338394 -24.428833
Cd 17.386245 -7.593001 -27.973753
Cd 15.213202 -6.338394 -17.338993
Cd 17.386245 -7.593001 -20.883913
Cd 15.213202 -6.338394 -10.249153
Cd 17.386245 -7.593001 -13.794073
Cd 15.213202 -6.338394 -3.159313
Cd 17.386245 -7.593001 -6.704233
Cd 15.213202 -6.338394 3.930527
Cd 17.386245 -7.593001 0.385607
Cd 15.213202 -6.338394 11.020367
Cd 17.386245 -7.593001 7.475447
Cd 15.213202 -6.338394 18.110207
Cd 17.386245 -7.593001 14.565287
Cd 15.213202 -6.338394 25.200047
Cd 17.386245 -7.593001 21.655127
Cd 15.213202 -6.338394 32.289886
Cd 17.386245 -7.593001 28.744967
Cd 13.040159 -2.574574 -31.518672
Cd 13.040159 -2.574574 -24.428833
Cd 15.213202 -3.829180 -27.973753
Cd 13.040159 -2.574574 -17.338993
Cd 15.213202 -3.829180 -20.883913
Cd 13.040159 -2.574574 -10.249153
Cd 15.213202 -3.829180 -13.794073
Cd 13.040159 -2.574574 -3.159313
Cd 15.213202 -3.829180 -6.704233
Cd 13.040159 -2.574574 3.930527
Cd 15.213202 -3.829180 0.385607
Cd 13.040159 -2.574574 11.020367
Cd 15.213202 -3.829180 7.475447
Cd 13.040159 -2.574574 18.110207
Cd 15.213202 -3.829180 14.565287
Cd 13.040159 -2.574574 25.200047
Cd 15.213202 -3.829180 21.655127
Cd 13.040159 -2.574574 32.289886
Cd 15.213202 -3.829180 28.744967
Cd 10.867116 1.189247 -24.428833
Cd 13.040159 -0.065360 -27.973753
Cd 10.867116 1.189247 -17.338993
Cd 13.040159 -0.065360 -20.883913
Cd 10.867116 1.189247 -10.249153
Cd 13.040159 -0.065360 -13.794073
Cd 10.867116 1.189247 -3.159313
Cd 13.040159 -0.065360 -6.704233
Cd 10.867116 1.189247 3.930527
Cd 13.040159 -0.065360 0.385607
Cd 10.867116 1.189247 11.020367
Cd 13.040159 -0.065360 7.475447
Cd 10.867116 1.189247 18.110207
Cd 13.040159 -0.065360 14.565287
Cd 10.867116 1.189247 25.200047
Cd 13.040159 -0.065360 21.655127
Cd 10.867116 1.189247 32.289886
Cd 13.040159 -0.065360 28.744967
Cd 8.694074 4.953067 -31.518672
Cd 8.694074 4.953067 -24.428833
Cd 10.867116 3.698460 -27.973753
Cd 8.694074 4.953067 -17.338993
Cd 10.867116 3.698460 -20.883913
Cd 8.694074 4.953067 -10.249153
Cd 10.867116 3.698460 -13.794073
Cd 8.694074 4.953067 -3.159313
Cd 10.867116 3.698460 -6.704233
Cd 8.694074 4.953067 3.930527
Cd 10.867116 3.698460 0.385607
Cd 8.694074 4.953067 11.020367
Cd 10.867116 3.698460 7.475447
Cd 8.694074 4.953067 18.110207
Cd 10.867116 3.698460 14.565287
Cd 8.694074 4.953067 25.200047
Cd 10.867116 3.698460 21.655127
Cd 8.694074 4.953067 32.289886
Cd 10.867116 3.698460 28.744967
Cd 6.521031 8.716887 -31.518672
Cd 6.521031 8.716887 -24.428833
Cd 8.694074 7.462281 -27.973753
Cd 6.521031 8.716887 -17.338993
Cd 8.694074 7.462281 -20.883913
Cd 6.521031 8.716887 -10.249153
Cd 8.694074 7.462281 -13.794073
Cd 6.521031 8.716887 -3.159313
Cd 8.694074 7.462281 -6.704233
Cd 6.521031 8.716887 3.930527
Cd 8.694074 7.462281 0.385607
Cd 6.521031 8.716887 11.020367
Cd 8.694074 7.462281 7.475447
Cd 6.521031 8.716887 18.110207
Cd 8.694074 7.462281 14.565287
Cd 6.521031 8.716887 25.200047
Cd 8.694074 7.462281 21.655127
Cd 6.521031 8.716887 32.289886
Cd 8.694074 7.462281 28.744967
Cd 4.347988 12.480708 -24.428833
Cd 6.521031 11.226101 -27.973753
Cd 4.347988 12.480708 -17.338993
Cd 6.521031 11.226101 -20.883913
Cd 4.347988 12.480708 -10.249153
Cd 6.521031 11.226101 -13.794073
Cd 4.347988 12.480708 -3.159313
Cd 6.521031 11.226101 -6.704233
Cd 4.347988 12.480708 3.930527
Cd 6.521031 11.226101 0.385607
Cd 4.347988 12.480708 11.020367
Cd 6.521031 11.226101 7.475447
Cd 4.347988 12.480708 18.110207
Cd 6.521031 11.226101 14.565287
Cd 4.347988 12.480708 25.200047
Cd 6.521031 11.226101 21.655127
Cd 4.347988 12.480708 32.289886
Cd 6.521031 11.226101 28.744967
Cd 2.174946 16.244528 -31.518672
Cd 2.174946 16.244528 -24.428833
Cd 4.347988 14.989921 -27.973753
Cd 2.174946 16.244528 -17.338993
Cd 4.347988 14.989921 -20.883913
Cd 2.174946 16.244528 -10.249153
Cd 4.347988 14.989921 -13.794073
Cd 2.174946 16.244528 -3.159313
Cd 4.347988 14.989921 -6.704233
Cd 2.174946 16.244528 3.930527
Cd 4.347988 14.989921 0.385607
Cd 2.174946 16.244528 11.020367
Cd 4.347988 14.989921 7.475447
Cd 2.174946 16.244528 18.110207
Cd 4.347988 14.989921 14.565287
Cd 2.174946 16.244528 25.200047
Cd 4.347988 14.989921 21.655127
Cd 2.174946 16.244528 32.289886
Cd 4.347988 14.989921 28.744967
Cd 0.001903 20.008349 -31.518672
Cd 0.001903 20.008349 -24.428833
Cd 2.174946 18.753742 -27.973753
Cd 0.001903 20.008349 -17.338993
Cd 2.174946 18.753742 -20.883913
Cd 0.001903 20.008349 -10.249153
Cd 2.174946 18.753742 -13.794073
Cd 0.001903 20.008349 -3.159313
Cd 2.174946 18.753742 -6.704233
Cd 0.001903 20.008349 3.930527
Cd 2.174946 18.753742 0.385607
Cd 0.001903 20.008349 11.020367
Cd 2.174946 18.753742 7.475447
Cd 0.001903 20.008349 18.110207
Cd 2.174946 18.753742 14.565287
Cd 0.001903 20.008349 25.200047
Cd 2.174946 18.753742 21.655127
Cd 2.174946 18.753742 28.744967
Cd -2.171140 23.772169 -24.428833
Cd 0.001903 22.517562 -27.973753
Cd -2.171140 23.772169 -17.338993
Cd 0.001903 22.517562 -20.883913
Cd -2.171140 23.772169 -10.249153
Cd 0.001903 22.517562 -13.794073
Cd -2.171140 23.772169 -3.159313
Cd 0.001903 22.517562 -6.704233
Cd -2.171140 23.772169 3.930527
Cd 0.001903 22.517562 0.385607
Cd -2.171140 23.772169 11.020367
Cd 0.001903 22.517562 7.475447
Cd -2.171140 23.772169 18.110207
Cd 0.001903 22.517562 14.565287
Cd -2.171140 23.772169 25.200047
Cd 0.001903 22.517562 21.655127
Cd -2.171140 23.772169 32.289886
Cd 0.001903 22.517562 28.744967
Cd -4.344182 27.535989 -31.518672
Cd -4.344182 27.535989 -24.428833
Cd -2.171140 26.281382 -27.973753
Cd -4.344182 27.535989 -17.338993
Cd -2.171140 26.281382 -20.883913
Cd -4.344182 27.535989 -10.249153
Cd -2.171140 26.281382 -13.794073
Cd -4.344182 27.535989 -3.159313
Cd -2.171140 26.281382 -6.704233
Cd -4.344182 27.535989 3.930527
Cd -2.171140 26.281382 0.385607
Cd -4.344182 27.535989 11.020367
Cd -2.171140 26.281382 7.475447
Cd -4.344182 27.535989 18.110207
Cd -2.171140 26.281382 14.565287
Cd -4.344182 27.535989 25.200047
Cd -2.171140 26.281382 21.655127
Cd -4.344182 27.535989 32.289886
Cd -2.171140 26.281382 28.744967
Cd -6.517225 31.299810 -31.518672
Cd -6.517225 31.299810 -24.428833
Cd -4.344182 30.045203 -27.973753
Cd -6.517225 31.299810 -17.338993
Cd -4.344182 30.045203 -20.883913
Cd -6.517225 31.299810 -10.249153
Cd -4.344182 30.045203 -13.794073
Cd -6.517225 31.299810 -3.159313
Cd -4.344182 30.045203 -6.704233
Cd -6.517225 31.299810 3.930527
Cd -4.344182 30.045203 0.385607
Cd -6.517225 31.299810 11.020367
Cd -4.344182 30.045203 7.475447
Cd -6.517225 31.299810 18.110207
Cd -4.344182 30.045203 14.565287
Cd -6.517225 31.299810 25.200047
Cd -4.344182 30.045203 21.655127
Cd -6.517225 31.299810 32.289886
Cd -4.344182 30.045203 28.744967
Cd 26.078415 -17.629855 -31.518672
Cd 26.078415 -17.629855 -24.428833
Cd 26.078415 -17.629855 -17.338993
Cd 26.078415 -17.629855 -10.249153
Cd 26.078415 -17.629855 -3.159313
Cd 26.078415 -17.629855 3.930527
Cd 26.078415 -17.629855 11.020367
Cd 26.078415 -17.629855 18.110207
Cd 26.078415 -17.629855 25.200047
Cd 23.905373 -13.866035 -24.428833
Cd 26.078415 -15.120641 -27.973753
Cd 23.905373 -13.866035 -17.338993
Cd 26.078415 -15.120641 -20.883913
Cd 23.905373 -13.866035 -10.249153
Cd 26.078415 -15.120641 -13.794073
Cd 23.905373 -13.866035 -3.159313
Cd 26.078415 -15.120641 -6.704233
Cd 23.905373 -13.866035 3.930527
Cd 26.078415 -15.120641 0.385607
Cd 23.905373 -13.866035 11.020367
Cd 26.078415 -15.120641 7.475447
Cd 23.905373 -13.866035 18.110207
Cd 26.078415 -15.120641 14.565287
Cd 23.905373 -13.866035 25.200047
Cd 26.078415 -15.120641 21.655127
Cd 23.905373 -13.866035 32.289886
Cd 26.078415 -15.120641 28.744967
Cd 21.732330 -10.102214 -31.518672
Cd 21.732330 -10.102214 -24.428833
Cd 23.905373 -11.356821 -27.973753
Cd 21.732330 -10.102214 -17.338993
Cd 23.905373 -11.356821 -20.883913
Cd 21.732330 -10.102214 -10.249153
Cd 23.905373 -11.356821 -13.794073
Cd 21.732330 -10.102214 -3.159313
Cd 23.905373 -11.356821 -6.704233
Cd 21.732330 -10.102214 3.930527
Cd 23.905373 -11.356821 0.385607
Cd 21.732330 -10.102214 11.020367
Cd 23.905373 -11.356821 7.475447
Cd 21.732330 -10.102214 18.110207
Cd 23.905373 -11.356821 14.565287
Cd 21.732330 -10.102214 25.200047
Cd 23.905373 -11.356821 21.655127
Cd 21.732330 -10.102214 32.289886
Cd 23.905373 -11.356821 28.744967
Cd 19.559287 -6.338394 -31.518672
Cd 19.559287 -6.338394 -24.428833
Cd 21.732330 -7.593001 -27.973753
Cd 19.559287 -6.338394 -17.338993
Cd 21.732330 -7.593001 -20.883913
Cd 19.559287 -6.338394 -10.249153
Cd 21.732330 -7.593001 -13.794073
Cd 19.559287 -6.338394 -3.159313
Cd 21.732330 -7.593001 -6.704233
Cd 19.559287 -6.338394 3.930527
Cd 21.732330 -7.593001 0.385607
Cd 19.559287 -6.338394 11.020367
Cd 21.732330 -7.593001 7.475447
Cd 19.559287 -6.338394 18.110207
Cd 21.732330 -7.593001 14.565287
Cd 19.559287 -6.338394 25.200047
Cd 21.732330 -7.593001 21.655127
Cd 21.732330 -7.593001 28.744967
Cd 17.386245 -2.574574 -24.428833
Cd 19.559287 -3.829180 -27.973753
Cd 17.386245 -2.574574 -17.338993
Cd 19.559287 -3.829180 -20.883913
Cd 17.386245 -2.574574 -10.249153
Cd 19.559287 -3.829180 -13.794073
Cd 17.386245 -2.574574 -3.159313
Cd 19.559287 -3.829180 -6.704233
Cd 17.386245 -2.574574 3.930527
Cd 19.559287 -3.829180 0.385607
Cd 17.386245 -2.574574 11.020367
Cd 19.559287 -3.829180 7.475447
Cd 17.386245 -2.574574 18.110207
Cd 19.559287 -3.829180 14.565287
Cd 17.386245 -2.574574 25.200047
Cd 19.559287 -3.829180 21.655127
Cd 17.386245 -2.574574 32.289886
Cd 19.559287 -3.829180 28.744967
Cd 15.213202 1.189247 -31.518672
Cd 15.213202 1.189247 -24.428833
Cd 17.386245 -0.065360 -27.973753
Cd 15.213202 1.189247 -17.338993
Cd 17.386245 -0.065360 -20.883913
Cd 15.213202 1.189247 -10.249153
Cd 17.386245 -0.065360 -13.794073
Cd 15.213202 1.189247 -3.159313
Cd 17.386245 -0.065360 -6.704233
Cd 15.213202 1.189247 3.930527
Cd 17.386245 -0.065360 0.385607
Cd 15.213202 1.189247 11.020367
Cd 17.386245 -0.065360 7.475447
Cd 15.213202 1.189247 18.110207
Cd 17.386245 -0.065360 14.565287
Cd 15.213202 1.189247 25.200047
Cd 17.386245 -0.065360 21.655127
Cd 15.213202 1.189247 32.289886
Cd 17.386245 -0.065360 28.744967
Cd 13.040159 4.953067 -31.518672
Cd 13.040159 4.953067 -24.428833
Cd 15.213202 3.698460 -27.973753
Cd 13.040159 4.953067 -17.338993
Cd 15.213202 3.698460 -20.883913
Cd 13.040159 4.953067 -10.249153
Cd 15.213202 3.698460 -13.794073
Cd 13.040159 4.953067 -3.159313
Cd 15.213202 3.698460 -6.704233
Cd 13.040159 4.953067 3.930527
Cd 15.213202 3.698460 0.385607
Cd 13.040159 4.953067 11.020367
Cd 15.213202 3.698460 7.475447
Cd 13.040159 4.953067 18.110207
Cd 15.213202 3.698460 14.565287
Cd 13.040159 4.953067 25.200047
Cd 15.213202 3.698460 21.655127
Cd 13.040159 4.953067 32.289886
Cd 15.213202 3.698460 28.744967
Cd 10.867116 8.716887 -24.428833
Cd 13.040159 7.462281 -27.973753
Cd 10.867116 8.716887 -17.338993
Cd 13.040159 7.462281 -20.883913
Cd 10.867116 8.716887 -10.249153
Cd 13.040159 7.462281 -13.794073
Cd 10.867116 8.716887 -3.159313
Cd 13.040159 7.462281 -6.704233
Cd 10.867116 8.716887 3.930527
Cd 13.040159 7.462281 0.385607
Cd 10.867116 8.716887 11.020367
Cd 13.040159 7.462281 7.475447
Cd 10.867116 8.716887 18.110207
Cd 13.040159 7.462281 14.565287
Cd 10.867116 8.716887 25.200047
Cd 13.040159 7.462281 21.655127
Cd 10.867116 8.716887 32.289886
Cd 13.040159 7.462281 28.744967
Cd 8.694074 12.480708 -31.518672
Cd 8.694074 12.480708 -24.428833
Cd 10.867116 11.226101 -27.973753
Cd 8.694074 12.480708 -17.338993
Cd 10.867116 11.226101 -20.883913
Cd 8.694074 12.480708 -10.249153
Cd 10.867116 11.226101 -13.794073
Cd 8.694074 12.480708 -3.159313
Cd 10.867116 11.226101 -6.704233
Cd 8.694074 12.480708 3.930527
Cd 10.867116 11.226101 0.385607
Cd 8.694074 12.480708 11.020367
Cd 10.867116 11.226101 7.475447
Cd 8.694074 12.480708 18.110207
Cd 10.867116 11.226101 14.565287
Cd 8.694074 12.480708 25.200047
Cd 10.867116 11.226101 21.655127
Cd 8.694074 12.480708 32.289886
Cd 10.867116 11.226101 28.744967
Cd 6.521031 16.244528 -31.518672
Cd 6.521031 16.244528 -24.428833
Cd 8.694074 14.989921 -27.973753
Cd 6.521031 16.244528 -17.338993
Cd 8.694074 14.989921 -20.883913
Cd 6.521031 16.244528 -10.249153
Cd 8.694074 14.989921 -13.794073
Cd 6.521031 16.244528 -3.159313
Cd 8.694074 14.989921 -6.704233
Cd 6.521031 16.244528 3.930527
Cd 8.694074 14.989921 0.385607
Cd 6.521031 16.244528 11.020367
Cd 8.694074 14.989921 7.475447
Cd 6.521031 16.244528 18.110207
Cd 8.694074 14.989921 14.565287
Cd 6.521031 16.244528 25.200047
Cd 8.694074 14.989921 21.655127
Cd 6.521031 16.244528 32.289886
Cd 8.694074 14.989921 28.744967
Cd 4.347988 20.008349 -24.428833
Cd 6.521031 18.753742 -27.973753
Cd 4.347988 20.008349 -17.338993
Cd 6.521031 18.753742 -20.883913
Cd 4.347988 20.008349 -10.249153
Cd 6.521031 18.753742 -13.794073
Cd 4.347988 20.008349 -3.159313
Cd 6.521031 18.753742 -6.704233
Cd 4.347988 20.008349 3.930527
Cd 6.521031 18.753742 0.385607
Cd 4.347988 20.008349 11.020367
Cd 6.521031 18.753742 7.475447
Cd 4.347988 20.008349 18.110207
Cd 6.521031 18.753742 14.565287
Cd 4.347988 20.008349 25.200047
Cd 6.521031 18.753742 21.655127
Cd 4.347988 20.008349 32.289886
Cd 6.521031 18.753742 28.744967
Cd 2.174946 23.772169 -31.518672
Cd 2.174946 23.772169 -24.428833
Cd 4.347988 22.517562 -27.973753
Cd 2.174946 23.772169 -17.338993
Cd 4.347988 22.517562 -20.883913
Cd 2.174946 23.772169 -10.249153
Cd 4.347988 22.517562 -13.794073
Cd 2.174946 23.772169 -3.159313
Cd 4.347988 22.517562 -6.704233
Cd 2.174946 23.772169 3.930527
Cd 4.347988 22.517562 0.385607
Cd 2.174946 23.772169 11.020367
Cd 4.347988 22.517562 7.475447
Cd 2.174946 23.772169 18.110207
Cd 4.347988 22.517562 14.565287
Cd 2.174946 23.772169 25.200047
Cd 4.347988 22.517562 21.655127
Cd 2.174946 23.772169 32.289886
Cd 4.347988 22.517562 28.744967
Cd 0.001903 27.535989 -31.518672
Cd 0.001903 27.535989 -24.428833
Cd 2.174946 26.281382 -27.973753
Cd 0.001903 27.535989 -17.338993
Cd 2.174946 26.281382 -20.883913
Cd 0.001903 27.535989 -10.249153
Cd 2.174946 26.281382 -13.794073
Cd 0.001903 27.535989 -3.159313
Cd 2.174946 26.281382 -6.704233
Cd 0.001903 27.535989 3.930527
Cd 2.174946 26.281382 0.385607
Cd 0.001903 27.535989 11.020367
Cd 2.174946 26.281382 7.475447
Cd 0.001903 27.535989 18.110207
Cd 2.174946 26.281382 14.565287
Cd 0.001903 27.535989 25.200047
Cd 2.174946 26.281382 21.655127
Cd 2.174946 26.281382 28.744967
Cd -2.171140 31.299810 -31.518672
Cd -2.171140 31.299810 -24.428833
Cd 0.001903 30.045203 -27.973753
Cd -2.171140 31.299810 -17.338993
Cd 0.001903 30.045203 -20.883913
Cd -2.171140 31.299810 -10.249153
Cd 0.001903 30.045203 -13.794073
Cd -2.171140 31.299810 -3.159313
Cd 0.001903 30.045203 -6.704233
Cd -2.171140 31.299810 3.930527
Cd 0.001903 30.045203 0.385607
Cd -2.171140 31.299810 11.020367
Cd 0.001903 30.045203 7.475447
Cd -2.171140 31.299810 18.110207
Cd 0.001903 30.045203 14.565287
Cd -2.171140 31.299810 25.200047
Cd 0.001903 30.045203 21.655127
Cd -2.171140 31.299810 32.289886
Cd 0.001903 30.045203 28.744967
Cd 28.251458 -13.866035 -31.518672
Cd 28.251458 -13.866035 -24.428833
Cd 28.251458 -13.866035 -17.338993
Cd 28.251458 -13.866035 -10.249153
Cd 28.251458 -13.866035 -3.159313
Cd 28.251458 -13.866035 3.930527
Cd 28.251458 -13.866035 11.020367
Cd 28.251458 -13.866035 18.110207
Cd 28.251458 -13.866035 25.200047
Cd 26.078415 -10.102214 -31.518672
Cd 26.078415 -10.102214 -24.428833
Cd 28.251458 -11.356821 -27.973753
Cd 26.078415 -10.102214 -17.338993
Cd 28.251458 -11.356821 -20.883913
Cd 26.078415 -10.102214 -10.249153
Cd 28.251458 -11.356821 -13.794073
Cd 26.078415 -10.102214 -3.159313
Cd 28.251458 -11.356821 -6.704233
Cd 26.078415 -10.102214 3.930527
Cd 28.251458 -11.356821 0.385607
Cd 26.078415 -10.102214 11.020367
Cd 28.251458 -11.356821 7.475447
Cd 26.078415 -10.102214 18.110207
Cd 28.251458 -11.356821 14.565287
Cd 26.078415 -10.102214 25.200047
Cd 28.251458 -11.356821 21.655127
Cd 26.078415 -10.102214 32.289886
Cd 28.251458 -11.356821 28.744967
Cd 23.905373 -6.338394 -24.428833
Cd 26.078415 -7.593001 -27.973753
Cd 23.905373 -6.338394 -17.338993
Cd 26.078415 -7.593001 -20.883913
Cd 23.905373 -6.338394 -10.249153
Cd 26.078415 -7.593001 -13.794073
Cd 23.905373 -6.338394 -3.159313
Cd 26.078415 -7.593001 -6.704233
Cd 23.905373 -6.338394 3.930527
Cd 26.078415 -7.593001 0.385607
Cd 23.905373 -6.338394 11.020367
Cd 26.078415 -7.593001 7.475447
Cd 23.905373 -6.338394 18.110207
Cd 26.078415 -7.593001 14.565287
Cd 23.905373 -6.338394 25.200047
Cd 26.078415 -7.593001 21.655127
Cd 23.905373 -6.338394 32.289886
Cd 26.078415 -7.593001 28.744967
Cd 21.732330 -2.574574 -31.518672
Cd 21.732330 -2.574574 -24.428833
Cd 23.905373 -3.829180 -27.973753
Cd 21.732330 -2.574574 -17.338993
Cd 23.905373 -3.829180 -20.883913
Cd 21.732330 -2.574574 -10.249153
Cd 23.905373 -3.829180 -13.794073
Cd 21.732330 -2.574574 -3.159313
Cd 23.905373 -3.829180 -6.704233
Cd 21.732330 -2.574574 3.930527
Cd 23.905373 -3.829180 0.385607
Cd 21.732330 -2.574574 11.020367
Cd 23.905373 -3.829180 7.475447
Cd 21.732330 -2.574574 18.110207
Cd 23.905373 -3.829180 14.565287
Cd 21.732330 -2.574574 25.200047
Cd 23.905373 -3.829180 21.655127
Cd 21.732330 -2.574574 32.289886
Cd 23.905373 -3.829180 28.744967
Cd 19.559287 1.189247 -31.518672
Cd 19.559287 1.189247 -24.428833
Cd 21.732330 -0.065360 -27.973753
Cd 19.559287 1.189247 -17.338993
Cd 21.732330 -0.065360 -20.883913
Cd 19.559287 1.189247 -10.249153
Cd 21.732330 -0.065360 -13.794073
Cd 19.559287 1.189247 -3.159313
Cd 21.732330 -0.065360 -6.704233
Cd 19.559287 1.189247 3.930527
Cd 21.732330 -0.065360 0.385607
Cd 19.559287 1.189247 11.020367
Cd 21.732330 -0.065360 7.475447
Cd 19.559287 1.189247 18.110207
Cd 21.732330 -0.065360 14.565287
Cd 19.559287 1.189247 25.200047
Cd 21.732330 -0.065360 21.655127
Cd 21.732330 -0.065360 28.744967
Cd 17.386245 4.953067 -24.428833
Cd 19.559287 3.698460 -27.973753
Cd 17.386245 4.953067 -17.338993
Cd 19.559287 3.698460 -20.883913
Cd 17.386245 4.953067 -10.249153
Cd 19.559287 3.698460 -13.794073
Cd 17.386245 4.953067 -3.159313
Cd 19.559287 3.698460 -6.704233
Cd 17.386245 4.953067 3.930527
Cd 19.559287 3.698460 0.385607
Cd 17.386245 4.953067 11.020367
Cd 19.559287 3.698460 7.475447
Cd 17.386245 4.953067 18.110207
Cd 19.559287 3.698460 14.565287
Cd 17.386245 4.953067 25.200047
Cd 19.559287 3.698460 21.655127
Cd 17.386245 4.953067 32.289886
Cd 19.559287 3.698460 28.744967
Cd 15.213202 8.716887 -31.518672
Cd 15.213202 8.716887 -24.428833
Cd 17.386245 7.462281 -27.973753
Cd 15.213202 8.716887 -17.338993
Cd 17.386245 7.462281 -20.883913
Cd 15.213202 8.716887 -10.249153
Cd 17.386245 7.462281 -13.794073
Cd 15.213202 8.716887 -3.159313
Cd 17.386245 7.462281 -6.704233
Cd 15.213202 8.716887 3.930527
Cd 17.386245 7.462281 0.385607
Cd 15.213202 8.716887 11.020367
Cd 17.386245 7.462281 7.475447
Cd 15.213202 8.716887 18.110207
Cd 17.386245 7.462281 14.565287
Cd 15.213202 8.716887 25.200047
Cd 17.386245 7.462281 21.655127
Cd 15.213202 8.716887 32.289886
Cd 17.386245 7.462281 28.744967
Cd 13.040159 12.480708 -31.518672
Cd 13.040159 12.480708 -24.428833
Cd 15.213202 11.226101 -27.973753
Cd 13.040159 12.480708 -17.338993
Cd 15.213202 11.226101 -20.883913
Cd 13.040159 12.480708 -10.249153
Cd 15.213202 11.226101 -13.794073
Cd 13.040159 12.480708 -3.159313
Cd 15.213202 11.226101 -6.704233
Cd 13.040159 12.480708 3.930527
Cd 15.213202 11.226101 0.385607
Cd 13.040159 12.480708 11.020367
Cd 15.213202 11.226101 7.475447
Cd 13.040159 12.480708 18.110207
Cd 15.213202 11.226101 14.565287
Cd 13.040159 12.480708 25.200047
Cd 15.213202 11.226101 21.655127
Cd 15.213202 11.226101 28.744967
Cd 10.867116 16.244528 -24.428833
Cd 13.040159 14.989921 -27.973753
Cd 10.867116 16.244528 -17.338993
Cd 13.040159 14.989921 -20.883913
Cd 10.867116 16.244528 -10.249153
Cd 13.040159 14.989921 -13.794073
Cd 10.867116 16.244528 -3.159313
Cd 13.040159 14.989921 -6.704233
Cd 10.867116 16.244528 3.930527
Cd 13.040159 14.989921 0.385607
Cd 10.867116 16.244528 11.020367
Cd 13.040159 14.989921 7.475447
Cd 10.867116 16.244528 18.110207
Cd 13.040159 14.989921 14.565287
Cd 10.867116 16.244528 25.200047
Cd 13.040159 14.989921 21.655127
Cd 10.867116 16.244528 32.289886
Cd 13.040159 14.989921 28.744967
Cd 8.694074 20.008349 -31.518672
Cd 8.694074 20.008349 -24.428833
Cd 10.867116 18.753742 -27.973753
Cd 8.694074 20.008349 -17.338993
Cd 10.867116 18.753742 -20.883913
Cd 8.694074 20.008349 -10.249153
Cd 10.867116 18.753742 -13.794073
Cd 8.694074 20.008349 -3.159313
Cd 10.867116 18.753742 -6.704233
Cd 8.694074 20.008349 3.930527
Cd 10.867116 18.753742 0.385607
Cd 8.694074 20.008349 11.020367
Cd 10.867116 18.753742 7.475447
Cd 8.694074 20.008349 18.110207
Cd 10.867116 18.753742 14.565287
Cd 8.694074 20.008349 25.200047
Cd 10.867116 18.753742 21.655127
Cd 8.694074 20.008349 32.289886
Cd 10.867116 18.753742 28.744967
Cd 6.521031 23.772169 -31.518672
Cd 6.521031 23.772169 -24.428833
Cd 8.694074 22.517562 -27.973753
Cd 6.521031 23.772169 -17.338993
Cd 8.694074 22.517562 -20.883913
Cd 6.521031 23.772169 -10.249153
Cd 8.694074 22.517562 -13.794073
Cd 6.521031 23.772169 -3.159313
Cd 8.694074 22.517562 -6.704233
Cd 6.521031 23.772169 3.930527
Cd 8.694074 22.517562 0.385607
Cd 6.521031 23.772169 11.020367
Cd 8.694074 22.517562 7.475447
Cd 6.521031 23.772169 18.110207
Cd 8.694074 22.517562 14.565287
Cd 6.521031 23.772169 25.200047
Cd 8.694074 22.517562 21.655127
Cd 8.694074 22.517562 28.744967
Cd 4.347988 27.535989 -24.428833
Cd 6.521031 26.281382 -27.973753
Cd 4.347988 27.535989 -17.338993
Cd 6.521031 26.281382 -20.883913
Cd 4.347988 27.535989 -10.249153
Cd 6.521031 26.281382 -13.794073
Cd 4.347988 27.535989 -3.159313
Cd 6.521031 26.281382 -6.704233
Cd 4.347988 27.535989 3.930527
Cd 6.521031 26.281382 0.385607
Cd 4.347988 27.535989 11.020367
Cd 6.521031 26.281382 7.475447
Cd 4.347988 27.535989 18.110207
Cd 6.521031 26.281382 14.565287
Cd 4.347988 27.535989 25.200047
Cd 6.521031 26.281382 21.655127
Cd 4.347988 27.535989 32.289886
Cd 6.521031 26.281382 28.744967
Cd 2.174946 31.299810 -31.518672
Cd 2.174946 31.299810 -24.428833
Cd 4.347988 30.045203 -27.973753
Cd 2.174946 31.299810 -17.338993
Cd 4.347988 30.045203 -20.883913
Cd 2.174946 31.299810 -10.249153
Cd 4.347988 30.045203 -13.794073
Cd 2.174946 31.299810 -3.159313
Cd 4.347988 30.045203 -6.704233
Cd 2.174946 31.299810 3.930527
Cd 4.347988 30.045203 0.385607
Cd 2.174946 31.299810 11.020367
Cd 4.347988 30.045203 7.475447
Cd 2.174946 31.299810 18.110207
Cd 4.347988 30.045203 14.565287
Cd 2.174946 31.299810 25.200047
Cd 4.347988 30.045203 21.655127
Cd 2.174946 31.299810 32.289886
Cd 4.347988 30.045203 28.744967
Cd 30.424501 -10.102214 -31.518672
Cd 30.424501 -10.102214 -24.428833
Cd 30.424501 -10.102214 -17.338993
Cd 30.424501 -10.102214 -10.249153
Cd 30.424501 -10.102214 -3.159313
Cd 30.424501 -10.102214 3.930527
Cd 30.424501 -10.102214 11.020367
Cd 30.424501 -10.102214 18.110207
Cd 30.424501 -10.102214 25.200047
Cd 28.251458 -6.338394 -31.518672
Cd 28.251458 -6.338394 -24.428833
Cd 30.424501 -7.593001 -27.973753
Cd 28.251458 -6.338394 -17.338993
Cd 30.424501 -7.593001 -20.883913
Cd 28.251458 -6.338394 -10.249153
Cd 30.424501 -7.593001 -13.794073
Cd 28.251458 -6.338394 -3.159313
Cd 30.424501 -7.593001 -6.704233
Cd 28.251458 -6.338394 3.930527
Cd 30.424501 -7.593001 0.385607
Cd 28.251458 -6.338394 11.020367
Cd 30.424501 -7.593001 7.475447
Cd 28.251458 -6.338394 18.110207
Cd 30.424501 -7.593001 14.565287
Cd 28.251458 -6.338394 25.200047
Cd 30.424501 -7.593001 21.655127
Cd 28.251458 -6.338394 32.289886
Cd 30.424501 -7.593001 28.744967
Cd 26.078415 -2.574574 -31.518672
Cd 26.078415 -2.574574 -24.428833
Cd 28.251458 -3.829180 -27.973753
Cd 26.078415 -2.574574 -17.338993
Cd 28.251458 -3.829180 -20.883913
Cd 26.078415 -2.574574 -10.249153
Cd 28.251458 -3.829180 -13.794073
Cd 26.078415 -2.574574 -3.159313
Cd 28.251458 -3.829180 -6.704233
Cd 26.078415 -2.574574 3.930527
Cd 28.251458 -3.829180 0.385607
Cd 26.078415 -2.574574 11.020367
Cd 28.251458 -3.829180 7.475447
Cd 26.078415 -2.574574 18.110207
Cd 28.251458 -3.829180 14.565287
Cd 26.078415 -2.574574 25.200047
Cd 28.251458 -3.829180 21.655127
Cd 28.251458 -3.829180 28.744967
Cd 23.905373 1.189247 -24.428833
Cd 26.078415 -0.065360 -27.973753
Cd 23.905373 1.189247 -17.338993
Cd 26.078415 -0.065360 -20.883913
Cd 23.905373 1.189247 -10.249153
Cd 26.078415 -0.065360 -13.794073
Cd 23.905373 1.189247 -3.159313
Cd 26.078415 -0.065360 -6.704233
Cd 23.905373 1.189247 3.930527
Cd 26.078415 -0.065360 0.385607
Cd 23.905373 1.189247 11.020367
Cd 26.078415 -0.065360 7.475447
Cd 23.905373 1.189247 18.110207
Cd 26.078415 -0.065360 14.565287
Cd 23.905373 1.189247 25.200047
Cd 26.078415 -0.065360 21.655127
Cd 23.905373 1.189247 32.289886
Cd 26.078415 -0.065360 28.744967
Cd 21.732330 4.953067 -31.518672
Cd 21.732330 4.953067 -24.428833
Cd 23.905373 3.698460 -27.973753
Cd 21.732330 4.953067 -17.338993
Cd 23.905373 3.698460 -20.883913
Cd 21.732330 4.953067 -10.249153
Cd 23.905373 3.698460 -13.794073
Cd 21.732330 4.953067 -3.159313
Cd 23.905373 3.698460 -6.704233
Cd 21.732330 4.953067 3.930527
Cd 23.905373 3.698460 0.385607
Cd 21.732330 4.953067 11.020367
Cd 23.905373 3.698460 7.475447
Cd 21.732330 4.953067 18.110207
Cd 23.905373 3.698460 14.565287
Cd 21.732330 4.953067 25.200047
Cd 23.905373 3.698460 21.655127
Cd 21.732330 4.953067 32.289886
Cd 23.905373 3.698460 28.744967
Cd 19.559287 8.716887 -31.518672
Cd 19.559287 8.716887 -24.428833
Cd 21.732330 7.462281 -27.973753
Cd 19.559287 8.716887 -17.338993
Cd 21.732330 7.462281 -20.883913
Cd 19.559287 8.716887 -10.249153
Cd 21.732330 7.462281 -13.794073
Cd 19.559287 8.716887 -3.159313
Cd 21.732330 7.462281 -6.704233
Cd 19.559287 8.716887 3.930527
Cd 21.732330 7.462281 0.385607
Cd 19.559287 8.716887 11.020367
Cd 21.732330 7.462281 7.475447
Cd 19.559287 8.716887 18.110207
Cd 21.732330 7.462281 14.565287
Cd 19.559287 8.716887 25.200047
Cd 21.732330 7.462281 21.655127
Cd 21.732330 7.462281 28.744967
Cd 17.386245 12.480708 -24.428833
Cd 19.559287 11.226101 -27.973753
Cd 17.386245 12.480708 -17.338993
Cd 19.559287 11.226101 -20.883913
Cd 17.386245 12.480708 -10.249153
Cd 19.559287 11.226101 -13.794073
Cd 17.386245 12.480708 -3.159313
Cd 19.559287 11.226101 -6.704233
Cd 17.386245 12.480708 3.930527
Cd 19.559287 11.226101 0.385607
Cd 17.386245 12.480708 11.020367
Cd 19.559287 11.226101 7.475447
Cd 17.386245 12.480708 18.110207
Cd 19.559287 11.226101 14.565287
Cd 17.386245 12.480708 25.200047
Cd 19.559287 11.226101 21.655127
Cd 17.386245 12.480708 32.289886
Cd 19.559287 11.226101 28.744967
Cd 15.213202 16.244528 -31.518672
Cd 15.213202 16.244528 -24.428833
Cd 17.386245 14.989921 -27.973753
Cd 15.213202 16.244528 -17.338993
Cd 17.386245 14.989921 -20.883913
Cd 15.213202 16.244528 -10.249153
Cd 17.386245 14.989921 -13.794073
Cd 15.213202 16.244528 -3.159313
Cd 17.386245 14.989921 -6.704233
Cd 15.213202 16.244528 3.930527
Cd 17.386245 14.989921 0.385607
Cd 15.213202 16.244528 11.020367
Cd 17.386245 14.989921 7.475447
Cd 15.213202 16.244528 18.110207
Cd 17.386245 14.989921 14.565287
Cd 15.213202 16.244528 25.200047
Cd 17.386245 14.989921 21.655127
Cd 15.213202 16.244528 32.289886
Cd 17.386245 14.989921 28.744967
Cd 13.040159 20.008349 -31.518672
Cd 13.040159 20.008349 -24.428833
Cd 15.213202 18.753742 -27.973753
Cd 13.040159 20.008349 -17.338993
Cd 15.213202 18.753742 -20.883913
Cd 13.040159 20.008349 -10.249153
Cd 15.213202 18.753742 -13.794073
Cd 13.040159 20.008349 -3.159313
Cd 15.213202 18.753742 -6.704233
Cd 13.040159 20.008349 3.930527
Cd 15.213202 18.753742 0.385607
Cd 13.040159 20.008349 11.020367
Cd 15.213202 18.753742 7.475447
Cd 13.040159 20.008349 18.110207
Cd 15.213202 18.753742 14.565287
Cd 13.040159 20.008349 25.200047
Cd 15.213202 18.753742 21.655127
Cd 15.213202 18.753742 28.744967
Cd 10.867116 23.772169 -24.428833
Cd 13.040159 22.517562 -27.973753
Cd 10.867116 23.772169 -17.338993
Cd 13.040159 22.517562 -20.883913
Cd 10.867116 23.772169 -10.249153
Cd 13.040159 22.517562 -13.794073
Cd 10.867116 23.772169 -3.159313
Cd 13.040159 22.517562 -6.704233
Cd 10.867116 23.772169 3.930527
Cd 13.040159 22.517562 0.385607
Cd 10.867116 23.772169 11.020367
Cd 13.040159 22.517562 7.475447
Cd 10.867116 23.772169 18.110207
Cd 13.040159 22.517562 14.565287
Cd 10.867116 23.772169 25.200047
Cd 13.040159 22.517562 21.655127
Cd 10.867116 23.772169 32.289886
Cd 13.040159 22.517562 28.744967
Cd 8.694074 27.535989 -31.518672
Cd 8.694074 27.535989 -24.428833
Cd 10.867116 26.281382 -27.973753
Cd 8.694074 27.535989 -17.338993
Cd 10.867116 26.281382 -20.883913
Cd 8.694074 27.535989 -10.249153
Cd 10.867116 26.281382 -13.794073
Cd 8.694074 27.535989 -3.159313
Cd 10.867116 26.281382 -6.704233
Cd 8.694074 27.535989 3.930527
Cd 10.867116 26.281382 0.385607
Cd 8.694074 27.535989 11.020367
Cd 10.867116 26.281382 7.475447
Cd 8.694074 27.535989 18.110207
Cd 10.867116 26.281382 14.565287
Cd 8.694074 27.535989 25.200047
Cd 10.867116 26.281382 21.655127
Cd 8.694074 27.535989 32.289886
Cd 10.867116 26.281382 28.744967
Cd 6.521031 31.299810 -31.518672
Cd 6.521031 31.299810 -24.428833
Cd 8.694074 30.045203 -27.973753
Cd 6.521031 31.299810 -17.338993
Cd 8.694074 30.045203 -20.883913
Cd 6.521031 31.299810 -10.249153
Cd 8.694074 30.045203 -13.794073
Cd 6.521031 31.299810 -3.159313
Cd 8.694074 30.045203 -6.704233
Cd 6.521031 31.299810 3.930527
Cd 8.694074 30.045203 0.385607
Cd 6.521031 31.299810 11.020367
Cd 8.694074 30.045203 7.475447
Cd 6.521031 31.299810 18.110207
Cd 8.694074 30.045203 14.565287
Cd 6.521031 31.299810 25.200047
Cd 8.694074 30.045203 21.655127
Cd 6.521031 31.299810 32.289886
Cd 8.694074 30.045203 28.744967
Cd 32.597543 -6.338394 -31.518672
Cd 32.597543 -6.338394 -24.428833
Cd 32.597543 -6.338394 -17.338993
Cd 32.597543 -6.338394 -10.249153
Cd 32.597543 -6.338394 -3.159313
Cd 32.597543 -6.338394 3.930527
Cd 32.597543 -6.338394 11.020367
Cd 32.597543 -6.338394 18.110207
Cd 32.597543 -6.338394 25.200047
Cd 30.424501 -2.574574 -24.428833
Cd 32.597543 -3.829180 -27.973753
Cd 30.424501 -2.574574 -17.338993
Cd 32.597543 -3.829180 -20.883913
Cd 30.424501 -2.574574 -10.249153
Cd 32.597543 -3.829180 -13.794073
Cd 30.424501 -2.574574 -3.159313
Cd 32.597543 -3.829180 -6.704233
Cd 30.424501 -2.574574 3.930527
Cd 32.597543 -3.829180 0.385607
Cd 30.424501 -2.574574 11.020367
Cd 32.597543 -3.829180 7.475447
Cd 30.424501 -2.574574 18.110207
Cd 32.597543 -3.829180 14.565287
Cd 30.424501 -2.574574 25.200047
Cd 32.597543 -3.829180 21.655127
Cd 30.424501 -2.574574 32.289886
Cd 32.597543 -3.829180 28.744967
Cd 28.251458 1.189247 -31.518672
Cd 28.251458 1.189247 -24.428833
Cd 30.424501 -0.065360 -27.973753
Cd 28.251458 1.189247 -17.338993
Cd 30.424501 -0.065360 -20.883913
Cd 28.251458 1.189247 -10.249153
Cd 30.424501 -0.065360 -13.794073
Cd 28.251458 1.189247 -3.159313
Cd 30.424501 -0.065360 -6.704233
Cd 28.251458 1.189247 3.930527
Cd 30.424501 -0.065360 0.385607
Cd 28.251458 1.189247 11.020367
Cd 30.424501 -0.065360 7.475447
Cd 28.251458 1.189247 18.110207
Cd 30.424501 -0.065360 14.565287
Cd 28.251458 1.189247 25.200047
Cd 30.424501 -0.065360 21.655127
Cd 28.251458 1.189247 32.289886
Cd 30.424501 -0.065360 28.744967
Cd 26.078415 4.953067 -31.518672
Cd 26.078415 4.953067 -24.428833
Cd 28.251458 3.698460 -27.973753
Cd 26.078415 4.953067 -17.338993
Cd 28.251458 3.698460 -20.883913
Cd 26.078415 4.953067 -10.249153
Cd 28.251458 3.698460 -13.794073
Cd 26.078415 4.953067 -3.159313
Cd 28.251458 3.698460 -6.704233
Cd 26.078415 4.953067 3.930527
Cd 28.251458 3.698460 0.385607
Cd 26.078415 4.953067 11.020367
Cd 28.251458 3.698460 7.475447
Cd 26.078415 4.953067 18.110207
Cd 28.251458 3.698460 14.565287
Cd 26.078415 4.953067 25.200047
Cd 28.251458 3.698460 21.655127
Cd 28.251458 3.698460 28.744967
Cd 23.905373 8.716887 -24.428833
Cd 26.078415 7.462281 -27.973753
Cd 23.905373 8.716887 -17.338993
Cd 26.078415 7.462281 -20.883913
Cd 23.905373 8.716887 -10.249153
Cd 26.078415 7.462281 -13.794073
Cd 23.905373 8.716887 -3.159313
Cd 26.078415 7.462281 -6.704233
Cd 23.905373 8.716887 3.930527
Cd 26.078415 7.462281 0.385607
Cd 23.905373 8.716887 11.020367
Cd 26.078415 7.462281 7.475447
Cd 23.905373 8.716887 18.110207
Cd 26.078415 7.462281 14.565287
Cd 23.905373 8.716887 25.200047
Cd 26.078415 7.462281 21.655127
Cd 23.905373 8.716887 32.289886
Cd 26.078415 7.462281 28.744967
Cd 21.732330 12.480708 -31.518672
Cd 21.732330 12.480708 -24.428833
Cd 23.905373 11.226101 -27.973753
Cd 21.732330 12.480708 -17.338993
Cd 23.905373 11.226101 -20.883913
Cd 21.732330 12.480708 -10.249153
Cd 23.905373 11.226101 -13.794073
Cd 21.732330 12.480708 -3.159313
Cd 23.905373 11.226101 -6.704233
Cd 21.732330 12.480708 3.930527
Cd 23.905373 11.226101 0.385607
Cd 21.732330 12.480708 11.020367
Cd 23.905373 11.226101 7.475447
Cd 21.732330 12.480708 18.110207
Cd 23.905373 11.226101 14.565287
Cd 21.732330 12.480708 25.200047
Cd 23.905373 11.226101 21.655127
Cd 21.732330 12.480708 32.289886
Cd 23.905373 11.226101 28.744967
Cd 19.559287 16.244528 -31.518672
Cd 19.559287 16.244528 -24.428833
Cd 21.732330 14.989921 -27.973753
Cd 19.559287 16.244528 -17.338993
Cd 21.732330 14.989921 -20.883913
Cd 19.559287 16.244528 -10.249153
Cd 21.732330 14.989921 -13.794073
Cd 19.559287 16.244528 -3.159313
Cd 21.732330 14.989921 -6.704233
Cd 19.559287 16.244528 3.930527
Cd 21.732330 14.989921 0.385607
Cd 19.559287 16.244528 11.020367
Cd 21.732330 14.989921 7.475447
Cd 19.559287 16.244528 18.110207
Cd 21.732330 14.989921 14.565287
Cd 19.559287 16.244528 25.200047
Cd 21.732330 14.989921 21.655127
Cd 21.732330 14.989921 28.744967
Cd 17.386245 20.008349 -24.428833
Cd 19.559287 18.753742 -27.973753
Cd 17.386245 20.008349 -17.338993
Cd 19.559287 18.753742 -20.883913
Cd 17.386245 20.008349 -10.249153
Cd 19.559287 18.753742 -13.794073
Cd 17.386245 20.008349 -3.159313
Cd 19.559287 18.753742 -6.704233
Cd 17.386245 20.008349 3.930527
Cd 19.559287 18.753742 0.385607
Cd 17.386245 20.008349 11.020367
Cd 19.559287 18.753742 7.475447
Cd 17.386245 20.008349 18.110207
Cd 19.559287 18.753742 14.565287
Cd 17.386245 20.008349 25.200047
Cd 19.559287 18.753742 21.655127
Cd 17.386245 20.008349 32.289886
Cd 19.559287 18.753742 28.744967
Cd 15.213202 23.772169 -31.518672
Cd 15.213202 23.772169 -24.428833
Cd 17.386245 22.517562 -27.973753
Cd 15.213202 23.772169 -17.338993
Cd 17.386245 22.517562 -20.883913
Cd 15.213202 23.772169 -10.249153
Cd 17.386245 22.517562 -13.794073
Cd 15.213202 23.772169 -3.159313
Cd 17.386245 22.517562 -6.704233
Cd 15.213202 23.772169 3.930527
Cd 17.386245 22.517562 0.385607
Cd 15.213202 23.772169 11.020367
Cd 17.386245 22.517562 7.475447
Cd 15.213202 23.772169 18.110207
Cd 17.386245 22.517562 14.565287
Cd 15.213202 23.772169 25.200047
Cd 17.386245 22.517562 21.655127
Cd 15.213202 23.772169 32.289886
Cd 17.386245 22.517562 28.744967
Cd 13.040159 27.535989 -31.518672
Cd 13.040159 27.535989 -24.428833
Cd 15.213202 26.281382 -27.973753
Cd 13.040159 27.535989 -17.338993
Cd 15.213202 26.281382 -20.883913
Cd 13.040159 27.535989 -10.249153
Cd 15.213202 26.281382 -13.794073
Cd 13.040159 27.535989 -3.159313
Cd 15.213202 26.281382 -6.704233
Cd 13.040159 27.535989 3.930527
Cd 15.213202 26.281382 0.385607
Cd 13.040159 27.535989 11.020367
Cd 15.213202 26.281382 7.475447
Cd 13.040159 27.535989 18.110207
Cd 15.213202 26.281382 14.565287
Cd 13.040159 27.535989 25.200047
Cd 15.213202 26.281382 21.655127
Cd 15.213202 26.281382 28.744967
Cd 10.867116 31.299810 -31.518672
Cd 10.867116 31.299810 -24.428833
Cd 13.040159 30.045203 -27.973753
Cd 10.867116 31.299810 -17.338993
Cd 13.040159 30.045203 -20.883913
Cd 10.867116 31.299810 -10.249153
Cd 13.040159 30.045203 -13.794073
Cd 10.867116 31.299810 -3.159313
Cd 13.040159 30.045203 -6.704233
Cd 10.867116 31.299810 3.930527
Cd 13.040159 30.045203 0.385607
Cd 10.867116 31.299810 11.020367
Cd 13.040159 30.045203 7.475447
Cd 10.867116 31.299810 18.110207
Cd 13.040159 30.045203 14.565287
Cd 10.867116 31.299810 25.200047
Cd 13.040159 30.045203 21.655127
Cd 10.867116 31.299810 32.289886
Cd 13.040159 30.045203 28.744967
Cd 34.770586 -2.574574 -31.518672
Cd 34.770586 -2.574574 -24.428833
Cd 34.770586 -2.574574 -17.338993
Cd 34.770586 -2.574574 -10.249153
Cd 34.770586 -2.574574 -3.159313
Cd 34.770586 -2.574574 3.930527
Cd 34.770586 -2.574574 11.020367
Cd 34.770586 -2.574574 18.110207
Cd 34.770586 -2.574574 25.200047
Cd 32.597543 1.189247 -31.518672
Cd 32.597543 1.189247 -24.428833
Cd 34.770586 -0.065360 -27.973753
Cd 32.597543 1.189247 -17.338993
Cd 34.770586 -0.065360 -20.883913
Cd 32.597543 1.189247 -10.249153
Cd 34.770586 -0.065360 -13.794073
Cd 32.597543 1.189247 -3.159313
Cd 34.770586 -0.065360 -6.704233
Cd 32.597543 1.189247 3.930527
Cd 34.770586 -0.065360 0.385607
Cd 32.597543 1.189247 11.020367
Cd 34.770586 -0.065360 7.475447
Cd 32.597543 1.189247 18.110207
Cd 34.770586 -0.065360 14.565287
Cd 32.597543 1.189247 25.200047
Cd 34.770586 -0.065360 21.655127
Cd 32.597543 1.189247 32.289886
Cd 34.770586 -0.065360 28.744967
Cd 30.424501 4.953067 -24.428833
Cd 32.597543 3.698460 -27.973753
Cd 30.424501 4.953067 -17.338993
Cd 32.597543 3.698460 -20.883913
Cd 30.424501 4.953067 -10.249153
Cd 32.597543 3.698460 -13.794073
Cd 30.424501 4.953067 -3.159313
Cd 32.597543 3.698460 -6.704233
Cd 30.424501 4.953067 3.930527
Cd 32.597543 3.698460 0.385607
Cd 30.424501 4.953067 11.020367
Cd 32.597543 3.698460 7.475447
Cd 30.424501 4.953067 18.110207
Cd 32.597543 3.698460 14.565287
Cd 30.424501 4.953067 25.200047
Cd 32.597543 3.698460 21.655127
Cd 30.424501 4.953067 32.289886
Cd 32.597543 3.698460 28.744967
Cd 28.251458 8.716887 -31.518672
Cd 28.251458 8.716887 -24.428833
Cd 30.424501 7.462281 -27.973753
Cd 28.251458 8.716887 -17.338993
Cd 30.424501 7.462281 -20.883913
Cd 28.251458 8.716887 -10.249153
Cd 30.424501 7.462281 -13.794073
Cd 28.251458 8.716887 -3.159313
Cd 30.424501 7.462281 -6.704233
Cd 28.251458 8.716887 3.930527
Cd 30.424501 7.462281 0.385607
Cd 28.251458 8.716887 11.020367
Cd 30.424501 7.462281 7.475447
Cd 28.251458 8.716887 18.110207
Cd 30.424501 7.462281 14.565287
Cd 28.251458 8.716887 25.200047
Cd 30.424501 7.462281 21.655127
Cd 28.251458 8.716887 32.289886
Cd 30.424501 7.462281 28.744967
Cd 26.078415 12.480708 -31.518672
Cd 26.078415 12.480708 -24.428833
Cd 28.251458 11.226101 -27.973753
Cd 26.078415 12.480708 -17.338993
Cd 28.251458 11.226101 -20.883913
Cd 26.078415 12.480708 -10.249153
Cd 28.251458 11.226101 -13.794073
Cd 26.078415 12.480708 -3.159313
Cd 28.251458 11.226101 -6.704233
Cd 26.078415 12.480708 3.930527
Cd 28.251458 11.226101 0.385607
Cd 26.078415 12.480708 11.020367
Cd 28.251458 11.226101 7.475447
Cd 26.078415 12.480708 18.110207
Cd 28.251458 11.226101 14.565287
Cd 26.078415 12.480708 25.200047
Cd 28.251458 11.226101 21.655127
Cd 28.251458 11.226101 28.744967
Cd 23.905373 16.244528 -24.428833
Cd 26.078415 14.989921 -27.973753
Cd 23.905373 16.244528 -17.338993
Cd 26.078415 14.989921 -20.883913
Cd 23.905373 16.244528 -10.249153
Cd 26.078415 14.989921 -13.794073
Cd 23.905373 16.244528 -3.159313
Cd 26.078415 14.989921 -6.704233
Cd 23.905373 16.244528 3.930527
Cd 26.078415 14.989921 0.385607
Cd 23.905373 16.244528 11.020367
Cd 26.078415 14.989921 7.475447
Cd 23.905373 16.244528 18.110207
Cd 26.078415 14.989921 14.565287
Cd 23.905373 16.244528 25.200047
Cd 26.078415 14.989921 21.655127
Cd 23.905373 16.244528 32.289886
Cd 26.078415 14.989921 28.744967
Cd 21.732330 20.008349 -31.518672
Cd 21.732330 20.008349 -24.428833
Cd 23.905373 18.753742 -27.973753
Cd 21.732330 20.008349 -17.338993
Cd 23.905373 18.753742 -20.883913
Cd 21.732330 20.008349 -10.249153
Cd 23.905373 18.753742 -13.794073
Cd 21.732330 20.008349 -3.159313
Cd 23.905373 18.753742 -6.704233
Cd 21.732330 20.008349 3.930527
Cd 23.905373 18.753742 0.385607
Cd 21.732330 20.008349 11.020367
Cd 23.905373 18.753742 7.475447
Cd 21.732330 20.008349 18.110207
Cd 23.905373 18.753742 14.565287
Cd 21.732330 20.008349 25.200047
Cd 23.905373 18.753742 21.655127
Cd 21.732330 20.008349 32.289886
Cd 23.905373 18.753742 28.744967
Cd 19.559287 23.772169 -31.518672
Cd 19.559287 23.772169 -24.428833
Cd 21.732330 22.517562 -27.973753
Cd 19.559287 23.772169 -17.338993
Cd 21.732330 22.517562 -20.883913
Cd 19.559287 23.772169 -10.249153
Cd 21.732330 22.517562 -13.794073
Cd 19.559287 23.772169 -3.159313
Cd 21.732330 22.517562 -6.704233
Cd 19.559287 23.772169 3.930527
Cd 21.732330 22.517562 0.385607
Cd 19.559287 23.772169 11.020367
Cd 21.732330 22.517562 7.475447
Cd 19.559287 23.772169 18.110207
Cd 21.732330 22.517562 14.565287
Cd 19.559287 23.772169 25.200047
Cd 21.732330 22.517562 21.655127
Cd 21.732330 22.517562 28.744967
Cd 17.386245 27.535989 -24.428833
Cd 19.559287 26.281382 -27.973753
Cd 17.386245 27.535989 -17.338993
Cd 19.559287 26.281382 -20.883913
Cd 17.386245 27.535989 -10.249153
Cd 19.559287 26.281382 -13.794073
Cd 17.386245 27.535989 -3.159313
Cd 19.559287 26.281382 -6.704233
Cd 17.386245 27.535989 3.930527
Cd 19.559287 26.281382 0.385607
Cd 17.386245 27.535989 11.020367
Cd 19.559287 26.281382 7.475447
Cd 17.386245 27.535989 18.110207
Cd 19.559287 26.281382 14.565287
Cd 17.386245 27.535989 25.200047
Cd 19.559287 26.281382 21.655127
Cd 17.386245 27.535989 32.289886
Cd 19.559287 26.281382 28.744967
Cd 15.213202 31.299810 -31.518672
Cd 15.213202 31.299810 -24.428833
Cd 17.386245 30.045203 -27.973753
Cd 15.213202 31.299810 -17.338993
Cd 17.386245 30.045203 -20.883913
Cd 15.213202 31.299810 -10.249153
Cd 17.386245 30.045203 -13.794073
Cd 15.213202 31.299810 -3.159313
Cd 17.386245 30.045203 -6.704233
Cd 15.213202 31.299810 3.930527
Cd 17.386245 30.045203 0.385607
Cd 15.213202 31.299810 11.020367
Cd 17.386245 30.045203 7.475447
Cd 15.213202 31.299810 18.110207
Cd 17.386245 30.045203 14.565287
Cd 15.213202 31.299810 25.200047
Cd 17.386245 30.045203 21.655127
Cd 15.213202 31.299810 32.289886
Cd 17.386245 30.045203 28.744967
Cd 36.943629 1.189247 -31.518672
Cd 36.943629 1.189247 -24.428833
Cd 39.116671 -0.065360 -27.973753
Cd 36.943629 1.189247 -17.338993
Cd 39.116671 -0.065360 -20.883913
Cd 36.943629 1.189247 -10.249153
Cd 39.116671 -0.065360 -13.794073
Cd 36.943629 1.189247 -3.159313
Cd 39.116671 -0.065360 -6.704233
Cd 36.943629 1.189247 3.930527
Cd 39.116671 -0.065360 0.385607
Cd 36.943629 1.189247 11.020367
Cd 39.116671 -0.065360 7.475447
Cd 36.943629 1.189247 18.110207
Cd 39.116671 -0.065360 14.565287
Cd 36.943629 1.189247 25.200047
Cd 39.116671 -0.065360 21.655127
Cd 36.943629 1.189247 32.289886
Cd 39.116671 -0.065360 28.744967
Cd 34.770586 4.953067 -31.518672
Cd 34.770586 4.953067 -24.428833
Cd 36.943629 3.698460 -27.973753
Cd 34.770586 4.953067 -17.338993
Cd 36.943629 3.698460 -20.883913
Cd 34.770586 4.953067 -10.249153
Cd 36.943629 3.698460 -13.794073
Cd 34.770586 4.953067 -3.159313
Cd 36.943629 3.698460 -6.704233
Cd 34.770586 4.953067 3.930527
Cd 36.943629 3.698460 0.385607
Cd 34.770586 4.953067 11.020367
Cd 36.943629 3.698460 7.475447
Cd 34.770586 4.953067 18.110207
Cd 36.943629 3.698460 14.565287
Cd 34.770586 4.953067 25.200047
Cd 36.943629 3.698460 21.655127
Cd 34.770586 4.953067 32.289886
Cd 36.943629 3.698460 28.744967
Cd 32.597543 8.716887 -31.518672
Cd 32.597543 8.716887 -24.428833
Cd 34.770586 7.462281 -27.973753
Cd 32.597543 8.716887 -17.338993
Cd 34.770586 7.462281 -20.883913
Cd 32.597543 8.716887 -10.249153
Cd 34.770586 7.462281 -13.794073
Cd 32.597543 8.716887 -3.159313
Cd 34.770586 7.462281 -6.704233
Cd 32.597543 8.716887 3.930527
Cd 34.770586 7.462281 0.385607
Cd 32.597543 8.716887 11.020367
Cd 34.770586 7.462281 7.475447
Cd 32.597543 8.716887 18.110207
Cd 34.770586 7.462281 14.565287
Cd 32.597543 8.716887 25.200047
Cd 34.770586 7.462281 21.655127
Cd 32.597543 8.716887 32.289886
Cd 34.770586 7.462281 28.744967
Cd 30.424501 12.480708 -31.518672
Cd 30.424501 12.480708 -24.428833
Cd 32.597543 11.226101 -27.973753
Cd 30.424501 12.480708 -17.338993
Cd 32.597543 11.226101 -20.883913
Cd 30.424501 12.480708 -10.249153
Cd 32.597543 11.226101 -13.794073
Cd 30.424501 12.480708 -3.159313
Cd 32.597543 11.226101 -6.704233
Cd 30.424501 12.480708 3.930527
Cd 32.597543 11.226101 0.385607
Cd 30.424501 12.480708 11.020367
Cd 32.597543 11.226101 7.475447
Cd 30.424501 12.480708 18.110207
Cd 32.597543 11.226101 14.565287
Cd 30.424501 12.480708 25.200047
Cd 32.597543 11.226101 21.655127
Cd 30.424501 12.480708 32.289886
Cd 32.597543 11.226101 28.744967
Cd 28.251458 16.244528 -31.518672
Cd 28.251458 16.244528 -24.428833
Cd 30.424501 14.989921 -27.973753
Cd 28.251458 16.244528 -17.338993
Cd 30.424501 14.989921 -20.883913
Cd 28.251458 16.244528 -10.249153
Cd 30.424501 14.989921 -13.794073
Cd 28.251458 16.244528 -3.159313
Cd 30.424501 14.989921 -6.704233
Cd 28.251458 16.244528 3.930527
Cd 30.424501 14.989921 0.385607
Cd 28.251458 16.244528 11.020367
Cd 30.424501 14.989921 7.475447
Cd 28.251458 16.244528 18.110207
Cd 30.424501 14.989921 14.565287
Cd 28.251458 16.244528 25.200047
Cd 30.424501 14.989921 21.655127
Cd 28.251458 16.244528 32.289886
Cd 30.424501 14.989921 28.744967
Cd 26.078415 20.008349 -31.518672
Cd 26.078415 20.008349 -24.428833
Cd 28.251458 18.753742 -27.973753
Cd 26.078415 20.008349 -17.338993
Cd 28.251458 18.753742 -20.883913
Cd 26.078415 20.008349 -10.249153
Cd 28.251458 18.753742 -13.794073
Cd 26.078415 20.008349 -3.159313
Cd 28.251458 18.753742 -6.704233
Cd 26.078415 20.008349 3.930527
Cd 28.251458 18.753742 0.385607
Cd 26.078415 20.008349 11.020367
Cd 28.251458 18.753742 7.475447
Cd 26.078415 20.008349 18.110207
Cd 28.251458 18.753742 14.565287
Cd 26.078415 20.008349 25.200047
Cd 28.251458 18.753742 21.655127
Cd 26.078415 20.008349 32.289886
Cd 28.251458 18.753742 28.744967
Cd 23.905373 23.772169 -31.518672
Cd 23.905373 23.772169 -24.428833
Cd 26.078415 22.517562 -27.973753
Cd 23.905373 23.772169 -17.338993
Cd 26.078415 22.517562 -20.883913
Cd 23.905373 23.772169 -10.249153
Cd 26.078415 22.517562 -13.794073
Cd 23.905373 23.772169 -3.159313
Cd 26.078415 22.517562 -6.704233
Cd 23.905373 23.772169 3.930527
Cd 26.078415 22.517562 0.385607
Cd 23.905373 23.772169 11.020367
Cd 26.078415 22.517562 7.475447
Cd 23.905373 23.772169 18.110207
Cd 26.078415 22.517562 14.565287
Cd 23.905373 23.772169 25.200047
Cd 26.078415 22.517562 21.655127
Cd 23.905373 23.772169 32.289886
Cd 26.078415 22.517562 28.744967
Cd 21.732330 27.535989 -31.518672
Cd 21.732330 27.535989 -24.428833
Cd 23.905373 26.281382 -27.973753
Cd 21.732330 27.535989 -17.338993
Cd 23.905373 26.281382 -20.883913
Cd 21.732330 27.535989 -10.249153
Cd 23.905373 26.281382 -13.794073
Cd 21.732330 27.535989 -3.159313
Cd 23.905373 26.281382 -6.704233
Cd 21.732330 27.535989 3.930527
Cd 23.905373 26.281382 0.385607
Cd 21.732330 27.535989 11.020367
Cd 23.905373 26.281382 7.475447
Cd 21.732330 27.535989 18.110207
Cd 23.905373 26.281382 14.565287
Cd 21.732330 27.535989 25.200047
Cd 23.905373 26.281382 21.655127
Cd 21.732330 27.535989 32.289886
Cd 23.905373 26.281382 28.744967
Cd 19.559287 31.299810 -31.518672
Cd 19.559287 31.299810 -24.428833
Cd 21.732330 30.045203 -27.973753
Cd 19.559287 31.299810 -17.338993
Cd 21.732330 30.045203 -20.883913
Cd 19.559287 31.299810 -10.249153
Cd 21.732330 30.045203 -13.794073
Cd 19.559287 31.299810 -3.159313
Cd 21.732330 30.045203 -6.704233
Cd 19.559287 31.299810 3.930527
Cd 21.732330 30.045203 0.385607
Cd 19.559287 31.299810 11.020367
Cd 21.732330 30.045203 7.475447
Cd 19.559287 31.299810 18.110207
Cd 21.732330 30.045203 14.565287
Cd 19.559287 31.299810 25.200047
Cd 21.732330 30.045203 21.655127
Cd 19.559287 31.299810 32.289886
Cd 21.732330 30.045203 28.744967
Se -17.382439 -32.685136 -28.853224
Se -15.209396 -33.939743 -25.308304
Se -17.382439 -32.685136 -21.763384
Se -15.209396 -33.939743 -18.218464
Se -17.382439 -32.685136 -14.673544
Se -15.209396 -33.939743 -11.128624
Se -17.382439 -32.685136 -7.583704
Se -15.209396 -33.939743 -4.038784
Se -17.382439 -32.685136 -0.493864
Se -15.209396 -33.939743 3.051056
Se -17.382439 -32.685136 6.595975
Se -15.209396 -33.939743 10.140895
Se -17.382439 -32.685136 13.685815
Se -15.209396 -33.939743 17.230735
Se -17.382439 -32.685136 20.775655
Se -15.209396 -33.939743 24.320575
Se -17.382439 -32.685136 27.865495
Se -19.555481 -28.921316 -28.853224
Se -17.382439 -30.175923 -25.308304
Se -19.555481 -28.921316 -21.763384
Se -17.382439 -30.175923 -18.218464
Se -19.555481 -28.921316 -14.673544
Se -17.382439 -30.175923 -11.128624
Se -19.555481 -28.921316 -7.583704
Se -17.382439 -30.175923 -4.038784
Se -19.555481 -28.921316 -0.493864
Se -17.382439 -30.175923 3.051056
Se -19.555481 -28.921316 6.595975
Se -17.382439 -30.175923 10.140895
Se -19.555481 -28.921316 13.685815
Se -17.382439 -30.175923 17.230735
Se -19.555481 -28.921316 20.775655
Se -17.382439 -30.175923 24.320575
Se -19.555481 -28.921316 27.865495
Se -21.728524 -25.157496 -28.853224
Se -19.555481 -26.412102 -25.308304
Se -21.728524 -25.157496 -21.763384
Se -19.555481 -26.412102 -18.218464
Se -21.728524 -25.157496 -14.673544
Se -19.555481 -26.412102 -11.128624
Se -21.728524 -25.157496 -7.583704
Se -19.555481 -26.412102 -4.038784
Se -21.728524 -25.157496 -0.493864
Se -19.555481 -26.412102 3.051056
Se -21.728524 -25.157496 6.595975
Se -19.555481 -26.412102 10.140895
Se -21.728524 -25.157496 13.685815
Se -19.555481 -26.412102 17.230735
Se -21.728524 -25.157496 20.775655
Se -19.555481 -26.412102 24.320575
Se -21.728524 -25.157496 27.865495
Se -23.901567 -21.393675 -28.853224
Se -21.728524 -22.648282 -25.308304
Se -23.901567 -21.393675 -21.763384
Se -21.728524 -22.648282 -18.218464
Se -23.901567 -21.393675 -14.673544
Se -21.728524 -22.648282 -11.128624
Se -23.901567 -21.393675 -7.583704
Se -21.728524 -22.648282 -4.038784
Se -23.901567 -21.393675 -0.493864
Se -21.728524 -22.648282 3.051056
Se -23.901567 -21.393675 6.595975
Se -21.728524 -22.648282 10.140895
Se -23.901567 -21.393675 13.685815
Se -21.728524 -22.648282 17.230735
Se -23.901567 -21.393675 20.775655
Se -21.728524 -22.648282 24.320575
Se -23.901567 -21.393675 27.865495
Se -26.074609 -17.629855 -28.853224
Se -23.901567 -18.884462 -25.308304
Se -26.074609 -17.629855 -21.763384
Se -23.901567 -18.884462 -18.218464
Se -26.074609 -17.629855 -14.673544
Se -23.901567 -18.884462 -11.128624
Se -26.074609 -17.629855 -7.583704
Se -23.901567 -18.884462 -4.038784
Se -26.074609 -17.629855 -0.493864
Se -23.901567 -18.884462 3.051056
Se -26.074609 -17.629855 6.595975
Se -23.901567 -18.884462 10.140895
Se -26.074609 -17.629855 13.685815
Se -23.901567 -18.884462 17.230735
Se -26.074609 -17.629855 20.775655
Se -23.901567 -18.884462 24.320575
Se -26.074609 -17.629855 27.865495
Se -28.247652 -13.866035 -28.853224
Se -26.074609 -15.120641 -25.308304
Se -28.247652 -13.866035 -21.763384
Se -26.074609 -15.120641 -18.218464
Se -28.247652 -13.866035 -14.673544
Se -26.074609 -15.120641 -11.128624
Se -28.247652 -13.866035 -7.583704
Se -26.074609 -15.120641 -4.038784
Se -28.247652 -13.866035 -0.493864
Se -26.074609 -15.120641 3.051056
Se -28.247652 -13.866035 6.595975
Se -26.074609 -15.120641 10.140895
Se -28.247652 -13.866035 13.685815
Se -26.074609 -15.120641 17.230735
Se -28.247652 -13.866035 20.775655
Se -26.074609 -15.120641 24.320575
Se -28.247652 -13.866035 27.865495
Se -30.420695 -10.102214 -28.853224
Se -28.247652 -11.356821 -25.308304
Se -30.420695 -10.102214 -21.763384
Se -28.247652 -11.356821 -18.218464
Se -30.420695 -10.102214 -14.673544
Se -28.247652 -11.356821 -11.128624
Se -30.420695 -10.102214 -7.583704
Se -28.247652 -11.356821 -4.038784
Se -30.420695 -10.102214 -0.493864
Se -28.247652 -11.356821 3.051056
Se -30.420695 -10.102214 6.595975
Se -28.247652 -11.356821 10.140895
Se -30.420695 -10.102214 13.685815
Se -28.247652 -11.356821 17.230735
Se -30.420695 -10.102214 20.775655
Se -28.247652 -11.356821 24.320575
Se -30.420695 -10.102214 27.865495
Se -32.593737 -6.338394 -28.853224
Se -30.420695 -7.593001 -25.308304
Se -32.593737 -6.338394 -21.763384
Se -30.420695 -7.593001 -18.218464
Se -32.593737 -6.338394 -14.673544
Se -30.420695 -7.593001 -11.128624
Se -32.593737 -6.338394 -7.583704
Se -30.420695 -7.593001 -4.038784
Se -32.593737 -6.338394 -0.493864
Se -30.420695 -7.593001 3.051056
Se -32.593737 -6.338394 6.595975
Se -30.420695 -7.593001 10.140895
Se -32.593737 -6.338394 13.685815
Se -30.420695 -7.593001 17.230735
Se -32.593737 -6.338394 20.775655
Se -30.420695 -7.593001 24.320575
Se -32.593737 -6.338394 27.865495
Se -34.766780 -2.574574 -28.853224
Se -32.593737 -3.829180 -25.308304
Se -34.766780 -2.574574 -21.763384
Se -32.593737 -3.829180 -18.218464
Se -34.766780 -2.574574 -14.673544
Se -32.593737 -3.829180 -11.128624
Se -34.766780 -2.574574 -7.583704
Se -32.593737 -3.829180 -4.038784
Se -34.766780 -2.574574 -0.493864
Se -32.593737 -3.829180 3.051056
Se -34.766780 -2.574574 6.595975
Se -32.593737 -3.829180 10.140895
Se -34.766780 -2.574574 13.685815
Se -32.593737 -3.829180 17.230735
Se -34.766780 -2.574574 20.775655
Se -32.593737 -3.829180 24.320575
Se -34.766780 -2.574574 27.865495
Se -36.939823 1.189247 -28.853224
Se -34.766780 -0.065360 -25.308304
Se -36.939823 1.189247 -21.763384
Se -34.766780 -0.065360 -18.218464
Se -36.939823 1.189247 -14.673544
Se -34.766780 -0.065360 -11.128624
Se -36.939823 1.189247 -7.583704
Se -34.766780 -0.065360 -4.038784
Se -36.939823 1.189247 -0.493864
Se -34.766780 -0.065360 3.051056
Se -36.939823 1.189247 6.595975
Se -34.766780 -0.065360 10.140895
Se -36.939823 1.189247 13.685815
Se -34.766780 -0.065360 17.230735
Se -36.939823 1.189247 20.775655
Se -34.766780 -0.065360 24.320575
Se -36.939823 1.189247 27.865495
Se -34.766780 -0.065360 31.410415
Se -36.939823 3.698460 -25.308304
Se -36.939823 3.698460 -18.218464
Se -36.939823 3.698460 -11.128624
Se -36.939823 3.698460 -4.038784
Se -36.939823 3.698460 3.051056
Se -36.939823 3.698460 10.140895
Se -36.939823 3.698460 17.230735
Se -36.939823 3.698460 24.320575
Se -36.939823 3.698460 31.410415
Se -13.036353 -32.685136 -28.853224
Se -10.863310 -33.939743 -25.308304
Se -13.036353 -32.685136 -21.763384
Se -10.863310 -33.939743 -18.218464
Se -13.036353 -32.685136 -14.673544
Se -10.863310 -33.939743 -11.128624
Se -13.036353 -32.685136 -7.583704
Se -10.863310 -33.939743 -4.038784
Se -13.036353 -32.685136 -0.493864
Se -10.863310 -33.939743 3.051056
Se -13.036353 -32.685136 6.595975
Se -10.863310 -33.939743 10.140895
Se -13.036353 -32.685136 13.685815
Se -10.863310 -33.939743 17.230735
Se -13.036353 -32.685136 20.775655
Se -10.863310 -33.939743 24.320575
Se -13.036353 -32.685136 27.865495
Se -10.863310 -33.939743 31.410415
Se -15.209396 -28.921316 -28.853224
Se -13.036353 -30.175923 -25.308304
Se -15.209396 -28.921316 -21.763384
Se -13.036353 -30.175923 -18.218464
Se -15.209396 -28.921316 -14.673544
Se -13.036353 -30.175923 -11.128624
Se -15.209396 -28.921316 -7.583704
Se -13.036353 -30.175923 -4.038784
Se -15.209396 -28.921316 -0.493864
Se -13.036353 -30.175923 3.051056
Se -15.209396 -28.921316 6.595975
Se -13.036353 -30.175923 10.140895
Se -15.209396 -28.921316 13.685815
Se -13.036353 -30.175923 17.230735
Se -15.209396 -28.921316 20.775655
Se -13.036353 -30.175923 24.320575
Se -15.209396 -28.921316 27.865495
Se -13.036353 -30.175923 31.410415
Se -17.382439 -25.157496 -28.853224
Se -15.209396 -26.412102 -25.308304
Se -17.382439 -25.157496 -21.763384
Se -15.209396 -26.412102 -18.218464
Se -17.382439 -25.157496 -14.673544
Se -15.209396 -26.412102 -11.128624
Se -17.382439 -25.157496 -7.583704
Se -15.209396 -26.412102 -4.038784
Se -17.382439 -25.157496 -0.493864
Se -15.209396 -26.412102 3.051056
Se -17.382439 -25.157496 6.595975
Se -15.209396 -26.412102 10.140895
Se -17.382439 -25.157496 13.685815
Se -15.209396 -26.412102 17.230735
Se -17.382439 -25.157496 20.775655
Se -15.209396 -26.412102 24.320575
Se -17.382439 -25.157496 27.865495
Se -15.209396 -26.412102 31.410415
Se -19.555481 -21.393675 -28.853224
Se -17.382439 -22.648282 -25.308304
Se -19.555481 -21.393675 -21.763384
Se -17.382439 -22.648282 -18.218464
Se -19.555481 -21.393675 -14.673544
Se -17.382439 -22.648282 -11.128624
Se -19.555481 -21.393675 -7.583704
Se -17.382439 -22.648282 -4.038784
Se -19.555481 -21.393675 -0.493864
Se -17.382439 -22.648282 3.051056
Se -19.555481 -21.393675 6.595975
Se -17.382439 -22.648282 10.140895
Se -19.555481 -21.393675 13.685815
Se -17.382439 -22.648282 17.230735
Se -19.555481 -21.393675 20.775655
Se -17.382439 -22.648282 24.320575
Se -19.555481 -21.393675 27.865495
Se -17.382439 -22.648282 31.410415
Se -21.728524 -17.629855 -28.853224
Se -19.555481 -18.884462 -25.308304
Se -21.728524 -17.629855 -21.763384
Se -19.555481 -18.884462 -18.218464
Se -21.728524 -17.629855 -14.673544
Se -19.555481 -18.884462 -11.128624
Se -21.728524 -17.629855 -7.583704
Se -19.555481 -18.884462 -4.038784
Se -21.728524 -17.629855 -0.493864
Se -19.555481 -18.884462 3.051056
Se -21.728524 -17.629855 6.595975
Se -19.555481 -18.884462 10.140895
Se -21.728524 -17.629855 13.685815
Se -19.555481 -18.884462 17.230735
Se -21.728524 -17.629855 20.775655
Se -19.555481 -18.884462 24.320575
Se -21.728524 -17.629855 27.865495
Se -19.555481 -18.884462 31.410415
Se -23.901567 -13.866035 -28.853224
Se -21.728524 -15.120641 -25.308304
Se -23.901567 -13.866035 -21.763384
Se -21.728524 -15.120641 -18.218464
Se -23.901567 -13.866035 -14.673544
Se -21.728524 -15.120641 -11.128624
Se -23.901567 -13.866035 -7.583704
Se -21.728524 -15.120641 -4.038784
Se -23.901567 -13.866035 -0.493864
Se -21.728524 -15.120641 3.051056
Se -23.901567 -13.866035 6.595975
Se -21.728524 -15.120641 10.140895
Se -23.901567 -13.866035 13.685815
Se -21.728524 -15.120641 17.230735
Se -23.901567 -13.866035 20.775655
Se -21.728524 -15.120641 24.320575
Se -23.901567 -13.866035 27.865495
Se -21.728524 -15.120641 31.410415
Se -26.074609 -10.102214 -28.853224
Se -23.901567 -11.356821 -25.308304
Se -26.074609 -10.102214 -21.763384
Se -23.901567 -11.356821 -18.218464
Se -26.074609 -10.102214 -14.673544
Se -23.901567 -11.356821 -11.128624
Se -26.074609 -10.102214 -7.583704
Se -23.901567 -11.356821 -4.038784
Se -26.074609 -10.102214 -0.493864
Se -23.901567 -11.356821 3.051056
Se -26.074609 -10.102214 6.595975
Se -23.901567 -11.356821 10.140895
Se -26.074609 -10.102214 13.685815
Se -23.901567 -11.356821 17.230735
Se -26.074609 -10.102214 20.775655
Se -23.901567 -11.356821 24.320575
Se -26.074609 -10.102214 27.865495
Se -23.901567 -11.356821 31.410415
Se -28.247652 -6.338394 -28.853224
Se -26.074609 -7.593001 -25.308304
Se -28.247652 -6.338394 -21.763384
Se -26.074609 -7.593001 -18.218464
Se -28.247652 -6.338394 -14.673544
Se -26.074609 -7.593001 -11.128624
Se -28.247652 -6.338394 -7.583704
Se -26.074609 -7.593001 -4.038784
Se -28.247652 -6.338394 -0.493864
Se -26.074609 -7.593001 3.051056
Se -28.247652 -6.338394 6.595975
Se -26.074609 -7.593001 10.140895
Se -28.247652 -6.338394 13.685815
Se -26.074609 -7.593001 17.230735
Se -28.247652 -6.338394 20.775655
Se -26.074609 -7.593001 24.320575
Se -28.247652 -6.338394 27.865495
Se -26.074609 -7.593001 31.410415
Se -30.420695 -2.574574 -28.853224
Se -28.247652 -3.829180 -25.308304
Se -30.420695 -2.574574 -21.763384
Se -28.247652 -3.829180 -18.218464
Se -30.420695 -2.574574 -14.673544
Se -28.247652 -3.829180 -11.128624
Se -30.420695 -2.574574 -7.583704
Se -28.247652 -3.829180 -4.038784
Se -30.420695 -2.574574 -0.493864
Se -28.247652 -3.829180 3.051056
Se -30.420695 -2.574574 6.595975
Se -28.247652 -3.829180 10.140895
Se -30.420695 -2.574574 13.685815
Se -28.247652 -3.829180 17.230735
Se -30.420695 -2.574574 20.775655
Se -28.247652 -3.829180 24.320575
Se -30.420695 -2.574574 27.865495
Se -28.247652 -3.829180 31.410415
Se -32.593737 1.189247 -28.853224
Se -30.420695 -0.065360 -25.308304
Se -32.593737 1.189247 -21.763384
Se -30.420695 -0.065360 -18.218464
Se -32.593737 1.189247 -14.673544
Se -30.420695 -0.065360 -11.128624
Se -32.593737 1.189247 -7.583704
Se -30.420695 -0.065360 -4.038784
Se -32.593737 1.189247 -0.493864
Se -30.420695 -0.065360 3.051056
Se -32.593737 1.189247 6.595975
Se -30.420695 -0.065360 10.140895
Se -32.593737 1.189247 13.685815
Se -30.420695 -0.065360 17.230735
Se -32.593737 1.189247 20.775655
Se -30.420695 -0.065360 24.320575
Se -32.593737 1.189247 27.865495
Se -30.420695 -0.065360 31.410415
Se -32.593737 3.698460 -32.398144
Se -34.766780 4.953067 -28.853224
Se -32.593737 3.698460 -25.308304
Se -34.766780 4.953067 -21.763384
Se -32.593737 3.698460 -18.218464
Se -34.766780 4.953067 -14.673544
Se -32.593737 3.698460 -11.128624
Se -34.766780 4.953067 -7.583704
Se -32.593737 3.698460 -4.038784
Se -34.766780 4.953067 -0.493864
Se -32.593737 3.698460 3.051056
Se -34.766780 4.953067 6.595975
Se -32.593737 3.698460 10.140895
Se -34.766780 4.953067 13.685815
Se -32.593737 3.698460 17.230735
Se -34.766780 4.953067 20.775655
Se -32.593737 3.698460 24.320575
Se -34.766780 4.953067 27.865495
Se -32.593737 3.698460 31.410415
Se -34.766780 7.462281 -25.308304
Se -34.766780 7.462281 -18.218464
Se -34.766780 7.462281 -11.128624
Se -34.766780 7.462281 -4.038784
Se -34.766780 7.462281 3.051056
Se -34.766780 7.462281 10.140895
Se -34.766780 7.462281 17.230735
Se -34.766780 7.462281 24.320575
Se -34.766780 7.462281 31.410415
Se -8.690268 -32.685136 -28.853224
Se -6.517225 -33.939743 -25.308304
Se -8.690268 -32.685136 -21.763384
Se -6.517225 -33.939743 -18.218464
Se -8.690268 -32.685136 -14.673544
Se -6.517225 -33.939743 -11.128624
Se -8.690268 -32.685136 -7.583704
Se -6.517225 -33.939743 -4.038784
Se -8.690268 -32.685136 -0.493864
Se -6.517225 -33.939743 3.051056
Se -8.690268 -32.685136 6.595975
Se -6.517225 -33.939743 10.140895
Se -8.690268 -32.685136 13.685815
Se -6.517225 -33.939743 17.230735
Se -8.690268 -32.685136 20.775655
Se -6.517225 -33.939743 24.320575
Se -8.690268 -32.685136 27.865495
Se -6.517225 -33.939743 31.410415
Se -8.690268 -30.175923 -32.398144
Se -10.863310 -28.921316 -28.853224
Se -8.690268 -30.175923 -25.308304
Se -10.863310 -28.921316 -21.763384
Se -8.690268 -30.175923 -18.218464
Se -10.863310 -28.921316 -14.673544
Se -8.690268 -30.175923 -11.128624
Se -10.863310 -28.921316 -7.583704
Se -8.690268 -30.175923 -4.038784
Se -10.863310 -28.921316 -0.493864
Se -8.690268 -30.175923 3.051056
Se -10.863310 -28.921316 6.595975
Se -8.690268 -30.175923 10.140895
Se -10.863310 -28.921316 13.685815
Se -8.690268 -30.175923 17.230735
Se -10.863310 -28.921316 20.775655
Se -8.690268 -30.175923 24.320575
Se -10.863310 -28.921316 27.865495
Se -8.690268 -30.175923 31.410415
Se -13.036353 -25.157496 -28.853224
Se -10.863310 -26.412102 -25.308304
Se -13.036353 -25.157496 -21.763384
Se -10.863310 -26.412102 -18.218464
Se -13.036353 -25.157496 -14.673544
Se -10.863310 -26.412102 -11.128624
Se -13.036353 -25.157496 -7.583704
Se -10.863310 -26.412102 -4.038784
Se -13.036353 -25.157496 -0.493864
Se -10.863310 -26.412102 3.051056
Se -13.036353 -25.157496 6.595975
Se -10.863310 -26.412102 10.140895
Se -13.036353 -25.157496 13.685815
Se -10.863310 -26.412102 17.230735
Se -13.036353 -25.157496 20.775655
Se -10.863310 -26.412102 24.320575
Se -13.036353 -25.157496 27.865495
Se -10.863310 -26.412102 31.410415
Se -15.209396 -21.393675 -28.853224
Se -13.036353 -22.648282 -25.308304
Se -15.209396 -21.393675 -21.763384
Se -13.036353 -22.648282 -18.218464
Se -15.209396 -21.393675 -14.673544
Se -13.036353 -22.648282 -11.128624
Se -15.209396 -21.393675 -7.583704
Se -13.036353 -22.648282 -4.038784
Se -15.209396 -21.393675 -0.493864
Se -13.036353 -22.648282 3.051056
Se -15.209396 -21.393675 6.595975
Se -13.036353 -22.648282 10.140895
Se -15.209396 -21.393675 13.685815
Se -13.036353 -22.648282 17.230735
Se -15.209396 -21.393675 20.775655
Se -13.036353 -22.648282 24.320575
Se -15.209396 -21.393675 27.865495
Se -13.036353 -22.648282 31.410415
Se -17.382439 -17.629855 -28.853224
Se -15.209396 -18.884462 -25.308304
Se -17.382439 -17.629855 -21.763384
Se -15.209396 -18.884462 -18.218464
Se -17.382439 -17.629855 -14.673544
Se -15.209396 -18.884462 -11.128624
Se -17.382439 -17.629855 -7.583704
Se -15.209396 -18.884462 -4.038784
Se -17.382439 -17.629855 -0.493864
Se -15.209396 -18.884462 3.051056
Se -17.382439 -17.629855 6.595975
Se -15.209396 -18.884462 10.140895
Se -17.382439 -17.629855 13.685815
Se -15.209396 -18.884462 17.230735
Se -17.382439 -17.629855 20.775655
Se -15.209396 -18.884462 24.320575
Se -17.382439 -17.629855 27.865495
Se -15.209396 -18.884462 31.410415
Se -19.555481 -13.866035 -28.853224
Se -17.382439 -15.120641 -25.308304
Se -19.555481 -13.866035 -21.763384
Se -17.382439 -15.120641 -18.218464
Se -19.555481 -13.866035 -14.673544
Se -17.382439 -15.120641 -11.128624
Se -19.555481 -13.866035 -7.583704
Se -17.382439 -15.120641 -4.038784
Se -19.555481 -13.866035 -0.493864
Se -17.382439 -15.120641 3.051056
Se -19.555481 -13.866035 6.595975
Se -17.382439 -15.120641 10.140895
Se -19.555481 -13.866035 13.685815
Se -17.382439 -15.120641 17.230735
Se -19.555481 -13.866035 20.775655
Se -17.382439 -15.120641 24.320575
Se -19.555481 -13.866035 27.865495
Se -17.382439 -15.120641 31.410415
Se -21.728524 -10.102214 -28.853224
Se -19.555481 -11.356821 -25.308304
Se -21.728524 -10.102214 -21.763384
Se -19.555481 -11.356821 -18.218464
Se -21.728524 -10.102214 -14.673544
Se -19.555481 -11.356821 -11.128624
Se -21.728524 -10.102214 -7.583704
Se -19.555481 -11.356821 -4.038784
Se -21.728524 -10.102214 -0.493864
Se -19.555481 -11.356821 3.051056
Se -21.728524 -10.102214 6.595975
Se -19.555481 -11.356821 10.140895
Se -21.728524 -10.102214 13.685815
Se -19.555481 -11.356821 17.230735
Se -21.728524 -10.102214 20.775655
Se -19.555481 -11.356821 24.320575
Se -21.728524 -10.102214 27.865495
Se -19.555481 -11.356821 31.410415
Se -23.901567 -6.338394 -28.853224
Se -21.728524 -7.593001 -25.308304
Se -23.901567 -6.338394 -21.763384
Se -21.728524 -7.593001 -18.218464
Se -23.901567 -6.338394 -14.673544
Se -21.728524 -7.593001 -11.128624
Se -23.901567 -6.338394 -7.583704
Se -21.728524 -7.593001 -4.038784
Se -23.901567 -6.338394 -0.493864
Se -21.728524 -7.593001 3.051056
Se -23.901567 -6.338394 6.595975
Se -21.728524 -7.593001 10.140895
Se -23.901567 -6.338394 13.685815
Se -21.728524 -7.593001 17.230735
Se -23.901567 -6.338394 20.775655
Se -21.728524 -7.593001 24.320575
Se -23.901567 -6.338394 27.865495
Se -21.728524 -7.593001 31.410415
Se -26.074609 -2.574574 -28.853224
Se -23.901567 -3.829180 -25.308304
Se -26.074609 -2.574574 -21.763384
Se -23.901567 -3.829180 -18.218464
Se -26.074609 -2.574574 -14.673544
Se -23.901567 -3.829180 -11.128624
Se -26.074609 -2.574574 -7.583704
Se -23.901567 -3.829180 -4.038784
Se -26.074609 -2.574574 -0.493864
Se -23.901567 -3.829180 3.051056
Se -26.074609 -2.574574 6.595975
Se -23.901567 -3.829180 10.140895
Se -26.074609 -2.574574 13.685815
Se -23.901567 -3.829180 17.230735
Se -26.074609 -2.574574 20.775655
Se -23.901567 -3.829180 24.320575
Se -26.074609 -2.574574 27.865495
Se -23.901567 -3.829180 31.410415
Se -28.247652 1.189247 -28.853224
Se -26.074609 -0.065360 -25.308304
Se -28.247652 1.189247 -21.763384
Se -26.074609 -0.065360 -18.218464
Se -28.247652 1.189247 -14.673544
Se -26.074609 -0.065360 -11.128624
Se -28.247652 1.189247 -7.583704
Se -26.074609 -0.065360 -4.038784
Se -28.247652 1.189247 -0.493864
Se -26.074609 -0.065360 3.051056
Se -28.247652 1.189247 6.595975
Se -26.074609 -0.065360 10.140895
Se -28.247652 1.189247 13.685815
Se -26.074609 -0.065360 17.230735
Se -28.247652 1.189247 20.775655
Se -26.074609 -0.065360 24.320575
Se -28.247652 1.189247 27.865495
Se -26.074609 -0.065360 31.410415
Se -30.420695 4.953067 -28.853224
Se -28.247652 3.698460 -25.308304
Se -30.420695 4.953067 -21.763384
Se -28.247652 3.698460 -18.218464
Se -30.420695 4.953067 -14.673544
Se -28.247652 3.698460 -11.128624
Se -30.420695 4.953067 -7.583704
Se -28.247652 3.698460 -4.038784
Se -30.420695 4.953067 -0.493864
Se -28.247652 3.698460 3.051056
Se -30.420695 4.953067 6.595975
Se -28.247652 3.698460 10.140895
Se -30.420695 4.953067 13.685815
Se -28.247652 3.698460 17.230735
Se -30.420695 4.953067 20.775655
Se -28.247652 3.698460 24.320575
Se -30.420695 4.953067 27.865495
Se -28.247652 3.698460 31.410415
Se -32.593737 8.716887 -28.853224
Se -30.420695 7.462281 -25.308304
Se -32.593737 8.716887 -21.763384
Se -30.420695 7.462281 -18.218464
Se -32.593737 8.716887 -14.673544
Se -30.420695 7.462281 -11.128624
Se -32.593737 8.716887 -7.583704
Se -30.420695 7.462281 -4.038784
Se -32.593737 8.716887 -0.493864
Se -30.420695 7.462281 3.051056
Se -32.593737 8.716887 6.595975
Se -30.420695 7.462281 10.140895
Se -32.593737 8.716887 13.685815
Se -30.420695 7.462281 17.230735
Se -32.593737 8.716887 20.775655
Se -30.420695 7.462281 24.320575
Se -32.593737 8.716887 27.865495
Se -30.420695 7.462281 31.410415
Se -32.593737 11.226101 -25.308304
Se -32.593737 11.226101 -18.218464
Se -32.593737 11.226101 -11.128624
Se -32.593737 11.226101 -4.038784
Se -32.593737 11.226101 3.051056
Se -32.593737 11.226101 10.140895
Se -32.593737 11.226101 17.230735
Se -32.593737 11.226101 24.320575
Se -32.593737 11.226101 31.410415
Se -4.344182 -32.685136 -28.853224
Se -2.171140 -33.939743 -25.308304
Se -4.344182 -32.685136 -21.763384
Se -2.171140 -33.939743 -18.218464
Se -4.344182 -32.685136 -14.673544
Se -2.171140 -33.939743 -11.128624
Se -4.344182 -32.685136 -7.583704
Se -2.171140 -33.939743 -4.038784
Se -4.344182 -32.685136 -0.493864
Se -2.171140 -33.939743 3.051056
Se -4.344182 -32.685136 6.595975
Se -2.171140 -33.939743 10.140895
Se -4.344182 -32.685136 13.685815
Se -2.171140 -33.939743 17.230735
Se -4.344182 -32.685136 20.775655
Se -2.171140 -33.939743 24.320575
Se -4.344182 -32.685136 27.865495
Se -2.171140 -33.939743 31.410415
Se -6.517225 -28.921316 -28.853224
Se -4.344182 -30.175923 -25.308304
Se -6.517225 -28.921316 -21.763384
Se -4.344182 -30.175923 -18.218464
Se -6.517225 -28.921316 -14.673544
Se -4.344182 -30.175923 -11.128624
Se -6.517225 -28.921316 -7.583704
Se -4.344182 -30.175923 -4.038784
Se -6.517225 -28.921316 -0.493864
Se -4.344182 -30.175923 3.051056
Se -6.517225 -28.921316 6.595975
Se -4.344182 -30.175923 10.140895
Se -6.517225 -28.921316 13.685815
Se -4.344182 -30.175923 17.230735
Se -6.517225 -28.921316 20.775655
Se -4.344182 -30.175923 24.320575
Se -6.517225 -28.921316 27.865495
Se -4.344182 -30.175923 31.410415
Se -8.690268 -25.157496 -28.853224
Se -6.517225 -26.412102 -25.308304
Se -8.690268 -25.157496 -21.763384
Se -6.517225 -26.412102 -18.218464
Se -8.690268 -25.157496 -14.673544
Se -6.517225 -26.412102 -11.128624
Se -8.690268 -25.157496 -7.583704
Se -6.517225 -26.412102 -4.038784
Se -8.690268 -25.157496 -0.493864
Se -6.517225 -26.412102 3.051056
Se -8.690268 -25.157496 6.595975
Se -6.517225 -26.412102 10.140895
Se -8.690268 -25.157496 13.685815
Se -6.517225 -26.412102 17.230735
Se -8.690268 -25.157496 20.775655
Se -6.517225 -26.412102 24.320575
Se -8.690268 -25.157496 27.865495
Se -6.517225 -26.412102 31.410415
Se -10.863310 -21.393675 -28.853224
Se -8.690268 -22.648282 -25.308304
Se -10.863310 -21.393675 -21.763384
Se -8.690268 -22.648282 -18.218464
Se -10.863310 -21.393675 -14.673544
Se -8.690268 -22.648282 -11.128624
Se -10.863310 -21.393675 -7.583704
Se -8.690268 -22.648282 -4.038784
Se -10.863310 -21.393675 -0.493864
Se -8.690268 -22.648282 3.051056
Se -10.863310 -21.393675 6.595975
Se -8.690268 -22.648282 10.140895
Se -10.863310 -21.393675 13.685815
Se -8.690268 -22.648282 17.230735
Se -10.863310 -21.393675 20.775655
Se -8.690268 -22.648282 24.320575
Se -10.863310 -21.393675 27.865495
Se -8.690268 -22.648282 31.410415
Se -13.036353 -17.629855 -28.853224
Se -10.863310 -18.884462 -25.308304
Se -13.036353 -17.629855 -21.763384
Se -10.863310 -18.884462 -18.218464
Se -13.036353 -17.629855 -14.673544
Se -10.863310 -18.884462 -11.128624
Se -13.036353 -17.629855 -7.583704
Se -10.863310 -18.884462 -4.038784
Se -13.036353 -17.629855 -0.493864
Se -10.863310 -18.884462 3.051056
Se -13.036353 -17.629855 6.595975
Se -10.863310 -18.884462 10.140895
Se -13.036353 -17.629855 13.685815
Se -10.863310 -18.884462 17.230735
Se -13.036353 -17.629855 20.775655
Se -10.863310 -18.884462 24.320575
Se -13.036353 -17.629855 27.865495
Se -10.863310 -18.884462 31.410415
Se -15.209396 -13.866035 -28.853224
Se -13.036353 -15.120641 -25.308304
Se -15.209396 -13.866035 -21.763384
Se -13.036353 -15.120641 -18.218464
Se -15.209396 -13.866035 -14.673544
Se -13.036353 -15.120641 -11.128624
Se -15.209396 -13.866035 -7.583704
Se -13.036353 -15.120641 -4.038784
Se -15.209396 -13.866035 -0.493864
Se -13.036353 -15.120641 3.051056
Se -15.209396 -13.866035 6.595975
Se -13.036353 -15.120641 10.140895
Se -15.209396 -13.866035 13.685815
Se -13.036353 -15.120641 17.230735
Se -15.209396 -13.866035 20.775655
Se -13.036353 -15.120641 24.320575
Se -15.209396 -13.866035 27.865495
Se -13.036353 -15.120641 31.410415
Se -17.382439 -10.102214 -28.853224
Se -15.209396 -11.356821 -25.308304
Se -17.382439 -10.102214 -21.763384
Se -15.209396 -11.356821 -18.218464
Se -17.382439 -10.102214 -14.673544
Se -15.209396 -11.356821 -11.128624
Se -17.382439 -10.102214 -7.583704
Se -15.209396 -11.356821 -4.038784
Se -17.382439 -10.102214 -0.493864
Se -15.209396 -11.356821 3.051056
Se -17.382439 -10.102214 6.595975
Se -15.209396 -11.356821 10.140895
Se -17.382439 -10.102214 13.685815
Se -15.209396 -11.356821 17.230735
Se -17.382439 -10.102214 20.775655
Se -15.209396 -11.356821 24.320575
Se -17.382439 -10.102214 27.865495
Se -15.209396 -11.356821 31.410415
Se -19.555481 -6.338394 -28.853224
Se -17.382439 -7.593001 -25.308304
Se -19.555481 -6.338394 -21.763384
Se -17.382439 -7.593001 -18.218464
Se -19.555481 -6.338394 -14.673544
Se -17.382439 -7.593001 -11.128624
Se -19.555481 -6.338394 -7.583704
Se -17.382439 -7.593001 -4.038784
Se -19.555481 -6.338394 -0.493864
Se -17.382439 -7.593001 3.051056
Se -19.555481 -6.338394 6.595975
Se -17.382439 -7.593001 10.140895
Se -19.555481 -6.338394 13.685815
Se -17.382439 -7.593001 17.230735
Se -19.555481 -6.338394 20.775655
Se -17.382439 -7.593001 24.320575
Se -19.555481 -6.338394 27.865495
Se -17.382439 -7.593001 31.410415
Se -21.728524 -2.574574 -28.853224
Se -19.555481 -3.829180 -25.308304
Se -21.728524 -2.574574 -21.763384
Se -19.555481 -3.829180 -18.218464
Se -21.728524 -2.574574 -14.673544
Se -19.555481 -3.829180 -11.128624
Se -21.728524 -2.574574 -7.583704
Se -19.555481 -3.829180 -4.038784
Se -21.728524 -2.574574 -0.493864
Se -19.555481 -3.829180 3.051056
Se -21.728524 -2.574574 6.595975
Se -19.555481 -3.829180 10.140895
Se -21.728524 -2.574574 13.685815
Se -19.555481 -3.829180 17.230735
Se -21.728524 -2.574574 20.775655
Se -19.555481 -3.829180 24.320575
Se -21.728524 -2.574574 27.865495
Se -19.555481 -3.829180 31.410415
Se -23.901567 1.189247 -28.853224
Se -21.728524 -0.065360 -25.308304
Se -23.901567 1.189247 -21.763384
Se -21.728524 -0.065360 -18.218464
Se -23.901567 1.189247 -14.673544
Se -21.728524 -0.065360 -11.128624
Se -23.901567 1.189247 -7.583704
Se -21.728524 -0.065360 -4.038784
Se -23.901567 1.189247 -0.493864
Se -21.728524 -0.065360 3.051056
Se -23.901567 1.189247 6.595975
Se -21.728524 -0.065360 10.140895
Se -23.901567 1.189247 13.685815
Se -21.728524 -0.065360 17.230735
Se -23.901567 1.189247 20.775655
Se -21.728524 -0.065360 24.320575
Se -23.901567 1.189247 27.865495
Se -21.728524 -0.065360 31.410415
Se -26.074609 4.953067 -28.853224
Se -23.901567 3.698460 -25.308304
Se -26.074609 4.953067 -21.763384
Se -23.901567 3.698460 -18.218464
Se -26.074609 4.953067 -14.673544
Se -23.901567 3.698460 -11.128624
Se -26.074609 4.953067 -7.583704
Se -23.901567 3.698460 -4.038784
Se -26.074609 4.953067 -0.493864
Se -23.901567 3.698460 3.051056
Se -26.074609 4.953067 6.595975
Se -23.901567 3.698460 10.140895
Se -26.074609 4.953067 13.685815
Se -23.901567 3.698460 17.230735
Se -26.074609 4.953067 20.775655
Se -23.901567 3.698460 24.320575
Se -26.074609 4.953067 27.865495
Se -23.901567 3.698460 31.410415
Se -28.247652 8.716887 -28.853224
Se -26.074609 7.462281 -25.308304
Se -28.247652 8.716887 -21.763384
Se -26.074609 7.462281 -18.218464
Se -28.247652 8.716887 -14.673544
Se -26.074609 7.462281 -11.128624
Se -28.247652 8.716887 -7.583704
Se -26.074609 7.462281 -4.038784
Se -28.247652 8.716887 -0.493864
Se -26.074609 7.462281 3.051056
Se -28.247652 8.716887 6.595975
Se -26.074609 7.462281 10.140895
Se -28.247652 8.716887 13.685815
Se -26.074609 7.462281 17.230735
Se -28.247652 8.716887 20.775655
Se -26.074609 7.462281 24.320575
Se -28.247652 8.716887 27.865495
Se -26.074609 7.462281 31.410415
Se -30.420695 12.480708 -28.853224
Se -28.247652 11.226101 -25.308304
Se -30.420695 12.480708 -21.763384
Se -28.247652 11.226101 -18.218464
Se -30.420695 12.480708 -14.673544
Se -28.247652 11.226101 -11.128624
Se -30.420695 12.480708 -7.583704
Se -28.247652 11.226101 -4.038784
Se -30.420695 12.480708 -0.493864
Se -28.247652 11.226101 3.051056
Se -30.420695 12.480708 6.595975
Se -28.247652 11.226101 10.140895
Se -30.420695 12.480708 13.685815
Se -28.247652 11.226101 17.230735
Se -30.420695 12.480708 20.775655
Se -28.247652 11.226101 24.320575
Se -30.420695 12.480708 27.865495
Se -28.247652 11.226101 31.410415
Se -30.420695 14.989921 -25.308304
Se -30.420695 14.989921 -18.218464
Se -30.420695 14.989921 -11.128624
Se -30.420695 14.989921 -4.038784
Se -30.420695 14.989921 3.051056
Se -30.420695 14.989921 10.140895
Se -30.420695 14.989921 17.230735
Se -30.420695 14.989921 24.320575
Se -30.420695 14.989921 31.410415
Se 0.001903 -32.685136 -28.853224
Se 2.174946 -33.939743 -25.308304
Se 0.001903 -32.685136 -21.763384
Se 2.174946 -33.939743 -18.218464
Se 0.001903 -32.685136 -14.673544
Se 2.174946 -33.939743 -11.128624
Se 0.001903 -32.685136 -7.583704
Se 2.174946 -33.939743 -4.038784
Se 0.001903 -32.685136 -0.493864
Se 2.174946 -33.939743 3.051056
Se 0.001903 -32.685136 6.595975
Se 2.174946 -33.939743 10.140895
Se 0.001903 -32.685136 13.685815
Se 2.174946 -33.939743 17.230735
Se 0.001903 -32.685136 20.775655
Se 2.174946 -33.939743 24.320575
Se 0.001903 -32.685136 27.865495
Se 2.174946 -33.939743 31.410415
Se -2.171140 -28.921316 -28.853224
Se 0.001903 -30.175923 -25.308304
Se -2.171140 -28.921316 -21.763384
Se 0.001903 -30.175923 -18.218464
Se -2.171140 -28.921316 -14.673544
Se 0.001903 -30.175923 -11.128624
Se -2.171140 -28.921316 -7.583704
Se 0.001903 -30.175923 -4.038784
Se -2.171140 -28.921316 -0.493864
Se 0.001903 -30.175923 3.051056
Se -2.171140 -28.921316 6.595975
Se 0.001903 -30.175923 10.140895
Se -2.171140 -28.921316 13.685815
Se 0.001903 -30.175923 17.230735
Se -2.171140 -28.921316 20.775655
Se 0.001903 -30.175923 24.320575
Se -2.171140 -28.921316 27.865495
Se 0.001903 -30.175923 31.410415
Se -4.344182 -25.157496 -28.853224
Se -2.171140 -26.412102 -25.308304
Se -4.344182 -25.157496 -21.763384
Se -2.171140 -26.412102 -18.218464
Se -4.344182 -25.157496 -14.673544
Se -2.171140 -26.412102 -11.128624
Se -4.344182 -25.157496 -7.583704
Se -2.171140 -26.412102 -4.038784
Se -4.344182 -25.157496 -0.493864
Se -2.171140 -26.412102 3.051056
Se -4.344182 -25.157496 6.595975
Se -2.171140 -26.412102 10.140895
Se -4.344182 -25.157496 13.685815
Se -2.171140 -26.412102 17.230735
Se -4.344182 -25.157496 20.775655
Se -2.171140 -26.412102 24.320575
Se -4.344182 -25.157496 27.865495
Se -2.171140 -26.412102 31.410415
Se -6.517225 -21.393675 -28.853224
Se -4.344182 -22.648282 -25.308304
Se -6.517225 -21.393675 -21.763384
Se -4.344182 -22.648282 -18.218464
Se -6.517225 -21.393675 -14.673544
Se -4.344182 -22.648282 -11.128624
Se -6.517225 -21.393675 -7.583704
Se -4.344182 -22.648282 -4.038784
Se -6.517225 -21.393675 -0.493864
Se -4.344182 -22.648282 3.051056
Se -6.517225 -21.393675 6.595975
Se -4.344182 -22.648282 10.140895
Se -6.517225 -21.393675 13.685815
Se -4.344182 -22.648282 17.230735
Se -6.517225 -21.393675 20.775655
Se -4.344182 -22.648282 24.320575
Se -6.517225 -21.393675 27.865495
Se -4.344182 -22.648282 31.410415
Se -8.690268 -17.629855 -28.853224
Se -6.517225 -18.884462 -25.308304
Se -8.690268 -17.629855 -21.763384
Se -6.517225 -18.884462 -18.218464
Se -8.690268 -17.629855 -14.673544
Se -6.517225 -18.884462 -11.128624
Se -8.690268 -17.629855 -7.583704
Se -6.517225 -18.884462 -4.038784
Se -8.690268 -17.629855 -0.493864
Se -6.517225 -18.884462 3.051056
Se -8.690268 -17.629855 6.595975
Se -6.517225 -18.884462 10.140895
Se -8.690268 -17.629855 13.685815
Se -6.517225 -18.884462 17.230735
Se -8.690268 -17.629855 20.775655
Se -6.517225 -18.884462 24.320575
Se -8.690268 -17.629855 27.865495
Se -6.517225 -18.884462 31.410415
Se -10.863310 -13.866035 -28.853224
Se -8.690268 -15.120641 -25.308304
Se -10.863310 -13.866035 -21.763384
Se -8.690268 -15.120641 -18.218464
Se -10.863310 -13.866035 -14.673544
Se -8.690268 -15.120641 -11.128624
Se -10.863310 -13.866035 -7.583704
Se -8.690268 -15.120641 -4.038784
Se -10.863310 -13.866035 -0.493864
Se -8.690268 -15.120641 3.051056
Se -10.863310 -13.866035 6.595975
Se -8.690268 -15.120641 10.140895
Se -10.863310 -13.866035 13.685815
Se -8.690268 -15.120641 17.230735
Se -10.863310 -13.866035 20.775655
Se -8.690268 -15.120641 24.320575
Se -10.863310 -13.866035 27.865495
Se -8.690268 -15.120641 31.410415
Se -13.036353 -10.102214 -28.853224
Se -10.863310 -11.356821 -25.308304
Se -13.036353 -10.102214 -21.763384
Se -10.863310 -11.356821 -18.218464
Se -13.036353 -10.102214 -14.673544
Se -10.863310 -11.356821 -11.128624
Se -13.036353 -10.102214 -7.583704
Se -10.863310 -11.356821 -4.038784
Se -13.036353 -10.102214 -0.493864
Se -10.863310 -11.356821 3.051056
Se -13.036353 -10.102214 6.595975
Se -10.863310 -11.356821 10.140895
Se -13.036353 -10.102214 13.685815
Se -10.863310 -11.356821 17.230735
Se -13.036353 -10.102214 20.775655
Se -10.863310 -11.356821 24.320575
Se -13.036353 -10.102214 27.865495
Se -10.863310 -11.356821 31.410415
Se -15.209396 -6.338394 -28.853224
Se -13.036353 -7.593001 -25.308304
Se -15.209396 -6.338394 -21.763384
Se -13.036353 -7.593001 -18.218464
Se -15.209396 -6.338394 -14.673544
Se -13.036353 -7.593001 -11.128624
Se -15.209396 -6.338394 -7.583704
Se -13.036353 -7.593001 -4.038784
Se -15.209396 -6.338394 -0.493864
Se -13.036353 -7.593001 3.051056
Se -15.209396 -6.338394 6.595975
Se -13.036353 -7.593001 10.140895
Se -15.209396 -6.338394 13.685815
Se -13.036353 -7.593001 17.230735
Se -15.209396 -6.338394 20.775655
Se -13.036353 -7.593001 24.320575
Se -15.209396 -6.338394 27.865495
Se -13.036353 -7.593001 31.410415
Se -17.382439 -2.574574 -28.853224
Se -15.209396 -3.829180 -25.308304
Se -17.382439 -2.574574 -21.763384
Se -15.209396 -3.829180 -18.218464
Se -17.382439 -2.574574 -14.673544
Se -15.209396 -3.829180 -11.128624
Se -17.382439 -2.574574 -7.583704
Se -15.209396 -3.829180 -4.038784
Se -17.382439 -2.574574 -0.493864
Se -15.209396 -3.829180 3.051056
Se -17.382439 -2.574574 6.595975
Se -15.209396 -3.829180 10.140895
Se -17.382439 -2.574574 13.685815
Se -15.209396 -3.829180 17.230735
Se -17.382439 -2.574574 20.775655
Se -15.209396 -3.829180 24.320575
Se -17.382439 -2.574574 27.865495
Se -15.209396 -3.829180 31.410415
Se -19.555481 1.189247 -28.853224
Se -17.382439 -0.065360 -25.308304
Se -19.555481 1.189247 -21.763384
Se -17.382439 -0.065360 -18.218464
Se -19.555481 1.189247 -14.673544
Se -17.382439 -0.065360 -11.128624
Se -19.555481 1.189247 -7.583704
Se -17.382439 -0.065360 -4.038784
Se -19.555481 1.189247 -0.493864
Se -17.382439 -0.065360 3.051056
Se -19.555481 1.189247 6.595975
Se -17.382439 -0.065360 10.140895
Se -19.555481 1.189247 13.685815
Se -17.382439 -0.065360 17.230735
Se -19.555481 1.189247 20.775655
Se -17.382439 -0.065360 24.320575
Se -19.555481 1.189247 27.865495
Se -17.382439 -0.065360 31.410415
Se -21.728524 4.953067 -28.853224
Se -19.555481 3.698460 -25.308304
Se -21.728524 4.953067 -21.763384
Se -19.555481 3.698460 -18.218464
Se -21.728524 4.953067 -14.673544
Se -19.555481 3.698460 -11.128624
Se -21.728524 4.953067 -7.583704
Se -19.555481 3.698460 -4.038784
Se -21.728524 4.953067 -0.493864
Se -19.555481 3.698460 3.051056
Se -21.728524 4.953067 6.595975
Se -19.555481 3.698460 10.140895
Se -21.728524 4.953067 13.685815
Se -19.555481 3.698460 17.230735
Se -21.728524 4.953067 20.775655
Se -19.555481 3.698460 24.320575
Se -21.728524 4.953067 27.865495
Se -19.555481 3.698460 31.410415
Se -23.901567 8.716887 -28.853224
Se -21.728524 7.462281 -25.308304
Se -23.901567 8.716887 -21.763384
Se -21.728524 7.462281 -18.218464
Se -23.901567 8.716887 -14.673544
Se -21.728524 7.462281 -11.128624
Se -23.901567 8.716887 -7.583704
Se -21.728524 7.462281 -4.038784
Se -23.901567 8.716887 -0.493864
Se -21.728524 7.462281 3.051056
Se -23.901567 8.716887 6.595975
Se -21.728524 7.462281 10.140895
Se -23.901567 8.716887 13.685815
Se -21.728524 7.462281 17.230735
Se -23.901567 8.716887 20.775655
Se -21.728524 7.462281 24.320575
Se -23.901567 8.716887 27.865495
Se -21.728524 7.462281 31.410415
Se -26.074609 12.480708 -28.853224
Se -23.901567 11.226101 -25.308304
Se -26.074609 12.480708 -21.763384
Se -23.901567 11.226101 -18.218464
Se -26.074609 12.480708 -14.673544
Se -23.901567 11.226101 -11.128624
Se -26.074609 12.480708 -7.583704
Se -23.901567 11.226101 -4.038784
Se -26.074609 12.480708 -0.493864
Se -23.901567 11.226101 3.051056
Se -26.074609 12.480708 6.595975
Se -23.901567 11.226101 10.140895
Se -26.074609 12.480708 13.685815
Se -23.901567 11.226101 17.230735
Se -26.074609 12.480708 20.775655
Se -23.901567 11.226101 24.320575
Se -26.074609 12.480708 27.865495
Se -23.901567 11.226101 31.410415
Se -26.074609 14.989921 -32.398144
Se -28.247652 16.244528 -28.853224
Se -26.074609 14.989921 -25.308304
Se -28.247652 16.244528 -21.763384
Se -26.074609 14.989921 -18.218464
Se -28.247652 16.244528 -14.673544
Se -26.074609 14.989921 -11.128624
Se -28.247652 16.244528 -7.583704
Se -26.074609 14.989921 -4.038784
Se -28.247652 16.244528 -0.493864
Se -26.074609 14.989921 3.051056
Se -28.247652 16.244528 6.595975
Se -26.074609 14.989921 10.140895
Se -28.247652 16.244528 13.685815
Se -26.074609 14.989921 17.230735
Se -28.247652 16.244528 20.775655
Se -26.074609 14.989921 24.320575
Se -28.247652 16.244528 27.865495
Se -26.074609 14.989921 31.410415
Se -28.247652 18.753742 -25.308304
Se -28.247652 18.753742 -18.218464
Se -28.247652 18.753742 -11.128624
Se -28.247652 18.753742 -4.038784
Se -28.247652 18.753742 3.051056
Se -28.247652 18.753742 10.140895
Se -28.247652 18.753742 17.230735
Se -28.247652 18.753742 24.320575
Se -28.247652 18.753742 31.410415
Se 4.347988 -32.685136 -28.853224
Se 6.521031 -33.939743 -25.308304
Se 4.347988 -32.685136 -21.763384
Se 6.521031 -33.939743 -18.218464
Se 4.347988 -32.685136 -14.673544
Se 6.521031 -33.939743 -11.128624
Se 4.347988 -32.685136 -7.583704
Se 6.521031 -33.939743 -4.038784
Se 4.347988 -32.685136 -0.493864
Se 6.521031 -33.939743 3.051056
Se 4.347988 -32.685136 6.595975
Se 6.521031 -33.939743 10.140895
Se 4.347988 -32.685136 13.685815
Se 6.521031 -33.939743 17.230735
Se 4.347988 -32.685136 20.775655
Se 6.521031 -33.939743 24.320575
Se 4.347988 -32.685136 27.865495
Se 6.521031 -33.939743 31.410415
Se 4.347988 -30.175923 -32.398144
Se 2.174946 -28.921316 -28.853224
Se 4.347988 -30.175923 -25.308304
Se 2.174946 -28.921316 -21.763384
Se 4.347988 -30.175923 -18.218464
Se 2.174946 -28.921316 -14.673544
Se 4.347988 -30.175923 -11.128624
Se 2.174946 -28.921316 -7.583704
Se 4.347988 -30.175923 -4.038784
Se 2.174946 -28.921316 -0.493864
Se 4.347988 -30.175923 3.051056
Se 2.174946 -28.921316 6.595975
Se 4.347988 -30.175923 10.140895
Se 2.174946 -28.921316 13.685815
Se 4.347988 -30.175923 17.230735
Se 2.174946 -28.921316 20.775655
Se 4.347988 -30.175923 24.320575
Se 2.174946 -28.921316 27.865495
Se 4.347988 -30.175923 31.410415
Se 0.001903 -25.157496 -28.853224
Se 2.174946 -26.412102 -25.308304
Se 0.001903 -25.157496 -21.763384
Se 2.174946 -26.412102 -18.218464
Se 0.001903 -25.157496 -14.673544
Se 2.174946 -26.412102 -11.128624
Se 0.001903 -25.157496 -7.583704
Se 2.174946 -26.412102 -4.038784
Se 0.001903 -25.157496 -0.493864
Se 2.174946 -26.412102 3.051056
Se 0.001903 -25.157496 6.595975
Se 2.174946 -26.412102 10.140895
Se 0.001903 -25.157496 13.685815
Se 2.174946 -26.412102 17.230735
Se 0.001903 -25.157496 20.775655
Se 2.174946 -26.412102 24.320575
Se 0.001903 -25.157496 27.865495
Se 2.174946 -26.412102 31.410415
Se -2.171140 -21.393675 -28.853224
Se 0.001903 -22.648282 -25.308304
Se -2.171140 -21.393675 -21.763384
Se 0.001903 -22.648282 -18.218464
Se -2.171140 -21.393675 -14.673544
Se 0.001903 -22.648282 -11.128624
Se -2.171140 -21.393675 -7.583704
Se 0.001903 -22.648282 -4.038784
Se -2.171140 -21.393675 -0.493864
Se 0.001903 -22.648282 3.051056
Se -2.171140 -21.393675 6.595975
Se 0.001903 -22.648282 10.140895
Se -2.171140 -21.393675 13.685815
Se 0.001903 -22.648282 17.230735
Se -2.171140 -21.393675 20.775655
Se 0.001903 -22.648282 24.320575
Se -2.171140 -21.393675 27.865495
Se 0.001903 -22.648282 31.410415
Se -4.344182 -17.629855 -28.853224
Se -2.171140 -18.884462 -25.308304
Se -4.344182 -17.629855 -21.763384
Se -2.171140 -18.884462 -18.218464
Se -4.344182 -17.629855 -14.673544
Se -2.171140 -18.884462 -11.128624
Se -4.344182 -17.629855 -7.583704
Se -2.171140 -18.884462 -4.038784
Se -4.344182 -17.629855 -0.493864
Se -2.171140 -18.884462 3.051056
Se -4.344182 -17.629855 6.595975
Se -2.171140 -18.884462 10.140895
Se -4.344182 -17.629855 13.685815
Se -2.171140 -18.884462 17.230735
Se -4.344182 -17.629855 20.775655
Se -2.171140 -18.884462 24.320575
Se -4.344182 -17.629855 27.865495
Se -2.171140 -18.884462 31.410415
Se -6.517225 -13.866035 -28.853224
Se -4.344182 -15.120641 -25.308304
Se -6.517225 -13.866035 -21.763384
Se -4.344182 -15.120641 -18.218464
Se -6.517225 -13.866035 -14.673544
Se -4.344182 -15.120641 -11.128624
Se -6.517225 -13.866035 -7.583704
Se -4.344182 -15.120641 -4.038784
Se -6.517225 -13.866035 -0.493864
Se -4.344182 -15.120641 3.051056
Se -6.517225 -13.866035 6.595975
Se -4.344182 -15.120641 10.140895
Se -6.517225 -13.866035 13.685815
Se -4.344182 -15.120641 17.230735
Se -6.517225 -13.866035 20.775655
Se -4.344182 -15.120641 24.320575
Se -6.517225 -13.866035 27.865495
Se -4.344182 -15.120641 31.410415
Se -8.690268 -10.102214 -28.853224
Se -6.517225 -11.356821 -25.308304
Se -8.690268 -10.102214 -21.763384
Se -6.517225 -11.356821 -18.218464
Se -8.690268 -10.102214 -14.673544
Se -6.517225 -11.356821 -11.128624
Se -8.690268 -10.102214 -7.583704
Se -6.517225 -11.356821 -4.038784
Se -8.690268 -10.102214 -0.493864
Se -6.517225 -11.356821 3.051056
Se -8.690268 -10.102214 6.595975
Se -6.517225 -11.356821 10.140895
Se -8.690268 -10.102214 13.685815
Se -6.517225 -11.356821 17.230735
Se -8.690268 -10.102214 20.775655
Se -6.517225 -11.356821 24.320575
Se -8.690268 -10.102214 27.865495
Se -6.517225 -11.356821 31.410415
Se -10.863310 -6.338394 -28.853224
Se -8.690268 -7.593001 -25.308304
Se -10.863310 -6.338394 -21.763384
Se -8.690268 -7.593001 -18.218464
Se -10.863310 -6.338394 -14.673544
Se -8.690268 -7.593001 -11.128624
Se -10.863310 -6.338394 -7.583704
Se -8.690268 -7.593001 -4.038784
Se -10.863310 -6.338394 -0.493864
Se -8.690268 -7.593001 3.051056
Se -10.863310 -6.338394 6.595975
Se -8.690268 -7.593001 10.140895
Se -10.863310 -6.338394 13.685815
Se -8.690268 -7.593001 17.230735
Se -10.863310 -6.338394 20.775655
Se -8.690268 -7.593001 24.320575
Se -10.863310 -6.338394 27.865495
Se -8.690268 -7.593001 31.410415
Se -13.036353 -2.574574 -28.853224
Se -10.863310 -3.829180 -25.308304
Se -13.036353 -2.574574 -21.763384
Se -10.863310 -3.829180 -18.218464
Se -13.036353 -2.574574 -14.673544
Se -10.863310 -3.829180 -11.128624
Se -13.036353 -2.574574 -7.583704
Se -10.863310 -3.829180 -4.038784
Se -13.036353 -2.574574 -0.493864
Se -10.863310 -3.829180 3.051056
Se -13.036353 -2.574574 6.595975
Se -10.863310 -3.829180 10.140895
Se -13.036353 -2.574574 13.685815
Se -10.863310 -3.829180 17.230735
Se -13.036353 -2.574574 20.775655
Se -10.863310 -3.829180 24.320575
Se -13.036353 -2.574574 27.865495
Se -10.863310 -3.829180 31.410415
Se -15.209396 1.189247 -28.853224
Se -13.036353 -0.065360 -25.308304
Se -15.209396 1.189247 -21.763384
Se -13.036353 -0.065360 -18.218464
Se -15.209396 1.189247 -14.673544
Se -13.036353 -0.065360 -11.128624
Se -15.209396 1.189247 -7.583704
Se -13.036353 -0.065360 -4.038784
Se -15.209396 1.189247 -0.493864
Se -13.036353 -0.065360 3.051056
Se -15.209396 1.189247 6.595975
Se -13.036353 -0.065360 10.140895
Se -15.209396 1.189247 13.685815
Se -13.036353 -0.065360 17.230735
Se -15.209396 1.189247 20.775655
Se -13.036353 -0.065360 24.320575
Se -15.209396 1.189247 27.865495
Se -13.036353 -0.065360 31.410415
Se -17.382439 4.953067 -28.853224
Se -15.209396 3.698460 -25.308304
Se -17.382439 4.953067 -21.763384
Se -15.209396 3.698460 -18.218464
Se -17.382439 4.953067 -14.673544
Se -15.209396 3.698460 -11.128624
Se -17.382439 4.953067 -7.583704
Se -15.209396 3.698460 -4.038784
Se -17.382439 4.953067 -0.493864
Se -15.209396 3.698460 3.051056
Se -17.382439 4.953067 6.595975
Se -15.209396 3.698460 10.140895
Se -17.382439 4.953067 13.685815
Se -15.209396 3.698460 17.230735
Se -17.382439 4.953067 20.775655
Se -15.209396 3.698460 24.320575
Se -17.382439 4.953067 27.865495
Se -15.209396 3.698460 31.410415
Se -19.555481 8.716887 -28.853224
Se -17.382439 7.462281 -25.308304
Se -19.555481 8.716887 -21.763384
Se -17.382439 7.462281 -18.218464
Se -19.555481 8.716887 -14.673544
Se -17.382439 7.462281 -11.128624
Se -19.555481 8.716887 -7.583704
Se -17.382439 7.462281 -4.038784
Se -19.555481 8.716887 -0.493864
Se -17.382439 7.462281 3.051056
Se -19.555481 8.716887 6.595975
Se -17.382439 7.462281 10.140895
Se -19.555481 8.716887 13.685815
Se -17.382439 7.462281 17.230735
Se -19.555481 8.716887 20.775655
Se -17.382439 7.462281 24.320575
Se -19.555481 8.716887 27.865495
Se -17.382439 7.462281 31.410415
Se -21.728524 12.480708 -28.853224
Se -19.555481 11.226101 -25.308304
Se -21.728524 12.480708 -21.763384
Se -19.555481 11.226101 -18.218464
Se -21.728524 12.480708 -14.673544
Se -19.555481 11.226101 -11.128624
Se -21.728524 12.480708 -7.583704
Se -19.555481 11.226101 -4.038784
Se -21.728524 12.480708 -0.493864
Se -19.555481 11.226101 3.051056
Se -21.728524 12.480708 6.595975
Se -19.555481 11.226101 10.140895
Se -21.728524 12.480708 13.685815
Se -19.555481 11.226101 17.230735
Se -21.728524 12.480708 20.775655
Se -19.555481 11.226101 24.320575
Se -21.728524 12.480708 27.865495
Se -19.555481 11.226101 31.410415
Se -23.901567 16.244528 -28.853224
Se -21.728524 14.989921 -25.308304
Se -23.901567 16.244528 -21.763384
Se -21.728524 14.989921 -18.218464
Se -23.901567 16.244528 -14.673544
Se -21.728524 14.989921 -11.128624
Se -23.901567 16.244528 -7.583704
Se -21.728524 14.989921 -4.038784
Se -23.901567 16.244528 -0.493864
Se -21.728524 14.989921 3.051056
Se -23.901567 16.244528 6.595975
Se -21.728524 14.989921 10.140895
Se -23.901567 16.244528 13.685815
Se -21.728524 14.989921 17.230735
Se -23.901567 16.244528 20.775655
Se -21.728524 14.989921 24.320575
Se -23.901567 16.244528 27.865495
Se -21.728524 14.989921 31.410415
Se -26.074609 20.008349 -28.853224
Se -23.901567 18.753742 -25.308304
Se -26.074609 20.008349 -21.763384
Se -23.901567 18.753742 -18.218464
Se -26.074609 20.008349 -14.673544
Se -23.901567 18.753742 -11.128624
Se -26.074609 20.008349 -7.583704
Se -23.901567 18.753742 -4.038784
Se -26.074609 20.008349 -0.493864
Se -23.901567 18.753742 3.051056
Se -26.074609 20.008349 6.595975
Se -23.901567 18.753742 10.140895
Se -26.074609 20.008349 13.685815
Se -23.901567 18.753742 17.230735
Se -26.074609 20.008349 20.775655
Se -23.901567 18.753742 24.320575
Se -26.074609 20.008349 27.865495
Se -23.901567 18.753742 31.410415
Se -26.074609 22.517562 -25.308304
Se -26.074609 22.517562 -18.218464
Se -26.074609 22.517562 -11.128624
Se -26.074609 22.517562 -4.038784
Se -26.074609 22.517562 3.051056
Se -26.074609 22.517562 10.140895
Se -26.074609 22.517562 17.230735
Se -26.074609 22.517562 24.320575
Se -26.074609 22.517562 31.410415
Se 8.694074 -32.685136 -28.853224
Se 10.867116 -33.939743 -25.308304
Se 8.694074 -32.685136 -21.763384
Se 10.867116 -33.939743 -18.218464
Se 8.694074 -32.685136 -14.673544
Se 10.867116 -33.939743 -11.128624
Se 8.694074 -32.685136 -7.583704
Se 10.867116 -33.939743 -4.038784
Se 8.694074 -32.685136 -0.493864
Se 10.867116 -33.939743 3.051056
Se 8.694074 -32.685136 6.595975
Se 10.867116 -33.939743 10.140895
Se 8.694074 -32.685136 13.685815
Se 10.867116 -33.939743 17.230735
Se 8.694074 -32.685136 20.775655
Se 10.867116 -33.939743 24.320575
Se 8.694074 -32.685136 27.865495
Se 10.867116 -33.939743 31.410415
Se 6.521031 -28.921316 -28.853224
Se 8.694074 -30.175923 -25.308304
Se 6.521031 -28.921316 -21.763384
Se 8.694074 -30.175923 -18.218464
Se 6.521031 -28.921316 -14.673544
Se 8.694074 -30.175923 -11.128624
Se 6.521031 -28.921316 -7.583704
Se 8.694074 -30.175923 -4.038784
Se 6.521031 -28.921316 -0.493864
Se 8.694074 -30.175923 3.051056
Se 6.521031 -28.921316 6.595975
Se 8.694074 -30.175923 10.140895
Se 6.521031 -28.921316 13.685815
Se 8.694074 -30.175923 17.230735
Se 6.521031 -28.921316 20.775655
Se 8.694074 -30.175923 24.320575
Se 6.521031 -28.921316 27.865495
Se 8.694074 -30.175923 31.410415
Se 4.347988 -25.157496 -28.853224
Se 6.521031 -26.412102 -25.308304
Se 4.347988 -25.157496 -21.763384
Se 6.521031 -26.412102 -18.218464
Se 4.347988 -25.157496 -14.673544
Se 6.521031 -26.412102 -11.128624
Se 4.347988 -25.157496 -7.583704
Se 6.521031 -26.412102 -4.038784
Se 4.347988 -25.157496 -0.493864
Se 6.521031 -26.412102 3.051056
Se 4.347988 -25.157496 6.595975
Se 6.521031 -26.412102 10.140895
Se 4.347988 -25.157496 13.685815
Se 6.521031 -26.412102 17.230735
Se 4.347988 -25.157496 20.775655
Se 6.521031 -26.412102 24.320575
Se 4.347988 -25.157496 27.865495
Se 6.521031 -26.412102 31.410415
Se 2.174946 -21.393675 -28.853224
Se 4.347988 -22.648282 -25.308304
Se 2.174946 -21.393675 -21.763384
Se 4.347988 -22.648282 -18.218464
Se 2.174946 -21.393675 -14.673544
Se 4.347988 -22.648282 -11.128624
Se 2.174946 -21.393675 -7.583704
Se 4.347988 -22.648282 -4.038784
Se 2.174946 -21.393675 -0.493864
Se 4.347988 -22.648282 3.051056
Se 2.174946 -21.393675 6.595975
Se 4.347988 -22.648282 10.140895
Se 2.174946 -21.393675 13.685815
Se 4.347988 -22.648282 17.230735
Se 2.174946 -21.393675 20.775655
Se 4.347988 -22.648282 24.320575
Se 2.174946 -21.393675 27.865495
Se 4.347988 -22.648282 31.410415
Se 0.001903 -17.629855 -28.853224
Se 2.174946 -18.884462 -25.308304
Se 0.001903 -17.629855 -21.763384
Se 2.174946 -18.884462 -18.218464
Se 0.001903 -17.629855 -14.673544
Se 2.174946 -18.884462 -11.128624
Se 0.001903 -17.629855 -7.583704
Se 2.174946 -18.884462 -4.038784
Se 0.001903 -17.629855 -0.493864
Se 2.174946 -18.884462 3.051056
Se 0.001903 -17.629855 6.595975
Se 2.174946 -18.884462 10.140895
Se 0.001903 -17.629855 13.685815
Se 2.174946 -18.884462 17.230735
Se 0.001903 -17.629855 20.775655
Se 2.174946 -18.884462 24.320575
Se 0.001903 -17.629855 27.865495
Se 2.174946 -18.884462 31.410415
Se -2.171140 -13.866035 -28.853224
Se 0.001903 -15.120641 -25.308304
Se -2.171140 -13.866035 -21.763384
Se 0.001903 -15.120641 -18.218464
Se -2.171140 -13.866035 -14.673544
Se 0.001903 -15.120641 -11.128624
Se -2.171140 -13.866035 -7.583704
Se 0.001903 -15.120641 -4.038784
Se -2.171140 -13.866035 -0.493864
Se 0.001903 -15.120641 3.051056
Se -2.171140 -13.866035 6.595975
Se 0.001903 -15.120641 10.140895
Se -2.171140 -13.866035 13.685815
Se 0.001903 -15.120641 17.230735
Se -2.171140 -13.866035 20.775655
Se 0.001903 -15.120641 24.320575
Se -2.171140 -13.866035 27.865495
Se 0.001903 -15.120641 31.410415
Se -4.344182 -10.102214 -28.853224
Se -2.171140 -11.356821 -25.308304
Se -4.344182 -10.102214 -21.763384
Se -2.171140 -11.356821 -18.218464
Se -4.344182 -10.102214 -14.673544
Se -2.171140 -11.356821 -11.128624
Se -4.344182 -10.102214 -7.583704
Se -2.171140 -11.356821 -4.038784
Se -4.344182 -10.102214 -0.493864
Se -2.171140 -11.356821 3.051056
Se -4.344182 -10.102214 6.595975
Se -2.171140 -11.356821 10.140895
Se -4.344182 -10.102214 13.685815
Se -2.171140 -11.356821 17.230735
Se -4.344182 -10.102214 20.775655
Se -2.171140 -11.356821 24.320575
Se -4.344182 -10.102214 27.865495
Se -2.171140 -11.356821 31.410415
Se -6.517225 -6.338394 -28.853224
Se -4.344182 -7.593001 -25.308304
Se -6.517225 -6.338394 -21.763384
Se -4.344182 -7.593001 -18.218464
Se -6.517225 -6.338394 -14.673544
Se -4.344182 -7.593001 -11.128624
Se -6.517225 -6.338394 -7.583704
Se -4.344182 -7.593001 -4.038784
Se -6.517225 -6.338394 -0.493864
Se -4.344182 -7.593001 3.051056
Se -6.517225 -6.338394 6.595975
Se -4.344182 -7.593001 10.140895
Se -6.517225 -6.338394 13.685815
Se -4.344182 -7.593001 17.230735
Se -6.517225 -6.338394 20.775655
Se -4.344182 -7.593001 24.320575
Se -6.517225 -6.338394 27.865495
Se -4.344182 -7.593001 31.410415
Se -8.690268 -2.574574 -28.853224
Se -6.517225 -3.829180 -25.308304
Se -8.690268 -2.574574 -21.763384
Se -6.517225 -3.829180 -18.218464
Se -8.690268 -2.574574 -14.673544
Se -6.517225 -3.829180 -11.128624
Se -8.690268 -2.574574 -7.583704
Se -6.517225 -3.829180 -4.038784
Se -8.690268 -2.574574 -0.493864
Se -6.517225 -3.829180 3.051056
Se -8.690268 -2.574574 6.595975
Se -6.517225 -3.829180 10.140895
Se -8.690268 -2.574574 13.685815
Se -6.517225 -3.829180 17.230735
Se -8.690268 -2.574574 20.775655
Se -6.517225 -3.829180 24.320575
Se -8.690268 -2.574574 27.865495
Se -6.517225 -3.829180 31.410415
Se -10.863310 1.189247 -28.853224
Se -8.690268 -0.065360 -25.308304
Se -10.863310 1.189247 -21.763384
Se -8.690268 -0.065360 -18.218464
Se -10.863310 1.189247 -14.673544
Se -8.690268 -0.065360 -11.128624
Se -10.863310 1.189247 -7.583704
Se -8.690268 -0.065360 -4.038784
Se -10.863310 1.189247 -0.493864
Se -8.690268 -0.065360 3.051056
Se -10.863310 1.189247 6.595975
Se -8.690268 -0.065360 10.140895
Se -10.863310 1.189247 13.685815
Se -8.690268 -0.065360 17.230735
Se -10.863310 1.189247 20.775655
Se -8.690268 -0.065360 24.320575
Se -10.863310 1.189247 27.865495
Se -8.690268 -0.065360 31.410415
Se -13.036353 4.953067 -28.853224
Se -10.863310 3.698460 -25.308304
Se -13.036353 4.953067 -21.763384
Se -10.863310 3.698460 -18.218464
Se -13.036353 4.953067 -14.673544
Se -10.863310 3.698460 -11.128624
Se -13.036353 4.953067 -7.583704
Se -10.863310 3.698460 -4.038784
Se -13.036353 4.953067 -0.493864
Se -10.863310 3.698460 3.051056
Se -13.036353 4.953067 6.595975
Se -10.863310 3.698460 10.140895
Se -13.036353 4.953067 13.685815
Se -10.863310 3.698460 17.230735
Se -13.036353 4.953067 20.775655
Se -10.863310 3.698460 24.320575
Se -13.036353 4.953067 27.865495
Se -10.863310 3.698460 31.410415
Se -15.209396 8.716887 -28.853224
Se -13.036353 7.462281 -25.308304
Se -15.209396 8.716887 -21.763384
Se -13.036353 7.462281 -18.218464
Se -15.209396 8.716887 -14.673544
Se -13.036353 7.462281 -11.128624
Se -15.209396 8.716887 -7.583704
Se -13.036353 7.462281 -4.038784
Se -15.209396 8.716887 -0.493864
Se -13.036353 7.462281 3.051056
Se -15.209396 8.716887 6.595975
Se -13.036353 7.462281 10.140895
Se -15.209396 8.716887 13.685815
Se -13.036353 7.462281 17.230735
Se -15.209396 8.716887 20.775655
Se -13.036353 7.462281 24.320575
Se -15.209396 8.716887 27.865495
Se -13.036353 7.462281 31.410415
Se -17.382439 12.480708 -28.853224
Se -15.209396 11.226101 -25.308304
Se -17.382439 12.480708 -21.763384
Se -15.209396 11.226101 -18.218464
Se -17.382439 12.480708 -14.673544
Se -15.209396 11.226101 -11.128624
Se -17.382439 12.480708 -7.583704
Se -15.209396 11.226101 -4.038784
Se -17.382439 12.480708 -0.493864
Se -15.209396 11.226101 3.051056
Se -17.382439 12.480708 6.595975
Se -15.209396 11.226101 10.140895
Se -17.382439 12.480708 13.685815
Se -15.209396 11.226101 17.230735
Se -17.382439 12.480708 20.775655
Se -15.209396 11.226101 24.320575
Se -17.382439 12.480708 27.865495
Se -15.209396 11.226101 31.410415
Se -19.555481 16.244528 -28.853224
Se -17.382439 14.989921 -25.308304
Se -19.555481 16.244528 -21.763384
Se -17.382439 14.989921 -18.218464
Se -19.555481 16.244528 -14.673544
Se -17.382439 14.989921 -11.128624
Se -19.555481 16.244528 -7.583704
Se -17.382439 14.989921 -4.038784
Se -19.555481 16.244528 -0.493864
Se -17.382439 14.989921 3.051056
Se -19.555481 16.244528 6.595975
Se -17.382439 14.989921 10.140895
Se -19.555481 16.244528 13.685815
Se -17.382439 14.989921 17.230735
Se -19.555481 16.244528 20.775655
Se -17.382439 14.989921 24.320575
Se -19.555481 16.244528 27.865495
Se -17.382439 14.989921 31.410415
Se -21.728524 20.008349 -28.853224
Se -19.555481 18.753742 -25.308304
Se -21.728524 20.008349 -21.763384
Se -19.555481 18.753742 -18.218464
Se -21.728524 20.008349 -14.673544
Se -19.555481 18.753742 -11.128624
Se -21.728524 20.008349 -7.583704
Se -19.555481 18.753742 -4.038784
Se -21.728524 20.008349 -0.493864
Se -19.555481 18.753742 3.051056
Se -21.728524 20.008349 6.595975
Se -19.555481 18.753742 10.140895
Se -21.728524 20.008349 13.685815
Se -19.555481 18.753742 17.230735
Se -21.728524 20.008349 20.775655
Se -19.555481 18.753742 24.320575
Se -21.728524 20.008349 27.865495
Se -19.555481 18.753742 31.410415
Se -23.901567 23.772169 -28.853224
Se -21.728524 22.517562 -25.308304
Se -23.901567 23.772169 -21.763384
Se -21.728524 22.517562 -18.218464
Se -23.901567 23.772169 -14.673544
Se -21.728524 22.517562 -11.128624
Se -23.901567 23.772169 -7.583704
Se -21.728524 22.517562 -4.038784
Se -23.901567 23.772169 -0.493864
Se -21.728524 22.517562 3.051056
Se -23.901567 23.772169 6.595975
Se -21.728524 22.517562 10.140895
Se -23.901567 23.772169 13.685815
Se -21.728524 22.517562 17.230735
Se -23.901567 23.772169 20.775655
Se -21.728524 22.517562 24.320575
Se -23.901567 23.772169 27.865495
Se -21.728524 22.517562 31.410415
Se -23.901567 26.281382 -25.308304
Se -23.901567 26.281382 -18.218464
Se -23.901567 26.281382 -11.128624
Se -23.901567 26.281382 -4.038784
Se -23.901567 26.281382 3.051056
Se -23.901567 26.281382 10.140895
Se -23.901567 26.281382 17.230735
Se -23.901567 26.281382 24.320575
Se -23.901567 26.281382 31.410415
Se 13.040159 -32.685136 -28.853224
Se 15.213202 -33.939743 -25.308304
Se 13.040159 -32.685136 -21.763384
Se 15.213202 -33.939743 -18.218464
Se 13.040159 -32.685136 -14.673544
Se 15.213202 -33.939743 -11.128624
Se 13.040159 -32.685136 -7.583704
Se 15.213202 -33.939743 -4.038784
Se 13.040159 -32.685136 -0.493864
Se 15.213202 -33.939743 3.051056
Se 13.040159 -32.685136 6.595975
Se 15.213202 -33.939743 10.140895
Se 13.040159 -32.685136 13.685815
Se 15.213202 -33.939743 17.230735
Se 13.040159 -32.685136 20.775655
Se 15.213202 -33.939743 24.320575
Se 13.040159 -32.685136 27.865495
Se 10.867116 -28.921316 -28.853224
Se 13.040159 -30.175923 -25.308304
Se 10.867116 -28.921316 -21.763384
Se 13.040159 -30.175923 -18.218464
Se 10.867116 -28.921316 -14.673544
Se 13.040159 -30.175923 -11.128624
Se 10.867116 -28.921316 -7.583704
Se 13.040159 -30.175923 -4.038784
Se 10.867116 -28.921316 -0.493864
Se 13.040159 -30.175923 3.051056
Se 10.867116 -28.921316 6.595975
Se 13.040159 -30.175923 10.140895
Se 10.867116 -28.921316 13.685815
Se 13.040159 -30.175923 17.230735
Se 10.867116 -28.921316 20.775655
Se 13.040159 -30.175923 24.320575
Se 10.867116 -28.921316 27.865495
Se 13.040159 -30.175923 31.410415
Se 8.694074 -25.157496 -28.853224
Se 10.867116 -26.412102 -25.308304
Se 8.694074 -25.157496 -21.763384
Se 10.867116 -26.412102 -18.218464
Se 8.694074 -25.157496 -14.673544
Se 10.867116 -26.412102 -11.128624
Se 8.694074 -25.157496 -7.583704
Se 10.867116 -26.412102 -4.038784
Se 8.694074 -25.157496 -0.493864
Se 10.867116 -26.412102 3.051056
Se 8.694074 -25.157496 6.595975
Se 10.867116 -26.412102 10.140895
Se 8.694074 -25.157496 13.685815
Se 10.867116 -26.412102 17.230735
Se 8.694074 -25.157496 20.775655
Se 10.867116 -26.412102 24.320575
Se 8.694074 -25.157496 27.865495
Se 10.867116 -26.412102 31.410415
Se 6.521031 -21.393675 -28.853224
Se 8.694074 -22.648282 -25.308304
Se 6.521031 -21.393675 -21.763384
Se 8.694074 -22.648282 -18.218464
Se 6.521031 -21.393675 -14.673544
Se 8.694074 -22.648282 -11.128624
Se 6.521031 -21.393675 -7.583704
Se 8.694074 -22.648282 -4.038784
Se 6.521031 -21.393675 -0.493864
Se 8.694074 -22.648282 3.051056
Se 6.521031 -21.393675 6.595975
Se 8.694074 -22.648282 10.140895
Se 6.521031 -21.393675 13.685815
Se 8.694074 -22.648282 17.230735
Se 6.521031 -21.393675 20.775655
Se 8.694074 -22.648282 24.320575
Se 6.521031 -21.393675 27.865495
Se 8.694074 -22.648282 31.410415
Se 4.347988 -17.629855 -28.853224
Se 6.521031 -18.884462 -25.308304
Se 4.347988 -17.629855 -21.763384
Se 6.521031 -18.884462 -18.218464
Se 4.347988 -17.629855 -14.673544
Se 6.521031 -18.884462 -11.128624
Se 4.347988 -17.629855 -7.583704
Se 6.521031 -18.884462 -4.038784
Se 4.347988 -17.629855 -0.493864
Se 6.521031 -18.884462 3.051056
Se 4.347988 -17.629855 6.595975
Se 6.521031 -18.884462 10.140895
Se 4.347988 -17.629855 13.685815
Se 6.521031 -18.884462 17.230735
Se 4.347988 -17.629855 20.775655
Se 6.521031 -18.884462 24.320575
Se 4.347988 -17.629855 27.865495
Se 6.521031 -18.884462 31.410415
Se 2.174946 -13.866035 -28.853224
Se 4.347988 -15.120641 -25.308304
Se 2.174946 -13.866035 -21.763384
Se 4.347988 -15.120641 -18.218464
Se 2.174946 -13.866035 -14.673544
Se 4.347988 -15.120641 -11.128624
Se 2.174946 -13.866035 -7.583704
Se 4.347988 -15.120641 -4.038784
Se 2.174946 -13.866035 -0.493864
Se 4.347988 -15.120641 3.051056
Se 2.174946 -13.866035 6.595975
Se 4.347988 -15.120641 10.140895
Se 2.174946 -13.866035 13.685815
Se 4.347988 -15.120641 17.230735
Se 2.174946 -13.866035 20.775655
Se 4.347988 -15.120641 24.320575
Se 2.174946 -13.866035 27.865495
Se 4.347988 -15.120641 31.410415
Se 0.001903 -10.102214 -28.853224
Se 2.174946 -11.356821 -25.308304
Se 0.001903 -10.102214 -21.763384
Se 2.174946 -11.356821 -18.218464
Se 0.001903 -10.102214 -14.673544
Se 2.174946 -11.356821 -11.128624
Se 0.001903 -10.102214 -7.583704
Se 2.174946 -11.356821 -4.038784
Se 0.001903 -10.102214 -0.493864
Se 2.174946 -11.356821 3.051056
Se 0.001903 -10.102214 6.595975
Se 2.174946 -11.356821 10.140895
Se 0.001903 -10.102214 13.685815
Se 2.174946 -11.356821 17.230735
Se 0.001903 -10.102214 20.775655
Se 2.174946 -11.356821 24.320575
Se 0.001903 -10.102214 27.865495
Se 2.174946 -11.356821 31.410415
Se -2.171140 -6.338394 -28.853224
Se 0.001903 -7.593001 -25.308304
Se -2.171140 -6.338394 -21.763384
Se 0.001903 -7.593001 -18.218464
Se -2.171140 -6.338394 -14.673544
Se 0.001903 -7.593001 -11.128624
Se -2.171140 -6.338394 -7.583704
Se 0.001903 -7.593001 -4.038784
Se -2.171140 -6.338394 -0.493864
Se 0.001903 -7.593001 3.051056
Se -2.171140 -6.338394 6.595975
Se 0.001903 -7.593001 10.140895
Se -2.171140 -6.338394 13.685815
Se 0.001903 -7.593001 17.230735
Se -2.171140 -6.338394 20.775655
Se 0.001903 -7.593001 24.320575
Se -2.171140 -6.338394 27.865495
Se 0.001903 -7.593001 31.410415
Se -4.344182 -2.574574 -28.853224
Se -2.171140 -3.829180 -25.308304
Se -4.344182 -2.574574 -21.763384
Se -2.171140 -3.829180 -18.218464
Se -4.344182 -2.574574 -14.673544
Se -2.171140 -3.829180 -11.128624
Se -4.344182 -2.574574 -7.583704
Se -2.171140 -3.829180 -4.038784
Se -4.344182 -2.574574 -0.493864
Se -2.171140 -3.829180 3.051056
Se -4.344182 -2.574574 6.595975
Se -2.171140 -3.829180 10.140895
Se -4.344182 -2.574574 13.685815
Se -2.171140 -3.829180 17.230735
Se -4.344182 -2.574574 20.775655
Se -2.171140 -3.829180 24.320575
Se -4.344182 -2.574574 27.865495
Se -2.171140 -3.829180 31.410415
Se -6.517225 1.189247 -28.853224
Se -4.344182 -0.065360 -25.308304
Se -6.517225 1.189247 -21.763384
Se -4.344182 -0.065360 -18.218464
Se -6.517225 1.189247 -14.673544
Se -4.344182 -0.065360 -11.128624
Se -6.517225 1.189247 -7.583704
Se -4.344182 -0.065360 -4.038784
Se -6.517225 1.189247 -0.493864
Se -4.344182 -0.065360 3.051056
Se -6.517225 1.189247 6.595975
Se -4.344182 -0.065360 10.140895
Se -6.517225 1.189247 13.685815
Se -4.344182 -0.065360 17.230735
Se -6.517225 1.189247 20.775655
Se -4.344182 -0.065360 24.320575
Se -6.517225 1.189247 27.865495
Se -4.344182 -0.065360 31.410415
Se -8.690268 4.953067 -28.853224
Se -6.517225 3.698460 -25.308304
Se -8.690268 4.953067 -21.763384
Se -6.517225 3.698460 -18.218464
Se -8.690268 4.953067 -14.673544
Se -6.517225 3.698460 -11.128624
Se -8.690268 4.953067 -7.583704
Se -6.517225 3.698460 -4.038784
Se -8.690268 4.953067 -0.493864
Se -6.517225 3.698460 3.051056
Se -8.690268 4.953067 6.595975
Se -6.517225 3.698460 10.140895
Se -8.690268 4.953067 13.685815
Se -6.517225 3.698460 17.230735
Se -8.690268 4.953067 20.775655
Se -6.517225 3.698460 24.320575
Se -8.690268 4.953067 27.865495
Se -6.517225 3.698460 31.410415
Se -10.863310 8.716887 -28.853224
Se -8.690268 7.462281 -25.308304
Se -10.863310 8.716887 -21.763384
Se -8.690268 7.462281 -18.218464
Se -10.863310 8.716887 -14.673544
Se -8.690268 7.462281 -11.128624
Se -10.863310 8.716887 -7.583704
Se -8.690268 7.462281 -4.038784
Se -10.863310 8.716887 -0.493864
Se -8.690268 7.462281 3.051056
Se -10.863310 8.716887 6.595975
Se -8.690268 7.462281 10.140895
Se -10.863310 8.716887 13.685815
Se -8.690268 7.462281 17.230735
Se -10.863310 8.716887 20.775655
Se -8.690268 7.462281 24.320575
Se -10.863310 8.716887 27.865495
Se -8.690268 7.462281 31.410415
Se -13.036353 12.480708 -28.853224
Se -10.863310 11.226101 -25.308304
Se -13.036353 12.480708 -21.763384
Se -10.863310 11.226101 -18.218464
Se -13.036353 12.480708 -14.673544
Se -10.863310 11.226101 -11.128624
Se -13.036353 12.480708 -7.583704
Se -10.863310 11.226101 -4.038784
Se -13.036353 12.480708 -0.493864
Se -10.863310 11.226101 3.051056
Se -13.036353 12.480708 6.595975
Se -10.863310 11.226101 10.140895
Se -13.036353 12.480708 13.685815
Se -10.863310 11.226101 17.230735
Se -13.036353 12.480708 20.775655
Se -10.863310 11.226101 24.320575
Se -13.036353 12.480708 27.865495
Se -10.863310 11.226101 31.410415
Se -15.209396 16.244528 -28.853224
Se -13.036353 14.989921 -25.308304
Se -15.209396 16.244528 -21.763384
Se -13.036353 14.989921 -18.218464
Se -15.209396 16.244528 -14.673544
Se -13.036353 14.989921 -11.128624
Se -15.209396 16.244528 -7.583704
Se -13.036353 14.989921 -4.038784
Se -15.209396 16.244528 -0.493864
Se -13.036353 14.989921 3.051056
Se -15.209396 16.244528 6.595975
Se -13.036353 14.989921 10.140895
Se -15.209396 16.244528 13.685815
Se -13.036353 14.989921 17.230735
Se -15.209396 16.244528 20.775655
Se -13.036353 14.989921 24.320575
Se -15.209396 16.244528 27.865495
Se -13.036353 14.989921 31.410415
Se -17.382439 20.008349 -28.853224
Se -15.209396 18.753742 -25.308304
Se -17.382439 20.008349 -21.763384
Se -15.209396 18.753742 -18.218464
Se -17.382439 20.008349 -14.673544
Se -15.209396 18.753742 -11.128624
Se -17.382439 20.008349 -7.583704
Se -15.209396 18.753742 -4.038784
Se -17.382439 20.008349 -0.493864
Se -15.209396 18.753742 3.051056
Se -17.382439 20.008349 6.595975
Se -15.209396 18.753742 10.140895
Se -17.382439 20.008349 13.685815
Se -15.209396 18.753742 17.230735
Se -17.382439 20.008349 20.775655
Se -15.209396 18.753742 24.320575
Se -17.382439 20.008349 27.865495
Se -15.209396 18.753742 31.410415
Se -19.555481 23.772169 -28.853224
Se -17.382439 22.517562 -25.308304
Se -19.555481 23.772169 -21.763384
Se -17.382439 22.517562 -18.218464
Se -19.555481 23.772169 -14.673544
Se -17.382439 22.517562 -11.128624
Se -19.555481 23.772169 -7.583704
Se -17.382439 22.517562 -4.038784
Se -19.555481 23.772169 -0.493864
Se -17.382439 22.517562 3.051056
Se -19.555481 23.772169 6.595975
Se -17.382439 22.517562 10.140895
Se -19.555481 23.772169 13.685815
Se -17.382439 22.517562 17.230735
Se -19.555481 23.772169 20.775655
Se -17.382439 22.517562 24.320575
Se -19.555481 23.772169 27.865495
Se -17.382439 22.517562 31.410415
Se -19.555481 26.281382 -32.398144
Se -21.728524 27.535989 -28.853224
Se -19.555481 26.281382 -25.308304
Se -21.728524 27.535989 -21.763384
Se -19.555481 26.281382 -18.218464
Se -21.728524 27.535989 -14.673544
Se -19.555481 26.281382 -11.128624
Se -21.728524 27.535989 -7.583704
Se -19.555481 26.281382 -4.038784
Se -21.728524 27.535989 -0.493864
Se -19.555481 26.281382 3.051056
Se -21.728524 27.535989 6.595975
Se -19.555481 26.281382 10.140895
Se -21.728524 27.535989 13.685815
Se -19.555481 26.281382 17.230735
Se -21.728524 27.535989 20.775655
Se -19.555481 26.281382 24.320575
Se -21.728524 27.535989 27.865495
Se -19.555481 26.281382 31.410415
Se -21.728524 30.045203 -25.308304
Se -21.728524 30.045203 -18.218464
Se -21.728524 30.045203 -11.128624
Se -21.728524 30.045203 -4.038784
Se -21.728524 30.045203 3.051056
Se -21.728524 30.045203 10.140895
Se -21.728524 30.045203 17.230735
Se -21.728524 30.045203 24.320575
Se -21.728524 30.045203 31.410415
Se 17.386245 -32.685136 -28.853224
Se 17.386245 -32.685136 -21.763384
Se 17.386245 -32.685136 -14.673544
Se 17.386245 -32.685136 -7.583704
Se 17.386245 -32.685136 -0.493864
Se 17.386245 -32.685136 6.595975
Se 17.386245 -32.685136 13.685815
Se 17.386245 -32.685136 20.775655
Se 17.386245 -32.685136 27.865495
Se 15.213202 -28.921316 -28.853224
Se 17.386245 -30.175923 -25.308304
Se 15.213202 -28.921316 -21.763384
Se 17.386245 -30.175923 -18.218464
Se 15.213202 -28.921316 -14.673544
Se 17.386245 -30.175923 -11.128624
Se 15.213202 -28.921316 -7.583704
Se 17.386245 -30.175923 -4.038784
Se 15.213202 -28.921316 -0.493864
Se 17.386245 -30.175923 3.051056
Se 15.213202 -28.921316 6.595975
Se 17.386245 -30.175923 10.140895
Se 15.213202 -28.921316 13.685815
Se 17.386245 -30.175923 17.230735
Se 15.213202 -28.921316 20.775655
Se 17.386245 -30.175923 24.320575
Se 15.213202 -28.921316 27.865495
Se 13.040159 -25.157496 -28.853224
Se 15.213202 -26.412102 -25.308304
Se 13.040159 -25.157496 -21.763384
Se 15.213202 -26.412102 -18.218464
Se 13.040159 -25.157496 -14.673544
Se 15.213202 -26.412102 -11.128624
Se 13.040159 -25.157496 -7.583704
Se 15.213202 -26.412102 -4.038784
Se 13.040159 -25.157496 -0.493864
Se 15.213202 -26.412102 3.051056
Se 13.040159 -25.157496 6.595975
Se 15.213202 -26.412102 10.140895
Se 13.040159 -25.157496 13.685815
Se 15.213202 -26.412102 17.230735
Se 13.040159 -25.157496 20.775655
Se 15.213202 -26.412102 24.320575
Se 13.040159 -25.157496 27.865495
Se 15.213202 -26.412102 31.410415
Se 10.867116 -21.393675 -28.853224
Se 13.040159 -22.648282 -25.308304
Se 10.867116 -21.393675 -21.763384
Se 13.040159 -22.648282 -18.218464
Se 10.867116 -21.393675 -14.673544
Se 13.040159 -22.648282 -11.128624
Se 10.867116 -21.393675 -7.583704
Se 13.040159 -22.648282 -4.038784
Se 10.867116 -21.393675 -0.493864
Se 13.040159 -22.648282 3.051056
Se 10.867116 -21.393675 6.595975
Se 13.040159 -22.648282 10.140895
Se 10.867116 -21.393675 13.685815
Se 13.040159 -22.648282 17.230735
Se 10.867116 -21.393675 20.775655
Se 13.040159 -22.648282 24.320575
Se 10.867116 -21.393675 27.865495
Se 13.040159 -22.648282 31.410415
Se 8.694074 -17.629855 -28.853224
Se 10.867116 -18.884462 -25.308304
Se 8.694074 -17.629855 -21.763384
Se 10.867116 -18.884462 -18.218464
Se 8.694074 -17.629855 -14.673544
Se 10.867116 -18.884462 -11.128624
Se 8.694074 -17.629855 -7.583704
Se 10.867116 -18.884462 -4.038784
Se 8.694074 -17.629855 -0.493864
Se 10.867116 -18.884462 3.051056
Se 8.694074 -17.629855 6.595975
Se 10.867116 -18.884462 10.140895
Se 8.694074 -17.629855 13.685815
Se 10.867116 -18.884462 17.230735
Se 8.694074 -17.629855 20.775655
Se 10.867116 -18.884462 24.320575
Se 8.694074 -17.629855 27.865495
Se 10.867116 -18.884462 31.410415
Se 6.521031 -13.866035 -28.853224
Se 8.694074 -15.120641 -25.308304
Se 6.521031 -13.866035 -21.763384
Se 8.694074 -15.120641 -18.218464
Se 6.521031 -13.866035 -14.673544
Se 8.694074 -15.120641 -11.128624
Se 6.521031 -13.866035 -7.583704
Se 8.694074 -15.120641 -4.038784
Se 6.521031 -13.866035 -0.493864
Se 8.694074 -15.120641 3.051056
Se 6.521031 -13.866035 6.595975
Se 8.694074 -15.120641 10.140895
Se 6.521031 -13.866035 13.685815
Se 8.694074 -15.120641 17.230735
Se 6.521031 -13.866035 20.775655
Se 8.694074 -15.120641 24.320575
Se 6.521031 -13.866035 27.865495
Se 8.694074 -15.120641 31.410415
Se 4.347988 -10.102214 -28.853224
Se 6.521031 -11.356821 -25.308304
Se 4.347988 -10.102214 -21.763384
Se 6.521031 -11.356821 -18.218464
Se 4.347988 -10.102214 -14.673544
Se 6.521031 -11.356821 -11.128624
Se 4.347988 -10.102214 -7.583704
Se 6.521031 -11.356821 -4.038784
Se 4.347988 -10.102214 -0.493864
Se 6.521031 -11.356821 3.051056
Se 4.347988 -10.102214 6.595975
Se 6.521031 -11.356821 10.140895
Se 4.347988 -10.102214 13.685815
Se 6.521031 -11.356821 17.230735
Se 4.347988 -10.102214 20.775655
Se 6.521031 -11.356821 24.320575
Se 4.347988 -10.102214 27.865495
Se 6.521031 -11.356821 31.410415
Se 2.174946 -6.338394 -28.853224
Se 4.347988 -7.593001 -25.308304
Se 2.174946 -6.338394 -21.763384
Se 4.347988 -7.593001 -18.218464
Se 2.174946 -6.338394 -14.673544
Se 4.347988 -7.593001 -11.128624
Se 2.174946 -6.338394 -7.583704
Se 4.347988 -7.593001 -4.038784
Se 2.174946 -6.338394 -0.493864
Se 4.347988 -7.593001 3.051056
Se 2.174946 -6.338394 6.595975
Se 4.347988 -7.593001 10.140895
Se 2.174946 -6.338394 13.685815
Se 4.347988 -7.593001 17.230735
Se 2.174946 -6.338394 20.775655
Se 4.347988 -7.593001 24.320575
Se 2.174946 -6.338394 27.865495
Se 4.347988 -7.593001 31.410415
Se 0.001903 -2.574574 -28.853224
Se 2.174946 -3.829180 -25.308304
Se 0.001903 -2.574574 -21.763384
Se 2.174946 -3.829180 -18.218464
Se 0.001903 -2.574574 -14.673544
Se 2.174946 -3.829180 -11.128624
Se 0.001903 -2.574574 -7.583704
Se 2.174946 -3.829180 -4.038784
Se 0.001903 -2.574574 -0.493864
Se 2.174946 -3.829180 3.051056
Se 0.001903 -2.574574 6.595975
Se 2.174946 -3.829180 10.140895
Se 0.001903 -2.574574 13.685815
Se 2.174946 -3.829180 17.230735
Se 0.001903 -2.574574 20.775655
Se 2.174946 -3.829180 24.320575
Se 0.001903 -2.574574 27.865495
Se 2.174946 -3.829180 31.410415
Se -2.171140 1.189247 -28.853224
Se 0.001903 -0.065360 -25.308304
Se -2.171140 1.189247 -21.763384
Se 0.001903 -0.065360 -18.218464
Se -2.171140 1.189247 -14.673544
Se 0.001903 -0.065360 -11.128624
Se -2.171140 1.189247 -7.583704
Se 0.001903 -0.065360 -4.038784
Se -2.171140 1.189247 -0.493864
Se 0.001903 -0.065360 3.051056
Se -2.171140 1.189247 6.595975
Se 0.001903 -0.065360 10.140895
Se -2.171140 1.189247 13.685815
Se 0.001903 -0.065360 17.230735
Se -2.171140 1.189247 20.775655
Se 0.001903 -0.065360 24.320575
Se -2.171140 1.189247 27.865495
Se 0.001903 -0.065360 31.410415
Se -4.344182 4.953067 -28.853224
Se -2.171140 3.698460 -25.308304
Se -4.344182 4.953067 -21.763384
Se -2.171140 3.698460 -18.218464
Se -4.344182 4.953067 -14.673544
Se -2.171140 3.698460 -11.128624
Se -4.344182 4.953067 -7.583704
Se -2.171140 3.698460 -4.038784
Se -4.344182 4.953067 -0.493864
Se -2.171140 3.698460 3.051056
Se -4.344182 4.953067 6.595975
Se -2.171140 3.698460 10.140895
Se -4.344182 4.953067 13.685815
Se -2.171140 3.698460 17.230735
Se -4.344182 4.953067 20.775655
Se -2.171140 3.698460 24.320575
Se -4.344182 4.953067 27.865495
Se -2.171140 3.698460 31.410415
Se -6.517225 8.716887 -28.853224
Se -4.344182 7.462281 -25.308304
Se -6.517225 8.716887 -21.763384
Se -4.344182 7.462281 -18.218464
Se -6.517225 8.716887 -14.673544
Se -4.344182 7.462281 -11.128624
Se -6.517225 8.716887 -7.583704
Se -4.344182 7.462281 -4.038784
Se -6.517225 8.716887 -0.493864
Se -4.344182 7.462281 3.051056
Se -6.517225 8.716887 6.595975
Se -4.344182 7.462281 10.140895
Se -6.517225 8.716887 13.685815
Se -4.344182 7.462281 17.230735
Se -6.517225 8.716887 20.775655
Se -4.344182 7.462281 24.320575
Se -6.517225 8.716887 27.865495
Se -4.344182 7.462281 31.410415
Se -8.690268 12.480708 -28.853224
Se -6.517225 11.226101 -25.308304
Se -8.690268 12.480708 -21.763384
Se -6.517225 11.226101 -18.218464
Se -8.690268 12.480708 -14.673544
Se -6.517225 11.226101 -11.128624
Se -8.690268 12.480708 -7.583704
Se -6.517225 11.226101 -4.038784
Se -8.690268 12.480708 -0.493864
Se -6.517225 11.226101 3.051056
Se -8.690268 12.480708 6.595975
Se -6.517225 11.226101 10.140895
Se -8.690268 12.480708 13.685815
Se -6.517225 11.226101 17.230735
Se -8.690268 12.480708 20.775655
Se -6.517225 11.226101 24.320575
Se -8.690268 12.480708 27.865495
Se -6.517225 11.226101 31.410415
Se -10.863310 16.244528 -28.853224
Se -8.690268 14.989921 -25.308304
Se -10.863310 16.244528 -21.763384
Se -8.690268 14.989921 -18.218464
Se -10.863310 16.244528 -14.673544
Se -8.690268 14.989921 -11.128624
Se -10.863310 16.244528 -7.583704
Se -8.690268 14.989921 -4.038784
Se -10.863310 16.244528 -0.493864
Se -8.690268 14.989921 3.051056
Se -10.863310 16.244528 6.595975
Se -8.690268 14.989921 10.140895
Se -10.863310 16.244528 13.685815
Se -8.690268 14.989921 17.230735
Se -10.863310 16.244528 20.775655
Se -8.690268 14.989921 24.320575
Se -10.863310 16.244528 27.865495
Se -8.690268 14.989921 31.410415
Se -13.036353 20.008349 -28.853224
Se -10.863310 18.753742 -25.308304
Se -13.036353 20.008349 -21.763384
Se -10.863310 18.753742 -18.218464
Se -13.036353 20.008349 -14.673544
Se -10.863310 18.753742 -11.128624
Se -13.036353 20.008349 -7.583704
Se -10.863310 18.753742 -4.038784
Se -13.036353 20.008349 -0.493864
Se -10.863310 18.753742 3.051056
Se -13.036353 20.008349 6.595975
Se -10.863310 18.753742 10.140895
Se -13.036353 20.008349 13.685815
Se -10.863310 18.753742 17.230735
Se -13.036353 20.008349 20.775655
Se -10.863310 18.753742 24.320575
Se -13.036353 20.008349 27.865495
Se -10.863310 18.753742 31.410415
Se -15.209396 23.772169 -28.853224
Se -13.036353 22.517562 -25.308304
Se -15.209396 23.772169 -21.763384
Se -13.036353 22.517562 -18.218464
Se -15.209396 23.772169 -14.673544
Se -13.036353 22.517562 -11.128624
Se -15.209396 23.772169 -7.583704
Se -13.036353 22.517562 -4.038784
Se -15.209396 23.772169 -0.493864
Se -13.036353 22.517562 3.051056
Se -15.209396 23.772169 6.595975
Se -13.036353 22.517562 10.140895
Se -15.209396 23.772169 13.685815
Se -13.036353 22.517562 17.230735
Se -15.209396 23.772169 20.775655
Se -13.036353 22.517562 24.320575
Se -15.209396 23.772169 27.865495
Se -13.036353 22.517562 31.410415
Se -17.382439 27.535989 -28.853224
Se -15.209396 26.281382 -25.308304
Se -17.382439 27.535989 -21.763384
Se -15.209396 26.281382 -18.218464
Se -17.382439 27.535989 -14.673544
Se -15.209396 26.281382 -11.128624
Se -17.382439 27.535989 -7.583704
Se -15.209396 26.281382 -4.038784
Se -17.382439 27.535989 -0.493864
Se -15.209396 26.281382 3.051056
Se -17.382439 27.535989 6.595975
Se -15.209396 26.281382 10.140895
Se -17.382439 27.535989 13.685815
Se -15.209396 26.281382 17.230735
Se -17.382439 27.535989 20.775655
Se -15.209396 26.281382 24.320575
Se -17.382439 27.535989 27.865495
Se -15.209396 26.281382 31.410415
Se -19.555481 31.299810 -28.853224
Se -17.382439 30.045203 -25.308304
Se -19.555481 31.299810 -21.763384
Se -17.382439 30.045203 -18.218464
Se -19.555481 31.299810 -14.673544
Se -17.382439 30.045203 -11.128624
Se -19.555481 31.299810 -7.583704
Se -17.382439 30.045203 -4.038784
Se -19.555481 31.299810 -0.493864
Se -17.382439 30.045203 3.051056
Se -19.555481 31.299810 6.595975
Se -17.382439 30.045203 10.140895
Se -19.555481 31.299810 13.685815
Se -17.382439 30.045203 17.230735
Se -19.555481 31.299810 20.775655
Se -17.382439 30.045203 24.320575
Se -19.555481 31.299810 27.865495
Se -17.382439 30.045203 31.410415
Se 19.559287 -28.921316 -28.853224
Se 19.559287 -28.921316 -21.763384
Se 19.559287 -28.921316 -14.673544
Se 19.559287 -28.921316 -7.583704
Se 19.559287 -28.921316 -0.493864
Se 19.559287 -28.921316 6.595975
Se 19.559287 -28.921316 13.685815
Se 19.559287 -28.921316 20.775655
Se 19.559287 -28.921316 27.865495
Se 17.386245 -25.157496 -28.853224
Se 19.559287 -26.412102 -25.308304
Se 17.386245 -25.157496 -21.763384
Se 19.559287 -26.412102 -18.218464
Se 17.386245 -25.157496 -14.673544
Se 19.559287 -26.412102 -11.128624
Se 17.386245 -25.157496 -7.583704
Se 19.559287 -26.412102 -4.038784
Se 17.386245 -25.157496 -0.493864
Se 19.559287 -26.412102 3.051056
Se 17.386245 -25.157496 6.595975
Se 19.559287 -26.412102 10.140895
Se 17.386245 -25.157496 13.685815
Se 19.559287 -26.412102 17.230735
Se 17.386245 -25.157496 20.775655
Se 19.559287 -26.412102 24.320575
Se 17.386245 -25.157496 27.865495
Se 15.213202 -21.393675 -28.853224
Se 17.386245 -22.648282 -25.308304
Se 15.213202 -21.393675 -21.763384
Se 17.386245 -22.648282 -18.218464
Se 15.213202 -21.393675 -14.673544
Se 17.386245 -22.648282 -11.128624
Se 15.213202 -21.393675 -7.583704
Se 17.386245 -22.648282 -4.038784
Se 15.213202 -21.393675 -0.493864
Se 17.386245 -22.648282 3.051056
Se 15.213202 -21.393675 6.595975
Se 17.386245 -22.648282 10.140895
Se 15.213202 -21.393675 13.685815
Se 17.386245 -22.648282 17.230735
Se 15.213202 -21.393675 20.775655
Se 17.386245 -22.648282 24.320575
Se 15.213202 -21.393675 27.865495
Se 17.386245 -22.648282 31.410415
Se 13.040159 -17.629855 -28.853224
Se 15.213202 -18.884462 -25.308304
Se 13.040159 -17.629855 -21.763384
Se 15.213202 -18.884462 -18.218464
Se 13.040159 -17.629855 -14.673544
Se 15.213202 -18.884462 -11.128624
Se 13.040159 -17.629855 -7.583704
Se 15.213202 -18.884462 -4.038784
Se 13.040159 -17.629855 -0.493864
Se 15.213202 -18.884462 3.051056
Se 13.040159 -17.629855 6.595975
Se 15.213202 -18.884462 10.140895
Se 13.040159 -17.629855 13.685815
Se 15.213202 -18.884462 17.230735
Se 13.040159 -17.629855 20.775655
Se 15.213202 -18.884462 24.320575
Se 13.040159 -17.629855 27.865495
Se 15.213202 -18.884462 31.410415
Se 10.867116 -13.866035 -28.853224
Se 13.040159 -15.120641 -25.308304
Se 10.867116 -13.866035 -21.763384
Se 13.040159 -15.120641 -18.218464
Se 10.867116 -13.866035 -14.673544
Se 13.040159 -15.120641 -11.128624
Se 10.867116 -13.866035 -7.583704
Se 13.040159 -15.120641 -4.038784
Se 10.867116 -13.866035 -0.493864
Se 13.040159 -15.120641 3.051056
Se 10.867116 -13.866035 6.595975
Se 13.040159 -15.120641 10.140895
Se 10.867116 -13.866035 13.685815
Se 13.040159 -15.120641 17.230735
Se 10.867116 -13.866035 20.775655
Se 13.040159 -15.120641 24.320575
Se 10.867116 -13.866035 27.865495
Se 13.040159 -15.120641 31.410415
Se 8.694074 -10.102214 -28.853224
Se 10.867116 -11.356821 -25.308304
Se 8.694074 -10.102214 -21.763384
Se 10.867116 -11.356821 -18.218464
Se 8.694074 -10.102214 -14.673544
Se 10.867116 -11.356821 -11.128624
Se 8.694074 -10.102214 -7.583704
Se 10.867116 -11.356821 -4.038784
Se 8.694074 -10.102214 -0.493864
Se 10.867116 -11.356821 3.051056
Se 8.694074 -10.102214 6.595975
Se 10.867116 -11.356821 10.140895
Se 8.694074 -10.102214 13.685815
Se 10.867116 -11.356821 17.230735
Se 8.694074 -10.102214 20.775655
Se 10.867116 -11.356821 24.320575
Se 8.694074 -10.102214 27.865495
Se 10.867116 -11.356821 31.410415
Se 6.521031 -6.338394 -28.853224
Se 8.694074 -7.593001 -25.308304
Se 6.521031 -6.338394 -21.763384
Se 8.694074 -7.593001 -18.218464
Se 6.521031 -6.338394 -14.673544
Se 8.694074 -7.593001 -11.128624
Se 6.521031 -6.338394 -7.583704
Se 8.694074 -7.593001 -4.038784
Se 6.521031 -6.338394 -0.493864
Se 8.694074 -7.593001 3.051056
Se 6.521031 -6.338394 6.595975
Se 8.694074 -7.593001 10.140895
Se 6.521031 -6.338394 13.685815
Se 8.694074 -7.593001 17.230735
Se 6.521031 -6.338394 20.775655
Se 8.694074 -7.593001 24.320575
Se 6.521031 -6.338394 27.865495
Se 8.694074 -7.593001 31.410415
Se 4.347988 -2.574574 -28.853224
Se 6.521031 -3.829180 -25.308304
Se 4.347988 -2.574574 -21.763384
Se 6.521031 -3.829180 -18.218464
Se 4.347988 -2.574574 -14.673544
Se 6.521031 -3.829180 -11.128624
Se 4.347988 -2.574574 -7.583704
Se 6.521031 -3.829180 -4.038784
Se 4.347988 -2.574574 -0.493864
Se 6.521031 -3.829180 3.051056
Se 4.347988 -2.574574 6.595975
Se 6.521031 -3.829180 10.140895
Se 4.347988 -2.574574 13.685815
Se 6.521031 -3.829180 17.230735
Se 4.347988 -2.574574 20.775655
Se 6.521031 -3.829180 24.320575
Se 4.347988 -2.574574 27.865495
Se 6.521031 -3.829180 31.410415
Se 2.174946 1.189247 -28.853224
Se 4.347988 -0.065360 -25.308304
Se 2.174946 1.189247 -21.763384
Se 4.347988 -0.065360 -18.218464
Se 2.174946 1.189247 -14.673544
Se 4.347988 -0.065360 -11.128624
Se 2.174946 1.189247 -7.583704
Se 4.347988 -0.065360 -4.038784
Se 2.174946 1.189247 -0.493864
Se 4.347988 -0.065360 3.051056
Se 2.174946 1.189247 6.595975
Se 4.347988 -0.065360 10.140895
Se 2.174946 1.189247 13.685815
Se 4.347988 -0.065360 17.230735
Se 2.174946 1.189247 20.775655
Se 4.347988 -0.065360 24.320575
Se 2.174946 1.189247 27.865495
Se 4.347988 -0.065360 31.410415
Se 0.001903 4.953067 -28.853224
Se 2.174946 3.698460 -25.308304
Se 0.001903 4.953067 -21.763384
Se 2.174946 3.698460 -18.218464
Se 0.001903 4.953067 -14.673544
Se 2.174946 3.698460 -11.128624
Se 0.001903 4.953067 -7.583704
Se 2.174946 3.698460 -4.038784
Se 0.001903 4.953067 -0.493864
Se 2.174946 3.698460 3.051056
Se 0.001903 4.953067 6.595975
Se 2.174946 3.698460 10.140895
Se 0.001903 4.953067 13.685815
Se 2.174946 3.698460 17.230735
Se 0.001903 4.953067 20.775655
Se 2.174946 3.698460 24.320575
Se 0.001903 4.953067 27.865495
Se 2.174946 3.698460 31.410415
Se -2.171140 8.716887 -28.853224
Se 0.001903 7.462281 -25.308304
Se -2.171140 8.716887 -21.763384
Se 0.001903 7.462281 -18.218464
Se -2.171140 8.716887 -14.673544
Se 0.001903 7.462281 -11.128624
Se -2.171140 8.716887 -7.583704
Se 0.001903 7.462281 -4.038784
Se -2.171140 8.716887 -0.493864
Se 0.001903 7.462281 3.051056
Se -2.171140 8.716887 6.595975
Se 0.001903 7.462281 10.140895
Se -2.171140 8.716887 13.685815
Se 0.001903 7.462281 17.230735
Se -2.171140 8.716887 20.775655
Se 0.001903 7.462281 24.320575
Se -2.171140 8.716887 27.865495
Se 0.001903 7.462281 31.410415
Se -4.344182 12.480708 -28.853224
Se -2.171140 11.226101 -25.308304
Se -4.344182 12.480708 -21.763384
Se -2.171140 11.226101 -18.218464
Se -4.344182 12.480708 -14.673544
Se -2.171140 11.226101 -11.128624
Se -4.344182 12.480708 -7.583704
Se -2.171140 11.226101 -4.038784
Se -4.344182 12.480708 -0.493864
Se -2.171140 11.226101 3.051056
Se -4.344182 12.480708 6.595975
Se -2.171140 11.226101 10.140895
Se -4.344182 12.480708 13.685815
Se -2.171140 11.226101 17.230735
Se -4.344182 12.480708 20.775655
Se -2.171140 11.226101 24.320575
Se -4.344182 12.480708 27.865495
Se -2.171140 11.226101 31.410415
Se -6.517225 16.244528 -28.853224
Se -4.344182 14.989921 -25.308304
Se -6.517225 16.244528 -21.763384
Se -4.344182 14.989921 -18.218464
Se -6.517225 16.244528 -14.673544
Se -4.344182 14.989921 -11.128624
Se -6.517225 16.244528 -7.583704
Se -4.344182 14.989921 -4.038784
Se -6.517225 16.244528 -0.493864
Se -4.344182 14.989921 3.051056
Se -6.517225 16.244528 6.595975
Se -4.344182 14.989921 10.140895
Se -6.517225 16.244528 13.685815
Se -4.344182 14.989921 17.230735
Se -6.517225 16.244528 20.775655
Se -4.344182 14.989921 24.320575
Se -6.517225 16.244528 27.865495
Se -4.344182 14.989921 31.410415
Se -8.690268 20.008349 -28.853224
Se -6.517225 18.753742 -25.308304
Se -8.690268 20.008349 -21.763384
Se -6.517225 18.753742 -18.218464
Se -8.690268 20.008349 -14.673544
Se -6.517225 18.753742 -11.128624
Se -8.690268 20.008349 -7.583704
Se -6.517225 18.753742 -4.038784
Se -8.690268 20.008349 -0.493864
Se -6.517225 18.753742 3.051056
Se -8.690268 20.008349 6.595975
Se -6.517225 18.753742 10.140895
Se -8.690268 20.008349 13.685815
Se -6.517225 18.753742 17.230735
Se -8.690268 20.008349 20.775655
Se -6.517225 18.753742 24.320575
Se -8.690268 20.008349 27.865495
Se -6.517225 18.753742 31.410415
Se -10.863310 23.772169 -28.853224
Se -8.690268 22.517562 -25.308304
Se -10.863310 23.772169 -21.763384
Se -8.690268 22.517562 -18.218464
Se -10.863310 23.772169 -14.673544
Se -8.690268 22.517562 -11.128624
Se -10.863310 23.772169 -7.583704
Se -8.690268 22.517562 -4.038784
Se -10.863310 23.772169 -0.493864
Se -8.690268 22.517562 3.051056
Se -10.863310 23.772169 6.595975
Se -8.690268 22.517562 10.140895
Se -10.863310 23.772169 13.685815
Se -8.690268 22.517562 17.230735
Se -10.863310 23.772169 20.775655
Se -8.690268 22.517562 24.320575
Se -10.863310 23.772169 27.865495
Se -8.690268 22.517562 31.410415
Se -13.036353 27.535989 -28.853224
Se -10.863310 26.281382 -25.308304
Se -13.036353 27.535989 -21.763384
Se -10.863310 26.281382 -18.218464
Se -13.036353 27.535989 -14.673544
Se -10.863310 26.281382 -11.128624
Se -13.036353 27.535989 -7.583704
Se -10.863310 26.281382 -4.038784
Se -13.036353 27.535989 -0.493864
Se -10.863310 26.281382 3.051056
Se -13.036353 27.535989 6.595975
Se -10.863310 26.281382 10.140895
Se -13.036353 27.535989 13.685815
Se -10.863310 26.281382 17.230735
Se -13.036353 27.535989 20.775655
Se -10.863310 26.281382 24.320575
Se -13.036353 27.535989 27.865495
Se -10.863310 26.281382 31.410415
Se -15.209396 31.299810 -28.853224
Se -13.036353 30.045203 -25.308304
Se -15.209396 31.299810 -21.763384
Se -13.036353 30.045203 -18.218464
Se -15.209396 31.299810 -14.673544
Se -13.036353 30.045203 -11.128624
Se -15.209396 31.299810 -7.583704
Se -13.036353 30.045203 -4.038784
Se -15.209396 31.299810 -0.493864
Se -13.036353 30.045203 3.051056
Se -15.209396 31.299810 6.595975
Se -13.036353 30.045203 10.140895
Se -15.209396 31.299810 13.685815
Se -13.036353 30.045203 17.230735
Se -15.209396 31.299810 20.775655
Se -13.036353 30.045203 24.320575
Se -15.209396 31.299810 27.865495
Se -13.036353 30.045203 31.410415
Se 21.732330 -25.157496 -28.853224
Se 21.732330 -25.157496 -21.763384
Se 21.732330 -25.157496 -14.673544
Se 21.732330 -25.157496 -7.583704
Se 21.732330 -25.157496 -0.493864
Se 21.732330 -25.157496 6.595975
Se 21.732330 -25.157496 13.685815
Se 21.732330 -25.157496 20.775655
Se 21.732330 -25.157496 27.865495
Se 19.559287 -21.393675 -28.853224
Se 21.732330 -22.648282 -25.308304
Se 19.559287 -21.393675 -21.763384
Se 21.732330 -22.648282 -18.218464
Se 19.559287 -21.393675 -14.673544
Se 21.732330 -22.648282 -11.128624
Se 19.559287 -21.393675 -7.583704
Se 21.732330 -22.648282 -4.038784
Se 19.559287 -21.393675 -0.493864
Se 21.732330 -22.648282 3.051056
Se 19.559287 -21.393675 6.595975
Se 21.732330 -22.648282 10.140895
Se 19.559287 -21.393675 13.685815
Se 21.732330 -22.648282 17.230735
Se 19.559287 -21.393675 20.775655
Se 21.732330 -22.648282 24.320575
Se 19.559287 -21.393675 27.865495
Se 17.386245 -17.629855 -28.853224
Se 19.559287 -18.884462 -25.308304
Se 17.386245 -17.629855 -21.763384
Se 19.559287 -18.884462 -18.218464
Se 17.386245 -17.629855 -14.673544
Se 19.559287 -18.884462 -11.128624
Se 17.386245 -17.629855 -7.583704
Se 19.559287 -18.884462 -4.038784
Se 17.386245 -17.629855 -0.493864
Se 19.559287 -18.884462 3.051056
Se 17.386245 -17.629855 6.595975
Se 19.559287 -18.884462 10.140895
Se 17.386245 -17.629855 13.685815
Se 19.559287 -18.884462 17.230735
Se 17.386245 -17.629855 20.775655
Se 19.559287 -18.884462 24.320575
Se 17.386245 -17.629855 27.865495
Se 19.559287 -18.884462 31.410415
Se 15.213202 -13.866035 -28.853224
Se 17.386245 -15.120641 -25.308304
Se 15.213202 -13.866035 -21.763384
Se 17.386245 -15.120641 -18.218464
Se 15.213202 -13.866035 -14.673544
Se 17.386245 -15.120641 -11.128624
Se 15.213202 -13.866035 -7.583704
Se 17.386245 -15.120641 -4.038784
Se 15.213202 -13.866035 -0.493864
Se 17.386245 -15.120641 3.051056
Se 15.213202 -13.866035 6.595975
Se 17.386245 -15.120641 10.140895
Se 15.213202 -13.866035 13.685815
Se 17.386245 -15.120641 17.230735
Se 15.213202 -13.866035 20.775655
Se 17.386245 -15.120641 24.320575
Se 15.213202 -13.866035 27.865495
Se 17.386245 -15.120641 31.410415
Se 13.040159 -10.102214 -28.853224
Se 15.213202 -11.356821 -25.308304
Se 13.040159 -10.102214 -21.763384
Se 15.213202 -11.356821 -18.218464
Se 13.040159 -10.102214 -14.673544
Se 15.213202 -11.356821 -11.128624
Se 13.040159 -10.102214 -7.583704
Se 15.213202 -11.356821 -4.038784
Se 13.040159 -10.102214 -0.493864
Se 15.213202 -11.356821 3.051056
Se 13.040159 -10.102214 6.595975
Se 15.213202 -11.356821 10.140895
Se 13.040159 -10.102214 13.685815
Se 15.213202 -11.356821 17.230735
Se 13.040159 -10.102214 20.775655
Se 15.213202 -11.356821 24.320575
Se 13.040159 -10.102214 27.865495
Se 15.213202 -11.356821 31.410415
Se 10.867116 -6.338394 -28.853224
Se 13.040159 -7.593001 -25.308304
Se 10.867116 -6.338394 -21.763384
Se 13.040159 -7.593001 -18.218464
Se 10.867116 -6.338394 -14.673544
Se 13.040159 -7.593001 -11.128624
Se 10.867116 -6.338394 -7.583704
Se 13.040159 -7.593001 -4.038784
Se 10.867116 -6.338394 -0.493864
Se 13.040159 -7.593001 3.051056
Se 10.867116 -6.338394 6.595975
Se 13.040159 -7.593001 10.140895
Se 10.867116 -6.338394 13.685815
Se 13.040159 -7.593001 17.230735
Se 10.867116 -6.338394 20.775655
Se 13.040159 -7.593001 24.320575
Se 10.867116 -6.338394 27.865495
Se 13.040159 -7.593001 31.410415
Se 8.694074 -2.574574 -28.853224
Se 10.867116 -3.829180 -25.308304
Se 8.694074 -2.574574 -21.763384
Se 10.867116 -3.829180 -18.218464
Se 8.694074 -2.574574 -14.673544
Se 10.867116 -3.829180 -11.128624
Se 8.694074 -2.574574 -7.583704
Se 10.867116 -3.829180 -4.038784
Se 8.694074 -2.574574 -0.493864
Se 10.867116 -3.829180 3.051056
Se 8.694074 -2.574574 6.595975
Se 10.867116 -3.829180 10.140895
Se 8.694074 -2.574574 13.685815
Se 10.867116 -3.829180 17.230735
Se 8.694074 -2.574574 20.775655
Se 10.867116 -3.829180 24.320575
Se 8.694074 -2.574574 27.865495
Se 10.867116 -3.829180 31.410415
Se 6.521031 1.189247 -28.853224
Se 8.694074 -0.065360 -25.308304
Se 6.521031 1.189247 -21.763384
Se 8.694074 -0.065360 -18.218464
Se 6.521031 1.189247 -14.673544
Se 8.694074 -0.065360 -11.128624
Se 6.521031 1.189247 -7.583704
Se 8.694074 -0.065360 -4.038784
Se 6.521031 1.189247 -0.493864
Se 8.694074 -0.065360 3.051056
Se 6.521031 1.189247 6.595975
Se 8.694074 -0.065360 10.140895
Se 6.521031 1.189247 13.685815
Se 8.694074 -0.065360 17.230735
Se 6.521031 1.189247 20.775655
Se 8.694074 -0.065360 24.320575
Se 6.521031 1.189247 27.865495
Se 8.694074 -0.065360 31.410415
Se 4.347988 4.953067 -28.853224
Se 6.521031 3.698460 -25.308304
Se 4.347988 4.953067 -21.763384
Se 6.521031 3.698460 -18.218464
Se 4.347988 4.953067 -14.673544
Se 6.521031 3.698460 -11.128624
Se 4.347988 4.953067 -7.583704
Se 6.521031 3.698460 -4.038784
Se 4.347988 4.953067 -0.493864
Se 6.521031 3.698460 3.051056
Se 4.347988 4.953067 6.595975
Se 6.521031 3.698460 10.140895
Se 4.347988 4.953067 13.685815
Se 6.521031 3.698460 17.230735
Se 4.347988 4.953067 20.775655
Se 6.521031 3.698460 24.320575
Se 4.347988 4.953067 27.865495
Se 6.521031 3.698460 31.410415
Se 2.174946 8.716887 -28.853224
Se 4.347988 7.462281 -25.308304
Se 2.174946 8.716887 -21.763384
Se 4.347988 7.462281 -18.218464
Se 2.174946 8.716887 -14.673544
Se 4.347988 7.462281 -11.128624
Se 2.174946 8.716887 -7.583704
Se 4.347988 7.462281 -4.038784
Se 2.174946 8.716887 -0.493864
Se 4.347988 7.462281 3.051056
Se 2.174946 8.716887 6.595975
Se 4.347988 7.462281 10.140895
Se 2.174946 8.716887 13.685815
Se 4.347988 7.462281 17.230735
Se 2.174946 8.716887 20.775655
Se 4.347988 7.462281 24.320575
Se 2.174946 8.716887 27.865495
Se 4.347988 7.462281 31.410415
Se 0.001903 12.480708 -28.853224
Se 2.174946 11.226101 -25.308304
Se 0.001903 12.480708 -21.763384
Se 2.174946 11.226101 -18.218464
Se 0.001903 12.480708 -14.673544
Se 2.174946 11.226101 -11.128624
Se 0.001903 12.480708 -7.583704
Se 2.174946 11.226101 -4.038784
Se 0.001903 12.480708 -0.493864
Se 2.174946 11.226101 3.051056
Se 0.001903 12.480708 6.595975
Se 2.174946 11.226101 10.140895
Se 0.001903 12.480708 13.685815
Se 2.174946 11.226101 17.230735
Se 0.001903 12.480708 20.775655
Se 2.174946 11.226101 24.320575
Se 0.001903 12.480708 27.865495
Se 2.174946 11.226101 31.410415
Se -2.171140 16.244528 -28.853224
Se 0.001903 14.989921 -25.308304
Se -2.171140 16.244528 -21.763384
Se 0.001903 14.989921 -18.218464
Se -2.171140 16.244528 -14.673544
Se 0.001903 14.989921 -11.128624
Se -2.171140 16.244528 -7.583704
Se 0.001903 14.989921 -4.038784
Se -2.171140 16.244528 -0.493864
Se 0.001903 14.989921 3.051056
Se -2.171140 16.244528 6.595975
Se 0.001903 14.989921 10.140895
Se -2.171140 16.244528 13.685815
Se 0.001903 14.989921 17.230735
Se -2.171140 16.244528 20.775655
Se 0.001903 14.989921 24.320575
Se -2.171140 16.244528 27.865495
Se 0.001903 14.989921 31.410415
Se -4.344182 20.008349 -28.853224
Se -2.171140 18.753742 -25.308304
Se -4.344182 20.008349 -21.763384
Se -2.171140 18.753742 -18.218464
Se -4.344182 20.008349 -14.673544
Se -2.171140 18.753742 -11.128624
Se -4.344182 20.008349 -7.583704
Se -2.171140 18.753742 -4.038784
Se -4.344182 20.008349 -0.493864
Se -2.171140 18.753742 3.051056
Se -4.344182 20.008349 6.595975
Se -2.171140 18.753742 10.140895
Se -4.344182 20.008349 13.685815
Se -2.171140 18.753742 17.230735
Se -4.344182 20.008349 20.775655
Se -2.171140 18.753742 24.320575
Se -4.344182 20.008349 27.865495
Se -2.171140 18.753742 31.410415
Se -6.517225 23.772169 -28.853224
Se -4.344182 22.517562 -25.308304
Se -6.517225 23.772169 -21.763384
Se -4.344182 22.517562 -18.218464
Se -6.517225 23.772169 -14.673544
Se -4.344182 22.517562 -11.128624
Se -6.517225 23.772169 -7.583704
Se -4.344182 22.517562 -4.038784
Se -6.517225 23.772169 -0.493864
Se -4.344182 22.517562 3.051056
Se -6.517225 23.772169 6.595975
Se -4.344182 22.517562 10.140895
Se -6.517225 23.772169 13.685815
Se -4.344182 22.517562 17.230735
Se -6.517225 23.772169 20.775655
Se -4.344182 22.517562 24.320575
Se -6.517225 23.772169 27.865495
Se -4.344182 22.517562 31.410415
Se -8.690268 27.535989 -28.853224
Se -6.517225 26.281382 -25.308304
Se -8.690268 27.535989 -21.763384
Se -6.517225 26.281382 -18.218464
Se -8.690268 27.535989 -14.673544
Se -6.517225 26.281382 -11.128624
Se -8.690268 27.535989 -7.583704
Se -6.517225 26.281382 -4.038784
Se -8.690268 27.535989 -0.493864
Se -6.517225 26.281382 3.051056
Se -8.690268 27.535989 6.595975
Se -6.517225 26.281382 10.140895
Se -8.690268 27.535989 13.685815
Se -6.517225 26.281382 17.230735
Se -8.690268 27.535989 20.775655
Se -6.517225 26.281382 24.320575
Se -8.690268 27.535989 27.865495
Se -6.517225 26.281382 31.410415
Se -10.863310 31.299810 -28.853224
Se -8.690268 30.045203 -25.308304
Se -10.863310 31.299810 -21.763384
Se -8.690268 30.045203 -18.218464
Se -10.863310 31.299810 -14.673544
Se -8.690268 30.045203 -11.128624
Se -10.863310 31.299810 -7.583704
Se -8.690268 30.045203 -4.038784
Se -10.863310 31.299810 -0.493864
Se -8.690268 30.045203 3.051056
Se -10.863310 31.299810 6.595975
Se -8.690268 30.045203 10.140895
Se -10.863310 31.299810 13.685815
Se -8.690268 30.045203 17.230735
Se -10.863310 31.299810 20.775655
Se -8.690268 30.045203 24.320575
Se -10.863310 31.299810 27.865495
Se -8.690268 30.045203 31.410415
Se 23.905373 -21.393675 -28.853224
Se 23.905373 -21.393675 -21.763384
Se 23.905373 -21.393675 -14.673544
Se 23.905373 -21.393675 -7.583704
Se 23.905373 -21.393675 -0.493864
Se 23.905373 -21.393675 6.595975
Se 23.905373 -21.393675 13.685815
Se 23.905373 -21.393675 20.775655
Se 23.905373 -21.393675 27.865495
Se 21.732330 -17.629855 -28.853224
Se 23.905373 -18.884462 -25.308304
Se 21.732330 -17.629855 -21.763384
Se 23.905373 -18.884462 -18.218464
Se 21.732330 -17.629855 -14.673544
Se 23.905373 -18.884462 -11.128624
Se 21.732330 -17.629855 -7.583704
Se 23.905373 -18.884462 -4.038784
Se 21.732330 -17.629855 -0.493864
Se 23.905373 -18.884462 3.051056
Se 21.732330 -17.629855 6.595975
Se 23.905373 -18.884462 10.140895
Se 21.732330 -17.629855 13.685815
Se 23.905373 -18.884462 17.230735
Se 21.732330 -17.629855 20.775655
Se 23.905373 -18.884462 24.320575
Se 21.732330 -17.629855 27.865495
Se 19.559287 -13.866035 -28.853224
Se 21.732330 -15.120641 -25.308304
Se 19.559287 -13.866035 -21.763384
Se 21.732330 -15.120641 -18.218464
Se 19.559287 -13.866035 -14.673544
Se 21.732330 -15.120641 -11.128624
Se 19.559287 -13.866035 -7.583704
Se 21.732330 -15.120641 -4.038784
Se 19.559287 -13.866035 -0.493864
Se 21.732330 -15.120641 3.051056
Se 19.559287 -13.866035 6.595975
Se 21.732330 -15.120641 10.140895
Se 19.559287 -13.866035 13.685815
Se 21.732330 -15.120641 17.230735
Se 19.559287 -13.866035 20.775655
Se 21.732330 -15.120641 24.320575
Se 19.559287 -13.866035 27.865495
Se 21.732330 -15.120641 31.410415
Se 17.386245 -10.102214 -28.853224
Se 19.559287 -11.356821 -25.308304
Se 17.386245 -10.102214 -21.763384
Se 19.559287 -11.356821 -18.218464
Se 17.386245 -10.102214 -14.673544
Se 19.559287 -11.356821 -11.128624
Se 17.386245 -10.102214 -7.583704
Se 19.559287 -11.356821 -4.038784
Se 17.386245 -10.102214 -0.493864
Se 19.559287 -11.356821 3.051056
Se 17.386245 -10.102214 6.595975
Se 19.559287 -11.356821 10.140895
Se 17.386245 -10.102214 13.685815
Se 19.559287 -11.356821 17.230735
Se 17.386245 -10.102214 20.775655
Se 19.559287 -11.356821 24.320575
Se 17.386245 -10.102214 27.865495
Se 19.559287 -11.356821 31.410415
Se 15.213202 -6.338394 -28.853224
Se 17.386245 -7.593001 -25.308304
Se 15.213202 -6.338394 -21.763384
Se 17.386245 -7.593001 -18.218464
Se 15.213202 -6.338394 -14.673544
Se 17.386245 -7.593001 -11.128624
Se 15.213202 -6.338394 -7.583704
Se 17.386245 -7.593001 -4.038784
Se 15.213202 -6.338394 -0.493864
Se 17.386245 -7.593001 3.051056
Se 15.213202 -6.338394 6.595975
Se 17.386245 -7.593001 10.140895
Se 15.213202 -6.338394 13.685815
Se 17.386245 -7.593001 17.230735
Se 15.213202 -6.338394 20.775655
Se 17.386245 -7.593001 24.320575
Se 15.213202 -6.338394 27.865495
Se 17.386245 -7.593001 31.410415
Se 13.040159 -2.574574 -28.853224
Se 15.213202 -3.829180 -25.308304
Se 13.040159 -2.574574 -21.763384
Se 15.213202 -3.829180 -18.218464
Se 13.040159 -2.574574 -14.673544
Se 15.213202 -3.829180 -11.128624
Se 13.040159 -2.574574 -7.583704
Se 15.213202 -3.829180 -4.038784
Se 13.040159 -2.574574 -0.493864
Se 15.213202 -3.829180 3.051056
Se 13.040159 -2.574574 6.595975
Se 15.213202 -3.829180 10.140895
Se 13.040159 -2.574574 13.685815
Se 15.213202 -3.829180 17.230735
Se 13.040159 -2.574574 20.775655
Se 15.213202 -3.829180 24.320575
Se 13.040159 -2.574574 27.865495
Se 15.213202 -3.829180 31.410415
Se 10.867116 1.189247 -28.853224
Se 13.040159 -0.065360 -25.308304
Se 10.867116 1.189247 -21.763384
Se 13.040159 -0.065360 -18.218464
Se 10.867116 1.189247 -14.673544
Se 13.040159 -0.065360 -11.128624
Se 10.867116 1.189247 -7.583704
Se 13.040159 -0.065360 -4.038784
Se 10.867116 1.189247 -0.493864
Se 13.040159 -0.065360 3.051056
Se 10.867116 1.189247 6.595975
Se 13.040159 -0.065360 10.140895
Se 10.867116 1.189247 13.685815
Se 13.040159 -0.065360 17.230735
Se 10.867116 1.189247 20.775655
Se 13.040159 -0.065360 24.320575
Se 10.867116 1.189247 27.865495
Se 13.040159 -0.065360 31.410415
Se 8.694074 4.953067 -28.853224
Se 10.867116 3.698460 -25.308304
Se 8.694074 4.953067 -21.763384
Se 10.867116 3.698460 -18.218464
Se 8.694074 4.953067 -14.673544
Se 10.867116 3.698460 -11.128624
Se 8.694074 4.953067 -7.583704
Se 10.867116 3.698460 -4.038784
Se 8.694074 4.953067 -0.493864
Se 10.867116 3.698460 3.051056
Se 8.694074 4.953067 6.595975
Se 10.867116 3.698460 10.140895
Se 8.694074 4.953067 13.685815
Se 10.867116 3.698460 17.230735
Se 8.694074 4.953067 20.775655
Se 10.867116 3.698460 24.320575
Se 8.694074 4.953067 27.865495
Se 10.867116 3.698460 31.410415
Se 6.521031 8.716887 -28.853224
Se 8.694074 7.462281 -25.308304
Se 6.521031 8.716887 -21.763384
Se 8.694074 7.462281 -18.218464
Se 6.521031 8.716887 -14.673544
Se 8.694074 7.462281 -11.128624
Se 6.521031 8.716887 -7.583704
Se 8.694074 7.462281 -4.038784
Se 6.521031 8.716887 -0.493864
Se 8.694074 7.462281 3.051056
Se 6.521031 8.716887 6.595975
Se 8.694074 7.462281 10.140895
Se 6.521031 8.716887 13.685815
Se 8.694074 7.462281 17.230735
Se 6.521031 8.716887 20.775655
Se 8.694074 7.462281 24.320575
Se 6.521031 8.716887 27.865495
Se 8.694074 7.462281 31.410415
Se 4.347988 12.480708 -28.853224
Se 6.521031 11.226101 -25.308304
Se 4.347988 12.480708 -21.763384
Se 6.521031 11.226101 -18.218464
Se 4.347988 12.480708 -14.673544
Se 6.521031 11.226101 -11.128624
Se 4.347988 12.480708 -7.583704
Se 6.521031 11.226101 -4.038784
Se 4.347988 12.480708 -0.493864
Se 6.521031 11.226101 3.051056
Se 4.347988 12.480708 6.595975
Se 6.521031 11.226101 10.140895
Se 4.347988 12.480708 13.685815
Se 6.521031 11.226101 17.230735
Se 4.347988 12.480708 20.775655
Se 6.521031 11.226101 24.320575
Se 4.347988 12.480708 27.865495
Se 6.521031 11.226101 31.410415
Se 2.174946 16.244528 -28.853224
Se 4.347988 14.989921 -25.308304
Se 2.174946 16.244528 -21.763384
Se 4.347988 14.989921 -18.218464
Se 2.174946 16.244528 -14.673544
Se 4.347988 14.989921 -11.128624
Se 2.174946 16.244528 -7.583704
Se 4.347988 14.989921 -4.038784
Se 2.174946 16.244528 -0.493864
Se 4.347988 14.989921 3.051056
Se 2.174946 16.244528 6.595975
Se 4.347988 14.989921 10.140895
Se 2.174946 16.244528 13.685815
Se 4.347988 14.989921 17.230735
Se 2.174946 16.244528 20.775655
Se 4.347988 14.989921 24.320575
Se 2.174946 16.244528 27.865495
Se 4.347988 14.989921 31.410415
Se 0.001903 20.008349 -28.853224
Se 2.174946 18.753742 -25.308304
Se 0.001903 20.008349 -21.763384
Se 2.174946 18.753742 -18.218464
Se 0.001903 20.008349 -14.673544
Se 2.174946 18.753742 -11.128624
Se 0.001903 20.008349 -7.583704
Se 2.174946 18.753742 -4.038784
Se 0.001903 20.008349 -0.493864
Se 2.174946 18.753742 3.051056
Se 0.001903 20.008349 6.595975
Se 2.174946 18.753742 10.140895
Se 0.001903 20.008349 13.685815
Se 2.174946 18.753742 17.230735
Se 0.001903 20.008349 20.775655
Se 2.174946 18.753742 24.320575
Se 0.001903 20.008349 27.865495
Se 2.174946 18.753742 31.410415
Se -2.171140 23.772169 -28.853224
Se 0.001903 22.517562 -25.308304
Se -2.171140 23.772169 -21.763384
Se 0.001903 22.517562 -18.218464
Se -2.171140 23.772169 -14.673544
Se 0.001903 22.517562 -11.128624
Se -2.171140 23.772169 -7.583704
Se 0.001903 22.517562 -4.038784
Se -2.171140 23.772169 -0.493864
Se 0.001903 22.517562 3.051056
Se -2.171140 23.772169 6.595975
Se 0.001903 22.517562 10.140895
Se -2.171140 23.772169 13.685815
Se 0.001903 22.517562 17.230735
Se -2.171140 23.772169 20.775655
Se 0.001903 22.517562 24.320575
Se -2.171140 23.772169 27.865495
Se 0.001903 22.517562 31.410415
Se -4.344182 27.535989 -28.853224
Se -2.171140 26.281382 -25.308304
Se -4.344182 27.535989 -21.763384
Se -2.171140 26.281382 -18.218464
Se -4.344182 27.535989 -14.673544
Se -2.171140 26.281382 -11.128624
Se -4.344182 27.535989 -7.583704
Se -2.171140 26.281382 -4.038784
Se -4.344182 27.535989 -0.493864
Se -2.171140 26.281382 3.051056
Se -4.344182 27.535989 6.595975
Se -2.171140 26.281382 10.140895
Se -4.344182 27.535989 13.685815
Se -2.171140 26.281382 17.230735
Se -4.344182 27.535989 20.775655
Se -2.171140 26.281382 24.320575
Se -4.344182 27.535989 27.865495
Se -2.171140 26.281382 31.410415
Se -6.517225 31.299810 -28.853224
Se -4.344182 30.045203 -25.308304
Se -6.517225 31.299810 -21.763384
Se -4.344182 30.045203 -18.218464
Se -6.517225 31.299810 -14.673544
Se -4.344182 30.045203 -11.128624
Se -6.517225 31.299810 -7.583704
Se -4.344182 30.045203 -4.038784
Se -6.517225 31.299810 -0.493864
Se -4.344182 30.045203 3.051056
Se -6.517225 31.299810 6.595975
Se -4.344182 30.045203 10.140895
Se -6.517225 31.299810 13.685815
Se -4.344182 30.045203 17.230735
Se -6.517225 31.299810 20.775655
Se -4.344182 30.045203 24.320575
Se -6.517225 31.299810 27.865495
Se -4.344182 30.045203 31.410415
Se 26.078415 -17.629855 -28.853224
Se 26.078415 -17.629855 -21.763384
Se 26.078415 -17.629855 -14.673544
Se 26.078415 -17.629855 -7.583704
Se 26.078415 -17.629855 -0.493864
Se 26.078415 -17.629855 6.595975
Se 26.078415 -17.629855 13.685815
Se 26.078415 -17.629855 20.775655
Se 26.078415 -17.629855 27.865495
Se 23.905373 -13.866035 -28.853224
Se 26.078415 -15.120641 -25.308304
Se 23.905373 -13.866035 -21.763384
Se 26.078415 -15.120641 -18.218464
Se 23.905373 -13.866035 -14.673544
Se 26.078415 -15.120641 -11.128624
Se 23.905373 -13.866035 -7.583704
Se 26.078415 -15.120641 -4.038784
Se 23.905373 -13.866035 -0.493864
Se 26.078415 -15.120641 3.051056
Se 23.905373 -13.866035 6.595975
Se 26.078415 -15.120641 10.140895
Se 23.905373 -13.866035 13.685815
Se 26.078415 -15.120641 17.230735
Se 23.905373 -13.866035 20.775655
Se 26.078415 -15.120641 24.320575
Se 23.905373 -13.866035 27.865495
Se 21.732330 -10.102214 -28.853224
Se 23.905373 -11.356821 -25.308304
Se 21.732330 -10.102214 -21.763384
Se 23.905373 -11.356821 -18.218464
Se 21.732330 -10.102214 -14.673544
Se 23.905373 -11.356821 -11.128624
Se 21.732330 -10.102214 -7.583704
Se 23.905373 -11.356821 -4.038784
Se 21.732330 -10.102214 -0.493864
Se 23.905373 -11.356821 3.051056
Se 21.732330 -10.102214 6.595975
Se 23.905373 -11.356821 10.140895
Se 21.732330 -10.102214 13.685815
Se 23.905373 -11.356821 17.230735
Se 21.732330 -10.102214 20.775655
Se 23.905373 -11.356821 24.320575
Se 21.732330 -10.102214 27.865495
Se 23.905373 -11.356821 31.410415
Se 19.559287 -6.338394 -28.853224
Se 21.732330 -7.593001 -25.308304
Se 19.559287 -6.338394 -21.763384
Se 21.732330 -7.593001 -18.218464
Se 19.559287 -6.338394 -14.673544
Se 21.732330 -7.593001 -11.128624
Se 19.559287 -6.338394 -7.583704
Se 21.732330 -7.593001 -4.038784
Se 19.559287 -6.338394 -0.493864
Se 21.732330 -7.593001 3.051056
Se 19.559287 -6.338394 6.595975
Se 21.732330 -7.593001 10.140895
Se 19.559287 -6.338394 13.685815
Se 21.732330 -7.593001 17.230735
Se 19.559287 -6.338394 20.775655
Se 21.732330 -7.593001 24.320575
Se 19.559287 -6.338394 27.865495
Se 21.732330 -7.593001 31.410415
Se 17.386245 -2.574574 -28.853224
Se 19.559287 -3.829180 -25.308304
Se 17.386245 -2.574574 -21.763384
Se 19.559287 -3.829180 -18.218464
Se 17.386245 -2.574574 -14.673544
Se 19.559287 -3.829180 -11.128624
Se 17.386245 -2.574574 -7.583704
Se 19.559287 -3.829180 -4.038784
Se 17.386245 -2.574574 -0.493864
Se 19.559287 -3.829180 3.051056
Se 17.386245 -2.574574 6.595975
Se 19.559287 -3.829180 10.140895
Se 17.386245 -2.574574 13.685815
Se 19.559287 -3.829180 17.230735
Se 17.386245 -2.574574 20.775655
Se 19.559287 -3.829180 24.320575
Se 17.386245 -2.574574 27.865495
Se 19.559287 -3.829180 31.410415
Se 15.213202 1.189247 -28.853224
Se 17.386245 -0.065360 -25.308304
Se 15.213202 1.189247 -21.763384
Se 17.386245 -0.065360 -18.218464
Se 15.213202 1.189247 -14.673544
Se 17.386245 -0.065360 -11.128624
Se 15.213202 1.189247 -7.583704
Se 17.386245 -0.065360 -4.038784
Se 15.213202 1.189247 -0.493864
Se 17.386245 -0.065360 3.051056
Se 15.213202 1.189247 6.595975
Se 17.386245 -0.065360 10.140895
Se 15.213202 1.189247 13.685815
Se 17.386245 -0.065360 17.230735
Se 15.213202 1.189247 20.775655
Se 17.386245 -0.065360 24.320575
Se 15.213202 1.189247 27.865495
Se 17.386245 -0.065360 31.410415
Se 13.040159 4.953067 -28.853224
Se 15.213202 3.698460 -25.308304
Se 13.040159 4.953067 -21.763384
Se 15.213202 3.698460 -18.218464
Se 13.040159 4.953067 -14.673544
Se 15.213202 3.698460 -11.128624
Se 13.040159 4.953067 -7.583704
Se 15.213202 3.698460 -4.038784
Se 13.040159 4.953067 -0.493864
Se 15.213202 3.698460 3.051056
Se 13.040159 4.953067 6.595975
Se 15.213202 3.698460 10.140895
Se 13.040159 4.953067 13.685815
Se 15.213202 3.698460 17.230735
Se 13.040159 4.953067 20.775655
Se 15.213202 3.698460 24.320575
Se 13.040159 4.953067 27.865495
Se 15.213202 3.698460 31.410415
Se 10.867116 8.716887 -28.853224
Se 13.040159 7.462281 -25.308304
Se 10.867116 8.716887 -21.763384
Se 13.040159 7.462281 -18.218464
Se 10.867116 8.716887 -14.673544
Se 13.040159 7.462281 -11.128624
Se 10.867116 8.716887 -7.583704
Se 13.040159 7.462281 -4.038784
Se 10.867116 8.716887 -0.493864
Se 13.040159 7.462281 3.051056
Se 10.867116 8.716887 6.595975
Se 13.040159 7.462281 10.140895
Se 10.867116 8.716887 13.685815
Se 13.040159 7.462281 17.230735
Se 10.867116 8.716887 20.775655
Se 13.040159 7.462281 24.320575
Se 10.867116 8.716887 27.865495
Se 13.040159 7.462281 31.410415
Se 8.694074 12.480708 -28.853224
Se 10.867116 11.226101 -25.308304
Se 8.694074 12.480708 -21.763384
Se 10.867116 11.226101 -18.218464
Se 8.694074 12.480708 -14.673544
Se 10.867116 11.226101 -11.128624
Se 8.694074 12.480708 -7.583704
Se 10.867116 11.226101 -4.038784
Se 8.694074 12.480708 -0.493864
Se 10.867116 11.226101 3.051056
Se 8.694074 12.480708 6.595975
Se 10.867116 11.226101 10.140895
Se 8.694074 12.480708 13.685815
Se 10.867116 11.226101 17.230735
Se 8.694074 12.480708 20.775655
Se 10.867116 11.226101 24.320575
Se 8.694074 12.480708 27.865495
Se 10.867116 11.226101 31.410415
Se 6.521031 16.244528 -28.853224
Se 8.694074 14.989921 -25.308304
Se 6.521031 16.244528 -21.763384
Se 8.694074 14.989921 -18.218464
Se 6.521031 16.244528 -14.673544
Se 8.694074 14.989921 -11.128624
Se 6.521031 16.244528 -7.583704
Se 8.694074 14.989921 -4.038784
Se 6.521031 16.244528 -0.493864
Se 8.694074 14.989921 3.051056
Se 6.521031 16.244528 6.595975
Se 8.694074 14.989921 10.140895
Se 6.521031 16.244528 13.685815
Se 8.694074 14.989921 17.230735
Se 6.521031 16.244528 20.775655
Se 8.694074 14.989921 24.320575
Se 6.521031 16.244528 27.865495
Se 8.694074 14.989921 31.410415
Se 4.347988 20.008349 -28.853224
Se 6.521031 18.753742 -25.308304
Se 4.347988 20.008349 -21.763384
Se 6.521031 18.753742 -18.218464
Se 4.347988 20.008349 -14.673544
Se 6.521031 18.753742 -11.128624
Se 4.347988 20.008349 -7.583704
Se 6.521031 18.753742 -4.038784
Se 4.347988 20.008349 -0.493864
Se 6.521031 18.753742 3.051056
Se 4.347988 20.008349 6.595975
Se 6.521031 18.753742 10.140895
Se 4.347988 20.008349 13.685815
Se 6.521031 18.753742 17.230735
Se 4.347988 20.008349 20.775655
Se 6.521031 18.753742 24.320575
Se 4.347988 20.008349 27.865495
Se 6.521031 18.753742 31.410415
Se 2.174946 23.772169 -28.853224
Se 4.347988 22.517562 -25.308304
Se 2.174946 23.772169 -21.763384
Se 4.347988 22.517562 -18.218464
Se 2.174946 23.772169 -14.673544
Se 4.347988 22.517562 -11.128624
Se 2.174946 23.772169 -7.583704
Se 4.347988 22.517562 -4.038784
Se 2.174946 23.772169 -0.493864
Se 4.347988 22.517562 3.051056
Se 2.174946 23.772169 6.595975
Se 4.347988 22.517562 10.140895
Se 2.174946 23.772169 13.685815
Se 4.347988 22.517562 17.230735
Se 2.174946 23.772169 20.775655
Se 4.347988 22.517562 24.320575
Se 2.174946 23.772169 27.865495
Se 4.347988 22.517562 31.410415
Se 0.001903 27.535989 -28.853224
Se 2.174946 26.281382 -25.308304
Se 0.001903 27.535989 -21.763384
Se 2.174946 26.281382 -18.218464
Se 0.001903 27.535989 -14.673544
Se 2.174946 26.281382 -11.128624
Se 0.001903 27.535989 -7.583704
Se 2.174946 26.281382 -4.038784
Se 0.001903 27.535989 -0.493864
Se 2.174946 26.281382 3.051056
Se 0.001903 27.535989 6.595975
Se 2.174946 26.281382 10.140895
Se 0.001903 27.535989 13.685815
Se 2.174946 26.281382 17.230735
Se 0.001903 27.535989 20.775655
Se 2.174946 26.281382 24.320575
Se 0.001903 27.535989 27.865495
Se 2.174946 26.281382 31.410415
Se -2.171140 31.299810 -28.853224
Se 0.001903 30.045203 -25.308304
Se -2.171140 31.299810 -21.763384
Se 0.001903 30.045203 -18.218464
Se -2.171140 31.299810 -14.673544
Se 0.001903 30.045203 -11.128624
Se -2.171140 31.299810 -7.583704
Se 0.001903 30.045203 -4.038784
Se -2.171140 31.299810 -0.493864
Se 0.001903 30.045203 3.051056
Se -2.171140 31.299810 6.595975
Se 0.001903 30.045203 10.140895
Se -2.171140 31.299810 13.685815
Se 0.001903 30.045203 17.230735
Se -2.171140 31.299810 20.775655
Se 0.001903 30.045203 24.320575
Se -2.171140 31.299810 27.865495
Se 0.001903 30.045203 31.410415
Se 28.251458 -13.866035 -28.853224
Se 28.251458 -13.866035 -21.763384
Se 28.251458 -13.866035 -14.673544
Se 28.251458 -13.866035 -7.583704
Se 28.251458 -13.866035 -0.493864
Se 28.251458 -13.866035 6.595975
Se 28.251458 -13.866035 13.685815
Se 28.251458 -13.866035 20.775655
Se 28.251458 -13.866035 27.865495
Se 26.078415 -10.102214 -28.853224
Se 28.251458 -11.356821 -25.308304
Se 26.078415 -10.102214 -21.763384
Se 28.251458 -11.356821 -18.218464
Se 26.078415 -10.102214 -14.673544
Se 28.251458 -11.356821 -11.128624
Se 26.078415 -10.102214 -7.583704
Se 28.251458 -11.356821 -4.038784
Se 26.078415 -10.102214 -0.493864
Se 28.251458 -11.356821 3.051056
Se 26.078415 -10.102214 6.595975
Se 28.251458 -11.356821 10.140895
Se 26.078415 -10.102214 13.685815
Se 28.251458 -11.356821 17.230735
Se 26.078415 -10.102214 20.775655
Se 28.251458 -11.356821 24.320575
Se 26.078415 -10.102214 27.865495
Se 23.905373 -6.338394 -28.853224
Se 26.078415 -7.593001 -25.308304
Se 23.905373 -6.338394 -21.763384
Se 26.078415 -7.593001 -18.218464
Se 23.905373 -6.338394 -14.673544
Se 26.078415 -7.593001 -11.128624
Se 23.905373 -6.338394 -7.583704
Se 26.078415 -7.593001 -4.038784
Se 23.905373 -6.338394 -0.493864
Se 26.078415 -7.593001 3.051056
Se 23.905373 -6.338394 6.595975
Se 26.078415 -7.593001 10.140895
Se 23.905373 -6.338394 13.685815
Se 26.078415 -7.593001 17.230735
Se 23.905373 -6.338394 20.775655
Se 26.078415 -7.593001 24.320575
Se 23.905373 -6.338394 27.865495
Se 26.078415 -7.593001 31.410415
Se 21.732330 -2.574574 -28.853224
Se 23.905373 -3.829180 -25.308304
Se 21.732330 -2.574574 -21.763384
Se 23.905373 -3.829180 -18.218464
Se 21.732330 -2.574574 -14.673544
Se 23.905373 -3.829180 -11.128624
Se 21.732330 -2.574574 -7.583704
Se 23.905373 -3.829180 -4.038784
Se 21.732330 -2.574574 -0.493864
Se 23.905373 -3.829180 3.051056
Se 21.732330 -2.574574 6.595975
Se 23.905373 -3.829180 10.140895
Se 21.732330 -2.574574 13.685815
Se 23.905373 -3.829180 17.230735
Se 21.732330 -2.574574 20.775655
Se 23.905373 -3.829180 24.320575
Se 21.732330 -2.574574 27.865495
Se 23.905373 -3.829180 31.410415
Se 19.559287 1.189247 -28.853224
Se 21.732330 -0.065360 -25.308304
Se 19.559287 1.189247 -21.763384
Se 21.732330 -0.065360 -18.218464
Se 19.559287 1.189247 -14.673544
Se 21.732330 -0.065360 -11.128624
Se 19.559287 1.189247 -7.583704
Se 21.732330 -0.065360 -4.038784
Se 19.559287 1.189247 -0.493864
Se 21.732330 -0.065360 3.051056
Se 19.559287 1.189247 6.595975
Se 21.732330 -0.065360 10.140895
Se 19.559287 1.189247 13.685815
Se 21.732330 -0.065360 17.230735
Se 19.559287 1.189247 20.775655
Se 21.732330 -0.065360 24.320575
Se 19.559287 1.189247 27.865495
Se 21.732330 -0.065360 31.410415
Se 17.386245 4.953067 -28.853224
Se 19.559287 3.698460 -25.308304
Se 17.386245 4.953067 -21.763384
Se 19.559287 3.698460 -18.218464
Se 17.386245 4.953067 -14.673544
Se 19.559287 3.698460 -11.128624
Se 17.386245 4.953067 -7.583704
Se 19.559287 3.698460 -4.038784
Se 17.386245 4.953067 -0.493864
Se 19.559287 3.698460 3.051056
Se 17.386245 4.953067 6.595975
Se 19.559287 3.698460 10.140895
Se 17.386245 4.953067 13.685815
Se 19.559287 3.698460 17.230735
Se 17.386245 4.953067 20.775655
Se 19.559287 3.698460 24.320575
Se 17.386245 4.953067 27.865495
Se 19.559287 3.698460 31.410415
Se 15.213202 8.716887 -28.853224
Se 17.386245 7.462281 -25.308304
Se 15.213202 8.716887 -21.763384
Se 17.386245 7.462281 -18.218464
Se 15.213202 8.716887 -14.673544
Se 17.386245 7.462281 -11.128624
Se 15.213202 8.716887 -7.583704
Se 17.386245 7.462281 -4.038784
Se 15.213202 8.716887 -0.493864
Se 17.386245 7.462281 3.051056
Se 15.213202 8.716887 6.595975
Se 17.386245 7.462281 10.140895
Se 15.213202 8.716887 13.685815
Se 17.386245 7.462281 17.230735
Se 15.213202 8.716887 20.775655
Se 17.386245 7.462281 24.320575
Se 15.213202 8.716887 27.865495
Se 17.386245 7.462281 31.410415
Se 13.040159 12.480708 -28.853224
Se 15.213202 11.226101 -25.308304
Se 13.040159 12.480708 -21.763384
Se 15.213202 11.226101 -18.218464
Se 13.040159 12.480708 -14.673544
Se 15.213202 11.226101 -11.128624
Se 13.040159 12.480708 -7.583704
Se 15.213202 11.226101 -4.038784
Se 13.040159 12.480708 -0.493864
Se 15.213202 11.226101 3.051056
Se 13.040159 12.480708 6.595975
Se 15.213202 11.226101 10.140895
Se 13.040159 12.480708 13.685815
Se 15.213202 11.226101 17.230735
Se 13.040159 12.480708 20.775655
Se 15.213202 11.226101 24.320575
Se 13.040159 12.480708 27.865495
Se 15.213202 11.226101 31.410415
Se 10.867116 16.244528 -28.853224
Se 13.040159 14.989921 -25.308304
Se 10.867116 16.244528 -21.763384
Se 13.040159 14.989921 -18.218464
Se 10.867116 16.244528 -14.673544
Se 13.040159 14.989921 -11.128624
Se 10.867116 16.244528 -7.583704
Se 13.040159 14.989921 -4.038784
Se 10.867116 16.244528 -0.493864
Se 13.040159 14.989921 3.051056
Se 10.867116 16.244528 6.595975
Se 13.040159 14.989921 10.140895
Se 10.867116 16.244528 13.685815
Se 13.040159 14.989921 17.230735
Se 10.867116 16.244528 20.775655
Se 13.040159 14.989921 24.320575
Se 10.867116 16.244528 27.865495
Se 13.040159 14.989921 31.410415
Se 8.694074 20.008349 -28.853224
Se 10.867116 18.753742 -25.308304
Se 8.694074 20.008349 -21.763384
Se 10.867116 18.753742 -18.218464
Se 8.694074 20.008349 -14.673544
Se 10.867116 18.753742 -11.128624
Se 8.694074 20.008349 -7.583704
Se 10.867116 18.753742 -4.038784
Se 8.694074 20.008349 -0.493864
Se 10.867116 18.753742 3.051056
Se 8.694074 20.008349 6.595975
Se 10.867116 18.753742 10.140895
Se 8.694074 20.008349 13.685815
Se 10.867116 18.753742 17.230735
Se 8.694074 20.008349 20.775655
Se 10.867116 18.753742 24.320575
Se 8.694074 20.008349 27.865495
Se 10.867116 18.753742 31.410415
Se 6.521031 23.772169 -28.853224
Se 8.694074 22.517562 -25.308304
Se 6.521031 23.772169 -21.763384
Se 8.694074 22.517562 -18.218464
Se 6.521031 23.772169 -14.673544
Se 8.694074 22.517562 -11.128624
Se 6.521031 23.772169 -7.583704
Se 8.694074 22.517562 -4.038784
Se 6.521031 23.772169 -0.493864
Se 8.694074 22.517562 3.051056
Se 6.521031 23.772169 6.595975
Se 8.694074 22.517562 10.140895
Se 6.521031 23.772169 13.685815
Se 8.694074 22.517562 17.230735
Se 6.521031 23.772169 20.775655
Se 8.694074 22.517562 24.320575
Se 6.521031 23.772169 27.865495
Se 8.694074 22.517562 31.410415
Se 4.347988 27.535989 -28.853224
Se 6.521031 26.281382 -25.308304
Se 4.347988 27.535989 -21.763384
Se 6.521031 26.281382 -18.218464
Se 4.347988 27.535989 -14.673544
Se 6.521031 26.281382 -11.128624
Se 4.347988 27.535989 -7.583704
Se 6.521031 26.281382 -4.038784
Se 4.347988 27.535989 -0.493864
Se 6.521031 26.281382 3.051056
Se 4.347988 27.535989 6.595975
Se 6.521031 26.281382 10.140895
Se 4.347988 27.535989 13.685815
Se 6.521031 26.281382 17.230735
Se 4.347988 27.535989 20.775655
Se 6.521031 26.281382 24.320575
Se 4.347988 27.535989 27.865495
Se 6.521031 26.281382 31.410415
Se 2.174946 31.299810 -28.853224
Se 4.347988 30.045203 -25.308304
Se 2.174946 31.299810 -21.763384
Se 4.347988 30.045203 -18.218464
Se 2.174946 31.299810 -14.673544
Se 4.347988 30.045203 -11.128624
Se 2.174946 31.299810 -7.583704
Se 4.347988 30.045203 -4.038784
Se 2.174946 31.299810 -0.493864
Se 4.347988 30.045203 3.051056
Se 2.174946 31.299810 6.595975
Se 4.347988 30.045203 10.140895
Se 2.174946 31.299810 13.685815
Se 4.347988 30.045203 17.230735
Se 2.174946 31.299810 20.775655
Se 4.347988 30.045203 24.320575
Se 2.174946 31.299810 27.865495
Se 4.347988 30.045203 31.410415
Se 30.424501 -10.102214 -28.853224
Se 30.424501 -10.102214 -21.763384
Se 30.424501 -10.102214 -14.673544
Se 30.424501 -10.102214 -7.583704
Se 30.424501 -10.102214 -0.493864
Se 30.424501 -10.102214 6.595975
Se 30.424501 -10.102214 13.685815
Se 30.424501 -10.102214 20.775655
Se 30.424501 -10.102214 27.865495
Se 28.251458 -6.338394 -28.853224
Se 30.424501 -7.593001 -25.308304
Se 28.251458 -6.338394 -21.763384
Se 30.424501 -7.593001 -18.218464
Se 28.251458 -6.338394 -14.673544
Se 30.424501 -7.593001 -11.128624
Se 28.251458 -6.338394 -7.583704
Se 30.424501 -7.593001 -4.038784
Se 28.251458 -6.338394 -0.493864
Se 30.424501 -7.593001 3.051056
Se 28.251458 -6.338394 6.595975
Se 30.424501 -7.593001 10.140895
Se 28.251458 -6.338394 13.685815
Se 30.424501 -7.593001 17.230735
Se 28.251458 -6.338394 20.775655
Se 30.424501 -7.593001 24.320575
Se 28.251458 -6.338394 27.865495
Se 26.078415 -2.574574 -28.853224
Se 28.251458 -3.829180 -25.308304
Se 26.078415 -2.574574 -21.763384
Se 28.251458 -3.829180 -18.218464
Se 26.078415 -2.574574 -14.673544
Se 28.251458 -3.829180 -11.128624
Se 26.078415 -2.574574 -7.583704
Se 28.251458 -3.829180 -4.038784
Se 26.078415 -2.574574 -0.493864
Se 28.251458 -3.829180 3.051056
Se 26.078415 -2.574574 6.595975
Se 28.251458 -3.829180 10.140895
Se 26.078415 -2.574574 13.685815
Se 28.251458 -3.829180 17.230735
Se 26.078415 -2.574574 20.775655
Se 28.251458 -3.829180 24.320575
Se 26.078415 -2.574574 27.865495
Se 28.251458 -3.829180 31.410415
Se 23.905373 1.189247 -28.853224
Se 26.078415 -0.065360 -25.308304
Se 23.905373 1.189247 -21.763384
Se 26.078415 -0.065360 -18.218464
Se 23.905373 1.189247 -14.673544
Se 26.078415 -0.065360 -11.128624
Se 23.905373 1.189247 -7.583704
Se 26.078415 -0.065360 -4.038784
Se 23.905373 1.189247 -0.493864
Se 26.078415 -0.065360 3.051056
Se 23.905373 1.189247 6.595975
Se 26.078415 -0.065360 10.140895
Se 23.905373 1.189247 13.685815
Se 26.078415 -0.065360 17.230735
Se 23.905373 1.189247 20.775655
Se 26.078415 -0.065360 24.320575
Se 23.905373 1.189247 27.865495
Se 26.078415 -0.065360 31.410415
Se 21.732330 4.953067 -28.853224
Se 23.905373 3.698460 -25.308304
Se 21.732330 4.953067 -21.763384
Se 23.905373 3.698460 -18.218464
Se 21.732330 4.953067 -14.673544
Se 23.905373 3.698460 -11.128624
Se 21.732330 4.953067 -7.583704
Se 23.905373 3.698460 -4.038784
Se 21.732330 4.953067 -0.493864
Se 23.905373 3.698460 3.051056
Se 21.732330 4.953067 6.595975
Se 23.905373 3.698460 10.140895
Se 21.732330 4.953067 13.685815
Se 23.905373 3.698460 17.230735
Se 21.732330 4.953067 20.775655
Se 23.905373 3.698460 24.320575
Se 21.732330 4.953067 27.865495
Se 23.905373 3.698460 31.410415
Se 19.559287 8.716887 -28.853224
Se 21.732330 7.462281 -25.308304
Se 19.559287 8.716887 -21.763384
Se 21.732330 7.462281 -18.218464
Se 19.559287 8.716887 -14.673544
Se 21.732330 7.462281 -11.128624
Se 19.559287 8.716887 -7.583704
Se 21.732330 7.462281 -4.038784
Se 19.559287 8.716887 -0.493864
Se 21.732330 7.462281 3.051056
Se 19.559287 8.716887 6.595975
Se 21.732330 7.462281 10.140895
Se 19.559287 8.716887 13.685815
Se 21.732330 7.462281 17.230735
Se 19.559287 8.716887 20.775655
Se 21.732330 7.462281 24.320575
Se 19.559287 8.716887 27.865495
Se 21.732330 7.462281 31.410415
Se 17.386245 12.480708 -28.853224
Se 19.559287 11.226101 -25.308304
Se 17.386245 12.480708 -21.763384
Se 19.559287 11.226101 -18.218464
Se 17.386245 12.480708 -14.673544
Se 19.559287 11.226101 -11.128624
Se 17.386245 12.480708 -7.583704
Se 19.559287 11.226101 -4.038784
Se 17.386245 12.480708 -0.493864
Se 19.559287 11.226101 3.051056
Se 17.386245 12.480708 6.595975
Se 19.559287 11.226101 10.140895
Se 17.386245 12.480708 13.685815
Se 19.559287 11.226101 17.230735
Se 17.386245 12.480708 20.775655
Se 19.559287 11.226101 24.320575
Se 17.386245 12.480708 27.865495
Se 19.559287 11.226101 31.410415
Se 15.213202 16.244528 -28.853224
Se 17.386245 14.989921 -25.308304
Se 15.213202 16.244528 -21.763384
Se 17.386245 14.989921 -18.218464
Se 15.213202 16.244528 -14.673544
Se 17.386245 14.989921 -11.128624
Se 15.213202 16.244528 -7.583704
Se 17.386245 14.989921 -4.038784
Se 15.213202 16.244528 -0.493864
Se 17.386245 14.989921 3.051056
Se 15.213202 16.244528 6.595975
Se 17.386245 14.989921 10.140895
Se 15.213202 16.244528 13.685815
Se 17.386245 14.989921 17.230735
Se 15.213202 16.244528 20.775655
Se 17.386245 14.989921 24.320575
Se 15.213202 16.244528 27.865495
Se 17.386245 14.989921 31.410415
Se 13.040159 20.008349 -28.853224
Se 15.213202 18.753742 -25.308304
Se 13.040159 20.008349 -21.763384
Se 15.213202 18.753742 -18.218464
Se 13.040159 20.008349 -14.673544
Se 15.213202 18.753742 -11.128624
Se 13.040159 20.008349 -7.583704
Se 15.213202 18.753742 -4.038784
Se 13.040159 20.008349 -0.493864
Se 15.213202 18.753742 3.051056
Se 13.040159 20.008349 6.595975
Se 15.213202 18.753742 10.140895
Se 13.040159 20.008349 13.685815
Se 15.213202 18.753742 17.230735
Se 13.040159 20.008349 20.775655
Se 15.213202 18.753742 24.320575
Se 13.040159 20.008349 27.865495
Se 15.213202 18.753742 31.410415
Se 10.867116 23.772169 -28.853224
Se 13.040159 22.517562 -25.308304
Se 10.867116 23.772169 -21.763384
Se 13.040159 22.517562 -18.218464
Se 10.867116 23.772169 -14.673544
Se 13.040159 22.517562 -11.128624
Se 10.867116 23.772169 -7.583704
Se 13.040159 22.517562 -4.038784
Se 10.867116 23.772169 -0.493864
Se 13.040159 22.517562 3.051056
Se 10.867116 23.772169 6.595975
Se 13.040159 22.517562 10.140895
Se 10.867116 23.772169 13.685815
Se 13.040159 22.517562 17.230735
Se 10.867116 23.772169 20.775655
Se 13.040159 22.517562 24.320575
Se 10.867116 23.772169 27.865495
Se 13.040159 22.517562 31.410415
Se 8.694074 27.535989 -28.853224
Se 10.867116 26.281382 -25.308304
Se 8.694074 27.535989 -21.763384
Se 10.867116 26.281382 -18.218464
Se 8.694074 27.535989 -14.673544
Se 10.867116 26.281382 -11.128624
Se 8.694074 27.535989 -7.583704
Se 10.867116 26.281382 -4.038784
Se 8.694074 27.535989 -0.493864
Se 10.867116 26.281382 3.051056
Se 8.694074 27.535989 6.595975
Se 10.867116 26.281382 10.140895
Se 8.694074 27.535989 13.685815
Se 10.867116 26.281382 17.230735
Se 8.694074 27.535989 20.775655
Se 10.867116 26.281382 24.320575
Se 8.694074 27.535989 27.865495
Se 10.867116 26.281382 31.410415
Se 6.521031 31.299810 -28.853224
Se 8.694074 30.045203 -25.308304
Se 6.521031 31.299810 -21.763384
Se 8.694074 30.045203 -18.218464
Se 6.521031 31.299810 -14.673544
Se 8.694074 30.045203 -11.128624
Se 6.521031 31.299810 -7.583704
Se 8.694074 30.045203 -4.038784
Se 6.521031 31.299810 -0.493864
Se 8.694074 30.045203 3.051056
Se 6.521031 31.299810 6.595975
Se 8.694074 30.045203 10.140895
Se 6.521031 31.299810 13.685815
Se 8.694074 30.045203 17.230735
Se 6.521031 31.299810 20.775655
Se 8.694074 30.045203 24.320575
Se 6.521031 31.299810 27.865495
Se 8.694074 30.045203 31.410415
Se 32.597543 -6.338394 -28.853224
Se 32.597543 -6.338394 -21.763384
Se 32.597543 -6.338394 -14.673544
Se 32.597543 -6.338394 -7.583704
Se 32.597543 -6.338394 -0.493864
Se 32.597543 -6.338394 6.595975
Se 32.597543 -6.338394 13.685815
Se 32.597543 -6.338394 20.775655
Se 32.597543 -6.338394 27.865495
Se 30.424501 -2.574574 -28.853224
Se 32.597543 -3.829180 -25.308304
Se 30.424501 -2.574574 -21.763384
Se 32.597543 -3.829180 -18.218464
Se 30.424501 -2.574574 -14.673544
Se 32.597543 -3.829180 -11.128624
Se 30.424501 -2.574574 -7.583704
Se 32.597543 -3.829180 -4.038784
Se 30.424501 -2.574574 -0.493864
Se 32.597543 -3.829180 3.051056
Se 30.424501 -2.574574 6.595975
Se 32.597543 -3.829180 10.140895
Se 30.424501 -2.574574 13.685815
Se 32.597543 -3.829180 17.230735
Se 30.424501 -2.574574 20.775655
Se 32.597543 -3.829180 24.320575
Se 30.424501 -2.574574 27.865495
Se 28.251458 1.189247 -28.853224
Se 30.424501 -0.065360 -25.308304
Se 28.251458 1.189247 -21.763384
Se 30.424501 -0.065360 -18.218464
Se 28.251458 1.189247 -14.673544
Se 30.424501 -0.065360 -11.128624
Se 28.251458 1.189247 -7.583704
Se 30.424501 -0.065360 -4.038784
Se 28.251458 1.189247 -0.493864
Se 30.424501 -0.065360 3.051056
Se 28.251458 1.189247 6.595975
Se 30.424501 -0.065360 10.140895
Se 28.251458 1.189247 13.685815
Se 30.424501 -0.065360 17.230735
Se 28.251458 1.189247 20.775655
Se 30.424501 -0.065360 24.320575
Se 28.251458 1.189247 27.865495
Se 30.424501 -0.065360 31.410415
Se 26.078415 4.953067 -28.853224
Se 28.251458 3.698460 -25.308304
Se 26.078415 4.953067 -21.763384
Se 28.251458 3.698460 -18.218464
Se 26.078415 4.953067 -14.673544
Se 28.251458 3.698460 -11.128624
Se 26.078415 4.953067 -7.583704
Se 28.251458 3.698460 -4.038784
Se 26.078415 4.953067 -0.493864
Se 28.251458 3.698460 3.051056
Se 26.078415 4.953067 6.595975
Se 28.251458 3.698460 10.140895
Se 26.078415 4.953067 13.685815
Se 28.251458 3.698460 17.230735
Se 26.078415 4.953067 20.775655
Se 28.251458 3.698460 24.320575
Se 26.078415 4.953067 27.865495
Se 28.251458 3.698460 31.410415
Se 23.905373 8.716887 -28.853224
Se 26.078415 7.462281 -25.308304
Se 23.905373 8.716887 -21.763384
Se 26.078415 7.462281 -18.218464
Se 23.905373 8.716887 -14.673544
Se 26.078415 7.462281 -11.128624
Se 23.905373 8.716887 -7.583704
Se 26.078415 7.462281 -4.038784
Se 23.905373 8.716887 -0.493864
Se 26.078415 7.462281 3.051056
Se 23.905373 8.716887 6.595975
Se 26.078415 7.462281 10.140895
Se 23.905373 8.716887 13.685815
Se 26.078415 7.462281 17.230735
Se 23.905373 8.716887 20.775655
Se 26.078415 7.462281 24.320575
Se 23.905373 8.716887 27.865495
Se 26.078415 7.462281 31.410415
Se 21.732330 12.480708 -28.853224
Se 23.905373 11.226101 -25.308304
Se 21.732330 12.480708 -21.763384
Se 23.905373 11.226101 -18.218464
Se 21.732330 12.480708 -14.673544
Se 23.905373 11.226101 -11.128624
Se 21.732330 12.480708 -7.583704
Se 23.905373 11.226101 -4.038784
Se 21.732330 12.480708 -0.493864
Se 23.905373 11.226101 3.051056
Se 21.732330 12.480708 6.595975
Se 23.905373 11.226101 10.140895
Se 21.732330 12.480708 13.685815
Se 23.905373 11.226101 17.230735
Se 21.732330 12.480708 20.775655
Se 23.905373 11.226101 24.320575
Se 21.732330 12.480708 27.865495
Se 23.905373 11.226101 31.410415
Se 19.559287 16.244528 -28.853224
Se 21.732330 14.989921 -25.308304
Se 19.559287 16.244528 -21.763384
Se 21.732330 14.989921 -18.218464
Se 19.559287 16.244528 -14.673544
Se 21.732330 14.989921 -11.128624
Se 19.559287 16.244528 -7.583704
Se 21.732330 14.989921 -4.038784
Se 19.559287 16.244528 -0.493864
Se 21.732330 14.989921 3.051056
Se 19.559287 16.244528 6.595975
Se 21.732330 14.989921 10.140895
Se 19.559287 16.244528 13.685815
Se 21.732330 14.989921 17.230735
Se 19.559287 16.244528 20.775655
Se 21.732330 14.989921 24.320575
Se 19.559287 16.244528 27.865495
Se 21.732330 14.989921 31.410415
Se 17.386245 20.008349 -28.853224
Se 19.559287 18.753742 -25.308304
Se 17.386245 20.008349 -21.763384
Se 19.559287 18.753742 -18.218464
Se 17.386245 20.008349 -14.673544
Se 19.559287 18.753742 -11.128624
Se 17.386245 20.008349 -7.583704
Se 19.559287 18.753742 -4.038784
Se 17.386245 20.008349 -0.493864
Se 19.559287 18.753742 3.051056
Se 17.386245 20.008349 6.595975
Se 19.559287 18.753742 10.140895
Se 17.386245 20.008349 13.685815
Se 19.559287 18.753742 17.230735
Se 17.386245 20.008349 20.775655
Se 19.559287 18.753742 24.320575
Se 17.386245 20.008349 27.865495
Se 19.559287 18.753742 31.410415
Se 15.213202 23.772169 -28.853224
Se 17.386245 22.517562 -25.308304
Se 15.213202 23.772169 -21.763384
Se 17.386245 22.517562 -18.218464
Se 15.213202 23.772169 -14.673544
Se 17.386245 22.517562 -11.128624
Se 15.213202 23.772169 -7.583704
Se 17.386245 22.517562 -4.038784
Se 15.213202 23.772169 -0.493864
Se 17.386245 22.517562 3.051056
Se 15.213202 23.772169 6.595975
Se 17.386245 22.517562 10.140895
Se 15.213202 23.772169 13.685815
Se 17.386245 22.517562 17.230735
Se 15.213202 23.772169 20.775655
Se 17.386245 22.517562 24.320575
Se 15.213202 23.772169 27.865495
Se 17.386245 22.517562 31.410415
Se 13.040159 27.535989 -28.853224
Se 15.213202 26.281382 -25.308304
Se 13.040159 27.535989 -21.763384
Se 15.213202 26.281382 -18.218464
Se 13.040159 27.535989 -14.673544
Se 15.213202 26.281382 -11.128624
Se 13.040159 27.535989 -7.583704
Se 15.213202 26.281382 -4.038784
Se 13.040159 27.535989 -0.493864
Se 15.213202 26.281382 3.051056
Se 13.040159 27.535989 6.595975
Se 15.213202 26.281382 10.140895
Se 13.040159 27.535989 13.685815
Se 15.213202 26.281382 17.230735
Se 13.040159 27.535989 20.775655
Se 15.213202 26.281382 24.320575
Se 13.040159 27.535989 27.865495
Se 15.213202 26.281382 31.410415
Se 10.867116 31.299810 -28.853224
Se 13.040159 30.045203 -25.308304
Se 10.867116 31.299810 -21.763384
Se 13.040159 30.045203 -18.218464
Se 10.867116 31.299810 -14.673544
Se 13.040159 30.045203 -11.128624
Se 10.867116 31.299810 -7.583704
Se 13.040159 30.045203 -4.038784
Se 10.867116 31.299810 -0.493864
Se 13.040159 30.045203 3.051056
Se 10.867116 31.299810 6.595975
Se 13.040159 30.045203 10.140895
Se 10.867116 31.299810 13.685815
Se 13.040159 30.045203 17.230735
Se 10.867116 31.299810 20.775655
Se 13.040159 30.045203 24.320575
Se 10.867116 31.299810 27.865495
Se 13.040159 30.045203 31.410415
Se 34.770586 -2.574574 -28.853224
Se 34.770586 -2.574574 -21.763384
Se 34.770586 -2.574574 -14.673544
Se 34.770586 -2.574574 -7.583704
Se 34.770586 -2.574574 -0.493864
Se 34.770586 -2.574574 6.595975
Se 34.770586 -2.574574 13.685815
Se 34.770586 -2.574574 20.775655
Se 34.770586 -2.574574 27.865495
Se 32.597543 1.189247 -28.853224
Se 34.770586 -0.065360 -25.308304
Se 32.597543 1.189247 -21.763384
Se 34.770586 -0.065360 -18.218464
Se 32.597543 1.189247 -14.673544
Se 34.770586 -0.065360 -11.128624
Se 32.597543 1.189247 -7.583704
Se 34.770586 -0.065360 -4.038784
Se 32.597543 1.189247 -0.493864
Se 34.770586 -0.065360 3.051056
Se 32.597543 1.189247 6.595975
Se 34.770586 -0.065360 10.140895
Se 32.597543 1.189247 13.685815
Se 34.770586 -0.065360 17.230735
Se 32.597543 1.189247 20.775655
Se 34.770586 -0.065360 24.320575
Se 32.597543 1.189247 27.865495
Se 34.770586 -0.065360 31.410415
Se 30.424501 4.953067 -28.853224
Se 32.597543 3.698460 -25.308304
Se 30.424501 4.953067 -21.763384
Se 32.597543 3.698460 -18.218464
Se 30.424501 4.953067 -14.673544
Se 32.597543 3.698460 -11.128624
Se 30.424501 4.953067 -7.583704
Se 32.597543 3.698460 -4.038784
Se 30.424501 4.953067 -0.493864
Se 32.597543 3.698460 3.051056
Se 30.424501 4.953067 6.595975
Se 32.597543 3.698460 10.140895
Se 30.424501 4.953067 13.685815
Se 32.597543 3.698460 17.230735
Se 30.424501 4.953067 20.775655
Se 32.597543 3.698460 24.320575
Se 30.424501 4.953067 27.865495
Se 32.597543 3.698460 31.410415
Se 28.251458 8.716887 -28.853224
Se 30.424501 7.462281 -25.308304
Se 28.251458 8.716887 -21.763384
Se 30.424501 7.462281 -18.218464
Se 28.251458 8.716887 -14.673544
Se 30.424501 7.462281 -11.128624
Se 28.251458 8.716887 -7.583704
Se 30.424501 7.462281 -4.038784
Se 28.251458 8.716887 -0.493864
Se 30.424501 7.462281 3.051056
Se 28.251458 8.716887 6.595975
Se 30.424501 7.462281 10.140895
Se 28.251458 8.716887 13.685815
Se 30.424501 7.462281 17.230735
Se 28.251458 8.716887 20.775655
Se 30.424501 7.462281 24.320575
Se 28.251458 8.716887 27.865495
Se 30.424501 7.462281 31.410415
Se 28.251458 11.226101 -32.398144
Se 26.078415 12.480708 -28.853224
Se 28.251458 11.226101 -25.308304
Se 26.078415 12.480708 -21.763384
Se 28.251458 11.226101 -18.218464
Se 26.078415 12.480708 -14.673544
Se 28.251458 11.226101 -11.128624
Se 26.078415 12.480708 -7.583704
Se 28.251458 11.226101 -4.038784
Se 26.078415 12.480708 -0.493864
Se 28.251458 11.226101 3.051056
Se 26.078415 12.480708 6.595975
Se 28.251458 11.226101 10.140895
Se 26.078415 12.480708 13.685815
Se 28.251458 11.226101 17.230735
Se 26.078415 12.480708 20.775655
Se 28.251458 11.226101 24.320575
Se 26.078415 12.480708 27.865495
Se 28.251458 11.226101 31.410415
Se 23.905373 16.244528 -28.853224
Se 26.078415 14.989921 -25.308304
Se 23.905373 16.244528 -21.763384
Se 26.078415 14.989921 -18.218464
Se 23.905373 16.244528 -14.673544
Se 26.078415 14.989921 -11.128624
Se 23.905373 16.244528 -7.583704
Se 26.078415 14.989921 -4.038784
Se 23.905373 16.244528 -0.493864
Se 26.078415 14.989921 3.051056
Se 23.905373 16.244528 6.595975
Se 26.078415 14.989921 10.140895
Se 23.905373 16.244528 13.685815
Se 26.078415 14.989921 17.230735
Se 23.905373 16.244528 20.775655
Se 26.078415 14.989921 24.320575
Se 23.905373 16.244528 27.865495
Se 26.078415 14.989921 31.410415
Se 21.732330 20.008349 -28.853224
Se 23.905373 18.753742 -25.308304
Se 21.732330 20.008349 -21.763384
Se 23.905373 18.753742 -18.218464
Se 21.732330 20.008349 -14.673544
Se 23.905373 18.753742 -11.128624
Se 21.732330 20.008349 -7.583704
Se 23.905373 18.753742 -4.038784
Se 21.732330 20.008349 -0.493864
Se 23.905373 18.753742 3.051056
Se 21.732330 20.008349 6.595975
Se 23.905373 18.753742 10.140895
Se 21.732330 20.008349 13.685815
Se 23.905373 18.753742 17.230735
Se 21.732330 20.008349 20.775655
Se 23.905373 18.753742 24.320575
Se 21.732330 20.008349 27.865495
Se 23.905373 18.753742 31.410415
Se 21.732330 22.517562 -32.398144
Se 19.559287 23.772169 -28.853224
Se 21.732330 22.517562 -25.308304
Se 19.559287 23.772169 -21.763384
Se 21.732330 22.517562 -18.218464
Se 19.559287 23.772169 -14.673544
Se 21.732330 22.517562 -11.128624
Se 19.559287 23.772169 -7.583704
Se 21.732330 22.517562 -4.038784
Se 19.559287 23.772169 -0.493864
Se 21.732330 22.517562 3.051056
Se 19.559287 23.772169 6.595975
Se 21.732330 22.517562 10.140895
Se 19.559287 23.772169 13.685815
Se 21.732330 22.517562 17.230735
Se 19.559287 23.772169 20.775655
Se 21.732330 22.517562 24.320575
Se 19.559287 23.772169 27.865495
Se 21.732330 22.517562 31.410415
Se 17.386245 27.535989 -28.853224
Se 19.559287 26.281382 -25.308304
Se 17.386245 27.535989 -21.763384
Se 19.559287 26.281382 -18.218464
Se 17.386245 27.535989 -14.673544
Se 19.559287 26.281382 -11.128624
Se 17.386245 27.535989 -7.583704
Se 19.559287 26.281382 -4.038784
Se 17.386245 27.535989 -0.493864
Se 19.559287 26.281382 3.051056
Se 17.386245 27.535989 6.595975
Se 19.559287 26.281382 10.140895
Se 17.386245 27.535989 13.685815
Se 19.559287 26.281382 17.230735
Se 17.386245 27.535989 20.775655
Se 19.559287 26.281382 24.320575
Se 17.386245 27.535989 27.865495
Se 19.559287 26.281382 31.410415
Se 15.213202 31.299810 -28.853224
Se 17.386245 30.045203 -25.308304
Se 15.213202 31.299810 -21.763384
Se 17.386245 30.045203 -18.218464
Se 15.213202 31.299810 -14.673544
Se 17.386245 30.045203 -11.128624
Se 15.213202 31.299810 -7.583704
Se 17.386245 30.045203 -4.038784
Se 15.213202 31.299810 -0.493864
Se 17.386245 30.045203 3.051056
Se 15.213202 31.299810 6.595975
Se 17.386245 30.045203 10.140895
Se 15.213202 31.299810 13.685815
Se 17.386245 30.045203 17.230735
Se 15.213202 31.299810 20.775655
Se 17.386245 30.045203 24.320575
Se 15.213202 31.299810 27.865495
Se 17.386245 30.045203 31.410415
Se 36.943629 1.189247 -28.853224
Se 36.943629 1.189247 -21.763384
Se 36.943629 1.189247 -14.673544
Se 36.943629 1.189247 -7.583704
Se 36.943629 1.189247 -0.493864
Se 36.943629 1.189247 6.595975
Se 36.943629 1.189247 13.685815
Se 36.943629 1.189247 20.775655
Se 36.943629 1.189247 27.865495
Se 34.770586 4.953067 -28.853224
Se 36.943629 3.698460 -25.308304
Se 34.770586 4.953067 -21.763384
Se 36.943629 3.698460 -18.218464
Se 34.770586 4.953067 -14.673544
Se 36.943629 3.698460 -11.128624
Se 34.770586 4.953067 -7.583704
Se 36.943629 3.698460 -4.038784
Se 34.770586 4.953067 -0.493864
Se 36.943629 3.698460 3.051056
Se 34.770586 4.953067 6.595975
Se 36.943629 3.698460 10.140895
Se 34.770586 4.953067 13.685815
Se 36.943629 3.698460 17.230735
Se 34.770586 4.953067 20.775655
Se 36.943629 3.698460 24.320575
Se 34.770586 4.953067 27.865495
Se 36.943629 3.698460 31.410415
Se 32.597543 8.716887 -28.853224
Se 34.770586 7.462281 -25.308304
Se 32.597543 8.716887 -21.763384
Se 34.770586 7.462281 -18.218464
Se 32.597543 8.716887 -14.673544
Se 34.770586 7.462281 -11.128624
Se 32.597543 8.716887 -7.583704
Se 34.770586 7.462281 -4.038784
Se 32.597543 8.716887 -0.493864
Se 34.770586 7.462281 3.051056
Se 32.597543 8.716887 6.595975
Se 34.770586 7.462281 10.140895
Se 32.597543 8.716887 13.685815
Se 34.770586 7.462281 17.230735
Se 32.597543 8.716887 20.775655
Se 34.770586 7.462281 24.320575
Se 32.597543 8.716887 27.865495
Se 34.770586 7.462281 31.410415
Se 30.424501 12.480708 -28.853224
Se 32.597543 11.226101 -25.308304
Se 30.424501 12.480708 -21.763384
Se 32.597543 11.226101 -18.218464
Se 30.424501 12.480708 -14.673544
Se 32.597543 11.226101 -11.128624
Se 30.424501 12.480708 -7.583704
Se 32.597543 11.226101 -4.038784
Se 30.424501 12.480708 -0.493864
Se 32.597543 11.226101 3.051056
Se 30.424501 12.480708 6.595975
Se 32.597543 11.226101 10.140895
Se 30.424501 12.480708 13.685815
Se 32.597543 11.226101 17.230735
Se 30.424501 12.480708 20.775655
Se 32.597543 11.226101 24.320575
Se 30.424501 12.480708 27.865495
Se 32.597543 11.226101 31.410415
Se 28.251458 16.244528 -28.853224
Se 30.424501 14.989921 -25.308304
Se 28.251458 16.244528 -21.763384
Se 30.424501 14.989921 -18.218464
Se 28.251458 16.244528 -14.673544
Se 30.424501 14.989921 -11.128624
Se 28.251458 16.244528 -7.583704
Se 30.424501 14.989921 -4.038784
Se 28.251458 16.244528 -0.493864
Se 30.424501 14.989921 3.051056
Se 28.251458 16.244528 6.595975
Se 30.424501 14.989921 10.140895
Se 28.251458 16.244528 13.685815
Se 30.424501 14.989921 17.230735
Se 28.251458 16.244528 20.775655
Se 30.424501 14.989921 24.320575
Se 28.251458 16.244528 27.865495
Se 30.424501 14.989921 31.410415
Se 26.078415 20.008349 -28.853224
Se 28.251458 18.753742 -25.308304
Se 26.078415 20.008349 -21.763384
Se 28.251458 18.753742 -18.218464
Se 26.078415 20.008349 -14.673544
Se 28.251458 18.753742 -11.128624
Se 26.078415 20.008349 -7.583704
Se 28.251458 18.753742 -4.038784
Se 26.078415 20.008349 -0.493864
Se 28.251458 18.753742 3.051056
Se 26.078415 20.008349 6.595975
Se 28.251458 18.753742 10.140895
Se 26.078415 20.008349 13.685815
Se 28.251458 18.753742 17.230735
Se 26.078415 20.008349 20.775655
Se 28.251458 18.753742 24.320575
Se 26.078415 20.008349 27.865495
Se 28.251458 18.753742 31.410415
Se 23.905373 23.772169 -28.853224
Se 26.078415 22.517562 -25.308304
Se 23.905373 23.772169 -21.763384
Se 26.078415 22.517562 -18.218464
Se 23.905373 23.772169 -14.673544
Se 26.078415 22.517562 -11.128624
Se 23.905373 23.772169 -7.583704
Se 26.078415 22.517562 -4.038784
Se 23.905373 23.772169 -0.493864
Se 26.078415 22.517562 3.051056
Se 23.905373 23.772169 6.595975
Se 26.078415 22.517562 10.140895
Se 23.905373 23.772169 13.685815
Se 26.078415 22.517562 17.230735
Se 23.905373 23.772169 20.775655
Se 26.078415 22.517562 24.320575
Se 23.905373 23.772169 27.865495
Se 26.078415 22.517562 31.410415
Se 21.732330 27.535989 -28.853224
Se 23.905373 26.281382 -25.308304
Se 21.732330 27.535989 -21.763384
Se 23.905373 26.281382 -18.218464
Se 21.732330 27.535989 -14.673544
Se 23.905373 26.281382 -11.128624
Se 21.732330 27.535989 -7.583704
Se 23.905373 26.281382 -4.038784
Se 21.732330 27.535989 -0.493864
Se 23.905373 26.281382 3.051056
Se 21.732330 27.535989 6.595975
Se 23.905373 26.281382 10.140895
Se 21.732330 27.535989 13.685815
Se 23.905373 26.281382 17.230735
Se 21.732330 27.535989 20.775655
Se 23.905373 26.281382 24.320575
Se 21.732330 27.535989 27.865495
Se 23.905373 26.281382 31.410415
Se 19.559287 31.299810 -28.853224
Se 21.732330 30.045203 -25.308304
Se 19.559287 31.299810 -21.763384
Se 21.732330 30.045203 -18.218464
Se 19.559287 31.299810 -14.673544
Se 21.732330 30.045203 -11.128624
Se 19.559287 31.299810 -7.583704
Se 21.732330 30.045203 -4.038784
Se 19.559287 31.299810 -0.493864
Se 21.732330 30.045203 3.051056
Se 19.559287 31.299810 6.595975
Se 21.732330 30.045203 10.140895
Se 19.559287 31.299810 13.685815
Se 21.732330 30.045203 17.230735
Se 19.559287 31.299810 20.775655
Se 21.732330 30.045203 24.320575
Se 19.559287 31.299810 27.865495
Se 21.732330 30.045203 31.410415
Cl -39.112865 -0.065360 -25.308304
Cl -39.112865 -0.065360 -18.218464
Cl -39.112865 -0.065360 -11.128624
Cl -39.112865 -0.065360 -4.038784
Cl -39.112865 -0.065360 3.051056
Cl -39.112865 -0.065360 10.140895
Cl -39.112865 -0.065360 17.230735
Cl -39.112865 -0.065360 24.320575
Cl -39.112865 -0.065360 31.410415
Cl -15.209396 -33.939743 -32.398144
Cl -15.209396 -33.939743 31.410415
Cl -17.382439 -30.175923 -32.398144
Cl -17.382439 -30.175923 31.410415
Cl -19.555481 -26.412102 -32.398144
Cl -19.555481 -26.412102 31.410415
Cl -21.728524 -22.648282 -32.398144
Cl -21.728524 -22.648282 31.410415
Cl -23.901567 -18.884462 -32.398144
Cl -23.901567 -18.884462 31.410415
Cl -26.074609 -15.120641 -32.398144
Cl -26.074609 -15.120641 31.410415
Cl -28.247652 -11.356821 -32.398144
Cl -28.247652 -11.356821 31.410415
Cl -30.420695 -7.593001 -32.398144
Cl -30.420695 -7.593001 31.410415
Cl -32.593737 -3.829180 -32.398144
Cl -32.593737 -3.829180 31.410415
Cl -34.766780 -0.065360 -32.398144
Cl -36.939823 3.698460 -32.398144
Cl -10.863310 -33.939743 -32.398144
Cl -13.036353 -30.175923 -32.398144
Cl -15.209396 -26.412102 -32.398144
Cl -17.382439 -22.648282 -32.398144
Cl -19.555481 -18.884462 -32.398144
Cl -21.728524 -15.120641 -32.398144
Cl -23.901567 -11.356821 -32.398144
Cl -26.074609 -7.593001 -32.398144
Cl -28.247652 -3.829180 -32.398144
Cl -30.420695 -0.065360 -32.398144
Cl -34.766780 7.462281 -32.398144
Cl -6.517225 -33.939743 -32.398144
Cl -10.863310 -26.412102 -32.398144
Cl -13.036353 -22.648282 -32.398144
Cl -15.209396 -18.884462 -32.398144
Cl -17.382439 -15.120641 -32.398144
Cl -19.555481 -11.356821 -32.398144
Cl -21.728524 -7.593001 -32.398144
Cl -23.901567 -3.829180 -32.398144
Cl -26.074609 -0.065360 -32.398144
Cl -28.247652 3.698460 -32.398144
Cl -30.420695 7.462281 -32.398144
Cl -32.593737 11.226101 -32.398144
Cl -2.171140 -33.939743 -32.398144
Cl -4.344182 -30.175923 -32.398144
Cl -6.517225 -26.412102 -32.398144
Cl -8.690268 -22.648282 -32.398144
Cl -10.863310 -18.884462 -32.398144
Cl -13.036353 -15.120641 -32.398144
Cl -15.209396 -11.356821 -32.398144
Cl -17.382439 -7.593001 -32.398144
Cl -19.555481 -3.829180 -32.398144
Cl -21.728524 -0.065360 -32.398144
Cl -23.901567 3.698460 -32.398144
Cl -26.074609 7.462281 -32.398144
Cl -28.247652 11.226101 -32.398144
Cl -30.420695 14.989921 -32.398144
Cl 2.174946 -33.939743 -32.398144
Cl 0.001903 -30.175923 -32.398144
Cl -2.171140 -26.412102 -32.398144
Cl -4.344182 -22.648282 -32.398144
Cl -6.517225 -18.884462 -32.398144
Cl -8.690268 -15.120641 -32.398144
Cl -10.863310 -11.356821 -32.398144
Cl -13.036353 -7.593001 -32.398144
Cl -15.209396 -3.829180 -32.398144
Cl -17.382439 -0.065360 -32.398144
Cl -19.555481 3.698460 -32.398144
Cl -21.728524 7.462281 -32.398144
Cl -23.901567 11.226101 -32.398144
Cl -28.247652 18.753742 -32.398144
Cl 6.521031 -33.939743 -32.398144
Cl 2.174946 -26.412102 -32.398144
Cl 0.001903 -22.648282 -32.398144
Cl -2.171140 -18.884462 -32.398144
Cl -4.344182 -15.120641 -32.398144
Cl -6.517225 -11.356821 -32.398144
Cl -8.690268 -7.593001 -32.398144
Cl -10.863310 -3.829180 -32.398144
Cl -13.036353 -0.065360 -32.398144
Cl -15.209396 3.698460 -32.398144
Cl -17.382439 7.462281 -32.398144
Cl -19.555481 11.226101 -32.398144
Cl -21.728524 14.989921 -32.398144
Cl -23.901567 18.753742 -32.398144
Cl -26.074609 22.517562 -32.398144
Cl 10.867116 -33.939743 -32.398144
Cl 8.694074 -30.175923 -32.398144
Cl 6.521031 -26.412102 -32.398144
Cl 4.347988 -22.648282 -32.398144
Cl 2.174946 -18.884462 -32.398144
Cl 0.001903 -15.120641 -32.398144
Cl -2.171140 -11.356821 -32.398144
Cl -4.344182 -7.593001 -32.398144
Cl -6.517225 -3.829180 -32.398144
Cl -8.690268 -0.065360 -32.398144
Cl -10.863310 3.698460 -32.398144
Cl -13.036353 7.462281 -32.398144
Cl -15.209396 11.226101 -32.398144
Cl -17.382439 14.989921 -32.398144
Cl -19.555481 18.753742 -32.398144
Cl -21.728524 22.517562 -32.398144
Cl -23.901567 26.281382 -32.398144
Cl 15.213202 -33.939743 -32.398144
Cl 15.213202 -33.939743 31.410415
Cl 13.040159 -30.175923 -32.398144
Cl 10.867116 -26.412102 -32.398144
Cl 8.694074 -22.648282 -32.398144
Cl 6.521031 -18.884462 -32.398144
Cl 4.347988 -15.120641 -32.398144
Cl 2.174946 -11.356821 -32.398144
Cl 0.001903 -7.593001 -32.398144
Cl -2.171140 -3.829180 -32.398144
Cl -4.344182 -0.065360 -32.398144
Cl -6.517225 3.698460 -32.398144
Cl -8.690268 7.462281 -32.398144
Cl -10.863310 11.226101 -32.398144
Cl -13.036353 14.989921 -32.398144
Cl -15.209396 18.753742 -32.398144
Cl -17.382439 22.517562 -32.398144
Cl -21.728524 30.045203 -32.398144
Cl 17.386245 -30.175923 -32.398144
Cl 17.386245 -30.175923 31.410415
Cl 15.213202 -26.412102 -32.398144
Cl 13.040159 -22.648282 -32.398144
Cl 10.867116 -18.884462 -32.398144
Cl 8.694074 -15.120641 -32.398144
Cl 6.521031 -11.356821 -32.398144
Cl 4.347988 -7.593001 -32.398144
Cl 2.174946 -3.829180 -32.398144
Cl 0.001903 -0.065360 -32.398144
Cl -2.171140 3.698460 -32.398144
Cl -4.344182 7.462281 -32.398144
Cl -6.517225 11.226101 -32.398144
Cl -8.690268 14.989921 -32.398144
Cl -10.863310 18.753742 -32.398144
Cl -13.036353 22.517562 -32.398144
Cl -15.209396 26.281382 -32.398144
Cl -17.382439 30.045203 -32.398144
Cl 19.559287 -26.412102 -32.398144
Cl 19.559287 -26.412102 31.410415
Cl 17.386245 -22.648282 -32.398144
Cl 15.213202 -18.884462 -32.398144
Cl 13.040159 -15.120641 -32.398144
Cl 10.867116 -11.356821 -32.398144
Cl 8.694074 -7.593001 -32.398144
Cl 6.521031 -3.829180 -32.398144
Cl 4.347988 -0.065360 -32.398144
Cl 2.174946 3.698460 -32.398144
Cl 0.001903 7.462281 -32.398144
Cl -2.171140 11.226101 -32.398144
Cl -4.344182 14.989921 -32.398144
Cl -6.517225 18.753742 -32.398144
Cl -8.690268 22.517562 -32.398144
Cl -10.863310 26.281382 -32.398144
Cl -13.036353 30.045203 -32.398144
Cl 21.732330 -22.648282 -32.398144
Cl 21.732330 -22.648282 31.410415
Cl 19.559287 -18.884462 -32.398144
Cl 17.386245 -15.120641 -32.398144
Cl 15.213202 -11.356821 -32.398144
Cl 13.040159 -7.593001 -32.398144
Cl 10.867116 -3.829180 -32.398144
Cl 8.694074 -0.065360 -32.398144
Cl 6.521031 3.698460 -32.398144
Cl 4.347988 7.462281 -32.398144
Cl 2.174946 11.226101 -32.398144
Cl 0.001903 14.989921 -32.398144
Cl -2.171140 18.753742 -32.398144
Cl -4.344182 22.517562 -32.398144
Cl -6.517225 26.281382 -32.398144
Cl -8.690268 30.045203 -32.398144
Cl 23.905373 -18.884462 -32.398144
Cl 23.905373 -18.884462 31.410415
Cl 21.732330 -15.120641 -32.398144
Cl 19.559287 -11.356821 -32.398144
Cl 17.386245 -7.593001 -32.398144
Cl 15.213202 -3.829180 -32.398144
Cl 13.040159 -0.065360 -32.398144
Cl 10.867116 3.698460 -32.398144
Cl 8.694074 7.462281 -32.398144
Cl 6.521031 11.226101 -32.398144
Cl 4.347988 14.989921 -32.398144
Cl 2.174946 18.753742 -32.398144
Cl 0.001903 22.517562 -32.398144
Cl -2.171140 26.281382 -32.398144
Cl -4.344182 30.045203 -32.398144
Cl 26.078415 -15.120641 -32.398144
Cl 26.078415 -15.120641 31.410415
Cl 23.905373 -11.356821 -32.398144
Cl 21.732330 -7.593001 -32.398144
Cl 19.559287 -3.829180 -32.398144
Cl 17.386245 -0.065360 -32.398144
Cl 15.213202 3.698460 -32.398144
Cl 13.040159 7.462281 -32.398144
Cl 10.867116 11.226101 -32.398144
Cl 8.694074 14.989921 -32.398144
Cl 6.521031 18.753742 -32.398144
Cl 4.347988 22.517562 -32.398144
Cl 2.174946 26.281382 -32.398144
Cl 0.001903 30.045203 -32.398144
Cl 28.251458 -11.356821 -32.398144
Cl 28.251458 -11.356821 31.410415
Cl 26.078415 -7.593001 -32.398144
Cl 23.905373 -3.829180 -32.398144
Cl 21.732330 -0.065360 -32.398144
Cl 19.559287 3.698460 -32.398144
Cl 17.386245 7.462281 -32.398144
Cl 15.213202 11.226101 -32.398144
Cl 13.040159 14.989921 -32.398144
Cl 10.867116 18.753742 -32.398144
Cl 8.694074 22.517562 -32.398144
Cl 6.521031 26.281382 -32.398144
Cl 4.347988 30.045203 -32.398144
Cl 30.424501 -7.593001 -32.398144
Cl 30.424501 -7.593001 31.410415
Cl 28.251458 -3.829180 -32.398144
Cl 26.078415 -0.065360 -32.398144
Cl 23.905373 3.698460 -32.398144
Cl 21.732330 7.462281 -32.398144
Cl 19.559287 11.226101 -32.398144
Cl 17.386245 14.989921 -32.398144
Cl 15.213202 18.753742 -32.398144
Cl 13.040159 22.517562 -32.398144
Cl 10.867116 26.281382 -32.398144
Cl 8.694074 30.045203 -32.398144
Cl 32.597543 -3.829180 -32.398144
Cl 32.597543 -3.829180 31.410415
Cl 30.424501 -0.065360 -32.398144
Cl 28.251458 3.698460 -32.398144
Cl 26.078415 7.462281 -32.398144
Cl 23.905373 11.226101 -32.398144
Cl 21.732330 14.989921 -32.398144
Cl 19.559287 18.753742 -32.398144
Cl 17.386245 22.517562 -32.398144
Cl 15.213202 26.281382 -32.398144
Cl 13.040159 30.045203 -32.398144
Cl 34.770586 -0.065360 -32.398144
Cl 32.597543 3.698460 -32.398144
Cl 30.424501 7.462281 -32.398144
Cl 26.078415 14.989921 -32.398144
Cl 23.905373 18.753742 -32.398144
Cl 19.559287 26.281382 -32.398144
Cl 17.386245 30.045203 -32.398144
Cl 39.116671 -0.065360 -25.308304
Cl 39.116671 -0.065360 -18.218464
Cl 39.116671 -0.065360 -11.128624
Cl 39.116671 -0.065360 -4.038784
Cl 39.116671 -0.065360 3.051056
Cl 39.116671 -0.065360 10.140895
Cl 39.116671 -0.065360 17.230735
Cl 39.116671 -0.065360 24.320575
Cl 39.116671 -0.065360 31.410415
Cl 36.943629 3.698460 -32.398144
Cl 34.770586 7.462281 -32.398144
Cl 32.597543 11.226101 -32.398144
Cl 30.424501 14.989921 -32.398144
Cl 28.251458 18.753742 -32.398144
Cl 26.078415 22.517562 -32.398144
Cl 23.905373 26.281382 -32.398144
Cl 21.732330 30.045203 -32.398144
Cl -2.171140 33.809023 31.410415
Cl 19.559287 31.299810 34.955335
Cl -41.285908 1.189247 -28.853224
Cl 41.289714 1.189247 -28.853224
Cl -41.285908 1.189247 27.865495
Cl 41.289714 1.189247 27.865495
Cl -19.555481 31.299810 34.955335
Cl 15.213202 33.809023 31.410415
Cl -41.285908 1.189247 -0.493864
Cl 41.289714 1.189247 -0.493864
Cl 2.174946 31.299810 34.955335
Cl -15.209396 33.809023 31.410415
Cl -41.285908 1.189247 -14.673544
Cl 41.289714 1.189247 -14.673544
Cl -10.863310 31.299810 34.955335
Cl 6.521031 33.809023 31.410415
Cl -41.285908 1.189247 13.685815
Cl 41.289714 1.189247 13.685815
Cl 10.867116 31.299810 34.955335
Cl -6.517225 33.809023 31.410415
Cl -41.285908 1.189247 -21.763384
Cl 41.289714 1.189247 -21.763384
Cl -41.285908 1.189247 20.775655
Cl 41.289714 1.189247 20.775655
Cl -41.285908 1.189247 -7.583704
Cl 41.289714 1.189247 -7.583704
Cl -41.285908 1.189247 6.595975
Cl 41.289714 1.189247 6.595975
