9233
ZnS-Zn-Zn4471S4180Cl582-clean
Zn -29.624968 -24.241395 -0.001167
Zn -29.624968 -18.854030 -5.388533
Zn -29.624968 -21.547713 -2.694850
Zn -29.624968 -18.854030 -0.001167
Zn -29.624968 -21.547713 2.692516
Zn -29.624968 -18.854030 5.386199
Zn -29.624968 -13.466664 -10.775898
Zn -29.624968 -16.160347 -8.082216
Zn -29.624968 -13.466664 -5.388533
Zn -29.624968 -16.160347 -2.694850
Zn -29.624968 -13.466664 -0.001167
Zn -29.624968 -16.160347 2.692516
Zn -29.624968 -13.466664 5.386199
Zn -29.624968 -16.160347 8.079882
Zn -29.624968 -13.466664 10.773565
Zn -29.624968 -8.079298 -16.163264
Zn -29.624968 -10.772981 -13.469581
Zn -29.624968 -8.079298 -10.775898
Zn -29.624968 -10.772981 -8.082216
Zn -29.624968 -8.079298 -5.388533
Zn -29.624968 -10.772981 -2.694850
Zn -29.624968 -8.079298 -0.001167
Zn -29.624968 -10.772981 2.692516
Zn -29.624968 -8.079298 5.386199
Zn -29.624968 -10.772981 8.079882
Zn -29.624968 -8.079298 10.773565
Zn -29.624968 -10.772981 13.467247
Zn -29.624968 -8.079298 16.160930
Zn -29.624968 -2.691932 -21.550630
Zn -29.624968 -5.385615 -18.856947
Zn -29.624968 -2.691932 -16.163264
Zn -29.624968 -5.385615 -13.469581
Zn -29.624968 -2.691932 -10.775898
Zn -29.624968 -5.385615 -8.082216
Zn -29.624968 -2.691932 -5.388533
Zn -29.624968 -5.385615 -2.694850
Zn -29.624968 -2.691932 -0.001167
Zn -29.624968 -5.385615 2.692516
Zn -29.624968 -2.691932 5.386199
Zn -29.624968 -5.385615 8.079882
Zn -29.624968 -2.691932 10.773565
Zn -29.624968 -5.385615 13.467247
Zn -29.624968 -2.691932 16.160930
Zn -29.624968 -5.385615 18.854613
Zn -29.624968 -2.691932 21.548296
Zn -29.624968 0.001750 -24.244313
Zn -29.624968 2.695433 -21.550630
Zn -29.624968 0.001750 -18.856947
Zn -29.624968 2.695433 -16.163264
Zn -29.624968 0.001750 -13.469581
Zn -29.624968 2.695433 -10.775898
Zn -29.624968 0.001750 -8.082216
Zn -29.624968 2.695433 -5.388533
Zn -29.624968 0.001750 -2.694850
Zn -29.624968 2.695433 -0.001167
Zn -29.624968 0.001750 2.692516
Zn -29.624968 2.695433 5.386199
Zn -29.624968 0.001750 8.079882
Zn -29.624968 2.695433 10.773565
Zn -29.624968 0.001750 13.467247
Zn -29.624968 2.695433 16.160930
Zn -29.624968 0.001750 18.854613
Zn -29.624968 2.695433 21.548296
Zn -29.624968 0.001750 24.241979
Zn -29.624968 5.389116 -18.856947
Zn -29.624968 8.082799 -16.163264
Zn -29.624968 5.389116 -13.469581
Zn -29.624968 8.082799 -10.775898
Zn -29.624968 5.389116 -8.082216
Zn -29.624968 8.082799 -5.388533
Zn -29.624968 5.389116 -2.694850
Zn -29.624968 8.082799 -0.001167
Zn -29.624968 5.389116 2.692516
Zn -29.624968 8.082799 5.386199
Zn -29.624968 5.389116 8.079882
Zn -29.624968 8.082799 10.773565
Zn -29.624968 5.389116 13.467247
Zn -29.624968 8.082799 16.160930
Zn -29.624968 5.389116 18.854613
Zn -29.624968 10.776482 -13.469581
Zn -29.624968 13.470165 -10.775898
Zn -29.624968 10.776482 -8.082216
Zn -29.624968 13.470165 -5.388533
Zn -29.624968 10.776482 -2.694850
Zn -29.624968 13.470165 -0.001167
Zn -29.624968 10.776482 2.692516
Zn -29.624968 13.470165 5.386199
Zn -29.624968 10.776482 8.079882
Zn -29.624968 13.470165 10.773565
Zn -29.624968 10.776482 13.467247
Zn -29.624968 16.163848 -8.082216
Zn -29.624968 18.857531 -5.388533
Zn -29.624968 16.163848 -2.694850
Zn -29.624968 18.857531 -0.001167
Zn -29.624968 16.163848 2.692516
Zn -29.624968 18.857531 5.386199
Zn -29.624968 16.163848 8.079882
Zn -29.624968 21.551213 -2.694850
Zn -29.624968 24.244896 -0.001167
Zn -29.624968 21.551213 2.692516
Zn -24.237603 -29.628761 -0.001167
Zn -24.237603 -24.241395 -5.388533
Zn -24.237603 -26.935078 -2.694850
Zn -26.931286 -24.241395 -2.694850
Zn -26.931286 -26.935078 -0.001167
Zn -24.237603 -24.241395 -0.001167
Zn -24.237603 -26.935078 2.692516
Zn -26.931286 -24.241395 2.692516
Zn -24.237603 -24.241395 5.386199
Zn -24.237603 -18.854030 -10.775898
Zn -24.237603 -21.547713 -8.082216
Zn -26.931286 -18.854030 -8.082216
Zn -26.931286 -21.547713 -5.388533
Zn -24.237603 -18.854030 -5.388533
Zn -24.237603 -21.547713 -2.694850
Zn -26.931286 -18.854030 -2.694850
Zn -26.931286 -21.547713 -0.001167
Zn -24.237603 -18.854030 -0.001167
Zn -24.237603 -21.547713 2.692516
Zn -26.931286 -18.854030 2.692516
Zn -26.931286 -21.547713 5.386199
Zn -24.237603 -18.854030 5.386199
Zn -24.237603 -21.547713 8.079882
Zn -26.931286 -18.854030 8.079882
Zn -24.237603 -18.854030 10.773565
Zn -24.237603 -13.466664 -16.163264
Zn -24.237603 -16.160347 -13.469581
Zn -26.931286 -13.466664 -13.469581
Zn -26.931286 -16.160347 -10.775898
Zn -24.237603 -13.466664 -10.775898
Zn -24.237603 -16.160347 -8.082216
Zn -26.931286 -13.466664 -8.082216
Zn -26.931286 -16.160347 -5.388533
Zn -24.237603 -13.466664 -5.388533
Zn -24.237603 -16.160347 -2.694850
Zn -26.931286 -13.466664 -2.694850
Zn -26.931286 -16.160347 -0.001167
Zn -24.237603 -13.466664 -0.001167
Zn -24.237603 -16.160347 2.692516
Zn -26.931286 -13.466664 2.692516
Zn -26.931286 -16.160347 5.386199
Zn -24.237603 -13.466664 5.386199
Zn -24.237603 -16.160347 8.079882
Zn -26.931286 -13.466664 8.079882
Zn -26.931286 -16.160347 10.773565
Zn -24.237603 -13.466664 10.773565
Zn -24.237603 -16.160347 13.467247
Zn -26.931286 -13.466664 13.467247
Zn -24.237603 -13.466664 16.160930
Zn -24.237603 -8.079298 -21.550630
Zn -24.237603 -10.772981 -18.856947
Zn -26.931286 -8.079298 -18.856947
Zn -26.931286 -10.772981 -16.163264
Zn -24.237603 -8.079298 -16.163264
Zn -24.237603 -10.772981 -13.469581
Zn -26.931286 -8.079298 -13.469581
Zn -26.931286 -10.772981 -10.775898
Zn -24.237603 -8.079298 -10.775898
Zn -24.237603 -10.772981 -8.082216
Zn -26.931286 -8.079298 -8.082216
Zn -26.931286 -10.772981 -5.388533
Zn -24.237603 -8.079298 -5.388533
Zn -24.237603 -10.772981 -2.694850
Zn -26.931286 -8.079298 -2.694850
Zn -26.931286 -10.772981 -0.001167
Zn -24.237603 -8.079298 -0.001167
Zn -24.237603 -10.772981 2.692516
Zn -26.931286 -8.079298 2.692516
Zn -26.931286 -10.772981 5.386199
Zn -24.237603 -8.079298 5.386199
Zn -24.237603 -10.772981 8.079882
Zn -26.931286 -8.079298 8.079882
Zn -26.931286 -10.772981 10.773565
Zn -24.237603 -8.079298 10.773565
Zn -24.237603 -10.772981 13.467247
Zn -26.931286 -8.079298 13.467247
Zn -26.931286 -10.772981 16.160930
Zn -24.237603 -8.079298 16.160930
Zn -24.237603 -10.772981 18.854613
Zn -26.931286 -8.079298 18.854613
Zn -24.237603 -8.079298 21.548296
Zn -24.237603 -2.691932 -26.937996
Zn -24.237603 -5.385615 -24.244313
Zn -26.931286 -2.691932 -24.244313
Zn -26.931286 -5.385615 -21.550630
Zn -24.237603 -2.691932 -21.550630
Zn -24.237603 -5.385615 -18.856947
Zn -26.931286 -2.691932 -18.856947
Zn -26.931286 -5.385615 -16.163264
Zn -24.237603 -2.691932 -16.163264
Zn -24.237603 -5.385615 -13.469581
Zn -26.931286 -2.691932 -13.469581
Zn -26.931286 -5.385615 -10.775898
Zn -24.237603 -2.691932 -10.775898
Zn -24.237603 -5.385615 -8.082216
Zn -26.931286 -2.691932 -8.082216
Zn -26.931286 -5.385615 -5.388533
Zn -24.237603 -2.691932 -5.388533
Zn -24.237603 -5.385615 -2.694850
Zn -26.931286 -2.691932 -2.694850
Zn -26.931286 -5.385615 -0.001167
Zn -24.237603 -2.691932 -0.001167
Zn -24.237603 -5.385615 2.692516
Zn -26.931286 -2.691932 2.692516
Zn -26.931286 -5.385615 5.386199
Zn -24.237603 -2.691932 5.386199
Zn -24.237603 -5.385615 8.079882
Zn -26.931286 -2.691932 8.079882
Zn -26.931286 -5.385615 10.773565
Zn -24.237603 -2.691932 10.773565
Zn -24.237603 -5.385615 13.467247
Zn -26.931286 -2.691932 13.467247
Zn -26.931286 -5.385615 16.160930
Zn -24.237603 -2.691932 16.160930
Zn -24.237603 -5.385615 18.854613
Zn -26.931286 -2.691932 18.854613
Zn -26.931286 -5.385615 21.548296
Zn -24.237603 -2.691932 21.548296
Zn -24.237603 -5.385615 24.241979
Zn -26.931286 -2.691932 24.241979
Zn -24.237603 -2.691932 26.935662
Zn -24.237603 0.001750 -29.631679
Zn -26.931286 0.001750 -26.937996
Zn -24.237603 2.695433 -26.937996
Zn -24.237603 0.001750 -24.244313
Zn -26.931286 2.695433 -24.244313
Zn -26.931286 0.001750 -21.550630
Zn -24.237603 2.695433 -21.550630
Zn -24.237603 0.001750 -18.856947
Zn -26.931286 2.695433 -18.856947
Zn -26.931286 0.001750 -16.163264
Zn -24.237603 2.695433 -16.163264
Zn -24.237603 0.001750 -13.469581
Zn -26.931286 2.695433 -13.469581
Zn -26.931286 0.001750 -10.775898
Zn -24.237603 2.695433 -10.775898
Zn -24.237603 0.001750 -8.082216
Zn -26.931286 2.695433 -8.082216
Zn -26.931286 0.001750 -5.388533
Zn -24.237603 2.695433 -5.388533
Zn -24.237603 0.001750 -2.694850
Zn -26.931286 2.695433 -2.694850
Zn -26.931286 0.001750 -0.001167
Zn -24.237603 2.695433 -0.001167
Zn -24.237603 0.001750 2.692516
Zn -26.931286 2.695433 2.692516
Zn -26.931286 0.001750 5.386199
Zn -24.237603 2.695433 5.386199
Zn -24.237603 0.001750 8.079882
Zn -26.931286 2.695433 8.079882
Zn -26.931286 0.001750 10.773565
Zn -24.237603 2.695433 10.773565
Zn -24.237603 0.001750 13.467247
Zn -26.931286 2.695433 13.467247
Zn -26.931286 0.001750 16.160930
Zn -24.237603 2.695433 16.160930
Zn -24.237603 0.001750 18.854613
Zn -26.931286 2.695433 18.854613
Zn -26.931286 0.001750 21.548296
Zn -24.237603 2.695433 21.548296
Zn -24.237603 0.001750 24.241979
Zn -26.931286 2.695433 24.241979
Zn -26.931286 0.001750 26.935662
Zn -24.237603 2.695433 26.935662
Zn -24.237603 0.001750 29.629345
Zn -24.237603 5.389116 -24.244313
Zn -26.931286 5.389116 -21.550630
Zn -24.237603 8.082799 -21.550630
Zn -24.237603 5.389116 -18.856947
Zn -26.931286 8.082799 -18.856947
Zn -26.931286 5.389116 -16.163264
Zn -24.237603 8.082799 -16.163264
Zn -24.237603 5.389116 -13.469581
Zn -26.931286 8.082799 -13.469581
Zn -26.931286 5.389116 -10.775898
Zn -24.237603 8.082799 -10.775898
Zn -24.237603 5.389116 -8.082216
Zn -26.931286 8.082799 -8.082216
Zn -26.931286 5.389116 -5.388533
Zn -24.237603 8.082799 -5.388533
Zn -24.237603 5.389116 -2.694850
Zn -26.931286 8.082799 -2.694850
Zn -26.931286 5.389116 -0.001167
Zn -24.237603 8.082799 -0.001167
Zn -24.237603 5.389116 2.692516
Zn -26.931286 8.082799 2.692516
Zn -26.931286 5.389116 5.386199
Zn -24.237603 8.082799 5.386199
Zn -24.237603 5.389116 8.079882
Zn -26.931286 8.082799 8.079882
Zn -26.931286 5.389116 10.773565
Zn -24.237603 8.082799 10.773565
Zn -24.237603 5.389116 13.467247
Zn -26.931286 8.082799 13.467247
Zn -26.931286 5.389116 16.160930
Zn -24.237603 8.082799 16.160930
Zn -24.237603 5.389116 18.854613
Zn -26.931286 8.082799 18.854613
Zn -26.931286 5.389116 21.548296
Zn -24.237603 8.082799 21.548296
Zn -24.237603 5.389116 24.241979
Zn -24.237603 10.776482 -18.856947
Zn -26.931286 10.776482 -16.163264
Zn -24.237603 13.470165 -16.163264
Zn -24.237603 10.776482 -13.469581
Zn -26.931286 13.470165 -13.469581
Zn -26.931286 10.776482 -10.775898
Zn -24.237603 13.470165 -10.775898
Zn -24.237603 10.776482 -8.082216
Zn -26.931286 13.470165 -8.082216
Zn -26.931286 10.776482 -5.388533
Zn -24.237603 13.470165 -5.388533
Zn -24.237603 10.776482 -2.694850
Zn -26.931286 13.470165 -2.694850
Zn -26.931286 10.776482 -0.001167
Zn -24.237603 13.470165 -0.001167
Zn -24.237603 10.776482 2.692516
Zn -26.931286 13.470165 2.692516
Zn -26.931286 10.776482 5.386199
Zn -24.237603 13.470165 5.386199
Zn -24.237603 10.776482 8.079882
Zn -26.931286 13.470165 8.079882
Zn -26.931286 10.776482 10.773565
Zn -24.237603 13.470165 10.773565
Zn -24.237603 10.776482 13.467247
Zn -26.931286 13.470165 13.467247
Zn -26.931286 10.776482 16.160930
Zn -24.237603 13.470165 16.160930
Zn -24.237603 10.776482 18.854613
Zn -24.237603 16.163848 -13.469581
Zn -26.931286 16.163848 -10.775898
Zn -24.237603 18.857531 -10.775898
Zn -24.237603 16.163848 -8.082216
Zn -26.931286 18.857531 -8.082216
Zn -26.931286 16.163848 -5.388533
Zn -24.237603 18.857531 -5.388533
Zn -24.237603 16.163848 -2.694850
Zn -26.931286 18.857531 -2.694850
Zn -26.931286 16.163848 -0.001167
Zn -24.237603 18.857531 -0.001167
Zn -24.237603 16.163848 2.692516
Zn -26.931286 18.857531 2.692516
Zn -26.931286 16.163848 5.386199
Zn -24.237603 18.857531 5.386199
Zn -24.237603 16.163848 8.079882
Zn -26.931286 18.857531 8.079882
Zn -26.931286 16.163848 10.773565
Zn -24.237603 18.857531 10.773565
Zn -24.237603 16.163848 13.467247
Zn -24.237603 21.551213 -8.082216
Zn -26.931286 21.551213 -5.388533
Zn -24.237603 24.244896 -5.388533
Zn -24.237603 21.551213 -2.694850
Zn -26.931286 24.244896 -2.694850
Zn -26.931286 21.551213 -0.001167
Zn -24.237603 24.244896 -0.001167
Zn -24.237603 21.551213 2.692516
Zn -26.931286 24.244896 2.692516
Zn -26.931286 21.551213 5.386199
Zn -24.237603 24.244896 5.386199
Zn -24.237603 21.551213 8.079882
Zn -24.237603 26.938579 -2.694850
Zn -26.931286 26.938579 -0.001167
Zn -24.237603 29.632262 -0.001167
Zn -24.237603 26.938579 2.692516
Zn -18.850237 -29.628761 -5.388533
Zn -21.543920 -29.628761 -2.694850
Zn -18.850237 -29.628761 -0.001167
Zn -21.543920 -29.628761 2.692516
Zn -18.850237 -29.628761 5.386199
Zn -18.850237 -24.241395 -10.775898
Zn -18.850237 -26.935078 -8.082216
Zn -21.543920 -24.241395 -8.082216
Zn -21.543920 -26.935078 -5.388533
Zn -18.850237 -24.241395 -5.388533
Zn -18.850237 -26.935078 -2.694850
Zn -21.543920 -24.241395 -2.694850
Zn -21.543920 -26.935078 -0.001167
Zn -18.850237 -24.241395 -0.001167
Zn -18.850237 -26.935078 2.692516
Zn -21.543920 -24.241395 2.692516
Zn -21.543920 -26.935078 5.386199
Zn -18.850237 -24.241395 5.386199
Zn -18.850237 -26.935078 8.079882
Zn -21.543920 -24.241395 8.079882
Zn -18.850237 -24.241395 10.773565
Zn -18.850237 -18.854030 -16.163264
Zn -18.850237 -21.547713 -13.469581
Zn -21.543920 -18.854030 -13.469581
Zn -21.543920 -21.547713 -10.775898
Zn -18.850237 -18.854030 -10.775898
Zn -18.850237 -21.547713 -8.082216
Zn -21.543920 -18.854030 -8.082216
Zn -21.543920 -21.547713 -5.388533
Zn -18.850237 -18.854030 -5.388533
Zn -18.850237 -21.547713 -2.694850
Zn -21.543920 -18.854030 -2.694850
Zn -21.543920 -21.547713 -0.001167
Zn -18.850237 -18.854030 -0.001167
Zn -18.850237 -21.547713 2.692516
Zn -21.543920 -18.854030 2.692516
Zn -21.543920 -21.547713 5.386199
Zn -18.850237 -18.854030 5.386199
Zn -18.850237 -21.547713 8.079882
Zn -21.543920 -18.854030 8.079882
Zn -21.543920 -21.547713 10.773565
Zn -18.850237 -18.854030 10.773565
Zn -18.850237 -21.547713 13.467247
Zn -21.543920 -18.854030 13.467247
Zn -18.850237 -18.854030 16.160930
Zn -18.850237 -13.466664 -21.550630
Zn -18.850237 -16.160347 -18.856947
Zn -21.543920 -13.466664 -18.856947
Zn -21.543920 -16.160347 -16.163264
Zn -18.850237 -13.466664 -16.163264
Zn -18.850237 -16.160347 -13.469581
Zn -21.543920 -13.466664 -13.469581
Zn -21.543920 -16.160347 -10.775898
Zn -18.850237 -13.466664 -10.775898
Zn -18.850237 -16.160347 -8.082216
Zn -21.543920 -13.466664 -8.082216
Zn -21.543920 -16.160347 -5.388533
Zn -18.850237 -13.466664 -5.388533
Zn -18.850237 -16.160347 -2.694850
Zn -21.543920 -13.466664 -2.694850
Zn -21.543920 -16.160347 -0.001167
Zn -18.850237 -13.466664 -0.001167
Zn -18.850237 -16.160347 2.692516
Zn -21.543920 -13.466664 2.692516
Zn -21.543920 -16.160347 5.386199
Zn -18.850237 -13.466664 5.386199
Zn -18.850237 -16.160347 8.079882
Zn -21.543920 -13.466664 8.079882
Zn -21.543920 -16.160347 10.773565
Zn -18.850237 -13.466664 10.773565
Zn -18.850237 -16.160347 13.467247
Zn -21.543920 -13.466664 13.467247
Zn -21.543920 -16.160347 16.160930
Zn -18.850237 -13.466664 16.160930
Zn -18.850237 -16.160347 18.854613
Zn -21.543920 -13.466664 18.854613
Zn -18.850237 -13.466664 21.548296
Zn -18.850237 -8.079298 -26.937996
Zn -18.850237 -10.772981 -24.244313
Zn -21.543920 -8.079298 -24.244313
Zn -21.543920 -10.772981 -21.550630
Zn -18.850237 -8.079298 -21.550630
Zn -18.850237 -10.772981 -18.856947
Zn -21.543920 -8.079298 -18.856947
Zn -21.543920 -10.772981 -16.163264
Zn -18.850237 -8.079298 -16.163264
Zn -18.850237 -10.772981 -13.469581
Zn -21.543920 -8.079298 -13.469581
Zn -21.543920 -10.772981 -10.775898
Zn -18.850237 -8.079298 -10.775898
Zn -18.850237 -10.772981 -8.082216
Zn -21.543920 -8.079298 -8.082216
Zn -21.543920 -10.772981 -5.388533
Zn -18.850237 -8.079298 -5.388533
Zn -18.850237 -10.772981 -2.694850
Zn -21.543920 -8.079298 -2.694850
Zn -21.543920 -10.772981 -0.001167
Zn -18.850237 -8.079298 -0.001167
Zn -18.850237 -10.772981 2.692516
Zn -21.543920 -8.079298 2.692516
Zn -21.543920 -10.772981 5.386199
Zn -18.850237 -8.079298 5.386199
Zn -18.850237 -10.772981 8.079882
Zn -21.543920 -8.079298 8.079882
Zn -21.543920 -10.772981 10.773565
Zn -18.850237 -8.079298 10.773565
Zn -18.850237 -10.772981 13.467247
Zn -21.543920 -8.079298 13.467247
Zn -21.543920 -10.772981 16.160930
Zn -18.850237 -8.079298 16.160930
Zn -18.850237 -10.772981 18.854613
Zn -21.543920 -8.079298 18.854613
Zn -21.543920 -10.772981 21.548296
Zn -18.850237 -8.079298 21.548296
Zn -18.850237 -10.772981 24.241979
Zn -21.543920 -8.079298 24.241979
Zn -18.850237 -8.079298 26.935662
Zn -18.850237 -5.385615 -29.631679
Zn -21.543920 -2.691932 -29.631679
Zn -21.543920 -5.385615 -26.937996
Zn -18.850237 -2.691932 -26.937996
Zn -18.850237 -5.385615 -24.244313
Zn -21.543920 -2.691932 -24.244313
Zn -21.543920 -5.385615 -21.550630
Zn -18.850237 -2.691932 -21.550630
Zn -18.850237 -5.385615 -18.856947
Zn -21.543920 -2.691932 -18.856947
Zn -21.543920 -5.385615 -16.163264
Zn -18.850237 -2.691932 -16.163264
Zn -18.850237 -5.385615 -13.469581
Zn -21.543920 -2.691932 -13.469581
Zn -21.543920 -5.385615 -10.775898
Zn -18.850237 -2.691932 -10.775898
Zn -18.850237 -5.385615 -8.082216
Zn -21.543920 -2.691932 -8.082216
Zn -21.543920 -5.385615 -5.388533
Zn -18.850237 -2.691932 -5.388533
Zn -18.850237 -5.385615 -2.694850
Zn -21.543920 -2.691932 -2.694850
Zn -21.543920 -5.385615 -0.001167
Zn -18.850237 -2.691932 -0.001167
Zn -18.850237 -5.385615 2.692516
Zn -21.543920 -2.691932 2.692516
Zn -21.543920 -5.385615 5.386199
Zn -18.850237 -2.691932 5.386199
Zn -18.850237 -5.385615 8.079882
Zn -21.543920 -2.691932 8.079882
Zn -21.543920 -5.385615 10.773565
Zn -18.850237 -2.691932 10.773565
Zn -18.850237 -5.385615 13.467247
Zn -21.543920 -2.691932 13.467247
Zn -21.543920 -5.385615 16.160930
Zn -18.850237 -2.691932 16.160930
Zn -18.850237 -5.385615 18.854613
Zn -21.543920 -2.691932 18.854613
Zn -21.543920 -5.385615 21.548296
Zn -18.850237 -2.691932 21.548296
Zn -18.850237 -5.385615 24.241979
Zn -21.543920 -2.691932 24.241979
Zn -21.543920 -5.385615 26.935662
Zn -18.850237 -2.691932 26.935662
Zn -18.850237 -5.385615 29.629345
Zn -21.543920 -2.691932 29.629345
Zn -18.850237 0.001750 -29.631679
Zn -21.543920 2.695433 -29.631679
Zn -21.543920 0.001750 -26.937996
Zn -18.850237 2.695433 -26.937996
Zn -18.850237 0.001750 -24.244313
Zn -21.543920 2.695433 -24.244313
Zn -21.543920 0.001750 -21.550630
Zn -18.850237 2.695433 -21.550630
Zn -18.850237 0.001750 -18.856947
Zn -21.543920 2.695433 -18.856947
Zn -21.543920 0.001750 -16.163264
Zn -18.850237 2.695433 -16.163264
Zn -18.850237 0.001750 -13.469581
Zn -21.543920 2.695433 -13.469581
Zn -21.543920 0.001750 -10.775898
Zn -18.850237 2.695433 -10.775898
Zn -18.850237 0.001750 -8.082216
Zn -21.543920 2.695433 -8.082216
Zn -21.543920 0.001750 -5.388533
Zn -18.850237 2.695433 -5.388533
Zn -18.850237 0.001750 -2.694850
Zn -21.543920 2.695433 -2.694850
Zn -21.543920 0.001750 -0.001167
Zn -18.850237 2.695433 -0.001167
Zn -18.850237 0.001750 2.692516
Zn -21.543920 2.695433 2.692516
Zn -21.543920 0.001750 5.386199
Zn -18.850237 2.695433 5.386199
Zn -18.850237 0.001750 8.079882
Zn -21.543920 2.695433 8.079882
Zn -21.543920 0.001750 10.773565
Zn -18.850237 2.695433 10.773565
Zn -18.850237 0.001750 13.467247
Zn -21.543920 2.695433 13.467247
Zn -21.543920 0.001750 16.160930
Zn -18.850237 2.695433 16.160930
Zn -18.850237 0.001750 18.854613
Zn -21.543920 2.695433 18.854613
Zn -21.543920 0.001750 21.548296
Zn -18.850237 2.695433 21.548296
Zn -18.850237 0.001750 24.241979
Zn -21.543920 2.695433 24.241979
Zn -21.543920 0.001750 26.935662
Zn -18.850237 2.695433 26.935662
Zn -18.850237 0.001750 29.629345
Zn -21.543920 2.695433 29.629345
Zn -18.850237 5.389116 -29.631679
Zn -21.543920 5.389116 -26.937996
Zn -18.850237 8.082799 -26.937996
Zn -18.850237 5.389116 -24.244313
Zn -21.543920 8.082799 -24.244313
Zn -21.543920 5.389116 -21.550630
Zn -18.850237 8.082799 -21.550630
Zn -18.850237 5.389116 -18.856947
Zn -21.543920 8.082799 -18.856947
Zn -21.543920 5.389116 -16.163264
Zn -18.850237 8.082799 -16.163264
Zn -18.850237 5.389116 -13.469581
Zn -21.543920 8.082799 -13.469581
Zn -21.543920 5.389116 -10.775898
Zn -18.850237 8.082799 -10.775898
Zn -18.850237 5.389116 -8.082216
Zn -21.543920 8.082799 -8.082216
Zn -21.543920 5.389116 -5.388533
Zn -18.850237 8.082799 -5.388533
Zn -18.850237 5.389116 -2.694850
Zn -21.543920 8.082799 -2.694850
Zn -21.543920 5.389116 -0.001167
Zn -18.850237 8.082799 -0.001167
Zn -18.850237 5.389116 2.692516
Zn -21.543920 8.082799 2.692516
Zn -21.543920 5.389116 5.386199
Zn -18.850237 8.082799 5.386199
Zn -18.850237 5.389116 8.079882
Zn -21.543920 8.082799 8.079882
Zn -21.543920 5.389116 10.773565
Zn -18.850237 8.082799 10.773565
Zn -18.850237 5.389116 13.467247
Zn -21.543920 8.082799 13.467247
Zn -21.543920 5.389116 16.160930
Zn -18.850237 8.082799 16.160930
Zn -18.850237 5.389116 18.854613
Zn -21.543920 8.082799 18.854613
Zn -21.543920 5.389116 21.548296
Zn -18.850237 8.082799 21.548296
Zn -18.850237 5.389116 24.241979
Zn -21.543920 8.082799 24.241979
Zn -21.543920 5.389116 26.935662
Zn -18.850237 8.082799 26.935662
Zn -18.850237 5.389116 29.629345
Zn -18.850237 10.776482 -24.244313
Zn -21.543920 10.776482 -21.550630
Zn -18.850237 13.470165 -21.550630
Zn -18.850237 10.776482 -18.856947
Zn -21.543920 13.470165 -18.856947
Zn -21.543920 10.776482 -16.163264
Zn -18.850237 13.470165 -16.163264
Zn -18.850237 10.776482 -13.469581
Zn -21.543920 13.470165 -13.469581
Zn -21.543920 10.776482 -10.775898
Zn -18.850237 13.470165 -10.775898
Zn -18.850237 10.776482 -8.082216
Zn -21.543920 13.470165 -8.082216
Zn -21.543920 10.776482 -5.388533
Zn -18.850237 13.470165 -5.388533
Zn -18.850237 10.776482 -2.694850
Zn -21.543920 13.470165 -2.694850
Zn -21.543920 10.776482 -0.001167
Zn -18.850237 13.470165 -0.001167
Zn -18.850237 10.776482 2.692516
Zn -21.543920 13.470165 2.692516
Zn -21.543920 10.776482 5.386199
Zn -18.850237 13.470165 5.386199
Zn -18.850237 10.776482 8.079882
Zn -21.543920 13.470165 8.079882
Zn -21.543920 10.776482 10.773565
Zn -18.850237 13.470165 10.773565
Zn -18.850237 10.776482 13.467247
Zn -21.543920 13.470165 13.467247
Zn -21.543920 10.776482 16.160930
Zn -18.850237 13.470165 16.160930
Zn -18.850237 10.776482 18.854613
Zn -21.543920 13.470165 18.854613
Zn -21.543920 10.776482 21.548296
Zn -18.850237 13.470165 21.548296
Zn -18.850237 10.776482 24.241979
Zn -18.850237 16.163848 -18.856947
Zn -21.543920 16.163848 -16.163264
Zn -18.850237 18.857531 -16.163264
Zn -18.850237 16.163848 -13.469581
Zn -21.543920 18.857531 -13.469581
Zn -21.543920 16.163848 -10.775898
Zn -18.850237 18.857531 -10.775898
Zn -18.850237 16.163848 -8.082216
Zn -21.543920 18.857531 -8.082216
Zn -21.543920 16.163848 -5.388533
Zn -18.850237 18.857531 -5.388533
Zn -18.850237 16.163848 -2.694850
Zn -21.543920 18.857531 -2.694850
Zn -21.543920 16.163848 -0.001167
Zn -18.850237 18.857531 -0.001167
Zn -18.850237 16.163848 2.692516
Zn -21.543920 18.857531 2.692516
Zn -21.543920 16.163848 5.386199
Zn -18.850237 18.857531 5.386199
Zn -18.850237 16.163848 8.079882
Zn -21.543920 18.857531 8.079882
Zn -21.543920 16.163848 10.773565
Zn -18.850237 18.857531 10.773565
Zn -18.850237 16.163848 13.467247
Zn -21.543920 18.857531 13.467247
Zn -21.543920 16.163848 16.160930
Zn -18.850237 18.857531 16.160930
Zn -18.850237 16.163848 18.854613
Zn -18.850237 21.551213 -13.469581
Zn -21.543920 21.551213 -10.775898
Zn -18.850237 24.244896 -10.775898
Zn -18.850237 21.551213 -8.082216
Zn -21.543920 24.244896 -8.082216
Zn -21.543920 21.551213 -5.388533
Zn -18.850237 24.244896 -5.388533
Zn -18.850237 21.551213 -2.694850
Zn -21.543920 24.244896 -2.694850
Zn -21.543920 21.551213 -0.001167
Zn -18.850237 24.244896 -0.001167
Zn -18.850237 21.551213 2.692516
Zn -21.543920 24.244896 2.692516
Zn -21.543920 21.551213 5.386199
Zn -18.850237 24.244896 5.386199
Zn -18.850237 21.551213 8.079882
Zn -21.543920 24.244896 8.079882
Zn -21.543920 21.551213 10.773565
Zn -18.850237 24.244896 10.773565
Zn -18.850237 21.551213 13.467247
Zn -18.850237 26.938579 -8.082216
Zn -21.543920 26.938579 -5.388533
Zn -18.850237 29.632262 -5.388533
Zn -18.850237 26.938579 -2.694850
Zn -21.543920 29.632262 -2.694850
Zn -21.543920 26.938579 -0.001167
Zn -18.850237 29.632262 -0.001167
Zn -18.850237 26.938579 2.692516
Zn -21.543920 29.632262 2.692516
Zn -21.543920 26.938579 5.386199
Zn -18.850237 29.632262 5.386199
Zn -18.850237 26.938579 8.079882
Zn -13.462871 -29.628761 -10.775898
Zn -16.156554 -29.628761 -8.082216
Zn -13.462871 -29.628761 -5.388533
Zn -16.156554 -29.628761 -2.694850
Zn -13.462871 -29.628761 -0.001167
Zn -16.156554 -29.628761 2.692516
Zn -13.462871 -29.628761 5.386199
Zn -16.156554 -29.628761 8.079882
Zn -13.462871 -29.628761 10.773565
Zn -13.462871 -24.241395 -16.163264
Zn -13.462871 -26.935078 -13.469581
Zn -16.156554 -24.241395 -13.469581
Zn -16.156554 -26.935078 -10.775898
Zn -13.462871 -24.241395 -10.775898
Zn -13.462871 -26.935078 -8.082216
Zn -16.156554 -24.241395 -8.082216
Zn -16.156554 -26.935078 -5.388533
Zn -13.462871 -24.241395 -5.388533
Zn -13.462871 -26.935078 -2.694850
Zn -16.156554 -24.241395 -2.694850
Zn -16.156554 -26.935078 -0.001167
Zn -13.462871 -24.241395 -0.001167
Zn -13.462871 -26.935078 2.692516
Zn -16.156554 -24.241395 2.692516
Zn -16.156554 -26.935078 5.386199
Zn -13.462871 -24.241395 5.386199
Zn -13.462871 -26.935078 8.079882
Zn -16.156554 -24.241395 8.079882
Zn -16.156554 -26.935078 10.773565
Zn -13.462871 -24.241395 10.773565
Zn -13.462871 -26.935078 13.467247
Zn -16.156554 -24.241395 13.467247
Zn -13.462871 -24.241395 16.160930
Zn -13.462871 -18.854030 -21.550630
Zn -13.462871 -21.547713 -18.856947
Zn -16.156554 -18.854030 -18.856947
Zn -16.156554 -21.547713 -16.163264
Zn -13.462871 -18.854030 -16.163264
Zn -13.462871 -21.547713 -13.469581
Zn -16.156554 -18.854030 -13.469581
Zn -16.156554 -21.547713 -10.775898
Zn -13.462871 -18.854030 -10.775898
Zn -13.462871 -21.547713 -8.082216
Zn -16.156554 -18.854030 -8.082216
Zn -16.156554 -21.547713 -5.388533
Zn -13.462871 -18.854030 -5.388533
Zn -13.462871 -21.547713 -2.694850
Zn -16.156554 -18.854030 -2.694850
Zn -16.156554 -21.547713 -0.001167
Zn -13.462871 -18.854030 -0.001167
Zn -13.462871 -21.547713 2.692516
Zn -16.156554 -18.854030 2.692516
Zn -16.156554 -21.547713 5.386199
Zn -13.462871 -18.854030 5.386199
Zn -13.462871 -21.547713 8.079882
Zn -16.156554 -18.854030 8.079882
Zn -16.156554 -21.547713 10.773565
Zn -13.462871 -18.854030 10.773565
Zn -13.462871 -21.547713 13.467247
Zn -16.156554 -18.854030 13.467247
Zn -16.156554 -21.547713 16.160930
Zn -13.462871 -18.854030 16.160930
Zn -13.462871 -21.547713 18.854613
Zn -16.156554 -18.854030 18.854613
Zn -13.462871 -18.854030 21.548296
Zn -13.462871 -13.466664 -26.937996
Zn -13.462871 -16.160347 -24.244313
Zn -16.156554 -13.466664 -24.244313
Zn -16.156554 -16.160347 -21.550630
Zn -13.462871 -13.466664 -21.550630
Zn -13.462871 -16.160347 -18.856947
Zn -16.156554 -13.466664 -18.856947
Zn -16.156554 -16.160347 -16.163264
Zn -13.462871 -13.466664 -16.163264
Zn -13.462871 -16.160347 -13.469581
Zn -16.156554 -13.466664 -13.469581
Zn -16.156554 -16.160347 -10.775898
Zn -13.462871 -13.466664 -10.775898
Zn -13.462871 -16.160347 -8.082216
Zn -16.156554 -13.466664 -8.082216
Zn -16.156554 -16.160347 -5.388533
Zn -13.462871 -13.466664 -5.388533
Zn -13.462871 -16.160347 -2.694850
Zn -16.156554 -13.466664 -2.694850
Zn -16.156554 -16.160347 -0.001167
Zn -13.462871 -13.466664 -0.001167
Zn -13.462871 -16.160347 2.692516
Zn -16.156554 -13.466664 2.692516
Zn -16.156554 -16.160347 5.386199
Zn -13.462871 -13.466664 5.386199
Zn -13.462871 -16.160347 8.079882
Zn -16.156554 -13.466664 8.079882
Zn -16.156554 -16.160347 10.773565
Zn -13.462871 -13.466664 10.773565
Zn -13.462871 -16.160347 13.467247
Zn -16.156554 -13.466664 13.467247
Zn -16.156554 -16.160347 16.160930
Zn -13.462871 -13.466664 16.160930
Zn -13.462871 -16.160347 18.854613
Zn -16.156554 -13.466664 18.854613
Zn -16.156554 -16.160347 21.548296
Zn -13.462871 -13.466664 21.548296
Zn -13.462871 -16.160347 24.241979
Zn -16.156554 -13.466664 24.241979
Zn -13.462871 -13.466664 26.935662
Zn -13.462871 -10.772981 -29.631679
Zn -16.156554 -8.079298 -29.631679
Zn -16.156554 -10.772981 -26.937996
Zn -13.462871 -8.079298 -26.937996
Zn -13.462871 -10.772981 -24.244313
Zn -16.156554 -8.079298 -24.244313
Zn -16.156554 -10.772981 -21.550630
Zn -13.462871 -8.079298 -21.550630
Zn -13.462871 -10.772981 -18.856947
Zn -16.156554 -8.079298 -18.856947
Zn -16.156554 -10.772981 -16.163264
Zn -13.462871 -8.079298 -16.163264
Zn -13.462871 -10.772981 -13.469581
Zn -16.156554 -8.079298 -13.469581
Zn -16.156554 -10.772981 -10.775898
Zn -13.462871 -8.079298 -10.775898
Zn -13.462871 -10.772981 -8.082216
Zn -16.156554 -8.079298 -8.082216
Zn -16.156554 -10.772981 -5.388533
Zn -13.462871 -8.079298 -5.388533
Zn -13.462871 -10.772981 -2.694850
Zn -16.156554 -8.079298 -2.694850
Zn -16.156554 -10.772981 -0.001167
Zn -13.462871 -8.079298 -0.001167
Zn -13.462871 -10.772981 2.692516
Zn -16.156554 -8.079298 2.692516
Zn -16.156554 -10.772981 5.386199
Zn -13.462871 -8.079298 5.386199
Zn -13.462871 -10.772981 8.079882
Zn -16.156554 -8.079298 8.079882
Zn -16.156554 -10.772981 10.773565
Zn -13.462871 -8.079298 10.773565
Zn -13.462871 -10.772981 13.467247
Zn -16.156554 -8.079298 13.467247
Zn -16.156554 -10.772981 16.160930
Zn -13.462871 -8.079298 16.160930
Zn -13.462871 -10.772981 18.854613
Zn -16.156554 -8.079298 18.854613
Zn -16.156554 -10.772981 21.548296
Zn -13.462871 -8.079298 21.548296
Zn -13.462871 -10.772981 24.241979
Zn -16.156554 -8.079298 24.241979
Zn -16.156554 -10.772981 26.935662
Zn -13.462871 -8.079298 26.935662
Zn -13.462871 -10.772981 29.629345
Zn -16.156554 -8.079298 29.629345
Zn -13.462871 -5.385615 -29.631679
Zn -16.156554 -2.691932 -29.631679
Zn -16.156554 -5.385615 -26.937996
Zn -13.462871 -2.691932 -26.937996
Zn -13.462871 -5.385615 -24.244313
Zn -16.156554 -2.691932 -24.244313
Zn -16.156554 -5.385615 -21.550630
Zn -13.462871 -2.691932 -21.550630
Zn -13.462871 -5.385615 -18.856947
Zn -16.156554 -2.691932 -18.856947
Zn -16.156554 -5.385615 -16.163264
Zn -13.462871 -2.691932 -16.163264
Zn -13.462871 -5.385615 -13.469581
Zn -16.156554 -2.691932 -13.469581
Zn -16.156554 -5.385615 -10.775898
Zn -13.462871 -2.691932 -10.775898
Zn -13.462871 -5.385615 -8.082216
Zn -16.156554 -2.691932 -8.082216
Zn -16.156554 -5.385615 -5.388533
Zn -13.462871 -2.691932 -5.388533
Zn -13.462871 -5.385615 -2.694850
Zn -16.156554 -2.691932 -2.694850
Zn -16.156554 -5.385615 -0.001167
Zn -13.462871 -2.691932 -0.001167
Zn -13.462871 -5.385615 2.692516
Zn -16.156554 -2.691932 2.692516
Zn -16.156554 -5.385615 5.386199
Zn -13.462871 -2.691932 5.386199
Zn -13.462871 -5.385615 8.079882
Zn -16.156554 -2.691932 8.079882
Zn -16.156554 -5.385615 10.773565
Zn -13.462871 -2.691932 10.773565
Zn -13.462871 -5.385615 13.467247
Zn -16.156554 -2.691932 13.467247
Zn -16.156554 -5.385615 16.160930
Zn -13.462871 -2.691932 16.160930
Zn -13.462871 -5.385615 18.854613
Zn -16.156554 -2.691932 18.854613
Zn -16.156554 -5.385615 21.548296
Zn -13.462871 -2.691932 21.548296
Zn -13.462871 -5.385615 24.241979
Zn -16.156554 -2.691932 24.241979
Zn -16.156554 -5.385615 26.935662
Zn -13.462871 -2.691932 26.935662
Zn -13.462871 -5.385615 29.629345
Zn -16.156554 -2.691932 29.629345
Zn -13.462871 0.001750 -29.631679
Zn -16.156554 2.695433 -29.631679
Zn -16.156554 0.001750 -26.937996
Zn -13.462871 2.695433 -26.937996
Zn -13.462871 0.001750 -24.244313
Zn -16.156554 2.695433 -24.244313
Zn -16.156554 0.001750 -21.550630
Zn -13.462871 2.695433 -21.550630
Zn -13.462871 0.001750 -18.856947
Zn -16.156554 2.695433 -18.856947
Zn -16.156554 0.001750 -16.163264
Zn -13.462871 2.695433 -16.163264
Zn -13.462871 0.001750 -13.469581
Zn -16.156554 2.695433 -13.469581
Zn -16.156554 0.001750 -10.775898
Zn -13.462871 2.695433 -10.775898
Zn -13.462871 0.001750 -8.082216
Zn -16.156554 2.695433 -8.082216
Zn -16.156554 0.001750 -5.388533
Zn -13.462871 2.695433 -5.388533
Zn -13.462871 0.001750 -2.694850
Zn -16.156554 2.695433 -2.694850
Zn -16.156554 0.001750 -0.001167
Zn -13.462871 2.695433 -0.001167
Zn -13.462871 0.001750 2.692516
Zn -16.156554 2.695433 2.692516
Zn -16.156554 0.001750 5.386199
Zn -13.462871 2.695433 5.386199
Zn -13.462871 0.001750 8.079882
Zn -16.156554 2.695433 8.079882
Zn -16.156554 0.001750 10.773565
Zn -13.462871 2.695433 10.773565
Zn -13.462871 0.001750 13.467247
Zn -16.156554 2.695433 13.467247
Zn -16.156554 0.001750 16.160930
Zn -13.462871 2.695433 16.160930
Zn -13.462871 0.001750 18.854613
Zn -16.156554 2.695433 18.854613
Zn -16.156554 0.001750 21.548296
Zn -13.462871 2.695433 21.548296
Zn -13.462871 0.001750 24.241979
Zn -16.156554 2.695433 24.241979
Zn -16.156554 0.001750 26.935662
Zn -13.462871 2.695433 26.935662
Zn -13.462871 0.001750 29.629345
Zn -16.156554 2.695433 29.629345
Zn -13.462871 5.389116 -29.631679
Zn -16.156554 8.082799 -29.631679
Zn -16.156554 5.389116 -26.937996
Zn -13.462871 8.082799 -26.937996
Zn -13.462871 5.389116 -24.244313
Zn -16.156554 8.082799 -24.244313
Zn -16.156554 5.389116 -21.550630
Zn -13.462871 8.082799 -21.550630
Zn -13.462871 5.389116 -18.856947
Zn -16.156554 8.082799 -18.856947
Zn -16.156554 5.389116 -16.163264
Zn -13.462871 8.082799 -16.163264
Zn -13.462871 5.389116 -13.469581
Zn -16.156554 8.082799 -13.469581
Zn -16.156554 5.389116 -10.775898
Zn -13.462871 8.082799 -10.775898
Zn -13.462871 5.389116 -8.082216
Zn -16.156554 8.082799 -8.082216
Zn -16.156554 5.389116 -5.388533
Zn -13.462871 8.082799 -5.388533
Zn -13.462871 5.389116 -2.694850
Zn -16.156554 8.082799 -2.694850
Zn -16.156554 5.389116 -0.001167
Zn -13.462871 8.082799 -0.001167
Zn -13.462871 5.389116 2.692516
Zn -16.156554 8.082799 2.692516
Zn -16.156554 5.389116 5.386199
Zn -13.462871 8.082799 5.386199
Zn -13.462871 5.389116 8.079882
Zn -16.156554 8.082799 8.079882
Zn -16.156554 5.389116 10.773565
Zn -13.462871 8.082799 10.773565
Zn -13.462871 5.389116 13.467247
Zn -16.156554 8.082799 13.467247
Zn -16.156554 5.389116 16.160930
Zn -13.462871 8.082799 16.160930
Zn -13.462871 5.389116 18.854613
Zn -16.156554 8.082799 18.854613
Zn -16.156554 5.389116 21.548296
Zn -13.462871 8.082799 21.548296
Zn -13.462871 5.389116 24.241979
Zn -16.156554 8.082799 24.241979
Zn -16.156554 5.389116 26.935662
Zn -13.462871 8.082799 26.935662
Zn -13.462871 5.389116 29.629345
Zn -16.156554 8.082799 29.629345
Zn -13.462871 10.776482 -29.631679
Zn -16.156554 10.776482 -26.937996
Zn -13.462871 13.470165 -26.937996
Zn -13.462871 10.776482 -24.244313
Zn -16.156554 13.470165 -24.244313
Zn -16.156554 10.776482 -21.550630
Zn -13.462871 13.470165 -21.550630
Zn -13.462871 10.776482 -18.856947
Zn -16.156554 13.470165 -18.856947
Zn -16.156554 10.776482 -16.163264
Zn -13.462871 13.470165 -16.163264
Zn -13.462871 10.776482 -13.469581
Zn -16.156554 13.470165 -13.469581
Zn -16.156554 10.776482 -10.775898
Zn -13.462871 13.470165 -10.775898
Zn -13.462871 10.776482 -8.082216
Zn -16.156554 13.470165 -8.082216
Zn -16.156554 10.776482 -5.388533
Zn -13.462871 13.470165 -5.388533
Zn -13.462871 10.776482 -2.694850
Zn -16.156554 13.470165 -2.694850
Zn -16.156554 10.776482 -0.001167
Zn -13.462871 13.470165 -0.001167
Zn -13.462871 10.776482 2.692516
Zn -16.156554 13.470165 2.692516
Zn -16.156554 10.776482 5.386199
Zn -13.462871 13.470165 5.386199
Zn -13.462871 10.776482 8.079882
Zn -16.156554 13.470165 8.079882
Zn -16.156554 10.776482 10.773565
Zn -13.462871 13.470165 10.773565
Zn -13.462871 10.776482 13.467247
Zn -16.156554 13.470165 13.467247
Zn -16.156554 10.776482 16.160930
Zn -13.462871 13.470165 16.160930
Zn -13.462871 10.776482 18.854613
Zn -16.156554 13.470165 18.854613
Zn -16.156554 10.776482 21.548296
Zn -13.462871 13.470165 21.548296
Zn -13.462871 10.776482 24.241979
Zn -16.156554 13.470165 24.241979
Zn -16.156554 10.776482 26.935662
Zn -13.462871 13.470165 26.935662
Zn -13.462871 10.776482 29.629345
Zn -13.462871 16.163848 -24.244313
Zn -16.156554 16.163848 -21.550630
Zn -13.462871 18.857531 -21.550630
Zn -13.462871 16.163848 -18.856947
Zn -16.156554 18.857531 -18.856947
Zn -16.156554 16.163848 -16.163264
Zn -13.462871 18.857531 -16.163264
Zn -13.462871 16.163848 -13.469581
Zn -16.156554 18.857531 -13.469581
Zn -16.156554 16.163848 -10.775898
Zn -13.462871 18.857531 -10.775898
Zn -13.462871 16.163848 -8.082216
Zn -16.156554 18.857531 -8.082216
Zn -16.156554 16.163848 -5.388533
Zn -13.462871 18.857531 -5.388533
Zn -13.462871 16.163848 -2.694850
Zn -16.156554 18.857531 -2.694850
Zn -16.156554 16.163848 -0.001167
Zn -13.462871 18.857531 -0.001167
Zn -13.462871 16.163848 2.692516
Zn -16.156554 18.857531 2.692516
Zn -16.156554 16.163848 5.386199
Zn -13.462871 18.857531 5.386199
Zn -13.462871 16.163848 8.079882
Zn -16.156554 18.857531 8.079882
Zn -16.156554 16.163848 10.773565
Zn -13.462871 18.857531 10.773565
Zn -13.462871 16.163848 13.467247
Zn -16.156554 18.857531 13.467247
Zn -16.156554 16.163848 16.160930
Zn -13.462871 18.857531 16.160930
Zn -13.462871 16.163848 18.854613
Zn -16.156554 18.857531 18.854613
Zn -16.156554 16.163848 21.548296
Zn -13.462871 18.857531 21.548296
Zn -13.462871 16.163848 24.241979
Zn -13.462871 21.551213 -18.856947
Zn -16.156554 21.551213 -16.163264
Zn -13.462871 24.244896 -16.163264
Zn -13.462871 21.551213 -13.469581
Zn -16.156554 24.244896 -13.469581
Zn -16.156554 21.551213 -10.775898
Zn -13.462871 24.244896 -10.775898
Zn -13.462871 21.551213 -8.082216
Zn -16.156554 24.244896 -8.082216
Zn -16.156554 21.551213 -5.388533
Zn -13.462871 24.244896 -5.388533
Zn -13.462871 21.551213 -2.694850
Zn -16.156554 24.244896 -2.694850
Zn -16.156554 21.551213 -0.001167
Zn -13.462871 24.244896 -0.001167
Zn -13.462871 21.551213 2.692516
Zn -16.156554 24.244896 2.692516
Zn -16.156554 21.551213 5.386199
Zn -13.462871 24.244896 5.386199
Zn -13.462871 21.551213 8.079882
Zn -16.156554 24.244896 8.079882
Zn -16.156554 21.551213 10.773565
Zn -13.462871 24.244896 10.773565
Zn -13.462871 21.551213 13.467247
Zn -16.156554 24.244896 13.467247
Zn -16.156554 21.551213 16.160930
Zn -13.462871 24.244896 16.160930
Zn -13.462871 21.551213 18.854613
Zn -13.462871 26.938579 -13.469581
Zn -16.156554 26.938579 -10.775898
Zn -13.462871 29.632262 -10.775898
Zn -13.462871 26.938579 -8.082216
Zn -16.156554 29.632262 -8.082216
Zn -16.156554 26.938579 -5.388533
Zn -13.462871 29.632262 -5.388533
Zn -13.462871 26.938579 -2.694850
Zn -16.156554 29.632262 -2.694850
Zn -16.156554 26.938579 -0.001167
Zn -13.462871 29.632262 -0.001167
Zn -13.462871 26.938579 2.692516
Zn -16.156554 29.632262 2.692516
Zn -16.156554 26.938579 5.386199
Zn -13.462871 29.632262 5.386199
Zn -13.462871 26.938579 8.079882
Zn -16.156554 29.632262 8.079882
Zn -16.156554 26.938579 10.773565
Zn -13.462871 29.632262 10.773565
Zn -13.462871 26.938579 13.467247
Zn -8.075505 -29.628761 -16.163264
Zn -10.769188 -29.628761 -13.469581
Zn -8.075505 -29.628761 -10.775898
Zn -10.769188 -29.628761 -8.082216
Zn -8.075505 -29.628761 -5.388533
Zn -10.769188 -29.628761 -2.694850
Zn -8.075505 -29.628761 -0.001167
Zn -10.769188 -29.628761 2.692516
Zn -8.075505 -29.628761 5.386199
Zn -10.769188 -29.628761 8.079882
Zn -8.075505 -29.628761 10.773565
Zn -10.769188 -29.628761 13.467247
Zn -8.075505 -29.628761 16.160930
Zn -8.075505 -24.241395 -21.550630
Zn -8.075505 -26.935078 -18.856947
Zn -10.769188 -24.241395 -18.856947
Zn -10.769188 -26.935078 -16.163264
Zn -8.075505 -24.241395 -16.163264
Zn -8.075505 -26.935078 -13.469581
Zn -10.769188 -24.241395 -13.469581
Zn -10.769188 -26.935078 -10.775898
Zn -8.075505 -24.241395 -10.775898
Zn -8.075505 -26.935078 -8.082216
Zn -10.769188 -24.241395 -8.082216
Zn -10.769188 -26.935078 -5.388533
Zn -8.075505 -24.241395 -5.388533
Zn -8.075505 -26.935078 -2.694850
Zn -10.769188 -24.241395 -2.694850
Zn -10.769188 -26.935078 -0.001167
Zn -8.075505 -24.241395 -0.001167
Zn -8.075505 -26.935078 2.692516
Zn -10.769188 -24.241395 2.692516
Zn -10.769188 -26.935078 5.386199
Zn -8.075505 -24.241395 5.386199
Zn -8.075505 -26.935078 8.079882
Zn -10.769188 -24.241395 8.079882
Zn -10.769188 -26.935078 10.773565
Zn -8.075505 -24.241395 10.773565
Zn -8.075505 -26.935078 13.467247
Zn -10.769188 -24.241395 13.467247
Zn -10.769188 -26.935078 16.160930
Zn -8.075505 -24.241395 16.160930
Zn -8.075505 -26.935078 18.854613
Zn -10.769188 -24.241395 18.854613
Zn -8.075505 -24.241395 21.548296
Zn -8.075505 -18.854030 -26.937996
Zn -8.075505 -21.547713 -24.244313
Zn -10.769188 -18.854030 -24.244313
Zn -10.769188 -21.547713 -21.550630
Zn -8.075505 -18.854030 -21.550630
Zn -8.075505 -21.547713 -18.856947
Zn -10.769188 -18.854030 -18.856947
Zn -10.769188 -21.547713 -16.163264
Zn -8.075505 -18.854030 -16.163264
Zn -8.075505 -21.547713 -13.469581
Zn -10.769188 -18.854030 -13.469581
Zn -10.769188 -21.547713 -10.775898
Zn -8.075505 -18.854030 -10.775898
Zn -8.075505 -21.547713 -8.082216
Zn -10.769188 -18.854030 -8.082216
Zn -10.769188 -21.547713 -5.388533
Zn -8.075505 -18.854030 -5.388533
Zn -8.075505 -21.547713 -2.694850
Zn -10.769188 -18.854030 -2.694850
Zn -10.769188 -21.547713 -0.001167
Zn -8.075505 -18.854030 -0.001167
Zn -8.075505 -21.547713 2.692516
Zn -10.769188 -18.854030 2.692516
Zn -10.769188 -21.547713 5.386199
Zn -8.075505 -18.854030 5.386199
Zn -8.075505 -21.547713 8.079882
Zn -10.769188 -18.854030 8.079882
Zn -10.769188 -21.547713 10.773565
Zn -8.075505 -18.854030 10.773565
Zn -8.075505 -21.547713 13.467247
Zn -10.769188 -18.854030 13.467247
Zn -10.769188 -21.547713 16.160930
Zn -8.075505 -18.854030 16.160930
Zn -8.075505 -21.547713 18.854613
Zn -10.769188 -18.854030 18.854613
Zn -10.769188 -21.547713 21.548296
Zn -8.075505 -18.854030 21.548296
Zn -8.075505 -21.547713 24.241979
Zn -10.769188 -18.854030 24.241979
Zn -8.075505 -18.854030 26.935662
Zn -8.075505 -16.160347 -29.631679
Zn -10.769188 -13.466664 -29.631679
Zn -10.769188 -16.160347 -26.937996
Zn -8.075505 -13.466664 -26.937996
Zn -8.075505 -16.160347 -24.244313
Zn -10.769188 -13.466664 -24.244313
Zn -10.769188 -16.160347 -21.550630
Zn -8.075505 -13.466664 -21.550630
Zn -8.075505 -16.160347 -18.856947
Zn -10.769188 -13.466664 -18.856947
Zn -10.769188 -16.160347 -16.163264
Zn -8.075505 -13.466664 -16.163264
Zn -8.075505 -16.160347 -13.469581
Zn -10.769188 -13.466664 -13.469581
Zn -10.769188 -16.160347 -10.775898
Zn -8.075505 -13.466664 -10.775898
Zn -8.075505 -16.160347 -8.082216
Zn -10.769188 -13.466664 -8.082216
Zn -10.769188 -16.160347 -5.388533
Zn -8.075505 -13.466664 -5.388533
Zn -8.075505 -16.160347 -2.694850
Zn -10.769188 -13.466664 -2.694850
Zn -10.769188 -16.160347 -0.001167
Zn -8.075505 -13.466664 -0.001167
Zn -8.075505 -16.160347 2.692516
Zn -10.769188 -13.466664 2.692516
Zn -10.769188 -16.160347 5.386199
Zn -8.075505 -13.466664 5.386199
Zn -8.075505 -16.160347 8.079882
Zn -10.769188 -13.466664 8.079882
Zn -10.769188 -16.160347 10.773565
Zn -8.075505 -13.466664 10.773565
Zn -8.075505 -16.160347 13.467247
Zn -10.769188 -13.466664 13.467247
Zn -10.769188 -16.160347 16.160930
Zn -8.075505 -13.466664 16.160930
Zn -8.075505 -16.160347 18.854613
Zn -10.769188 -13.466664 18.854613
Zn -10.769188 -16.160347 21.548296
Zn -8.075505 -13.466664 21.548296
Zn -8.075505 -16.160347 24.241979
Zn -10.769188 -13.466664 24.241979
Zn -10.769188 -16.160347 26.935662
Zn -8.075505 -13.466664 26.935662
Zn -8.075505 -16.160347 29.629345
Zn -10.769188 -13.466664 29.629345
Zn -8.075505 -10.772981 -29.631679
Zn -10.769188 -8.079298 -29.631679
Zn -10.769188 -10.772981 -26.937996
Zn -8.075505 -8.079298 -26.937996
Zn -8.075505 -10.772981 -24.244313
Zn -10.769188 -8.079298 -24.244313
Zn -10.769188 -10.772981 -21.550630
Zn -8.075505 -8.079298 -21.550630
Zn -8.075505 -10.772981 -18.856947
Zn -10.769188 -8.079298 -18.856947
Zn -10.769188 -10.772981 -16.163264
Zn -8.075505 -8.079298 -16.163264
Zn -8.075505 -10.772981 -13.469581
Zn -10.769188 -8.079298 -13.469581
Zn -10.769188 -10.772981 -10.775898
Zn -8.075505 -8.079298 -10.775898
Zn -8.075505 -10.772981 -8.082216
Zn -10.769188 -8.079298 -8.082216
Zn -10.769188 -10.772981 -5.388533
Zn -8.075505 -8.079298 -5.388533
Zn -8.075505 -10.772981 -2.694850
Zn -10.769188 -8.079298 -2.694850
Zn -10.769188 -10.772981 -0.001167
Zn -8.075505 -8.079298 -0.001167
Zn -8.075505 -10.772981 2.692516
Zn -10.769188 -8.079298 2.692516
Zn -10.769188 -10.772981 5.386199
Zn -8.075505 -8.079298 5.386199
Zn -8.075505 -10.772981 8.079882
Zn -10.769188 -8.079298 8.079882
Zn -10.769188 -10.772981 10.773565
Zn -8.075505 -8.079298 10.773565
Zn -8.075505 -10.772981 13.467247
Zn -10.769188 -8.079298 13.467247
Zn -10.769188 -10.772981 16.160930
Zn -8.075505 -8.079298 16.160930
Zn -8.075505 -10.772981 18.854613
Zn -10.769188 -8.079298 18.854613
Zn -10.769188 -10.772981 21.548296
Zn -8.075505 -8.079298 21.548296
Zn -8.075505 -10.772981 24.241979
Zn -10.769188 -8.079298 24.241979
Zn -10.769188 -10.772981 26.935662
Zn -8.075505 -8.079298 26.935662
Zn -8.075505 -10.772981 29.629345
Zn -10.769188 -8.079298 29.629345
Zn -8.075505 -5.385615 -29.631679
Zn -10.769188 -2.691932 -29.631679
Zn -10.769188 -5.385615 -26.937996
Zn -8.075505 -2.691932 -26.937996
Zn -8.075505 -5.385615 -24.244313
Zn -10.769188 -2.691932 -24.244313
Zn -10.769188 -5.385615 -21.550630
Zn -8.075505 -2.691932 -21.550630
Zn -8.075505 -5.385615 -18.856947
Zn -10.769188 -2.691932 -18.856947
Zn -10.769188 -5.385615 -16.163264
Zn -8.075505 -2.691932 -16.163264
Zn -8.075505 -5.385615 -13.469581
Zn -10.769188 -2.691932 -13.469581
Zn -10.769188 -5.385615 -10.775898
Zn -8.075505 -2.691932 -10.775898
Zn -8.075505 -5.385615 -8.082216
Zn -10.769188 -2.691932 -8.082216
Zn -10.769188 -5.385615 -5.388533
Zn -8.075505 -2.691932 -5.388533
Zn -8.075505 -5.385615 -2.694850
Zn -10.769188 -2.691932 -2.694850
Zn -10.769188 -5.385615 -0.001167
Zn -8.075505 -2.691932 -0.001167
Zn -8.075505 -5.385615 2.692516
Zn -10.769188 -2.691932 2.692516
Zn -10.769188 -5.385615 5.386199
Zn -8.075505 -2.691932 5.386199
Zn -8.075505 -5.385615 8.079882
Zn -10.769188 -2.691932 8.079882
Zn -10.769188 -5.385615 10.773565
Zn -8.075505 -2.691932 10.773565
Zn -8.075505 -5.385615 13.467247
Zn -10.769188 -2.691932 13.467247
Zn -10.769188 -5.385615 16.160930
Zn -8.075505 -2.691932 16.160930
Zn -8.075505 -5.385615 18.854613
Zn -10.769188 -2.691932 18.854613
Zn -10.769188 -5.385615 21.548296
Zn -8.075505 -2.691932 21.548296
Zn -8.075505 -5.385615 24.241979
Zn -10.769188 -2.691932 24.241979
Zn -10.769188 -5.385615 26.935662
Zn -8.075505 -2.691932 26.935662
Zn -8.075505 -5.385615 29.629345
Zn -10.769188 -2.691932 29.629345
Zn -8.075505 0.001750 -29.631679
Zn -10.769188 2.695433 -29.631679
Zn -10.769188 0.001750 -26.937996
Zn -8.075505 2.695433 -26.937996
Zn -8.075505 0.001750 -24.244313
Zn -10.769188 2.695433 -24.244313
Zn -10.769188 0.001750 -21.550630
Zn -8.075505 2.695433 -21.550630
Zn -8.075505 0.001750 -18.856947
Zn -10.769188 2.695433 -18.856947
Zn -10.769188 0.001750 -16.163264
Zn -8.075505 2.695433 -16.163264
Zn -8.075505 0.001750 -13.469581
Zn -10.769188 2.695433 -13.469581
Zn -10.769188 0.001750 -10.775898
Zn -8.075505 2.695433 -10.775898
Zn -8.075505 0.001750 -8.082216
Zn -10.769188 2.695433 -8.082216
Zn -10.769188 0.001750 -5.388533
Zn -8.075505 2.695433 -5.388533
Zn -8.075505 0.001750 -2.694850
Zn -10.769188 2.695433 -2.694850
Zn -10.769188 0.001750 -0.001167
Zn -8.075505 2.695433 -0.001167
Zn -8.075505 0.001750 2.692516
Zn -10.769188 2.695433 2.692516
Zn -10.769188 0.001750 5.386199
Zn -8.075505 2.695433 5.386199
Zn -8.075505 0.001750 8.079882
Zn -10.769188 2.695433 8.079882
Zn -10.769188 0.001750 10.773565
Zn -8.075505 2.695433 10.773565
Zn -8.075505 0.001750 13.467247
Zn -10.769188 2.695433 13.467247
Zn -10.769188 0.001750 16.160930
Zn -8.075505 2.695433 16.160930
Zn -8.075505 0.001750 18.854613
Zn -10.769188 2.695433 18.854613
Zn -10.769188 0.001750 21.548296
Zn -8.075505 2.695433 21.548296
Zn -8.075505 0.001750 24.241979
Zn -10.769188 2.695433 24.241979
Zn -10.769188 0.001750 26.935662
Zn -8.075505 2.695433 26.935662
Zn -8.075505 0.001750 29.629345
Zn -10.769188 2.695433 29.629345
Zn -8.075505 5.389116 -29.631679
Zn -10.769188 8.082799 -29.631679
Zn -10.769188 5.389116 -26.937996
Zn -8.075505 8.082799 -26.937996
Zn -8.075505 5.389116 -24.244313
Zn -10.769188 8.082799 -24.244313
Zn -10.769188 5.389116 -21.550630
Zn -8.075505 8.082799 -21.550630
Zn -8.075505 5.389116 -18.856947
Zn -10.769188 8.082799 -18.856947
Zn -10.769188 5.389116 -16.163264
Zn -8.075505 8.082799 -16.163264
Zn -8.075505 5.389116 -13.469581
Zn -10.769188 8.082799 -13.469581
Zn -10.769188 5.389116 -10.775898
Zn -8.075505 8.082799 -10.775898
Zn -8.075505 5.389116 -8.082216
Zn -10.769188 8.082799 -8.082216
Zn -10.769188 5.389116 -5.388533
Zn -8.075505 8.082799 -5.388533
Zn -8.075505 5.389116 -2.694850
Zn -10.769188 8.082799 -2.694850
Zn -10.769188 5.389116 -0.001167
Zn -8.075505 8.082799 -0.001167
Zn -8.075505 5.389116 2.692516
Zn -10.769188 8.082799 2.692516
Zn -10.769188 5.389116 5.386199
Zn -8.075505 8.082799 5.386199
Zn -8.075505 5.389116 8.079882
Zn -10.769188 8.082799 8.079882
Zn -10.769188 5.389116 10.773565
Zn -8.075505 8.082799 10.773565
Zn -8.075505 5.389116 13.467247
Zn -10.769188 8.082799 13.467247
Zn -10.769188 5.389116 16.160930
Zn -8.075505 8.082799 16.160930
Zn -8.075505 5.389116 18.854613
Zn -10.769188 8.082799 18.854613
Zn -10.769188 5.389116 21.548296
Zn -8.075505 8.082799 21.548296
Zn -8.075505 5.389116 24.241979
Zn -10.769188 8.082799 24.241979
Zn -10.769188 5.389116 26.935662
Zn -8.075505 8.082799 26.935662
Zn -8.075505 5.389116 29.629345
Zn -10.769188 8.082799 29.629345
Zn -8.075505 10.776482 -29.631679
Zn -10.769188 13.470165 -29.631679
Zn -10.769188 10.776482 -26.937996
Zn -8.075505 13.470165 -26.937996
Zn -8.075505 10.776482 -24.244313
Zn -10.769188 13.470165 -24.244313
Zn -10.769188 10.776482 -21.550630
Zn -8.075505 13.470165 -21.550630
Zn -8.075505 10.776482 -18.856947
Zn -10.769188 13.470165 -18.856947
Zn -10.769188 10.776482 -16.163264
Zn -8.075505 13.470165 -16.163264
Zn -8.075505 10.776482 -13.469581
Zn -10.769188 13.470165 -13.469581
Zn -10.769188 10.776482 -10.775898
Zn -8.075505 13.470165 -10.775898
Zn -8.075505 10.776482 -8.082216
Zn -10.769188 13.470165 -8.082216
Zn -10.769188 10.776482 -5.388533
Zn -8.075505 13.470165 -5.388533
Zn -8.075505 10.776482 -2.694850
Zn -10.769188 13.470165 -2.694850
Zn -10.769188 10.776482 -0.001167
Zn -8.075505 13.470165 -0.001167
Zn -8.075505 10.776482 2.692516
Zn -10.769188 13.470165 2.692516
Zn -10.769188 10.776482 5.386199
Zn -8.075505 13.470165 5.386199
Zn -8.075505 10.776482 8.079882
Zn -10.769188 13.470165 8.079882
Zn -10.769188 10.776482 10.773565
Zn -8.075505 13.470165 10.773565
Zn -8.075505 10.776482 13.467247
Zn -10.769188 13.470165 13.467247
Zn -10.769188 10.776482 16.160930
Zn -8.075505 13.470165 16.160930
Zn -8.075505 10.776482 18.854613
Zn -10.769188 13.470165 18.854613
Zn -10.769188 10.776482 21.548296
Zn -8.075505 13.470165 21.548296
Zn -8.075505 10.776482 24.241979
Zn -10.769188 13.470165 24.241979
Zn -10.769188 10.776482 26.935662
Zn -8.075505 13.470165 26.935662
Zn -8.075505 10.776482 29.629345
Zn -10.769188 13.470165 29.629345
Zn -8.075505 16.163848 -29.631679
Zn -10.769188 16.163848 -26.937996
Zn -8.075505 18.857531 -26.937996
Zn -8.075505 16.163848 -24.244313
Zn -10.769188 18.857531 -24.244313
Zn -10.769188 16.163848 -21.550630
Zn -8.075505 18.857531 -21.550630
Zn -8.075505 16.163848 -18.856947
Zn -10.769188 18.857531 -18.856947
Zn -10.769188 16.163848 -16.163264
Zn -8.075505 18.857531 -16.163264
Zn -8.075505 16.163848 -13.469581
Zn -10.769188 18.857531 -13.469581
Zn -10.769188 16.163848 -10.775898
Zn -8.075505 18.857531 -10.775898
Zn -8.075505 16.163848 -8.082216
Zn -10.769188 18.857531 -8.082216
Zn -10.769188 16.163848 -5.388533
Zn -8.075505 18.857531 -5.388533
Zn -8.075505 16.163848 -2.694850
Zn -10.769188 18.857531 -2.694850
Zn -10.769188 16.163848 -0.001167
Zn -8.075505 18.857531 -0.001167
Zn -8.075505 16.163848 2.692516
Zn -10.769188 18.857531 2.692516
Zn -10.769188 16.163848 5.386199
Zn -8.075505 18.857531 5.386199
Zn -8.075505 16.163848 8.079882
Zn -10.769188 18.857531 8.079882
Zn -10.769188 16.163848 10.773565
Zn -8.075505 18.857531 10.773565
Zn -8.075505 16.163848 13.467247
Zn -10.769188 18.857531 13.467247
Zn -10.769188 16.163848 16.160930
Zn -8.075505 18.857531 16.160930
Zn -8.075505 16.163848 18.854613
Zn -10.769188 18.857531 18.854613
Zn -10.769188 16.163848 21.548296
Zn -8.075505 18.857531 21.548296
Zn -8.075505 16.163848 24.241979
Zn -10.769188 18.857531 24.241979
Zn -10.769188 16.163848 26.935662
Zn -8.075505 18.857531 26.935662
Zn -8.075505 16.163848 29.629345
Zn -8.075505 21.551213 -24.244313
Zn -10.769188 21.551213 -21.550630
Zn -8.075505 24.244896 -21.550630
Zn -8.075505 21.551213 -18.856947
Zn -10.769188 24.244896 -18.856947
Zn -10.769188 21.551213 -16.163264
Zn -8.075505 24.244896 -16.163264
Zn -8.075505 21.551213 -13.469581
Zn -10.769188 24.244896 -13.469581
Zn -10.769188 21.551213 -10.775898
Zn -8.075505 24.244896 -10.775898
Zn -8.075505 21.551213 -8.082216
Zn -10.769188 24.244896 -8.082216
Zn -10.769188 21.551213 -5.388533
Zn -8.075505 24.244896 -5.388533
Zn -8.075505 21.551213 -2.694850
Zn -10.769188 24.244896 -2.694850
Zn -10.769188 21.551213 -0.001167
Zn -8.075505 24.244896 -0.001167
Zn -8.075505 21.551213 2.692516
Zn -10.769188 24.244896 2.692516
Zn -10.769188 21.551213 5.386199
Zn -8.075505 24.244896 5.386199
Zn -8.075505 21.551213 8.079882
Zn -10.769188 24.244896 8.079882
Zn -10.769188 21.551213 10.773565
Zn -8.075505 24.244896 10.773565
Zn -8.075505 21.551213 13.467247
Zn -10.769188 24.244896 13.467247
Zn -10.769188 21.551213 16.160930
Zn -8.075505 24.244896 16.160930
Zn -8.075505 21.551213 18.854613
Zn -10.769188 24.244896 18.854613
Zn -10.769188 21.551213 21.548296
Zn -8.075505 24.244896 21.548296
Zn -8.075505 21.551213 24.241979
Zn -8.075505 26.938579 -18.856947
Zn -10.769188 26.938579 -16.163264
Zn -8.075505 29.632262 -16.163264
Zn -8.075505 26.938579 -13.469581
Zn -10.769188 29.632262 -13.469581
Zn -10.769188 26.938579 -10.775898
Zn -8.075505 29.632262 -10.775898
Zn -8.075505 26.938579 -8.082216
Zn -10.769188 29.632262 -8.082216
Zn -10.769188 26.938579 -5.388533
Zn -8.075505 29.632262 -5.388533
Zn -8.075505 26.938579 -2.694850
Zn -10.769188 29.632262 -2.694850
Zn -10.769188 26.938579 -0.001167
Zn -8.075505 29.632262 -0.001167
Zn -8.075505 26.938579 2.692516
Zn -10.769188 29.632262 2.692516
Zn -10.769188 26.938579 5.386199
Zn -8.075505 29.632262 5.386199
Zn -8.075505 26.938579 8.079882
Zn -10.769188 29.632262 8.079882
Zn -10.769188 26.938579 10.773565
Zn -8.075505 29.632262 10.773565
Zn -8.075505 26.938579 13.467247
Zn -10.769188 29.632262 13.467247
Zn -10.769188 26.938579 16.160930
Zn -8.075505 29.632262 16.160930
Zn -8.075505 26.938579 18.854613
Zn -2.688140 -29.628761 -21.550630
Zn -5.381823 -29.628761 -18.856947
Zn -2.688140 -29.628761 -16.163264
Zn -5.381823 -29.628761 -13.469581
Zn -2.688140 -29.628761 -10.775898
Zn -5.381823 -29.628761 -8.082216
Zn -2.688140 -29.628761 -5.388533
Zn -5.381823 -29.628761 -2.694850
Zn -2.688140 -29.628761 -0.001167
Zn -5.381823 -29.628761 2.692516
Zn -2.688140 -29.628761 5.386199
Zn -5.381823 -29.628761 8.079882
Zn -2.688140 -29.628761 10.773565
Zn -5.381823 -29.628761 13.467247
Zn -2.688140 -29.628761 16.160930
Zn -5.381823 -29.628761 18.854613
Zn -2.688140 -29.628761 21.548296
Zn -2.688140 -24.241395 -26.937996
Zn -2.688140 -26.935078 -24.244313
Zn -5.381823 -24.241395 -24.244313
Zn -5.381823 -26.935078 -21.550630
Zn -2.688140 -24.241395 -21.550630
Zn -2.688140 -26.935078 -18.856947
Zn -5.381823 -24.241395 -18.856947
Zn -5.381823 -26.935078 -16.163264
Zn -2.688140 -24.241395 -16.163264
Zn -2.688140 -26.935078 -13.469581
Zn -5.381823 -24.241395 -13.469581
Zn -5.381823 -26.935078 -10.775898
Zn -2.688140 -24.241395 -10.775898
Zn -2.688140 -26.935078 -8.082216
Zn -5.381823 -24.241395 -8.082216
Zn -5.381823 -26.935078 -5.388533
Zn -2.688140 -24.241395 -5.388533
Zn -2.688140 -26.935078 -2.694850
Zn -5.381823 -24.241395 -2.694850
Zn -5.381823 -26.935078 -0.001167
Zn -2.688140 -24.241395 -0.001167
Zn -2.688140 -26.935078 2.692516
Zn -5.381823 -24.241395 2.692516
Zn -5.381823 -26.935078 5.386199
Zn -2.688140 -24.241395 5.386199
Zn -2.688140 -26.935078 8.079882
Zn -5.381823 -24.241395 8.079882
Zn -5.381823 -26.935078 10.773565
Zn -2.688140 -24.241395 10.773565
Zn -2.688140 -26.935078 13.467247
Zn -5.381823 -24.241395 13.467247
Zn -5.381823 -26.935078 16.160930
Zn -2.688140 -24.241395 16.160930
Zn -2.688140 -26.935078 18.854613
Zn -5.381823 -24.241395 18.854613
Zn -5.381823 -26.935078 21.548296
Zn -2.688140 -24.241395 21.548296
Zn -2.688140 -26.935078 24.241979
Zn -5.381823 -24.241395 24.241979
Zn -2.688140 -24.241395 26.935662
Zn -2.688140 -21.547713 -29.631679
Zn -5.381823 -18.854030 -29.631679
Zn -5.381823 -21.547713 -26.937996
Zn -2.688140 -18.854030 -26.937996
Zn -2.688140 -21.547713 -24.244313
Zn -5.381823 -18.854030 -24.244313
Zn -5.381823 -21.547713 -21.550630
Zn -2.688140 -18.854030 -21.550630
Zn -2.688140 -21.547713 -18.856947
Zn -5.381823 -18.854030 -18.856947
Zn -5.381823 -21.547713 -16.163264
Zn -2.688140 -18.854030 -16.163264
Zn -2.688140 -21.547713 -13.469581
Zn -5.381823 -18.854030 -13.469581
Zn -5.381823 -21.547713 -10.775898
Zn -2.688140 -18.854030 -10.775898
Zn -2.688140 -21.547713 -8.082216
Zn -5.381823 -18.854030 -8.082216
Zn -5.381823 -21.547713 -5.388533
Zn -2.688140 -18.854030 -5.388533
Zn -2.688140 -21.547713 -2.694850
Zn -5.381823 -18.854030 -2.694850
Zn -5.381823 -21.547713 -0.001167
Zn -2.688140 -18.854030 -0.001167
Zn -2.688140 -21.547713 2.692516
Zn -5.381823 -18.854030 2.692516
Zn -5.381823 -21.547713 5.386199
Zn -2.688140 -18.854030 5.386199
Zn -2.688140 -21.547713 8.079882
Zn -5.381823 -18.854030 8.079882
Zn -5.381823 -21.547713 10.773565
Zn -2.688140 -18.854030 10.773565
Zn -2.688140 -21.547713 13.467247
Zn -5.381823 -18.854030 13.467247
Zn -5.381823 -21.547713 16.160930
Zn -2.688140 -18.854030 16.160930
Zn -2.688140 -21.547713 18.854613
Zn -5.381823 -18.854030 18.854613
Zn -5.381823 -21.547713 21.548296
Zn -2.688140 -18.854030 21.548296
Zn -2.688140 -21.547713 24.241979
Zn -5.381823 -18.854030 24.241979
Zn -5.381823 -21.547713 26.935662
Zn -2.688140 -18.854030 26.935662
Zn -2.688140 -21.547713 29.629345
Zn -5.381823 -18.854030 29.629345
Zn -2.688140 -16.160347 -29.631679
Zn -5.381823 -13.466664 -29.631679
Zn -5.381823 -16.160347 -26.937996
Zn -2.688140 -13.466664 -26.937996
Zn -2.688140 -16.160347 -24.244313
Zn -5.381823 -13.466664 -24.244313
Zn -5.381823 -16.160347 -21.550630
Zn -2.688140 -13.466664 -21.550630
Zn -2.688140 -16.160347 -18.856947
Zn -5.381823 -13.466664 -18.856947
Zn -5.381823 -16.160347 -16.163264
Zn -2.688140 -13.466664 -16.163264
Zn -2.688140 -16.160347 -13.469581
Zn -5.381823 -13.466664 -13.469581
Zn -5.381823 -16.160347 -10.775898
Zn -2.688140 -13.466664 -10.775898
Zn -2.688140 -16.160347 -8.082216
Zn -5.381823 -13.466664 -8.082216
Zn -5.381823 -16.160347 -5.388533
Zn -2.688140 -13.466664 -5.388533
Zn -2.688140 -16.160347 -2.694850
Zn -5.381823 -13.466664 -2.694850
Zn -5.381823 -16.160347 -0.001167
Zn -2.688140 -13.466664 -0.001167
Zn -2.688140 -16.160347 2.692516
Zn -5.381823 -13.466664 2.692516
Zn -5.381823 -16.160347 5.386199
Zn -2.688140 -13.466664 5.386199
Zn -2.688140 -16.160347 8.079882
Zn -5.381823 -13.466664 8.079882
Zn -5.381823 -16.160347 10.773565
Zn -2.688140 -13.466664 10.773565
Zn -2.688140 -16.160347 13.467247
Zn -5.381823 -13.466664 13.467247
Zn -5.381823 -16.160347 16.160930
Zn -2.688140 -13.466664 16.160930
Zn -2.688140 -16.160347 18.854613
Zn -5.381823 -13.466664 18.854613
Zn -5.381823 -16.160347 21.548296
Zn -2.688140 -13.466664 21.548296
Zn -2.688140 -16.160347 24.241979
Zn -5.381823 -13.466664 24.241979
Zn -5.381823 -16.160347 26.935662
Zn -2.688140 -13.466664 26.935662
Zn -2.688140 -16.160347 29.629345
Zn -5.381823 -13.466664 29.629345
Zn -2.688140 -10.772981 -29.631679
Zn -5.381823 -8.079298 -29.631679
Zn -5.381823 -10.772981 -26.937996
Zn -2.688140 -8.079298 -26.937996
Zn -2.688140 -10.772981 -24.244313
Zn -5.381823 -8.079298 -24.244313
Zn -5.381823 -10.772981 -21.550630
Zn -2.688140 -8.079298 -21.550630
Zn -2.688140 -10.772981 -18.856947
Zn -5.381823 -8.079298 -18.856947
Zn -5.381823 -10.772981 -16.163264
Zn -2.688140 -8.079298 -16.163264
Zn -2.688140 -10.772981 -13.469581
Zn -5.381823 -8.079298 -13.469581
Zn -5.381823 -10.772981 -10.775898
Zn -2.688140 -8.079298 -10.775898
Zn -2.688140 -10.772981 -8.082216
Zn -5.381823 -8.079298 -8.082216
Zn -5.381823 -10.772981 -5.388533
Zn -2.688140 -8.079298 -5.388533
Zn -2.688140 -10.772981 -2.694850
Zn -5.381823 -8.079298 -2.694850
Zn -5.381823 -10.772981 -0.001167
Zn -2.688140 -8.079298 -0.001167
Zn -2.688140 -10.772981 2.692516
Zn -5.381823 -8.079298 2.692516
Zn -5.381823 -10.772981 5.386199
Zn -2.688140 -8.079298 5.386199
Zn -2.688140 -10.772981 8.079882
Zn -5.381823 -8.079298 8.079882
Zn -5.381823 -10.772981 10.773565
Zn -2.688140 -8.079298 10.773565
Zn -2.688140 -10.772981 13.467247
Zn -5.381823 -8.079298 13.467247
Zn -5.381823 -10.772981 16.160930
Zn -2.688140 -8.079298 16.160930
Zn -2.688140 -10.772981 18.854613
Zn -5.381823 -8.079298 18.854613
Zn -5.381823 -10.772981 21.548296
Zn -2.688140 -8.079298 21.548296
Zn -2.688140 -10.772981 24.241979
Zn -5.381823 -8.079298 24.241979
Zn -5.381823 -10.772981 26.935662
Zn -2.688140 -8.079298 26.935662
Zn -2.688140 -10.772981 29.629345
Zn -5.381823 -8.079298 29.629345
Zn -2.688140 -5.385615 -29.631679
Zn -5.381823 -2.691932 -29.631679
Zn -5.381823 -5.385615 -26.937996
Zn -2.688140 -2.691932 -26.937996
Zn -2.688140 -5.385615 -24.244313
Zn -5.381823 -2.691932 -24.244313
Zn -5.381823 -5.385615 -21.550630
Zn -2.688140 -2.691932 -21.550630
Zn -2.688140 -5.385615 -18.856947
Zn -5.381823 -2.691932 -18.856947
Zn -5.381823 -5.385615 -16.163264
Zn -2.688140 -2.691932 -16.163264
Zn -2.688140 -5.385615 -13.469581
Zn -5.381823 -2.691932 -13.469581
Zn -5.381823 -5.385615 -10.775898
Zn -2.688140 -2.691932 -10.775898
Zn -2.688140 -5.385615 -8.082216
Zn -5.381823 -2.691932 -8.082216
Zn -5.381823 -5.385615 -5.388533
Zn -2.688140 -2.691932 -5.388533
Zn -2.688140 -5.385615 -2.694850
Zn -5.381823 -2.691932 -2.694850
Zn -5.381823 -5.385615 -0.001167
Zn -2.688140 -2.691932 -0.001167
Zn -2.688140 -5.385615 2.692516
Zn -5.381823 -2.691932 2.692516
Zn -5.381823 -5.385615 5.386199
Zn -2.688140 -2.691932 5.386199
Zn -2.688140 -5.385615 8.079882
Zn -5.381823 -2.691932 8.079882
Zn -5.381823 -5.385615 10.773565
Zn -2.688140 -2.691932 10.773565
Zn -2.688140 -5.385615 13.467247
Zn -5.381823 -2.691932 13.467247
Zn -5.381823 -5.385615 16.160930
Zn -2.688140 -2.691932 16.160930
Zn -2.688140 -5.385615 18.854613
Zn -5.381823 -2.691932 18.854613
Zn -5.381823 -5.385615 21.548296
Zn -2.688140 -2.691932 21.548296
Zn -2.688140 -5.385615 24.241979
Zn -5.381823 -2.691932 24.241979
Zn -5.381823 -5.385615 26.935662
Zn -2.688140 -2.691932 26.935662
Zn -2.688140 -5.385615 29.629345
Zn -5.381823 -2.691932 29.629345
Zn -2.688140 0.001750 -29.631679
Zn -5.381823 2.695433 -29.631679
Zn -5.381823 0.001750 -26.937996
Zn -2.688140 2.695433 -26.937996
Zn -2.688140 0.001750 -24.244313
Zn -5.381823 2.695433 -24.244313
Zn -5.381823 0.001750 -21.550630
Zn -2.688140 2.695433 -21.550630
Zn -2.688140 0.001750 -18.856947
Zn -5.381823 2.695433 -18.856947
Zn -5.381823 0.001750 -16.163264
Zn -2.688140 2.695433 -16.163264
Zn -2.688140 0.001750 -13.469581
Zn -5.381823 2.695433 -13.469581
Zn -5.381823 0.001750 -10.775898
Zn -2.688140 2.695433 -10.775898
Zn -2.688140 0.001750 -8.082216
Zn -5.381823 2.695433 -8.082216
Zn -5.381823 0.001750 -5.388533
Zn -2.688140 2.695433 -5.388533
Zn -2.688140 0.001750 -2.694850
Zn -5.381823 2.695433 -2.694850
Zn -5.381823 0.001750 -0.001167
Zn -2.688140 2.695433 -0.001167
Zn -2.688140 0.001750 2.692516
Zn -5.381823 2.695433 2.692516
Zn -5.381823 0.001750 5.386199
Zn -2.688140 2.695433 5.386199
Zn -2.688140 0.001750 8.079882
Zn -5.381823 2.695433 8.079882
Zn -5.381823 0.001750 10.773565
Zn -2.688140 2.695433 10.773565
Zn -2.688140 0.001750 13.467247
Zn -5.381823 2.695433 13.467247
Zn -5.381823 0.001750 16.160930
Zn -2.688140 2.695433 16.160930
Zn -2.688140 0.001750 18.854613
Zn -5.381823 2.695433 18.854613
Zn -5.381823 0.001750 21.548296
Zn -2.688140 2.695433 21.548296
Zn -2.688140 0.001750 24.241979
Zn -5.381823 2.695433 24.241979
Zn -5.381823 0.001750 26.935662
Zn -2.688140 2.695433 26.935662
Zn -2.688140 0.001750 29.629345
Zn -5.381823 2.695433 29.629345
Zn -2.688140 5.389116 -29.631679
Zn -5.381823 8.082799 -29.631679
Zn -5.381823 5.389116 -26.937996
Zn -2.688140 8.082799 -26.937996
Zn -2.688140 5.389116 -24.244313
Zn -5.381823 8.082799 -24.244313
Zn -5.381823 5.389116 -21.550630
Zn -2.688140 8.082799 -21.550630
Zn -2.688140 5.389116 -18.856947
Zn -5.381823 8.082799 -18.856947
Zn -5.381823 5.389116 -16.163264
Zn -2.688140 8.082799 -16.163264
Zn -2.688140 5.389116 -13.469581
Zn -5.381823 8.082799 -13.469581
Zn -5.381823 5.389116 -10.775898
Zn -2.688140 8.082799 -10.775898
Zn -2.688140 5.389116 -8.082216
Zn -5.381823 8.082799 -8.082216
Zn -5.381823 5.389116 -5.388533
Zn -2.688140 8.082799 -5.388533
Zn -2.688140 5.389116 -2.694850
Zn -5.381823 8.082799 -2.694850
Zn -5.381823 5.389116 -0.001167
Zn -2.688140 8.082799 -0.001167
Zn -2.688140 5.389116 2.692516
Zn -5.381823 8.082799 2.692516
Zn -5.381823 5.389116 5.386199
Zn -2.688140 8.082799 5.386199
Zn -2.688140 5.389116 8.079882
Zn -5.381823 8.082799 8.079882
Zn -5.381823 5.389116 10.773565
Zn -2.688140 8.082799 10.773565
Zn -2.688140 5.389116 13.467247
Zn -5.381823 8.082799 13.467247
Zn -5.381823 5.389116 16.160930
Zn -2.688140 8.082799 16.160930
Zn -2.688140 5.389116 18.854613
Zn -5.381823 8.082799 18.854613
Zn -5.381823 5.389116 21.548296
Zn -2.688140 8.082799 21.548296
Zn -2.688140 5.389116 24.241979
Zn -5.381823 8.082799 24.241979
Zn -5.381823 5.389116 26.935662
Zn -2.688140 8.082799 26.935662
Zn -2.688140 5.389116 29.629345
Zn -5.381823 8.082799 29.629345
Zn -2.688140 10.776482 -29.631679
Zn -5.381823 13.470165 -29.631679
Zn -5.381823 10.776482 -26.937996
Zn -2.688140 13.470165 -26.937996
Zn -2.688140 10.776482 -24.244313
Zn -5.381823 13.470165 -24.244313
Zn -5.381823 10.776482 -21.550630
Zn -2.688140 13.470165 -21.550630
Zn -2.688140 10.776482 -18.856947
Zn -5.381823 13.470165 -18.856947
Zn -5.381823 10.776482 -16.163264
Zn -2.688140 13.470165 -16.163264
Zn -2.688140 10.776482 -13.469581
Zn -5.381823 13.470165 -13.469581
Zn -5.381823 10.776482 -10.775898
Zn -2.688140 13.470165 -10.775898
Zn -2.688140 10.776482 -8.082216
Zn -5.381823 13.470165 -8.082216
Zn -5.381823 10.776482 -5.388533
Zn -2.688140 13.470165 -5.388533
Zn -2.688140 10.776482 -2.694850
Zn -5.381823 13.470165 -2.694850
Zn -5.381823 10.776482 -0.001167
Zn -2.688140 13.470165 -0.001167
Zn -2.688140 10.776482 2.692516
Zn -5.381823 13.470165 2.692516
Zn -5.381823 10.776482 5.386199
Zn -2.688140 13.470165 5.386199
Zn -2.688140 10.776482 8.079882
Zn -5.381823 13.470165 8.079882
Zn -5.381823 10.776482 10.773565
Zn -2.688140 13.470165 10.773565
Zn -2.688140 10.776482 13.467247
Zn -5.381823 13.470165 13.467247
Zn -5.381823 10.776482 16.160930
Zn -2.688140 13.470165 16.160930
Zn -2.688140 10.776482 18.854613
Zn -5.381823 13.470165 18.854613
Zn -5.381823 10.776482 21.548296
Zn -2.688140 13.470165 21.548296
Zn -2.688140 10.776482 24.241979
Zn -5.381823 13.470165 24.241979
Zn -5.381823 10.776482 26.935662
Zn -2.688140 13.470165 26.935662
Zn -2.688140 10.776482 29.629345
Zn -5.381823 13.470165 29.629345
Zn -2.688140 16.163848 -29.631679
Zn -5.381823 18.857531 -29.631679
Zn -5.381823 16.163848 -26.937996
Zn -2.688140 18.857531 -26.937996
Zn -2.688140 16.163848 -24.244313
Zn -5.381823 18.857531 -24.244313
Zn -5.381823 16.163848 -21.550630
Zn -2.688140 18.857531 -21.550630
Zn -2.688140 16.163848 -18.856947
Zn -5.381823 18.857531 -18.856947
Zn -5.381823 16.163848 -16.163264
Zn -2.688140 18.857531 -16.163264
Zn -2.688140 16.163848 -13.469581
Zn -5.381823 18.857531 -13.469581
Zn -5.381823 16.163848 -10.775898
Zn -2.688140 18.857531 -10.775898
Zn -2.688140 16.163848 -8.082216
Zn -5.381823 18.857531 -8.082216
Zn -5.381823 16.163848 -5.388533
Zn -2.688140 18.857531 -5.388533
Zn -2.688140 16.163848 -2.694850
Zn -5.381823 18.857531 -2.694850
Zn -5.381823 16.163848 -0.001167
Zn -2.688140 18.857531 -0.001167
Zn -2.688140 16.163848 2.692516
Zn -5.381823 18.857531 2.692516
Zn -5.381823 16.163848 5.386199
Zn -2.688140 18.857531 5.386199
Zn -2.688140 16.163848 8.079882
Zn -5.381823 18.857531 8.079882
Zn -5.381823 16.163848 10.773565
Zn -2.688140 18.857531 10.773565
Zn -2.688140 16.163848 13.467247
Zn -5.381823 18.857531 13.467247
Zn -5.381823 16.163848 16.160930
Zn -2.688140 18.857531 16.160930
Zn -2.688140 16.163848 18.854613
Zn -5.381823 18.857531 18.854613
Zn -5.381823 16.163848 21.548296
Zn -2.688140 18.857531 21.548296
Zn -2.688140 16.163848 24.241979
Zn -5.381823 18.857531 24.241979
Zn -5.381823 16.163848 26.935662
Zn -2.688140 18.857531 26.935662
Zn -2.688140 16.163848 29.629345
Zn -5.381823 18.857531 29.629345
Zn -2.688140 21.551213 -29.631679
Zn -5.381823 21.551213 -26.937996
Zn -2.688140 24.244896 -26.937996
Zn -2.688140 21.551213 -24.244313
Zn -5.381823 24.244896 -24.244313
Zn -5.381823 21.551213 -21.550630
Zn -2.688140 24.244896 -21.550630
Zn -2.688140 21.551213 -18.856947
Zn -5.381823 24.244896 -18.856947
Zn -5.381823 21.551213 -16.163264
Zn -2.688140 24.244896 -16.163264
Zn -2.688140 21.551213 -13.469581
Zn -5.381823 24.244896 -13.469581
Zn -5.381823 21.551213 -10.775898
Zn -2.688140 24.244896 -10.775898
Zn -2.688140 21.551213 -8.082216
Zn -5.381823 24.244896 -8.082216
Zn -5.381823 21.551213 -5.388533
Zn -2.688140 24.244896 -5.388533
Zn -2.688140 21.551213 -2.694850
Zn -5.381823 24.244896 -2.694850
Zn -5.381823 21.551213 -0.001167
Zn -2.688140 24.244896 -0.001167
Zn -2.688140 21.551213 2.692516
Zn -5.381823 24.244896 2.692516
Zn -5.381823 21.551213 5.386199
Zn -2.688140 24.244896 5.386199
Zn -2.688140 21.551213 8.079882
Zn -5.381823 24.244896 8.079882
Zn -5.381823 21.551213 10.773565
Zn -2.688140 24.244896 10.773565
Zn -2.688140 21.551213 13.467247
Zn -5.381823 24.244896 13.467247
Zn -5.381823 21.551213 16.160930
Zn -2.688140 24.244896 16.160930
Zn -2.688140 21.551213 18.854613
Zn -5.381823 24.244896 18.854613
Zn -5.381823 21.551213 21.548296
Zn -2.688140 24.244896 21.548296
Zn -2.688140 21.551213 24.241979
Zn -5.381823 24.244896 24.241979
Zn -5.381823 21.551213 26.935662
Zn -2.688140 24.244896 26.935662
Zn -2.688140 21.551213 29.629345
Zn -2.688140 26.938579 -24.244313
Zn -5.381823 26.938579 -21.550630
Zn -2.688140 29.632262 -21.550630
Zn -2.688140 26.938579 -18.856947
Zn -5.381823 29.632262 -18.856947
Zn -5.381823 26.938579 -16.163264
Zn -2.688140 29.632262 -16.163264
Zn -2.688140 26.938579 -13.469581
Zn -5.381823 29.632262 -13.469581
Zn -5.381823 26.938579 -10.775898
Zn -2.688140 29.632262 -10.775898
Zn -2.688140 26.938579 -8.082216
Zn -5.381823 29.632262 -8.082216
Zn -5.381823 26.938579 -5.388533
Zn -2.688140 29.632262 -5.388533
Zn -2.688140 26.938579 -2.694850
Zn -5.381823 29.632262 -2.694850
Zn -5.381823 26.938579 -0.001167
Zn -2.688140 29.632262 -0.001167
Zn -2.688140 26.938579 2.692516
Zn -5.381823 29.632262 2.692516
Zn -5.381823 26.938579 5.386199
Zn -2.688140 29.632262 5.386199
Zn -2.688140 26.938579 8.079882
Zn -5.381823 29.632262 8.079882
Zn -5.381823 26.938579 10.773565
Zn -2.688140 29.632262 10.773565
Zn -2.688140 26.938579 13.467247
Zn -5.381823 29.632262 13.467247
Zn -5.381823 26.938579 16.160930
Zn -2.688140 29.632262 16.160930
Zn -2.688140 26.938579 18.854613
Zn -5.381823 29.632262 18.854613
Zn -5.381823 26.938579 21.548296
Zn -2.688140 29.632262 21.548296
Zn -2.688140 26.938579 24.241979
Zn 0.005543 -29.628761 -24.244313
Zn 2.699226 -29.628761 -21.550630
Zn 0.005543 -29.628761 -18.856947
Zn 2.699226 -29.628761 -16.163264
Zn 0.005543 -29.628761 -13.469581
Zn 2.699226 -29.628761 -10.775898
Zn 0.005543 -29.628761 -8.082216
Zn 2.699226 -29.628761 -5.388533
Zn 0.005543 -29.628761 -2.694850
Zn 2.699226 -29.628761 -0.001167
Zn 0.005543 -29.628761 2.692516
Zn 2.699226 -29.628761 5.386199
Zn 0.005543 -29.628761 8.079882
Zn 2.699226 -29.628761 10.773565
Zn 0.005543 -29.628761 13.467247
Zn 2.699226 -29.628761 16.160930
Zn 0.005543 -29.628761 18.854613
Zn 2.699226 -29.628761 21.548296
Zn 0.005543 -29.628761 24.241979
Zn 0.005543 -24.241395 -29.631679
Zn 0.005543 -26.935078 -26.937996
Zn 2.699226 -24.241395 -26.937996
Zn 2.699226 -26.935078 -24.244313
Zn 0.005543 -24.241395 -24.244313
Zn 0.005543 -26.935078 -21.550630
Zn 2.699226 -24.241395 -21.550630
Zn 2.699226 -26.935078 -18.856947
Zn 0.005543 -24.241395 -18.856947
Zn 0.005543 -26.935078 -16.163264
Zn 2.699226 -24.241395 -16.163264
Zn 2.699226 -26.935078 -13.469581
Zn 0.005543 -24.241395 -13.469581
Zn 0.005543 -26.935078 -10.775898
Zn 2.699226 -24.241395 -10.775898
Zn 2.699226 -26.935078 -8.082216
Zn 0.005543 -24.241395 -8.082216
Zn 0.005543 -26.935078 -5.388533
Zn 2.699226 -24.241395 -5.388533
Zn 2.699226 -26.935078 -2.694850
Zn 0.005543 -24.241395 -2.694850
Zn 0.005543 -26.935078 -0.001167
Zn 2.699226 -24.241395 -0.001167
Zn 2.699226 -26.935078 2.692516
Zn 0.005543 -24.241395 2.692516
Zn 0.005543 -26.935078 5.386199
Zn 2.699226 -24.241395 5.386199
Zn 2.699226 -26.935078 8.079882
Zn 0.005543 -24.241395 8.079882
Zn 0.005543 -26.935078 10.773565
Zn 2.699226 -24.241395 10.773565
Zn 2.699226 -26.935078 13.467247
Zn 0.005543 -24.241395 13.467247
Zn 0.005543 -26.935078 16.160930
Zn 2.699226 -24.241395 16.160930
Zn 2.699226 -26.935078 18.854613
Zn 0.005543 -24.241395 18.854613
Zn 0.005543 -26.935078 21.548296
Zn 2.699226 -24.241395 21.548296
Zn 2.699226 -26.935078 24.241979
Zn 0.005543 -24.241395 24.241979
Zn 0.005543 -26.935078 26.935662
Zn 2.699226 -24.241395 26.935662
Zn 0.005543 -24.241395 29.629345
Zn 2.699226 -21.547713 -29.631679
Zn 0.005543 -18.854030 -29.631679
Zn 0.005543 -21.547713 -26.937996
Zn 2.699226 -18.854030 -26.937996
Zn 2.699226 -21.547713 -24.244313
Zn 0.005543 -18.854030 -24.244313
Zn 0.005543 -21.547713 -21.550630
Zn 2.699226 -18.854030 -21.550630
Zn 2.699226 -21.547713 -18.856947
Zn 0.005543 -18.854030 -18.856947
Zn 0.005543 -21.547713 -16.163264
Zn 2.699226 -18.854030 -16.163264
Zn 2.699226 -21.547713 -13.469581
Zn 0.005543 -18.854030 -13.469581
Zn 0.005543 -21.547713 -10.775898
Zn 2.699226 -18.854030 -10.775898
Zn 2.699226 -21.547713 -8.082216
Zn 0.005543 -18.854030 -8.082216
Zn 0.005543 -21.547713 -5.388533
Zn 2.699226 -18.854030 -5.388533
Zn 2.699226 -21.547713 -2.694850
Zn 0.005543 -18.854030 -2.694850
Zn 0.005543 -21.547713 -0.001167
Zn 2.699226 -18.854030 -0.001167
Zn 2.699226 -21.547713 2.692516
Zn 0.005543 -18.854030 2.692516
Zn 0.005543 -21.547713 5.386199
Zn 2.699226 -18.854030 5.386199
Zn 2.699226 -21.547713 8.079882
Zn 0.005543 -18.854030 8.079882
Zn 0.005543 -21.547713 10.773565
Zn 2.699226 -18.854030 10.773565
Zn 2.699226 -21.547713 13.467247
Zn 0.005543 -18.854030 13.467247
Zn 0.005543 -21.547713 16.160930
Zn 2.699226 -18.854030 16.160930
Zn 2.699226 -21.547713 18.854613
Zn 0.005543 -18.854030 18.854613
Zn 0.005543 -21.547713 21.548296
Zn 2.699226 -18.854030 21.548296
Zn 2.699226 -21.547713 24.241979
Zn 0.005543 -18.854030 24.241979
Zn 0.005543 -21.547713 26.935662
Zn 2.699226 -18.854030 26.935662
Zn 2.699226 -21.547713 29.629345
Zn 0.005543 -18.854030 29.629345
Zn 2.699226 -16.160347 -29.631679
Zn 0.005543 -13.466664 -29.631679
Zn 0.005543 -16.160347 -26.937996
Zn 2.699226 -13.466664 -26.937996
Zn 2.699226 -16.160347 -24.244313
Zn 0.005543 -13.466664 -24.244313
Zn 0.005543 -16.160347 -21.550630
Zn 2.699226 -13.466664 -21.550630
Zn 2.699226 -16.160347 -18.856947
Zn 0.005543 -13.466664 -18.856947
Zn 0.005543 -16.160347 -16.163264
Zn 2.699226 -13.466664 -16.163264
Zn 2.699226 -16.160347 -13.469581
Zn 0.005543 -13.466664 -13.469581
Zn 0.005543 -16.160347 -10.775898
Zn 2.699226 -13.466664 -10.775898
Zn 2.699226 -16.160347 -8.082216
Zn 0.005543 -13.466664 -8.082216
Zn 0.005543 -16.160347 -5.388533
Zn 2.699226 -13.466664 -5.388533
Zn 2.699226 -16.160347 -2.694850
Zn 0.005543 -13.466664 -2.694850
Zn 0.005543 -16.160347 -0.001167
Zn 2.699226 -13.466664 -0.001167
Zn 2.699226 -16.160347 2.692516
Zn 0.005543 -13.466664 2.692516
Zn 0.005543 -16.160347 5.386199
Zn 2.699226 -13.466664 5.386199
Zn 2.699226 -16.160347 8.079882
Zn 0.005543 -13.466664 8.079882
Zn 0.005543 -16.160347 10.773565
Zn 2.699226 -13.466664 10.773565
Zn 2.699226 -16.160347 13.467247
Zn 0.005543 -13.466664 13.467247
Zn 0.005543 -16.160347 16.160930
Zn 2.699226 -13.466664 16.160930
Zn 2.699226 -16.160347 18.854613
Zn 0.005543 -13.466664 18.854613
Zn 0.005543 -16.160347 21.548296
Zn 2.699226 -13.466664 21.548296
Zn 2.699226 -16.160347 24.241979
Zn 0.005543 -13.466664 24.241979
Zn 0.005543 -16.160347 26.935662
Zn 2.699226 -13.466664 26.935662
Zn 2.699226 -16.160347 29.629345
Zn 0.005543 -13.466664 29.629345
Zn 2.699226 -10.772981 -29.631679
Zn 0.005543 -8.079298 -29.631679
Zn 0.005543 -10.772981 -26.937996
Zn 2.699226 -8.079298 -26.937996
Zn 2.699226 -10.772981 -24.244313
Zn 0.005543 -8.079298 -24.244313
Zn 0.005543 -10.772981 -21.550630
Zn 2.699226 -8.079298 -21.550630
Zn 2.699226 -10.772981 -18.856947
Zn 0.005543 -8.079298 -18.856947
Zn 0.005543 -10.772981 -16.163264
Zn 2.699226 -8.079298 -16.163264
Zn 2.699226 -10.772981 -13.469581
Zn 0.005543 -8.079298 -13.469581
Zn 0.005543 -10.772981 -10.775898
Zn 2.699226 -8.079298 -10.775898
Zn 2.699226 -10.772981 -8.082216
Zn 0.005543 -8.079298 -8.082216
Zn 0.005543 -10.772981 -5.388533
Zn 2.699226 -8.079298 -5.388533
Zn 2.699226 -10.772981 -2.694850
Zn 0.005543 -8.079298 -2.694850
Zn 0.005543 -10.772981 -0.001167
Zn 2.699226 -8.079298 -0.001167
Zn 2.699226 -10.772981 2.692516
Zn 0.005543 -8.079298 2.692516
Zn 0.005543 -10.772981 5.386199
Zn 2.699226 -8.079298 5.386199
Zn 2.699226 -10.772981 8.079882
Zn 0.005543 -8.079298 8.079882
Zn 0.005543 -10.772981 10.773565
Zn 2.699226 -8.079298 10.773565
Zn 2.699226 -10.772981 13.467247
Zn 0.005543 -8.079298 13.467247
Zn 0.005543 -10.772981 16.160930
Zn 2.699226 -8.079298 16.160930
Zn 2.699226 -10.772981 18.854613
Zn 0.005543 -8.079298 18.854613
Zn 0.005543 -10.772981 21.548296
Zn 2.699226 -8.079298 21.548296
Zn 2.699226 -10.772981 24.241979
Zn 0.005543 -8.079298 24.241979
Zn 0.005543 -10.772981 26.935662
Zn 2.699226 -8.079298 26.935662
Zn 2.699226 -10.772981 29.629345
Zn 0.005543 -8.079298 29.629345
Zn 2.699226 -5.385615 -29.631679
Zn 0.005543 -2.691932 -29.631679
Zn 0.005543 -5.385615 -26.937996
Zn 2.699226 -2.691932 -26.937996
Zn 2.699226 -5.385615 -24.244313
Zn 0.005543 -2.691932 -24.244313
Zn 0.005543 -5.385615 -21.550630
Zn 2.699226 -2.691932 -21.550630
Zn 2.699226 -5.385615 -18.856947
Zn 0.005543 -2.691932 -18.856947
Zn 0.005543 -5.385615 -16.163264
Zn 2.699226 -2.691932 -16.163264
Zn 2.699226 -5.385615 -13.469581
Zn 0.005543 -2.691932 -13.469581
Zn 0.005543 -5.385615 -10.775898
Zn 2.699226 -2.691932 -10.775898
Zn 2.699226 -5.385615 -8.082216
Zn 0.005543 -2.691932 -8.082216
Zn 0.005543 -5.385615 -5.388533
Zn 2.699226 -2.691932 -5.388533
Zn 2.699226 -5.385615 -2.694850
Zn 0.005543 -2.691932 -2.694850
Zn 0.005543 -5.385615 -0.001167
Zn 2.699226 -2.691932 -0.001167
Zn 2.699226 -5.385615 2.692516
Zn 0.005543 -2.691932 2.692516
Zn 0.005543 -5.385615 5.386199
Zn 2.699226 -2.691932 5.386199
Zn 2.699226 -5.385615 8.079882
Zn 0.005543 -2.691932 8.079882
Zn 0.005543 -5.385615 10.773565
Zn 2.699226 -2.691932 10.773565
Zn 2.699226 -5.385615 13.467247
Zn 0.005543 -2.691932 13.467247
Zn 0.005543 -5.385615 16.160930
Zn 2.699226 -2.691932 16.160930
Zn 2.699226 -5.385615 18.854613
Zn 0.005543 -2.691932 18.854613
Zn 0.005543 -5.385615 21.548296
Zn 2.699226 -2.691932 21.548296
Zn 2.699226 -5.385615 24.241979
Zn 0.005543 -2.691932 24.241979
Zn 0.005543 -5.385615 26.935662
Zn 2.699226 -2.691932 26.935662
Zn 2.699226 -5.385615 29.629345
Zn 0.005543 -2.691932 29.629345
Zn 2.699226 0.001750 -29.631679
Zn 0.005543 2.695433 -29.631679
Zn 0.005543 0.001750 -26.937996
Zn 2.699226 2.695433 -26.937996
Zn 2.699226 0.001750 -24.244313
Zn 0.005543 2.695433 -24.244313
Zn 0.005543 0.001750 -21.550630
Zn 2.699226 2.695433 -21.550630
Zn 2.699226 0.001750 -18.856947
Zn 0.005543 2.695433 -18.856947
Zn 0.005543 0.001750 -16.163264
Zn 2.699226 2.695433 -16.163264
Zn 2.699226 0.001750 -13.469581
Zn 0.005543 2.695433 -13.469581
Zn 0.005543 0.001750 -10.775898
Zn 2.699226 2.695433 -10.775898
Zn 2.699226 0.001750 -8.082216
Zn 0.005543 2.695433 -8.082216
Zn 0.005543 0.001750 -5.388533
Zn 2.699226 2.695433 -5.388533
Zn 2.699226 0.001750 -2.694850
Zn 0.005543 2.695433 -2.694850
Zn 0.005543 0.001750 -0.001167
Zn 2.699226 2.695433 -0.001167
Zn 2.699226 0.001750 2.692516
Zn 0.005543 2.695433 2.692516
Zn 0.005543 0.001750 5.386199
Zn 2.699226 2.695433 5.386199
Zn 2.699226 0.001750 8.079882
Zn 0.005543 2.695433 8.079882
Zn 0.005543 0.001750 10.773565
Zn 2.699226 2.695433 10.773565
Zn 2.699226 0.001750 13.467247
Zn 0.005543 2.695433 13.467247
Zn 0.005543 0.001750 16.160930
Zn 2.699226 2.695433 16.160930
Zn 2.699226 0.001750 18.854613
Zn 0.005543 2.695433 18.854613
Zn 0.005543 0.001750 21.548296
Zn 2.699226 2.695433 21.548296
Zn 2.699226 0.001750 24.241979
Zn 0.005543 2.695433 24.241979
Zn 0.005543 0.001750 26.935662
Zn 2.699226 2.695433 26.935662
Zn 2.699226 0.001750 29.629345
Zn 0.005543 2.695433 29.629345
Zn 2.699226 5.389116 -29.631679
Zn 0.005543 8.082799 -29.631679
Zn 0.005543 5.389116 -26.937996
Zn 2.699226 8.082799 -26.937996
Zn 2.699226 5.389116 -24.244313
Zn 0.005543 8.082799 -24.244313
Zn 0.005543 5.389116 -21.550630
Zn 2.699226 8.082799 -21.550630
Zn 2.699226 5.389116 -18.856947
Zn 0.005543 8.082799 -18.856947
Zn 0.005543 5.389116 -16.163264
Zn 2.699226 8.082799 -16.163264
Zn 2.699226 5.389116 -13.469581
Zn 0.005543 8.082799 -13.469581
Zn 0.005543 5.389116 -10.775898
Zn 2.699226 8.082799 -10.775898
Zn 2.699226 5.389116 -8.082216
Zn 0.005543 8.082799 -8.082216
Zn 0.005543 5.389116 -5.388533
Zn 2.699226 8.082799 -5.388533
Zn 2.699226 5.389116 -2.694850
Zn 0.005543 8.082799 -2.694850
Zn 0.005543 5.389116 -0.001167
Zn 2.699226 8.082799 -0.001167
Zn 2.699226 5.389116 2.692516
Zn 0.005543 8.082799 2.692516
Zn 0.005543 5.389116 5.386199
Zn 2.699226 8.082799 5.386199
Zn 2.699226 5.389116 8.079882
Zn 0.005543 8.082799 8.079882
Zn 0.005543 5.389116 10.773565
Zn 2.699226 8.082799 10.773565
Zn 2.699226 5.389116 13.467247
Zn 0.005543 8.082799 13.467247
Zn 0.005543 5.389116 16.160930
Zn 2.699226 8.082799 16.160930
Zn 2.699226 5.389116 18.854613
Zn 0.005543 8.082799 18.854613
Zn 0.005543 5.389116 21.548296
Zn 2.699226 8.082799 21.548296
Zn 2.699226 5.389116 24.241979
Zn 0.005543 8.082799 24.241979
Zn 0.005543 5.389116 26.935662
Zn 2.699226 8.082799 26.935662
Zn 2.699226 5.389116 29.629345
Zn 0.005543 8.082799 29.629345
Zn 2.699226 10.776482 -29.631679
Zn 0.005543 13.470165 -29.631679
Zn 0.005543 10.776482 -26.937996
Zn 2.699226 13.470165 -26.937996
Zn 2.699226 10.776482 -24.244313
Zn 0.005543 13.470165 -24.244313
Zn 0.005543 10.776482 -21.550630
Zn 2.699226 13.470165 -21.550630
Zn 2.699226 10.776482 -18.856947
Zn 0.005543 13.470165 -18.856947
Zn 0.005543 10.776482 -16.163264
Zn 2.699226 13.470165 -16.163264
Zn 2.699226 10.776482 -13.469581
Zn 0.005543 13.470165 -13.469581
Zn 0.005543 10.776482 -10.775898
Zn 2.699226 13.470165 -10.775898
Zn 2.699226 10.776482 -8.082216
Zn 0.005543 13.470165 -8.082216
Zn 0.005543 10.776482 -5.388533
Zn 2.699226 13.470165 -5.388533
Zn 2.699226 10.776482 -2.694850
Zn 0.005543 13.470165 -2.694850
Zn 0.005543 10.776482 -0.001167
Zn 2.699226 13.470165 -0.001167
Zn 2.699226 10.776482 2.692516
Zn 0.005543 13.470165 2.692516
Zn 0.005543 10.776482 5.386199
Zn 2.699226 13.470165 5.386199
Zn 2.699226 10.776482 8.079882
Zn 0.005543 13.470165 8.079882
Zn 0.005543 10.776482 10.773565
Zn 2.699226 13.470165 10.773565
Zn 2.699226 10.776482 13.467247
Zn 0.005543 13.470165 13.467247
Zn 0.005543 10.776482 16.160930
Zn 2.699226 13.470165 16.160930
Zn 2.699226 10.776482 18.854613
Zn 0.005543 13.470165 18.854613
Zn 0.005543 10.776482 21.548296
Zn 2.699226 13.470165 21.548296
Zn 2.699226 10.776482 24.241979
Zn 0.005543 13.470165 24.241979
Zn 0.005543 10.776482 26.935662
Zn 2.699226 13.470165 26.935662
Zn 2.699226 10.776482 29.629345
Zn 0.005543 13.470165 29.629345
Zn 2.699226 16.163848 -29.631679
Zn 0.005543 18.857531 -29.631679
Zn 0.005543 16.163848 -26.937996
Zn 2.699226 18.857531 -26.937996
Zn 2.699226 16.163848 -24.244313
Zn 0.005543 18.857531 -24.244313
Zn 0.005543 16.163848 -21.550630
Zn 2.699226 18.857531 -21.550630
Zn 2.699226 16.163848 -18.856947
Zn 0.005543 18.857531 -18.856947
Zn 0.005543 16.163848 -16.163264
Zn 2.699226 18.857531 -16.163264
Zn 2.699226 16.163848 -13.469581
Zn 0.005543 18.857531 -13.469581
Zn 0.005543 16.163848 -10.775898
Zn 2.699226 18.857531 -10.775898
Zn 2.699226 16.163848 -8.082216
Zn 0.005543 18.857531 -8.082216
Zn 0.005543 16.163848 -5.388533
Zn 2.699226 18.857531 -5.388533
Zn 2.699226 16.163848 -2.694850
Zn 0.005543 18.857531 -2.694850
Zn 0.005543 16.163848 -0.001167
Zn 2.699226 18.857531 -0.001167
Zn 2.699226 16.163848 2.692516
Zn 0.005543 18.857531 2.692516
Zn 0.005543 16.163848 5.386199
Zn 2.699226 18.857531 5.386199
Zn 2.699226 16.163848 8.079882
Zn 0.005543 18.857531 8.079882
Zn 0.005543 16.163848 10.773565
Zn 2.699226 18.857531 10.773565
Zn 2.699226 16.163848 13.467247
Zn 0.005543 18.857531 13.467247
Zn 0.005543 16.163848 16.160930
Zn 2.699226 18.857531 16.160930
Zn 2.699226 16.163848 18.854613
Zn 0.005543 18.857531 18.854613
Zn 0.005543 16.163848 21.548296
Zn 2.699226 18.857531 21.548296
Zn 2.699226 16.163848 24.241979
Zn 0.005543 18.857531 24.241979
Zn 0.005543 16.163848 26.935662
Zn 2.699226 18.857531 26.935662
Zn 2.699226 16.163848 29.629345
Zn 0.005543 18.857531 29.629345
Zn 2.699226 21.551213 -29.631679
Zn 0.005543 24.244896 -29.631679
Zn 0.005543 21.551213 -26.937996
Zn 2.699226 24.244896 -26.937996
Zn 2.699226 21.551213 -24.244313
Zn 0.005543 24.244896 -24.244313
Zn 0.005543 21.551213 -21.550630
Zn 2.699226 24.244896 -21.550630
Zn 2.699226 21.551213 -18.856947
Zn 0.005543 24.244896 -18.856947
Zn 0.005543 21.551213 -16.163264
Zn 2.699226 24.244896 -16.163264
Zn 2.699226 21.551213 -13.469581
Zn 0.005543 24.244896 -13.469581
Zn 0.005543 21.551213 -10.775898
Zn 2.699226 24.244896 -10.775898
Zn 2.699226 21.551213 -8.082216
Zn 0.005543 24.244896 -8.082216
Zn 0.005543 21.551213 -5.388533
Zn 2.699226 24.244896 -5.388533
Zn 2.699226 21.551213 -2.694850
Zn 0.005543 24.244896 -2.694850
Zn 0.005543 21.551213 -0.001167
Zn 2.699226 24.244896 -0.001167
Zn 2.699226 21.551213 2.692516
Zn 0.005543 24.244896 2.692516
Zn 0.005543 21.551213 5.386199
Zn 2.699226 24.244896 5.386199
Zn 2.699226 21.551213 8.079882
Zn 0.005543 24.244896 8.079882
Zn 0.005543 21.551213 10.773565
Zn 2.699226 24.244896 10.773565
Zn 2.699226 21.551213 13.467247
Zn 0.005543 24.244896 13.467247
Zn 0.005543 21.551213 16.160930
Zn 2.699226 24.244896 16.160930
Zn 2.699226 21.551213 18.854613
Zn 0.005543 24.244896 18.854613
Zn 0.005543 21.551213 21.548296
Zn 2.699226 24.244896 21.548296
Zn 2.699226 21.551213 24.241979
Zn 0.005543 24.244896 24.241979
Zn 0.005543 21.551213 26.935662
Zn 2.699226 24.244896 26.935662
Zn 2.699226 21.551213 29.629345
Zn 0.005543 24.244896 29.629345
Zn 0.005543 26.938579 -26.937996
Zn 2.699226 26.938579 -24.244313
Zn 0.005543 29.632262 -24.244313
Zn 0.005543 26.938579 -21.550630
Zn 2.699226 29.632262 -21.550630
Zn 2.699226 26.938579 -18.856947
Zn 0.005543 29.632262 -18.856947
Zn 0.005543 26.938579 -16.163264
Zn 2.699226 29.632262 -16.163264
Zn 2.699226 26.938579 -13.469581
Zn 0.005543 29.632262 -13.469581
Zn 0.005543 26.938579 -10.775898
Zn 2.699226 29.632262 -10.775898
Zn 2.699226 26.938579 -8.082216
Zn 0.005543 29.632262 -8.082216
Zn 0.005543 26.938579 -5.388533
Zn 2.699226 29.632262 -5.388533
Zn 2.699226 26.938579 -2.694850
Zn 0.005543 29.632262 -2.694850
Zn 0.005543 26.938579 -0.001167
Zn 2.699226 29.632262 -0.001167
Zn 2.699226 26.938579 2.692516
Zn 0.005543 29.632262 2.692516
Zn 0.005543 26.938579 5.386199
Zn 2.699226 29.632262 5.386199
Zn 2.699226 26.938579 8.079882
Zn 0.005543 29.632262 8.079882
Zn 0.005543 26.938579 10.773565
Zn 2.699226 29.632262 10.773565
Zn 2.699226 26.938579 13.467247
Zn 0.005543 29.632262 13.467247
Zn 0.005543 26.938579 16.160930
Zn 2.699226 29.632262 16.160930
Zn 2.699226 26.938579 18.854613
Zn 0.005543 29.632262 18.854613
Zn 0.005543 26.938579 21.548296
Zn 2.699226 29.632262 21.548296
Zn 2.699226 26.938579 24.241979
Zn 0.005543 29.632262 24.241979
Zn 0.005543 26.938579 26.935662
Zn 5.392909 -29.628761 -18.856947
Zn 8.086592 -29.628761 -16.163264
Zn 5.392909 -29.628761 -13.469581
Zn 8.086592 -29.628761 -10.775898
Zn 5.392909 -29.628761 -8.082216
Zn 8.086592 -29.628761 -5.388533
Zn 5.392909 -29.628761 -2.694850
Zn 8.086592 -29.628761 -0.001167
Zn 5.392909 -29.628761 2.692516
Zn 8.086592 -29.628761 5.386199
Zn 5.392909 -29.628761 8.079882
Zn 8.086592 -29.628761 10.773565
Zn 5.392909 -29.628761 13.467247
Zn 8.086592 -29.628761 16.160930
Zn 5.392909 -29.628761 18.854613
Zn 5.392909 -24.241395 -24.244313
Zn 5.392909 -26.935078 -21.550630
Zn 8.086592 -24.241395 -21.550630
Zn 8.086592 -26.935078 -18.856947
Zn 5.392909 -24.241395 -18.856947
Zn 5.392909 -26.935078 -16.163264
Zn 8.086592 -24.241395 -16.163264
Zn 8.086592 -26.935078 -13.469581
Zn 5.392909 -24.241395 -13.469581
Zn 5.392909 -26.935078 -10.775898
Zn 8.086592 -24.241395 -10.775898
Zn 8.086592 -26.935078 -8.082216
Zn 5.392909 -24.241395 -8.082216
Zn 5.392909 -26.935078 -5.388533
Zn 8.086592 -24.241395 -5.388533
Zn 8.086592 -26.935078 -2.694850
Zn 5.392909 -24.241395 -2.694850
Zn 5.392909 -26.935078 -0.001167
Zn 8.086592 -24.241395 -0.001167
Zn 8.086592 -26.935078 2.692516
Zn 5.392909 -24.241395 2.692516
Zn 5.392909 -26.935078 5.386199
Zn 8.086592 -24.241395 5.386199
Zn 8.086592 -26.935078 8.079882
Zn 5.392909 -24.241395 8.079882
Zn 5.392909 -26.935078 10.773565
Zn 8.086592 -24.241395 10.773565
Zn 8.086592 -26.935078 13.467247
Zn 5.392909 -24.241395 13.467247
Zn 5.392909 -26.935078 16.160930
Zn 8.086592 -24.241395 16.160930
Zn 8.086592 -26.935078 18.854613
Zn 5.392909 -24.241395 18.854613
Zn 5.392909 -26.935078 21.548296
Zn 8.086592 -24.241395 21.548296
Zn 5.392909 -24.241395 24.241979
Zn 5.392909 -18.854030 -29.631679
Zn 5.392909 -21.547713 -26.937996
Zn 8.086592 -18.854030 -26.937996
Zn 8.086592 -21.547713 -24.244313
Zn 5.392909 -18.854030 -24.244313
Zn 5.392909 -21.547713 -21.550630
Zn 8.086592 -18.854030 -21.550630
Zn 8.086592 -21.547713 -18.856947
Zn 5.392909 -18.854030 -18.856947
Zn 5.392909 -21.547713 -16.163264
Zn 8.086592 -18.854030 -16.163264
Zn 8.086592 -21.547713 -13.469581
Zn 5.392909 -18.854030 -13.469581
Zn 5.392909 -21.547713 -10.775898
Zn 8.086592 -18.854030 -10.775898
Zn 8.086592 -21.547713 -8.082216
Zn 5.392909 -18.854030 -8.082216
Zn 5.392909 -21.547713 -5.388533
Zn 8.086592 -18.854030 -5.388533
Zn 8.086592 -21.547713 -2.694850
Zn 5.392909 -18.854030 -2.694850
Zn 5.392909 -21.547713 -0.001167
Zn 8.086592 -18.854030 -0.001167
Zn 8.086592 -21.547713 2.692516
Zn 5.392909 -18.854030 2.692516
Zn 5.392909 -21.547713 5.386199
Zn 8.086592 -18.854030 5.386199
Zn 8.086592 -21.547713 8.079882
Zn 5.392909 -18.854030 8.079882
Zn 5.392909 -21.547713 10.773565
Zn 8.086592 -18.854030 10.773565
Zn 8.086592 -21.547713 13.467247
Zn 5.392909 -18.854030 13.467247
Zn 5.392909 -21.547713 16.160930
Zn 8.086592 -18.854030 16.160930
Zn 8.086592 -21.547713 18.854613
Zn 5.392909 -18.854030 18.854613
Zn 5.392909 -21.547713 21.548296
Zn 8.086592 -18.854030 21.548296
Zn 8.086592 -21.547713 24.241979
Zn 5.392909 -18.854030 24.241979
Zn 5.392909 -21.547713 26.935662
Zn 8.086592 -18.854030 26.935662
Zn 5.392909 -18.854030 29.629345
Zn 8.086592 -16.160347 -29.631679
Zn 5.392909 -13.466664 -29.631679
Zn 5.392909 -16.160347 -26.937996
Zn 8.086592 -13.466664 -26.937996
Zn 8.086592 -16.160347 -24.244313
Zn 5.392909 -13.466664 -24.244313
Zn 5.392909 -16.160347 -21.550630
Zn 8.086592 -13.466664 -21.550630
Zn 8.086592 -16.160347 -18.856947
Zn 5.392909 -13.466664 -18.856947
Zn 5.392909 -16.160347 -16.163264
Zn 8.086592 -13.466664 -16.163264
Zn 8.086592 -16.160347 -13.469581
Zn 5.392909 -13.466664 -13.469581
Zn 5.392909 -16.160347 -10.775898
Zn 8.086592 -13.466664 -10.775898
Zn 8.086592 -16.160347 -8.082216
Zn 5.392909 -13.466664 -8.082216
Zn 5.392909 -16.160347 -5.388533
Zn 8.086592 -13.466664 -5.388533
Zn 8.086592 -16.160347 -2.694850
Zn 5.392909 -13.466664 -2.694850
Zn 5.392909 -16.160347 -0.001167
Zn 8.086592 -13.466664 -0.001167
Zn 8.086592 -16.160347 2.692516
Zn 5.392909 -13.466664 2.692516
Zn 5.392909 -16.160347 5.386199
Zn 8.086592 -13.466664 5.386199
Zn 8.086592 -16.160347 8.079882
Zn 5.392909 -13.466664 8.079882
Zn 5.392909 -16.160347 10.773565
Zn 8.086592 -13.466664 10.773565
Zn 8.086592 -16.160347 13.467247
Zn 5.392909 -13.466664 13.467247
Zn 5.392909 -16.160347 16.160930
Zn 8.086592 -13.466664 16.160930
Zn 8.086592 -16.160347 18.854613
Zn 5.392909 -13.466664 18.854613
Zn 5.392909 -16.160347 21.548296
Zn 8.086592 -13.466664 21.548296
Zn 8.086592 -16.160347 24.241979
Zn 5.392909 -13.466664 24.241979
Zn 5.392909 -16.160347 26.935662
Zn 8.086592 -13.466664 26.935662
Zn 8.086592 -16.160347 29.629345
Zn 5.392909 -13.466664 29.629345
Zn 8.086592 -10.772981 -29.631679
Zn 5.392909 -8.079298 -29.631679
Zn 5.392909 -10.772981 -26.937996
Zn 8.086592 -8.079298 -26.937996
Zn 8.086592 -10.772981 -24.244313
Zn 5.392909 -8.079298 -24.244313
Zn 5.392909 -10.772981 -21.550630
Zn 8.086592 -8.079298 -21.550630
Zn 8.086592 -10.772981 -18.856947
Zn 5.392909 -8.079298 -18.856947
Zn 5.392909 -10.772981 -16.163264
Zn 8.086592 -8.079298 -16.163264
Zn 8.086592 -10.772981 -13.469581
Zn 5.392909 -8.079298 -13.469581
Zn 5.392909 -10.772981 -10.775898
Zn 8.086592 -8.079298 -10.775898
Zn 8.086592 -10.772981 -8.082216
Zn 5.392909 -8.079298 -8.082216
Zn 5.392909 -10.772981 -5.388533
Zn 8.086592 -8.079298 -5.388533
Zn 8.086592 -10.772981 -2.694850
Zn 5.392909 -8.079298 -2.694850
Zn 5.392909 -10.772981 -0.001167
Zn 8.086592 -8.079298 -0.001167
Zn 8.086592 -10.772981 2.692516
Zn 5.392909 -8.079298 2.692516
Zn 5.392909 -10.772981 5.386199
Zn 8.086592 -8.079298 5.386199
Zn 8.086592 -10.772981 8.079882
Zn 5.392909 -8.079298 8.079882
Zn 5.392909 -10.772981 10.773565
Zn 8.086592 -8.079298 10.773565
Zn 8.086592 -10.772981 13.467247
Zn 5.392909 -8.079298 13.467247
Zn 5.392909 -10.772981 16.160930
Zn 8.086592 -8.079298 16.160930
Zn 8.086592 -10.772981 18.854613
Zn 5.392909 -8.079298 18.854613
Zn 5.392909 -10.772981 21.548296
Zn 8.086592 -8.079298 21.548296
Zn 8.086592 -10.772981 24.241979
Zn 5.392909 -8.079298 24.241979
Zn 5.392909 -10.772981 26.935662
Zn 8.086592 -8.079298 26.935662
Zn 8.086592 -10.772981 29.629345
Zn 5.392909 -8.079298 29.629345
Zn 8.086592 -5.385615 -29.631679
Zn 5.392909 -2.691932 -29.631679
Zn 5.392909 -5.385615 -26.937996
Zn 8.086592 -2.691932 -26.937996
Zn 8.086592 -5.385615 -24.244313
Zn 5.392909 -2.691932 -24.244313
Zn 5.392909 -5.385615 -21.550630
Zn 8.086592 -2.691932 -21.550630
Zn 8.086592 -5.385615 -18.856947
Zn 5.392909 -2.691932 -18.856947
Zn 5.392909 -5.385615 -16.163264
Zn 8.086592 -2.691932 -16.163264
Zn 8.086592 -5.385615 -13.469581
Zn 5.392909 -2.691932 -13.469581
Zn 5.392909 -5.385615 -10.775898
Zn 8.086592 -2.691932 -10.775898
Zn 8.086592 -5.385615 -8.082216
Zn 5.392909 -2.691932 -8.082216
Zn 5.392909 -5.385615 -5.388533
Zn 8.086592 -2.691932 -5.388533
Zn 8.086592 -5.385615 -2.694850
Zn 5.392909 -2.691932 -2.694850
Zn 5.392909 -5.385615 -0.001167
Zn 8.086592 -2.691932 -0.001167
Zn 8.086592 -5.385615 2.692516
Zn 5.392909 -2.691932 2.692516
Zn 5.392909 -5.385615 5.386199
Zn 8.086592 -2.691932 5.386199
Zn 8.086592 -5.385615 8.079882
Zn 5.392909 -2.691932 8.079882
Zn 5.392909 -5.385615 10.773565
Zn 8.086592 -2.691932 10.773565
Zn 8.086592 -5.385615 13.467247
Zn 5.392909 -2.691932 13.467247
Zn 5.392909 -5.385615 16.160930
Zn 8.086592 -2.691932 16.160930
Zn 8.086592 -5.385615 18.854613
Zn 5.392909 -2.691932 18.854613
Zn 5.392909 -5.385615 21.548296
Zn 8.086592 -2.691932 21.548296
Zn 8.086592 -5.385615 24.241979
Zn 5.392909 -2.691932 24.241979
Zn 5.392909 -5.385615 26.935662
Zn 8.086592 -2.691932 26.935662
Zn 8.086592 -5.385615 29.629345
Zn 5.392909 -2.691932 29.629345
Zn 8.086592 0.001750 -29.631679
Zn 5.392909 2.695433 -29.631679
Zn 5.392909 0.001750 -26.937996
Zn 8.086592 2.695433 -26.937996
Zn 8.086592 0.001750 -24.244313
Zn 5.392909 2.695433 -24.244313
Zn 5.392909 0.001750 -21.550630
Zn 8.086592 2.695433 -21.550630
Zn 8.086592 0.001750 -18.856947
Zn 5.392909 2.695433 -18.856947
Zn 5.392909 0.001750 -16.163264
Zn 8.086592 2.695433 -16.163264
Zn 8.086592 0.001750 -13.469581
Zn 5.392909 2.695433 -13.469581
Zn 5.392909 0.001750 -10.775898
Zn 8.086592 2.695433 -10.775898
Zn 8.086592 0.001750 -8.082216
Zn 5.392909 2.695433 -8.082216
Zn 5.392909 0.001750 -5.388533
Zn 8.086592 2.695433 -5.388533
Zn 8.086592 0.001750 -2.694850
Zn 5.392909 2.695433 -2.694850
Zn 5.392909 0.001750 -0.001167
Zn 8.086592 2.695433 -0.001167
Zn 8.086592 0.001750 2.692516
Zn 5.392909 2.695433 2.692516
Zn 5.392909 0.001750 5.386199
Zn 8.086592 2.695433 5.386199
Zn 8.086592 0.001750 8.079882
Zn 5.392909 2.695433 8.079882
Zn 5.392909 0.001750 10.773565
Zn 8.086592 2.695433 10.773565
Zn 8.086592 0.001750 13.467247
Zn 5.392909 2.695433 13.467247
Zn 5.392909 0.001750 16.160930
Zn 8.086592 2.695433 16.160930
Zn 8.086592 0.001750 18.854613
Zn 5.392909 2.695433 18.854613
Zn 5.392909 0.001750 21.548296
Zn 8.086592 2.695433 21.548296
Zn 8.086592 0.001750 24.241979
Zn 5.392909 2.695433 24.241979
Zn 5.392909 0.001750 26.935662
Zn 8.086592 2.695433 26.935662
Zn 8.086592 0.001750 29.629345
Zn 5.392909 2.695433 29.629345
Zn 8.086592 5.389116 -29.631679
Zn 5.392909 8.082799 -29.631679
Zn 5.392909 5.389116 -26.937996
Zn 8.086592 8.082799 -26.937996
Zn 8.086592 5.389116 -24.244313
Zn 5.392909 8.082799 -24.244313
Zn 5.392909 5.389116 -21.550630
Zn 8.086592 8.082799 -21.550630
Zn 8.086592 5.389116 -18.856947
Zn 5.392909 8.082799 -18.856947
Zn 5.392909 5.389116 -16.163264
Zn 8.086592 8.082799 -16.163264
Zn 8.086592 5.389116 -13.469581
Zn 5.392909 8.082799 -13.469581
Zn 5.392909 5.389116 -10.775898
Zn 8.086592 8.082799 -10.775898
Zn 8.086592 5.389116 -8.082216
Zn 5.392909 8.082799 -8.082216
Zn 5.392909 5.389116 -5.388533
Zn 8.086592 8.082799 -5.388533
Zn 8.086592 5.389116 -2.694850
Zn 5.392909 8.082799 -2.694850
Zn 5.392909 5.389116 -0.001167
Zn 8.086592 8.082799 -0.001167
Zn 8.086592 5.389116 2.692516
Zn 5.392909 8.082799 2.692516
Zn 5.392909 5.389116 5.386199
Zn 8.086592 8.082799 5.386199
Zn 8.086592 5.389116 8.079882
Zn 5.392909 8.082799 8.079882
Zn 5.392909 5.389116 10.773565
Zn 8.086592 8.082799 10.773565
Zn 8.086592 5.389116 13.467247
Zn 5.392909 8.082799 13.467247
Zn 5.392909 5.389116 16.160930
Zn 8.086592 8.082799 16.160930
Zn 8.086592 5.389116 18.854613
Zn 5.392909 8.082799 18.854613
Zn 5.392909 5.389116 21.548296
Zn 8.086592 8.082799 21.548296
Zn 8.086592 5.389116 24.241979
Zn 5.392909 8.082799 24.241979
Zn 5.392909 5.389116 26.935662
Zn 8.086592 8.082799 26.935662
Zn 8.086592 5.389116 29.629345
Zn 5.392909 8.082799 29.629345
Zn 8.086592 10.776482 -29.631679
Zn 5.392909 13.470165 -29.631679
Zn 5.392909 10.776482 -26.937996
Zn 8.086592 13.470165 -26.937996
Zn 8.086592 10.776482 -24.244313
Zn 5.392909 13.470165 -24.244313
Zn 5.392909 10.776482 -21.550630
Zn 8.086592 13.470165 -21.550630
Zn 8.086592 10.776482 -18.856947
Zn 5.392909 13.470165 -18.856947
Zn 5.392909 10.776482 -16.163264
Zn 8.086592 13.470165 -16.163264
Zn 8.086592 10.776482 -13.469581
Zn 5.392909 13.470165 -13.469581
Zn 5.392909 10.776482 -10.775898
Zn 8.086592 13.470165 -10.775898
Zn 8.086592 10.776482 -8.082216
Zn 5.392909 13.470165 -8.082216
Zn 5.392909 10.776482 -5.388533
Zn 8.086592 13.470165 -5.388533
Zn 8.086592 10.776482 -2.694850
Zn 5.392909 13.470165 -2.694850
Zn 5.392909 10.776482 -0.001167
Zn 8.086592 13.470165 -0.001167
Zn 8.086592 10.776482 2.692516
Zn 5.392909 13.470165 2.692516
Zn 5.392909 10.776482 5.386199
Zn 8.086592 13.470165 5.386199
Zn 8.086592 10.776482 8.079882
Zn 5.392909 13.470165 8.079882
Zn 5.392909 10.776482 10.773565
Zn 8.086592 13.470165 10.773565
Zn 8.086592 10.776482 13.467247
Zn 5.392909 13.470165 13.467247
Zn 5.392909 10.776482 16.160930
Zn 8.086592 13.470165 16.160930
Zn 8.086592 10.776482 18.854613
Zn 5.392909 13.470165 18.854613
Zn 5.392909 10.776482 21.548296
Zn 8.086592 13.470165 21.548296
Zn 8.086592 10.776482 24.241979
Zn 5.392909 13.470165 24.241979
Zn 5.392909 10.776482 26.935662
Zn 8.086592 13.470165 26.935662
Zn 8.086592 10.776482 29.629345
Zn 5.392909 13.470165 29.629345
Zn 8.086592 16.163848 -29.631679
Zn 5.392909 18.857531 -29.631679
Zn 5.392909 16.163848 -26.937996
Zn 8.086592 18.857531 -26.937996
Zn 8.086592 16.163848 -24.244313
Zn 5.392909 18.857531 -24.244313
Zn 5.392909 16.163848 -21.550630
Zn 8.086592 18.857531 -21.550630
Zn 8.086592 16.163848 -18.856947
Zn 5.392909 18.857531 -18.856947
Zn 5.392909 16.163848 -16.163264
Zn 8.086592 18.857531 -16.163264
Zn 8.086592 16.163848 -13.469581
Zn 5.392909 18.857531 -13.469581
Zn 5.392909 16.163848 -10.775898
Zn 8.086592 18.857531 -10.775898
Zn 8.086592 16.163848 -8.082216
Zn 5.392909 18.857531 -8.082216
Zn 5.392909 16.163848 -5.388533
Zn 8.086592 18.857531 -5.388533
Zn 8.086592 16.163848 -2.694850
Zn 5.392909 18.857531 -2.694850
Zn 5.392909 16.163848 -0.001167
Zn 8.086592 18.857531 -0.001167
Zn 8.086592 16.163848 2.692516
Zn 5.392909 18.857531 2.692516
Zn 5.392909 16.163848 5.386199
Zn 8.086592 18.857531 5.386199
Zn 8.086592 16.163848 8.079882
Zn 5.392909 18.857531 8.079882
Zn 5.392909 16.163848 10.773565
Zn 8.086592 18.857531 10.773565
Zn 8.086592 16.163848 13.467247
Zn 5.392909 18.857531 13.467247
Zn 5.392909 16.163848 16.160930
Zn 8.086592 18.857531 16.160930
Zn 8.086592 16.163848 18.854613
Zn 5.392909 18.857531 18.854613
Zn 5.392909 16.163848 21.548296
Zn 8.086592 18.857531 21.548296
Zn 8.086592 16.163848 24.241979
Zn 5.392909 18.857531 24.241979
Zn 5.392909 16.163848 26.935662
Zn 8.086592 18.857531 26.935662
Zn 8.086592 16.163848 29.629345
Zn 5.392909 18.857531 29.629345
Zn 5.392909 21.551213 -26.937996
Zn 8.086592 21.551213 -24.244313
Zn 5.392909 24.244896 -24.244313
Zn 5.392909 21.551213 -21.550630
Zn 8.086592 24.244896 -21.550630
Zn 8.086592 21.551213 -18.856947
Zn 5.392909 24.244896 -18.856947
Zn 5.392909 21.551213 -16.163264
Zn 8.086592 24.244896 -16.163264
Zn 8.086592 21.551213 -13.469581
Zn 5.392909 24.244896 -13.469581
Zn 5.392909 21.551213 -10.775898
Zn 8.086592 24.244896 -10.775898
Zn 8.086592 21.551213 -8.082216
Zn 5.392909 24.244896 -8.082216
Zn 5.392909 21.551213 -5.388533
Zn 8.086592 24.244896 -5.388533
Zn 8.086592 21.551213 -2.694850
Zn 5.392909 24.244896 -2.694850
Zn 5.392909 21.551213 -0.001167
Zn 8.086592 24.244896 -0.001167
Zn 8.086592 21.551213 2.692516
Zn 5.392909 24.244896 2.692516
Zn 5.392909 21.551213 5.386199
Zn 8.086592 24.244896 5.386199
Zn 8.086592 21.551213 8.079882
Zn 5.392909 24.244896 8.079882
Zn 5.392909 21.551213 10.773565
Zn 8.086592 24.244896 10.773565
Zn 8.086592 21.551213 13.467247
Zn 5.392909 24.244896 13.467247
Zn 5.392909 21.551213 16.160930
Zn 8.086592 24.244896 16.160930
Zn 8.086592 21.551213 18.854613
Zn 5.392909 24.244896 18.854613
Zn 5.392909 21.551213 21.548296
Zn 8.086592 24.244896 21.548296
Zn 8.086592 21.551213 24.241979
Zn 5.392909 24.244896 24.241979
Zn 5.392909 21.551213 26.935662
Zn 5.392909 26.938579 -21.550630
Zn 8.086592 26.938579 -18.856947
Zn 5.392909 29.632262 -18.856947
Zn 5.392909 26.938579 -16.163264
Zn 8.086592 29.632262 -16.163264
Zn 8.086592 26.938579 -13.469581
Zn 5.392909 29.632262 -13.469581
Zn 5.392909 26.938579 -10.775898
Zn 8.086592 29.632262 -10.775898
Zn 8.086592 26.938579 -8.082216
Zn 5.392909 29.632262 -8.082216
Zn 5.392909 26.938579 -5.388533
Zn 8.086592 29.632262 -5.388533
Zn 8.086592 26.938579 -2.694850
Zn 5.392909 29.632262 -2.694850
Zn 5.392909 26.938579 -0.001167
Zn 8.086592 29.632262 -0.001167
Zn 8.086592 26.938579 2.692516
Zn 5.392909 29.632262 2.692516
Zn 5.392909 26.938579 5.386199
Zn 8.086592 29.632262 5.386199
Zn 8.086592 26.938579 8.079882
Zn 5.392909 29.632262 8.079882
Zn 5.392909 26.938579 10.773565
Zn 8.086592 29.632262 10.773565
Zn 8.086592 26.938579 13.467247
Zn 5.392909 29.632262 13.467247
Zn 5.392909 26.938579 16.160930
Zn 8.086592 29.632262 16.160930
Zn 8.086592 26.938579 18.854613
Zn 5.392909 29.632262 18.854613
Zn 5.392909 26.938579 21.548296
Zn 10.780275 -29.628761 -13.469581
Zn 13.473958 -29.628761 -10.775898
Zn 10.780275 -29.628761 -8.082216
Zn 13.473958 -29.628761 -5.388533
Zn 10.780275 -29.628761 -2.694850
Zn 13.473958 -29.628761 -0.001167
Zn 10.780275 -29.628761 2.692516
Zn 13.473958 -29.628761 5.386199
Zn 10.780275 -29.628761 8.079882
Zn 13.473958 -29.628761 10.773565
Zn 10.780275 -29.628761 13.467247
Zn 10.780275 -24.241395 -18.856947
Zn 10.780275 -26.935078 -16.163264
Zn 13.473958 -24.241395 -16.163264
Zn 13.473958 -26.935078 -13.469581
Zn 10.780275 -24.241395 -13.469581
Zn 10.780275 -26.935078 -10.775898
Zn 13.473958 -24.241395 -10.775898
Zn 13.473958 -26.935078 -8.082216
Zn 10.780275 -24.241395 -8.082216
Zn 10.780275 -26.935078 -5.388533
Zn 13.473958 -24.241395 -5.388533
Zn 13.473958 -26.935078 -2.694850
Zn 10.780275 -24.241395 -2.694850
Zn 10.780275 -26.935078 -0.001167
Zn 13.473958 -24.241395 -0.001167
Zn 13.473958 -26.935078 2.692516
Zn 10.780275 -24.241395 2.692516
Zn 10.780275 -26.935078 5.386199
Zn 13.473958 -24.241395 5.386199
Zn 13.473958 -26.935078 8.079882
Zn 10.780275 -24.241395 8.079882
Zn 10.780275 -26.935078 10.773565
Zn 13.473958 -24.241395 10.773565
Zn 13.473958 -26.935078 13.467247
Zn 10.780275 -24.241395 13.467247
Zn 10.780275 -26.935078 16.160930
Zn 13.473958 -24.241395 16.160930
Zn 10.780275 -24.241395 18.854613
Zn 10.780275 -18.854030 -24.244313
Zn 10.780275 -21.547713 -21.550630
Zn 13.473958 -18.854030 -21.550630
Zn 13.473958 -21.547713 -18.856947
Zn 10.780275 -18.854030 -18.856947
Zn 10.780275 -21.547713 -16.163264
Zn 13.473958 -18.854030 -16.163264
Zn 13.473958 -21.547713 -13.469581
Zn 10.780275 -18.854030 -13.469581
Zn 10.780275 -21.547713 -10.775898
Zn 13.473958 -18.854030 -10.775898
Zn 13.473958 -21.547713 -8.082216
Zn 10.780275 -18.854030 -8.082216
Zn 10.780275 -21.547713 -5.388533
Zn 13.473958 -18.854030 -5.388533
Zn 13.473958 -21.547713 -2.694850
Zn 10.780275 -18.854030 -2.694850
Zn 10.780275 -21.547713 -0.001167
Zn 13.473958 -18.854030 -0.001167
Zn 13.473958 -21.547713 2.692516
Zn 10.780275 -18.854030 2.692516
Zn 10.780275 -21.547713 5.386199
Zn 13.473958 -18.854030 5.386199
Zn 13.473958 -21.547713 8.079882
Zn 10.780275 -18.854030 8.079882
Zn 10.780275 -21.547713 10.773565
Zn 13.473958 -18.854030 10.773565
Zn 13.473958 -21.547713 13.467247
Zn 10.780275 -18.854030 13.467247
Zn 10.780275 -21.547713 16.160930
Zn 13.473958 -18.854030 16.160930
Zn 13.473958 -21.547713 18.854613
Zn 10.780275 -18.854030 18.854613
Zn 10.780275 -21.547713 21.548296
Zn 13.473958 -18.854030 21.548296
Zn 10.780275 -18.854030 24.241979
Zn 10.780275 -13.466664 -29.631679
Zn 10.780275 -16.160347 -26.937996
Zn 13.473958 -13.466664 -26.937996
Zn 13.473958 -16.160347 -24.244313
Zn 10.780275 -13.466664 -24.244313
Zn 10.780275 -16.160347 -21.550630
Zn 13.473958 -13.466664 -21.550630
Zn 13.473958 -16.160347 -18.856947
Zn 10.780275 -13.466664 -18.856947
Zn 10.780275 -16.160347 -16.163264
Zn 13.473958 -13.466664 -16.163264
Zn 13.473958 -16.160347 -13.469581
Zn 10.780275 -13.466664 -13.469581
Zn 10.780275 -16.160347 -10.775898
Zn 13.473958 -13.466664 -10.775898
Zn 13.473958 -16.160347 -8.082216
Zn 10.780275 -13.466664 -8.082216
Zn 10.780275 -16.160347 -5.388533
Zn 13.473958 -13.466664 -5.388533
Zn 13.473958 -16.160347 -2.694850
Zn 10.780275 -13.466664 -2.694850
Zn 10.780275 -16.160347 -0.001167
Zn 13.473958 -13.466664 -0.001167
Zn 13.473958 -16.160347 2.692516
Zn 10.780275 -13.466664 2.692516
Zn 10.780275 -16.160347 5.386199
Zn 13.473958 -13.466664 5.386199
Zn 13.473958 -16.160347 8.079882
Zn 10.780275 -13.466664 8.079882
Zn 10.780275 -16.160347 10.773565
Zn 13.473958 -13.466664 10.773565
Zn 13.473958 -16.160347 13.467247
Zn 10.780275 -13.466664 13.467247
Zn 10.780275 -16.160347 16.160930
Zn 13.473958 -13.466664 16.160930
Zn 13.473958 -16.160347 18.854613
Zn 10.780275 -13.466664 18.854613
Zn 10.780275 -16.160347 21.548296
Zn 13.473958 -13.466664 21.548296
Zn 13.473958 -16.160347 24.241979
Zn 10.780275 -13.466664 24.241979
Zn 10.780275 -16.160347 26.935662
Zn 13.473958 -13.466664 26.935662
Zn 10.780275 -13.466664 29.629345
Zn 13.473958 -10.772981 -29.631679
Zn 10.780275 -8.079298 -29.631679
Zn 10.780275 -10.772981 -26.937996
Zn 13.473958 -8.079298 -26.937996
Zn 13.473958 -10.772981 -24.244313
Zn 10.780275 -8.079298 -24.244313
Zn 10.780275 -10.772981 -21.550630
Zn 13.473958 -8.079298 -21.550630
Zn 13.473958 -10.772981 -18.856947
Zn 10.780275 -8.079298 -18.856947
Zn 10.780275 -10.772981 -16.163264
Zn 13.473958 -8.079298 -16.163264
Zn 13.473958 -10.772981 -13.469581
Zn 10.780275 -8.079298 -13.469581
Zn 10.780275 -10.772981 -10.775898
Zn 13.473958 -8.079298 -10.775898
Zn 13.473958 -10.772981 -8.082216
Zn 10.780275 -8.079298 -8.082216
Zn 10.780275 -10.772981 -5.388533
Zn 13.473958 -8.079298 -5.388533
Zn 13.473958 -10.772981 -2.694850
Zn 10.780275 -8.079298 -2.694850
Zn 10.780275 -10.772981 -0.001167
Zn 13.473958 -8.079298 -0.001167
Zn 13.473958 -10.772981 2.692516
Zn 10.780275 -8.079298 2.692516
Zn 10.780275 -10.772981 5.386199
Zn 13.473958 -8.079298 5.386199
Zn 13.473958 -10.772981 8.079882
Zn 10.780275 -8.079298 8.079882
Zn 10.780275 -10.772981 10.773565
Zn 13.473958 -8.079298 10.773565
Zn 13.473958 -10.772981 13.467247
Zn 10.780275 -8.079298 13.467247
Zn 10.780275 -10.772981 16.160930
Zn 13.473958 -8.079298 16.160930
Zn 13.473958 -10.772981 18.854613
Zn 10.780275 -8.079298 18.854613
Zn 10.780275 -10.772981 21.548296
Zn 13.473958 -8.079298 21.548296
Zn 13.473958 -10.772981 24.241979
Zn 10.780275 -8.079298 24.241979
Zn 10.780275 -10.772981 26.935662
Zn 13.473958 -8.079298 26.935662
Zn 13.473958 -10.772981 29.629345
Zn 10.780275 -8.079298 29.629345
Zn 13.473958 -5.385615 -29.631679
Zn 10.780275 -2.691932 -29.631679
Zn 10.780275 -5.385615 -26.937996
Zn 13.473958 -2.691932 -26.937996
Zn 13.473958 -5.385615 -24.244313
Zn 10.780275 -2.691932 -24.244313
Zn 10.780275 -5.385615 -21.550630
Zn 13.473958 -2.691932 -21.550630
Zn 13.473958 -5.385615 -18.856947
Zn 10.780275 -2.691932 -18.856947
Zn 10.780275 -5.385615 -16.163264
Zn 13.473958 -2.691932 -16.163264
Zn 13.473958 -5.385615 -13.469581
Zn 10.780275 -2.691932 -13.469581
Zn 10.780275 -5.385615 -10.775898
Zn 13.473958 -2.691932 -10.775898
Zn 13.473958 -5.385615 -8.082216
Zn 10.780275 -2.691932 -8.082216
Zn 10.780275 -5.385615 -5.388533
Zn 13.473958 -2.691932 -5.388533
Zn 13.473958 -5.385615 -2.694850
Zn 10.780275 -2.691932 -2.694850
Zn 10.780275 -5.385615 -0.001167
Zn 13.473958 -2.691932 -0.001167
Zn 13.473958 -5.385615 2.692516
Zn 10.780275 -2.691932 2.692516
Zn 10.780275 -5.385615 5.386199
Zn 13.473958 -2.691932 5.386199
Zn 13.473958 -5.385615 8.079882
Zn 10.780275 -2.691932 8.079882
Zn 10.780275 -5.385615 10.773565
Zn 13.473958 -2.691932 10.773565
Zn 13.473958 -5.385615 13.467247
Zn 10.780275 -2.691932 13.467247
Zn 10.780275 -5.385615 16.160930
Zn 13.473958 -2.691932 16.160930
Zn 13.473958 -5.385615 18.854613
Zn 10.780275 -2.691932 18.854613
Zn 10.780275 -5.385615 21.548296
Zn 13.473958 -2.691932 21.548296
Zn 13.473958 -5.385615 24.241979
Zn 10.780275 -2.691932 24.241979
Zn 10.780275 -5.385615 26.935662
Zn 13.473958 -2.691932 26.935662
Zn 13.473958 -5.385615 29.629345
Zn 10.780275 -2.691932 29.629345
Zn 13.473958 0.001750 -29.631679
Zn 10.780275 2.695433 -29.631679
Zn 10.780275 0.001750 -26.937996
Zn 13.473958 2.695433 -26.937996
Zn 13.473958 0.001750 -24.244313
Zn 10.780275 2.695433 -24.244313
Zn 10.780275 0.001750 -21.550630
Zn 13.473958 2.695433 -21.550630
Zn 13.473958 0.001750 -18.856947
Zn 10.780275 2.695433 -18.856947
Zn 10.780275 0.001750 -16.163264
Zn 13.473958 2.695433 -16.163264
Zn 13.473958 0.001750 -13.469581
Zn 10.780275 2.695433 -13.469581
Zn 10.780275 0.001750 -10.775898
Zn 13.473958 2.695433 -10.775898
Zn 13.473958 0.001750 -8.082216
Zn 10.780275 2.695433 -8.082216
Zn 10.780275 0.001750 -5.388533
Zn 13.473958 2.695433 -5.388533
Zn 13.473958 0.001750 -2.694850
Zn 10.780275 2.695433 -2.694850
Zn 10.780275 0.001750 -0.001167
Zn 13.473958 2.695433 -0.001167
Zn 13.473958 0.001750 2.692516
Zn 10.780275 2.695433 2.692516
Zn 10.780275 0.001750 5.386199
Zn 13.473958 2.695433 5.386199
Zn 13.473958 0.001750 8.079882
Zn 10.780275 2.695433 8.079882
Zn 10.780275 0.001750 10.773565
Zn 13.473958 2.695433 10.773565
Zn 13.473958 0.001750 13.467247
Zn 10.780275 2.695433 13.467247
Zn 10.780275 0.001750 16.160930
Zn 13.473958 2.695433 16.160930
Zn 13.473958 0.001750 18.854613
Zn 10.780275 2.695433 18.854613
Zn 10.780275 0.001750 21.548296
Zn 13.473958 2.695433 21.548296
Zn 13.473958 0.001750 24.241979
Zn 10.780275 2.695433 24.241979
Zn 10.780275 0.001750 26.935662
Zn 13.473958 2.695433 26.935662
Zn 13.473958 0.001750 29.629345
Zn 10.780275 2.695433 29.629345
Zn 13.473958 5.389116 -29.631679
Zn 10.780275 8.082799 -29.631679
Zn 10.780275 5.389116 -26.937996
Zn 13.473958 8.082799 -26.937996
Zn 13.473958 5.389116 -24.244313
Zn 10.780275 8.082799 -24.244313
Zn 10.780275 5.389116 -21.550630
Zn 13.473958 8.082799 -21.550630
Zn 13.473958 5.389116 -18.856947
Zn 10.780275 8.082799 -18.856947
Zn 10.780275 5.389116 -16.163264
Zn 13.473958 8.082799 -16.163264
Zn 13.473958 5.389116 -13.469581
Zn 10.780275 8.082799 -13.469581
Zn 10.780275 5.389116 -10.775898
Zn 13.473958 8.082799 -10.775898
Zn 13.473958 5.389116 -8.082216
Zn 10.780275 8.082799 -8.082216
Zn 10.780275 5.389116 -5.388533
Zn 13.473958 8.082799 -5.388533
Zn 13.473958 5.389116 -2.694850
Zn 10.780275 8.082799 -2.694850
Zn 10.780275 5.389116 -0.001167
Zn 13.473958 8.082799 -0.001167
Zn 13.473958 5.389116 2.692516
Zn 10.780275 8.082799 2.692516
Zn 10.780275 5.389116 5.386199
Zn 13.473958 8.082799 5.386199
Zn 13.473958 5.389116 8.079882
Zn 10.780275 8.082799 8.079882
Zn 10.780275 5.389116 10.773565
Zn 13.473958 8.082799 10.773565
Zn 13.473958 5.389116 13.467247
Zn 10.780275 8.082799 13.467247
Zn 10.780275 5.389116 16.160930
Zn 13.473958 8.082799 16.160930
Zn 13.473958 5.389116 18.854613
Zn 10.780275 8.082799 18.854613
Zn 10.780275 5.389116 21.548296
Zn 13.473958 8.082799 21.548296
Zn 13.473958 5.389116 24.241979
Zn 10.780275 8.082799 24.241979
Zn 10.780275 5.389116 26.935662
Zn 13.473958 8.082799 26.935662
Zn 13.473958 5.389116 29.629345
Zn 10.780275 8.082799 29.629345
Zn 13.473958 10.776482 -29.631679
Zn 10.780275 13.470165 -29.631679
Zn 10.780275 10.776482 -26.937996
Zn 13.473958 13.470165 -26.937996
Zn 13.473958 10.776482 -24.244313
Zn 10.780275 13.470165 -24.244313
Zn 10.780275 10.776482 -21.550630
Zn 13.473958 13.470165 -21.550630
Zn 13.473958 10.776482 -18.856947
Zn 10.780275 13.470165 -18.856947
Zn 10.780275 10.776482 -16.163264
Zn 13.473958 13.470165 -16.163264
Zn 13.473958 10.776482 -13.469581
Zn 10.780275 13.470165 -13.469581
Zn 10.780275 10.776482 -10.775898
Zn 13.473958 13.470165 -10.775898
Zn 13.473958 10.776482 -8.082216
Zn 10.780275 13.470165 -8.082216
Zn 10.780275 10.776482 -5.388533
Zn 13.473958 13.470165 -5.388533
Zn 13.473958 10.776482 -2.694850
Zn 10.780275 13.470165 -2.694850
Zn 10.780275 10.776482 -0.001167
Zn 13.473958 13.470165 -0.001167
Zn 13.473958 10.776482 2.692516
Zn 10.780275 13.470165 2.692516
Zn 10.780275 10.776482 5.386199
Zn 13.473958 13.470165 5.386199
Zn 13.473958 10.776482 8.079882
Zn 10.780275 13.470165 8.079882
Zn 10.780275 10.776482 10.773565
Zn 13.473958 13.470165 10.773565
Zn 13.473958 10.776482 13.467247
Zn 10.780275 13.470165 13.467247
Zn 10.780275 10.776482 16.160930
Zn 13.473958 13.470165 16.160930
Zn 13.473958 10.776482 18.854613
Zn 10.780275 13.470165 18.854613
Zn 10.780275 10.776482 21.548296
Zn 13.473958 13.470165 21.548296
Zn 13.473958 10.776482 24.241979
Zn 10.780275 13.470165 24.241979
Zn 10.780275 10.776482 26.935662
Zn 13.473958 13.470165 26.935662
Zn 13.473958 10.776482 29.629345
Zn 10.780275 13.470165 29.629345
Zn 10.780275 16.163848 -26.937996
Zn 13.473958 16.163848 -24.244313
Zn 10.780275 18.857531 -24.244313
Zn 10.780275 16.163848 -21.550630
Zn 13.473958 18.857531 -21.550630
Zn 13.473958 16.163848 -18.856947
Zn 10.780275 18.857531 -18.856947
Zn 10.780275 16.163848 -16.163264
Zn 13.473958 18.857531 -16.163264
Zn 13.473958 16.163848 -13.469581
Zn 10.780275 18.857531 -13.469581
Zn 10.780275 16.163848 -10.775898
Zn 13.473958 18.857531 -10.775898
Zn 13.473958 16.163848 -8.082216
Zn 10.780275 18.857531 -8.082216
Zn 10.780275 16.163848 -5.388533
Zn 13.473958 18.857531 -5.388533
Zn 13.473958 16.163848 -2.694850
Zn 10.780275 18.857531 -2.694850
Zn 10.780275 16.163848 -0.001167
Zn 13.473958 18.857531 -0.001167
Zn 13.473958 16.163848 2.692516
Zn 10.780275 18.857531 2.692516
Zn 10.780275 16.163848 5.386199
Zn 13.473958 18.857531 5.386199
Zn 13.473958 16.163848 8.079882
Zn 10.780275 18.857531 8.079882
Zn 10.780275 16.163848 10.773565
Zn 13.473958 18.857531 10.773565
Zn 13.473958 16.163848 13.467247
Zn 10.780275 18.857531 13.467247
Zn 10.780275 16.163848 16.160930
Zn 13.473958 18.857531 16.160930
Zn 13.473958 16.163848 18.854613
Zn 10.780275 18.857531 18.854613
Zn 10.780275 16.163848 21.548296
Zn 13.473958 18.857531 21.548296
Zn 13.473958 16.163848 24.241979
Zn 10.780275 18.857531 24.241979
Zn 10.780275 16.163848 26.935662
Zn 10.780275 21.551213 -21.550630
Zn 13.473958 21.551213 -18.856947
Zn 10.780275 24.244896 -18.856947
Zn 10.780275 21.551213 -16.163264
Zn 13.473958 24.244896 -16.163264
Zn 13.473958 21.551213 -13.469581
Zn 10.780275 24.244896 -13.469581
Zn 10.780275 21.551213 -10.775898
Zn 13.473958 24.244896 -10.775898
Zn 13.473958 21.551213 -8.082216
Zn 10.780275 24.244896 -8.082216
Zn 10.780275 21.551213 -5.388533
Zn 13.473958 24.244896 -5.388533
Zn 13.473958 21.551213 -2.694850
Zn 10.780275 24.244896 -2.694850
Zn 10.780275 21.551213 -0.001167
Zn 13.473958 24.244896 -0.001167
Zn 13.473958 21.551213 2.692516
Zn 10.780275 24.244896 2.692516
Zn 10.780275 21.551213 5.386199
Zn 13.473958 24.244896 5.386199
Zn 13.473958 21.551213 8.079882
Zn 10.780275 24.244896 8.079882
Zn 10.780275 21.551213 10.773565
Zn 13.473958 24.244896 10.773565
Zn 13.473958 21.551213 13.467247
Zn 10.780275 24.244896 13.467247
Zn 10.780275 21.551213 16.160930
Zn 13.473958 24.244896 16.160930
Zn 13.473958 21.551213 18.854613
Zn 10.780275 24.244896 18.854613
Zn 10.780275 21.551213 21.548296
Zn 10.780275 26.938579 -16.163264
Zn 13.473958 26.938579 -13.469581
Zn 10.780275 29.632262 -13.469581
Zn 10.780275 26.938579 -10.775898
Zn 13.473958 29.632262 -10.775898
Zn 13.473958 26.938579 -8.082216
Zn 10.780275 29.632262 -8.082216
Zn 10.780275 26.938579 -5.388533
Zn 13.473958 29.632262 -5.388533
Zn 13.473958 26.938579 -2.694850
Zn 10.780275 29.632262 -2.694850
Zn 10.780275 26.938579 -0.001167
Zn 13.473958 29.632262 -0.001167
Zn 13.473958 26.938579 2.692516
Zn 10.780275 29.632262 2.692516
Zn 10.780275 26.938579 5.386199
Zn 13.473958 29.632262 5.386199
Zn 13.473958 26.938579 8.079882
Zn 10.780275 29.632262 8.079882
Zn 10.780275 26.938579 10.773565
Zn 13.473958 29.632262 10.773565
Zn 13.473958 26.938579 13.467247
Zn 10.780275 29.632262 13.467247
Zn 10.780275 26.938579 16.160930
Zn 16.167640 -29.628761 -8.082216
Zn 18.861323 -29.628761 -5.388533
Zn 16.167640 -29.628761 -2.694850
Zn 18.861323 -29.628761 -0.001167
Zn 16.167640 -29.628761 2.692516
Zn 18.861323 -29.628761 5.386199
Zn 16.167640 -29.628761 8.079882
Zn 16.167640 -24.241395 -13.469581
Zn 16.167640 -26.935078 -10.775898
Zn 18.861323 -24.241395 -10.775898
Zn 18.861323 -26.935078 -8.082216
Zn 16.167640 -24.241395 -8.082216
Zn 16.167640 -26.935078 -5.388533
Zn 18.861323 -24.241395 -5.388533
Zn 18.861323 -26.935078 -2.694850
Zn 16.167640 -24.241395 -2.694850
Zn 16.167640 -26.935078 -0.001167
Zn 18.861323 -24.241395 -0.001167
Zn 18.861323 -26.935078 2.692516
Zn 16.167640 -24.241395 2.692516
Zn 16.167640 -26.935078 5.386199
Zn 18.861323 -24.241395 5.386199
Zn 18.861323 -26.935078 8.079882
Zn 16.167640 -24.241395 8.079882
Zn 16.167640 -26.935078 10.773565
Zn 18.861323 -24.241395 10.773565
Zn 16.167640 -24.241395 13.467247
Zn 16.167640 -18.854030 -18.856947
Zn 16.167640 -21.547713 -16.163264
Zn 18.861323 -18.854030 -16.163264
Zn 18.861323 -21.547713 -13.469581
Zn 16.167640 -18.854030 -13.469581
Zn 16.167640 -21.547713 -10.775898
Zn 18.861323 -18.854030 -10.775898
Zn 18.861323 -21.547713 -8.082216
Zn 16.167640 -18.854030 -8.082216
Zn 16.167640 -21.547713 -5.388533
Zn 18.861323 -18.854030 -5.388533
Zn 18.861323 -21.547713 -2.694850
Zn 16.167640 -18.854030 -2.694850
Zn 16.167640 -21.547713 -0.001167
Zn 18.861323 -18.854030 -0.001167
Zn 18.861323 -21.547713 2.692516
Zn 16.167640 -18.854030 2.692516
Zn 16.167640 -21.547713 5.386199
Zn 18.861323 -18.854030 5.386199
Zn 18.861323 -21.547713 8.079882
Zn 16.167640 -18.854030 8.079882
Zn 16.167640 -21.547713 10.773565
Zn 18.861323 -18.854030 10.773565
Zn 18.861323 -21.547713 13.467247
Zn 16.167640 -18.854030 13.467247
Zn 16.167640 -21.547713 16.160930
Zn 18.861323 -18.854030 16.160930
Zn 16.167640 -18.854030 18.854613
Zn 16.167640 -13.466664 -24.244313
Zn 16.167640 -16.160347 -21.550630
Zn 18.861323 -13.466664 -21.550630
Zn 18.861323 -16.160347 -18.856947
Zn 16.167640 -13.466664 -18.856947
Zn 16.167640 -16.160347 -16.163264
Zn 18.861323 -13.466664 -16.163264
Zn 18.861323 -16.160347 -13.469581
Zn 16.167640 -13.466664 -13.469581
Zn 16.167640 -16.160347 -10.775898
Zn 18.861323 -13.466664 -10.775898
Zn 18.861323 -16.160347 -8.082216
Zn 16.167640 -13.466664 -8.082216
Zn 16.167640 -16.160347 -5.388533
Zn 18.861323 -13.466664 -5.388533
Zn 18.861323 -16.160347 -2.694850
Zn 16.167640 -13.466664 -2.694850
Zn 16.167640 -16.160347 -0.001167
Zn 18.861323 -13.466664 -0.001167
Zn 18.861323 -16.160347 2.692516
Zn 16.167640 -13.466664 2.692516
Zn 16.167640 -16.160347 5.386199
Zn 18.861323 -13.466664 5.386199
Zn 18.861323 -16.160347 8.079882
Zn 16.167640 -13.466664 8.079882
Zn 16.167640 -16.160347 10.773565
Zn 18.861323 -13.466664 10.773565
Zn 18.861323 -16.160347 13.467247
Zn 16.167640 -13.466664 13.467247
Zn 16.167640 -16.160347 16.160930
Zn 18.861323 -13.466664 16.160930
Zn 18.861323 -16.160347 18.854613
Zn 16.167640 -13.466664 18.854613
Zn 16.167640 -16.160347 21.548296
Zn 18.861323 -13.466664 21.548296
Zn 16.167640 -13.466664 24.241979
Zn 16.167640 -8.079298 -29.631679
Zn 16.167640 -10.772981 -26.937996
Zn 18.861323 -8.079298 -26.937996
Zn 18.861323 -10.772981 -24.244313
Zn 16.167640 -8.079298 -24.244313
Zn 16.167640 -10.772981 -21.550630
Zn 18.861323 -8.079298 -21.550630
Zn 18.861323 -10.772981 -18.856947
Zn 16.167640 -8.079298 -18.856947
Zn 16.167640 -10.772981 -16.163264
Zn 18.861323 -8.079298 -16.163264
Zn 18.861323 -10.772981 -13.469581
Zn 16.167640 -8.079298 -13.469581
Zn 16.167640 -10.772981 -10.775898
Zn 18.861323 -8.079298 -10.775898
Zn 18.861323 -10.772981 -8.082216
Zn 16.167640 -8.079298 -8.082216
Zn 16.167640 -10.772981 -5.388533
Zn 18.861323 -8.079298 -5.388533
Zn 18.861323 -10.772981 -2.694850
Zn 16.167640 -8.079298 -2.694850
Zn 16.167640 -10.772981 -0.001167
Zn 18.861323 -8.079298 -0.001167
Zn 18.861323 -10.772981 2.692516
Zn 16.167640 -8.079298 2.692516
Zn 16.167640 -10.772981 5.386199
Zn 18.861323 -8.079298 5.386199
Zn 18.861323 -10.772981 8.079882
Zn 16.167640 -8.079298 8.079882
Zn 16.167640 -10.772981 10.773565
Zn 18.861323 -8.079298 10.773565
Zn 18.861323 -10.772981 13.467247
Zn 16.167640 -8.079298 13.467247
Zn 16.167640 -10.772981 16.160930
Zn 18.861323 -8.079298 16.160930
Zn 18.861323 -10.772981 18.854613
Zn 16.167640 -8.079298 18.854613
Zn 16.167640 -10.772981 21.548296
Zn 18.861323 -8.079298 21.548296
Zn 18.861323 -10.772981 24.241979
Zn 16.167640 -8.079298 24.241979
Zn 16.167640 -10.772981 26.935662
Zn 18.861323 -8.079298 26.935662
Zn 16.167640 -8.079298 29.629345
Zn 18.861323 -5.385615 -29.631679
Zn 16.167640 -2.691932 -29.631679
Zn 16.167640 -5.385615 -26.937996
Zn 18.861323 -2.691932 -26.937996
Zn 18.861323 -5.385615 -24.244313
Zn 16.167640 -2.691932 -24.244313
Zn 16.167640 -5.385615 -21.550630
Zn 18.861323 -2.691932 -21.550630
Zn 18.861323 -5.385615 -18.856947
Zn 16.167640 -2.691932 -18.856947
Zn 16.167640 -5.385615 -16.163264
Zn 18.861323 -2.691932 -16.163264
Zn 18.861323 -5.385615 -13.469581
Zn 16.167640 -2.691932 -13.469581
Zn 16.167640 -5.385615 -10.775898
Zn 18.861323 -2.691932 -10.775898
Zn 18.861323 -5.385615 -8.082216
Zn 16.167640 -2.691932 -8.082216
Zn 16.167640 -5.385615 -5.388533
Zn 18.861323 -2.691932 -5.388533
Zn 18.861323 -5.385615 -2.694850
Zn 16.167640 -2.691932 -2.694850
Zn 16.167640 -5.385615 -0.001167
Zn 18.861323 -2.691932 -0.001167
Zn 18.861323 -5.385615 2.692516
Zn 16.167640 -2.691932 2.692516
Zn 16.167640 -5.385615 5.386199
Zn 18.861323 -2.691932 5.386199
Zn 18.861323 -5.385615 8.079882
Zn 16.167640 -2.691932 8.079882
Zn 16.167640 -5.385615 10.773565
Zn 18.861323 -2.691932 10.773565
Zn 18.861323 -5.385615 13.467247
Zn 16.167640 -2.691932 13.467247
Zn 16.167640 -5.385615 16.160930
Zn 18.861323 -2.691932 16.160930
Zn 18.861323 -5.385615 18.854613
Zn 16.167640 -2.691932 18.854613
Zn 16.167640 -5.385615 21.548296
Zn 18.861323 -2.691932 21.548296
Zn 18.861323 -5.385615 24.241979
Zn 16.167640 -2.691932 24.241979
Zn 16.167640 -5.385615 26.935662
Zn 18.861323 -2.691932 26.935662
Zn 18.861323 -5.385615 29.629345
Zn 16.167640 -2.691932 29.629345
Zn 18.861323 0.001750 -29.631679
Zn 16.167640 2.695433 -29.631679
Zn 16.167640 0.001750 -26.937996
Zn 18.861323 2.695433 -26.937996
Zn 18.861323 0.001750 -24.244313
Zn 16.167640 2.695433 -24.244313
Zn 16.167640 0.001750 -21.550630
Zn 18.861323 2.695433 -21.550630
Zn 18.861323 0.001750 -18.856947
Zn 16.167640 2.695433 -18.856947
Zn 16.167640 0.001750 -16.163264
Zn 18.861323 2.695433 -16.163264
Zn 18.861323 0.001750 -13.469581
Zn 16.167640 2.695433 -13.469581
Zn 16.167640 0.001750 -10.775898
Zn 18.861323 2.695433 -10.775898
Zn 18.861323 0.001750 -8.082216
Zn 16.167640 2.695433 -8.082216
Zn 16.167640 0.001750 -5.388533
Zn 18.861323 2.695433 -5.388533
Zn 18.861323 0.001750 -2.694850
Zn 16.167640 2.695433 -2.694850
Zn 16.167640 0.001750 -0.001167
Zn 18.861323 2.695433 -0.001167
Zn 18.861323 0.001750 2.692516
Zn 16.167640 2.695433 2.692516
Zn 16.167640 0.001750 5.386199
Zn 18.861323 2.695433 5.386199
Zn 18.861323 0.001750 8.079882
Zn 16.167640 2.695433 8.079882
Zn 16.167640 0.001750 10.773565
Zn 18.861323 2.695433 10.773565
Zn 18.861323 0.001750 13.467247
Zn 16.167640 2.695433 13.467247
Zn 16.167640 0.001750 16.160930
Zn 18.861323 2.695433 16.160930
Zn 18.861323 0.001750 18.854613
Zn 16.167640 2.695433 18.854613
Zn 16.167640 0.001750 21.548296
Zn 18.861323 2.695433 21.548296
Zn 18.861323 0.001750 24.241979
Zn 16.167640 2.695433 24.241979
Zn 16.167640 0.001750 26.935662
Zn 18.861323 2.695433 26.935662
Zn 18.861323 0.001750 29.629345
Zn 16.167640 2.695433 29.629345
Zn 18.861323 5.389116 -29.631679
Zn 16.167640 8.082799 -29.631679
Zn 16.167640 5.389116 -26.937996
Zn 18.861323 8.082799 -26.937996
Zn 18.861323 5.389116 -24.244313
Zn 16.167640 8.082799 -24.244313
Zn 16.167640 5.389116 -21.550630
Zn 18.861323 8.082799 -21.550630
Zn 18.861323 5.389116 -18.856947
Zn 16.167640 8.082799 -18.856947
Zn 16.167640 5.389116 -16.163264
Zn 18.861323 8.082799 -16.163264
Zn 18.861323 5.389116 -13.469581
Zn 16.167640 8.082799 -13.469581
Zn 16.167640 5.389116 -10.775898
Zn 18.861323 8.082799 -10.775898
Zn 18.861323 5.389116 -8.082216
Zn 16.167640 8.082799 -8.082216
Zn 16.167640 5.389116 -5.388533
Zn 18.861323 8.082799 -5.388533
Zn 18.861323 5.389116 -2.694850
Zn 16.167640 8.082799 -2.694850
Zn 16.167640 5.389116 -0.001167
Zn 18.861323 8.082799 -0.001167
Zn 18.861323 5.389116 2.692516
Zn 16.167640 8.082799 2.692516
Zn 16.167640 5.389116 5.386199
Zn 18.861323 8.082799 5.386199
Zn 18.861323 5.389116 8.079882
Zn 16.167640 8.082799 8.079882
Zn 16.167640 5.389116 10.773565
Zn 18.861323 8.082799 10.773565
Zn 18.861323 5.389116 13.467247
Zn 16.167640 8.082799 13.467247
Zn 16.167640 5.389116 16.160930
Zn 18.861323 8.082799 16.160930
Zn 18.861323 5.389116 18.854613
Zn 16.167640 8.082799 18.854613
Zn 16.167640 5.389116 21.548296
Zn 18.861323 8.082799 21.548296
Zn 18.861323 5.389116 24.241979
Zn 16.167640 8.082799 24.241979
Zn 16.167640 5.389116 26.935662
Zn 18.861323 8.082799 26.935662
Zn 18.861323 5.389116 29.629345
Zn 16.167640 8.082799 29.629345
Zn 16.167640 10.776482 -26.937996
Zn 18.861323 10.776482 -24.244313
Zn 16.167640 13.470165 -24.244313
Zn 16.167640 10.776482 -21.550630
Zn 18.861323 13.470165 -21.550630
Zn 18.861323 10.776482 -18.856947
Zn 16.167640 13.470165 -18.856947
Zn 16.167640 10.776482 -16.163264
Zn 18.861323 13.470165 -16.163264
Zn 18.861323 10.776482 -13.469581
Zn 16.167640 13.470165 -13.469581
Zn 16.167640 10.776482 -10.775898
Zn 18.861323 13.470165 -10.775898
Zn 18.861323 10.776482 -8.082216
Zn 16.167640 13.470165 -8.082216
Zn 16.167640 10.776482 -5.388533
Zn 18.861323 13.470165 -5.388533
Zn 18.861323 10.776482 -2.694850
Zn 16.167640 13.470165 -2.694850
Zn 16.167640 10.776482 -0.001167
Zn 18.861323 13.470165 -0.001167
Zn 18.861323 10.776482 2.692516
Zn 16.167640 13.470165 2.692516
Zn 16.167640 10.776482 5.386199
Zn 18.861323 13.470165 5.386199
Zn 18.861323 10.776482 8.079882
Zn 16.167640 13.470165 8.079882
Zn 16.167640 10.776482 10.773565
Zn 18.861323 13.470165 10.773565
Zn 18.861323 10.776482 13.467247
Zn 16.167640 13.470165 13.467247
Zn 16.167640 10.776482 16.160930
Zn 18.861323 13.470165 16.160930
Zn 18.861323 10.776482 18.854613
Zn 16.167640 13.470165 18.854613
Zn 16.167640 10.776482 21.548296
Zn 18.861323 13.470165 21.548296
Zn 18.861323 10.776482 24.241979
Zn 16.167640 13.470165 24.241979
Zn 16.167640 10.776482 26.935662
Zn 16.167640 16.163848 -21.550630
Zn 18.861323 16.163848 -18.856947
Zn 16.167640 18.857531 -18.856947
Zn 16.167640 16.163848 -16.163264
Zn 18.861323 18.857531 -16.163264
Zn 18.861323 16.163848 -13.469581
Zn 16.167640 18.857531 -13.469581
Zn 16.167640 16.163848 -10.775898
Zn 18.861323 18.857531 -10.775898
Zn 18.861323 16.163848 -8.082216
Zn 16.167640 18.857531 -8.082216
Zn 16.167640 16.163848 -5.388533
Zn 18.861323 18.857531 -5.388533
Zn 18.861323 16.163848 -2.694850
Zn 16.167640 18.857531 -2.694850
Zn 16.167640 16.163848 -0.001167
Zn 18.861323 18.857531 -0.001167
Zn 18.861323 16.163848 2.692516
Zn 16.167640 18.857531 2.692516
Zn 16.167640 16.163848 5.386199
Zn 18.861323 18.857531 5.386199
Zn 18.861323 16.163848 8.079882
Zn 16.167640 18.857531 8.079882
Zn 16.167640 16.163848 10.773565
Zn 18.861323 18.857531 10.773565
Zn 18.861323 16.163848 13.467247
Zn 16.167640 18.857531 13.467247
Zn 16.167640 16.163848 16.160930
Zn 18.861323 18.857531 16.160930
Zn 18.861323 16.163848 18.854613
Zn 16.167640 18.857531 18.854613
Zn 16.167640 16.163848 21.548296
Zn 16.167640 21.551213 -16.163264
Zn 18.861323 21.551213 -13.469581
Zn 16.167640 24.244896 -13.469581
Zn 16.167640 21.551213 -10.775898
Zn 18.861323 24.244896 -10.775898
Zn 18.861323 21.551213 -8.082216
Zn 16.167640 24.244896 -8.082216
Zn 16.167640 21.551213 -5.388533
Zn 18.861323 24.244896 -5.388533
Zn 18.861323 21.551213 -2.694850
Zn 16.167640 24.244896 -2.694850
Zn 16.167640 21.551213 -0.001167
Zn 18.861323 24.244896 -0.001167
Zn 18.861323 21.551213 2.692516
Zn 16.167640 24.244896 2.692516
Zn 16.167640 21.551213 5.386199
Zn 18.861323 24.244896 5.386199
Zn 18.861323 21.551213 8.079882
Zn 16.167640 24.244896 8.079882
Zn 16.167640 21.551213 10.773565
Zn 18.861323 24.244896 10.773565
Zn 18.861323 21.551213 13.467247
Zn 16.167640 24.244896 13.467247
Zn 16.167640 21.551213 16.160930
Zn 16.167640 26.938579 -10.775898
Zn 18.861323 26.938579 -8.082216
Zn 16.167640 29.632262 -8.082216
Zn 16.167640 26.938579 -5.388533
Zn 18.861323 29.632262 -5.388533
Zn 18.861323 26.938579 -2.694850
Zn 16.167640 29.632262 -2.694850
Zn 16.167640 26.938579 -0.001167
Zn 18.861323 29.632262 -0.001167
Zn 18.861323 26.938579 2.692516
Zn 16.167640 29.632262 2.692516
Zn 16.167640 26.938579 5.386199
Zn 18.861323 29.632262 5.386199
Zn 18.861323 26.938579 8.079882
Zn 16.167640 29.632262 8.079882
Zn 16.167640 26.938579 10.773565
Zn 21.555006 -29.628761 -2.694850
Zn 24.248689 -29.628761 -0.001167
Zn 21.555006 -29.628761 2.692516
Zn 21.555006 -24.241395 -8.082216
Zn 21.555006 -26.935078 -5.388533
Zn 24.248689 -24.241395 -5.388533
Zn 24.248689 -26.935078 -2.694850
Zn 21.555006 -24.241395 -2.694850
Zn 21.555006 -26.935078 -0.001167
Zn 24.248689 -24.241395 -0.001167
Zn 24.248689 -26.935078 2.692516
Zn 21.555006 -24.241395 2.692516
Zn 21.555006 -26.935078 5.386199
Zn 24.248689 -24.241395 5.386199
Zn 21.555006 -24.241395 8.079882
Zn 21.555006 -18.854030 -13.469581
Zn 21.555006 -21.547713 -10.775898
Zn 24.248689 -18.854030 -10.775898
Zn 24.248689 -21.547713 -8.082216
Zn 21.555006 -18.854030 -8.082216
Zn 21.555006 -21.547713 -5.388533
Zn 24.248689 -18.854030 -5.388533
Zn 24.248689 -21.547713 -2.694850
Zn 21.555006 -18.854030 -2.694850
Zn 21.555006 -21.547713 -0.001167
Zn 24.248689 -18.854030 -0.001167
Zn 24.248689 -21.547713 2.692516
Zn 21.555006 -18.854030 2.692516
Zn 21.555006 -21.547713 5.386199
Zn 24.248689 -18.854030 5.386199
Zn 24.248689 -21.547713 8.079882
Zn 21.555006 -18.854030 8.079882
Zn 21.555006 -21.547713 10.773565
Zn 24.248689 -18.854030 10.773565
Zn 21.555006 -18.854030 13.467247
Zn 21.555006 -13.466664 -18.856947
Zn 21.555006 -16.160347 -16.163264
Zn 24.248689 -13.466664 -16.163264
Zn 24.248689 -16.160347 -13.469581
Zn 21.555006 -13.466664 -13.469581
Zn 21.555006 -16.160347 -10.775898
Zn 24.248689 -13.466664 -10.775898
Zn 24.248689 -16.160347 -8.082216
Zn 21.555006 -13.466664 -8.082216
Zn 21.555006 -16.160347 -5.388533
Zn 24.248689 -13.466664 -5.388533
Zn 24.248689 -16.160347 -2.694850
Zn 21.555006 -13.466664 -2.694850
Zn 21.555006 -16.160347 -0.001167
Zn 24.248689 -13.466664 -0.001167
Zn 24.248689 -16.160347 2.692516
Zn 21.555006 -13.466664 2.692516
Zn 21.555006 -16.160347 5.386199
Zn 24.248689 -13.466664 5.386199
Zn 24.248689 -16.160347 8.079882
Zn 21.555006 -13.466664 8.079882
Zn 21.555006 -16.160347 10.773565
Zn 24.248689 -13.466664 10.773565
Zn 24.248689 -16.160347 13.467247
Zn 21.555006 -13.466664 13.467247
Zn 21.555006 -16.160347 16.160930
Zn 24.248689 -13.466664 16.160930
Zn 21.555006 -13.466664 18.854613
Zn 21.555006 -8.079298 -24.244313
Zn 21.555006 -10.772981 -21.550630
Zn 24.248689 -8.079298 -21.550630
Zn 24.248689 -10.772981 -18.856947
Zn 21.555006 -8.079298 -18.856947
Zn 21.555006 -10.772981 -16.163264
Zn 24.248689 -8.079298 -16.163264
Zn 24.248689 -10.772981 -13.469581
Zn 21.555006 -8.079298 -13.469581
Zn 21.555006 -10.772981 -10.775898
Zn 24.248689 -8.079298 -10.775898
Zn 24.248689 -10.772981 -8.082216
Zn 21.555006 -8.079298 -8.082216
Zn 21.555006 -10.772981 -5.388533
Zn 24.248689 -8.079298 -5.388533
Zn 24.248689 -10.772981 -2.694850
Zn 21.555006 -8.079298 -2.694850
Zn 21.555006 -10.772981 -0.001167
Zn 24.248689 -8.079298 -0.001167
Zn 24.248689 -10.772981 2.692516
Zn 21.555006 -8.079298 2.692516
Zn 21.555006 -10.772981 5.386199
Zn 24.248689 -8.079298 5.386199
Zn 24.248689 -10.772981 8.079882
Zn 21.555006 -8.079298 8.079882
Zn 21.555006 -10.772981 10.773565
Zn 24.248689 -8.079298 10.773565
Zn 24.248689 -10.772981 13.467247
Zn 21.555006 -8.079298 13.467247
Zn 21.555006 -10.772981 16.160930
Zn 24.248689 -8.079298 16.160930
Zn 24.248689 -10.772981 18.854613
Zn 21.555006 -8.079298 18.854613
Zn 21.555006 -10.772981 21.548296
Zn 24.248689 -8.079298 21.548296
Zn 21.555006 -8.079298 24.241979
Zn 21.555006 -2.691932 -29.631679
Zn 21.555006 -5.385615 -26.937996
Zn 24.248689 -2.691932 -26.937996
Zn 24.248689 -5.385615 -24.244313
Zn 21.555006 -2.691932 -24.244313
Zn 21.555006 -5.385615 -21.550630
Zn 24.248689 -2.691932 -21.550630
Zn 24.248689 -5.385615 -18.856947
Zn 21.555006 -2.691932 -18.856947
Zn 21.555006 -5.385615 -16.163264
Zn 24.248689 -2.691932 -16.163264
Zn 24.248689 -5.385615 -13.469581
Zn 21.555006 -2.691932 -13.469581
Zn 21.555006 -5.385615 -10.775898
Zn 24.248689 -2.691932 -10.775898
Zn 24.248689 -5.385615 -8.082216
Zn 21.555006 -2.691932 -8.082216
Zn 21.555006 -5.385615 -5.388533
Zn 24.248689 -2.691932 -5.388533
Zn 24.248689 -5.385615 -2.694850
Zn 21.555006 -2.691932 -2.694850
Zn 21.555006 -5.385615 -0.001167
Zn 24.248689 -2.691932 -0.001167
Zn 24.248689 -5.385615 2.692516
Zn 21.555006 -2.691932 2.692516
Zn 21.555006 -5.385615 5.386199
Zn 24.248689 -2.691932 5.386199
Zn 24.248689 -5.385615 8.079882
Zn 21.555006 -2.691932 8.079882
Zn 21.555006 -5.385615 10.773565
Zn 24.248689 -2.691932 10.773565
Zn 24.248689 -5.385615 13.467247
Zn 21.555006 -2.691932 13.467247
Zn 21.555006 -5.385615 16.160930
Zn 24.248689 -2.691932 16.160930
Zn 24.248689 -5.385615 18.854613
Zn 21.555006 -2.691932 18.854613
Zn 21.555006 -5.385615 21.548296
Zn 24.248689 -2.691932 21.548296
Zn 24.248689 -5.385615 24.241979
Zn 21.555006 -2.691932 24.241979
Zn 21.555006 -5.385615 26.935662
Zn 24.248689 -2.691932 26.935662
Zn 21.555006 -2.691932 29.629345
Zn 24.248689 0.001750 -29.631679
Zn 21.555006 2.695433 -29.631679
Zn 21.555006 0.001750 -26.937996
Zn 24.248689 2.695433 -26.937996
Zn 24.248689 0.001750 -24.244313
Zn 21.555006 2.695433 -24.244313
Zn 21.555006 0.001750 -21.550630
Zn 24.248689 2.695433 -21.550630
Zn 24.248689 0.001750 -18.856947
Zn 21.555006 2.695433 -18.856947
Zn 21.555006 0.001750 -16.163264
Zn 24.248689 2.695433 -16.163264
Zn 24.248689 0.001750 -13.469581
Zn 21.555006 2.695433 -13.469581
Zn 21.555006 0.001750 -10.775898
Zn 24.248689 2.695433 -10.775898
Zn 24.248689 0.001750 -8.082216
Zn 21.555006 2.695433 -8.082216
Zn 21.555006 0.001750 -5.388533
Zn 24.248689 2.695433 -5.388533
Zn 24.248689 0.001750 -2.694850
Zn 21.555006 2.695433 -2.694850
Zn 21.555006 0.001750 -0.001167
Zn 24.248689 2.695433 -0.001167
Zn 24.248689 0.001750 2.692516
Zn 21.555006 2.695433 2.692516
Zn 21.555006 0.001750 5.386199
Zn 24.248689 2.695433 5.386199
Zn 24.248689 0.001750 8.079882
Zn 21.555006 2.695433 8.079882
Zn 21.555006 0.001750 10.773565
Zn 24.248689 2.695433 10.773565
Zn 24.248689 0.001750 13.467247
Zn 21.555006 2.695433 13.467247
Zn 21.555006 0.001750 16.160930
Zn 24.248689 2.695433 16.160930
Zn 24.248689 0.001750 18.854613
Zn 21.555006 2.695433 18.854613
Zn 21.555006 0.001750 21.548296
Zn 24.248689 2.695433 21.548296
Zn 24.248689 0.001750 24.241979
Zn 21.555006 2.695433 24.241979
Zn 21.555006 0.001750 26.935662
Zn 24.248689 2.695433 26.935662
Zn 24.248689 0.001750 29.629345
Zn 21.555006 2.695433 29.629345
Zn 21.555006 5.389116 -26.937996
Zn 24.248689 5.389116 -24.244313
Zn 21.555006 8.082799 -24.244313
Zn 21.555006 5.389116 -21.550630
Zn 24.248689 8.082799 -21.550630
Zn 24.248689 5.389116 -18.856947
Zn 21.555006 8.082799 -18.856947
Zn 21.555006 5.389116 -16.163264
Zn 24.248689 8.082799 -16.163264
Zn 24.248689 5.389116 -13.469581
Zn 21.555006 8.082799 -13.469581
Zn 21.555006 5.389116 -10.775898
Zn 24.248689 8.082799 -10.775898
Zn 24.248689 5.389116 -8.082216
Zn 21.555006 8.082799 -8.082216
Zn 21.555006 5.389116 -5.388533
Zn 24.248689 8.082799 -5.388533
Zn 24.248689 5.389116 -2.694850
Zn 21.555006 8.082799 -2.694850
Zn 21.555006 5.389116 -0.001167
Zn 24.248689 8.082799 -0.001167
Zn 24.248689 5.389116 2.692516
Zn 21.555006 8.082799 2.692516
Zn 21.555006 5.389116 5.386199
Zn 24.248689 8.082799 5.386199
Zn 24.248689 5.389116 8.079882
Zn 21.555006 8.082799 8.079882
Zn 21.555006 5.389116 10.773565
Zn 24.248689 8.082799 10.773565
Zn 24.248689 5.389116 13.467247
Zn 21.555006 8.082799 13.467247
Zn 21.555006 5.389116 16.160930
Zn 24.248689 8.082799 16.160930
Zn 24.248689 5.389116 18.854613
Zn 21.555006 8.082799 18.854613
Zn 21.555006 5.389116 21.548296
Zn 24.248689 8.082799 21.548296
Zn 24.248689 5.389116 24.241979
Zn 21.555006 8.082799 24.241979
Zn 21.555006 5.389116 26.935662
Zn 21.555006 10.776482 -21.550630
Zn 24.248689 10.776482 -18.856947
Zn 21.555006 13.470165 -18.856947
Zn 21.555006 10.776482 -16.163264
Zn 24.248689 13.470165 -16.163264
Zn 24.248689 10.776482 -13.469581
Zn 21.555006 13.470165 -13.469581
Zn 21.555006 10.776482 -10.775898
Zn 24.248689 13.470165 -10.775898
Zn 24.248689 10.776482 -8.082216
Zn 21.555006 13.470165 -8.082216
Zn 21.555006 10.776482 -5.388533
Zn 24.248689 13.470165 -5.388533
Zn 24.248689 10.776482 -2.694850
Zn 21.555006 13.470165 -2.694850
Zn 21.555006 10.776482 -0.001167
Zn 24.248689 13.470165 -0.001167
Zn 24.248689 10.776482 2.692516
Zn 21.555006 13.470165 2.692516
Zn 21.555006 10.776482 5.386199
Zn 24.248689 13.470165 5.386199
Zn 24.248689 10.776482 8.079882
Zn 21.555006 13.470165 8.079882
Zn 21.555006 10.776482 10.773565
Zn 24.248689 13.470165 10.773565
Zn 24.248689 10.776482 13.467247
Zn 21.555006 13.470165 13.467247
Zn 21.555006 10.776482 16.160930
Zn 24.248689 13.470165 16.160930
Zn 24.248689 10.776482 18.854613
Zn 21.555006 13.470165 18.854613
Zn 21.555006 10.776482 21.548296
Zn 21.555006 16.163848 -16.163264
Zn 24.248689 16.163848 -13.469581
Zn 21.555006 18.857531 -13.469581
Zn 21.555006 16.163848 -10.775898
Zn 24.248689 18.857531 -10.775898
Zn 24.248689 16.163848 -8.082216
Zn 21.555006 18.857531 -8.082216
Zn 21.555006 16.163848 -5.388533
Zn 24.248689 18.857531 -5.388533
Zn 24.248689 16.163848 -2.694850
Zn 21.555006 18.857531 -2.694850
Zn 21.555006 16.163848 -0.001167
Zn 24.248689 18.857531 -0.001167
Zn 24.248689 16.163848 2.692516
Zn 21.555006 18.857531 2.692516
Zn 21.555006 16.163848 5.386199
Zn 24.248689 18.857531 5.386199
Zn 24.248689 16.163848 8.079882
Zn 21.555006 18.857531 8.079882
Zn 21.555006 16.163848 10.773565
Zn 24.248689 18.857531 10.773565
Zn 24.248689 16.163848 13.467247
Zn 21.555006 18.857531 13.467247
Zn 21.555006 16.163848 16.160930
Zn 21.555006 21.551213 -10.775898
Zn 24.248689 21.551213 -8.082216
Zn 21.555006 24.244896 -8.082216
Zn 21.555006 21.551213 -5.388533
Zn 24.248689 24.244896 -5.388533
Zn 24.248689 21.551213 -2.694850
Zn 21.555006 24.244896 -2.694850
Zn 21.555006 21.551213 -0.001167
Zn 24.248689 24.244896 -0.001167
Zn 24.248689 21.551213 2.692516
Zn 21.555006 24.244896 2.692516
Zn 21.555006 21.551213 5.386199
Zn 24.248689 24.244896 5.386199
Zn 24.248689 21.551213 8.079882
Zn 21.555006 24.244896 8.079882
Zn 21.555006 21.551213 10.773565
Zn 21.555006 26.938579 -5.388533
Zn 24.248689 26.938579 -2.694850
Zn 21.555006 29.632262 -2.694850
Zn 21.555006 26.938579 -0.001167
Zn 24.248689 29.632262 -0.001167
Zn 24.248689 26.938579 2.692516
Zn 21.555006 29.632262 2.692516
Zn 21.555006 26.938579 5.386199
Zn 26.942372 -24.241395 -2.694850
Zn 26.942372 -26.935078 -0.001167
Zn 29.636055 -24.241395 -0.001167
Zn 26.942372 -24.241395 2.692516
Zn 26.942372 -18.854030 -8.082216
Zn 26.942372 -21.547713 -5.388533
Zn 29.636055 -18.854030 -5.388533
Zn 29.636055 -21.547713 -2.694850
Zn 26.942372 -18.854030 -2.694850
Zn 26.942372 -21.547713 -0.001167
Zn 29.636055 -18.854030 -0.001167
Zn 29.636055 -21.547713 2.692516
Zn 26.942372 -18.854030 2.692516
Zn 26.942372 -21.547713 5.386199
Zn 29.636055 -18.854030 5.386199
Zn 26.942372 -18.854030 8.079882
Zn 26.942372 -13.466664 -13.469581
Zn 26.942372 -16.160347 -10.775898
Zn 29.636055 -13.466664 -10.775898
Zn 29.636055 -16.160347 -8.082216
Zn 26.942372 -13.466664 -8.082216
Zn 26.942372 -16.160347 -5.388533
Zn 29.636055 -13.466664 -5.388533
Zn 29.636055 -16.160347 -2.694850
Zn 26.942372 -13.466664 -2.694850
Zn 26.942372 -16.160347 -0.001167
Zn 29.636055 -13.466664 -0.001167
Zn 29.636055 -16.160347 2.692516
Zn 26.942372 -13.466664 2.692516
Zn 26.942372 -16.160347 5.386199
Zn 29.636055 -13.466664 5.386199
Zn 29.636055 -16.160347 8.079882
Zn 26.942372 -13.466664 8.079882
Zn 26.942372 -16.160347 10.773565
Zn 29.636055 -13.466664 10.773565
Zn 26.942372 -13.466664 13.467247
Zn 26.942372 -8.079298 -18.856947
Zn 26.942372 -10.772981 -16.163264
Zn 29.636055 -8.079298 -16.163264
Zn 29.636055 -10.772981 -13.469581
Zn 26.942372 -8.079298 -13.469581
Zn 26.942372 -10.772981 -10.775898
Zn 29.636055 -8.079298 -10.775898
Zn 29.636055 -10.772981 -8.082216
Zn 26.942372 -8.079298 -8.082216
Zn 26.942372 -10.772981 -5.388533
Zn 29.636055 -8.079298 -5.388533
Zn 29.636055 -10.772981 -2.694850
Zn 26.942372 -8.079298 -2.694850
Zn 26.942372 -10.772981 -0.001167
Zn 29.636055 -8.079298 -0.001167
Zn 29.636055 -10.772981 2.692516
Zn 26.942372 -8.079298 2.692516
Zn 26.942372 -10.772981 5.386199
Zn 29.636055 -8.079298 5.386199
Zn 29.636055 -10.772981 8.079882
Zn 26.942372 -8.079298 8.079882
Zn 26.942372 -10.772981 10.773565
Zn 29.636055 -8.079298 10.773565
Zn 29.636055 -10.772981 13.467247
Zn 26.942372 -8.079298 13.467247
Zn 26.942372 -10.772981 16.160930
Zn 29.636055 -8.079298 16.160930
Zn 26.942372 -8.079298 18.854613
Zn 26.942372 -2.691932 -24.244313
Zn 26.942372 -5.385615 -21.550630
Zn 29.636055 -2.691932 -21.550630
Zn 29.636055 -5.385615 -18.856947
Zn 26.942372 -2.691932 -18.856947
Zn 26.942372 -5.385615 -16.163264
Zn 29.636055 -2.691932 -16.163264
Zn 29.636055 -5.385615 -13.469581
Zn 26.942372 -2.691932 -13.469581
Zn 26.942372 -5.385615 -10.775898
Zn 29.636055 -2.691932 -10.775898
Zn 29.636055 -5.385615 -8.082216
Zn 26.942372 -2.691932 -8.082216
Zn 26.942372 -5.385615 -5.388533
Zn 29.636055 -2.691932 -5.388533
Zn 29.636055 -5.385615 -2.694850
Zn 26.942372 -2.691932 -2.694850
Zn 26.942372 -5.385615 -0.001167
Zn 29.636055 -2.691932 -0.001167
Zn 29.636055 -5.385615 2.692516
Zn 26.942372 -2.691932 2.692516
Zn 26.942372 -5.385615 5.386199
Zn 29.636055 -2.691932 5.386199
Zn 29.636055 -5.385615 8.079882
Zn 26.942372 -2.691932 8.079882
Zn 26.942372 -5.385615 10.773565
Zn 29.636055 -2.691932 10.773565
Zn 29.636055 -5.385615 13.467247
Zn 26.942372 -2.691932 13.467247
Zn 26.942372 -5.385615 16.160930
Zn 29.636055 -2.691932 16.160930
Zn 29.636055 -5.385615 18.854613
Zn 26.942372 -2.691932 18.854613
Zn 26.942372 -5.385615 21.548296
Zn 29.636055 -2.691932 21.548296
Zn 26.942372 -2.691932 24.241979
Zn 26.942372 0.001750 -26.937996
Zn 29.636055 0.001750 -24.244313
Zn 26.942372 2.695433 -24.244313
Zn 26.942372 0.001750 -21.550630
Zn 29.636055 2.695433 -21.550630
Zn 29.636055 0.001750 -18.856947
Zn 26.942372 2.695433 -18.856947
Zn 26.942372 0.001750 -16.163264
Zn 29.636055 2.695433 -16.163264
Zn 29.636055 0.001750 -13.469581
Zn 26.942372 2.695433 -13.469581
Zn 26.942372 0.001750 -10.775898
Zn 29.636055 2.695433 -10.775898
Zn 29.636055 0.001750 -8.082216
Zn 26.942372 2.695433 -8.082216
Zn 26.942372 0.001750 -5.388533
Zn 29.636055 2.695433 -5.388533
Zn 29.636055 0.001750 -2.694850
Zn 26.942372 2.695433 -2.694850
Zn 26.942372 0.001750 -0.001167
Zn 29.636055 2.695433 -0.001167
Zn 29.636055 0.001750 2.692516
Zn 26.942372 2.695433 2.692516
Zn 26.942372 0.001750 5.386199
Zn 29.636055 2.695433 5.386199
Zn 29.636055 0.001750 8.079882
Zn 26.942372 2.695433 8.079882
Zn 26.942372 0.001750 10.773565
Zn 29.636055 2.695433 10.773565
Zn 29.636055 0.001750 13.467247
Zn 26.942372 2.695433 13.467247
Zn 26.942372 0.001750 16.160930
Zn 29.636055 2.695433 16.160930
Zn 29.636055 0.001750 18.854613
Zn 26.942372 2.695433 18.854613
Zn 26.942372 0.001750 21.548296
Zn 29.636055 2.695433 21.548296
Zn 29.636055 0.001750 24.241979
Zn 26.942372 2.695433 24.241979
Zn 26.942372 0.001750 26.935662
Zn 26.942372 5.389116 -21.550630
Zn 29.636055 5.389116 -18.856947
Zn 26.942372 8.082799 -18.856947
Zn 26.942372 5.389116 -16.163264
Zn 29.636055 8.082799 -16.163264
Zn 29.636055 5.389116 -13.469581
Zn 26.942372 8.082799 -13.469581
Zn 26.942372 5.389116 -10.775898
Zn 29.636055 8.082799 -10.775898
Zn 29.636055 5.389116 -8.082216
Zn 26.942372 8.082799 -8.082216
Zn 26.942372 5.389116 -5.388533
Zn 29.636055 8.082799 -5.388533
Zn 29.636055 5.389116 -2.694850
Zn 26.942372 8.082799 -2.694850
Zn 26.942372 5.389116 -0.001167
Zn 29.636055 8.082799 -0.001167
Zn 29.636055 5.389116 2.692516
Zn 26.942372 8.082799 2.692516
Zn 26.942372 5.389116 5.386199
Zn 29.636055 8.082799 5.386199
Zn 29.636055 5.389116 8.079882
Zn 26.942372 8.082799 8.079882
Zn 26.942372 5.389116 10.773565
Zn 29.636055 8.082799 10.773565
Zn 29.636055 5.389116 13.467247
Zn 26.942372 8.082799 13.467247
Zn 26.942372 5.389116 16.160930
Zn 29.636055 8.082799 16.160930
Zn 29.636055 5.389116 18.854613
Zn 26.942372 8.082799 18.854613
Zn 26.942372 5.389116 21.548296
Zn 26.942372 10.776482 -16.163264
Zn 29.636055 10.776482 -13.469581
Zn 26.942372 13.470165 -13.469581
Zn 26.942372 10.776482 -10.775898
Zn 29.636055 13.470165 -10.775898
Zn 29.636055 10.776482 -8.082216
Zn 26.942372 13.470165 -8.082216
Zn 26.942372 10.776482 -5.388533
Zn 29.636055 13.470165 -5.388533
Zn 29.636055 10.776482 -2.694850
Zn 26.942372 13.470165 -2.694850
Zn 26.942372 10.776482 -0.001167
Zn 29.636055 13.470165 -0.001167
Zn 29.636055 10.776482 2.692516
Zn 26.942372 13.470165 2.692516
Zn 26.942372 10.776482 5.386199
Zn 29.636055 13.470165 5.386199
Zn 29.636055 10.776482 8.079882
Zn 26.942372 13.470165 8.079882
Zn 26.942372 10.776482 10.773565
Zn 29.636055 13.470165 10.773565
Zn 29.636055 10.776482 13.467247
Zn 26.942372 13.470165 13.467247
Zn 26.942372 10.776482 16.160930
Zn 26.942372 16.163848 -10.775898
Zn 29.636055 16.163848 -8.082216
Zn 26.942372 18.857531 -8.082216
Zn 26.942372 16.163848 -5.388533
Zn 29.636055 18.857531 -5.388533
Zn 29.636055 16.163848 -2.694850
Zn 26.942372 18.857531 -2.694850
Zn 26.942372 16.163848 -0.001167
Zn 29.636055 18.857531 -0.001167
Zn 29.636055 16.163848 2.692516
Zn 26.942372 18.857531 2.692516
Zn 26.942372 16.163848 5.386199
Zn 29.636055 18.857531 5.386199
Zn 29.636055 16.163848 8.079882
Zn 26.942372 18.857531 8.079882
Zn 26.942372 16.163848 10.773565
Zn 26.942372 21.551213 -5.388533
Zn 29.636055 21.551213 -2.694850
Zn 26.942372 24.244896 -2.694850
Zn 26.942372 21.551213 -0.001167
Zn 29.636055 24.244896 -0.001167
Zn 29.636055 21.551213 2.692516
Zn 26.942372 24.244896 2.692516
Zn 26.942372 21.551213 5.386199
Zn 26.942372 26.938579 -0.001167
S -28.278127 -22.894554 -4.041691
S -28.278127 -25.588237 -1.348008
S -28.278127 -22.894554 1.345674
S -28.278127 -17.507188 -9.429057
S -28.278127 -20.200871 -6.735374
S -28.278127 -17.507188 -4.041691
S -28.278127 -20.200871 -1.348008
S -28.278127 -17.507188 1.345674
S -28.278127 -20.200871 4.039357
S -28.278127 -17.507188 6.733040
S -28.278127 -12.119822 -14.816423
S -28.278127 -14.813505 -12.122740
S -28.278127 -12.119822 -9.429057
S -28.278127 -14.813505 -6.735374
S -28.278127 -12.119822 -4.041691
S -28.278127 -14.813505 -1.348008
S -28.278127 -12.119822 1.345674
S -28.278127 -14.813505 4.039357
S -28.278127 -12.119822 6.733040
S -28.278127 -14.813505 9.426723
S -28.278127 -12.119822 12.120406
S -28.278127 -6.732457 -20.203789
S -28.278127 -9.426140 -17.510106
S -28.278127 -6.732457 -14.816423
S -28.278127 -9.426140 -12.122740
S -28.278127 -6.732457 -9.429057
S -28.278127 -9.426140 -6.735374
S -28.278127 -6.732457 -4.041691
S -28.278127 -9.426140 -1.348008
S -28.278127 -6.732457 1.345674
S -28.278127 -9.426140 4.039357
S -28.278127 -6.732457 6.733040
S -28.278127 -9.426140 9.426723
S -28.278127 -6.732457 12.120406
S -28.278127 -9.426140 14.814089
S -28.278127 -6.732457 17.507772
S -28.278127 -1.345091 -25.591154
S -28.278127 -4.038774 -22.897471
S -28.278127 -1.345091 -20.203789
S -28.278127 -4.038774 -17.510106
S -28.278127 -1.345091 -14.816423
S -28.278127 -4.038774 -12.122740
S -28.278127 -1.345091 -9.429057
S -28.278127 -4.038774 -6.735374
S -28.278127 -1.345091 -4.041691
S -28.278127 -4.038774 -1.348008
S -28.278127 -1.345091 1.345674
S -28.278127 -4.038774 4.039357
S -28.278127 -1.345091 6.733040
S -28.278127 -4.038774 9.426723
S -28.278127 -1.345091 12.120406
S -28.278127 -4.038774 14.814089
S -28.278127 -1.345091 17.507772
S -28.278127 -4.038774 20.201455
S -28.278127 -1.345091 22.895137
S -28.278127 1.348592 -22.897471
S -28.278127 4.042275 -20.203789
S -28.278127 1.348592 -17.510106
S -28.278127 4.042275 -14.816423
S -28.278127 1.348592 -12.122740
S -28.278127 4.042275 -9.429057
S -28.278127 1.348592 -6.735374
S -28.278127 4.042275 -4.041691
S -28.278127 1.348592 -1.348008
S -28.278127 4.042275 1.345674
S -28.278127 1.348592 4.039357
S -28.278127 4.042275 6.733040
S -28.278127 1.348592 9.426723
S -28.278127 4.042275 12.120406
S -28.278127 1.348592 14.814089
S -28.278127 4.042275 17.507772
S -28.278127 1.348592 20.201455
S -28.278127 4.042275 22.895137
S -28.278127 1.348592 25.588820
S -28.278127 6.735958 -17.510106
S -28.278127 9.429641 -14.816423
S -28.278127 6.735958 -12.122740
S -28.278127 9.429641 -9.429057
S -28.278127 6.735958 -6.735374
S -28.278127 9.429641 -4.041691
S -28.278127 6.735958 -1.348008
S -28.278127 9.429641 1.345674
S -28.278127 6.735958 4.039357
S -28.278127 9.429641 6.733040
S -28.278127 6.735958 9.426723
S -28.278127 9.429641 12.120406
S -28.278127 6.735958 14.814089
S -28.278127 9.429641 17.507772
S -28.278127 6.735958 20.201455
S -28.278127 12.123323 -12.122740
S -28.278127 14.817006 -9.429057
S -28.278127 12.123323 -6.735374
S -28.278127 14.817006 -4.041691
S -28.278127 12.123323 -1.348008
S -28.278127 14.817006 1.345674
S -28.278127 12.123323 4.039357
S -28.278127 14.817006 6.733040
S -28.278127 12.123323 9.426723
S -28.278127 14.817006 12.120406
S -28.278127 12.123323 14.814089
S -28.278127 17.510689 -6.735374
S -28.278127 20.204372 -4.041691
S -28.278127 17.510689 -1.348008
S -28.278127 20.204372 1.345674
S -28.278127 17.510689 4.039357
S -28.278127 20.204372 6.733040
S -28.278127 17.510689 9.426723
S -28.278127 22.898055 -1.348008
S -28.278127 25.591738 1.345674
S -28.278127 22.898055 4.039357
S -25.584444 -28.281920 -1.348008
S -22.890761 -28.281920 -4.041691
S -22.890761 -28.281920 1.345674
S -25.584444 -22.894554 -6.735374
S -22.890761 -22.894554 -9.429057
S -22.890761 -25.588237 -6.735374
S -25.584444 -25.588237 -4.041691
S -25.584444 -22.894554 -1.348008
S -22.890761 -22.894554 -4.041691
S -22.890761 -25.588237 -1.348008
S -25.584444 -25.588237 1.345674
S -25.584444 -22.894554 4.039357
S -22.890761 -22.894554 1.345674
S -22.890761 -25.588237 4.039357
S -22.890761 -22.894554 6.733040
S -25.584444 -17.507188 -12.122740
S -22.890761 -17.507188 -14.816423
S -22.890761 -20.200871 -12.122740
S -25.584444 -20.200871 -9.429057
S -25.584444 -17.507188 -6.735374
S -22.890761 -17.507188 -9.429057
S -22.890761 -20.200871 -6.735374
S -25.584444 -20.200871 -4.041691
S -25.584444 -17.507188 -1.348008
S -22.890761 -17.507188 -4.041691
S -22.890761 -20.200871 -1.348008
S -25.584444 -20.200871 1.345674
S -25.584444 -17.507188 4.039357
S -22.890761 -17.507188 1.345674
S -22.890761 -20.200871 4.039357
S -25.584444 -20.200871 6.733040
S -25.584444 -17.507188 9.426723
S -22.890761 -17.507188 6.733040
S -22.890761 -20.200871 9.426723
S -22.890761 -17.507188 12.120406
S -25.584444 -12.119822 -17.510106
S -22.890761 -12.119822 -20.203789
S -22.890761 -14.813505 -17.510106
S -25.584444 -14.813505 -14.816423
S -25.584444 -12.119822 -12.122740
S -22.890761 -12.119822 -14.816423
S -22.890761 -14.813505 -12.122740
S -25.584444 -14.813505 -9.429057
S -25.584444 -12.119822 -6.735374
S -22.890761 -12.119822 -9.429057
S -22.890761 -14.813505 -6.735374
S -25.584444 -14.813505 -4.041691
S -25.584444 -12.119822 -1.348008
S -22.890761 -12.119822 -4.041691
S -22.890761 -14.813505 -1.348008
S -25.584444 -14.813505 1.345674
S -25.584444 -12.119822 4.039357
S -22.890761 -12.119822 1.345674
S -22.890761 -14.813505 4.039357
S -25.584444 -14.813505 6.733040
S -25.584444 -12.119822 9.426723
S -22.890761 -12.119822 6.733040
S -22.890761 -14.813505 9.426723
S -25.584444 -14.813505 12.120406
S -25.584444 -12.119822 14.814089
S -22.890761 -12.119822 12.120406
S -22.890761 -14.813505 14.814089
S -22.890761 -12.119822 17.507772
S -25.584444 -6.732457 -22.897471
S -22.890761 -6.732457 -25.591154
S -22.890761 -9.426140 -22.897471
S -25.584444 -9.426140 -20.203789
S -25.584444 -6.732457 -17.510106
S -22.890761 -6.732457 -20.203789
S -22.890761 -9.426140 -17.510106
S -25.584444 -9.426140 -14.816423
S -25.584444 -6.732457 -12.122740
S -22.890761 -6.732457 -14.816423
S -22.890761 -9.426140 -12.122740
S -25.584444 -9.426140 -9.429057
S -25.584444 -6.732457 -6.735374
S -22.890761 -6.732457 -9.429057
S -22.890761 -9.426140 -6.735374
S -25.584444 -9.426140 -4.041691
S -25.584444 -6.732457 -1.348008
S -22.890761 -6.732457 -4.041691
S -22.890761 -9.426140 -1.348008
S -25.584444 -9.426140 1.345674
S -25.584444 -6.732457 4.039357
S -22.890761 -6.732457 1.345674
S -22.890761 -9.426140 4.039357
S -25.584444 -9.426140 6.733040
S -25.584444 -6.732457 9.426723
S -22.890761 -6.732457 6.733040
S -22.890761 -9.426140 9.426723
S -25.584444 -9.426140 12.120406
S -25.584444 -6.732457 14.814089
S -22.890761 -6.732457 12.120406
S -22.890761 -9.426140 14.814089
S -25.584444 -9.426140 17.507772
S -25.584444 -6.732457 20.201455
S -22.890761 -6.732457 17.507772
S -22.890761 -9.426140 20.201455
S -22.890761 -6.732457 22.895137
S -25.584444 -1.345091 -28.284837
S -22.890761 -4.038774 -28.284837
S -25.584444 -4.038774 -25.591154
S -25.584444 -1.345091 -22.897471
S -22.890761 -1.345091 -25.591154
S -22.890761 -4.038774 -22.897471
S -25.584444 -4.038774 -20.203789
S -25.584444 -1.345091 -17.510106
S -22.890761 -1.345091 -20.203789
S -22.890761 -4.038774 -17.510106
S -25.584444 -4.038774 -14.816423
S -25.584444 -1.345091 -12.122740
S -22.890761 -1.345091 -14.816423
S -22.890761 -4.038774 -12.122740
S -25.584444 -4.038774 -9.429057
S -25.584444 -1.345091 -6.735374
S -22.890761 -1.345091 -9.429057
S -22.890761 -4.038774 -6.735374
S -25.584444 -4.038774 -4.041691
S -25.584444 -1.345091 -1.348008
S -22.890761 -1.345091 -4.041691
S -22.890761 -4.038774 -1.348008
S -25.584444 -4.038774 1.345674
S -25.584444 -1.345091 4.039357
S -22.890761 -1.345091 1.345674
S -22.890761 -4.038774 4.039357
S -25.584444 -4.038774 6.733040
S -25.584444 -1.345091 9.426723
S -22.890761 -1.345091 6.733040
S -22.890761 -4.038774 9.426723
S -25.584444 -4.038774 12.120406
S -25.584444 -1.345091 14.814089
S -22.890761 -1.345091 12.120406
S -22.890761 -4.038774 14.814089
S -25.584444 -4.038774 17.507772
S -25.584444 -1.345091 20.201455
S -22.890761 -1.345091 17.507772
S -22.890761 -4.038774 20.201455
S -25.584444 -4.038774 22.895137
S -25.584444 -1.345091 25.588820
S -22.890761 -1.345091 22.895137
S -22.890761 -4.038774 25.588820
S -22.890761 -1.345091 28.282503
S -22.890761 1.348592 -28.284837
S -25.584444 1.348592 -25.591154
S -25.584444 4.042275 -22.897471
S -22.890761 4.042275 -25.591154
S -22.890761 1.348592 -22.897471
S -25.584444 1.348592 -20.203789
S -25.584444 4.042275 -17.510106
S -22.890761 4.042275 -20.203789
S -22.890761 1.348592 -17.510106
S -25.584444 1.348592 -14.816423
S -25.584444 4.042275 -12.122740
S -22.890761 4.042275 -14.816423
S -22.890761 1.348592 -12.122740
S -25.584444 1.348592 -9.429057
S -25.584444 4.042275 -6.735374
S -22.890761 4.042275 -9.429057
S -22.890761 1.348592 -6.735374
S -25.584444 1.348592 -4.041691
S -25.584444 4.042275 -1.348008
S -22.890761 4.042275 -4.041691
S -22.890761 1.348592 -1.348008
S -25.584444 1.348592 1.345674
S -25.584444 4.042275 4.039357
S -22.890761 4.042275 1.345674
S -22.890761 1.348592 4.039357
S -25.584444 1.348592 6.733040
S -25.584444 4.042275 9.426723
S -22.890761 4.042275 6.733040
S -22.890761 1.348592 9.426723
S -25.584444 1.348592 12.120406
S -25.584444 4.042275 14.814089
S -22.890761 4.042275 12.120406
S -22.890761 1.348592 14.814089
S -25.584444 1.348592 17.507772
S -25.584444 4.042275 20.201455
S -22.890761 4.042275 17.507772
S -22.890761 1.348592 20.201455
S -25.584444 1.348592 22.895137
S -25.584444 4.042275 25.588820
S -22.890761 4.042275 22.895137
S -22.890761 1.348592 25.588820
S -25.584444 1.348592 28.282503
S -22.890761 4.042275 28.282503
S -22.890761 6.735958 -22.897471
S -25.584444 6.735958 -20.203789
S -25.584444 9.429641 -17.510106
S -22.890761 9.429641 -20.203789
S -22.890761 6.735958 -17.510106
S -25.584444 6.735958 -14.816423
S -25.584444 9.429641 -12.122740
S -22.890761 9.429641 -14.816423
S -22.890761 6.735958 -12.122740
S -25.584444 6.735958 -9.429057
S -25.584444 9.429641 -6.735374
S -22.890761 9.429641 -9.429057
S -22.890761 6.735958 -6.735374
S -25.584444 6.735958 -4.041691
S -25.584444 9.429641 -1.348008
S -22.890761 9.429641 -4.041691
S -22.890761 6.735958 -1.348008
S -25.584444 6.735958 1.345674
S -25.584444 9.429641 4.039357
S -22.890761 9.429641 1.345674
S -22.890761 6.735958 4.039357
S -25.584444 6.735958 6.733040
S -25.584444 9.429641 9.426723
S -22.890761 9.429641 6.733040
S -22.890761 6.735958 9.426723
S -25.584444 6.735958 12.120406
S -25.584444 9.429641 14.814089
S -22.890761 9.429641 12.120406
S -22.890761 6.735958 14.814089
S -25.584444 6.735958 17.507772
S -25.584444 9.429641 20.201455
S -22.890761 9.429641 17.507772
S -22.890761 6.735958 20.201455
S -25.584444 6.735958 22.895137
S -22.890761 9.429641 22.895137
S -22.890761 6.735958 25.588820
S -22.890761 12.123323 -17.510106
S -25.584444 12.123323 -14.816423
S -25.584444 14.817006 -12.122740
S -22.890761 14.817006 -14.816423
S -22.890761 12.123323 -12.122740
S -25.584444 12.123323 -9.429057
S -25.584444 14.817006 -6.735374
S -22.890761 14.817006 -9.429057
S -22.890761 12.123323 -6.735374
S -25.584444 12.123323 -4.041691
S -25.584444 14.817006 -1.348008
S -22.890761 14.817006 -4.041691
S -22.890761 12.123323 -1.348008
S -25.584444 12.123323 1.345674
S -25.584444 14.817006 4.039357
S -22.890761 14.817006 1.345674
S -22.890761 12.123323 4.039357
S -25.584444 12.123323 6.733040
S -25.584444 14.817006 9.426723
S -22.890761 14.817006 6.733040
S -22.890761 12.123323 9.426723
S -25.584444 12.123323 12.120406
S -25.584444 14.817006 14.814089
S -22.890761 14.817006 12.120406
S -22.890761 12.123323 14.814089
S -25.584444 12.123323 17.507772
S -22.890761 14.817006 17.507772
S -22.890761 12.123323 20.201455
S -22.890761 17.510689 -12.122740
S -25.584444 17.510689 -9.429057
S -25.584444 20.204372 -6.735374
S -22.890761 20.204372 -9.429057
S -22.890761 17.510689 -6.735374
S -25.584444 17.510689 -4.041691
S -25.584444 20.204372 -1.348008
S -22.890761 20.204372 -4.041691
S -22.890761 17.510689 -1.348008
S -25.584444 17.510689 1.345674
S -25.584444 20.204372 4.039357
S -22.890761 20.204372 1.345674
S -22.890761 17.510689 4.039357
S -25.584444 17.510689 6.733040
S -25.584444 20.204372 9.426723
S -22.890761 20.204372 6.733040
S -22.890761 17.510689 9.426723
S -25.584444 17.510689 12.120406
S -22.890761 20.204372 12.120406
S -22.890761 17.510689 14.814089
S -22.890761 22.898055 -6.735374
S -25.584444 22.898055 -4.041691
S -25.584444 25.591738 -1.348008
S -22.890761 25.591738 -4.041691
S -22.890761 22.898055 -1.348008
S -25.584444 22.898055 1.345674
S -25.584444 25.591738 4.039357
S -22.890761 25.591738 1.345674
S -22.890761 22.898055 4.039357
S -25.584444 22.898055 6.733040
S -22.890761 25.591738 6.733040
S -22.890761 22.898055 9.426723
S -22.890761 28.285421 -1.348008
S -25.584444 28.285421 1.345674
S -22.890761 28.285421 4.039357
S -20.197078 -28.281920 -6.735374
S -17.503396 -28.281920 -9.429057
S -20.197078 -28.281920 -1.348008
S -17.503396 -28.281920 -4.041691
S -20.197078 -28.281920 4.039357
S -17.503396 -28.281920 1.345674
S -17.503396 -28.281920 6.733040
S -20.197078 -22.894554 -12.122740
S -17.503396 -22.894554 -14.816423
S -17.503396 -25.588237 -12.122740
S -20.197078 -25.588237 -9.429057
S -20.197078 -22.894554 -6.735374
S -17.503396 -22.894554 -9.429057
S -17.503396 -25.588237 -6.735374
S -20.197078 -25.588237 -4.041691
S -20.197078 -22.894554 -1.348008
S -17.503396 -22.894554 -4.041691
S -17.503396 -25.588237 -1.348008
S -20.197078 -25.588237 1.345674
S -20.197078 -22.894554 4.039357
S -17.503396 -22.894554 1.345674
S -17.503396 -25.588237 4.039357
S -20.197078 -25.588237 6.733040
S -20.197078 -22.894554 9.426723
S -17.503396 -22.894554 6.733040
S -17.503396 -25.588237 9.426723
S -17.503396 -22.894554 12.120406
S -20.197078 -17.507188 -17.510106
S -17.503396 -17.507188 -20.203789
S -17.503396 -20.200871 -17.510106
S -20.197078 -20.200871 -14.816423
S -20.197078 -17.507188 -12.122740
S -17.503396 -17.507188 -14.816423
S -17.503396 -20.200871 -12.122740
S -20.197078 -20.200871 -9.429057
S -20.197078 -17.507188 -6.735374
S -17.503396 -17.507188 -9.429057
S -17.503396 -20.200871 -6.735374
S -20.197078 -20.200871 -4.041691
S -20.197078 -17.507188 -1.348008
S -17.503396 -17.507188 -4.041691
S -17.503396 -20.200871 -1.348008
S -20.197078 -20.200871 1.345674
S -20.197078 -17.507188 4.039357
S -17.503396 -17.507188 1.345674
S -17.503396 -20.200871 4.039357
S -20.197078 -20.200871 6.733040
S -20.197078 -17.507188 9.426723
S -17.503396 -17.507188 6.733040
S -17.503396 -20.200871 9.426723
S -20.197078 -20.200871 12.120406
S -20.197078 -17.507188 14.814089
S -17.503396 -17.507188 12.120406
S -17.503396 -20.200871 14.814089
S -17.503396 -17.507188 17.507772
S -20.197078 -12.119822 -22.897471
S -17.503396 -12.119822 -25.591154
S -17.503396 -14.813505 -22.897471
S -20.197078 -14.813505 -20.203789
S -20.197078 -12.119822 -17.510106
S -17.503396 -12.119822 -20.203789
S -17.503396 -14.813505 -17.510106
S -20.197078 -14.813505 -14.816423
S -20.197078 -12.119822 -12.122740
S -17.503396 -12.119822 -14.816423
S -17.503396 -14.813505 -12.122740
S -20.197078 -14.813505 -9.429057
S -20.197078 -12.119822 -6.735374
S -17.503396 -12.119822 -9.429057
S -17.503396 -14.813505 -6.735374
S -20.197078 -14.813505 -4.041691
S -20.197078 -12.119822 -1.348008
S -17.503396 -12.119822 -4.041691
S -17.503396 -14.813505 -1.348008
S -20.197078 -14.813505 1.345674
S -20.197078 -12.119822 4.039357
S -17.503396 -12.119822 1.345674
S -17.503396 -14.813505 4.039357
S -20.197078 -14.813505 6.733040
S -20.197078 -12.119822 9.426723
S -17.503396 -12.119822 6.733040
S -17.503396 -14.813505 9.426723
S -20.197078 -14.813505 12.120406
S -20.197078 -12.119822 14.814089
S -17.503396 -12.119822 12.120406
S -17.503396 -14.813505 14.814089
S -20.197078 -14.813505 17.507772
S -20.197078 -12.119822 20.201455
S -17.503396 -12.119822 17.507772
S -17.503396 -14.813505 20.201455
S -17.503396 -12.119822 22.895137
S -20.197078 -6.732457 -28.284837
S -17.503396 -9.426140 -28.284837
S -20.197078 -9.426140 -25.591154
S -20.197078 -6.732457 -22.897471
S -17.503396 -6.732457 -25.591154
S -17.503396 -9.426140 -22.897471
S -20.197078 -9.426140 -20.203789
S -20.197078 -6.732457 -17.510106
S -17.503396 -6.732457 -20.203789
S -17.503396 -9.426140 -17.510106
S -20.197078 -9.426140 -14.816423
S -20.197078 -6.732457 -12.122740
S -17.503396 -6.732457 -14.816423
S -17.503396 -9.426140 -12.122740
S -20.197078 -9.426140 -9.429057
S -20.197078 -6.732457 -6.735374
S -17.503396 -6.732457 -9.429057
S -17.503396 -9.426140 -6.735374
S -20.197078 -9.426140 -4.041691
S -20.197078 -6.732457 -1.348008
S -17.503396 -6.732457 -4.041691
S -17.503396 -9.426140 -1.348008
S -20.197078 -9.426140 1.345674
S -20.197078 -6.732457 4.039357
S -17.503396 -6.732457 1.345674
S -17.503396 -9.426140 4.039357
S -20.197078 -9.426140 6.733040
S -20.197078 -6.732457 9.426723
S -17.503396 -6.732457 6.733040
S -17.503396 -9.426140 9.426723
S -20.197078 -9.426140 12.120406
S -20.197078 -6.732457 14.814089
S -17.503396 -6.732457 12.120406
S -17.503396 -9.426140 14.814089
S -20.197078 -9.426140 17.507772
S -20.197078 -6.732457 20.201455
S -17.503396 -6.732457 17.507772
S -17.503396 -9.426140 20.201455
S -20.197078 -9.426140 22.895137
S -20.197078 -6.732457 25.588820
S -17.503396 -6.732457 22.895137
S -17.503396 -9.426140 25.588820
S -17.503396 -6.732457 28.282503
S -20.197078 -1.345091 -28.284837
S -17.503396 -4.038774 -28.284837
S -20.197078 -4.038774 -25.591154
S -20.197078 -1.345091 -22.897471
S -17.503396 -1.345091 -25.591154
S -17.503396 -4.038774 -22.897471
S -20.197078 -4.038774 -20.203789
S -20.197078 -1.345091 -17.510106
S -17.503396 -1.345091 -20.203789
S -17.503396 -4.038774 -17.510106
S -20.197078 -4.038774 -14.816423
S -20.197078 -1.345091 -12.122740
S -17.503396 -1.345091 -14.816423
S -17.503396 -4.038774 -12.122740
S -20.197078 -4.038774 -9.429057
S -20.197078 -1.345091 -6.735374
S -17.503396 -1.345091 -9.429057
S -17.503396 -4.038774 -6.735374
S -20.197078 -4.038774 -4.041691
S -20.197078 -1.345091 -1.348008
S -17.503396 -1.345091 -4.041691
S -17.503396 -4.038774 -1.348008
S -20.197078 -4.038774 1.345674
S -20.197078 -1.345091 4.039357
S -17.503396 -1.345091 1.345674
S -17.503396 -4.038774 4.039357
S -20.197078 -4.038774 6.733040
S -20.197078 -1.345091 9.426723
S -17.503396 -1.345091 6.733040
S -17.503396 -4.038774 9.426723
S -20.197078 -4.038774 12.120406
S -20.197078 -1.345091 14.814089
S -17.503396 -1.345091 12.120406
S -17.503396 -4.038774 14.814089
S -20.197078 -4.038774 17.507772
S -20.197078 -1.345091 20.201455
S -17.503396 -1.345091 17.507772
S -17.503396 -4.038774 20.201455
S -20.197078 -4.038774 22.895137
S -20.197078 -1.345091 25.588820
S -17.503396 -1.345091 22.895137
S -17.503396 -4.038774 25.588820
S -20.197078 -4.038774 28.282503
S -17.503396 -1.345091 28.282503
S -20.197078 4.042275 -28.284837
S -17.503396 1.348592 -28.284837
S -20.197078 1.348592 -25.591154
S -20.197078 4.042275 -22.897471
S -17.503396 4.042275 -25.591154
S -17.503396 1.348592 -22.897471
S -20.197078 1.348592 -20.203789
S -20.197078 4.042275 -17.510106
S -17.503396 4.042275 -20.203789
S -17.503396 1.348592 -17.510106
S -20.197078 1.348592 -14.816423
S -20.197078 4.042275 -12.122740
S -17.503396 4.042275 -14.816423
S -17.503396 1.348592 -12.122740
S -20.197078 1.348592 -9.429057
S -20.197078 4.042275 -6.735374
S -17.503396 4.042275 -9.429057
S -17.503396 1.348592 -6.735374
S -20.197078 1.348592 -4.041691
S -20.197078 4.042275 -1.348008
S -17.503396 4.042275 -4.041691
S -17.503396 1.348592 -1.348008
S -20.197078 1.348592 1.345674
S -20.197078 4.042275 4.039357
S -17.503396 4.042275 1.345674
S -17.503396 1.348592 4.039357
S -20.197078 1.348592 6.733040
S -20.197078 4.042275 9.426723
S -17.503396 4.042275 6.733040
S -17.503396 1.348592 9.426723
S -20.197078 1.348592 12.120406
S -20.197078 4.042275 14.814089
S -17.503396 4.042275 12.120406
S -17.503396 1.348592 14.814089
S -20.197078 1.348592 17.507772
S -20.197078 4.042275 20.201455
S -17.503396 4.042275 17.507772
S -17.503396 1.348592 20.201455
S -20.197078 1.348592 22.895137
S -20.197078 4.042275 25.588820
S -17.503396 4.042275 22.895137
S -17.503396 1.348592 25.588820
S -20.197078 1.348592 28.282503
S -17.503396 4.042275 28.282503
S -17.503396 6.735958 -28.284837
S -20.197078 6.735958 -25.591154
S -20.197078 9.429641 -22.897471
S -17.503396 9.429641 -25.591154
S -17.503396 6.735958 -22.897471
S -20.197078 6.735958 -20.203789
S -20.197078 9.429641 -17.510106
S -17.503396 9.429641 -20.203789
S -17.503396 6.735958 -17.510106
S -20.197078 6.735958 -14.816423
S -20.197078 9.429641 -12.122740
S -17.503396 9.429641 -14.816423
S -17.503396 6.735958 -12.122740
S -20.197078 6.735958 -9.429057
S -20.197078 9.429641 -6.735374
S -17.503396 9.429641 -9.429057
S -17.503396 6.735958 -6.735374
S -20.197078 6.735958 -4.041691
S -20.197078 9.429641 -1.348008
S -17.503396 9.429641 -4.041691
S -17.503396 6.735958 -1.348008
S -20.197078 6.735958 1.345674
S -20.197078 9.429641 4.039357
S -17.503396 9.429641 1.345674
S -17.503396 6.735958 4.039357
S -20.197078 6.735958 6.733040
S -20.197078 9.429641 9.426723
S -17.503396 9.429641 6.733040
S -17.503396 6.735958 9.426723
S -20.197078 6.735958 12.120406
S -20.197078 9.429641 14.814089
S -17.503396 9.429641 12.120406
S -17.503396 6.735958 14.814089
S -20.197078 6.735958 17.507772
S -20.197078 9.429641 20.201455
S -17.503396 9.429641 17.507772
S -17.503396 6.735958 20.201455
S -20.197078 6.735958 22.895137
S -20.197078 9.429641 25.588820
S -17.503396 9.429641 22.895137
S -17.503396 6.735958 25.588820
S -20.197078 6.735958 28.282503
S -17.503396 9.429641 28.282503
S -17.503396 12.123323 -22.897471
S -20.197078 12.123323 -20.203789
S -20.197078 14.817006 -17.510106
S -17.503396 14.817006 -20.203789
S -17.503396 12.123323 -17.510106
S -20.197078 12.123323 -14.816423
S -20.197078 14.817006 -12.122740
S -17.503396 14.817006 -14.816423
S -17.503396 12.123323 -12.122740
S -20.197078 12.123323 -9.429057
S -20.197078 14.817006 -6.735374
S -17.503396 14.817006 -9.429057
S -17.503396 12.123323 -6.735374
S -20.197078 12.123323 -4.041691
S -20.197078 14.817006 -1.348008
S -17.503396 14.817006 -4.041691
S -17.503396 12.123323 -1.348008
S -20.197078 12.123323 1.345674
S -20.197078 14.817006 4.039357
S -17.503396 14.817006 1.345674
S -17.503396 12.123323 4.039357
S -20.197078 12.123323 6.733040
S -20.197078 14.817006 9.426723
S -17.503396 14.817006 6.733040
S -17.503396 12.123323 9.426723
S -20.197078 12.123323 12.120406
S -20.197078 14.817006 14.814089
S -17.503396 14.817006 12.120406
S -17.503396 12.123323 14.814089
S -20.197078 12.123323 17.507772
S -20.197078 14.817006 20.201455
S -17.503396 14.817006 17.507772
S -17.503396 12.123323 20.201455
S -20.197078 12.123323 22.895137
S -17.503396 14.817006 22.895137
S -17.503396 12.123323 25.588820
S -17.503396 17.510689 -17.510106
S -20.197078 17.510689 -14.816423
S -20.197078 20.204372 -12.122740
S -17.503396 20.204372 -14.816423
S -17.503396 17.510689 -12.122740
S -20.197078 17.510689 -9.429057
S -20.197078 20.204372 -6.735374
S -17.503396 20.204372 -9.429057
S -17.503396 17.510689 -6.735374
S -20.197078 17.510689 -4.041691
S -20.197078 20.204372 -1.348008
S -17.503396 20.204372 -4.041691
S -17.503396 17.510689 -1.348008
S -20.197078 17.510689 1.345674
S -20.197078 20.204372 4.039357
S -17.503396 20.204372 1.345674
S -17.503396 17.510689 4.039357
S -20.197078 17.510689 6.733040
S -20.197078 20.204372 9.426723
S -17.503396 20.204372 6.733040
S -17.503396 17.510689 9.426723
S -20.197078 17.510689 12.120406
S -20.197078 20.204372 14.814089
S -17.503396 20.204372 12.120406
S -17.503396 17.510689 14.814089
S -20.197078 17.510689 17.507772
S -17.503396 20.204372 17.507772
S -17.503396 17.510689 20.201455
S -17.503396 22.898055 -12.122740
S -20.197078 22.898055 -9.429057
S -20.197078 25.591738 -6.735374
S -17.503396 25.591738 -9.429057
S -17.503396 22.898055 -6.735374
S -20.197078 22.898055 -4.041691
S -20.197078 25.591738 -1.348008
S -17.503396 25.591738 -4.041691
S -17.503396 22.898055 -1.348008
S -20.197078 22.898055 1.345674
S -20.197078 25.591738 4.039357
S -17.503396 25.591738 1.345674
S -17.503396 22.898055 4.039357
S -20.197078 22.898055 6.733040
S -20.197078 25.591738 9.426723
S -17.503396 25.591738 6.733040
S -17.503396 22.898055 9.426723
S -20.197078 22.898055 12.120406
S -17.503396 25.591738 12.120406
S -17.503396 22.898055 14.814089
S -17.503396 28.285421 -6.735374
S -20.197078 28.285421 -4.041691
S -17.503396 28.285421 -1.348008
S -20.197078 28.285421 1.345674
S -17.503396 28.285421 4.039357
S -20.197078 28.285421 6.733040
S -17.503396 28.285421 9.426723
S -14.809713 -28.281920 -12.122740
S -12.116030 -28.281920 -14.816423
S -14.809713 -28.281920 -6.735374
S -12.116030 -28.281920 -9.429057
S -14.809713 -28.281920 -1.348008
S -12.116030 -28.281920 -4.041691
S -14.809713 -28.281920 4.039357
S -12.116030 -28.281920 1.345674
S -14.809713 -28.281920 9.426723
S -12.116030 -28.281920 6.733040
S -12.116030 -28.281920 12.120406
S -14.809713 -22.894554 -17.510106
S -12.116030 -22.894554 -20.203789
S -12.116030 -25.588237 -17.510106
S -14.809713 -25.588237 -14.816423
S -14.809713 -22.894554 -12.122740
S -12.116030 -22.894554 -14.816423
S -12.116030 -25.588237 -12.122740
S -14.809713 -25.588237 -9.429057
S -14.809713 -22.894554 -6.735374
S -12.116030 -22.894554 -9.429057
S -12.116030 -25.588237 -6.735374
S -14.809713 -25.588237 -4.041691
S -14.809713 -22.894554 -1.348008
S -12.116030 -22.894554 -4.041691
S -12.116030 -25.588237 -1.348008
S -14.809713 -25.588237 1.345674
S -14.809713 -22.894554 4.039357
S -12.116030 -22.894554 1.345674
S -12.116030 -25.588237 4.039357
S -14.809713 -25.588237 6.733040
S -14.809713 -22.894554 9.426723
S -12.116030 -22.894554 6.733040
S -12.116030 -25.588237 9.426723
S -14.809713 -25.588237 12.120406
S -14.809713 -22.894554 14.814089
S -12.116030 -22.894554 12.120406
S -12.116030 -25.588237 14.814089
S -12.116030 -22.894554 17.507772
S -14.809713 -17.507188 -22.897471
S -12.116030 -17.507188 -25.591154
S -12.116030 -20.200871 -22.897471
S -14.809713 -20.200871 -20.203789
S -14.809713 -17.507188 -17.510106
S -12.116030 -17.507188 -20.203789
S -12.116030 -20.200871 -17.510106
S -14.809713 -20.200871 -14.816423
S -14.809713 -17.507188 -12.122740
S -12.116030 -17.507188 -14.816423
S -12.116030 -20.200871 -12.122740
S -14.809713 -20.200871 -9.429057
S -14.809713 -17.507188 -6.735374
S -12.116030 -17.507188 -9.429057
S -12.116030 -20.200871 -6.735374
S -14.809713 -20.200871 -4.041691
S -14.809713 -17.507188 -1.348008
S -12.116030 -17.507188 -4.041691
S -12.116030 -20.200871 -1.348008
S -14.809713 -20.200871 1.345674
S -14.809713 -17.507188 4.039357
S -12.116030 -17.507188 1.345674
S -12.116030 -20.200871 4.039357
S -14.809713 -20.200871 6.733040
S -14.809713 -17.507188 9.426723
S -12.116030 -17.507188 6.733040
S -12.116030 -20.200871 9.426723
S -14.809713 -20.200871 12.120406
S -14.809713 -17.507188 14.814089
S -12.116030 -17.507188 12.120406
S -12.116030 -20.200871 14.814089
S -14.809713 -20.200871 17.507772
S -14.809713 -17.507188 20.201455
S -12.116030 -17.507188 17.507772
S -12.116030 -20.200871 20.201455
S -12.116030 -17.507188 22.895137
S -14.809713 -12.119822 -28.284837
S -12.116030 -14.813505 -28.284837
S -14.809713 -14.813505 -25.591154
S -14.809713 -12.119822 -22.897471
S -12.116030 -12.119822 -25.591154
S -12.116030 -14.813505 -22.897471
S -14.809713 -14.813505 -20.203789
S -14.809713 -12.119822 -17.510106
S -12.116030 -12.119822 -20.203789
S -12.116030 -14.813505 -17.510106
S -14.809713 -14.813505 -14.816423
S -14.809713 -12.119822 -12.122740
S -12.116030 -12.119822 -14.816423
S -12.116030 -14.813505 -12.122740
S -14.809713 -14.813505 -9.429057
S -14.809713 -12.119822 -6.735374
S -12.116030 -12.119822 -9.429057
S -12.116030 -14.813505 -6.735374
S -14.809713 -14.813505 -4.041691
S -14.809713 -12.119822 -1.348008
S -12.116030 -12.119822 -4.041691
S -12.116030 -14.813505 -1.348008
S -14.809713 -14.813505 1.345674
S -14.809713 -12.119822 4.039357
S -12.116030 -12.119822 1.345674
S -12.116030 -14.813505 4.039357
S -14.809713 -14.813505 6.733040
S -14.809713 -12.119822 9.426723
S -12.116030 -12.119822 6.733040
S -12.116030 -14.813505 9.426723
S -14.809713 -14.813505 12.120406
S -14.809713 -12.119822 14.814089
S -12.116030 -12.119822 12.120406
S -12.116030 -14.813505 14.814089
S -14.809713 -14.813505 17.507772
S -14.809713 -12.119822 20.201455
S -12.116030 -12.119822 17.507772
S -12.116030 -14.813505 20.201455
S -14.809713 -14.813505 22.895137
S -14.809713 -12.119822 25.588820
S -12.116030 -12.119822 22.895137
S -12.116030 -14.813505 25.588820
S -12.116030 -12.119822 28.282503
S -14.809713 -6.732457 -28.284837
S -12.116030 -9.426140 -28.284837
S -14.809713 -9.426140 -25.591154
S -14.809713 -6.732457 -22.897471
S -12.116030 -6.732457 -25.591154
S -12.116030 -9.426140 -22.897471
S -14.809713 -9.426140 -20.203789
S -14.809713 -6.732457 -17.510106
S -12.116030 -6.732457 -20.203789
S -12.116030 -9.426140 -17.510106
S -14.809713 -9.426140 -14.816423
S -14.809713 -6.732457 -12.122740
S -12.116030 -6.732457 -14.816423
S -12.116030 -9.426140 -12.122740
S -14.809713 -9.426140 -9.429057
S -14.809713 -6.732457 -6.735374
S -12.116030 -6.732457 -9.429057
S -12.116030 -9.426140 -6.735374
S -14.809713 -9.426140 -4.041691
S -14.809713 -6.732457 -1.348008
S -12.116030 -6.732457 -4.041691
S -12.116030 -9.426140 -1.348008
S -14.809713 -9.426140 1.345674
S -14.809713 -6.732457 4.039357
S -12.116030 -6.732457 1.345674
S -12.116030 -9.426140 4.039357
S -14.809713 -9.426140 6.733040
S -14.809713 -6.732457 9.426723
S -12.116030 -6.732457 6.733040
S -12.116030 -9.426140 9.426723
S -14.809713 -9.426140 12.120406
S -14.809713 -6.732457 14.814089
S -12.116030 -6.732457 12.120406
S -12.116030 -9.426140 14.814089
S -14.809713 -9.426140 17.507772
S -14.809713 -6.732457 20.201455
S -12.116030 -6.732457 17.507772
S -12.116030 -9.426140 20.201455
S -14.809713 -9.426140 22.895137
S -14.809713 -6.732457 25.588820
S -12.116030 -6.732457 22.895137
S -12.116030 -9.426140 25.588820
S -14.809713 -9.426140 28.282503
S -12.116030 -6.732457 28.282503
S -14.809713 -1.345091 -28.284837
S -12.116030 -4.038774 -28.284837
S -14.809713 -4.038774 -25.591154
S -14.809713 -1.345091 -22.897471
S -12.116030 -1.345091 -25.591154
S -12.116030 -4.038774 -22.897471
S -14.809713 -4.038774 -20.203789
S -14.809713 -1.345091 -17.510106
S -12.116030 -1.345091 -20.203789
S -12.116030 -4.038774 -17.510106
S -14.809713 -4.038774 -14.816423
S -14.809713 -1.345091 -12.122740
S -12.116030 -1.345091 -14.816423
S -12.116030 -4.038774 -12.122740
S -14.809713 -4.038774 -9.429057
S -14.809713 -1.345091 -6.735374
S -12.116030 -1.345091 -9.429057
S -12.116030 -4.038774 -6.735374
S -14.809713 -4.038774 -4.041691
S -14.809713 -1.345091 -1.348008
S -12.116030 -1.345091 -4.041691
S -12.116030 -4.038774 -1.348008
S -14.809713 -4.038774 1.345674
S -14.809713 -1.345091 4.039357
S -12.116030 -1.345091 1.345674
S -12.116030 -4.038774 4.039357
S -14.809713 -4.038774 6.733040
S -14.809713 -1.345091 9.426723
S -12.116030 -1.345091 6.733040
S -12.116030 -4.038774 9.426723
S -14.809713 -4.038774 12.120406
S -14.809713 -1.345091 14.814089
S -12.116030 -1.345091 12.120406
S -12.116030 -4.038774 14.814089
S -14.809713 -4.038774 17.507772
S -14.809713 -1.345091 20.201455
S -12.116030 -1.345091 17.507772
S -12.116030 -4.038774 20.201455
S -14.809713 -4.038774 22.895137
S -14.809713 -1.345091 25.588820
S -12.116030 -1.345091 22.895137
S -12.116030 -4.038774 25.588820
S -14.809713 -4.038774 28.282503
S -12.116030 -1.345091 28.282503
S -14.809713 4.042275 -28.284837
S -12.116030 1.348592 -28.284837
S -14.809713 1.348592 -25.591154
S -14.809713 4.042275 -22.897471
S -12.116030 4.042275 -25.591154
S -12.116030 1.348592 -22.897471
S -14.809713 1.348592 -20.203789
S -14.809713 4.042275 -17.510106
S -12.116030 4.042275 -20.203789
S -12.116030 1.348592 -17.510106
S -14.809713 1.348592 -14.816423
S -14.809713 4.042275 -12.122740
S -12.116030 4.042275 -14.816423
S -12.116030 1.348592 -12.122740
S -14.809713 1.348592 -9.429057
S -14.809713 4.042275 -6.735374
S -12.116030 4.042275 -9.429057
S -12.116030 1.348592 -6.735374
S -14.809713 1.348592 -4.041691
S -14.809713 4.042275 -1.348008
S -12.116030 4.042275 -4.041691
S -12.116030 1.348592 -1.348008
S -14.809713 1.348592 1.345674
S -14.809713 4.042275 4.039357
S -12.116030 4.042275 1.345674
S -12.116030 1.348592 4.039357
S -14.809713 1.348592 6.733040
S -14.809713 4.042275 9.426723
S -12.116030 4.042275 6.733040
S -12.116030 1.348592 9.426723
S -14.809713 1.348592 12.120406
S -14.809713 4.042275 14.814089
S -12.116030 4.042275 12.120406
S -12.116030 1.348592 14.814089
S -14.809713 1.348592 17.507772
S -14.809713 4.042275 20.201455
S -12.116030 4.042275 17.507772
S -12.116030 1.348592 20.201455
S -14.809713 1.348592 22.895137
S -14.809713 4.042275 25.588820
S -12.116030 4.042275 22.895137
S -12.116030 1.348592 25.588820
S -14.809713 1.348592 28.282503
S -12.116030 4.042275 28.282503
S -14.809713 9.429641 -28.284837
S -12.116030 6.735958 -28.284837
S -14.809713 6.735958 -25.591154
S -14.809713 9.429641 -22.897471
S -12.116030 9.429641 -25.591154
S -12.116030 6.735958 -22.897471
S -14.809713 6.735958 -20.203789
S -14.809713 9.429641 -17.510106
S -12.116030 9.429641 -20.203789
S -12.116030 6.735958 -17.510106
S -14.809713 6.735958 -14.816423
S -14.809713 9.429641 -12.122740
S -12.116030 9.429641 -14.816423
S -12.116030 6.735958 -12.122740
S -14.809713 6.735958 -9.429057
S -14.809713 9.429641 -6.735374
S -12.116030 9.429641 -9.429057
S -12.116030 6.735958 -6.735374
S -14.809713 6.735958 -4.041691
S -14.809713 9.429641 -1.348008
S -12.116030 9.429641 -4.041691
S -12.116030 6.735958 -1.348008
S -14.809713 6.735958 1.345674
S -14.809713 9.429641 4.039357
S -12.116030 9.429641 1.345674
S -12.116030 6.735958 4.039357
S -14.809713 6.735958 6.733040
S -14.809713 9.429641 9.426723
S -12.116030 9.429641 6.733040
S -12.116030 6.735958 9.426723
S -14.809713 6.735958 12.120406
S -14.809713 9.429641 14.814089
S -12.116030 9.429641 12.120406
S -12.116030 6.735958 14.814089
S -14.809713 6.735958 17.507772
S -14.809713 9.429641 20.201455
S -12.116030 9.429641 17.507772
S -12.116030 6.735958 20.201455
S -14.809713 6.735958 22.895137
S -14.809713 9.429641 25.588820
S -12.116030 9.429641 22.895137
S -12.116030 6.735958 25.588820
S -14.809713 6.735958 28.282503
S -12.116030 9.429641 28.282503
S -12.116030 12.123323 -28.284837
S -14.809713 12.123323 -25.591154
S -14.809713 14.817006 -22.897471
S -12.116030 14.817006 -25.591154
S -12.116030 12.123323 -22.897471
S -14.809713 12.123323 -20.203789
S -14.809713 14.817006 -17.510106
S -12.116030 14.817006 -20.203789
S -12.116030 12.123323 -17.510106
S -14.809713 12.123323 -14.816423
S -14.809713 14.817006 -12.122740
S -12.116030 14.817006 -14.816423
S -12.116030 12.123323 -12.122740
S -14.809713 12.123323 -9.429057
S -14.809713 14.817006 -6.735374
S -12.116030 14.817006 -9.429057
S -12.116030 12.123323 -6.735374
S -14.809713 12.123323 -4.041691
S -14.809713 14.817006 -1.348008
S -12.116030 14.817006 -4.041691
S -12.116030 12.123323 -1.348008
S -14.809713 12.123323 1.345674
S -14.809713 14.817006 4.039357
S -12.116030 14.817006 1.345674
S -12.116030 12.123323 4.039357
S -14.809713 12.123323 6.733040
S -14.809713 14.817006 9.426723
S -12.116030 14.817006 6.733040
S -12.116030 12.123323 9.426723
S -14.809713 12.123323 12.120406
S -14.809713 14.817006 14.814089
S -12.116030 14.817006 12.120406
S -12.116030 12.123323 14.814089
S -14.809713 12.123323 17.507772
S -14.809713 14.817006 20.201455
S -12.116030 14.817006 17.507772
S -12.116030 12.123323 20.201455
S -14.809713 12.123323 22.895137
S -14.809713 14.817006 25.588820
S -12.116030 14.817006 22.895137
S -12.116030 12.123323 25.588820
S -14.809713 12.123323 28.282503
S -12.116030 14.817006 28.282503
S -12.116030 17.510689 -22.897471
S -14.809713 17.510689 -20.203789
S -14.809713 20.204372 -17.510106
S -12.116030 20.204372 -20.203789
S -12.116030 17.510689 -17.510106
S -14.809713 17.510689 -14.816423
S -14.809713 20.204372 -12.122740
S -12.116030 20.204372 -14.816423
S -12.116030 17.510689 -12.122740
S -14.809713 17.510689 -9.429057
S -14.809713 20.204372 -6.735374
S -12.116030 20.204372 -9.429057
S -12.116030 17.510689 -6.735374
S -14.809713 17.510689 -4.041691
S -14.809713 20.204372 -1.348008
S -12.116030 20.204372 -4.041691
S -12.116030 17.510689 -1.348008
S -14.809713 17.510689 1.345674
S -14.809713 20.204372 4.039357
S -12.116030 20.204372 1.345674
S -12.116030 17.510689 4.039357
S -14.809713 17.510689 6.733040
S -14.809713 20.204372 9.426723
S -12.116030 20.204372 6.733040
S -12.116030 17.510689 9.426723
S -14.809713 17.510689 12.120406
S -14.809713 20.204372 14.814089
S -12.116030 20.204372 12.120406
S -12.116030 17.510689 14.814089
S -14.809713 17.510689 17.507772
S -14.809713 20.204372 20.201455
S -12.116030 20.204372 17.507772
S -12.116030 17.510689 20.201455
S -14.809713 17.510689 22.895137
S -12.116030 20.204372 22.895137
S -12.116030 17.510689 25.588820
S -12.116030 22.898055 -17.510106
S -14.809713 22.898055 -14.816423
S -14.809713 25.591738 -12.122740
S -12.116030 25.591738 -14.816423
S -12.116030 22.898055 -12.122740
S -14.809713 22.898055 -9.429057
S -14.809713 25.591738 -6.735374
S -12.116030 25.591738 -9.429057
S -12.116030 22.898055 -6.735374
S -14.809713 22.898055 -4.041691
S -14.809713 25.591738 -1.348008
S -12.116030 25.591738 -4.041691
S -12.116030 22.898055 -1.348008
S -14.809713 22.898055 1.345674
S -14.809713 25.591738 4.039357
S -12.116030 25.591738 1.345674
S -12.116030 22.898055 4.039357
S -14.809713 22.898055 6.733040
S -14.809713 25.591738 9.426723
S -12.116030 25.591738 6.733040
S -12.116030 22.898055 9.426723
S -14.809713 22.898055 12.120406
S -14.809713 25.591738 14.814089
S -12.116030 25.591738 12.120406
S -12.116030 22.898055 14.814089
S -14.809713 22.898055 17.507772
S -12.116030 25.591738 17.507772
S -12.116030 22.898055 20.201455
S -12.116030 28.285421 -12.122740
S -14.809713 28.285421 -9.429057
S -12.116030 28.285421 -6.735374
S -14.809713 28.285421 -4.041691
S -12.116030 28.285421 -1.348008
S -14.809713 28.285421 1.345674
S -12.116030 28.285421 4.039357
S -14.809713 28.285421 6.733040
S -12.116030 28.285421 9.426723
S -14.809713 28.285421 12.120406
S -12.116030 28.285421 14.814089
S -9.422347 -28.281920 -17.510106
S -6.728664 -28.281920 -20.203789
S -9.422347 -28.281920 -12.122740
S -6.728664 -28.281920 -14.816423
S -9.422347 -28.281920 -6.735374
S -6.728664 -28.281920 -9.429057
S -9.422347 -28.281920 -1.348008
S -6.728664 -28.281920 -4.041691
S -9.422347 -28.281920 4.039357
S -6.728664 -28.281920 1.345674
S -9.422347 -28.281920 9.426723
S -6.728664 -28.281920 6.733040
S -9.422347 -28.281920 14.814089
S -6.728664 -28.281920 12.120406
S -6.728664 -28.281920 17.507772
S -9.422347 -22.894554 -22.897471
S -6.728664 -22.894554 -25.591154
S -6.728664 -25.588237 -22.897471
S -9.422347 -25.588237 -20.203789
S -9.422347 -22.894554 -17.510106
S -6.728664 -22.894554 -20.203789
S -6.728664 -25.588237 -17.510106
S -9.422347 -25.588237 -14.816423
S -9.422347 -22.894554 -12.122740
S -6.728664 -22.894554 -14.816423
S -6.728664 -25.588237 -12.122740
S -9.422347 -25.588237 -9.429057
S -9.422347 -22.894554 -6.735374
S -6.728664 -22.894554 -9.429057
S -6.728664 -25.588237 -6.735374
S -9.422347 -25.588237 -4.041691
S -9.422347 -22.894554 -1.348008
S -6.728664 -22.894554 -4.041691
S -6.728664 -25.588237 -1.348008
S -9.422347 -25.588237 1.345674
S -9.422347 -22.894554 4.039357
S -6.728664 -22.894554 1.345674
S -6.728664 -25.588237 4.039357
S -9.422347 -25.588237 6.733040
S -9.422347 -22.894554 9.426723
S -6.728664 -22.894554 6.733040
S -6.728664 -25.588237 9.426723
S -9.422347 -25.588237 12.120406
S -9.422347 -22.894554 14.814089
S -6.728664 -22.894554 12.120406
S -6.728664 -25.588237 14.814089
S -9.422347 -25.588237 17.507772
S -9.422347 -22.894554 20.201455
S -6.728664 -22.894554 17.507772
S -6.728664 -25.588237 20.201455
S -6.728664 -22.894554 22.895137
S -9.422347 -17.507188 -28.284837
S -6.728664 -20.200871 -28.284837
S -9.422347 -20.200871 -25.591154
S -9.422347 -17.507188 -22.897471
S -6.728664 -17.507188 -25.591154
S -6.728664 -20.200871 -22.897471
S -9.422347 -20.200871 -20.203789
S -9.422347 -17.507188 -17.510106
S -6.728664 -17.507188 -20.203789
S -6.728664 -20.200871 -17.510106
S -9.422347 -20.200871 -14.816423
S -9.422347 -17.507188 -12.122740
S -6.728664 -17.507188 -14.816423
S -6.728664 -20.200871 -12.122740
S -9.422347 -20.200871 -9.429057
S -9.422347 -17.507188 -6.735374
S -6.728664 -17.507188 -9.429057
S -6.728664 -20.200871 -6.735374
S -9.422347 -20.200871 -4.041691
S -9.422347 -17.507188 -1.348008
S -6.728664 -17.507188 -4.041691
S -6.728664 -20.200871 -1.348008
S -9.422347 -20.200871 1.345674
S -9.422347 -17.507188 4.039357
S -6.728664 -17.507188 1.345674
S -6.728664 -20.200871 4.039357
S -9.422347 -20.200871 6.733040
S -9.422347 -17.507188 9.426723
S -6.728664 -17.507188 6.733040
S -6.728664 -20.200871 9.426723
S -9.422347 -20.200871 12.120406
S -9.422347 -17.507188 14.814089
S -6.728664 -17.507188 12.120406
S -6.728664 -20.200871 14.814089
S -9.422347 -20.200871 17.507772
S -9.422347 -17.507188 20.201455
S -6.728664 -17.507188 17.507772
S -6.728664 -20.200871 20.201455
S -9.422347 -20.200871 22.895137
S -9.422347 -17.507188 25.588820
S -6.728664 -17.507188 22.895137
S -6.728664 -20.200871 25.588820
S -6.728664 -17.507188 28.282503
S -9.422347 -12.119822 -28.284837
S -6.728664 -14.813505 -28.284837
S -9.422347 -14.813505 -25.591154
S -9.422347 -12.119822 -22.897471
S -6.728664 -12.119822 -25.591154
S -6.728664 -14.813505 -22.897471
S -9.422347 -14.813505 -20.203789
S -9.422347 -12.119822 -17.510106
S -6.728664 -12.119822 -20.203789
S -6.728664 -14.813505 -17.510106
S -9.422347 -14.813505 -14.816423
S -9.422347 -12.119822 -12.122740
S -6.728664 -12.119822 -14.816423
S -6.728664 -14.813505 -12.122740
S -9.422347 -14.813505 -9.429057
S -9.422347 -12.119822 -6.735374
S -6.728664 -12.119822 -9.429057
S -6.728664 -14.813505 -6.735374
S -9.422347 -14.813505 -4.041691
S -9.422347 -12.119822 -1.348008
S -6.728664 -12.119822 -4.041691
S -6.728664 -14.813505 -1.348008
S -9.422347 -14.813505 1.345674
S -9.422347 -12.119822 4.039357
S -6.728664 -12.119822 1.345674
S -6.728664 -14.813505 4.039357
S -9.422347 -14.813505 6.733040
S -9.422347 -12.119822 9.426723
S -6.728664 -12.119822 6.733040
S -6.728664 -14.813505 9.426723
S -9.422347 -14.813505 12.120406
S -9.422347 -12.119822 14.814089
S -6.728664 -12.119822 12.120406
S -6.728664 -14.813505 14.814089
S -9.422347 -14.813505 17.507772
S -9.422347 -12.119822 20.201455
S -6.728664 -12.119822 17.507772
S -6.728664 -14.813505 20.201455
S -9.422347 -14.813505 22.895137
S -9.422347 -12.119822 25.588820
S -6.728664 -12.119822 22.895137
S -6.728664 -14.813505 25.588820
S -9.422347 -14.813505 28.282503
S -6.728664 -12.119822 28.282503
S -9.422347 -6.732457 -28.284837
S -6.728664 -9.426140 -28.284837
S -9.422347 -9.426140 -25.591154
S -9.422347 -6.732457 -22.897471
S -6.728664 -6.732457 -25.591154
S -6.728664 -9.426140 -22.897471
S -9.422347 -9.426140 -20.203789
S -9.422347 -6.732457 -17.510106
S -6.728664 -6.732457 -20.203789
S -6.728664 -9.426140 -17.510106
S -9.422347 -9.426140 -14.816423
S -9.422347 -6.732457 -12.122740
S -6.728664 -6.732457 -14.816423
S -6.728664 -9.426140 -12.122740
S -9.422347 -9.426140 -9.429057
S -9.422347 -6.732457 -6.735374
S -6.728664 -6.732457 -9.429057
S -6.728664 -9.426140 -6.735374
S -9.422347 -9.426140 -4.041691
S -9.422347 -6.732457 -1.348008
S -6.728664 -6.732457 -4.041691
S -6.728664 -9.426140 -1.348008
S -9.422347 -9.426140 1.345674
S -9.422347 -6.732457 4.039357
S -6.728664 -6.732457 1.345674
S -6.728664 -9.426140 4.039357
S -9.422347 -9.426140 6.733040
S -9.422347 -6.732457 9.426723
S -6.728664 -6.732457 6.733040
S -6.728664 -9.426140 9.426723
S -9.422347 -9.426140 12.120406
S -9.422347 -6.732457 14.814089
S -6.728664 -6.732457 12.120406
S -6.728664 -9.426140 14.814089
S -9.422347 -9.426140 17.507772
S -9.422347 -6.732457 20.201455
S -6.728664 -6.732457 17.507772
S -6.728664 -9.426140 20.201455
S -9.422347 -9.426140 22.895137
S -9.422347 -6.732457 25.588820
S -6.728664 -6.732457 22.895137
S -6.728664 -9.426140 25.588820
S -9.422347 -9.426140 28.282503
S -6.728664 -6.732457 28.282503
S -9.422347 -1.345091 -28.284837
S -6.728664 -4.038774 -28.284837
S -9.422347 -4.038774 -25.591154
S -9.422347 -1.345091 -22.897471
S -6.728664 -1.345091 -25.591154
S -6.728664 -4.038774 -22.897471
S -9.422347 -4.038774 -20.203789
S -9.422347 -1.345091 -17.510106
S -6.728664 -1.345091 -20.203789
S -6.728664 -4.038774 -17.510106
S -9.422347 -4.038774 -14.816423
S -9.422347 -1.345091 -12.122740
S -6.728664 -1.345091 -14.816423
S -6.728664 -4.038774 -12.122740
S -9.422347 -4.038774 -9.429057
S -9.422347 -1.345091 -6.735374
S -6.728664 -1.345091 -9.429057
S -6.728664 -4.038774 -6.735374
S -9.422347 -4.038774 -4.041691
S -9.422347 -1.345091 -1.348008
S -6.728664 -1.345091 -4.041691
S -6.728664 -4.038774 -1.348008
S -9.422347 -4.038774 1.345674
S -9.422347 -1.345091 4.039357
S -6.728664 -1.345091 1.345674
S -6.728664 -4.038774 4.039357
S -9.422347 -4.038774 6.733040
S -9.422347 -1.345091 9.426723
S -6.728664 -1.345091 6.733040
S -6.728664 -4.038774 9.426723
S -9.422347 -4.038774 12.120406
S -9.422347 -1.345091 14.814089
S -6.728664 -1.345091 12.120406
S -6.728664 -4.038774 14.814089
S -9.422347 -4.038774 17.507772
S -9.422347 -1.345091 20.201455
S -6.728664 -1.345091 17.507772
S -6.728664 -4.038774 20.201455
S -9.422347 -4.038774 22.895137
S -9.422347 -1.345091 25.588820
S -6.728664 -1.345091 22.895137
S -6.728664 -4.038774 25.588820
S -9.422347 -4.038774 28.282503
S -6.728664 -1.345091 28.282503
S -9.422347 4.042275 -28.284837
S -6.728664 1.348592 -28.284837
S -9.422347 1.348592 -25.591154
S -9.422347 4.042275 -22.897471
S -6.728664 4.042275 -25.591154
S -6.728664 1.348592 -22.897471
S -9.422347 1.348592 -20.203789
S -9.422347 4.042275 -17.510106
S -6.728664 4.042275 -20.203789
S -6.728664 1.348592 -17.510106
S -9.422347 1.348592 -14.816423
S -9.422347 4.042275 -12.122740
S -6.728664 4.042275 -14.816423
S -6.728664 1.348592 -12.122740
S -9.422347 1.348592 -9.429057
S -9.422347 4.042275 -6.735374
S -6.728664 4.042275 -9.429057
S -6.728664 1.348592 -6.735374
S -9.422347 1.348592 -4.041691
S -9.422347 4.042275 -1.348008
S -6.728664 4.042275 -4.041691
S -6.728664 1.348592 -1.348008
S -9.422347 1.348592 1.345674
S -9.422347 4.042275 4.039357
S -6.728664 4.042275 1.345674
S -6.728664 1.348592 4.039357
S -9.422347 1.348592 6.733040
S -9.422347 4.042275 9.426723
S -6.728664 4.042275 6.733040
S -6.728664 1.348592 9.426723
S -9.422347 1.348592 12.120406
S -9.422347 4.042275 14.814089
S -6.728664 4.042275 12.120406
S -6.728664 1.348592 14.814089
S -9.422347 1.348592 17.507772
S -9.422347 4.042275 20.201455
S -6.728664 4.042275 17.507772
S -6.728664 1.348592 20.201455
S -9.422347 1.348592 22.895137
S -9.422347 4.042275 25.588820
S -6.728664 4.042275 22.895137
S -6.728664 1.348592 25.588820
S -9.422347 1.348592 28.282503
S -6.728664 4.042275 28.282503
S -9.422347 9.429641 -28.284837
S -6.728664 6.735958 -28.284837
S -9.422347 6.735958 -25.591154
S -9.422347 9.429641 -22.897471
S -6.728664 9.429641 -25.591154
S -6.728664 6.735958 -22.897471
S -9.422347 6.735958 -20.203789
S -9.422347 9.429641 -17.510106
S -6.728664 9.429641 -20.203789
S -6.728664 6.735958 -17.510106
S -9.422347 6.735958 -14.816423
S -9.422347 9.429641 -12.122740
S -6.728664 9.429641 -14.816423
S -6.728664 6.735958 -12.122740
S -9.422347 6.735958 -9.429057
S -9.422347 9.429641 -6.735374
S -6.728664 9.429641 -9.429057
S -6.728664 6.735958 -6.735374
S -9.422347 6.735958 -4.041691
S -9.422347 9.429641 -1.348008
S -6.728664 9.429641 -4.041691
S -6.728664 6.735958 -1.348008
S -9.422347 6.735958 1.345674
S -9.422347 9.429641 4.039357
S -6.728664 9.429641 1.345674
S -6.728664 6.735958 4.039357
S -9.422347 6.735958 6.733040
S -9.422347 9.429641 9.426723
S -6.728664 9.429641 6.733040
S -6.728664 6.735958 9.426723
S -9.422347 6.735958 12.120406
S -9.422347 9.429641 14.814089
S -6.728664 9.429641 12.120406
S -6.728664 6.735958 14.814089
S -9.422347 6.735958 17.507772
S -9.422347 9.429641 20.201455
S -6.728664 9.429641 17.507772
S -6.728664 6.735958 20.201455
S -9.422347 6.735958 22.895137
S -9.422347 9.429641 25.588820
S -6.728664 9.429641 22.895137
S -6.728664 6.735958 25.588820
S -9.422347 6.735958 28.282503
S -6.728664 9.429641 28.282503
S -9.422347 14.817006 -28.284837
S -6.728664 12.123323 -28.284837
S -9.422347 12.123323 -25.591154
S -9.422347 14.817006 -22.897471
S -6.728664 14.817006 -25.591154
S -6.728664 12.123323 -22.897471
S -9.422347 12.123323 -20.203789
S -9.422347 14.817006 -17.510106
S -6.728664 14.817006 -20.203789
S -6.728664 12.123323 -17.510106
S -9.422347 12.123323 -14.816423
S -9.422347 14.817006 -12.122740
S -6.728664 14.817006 -14.816423
S -6.728664 12.123323 -12.122740
S -9.422347 12.123323 -9.429057
S -9.422347 14.817006 -6.735374
S -6.728664 14.817006 -9.429057
S -6.728664 12.123323 -6.735374
S -9.422347 12.123323 -4.041691
S -9.422347 14.817006 -1.348008
S -6.728664 14.817006 -4.041691
S -6.728664 12.123323 -1.348008
S -9.422347 12.123323 1.345674
S -9.422347 14.817006 4.039357
S -6.728664 14.817006 1.345674
S -6.728664 12.123323 4.039357
S -9.422347 12.123323 6.733040
S -9.422347 14.817006 9.426723
S -6.728664 14.817006 6.733040
S -6.728664 12.123323 9.426723
S -9.422347 12.123323 12.120406
S -9.422347 14.817006 14.814089
S -6.728664 14.817006 12.120406
S -6.728664 12.123323 14.814089
S -9.422347 12.123323 17.507772
S -9.422347 14.817006 20.201455
S -6.728664 14.817006 17.507772
S -6.728664 12.123323 20.201455
S -9.422347 12.123323 22.895137
S -9.422347 14.817006 25.588820
S -6.728664 14.817006 22.895137
S -6.728664 12.123323 25.588820
S -9.422347 12.123323 28.282503
S -6.728664 14.817006 28.282503
S -6.728664 17.510689 -28.284837
S -9.422347 17.510689 -25.591154
S -9.422347 20.204372 -22.897471
S -6.728664 20.204372 -25.591154
S -6.728664 17.510689 -22.897471
S -9.422347 17.510689 -20.203789
S -9.422347 20.204372 -17.510106
S -6.728664 20.204372 -20.203789
S -6.728664 17.510689 -17.510106
S -9.422347 17.510689 -14.816423
S -9.422347 20.204372 -12.122740
S -6.728664 20.204372 -14.816423
S -6.728664 17.510689 -12.122740
S -9.422347 17.510689 -9.429057
S -9.422347 20.204372 -6.735374
S -6.728664 20.204372 -9.429057
S -6.728664 17.510689 -6.735374
S -9.422347 17.510689 -4.041691
S -9.422347 20.204372 -1.348008
S -6.728664 20.204372 -4.041691
S -6.728664 17.510689 -1.348008
S -9.422347 17.510689 1.345674
S -9.422347 20.204372 4.039357
S -6.728664 20.204372 1.345674
S -6.728664 17.510689 4.039357
S -9.422347 17.510689 6.733040
S -9.422347 20.204372 9.426723
S -6.728664 20.204372 6.733040
S -6.728664 17.510689 9.426723
S -9.422347 17.510689 12.120406
S -9.422347 20.204372 14.814089
S -6.728664 20.204372 12.120406
S -6.728664 17.510689 14.814089
S -9.422347 17.510689 17.507772
S -9.422347 20.204372 20.201455
S -6.728664 20.204372 17.507772
S -6.728664 17.510689 20.201455
S -9.422347 17.510689 22.895137
S -9.422347 20.204372 25.588820
S -6.728664 20.204372 22.895137
S -6.728664 17.510689 25.588820
S -9.422347 17.510689 28.282503
S -6.728664 20.204372 28.282503
S -6.728664 22.898055 -22.897471
S -9.422347 22.898055 -20.203789
S -9.422347 25.591738 -17.510106
S -6.728664 25.591738 -20.203789
S -6.728664 22.898055 -17.510106
S -9.422347 22.898055 -14.816423
S -9.422347 25.591738 -12.122740
S -6.728664 25.591738 -14.816423
S -6.728664 22.898055 -12.122740
S -9.422347 22.898055 -9.429057
S -9.422347 25.591738 -6.735374
S -6.728664 25.591738 -9.429057
S -6.728664 22.898055 -6.735374
S -9.422347 22.898055 -4.041691
S -9.422347 25.591738 -1.348008
S -6.728664 25.591738 -4.041691
S -6.728664 22.898055 -1.348008
S -9.422347 22.898055 1.345674
S -9.422347 25.591738 4.039357
S -6.728664 25.591738 1.345674
S -6.728664 22.898055 4.039357
S -9.422347 22.898055 6.733040
S -9.422347 25.591738 9.426723
S -6.728664 25.591738 6.733040
S -6.728664 22.898055 9.426723
S -9.422347 22.898055 12.120406
S -9.422347 25.591738 14.814089
S -6.728664 25.591738 12.120406
S -6.728664 22.898055 14.814089
S -9.422347 22.898055 17.507772
S -9.422347 25.591738 20.201455
S -6.728664 25.591738 17.507772
S -6.728664 22.898055 20.201455
S -9.422347 22.898055 22.895137
S -6.728664 25.591738 22.895137
S -6.728664 22.898055 25.588820
S -6.728664 28.285421 -17.510106
S -9.422347 28.285421 -14.816423
S -6.728664 28.285421 -12.122740
S -9.422347 28.285421 -9.429057
S -6.728664 28.285421 -6.735374
S -9.422347 28.285421 -4.041691
S -6.728664 28.285421 -1.348008
S -9.422347 28.285421 1.345674
S -6.728664 28.285421 4.039357
S -9.422347 28.285421 6.733040
S -6.728664 28.285421 9.426723
S -9.422347 28.285421 12.120406
S -6.728664 28.285421 14.814089
S -9.422347 28.285421 17.507772
S -6.728664 28.285421 20.201455
S -4.034981 -28.281920 -22.897471
S -1.341298 -28.281920 -25.591154
S -4.034981 -28.281920 -17.510106
S -1.341298 -28.281920 -20.203789
S -4.034981 -28.281920 -12.122740
S -1.341298 -28.281920 -14.816423
S -4.034981 -28.281920 -6.735374
S -1.341298 -28.281920 -9.429057
S -4.034981 -28.281920 -1.348008
S -1.341298 -28.281920 -4.041691
S -4.034981 -28.281920 4.039357
S -1.341298 -28.281920 1.345674
S -4.034981 -28.281920 9.426723
S -1.341298 -28.281920 6.733040
S -4.034981 -28.281920 14.814089
S -1.341298 -28.281920 12.120406
S -4.034981 -28.281920 20.201455
S -1.341298 -28.281920 17.507772
S -1.341298 -28.281920 22.895137
S -4.034981 -22.894554 -28.284837
S -1.341298 -25.588237 -28.284837
S -4.034981 -25.588237 -25.591154
S -4.034981 -22.894554 -22.897471
S -1.341298 -22.894554 -25.591154
S -1.341298 -25.588237 -22.897471
S -4.034981 -25.588237 -20.203789
S -4.034981 -22.894554 -17.510106
S -1.341298 -22.894554 -20.203789
S -1.341298 -25.588237 -17.510106
S -4.034981 -25.588237 -14.816423
S -4.034981 -22.894554 -12.122740
S -1.341298 -22.894554 -14.816423
S -1.341298 -25.588237 -12.122740
S -4.034981 -25.588237 -9.429057
S -4.034981 -22.894554 -6.735374
S -1.341298 -22.894554 -9.429057
S -1.341298 -25.588237 -6.735374
S -4.034981 -25.588237 -4.041691
S -4.034981 -22.894554 -1.348008
S -1.341298 -22.894554 -4.041691
S -1.341298 -25.588237 -1.348008
S -4.034981 -25.588237 1.345674
S -4.034981 -22.894554 4.039357
S -1.341298 -22.894554 1.345674
S -1.341298 -25.588237 4.039357
S -4.034981 -25.588237 6.733040
S -4.034981 -22.894554 9.426723
S -1.341298 -22.894554 6.733040
S -1.341298 -25.588237 9.426723
S -4.034981 -25.588237 12.120406
S -4.034981 -22.894554 14.814089
S -1.341298 -22.894554 12.120406
S -1.341298 -25.588237 14.814089
S -4.034981 -25.588237 17.507772
S -4.034981 -22.894554 20.201455
S -1.341298 -22.894554 17.507772
S -1.341298 -25.588237 20.201455
S -4.034981 -25.588237 22.895137
S -4.034981 -22.894554 25.588820
S -1.341298 -22.894554 22.895137
S -1.341298 -25.588237 25.588820
S -1.341298 -22.894554 28.282503
S -4.034981 -17.507188 -28.284837
S -1.341298 -20.200871 -28.284837
S -4.034981 -20.200871 -25.591154
S -4.034981 -17.507188 -22.897471
S -1.341298 -17.507188 -25.591154
S -1.341298 -20.200871 -22.897471
S -4.034981 -20.200871 -20.203789
S -4.034981 -17.507188 -17.510106
S -1.341298 -17.507188 -20.203789
S -1.341298 -20.200871 -17.510106
S -4.034981 -20.200871 -14.816423
S -4.034981 -17.507188 -12.122740
S -1.341298 -17.507188 -14.816423
S -1.341298 -20.200871 -12.122740
S -4.034981 -20.200871 -9.429057
S -4.034981 -17.507188 -6.735374
S -1.341298 -17.507188 -9.429057
S -1.341298 -20.200871 -6.735374
S -4.034981 -20.200871 -4.041691
S -4.034981 -17.507188 -1.348008
S -1.341298 -17.507188 -4.041691
S -1.341298 -20.200871 -1.348008
S -4.034981 -20.200871 1.345674
S -4.034981 -17.507188 4.039357
S -1.341298 -17.507188 1.345674
S -1.341298 -20.200871 4.039357
S -4.034981 -20.200871 6.733040
S -4.034981 -17.507188 9.426723
S -1.341298 -17.507188 6.733040
S -1.341298 -20.200871 9.426723
S -4.034981 -20.200871 12.120406
S -4.034981 -17.507188 14.814089
S -1.341298 -17.507188 12.120406
S -1.341298 -20.200871 14.814089
S -4.034981 -20.200871 17.507772
S -4.034981 -17.507188 20.201455
S -1.341298 -17.507188 17.507772
S -1.341298 -20.200871 20.201455
S -4.034981 -20.200871 22.895137
S -4.034981 -17.507188 25.588820
S -1.341298 -17.507188 22.895137
S -1.341298 -20.200871 25.588820
S -4.034981 -20.200871 28.282503
S -1.341298 -17.507188 28.282503
S -4.034981 -12.119822 -28.284837
S -1.341298 -14.813505 -28.284837
S -4.034981 -14.813505 -25.591154
S -4.034981 -12.119822 -22.897471
S -1.341298 -12.119822 -25.591154
S -1.341298 -14.813505 -22.897471
S -4.034981 -14.813505 -20.203789
S -4.034981 -12.119822 -17.510106
S -1.341298 -12.119822 -20.203789
S -1.341298 -14.813505 -17.510106
S -4.034981 -14.813505 -14.816423
S -4.034981 -12.119822 -12.122740
S -1.341298 -12.119822 -14.816423
S -1.341298 -14.813505 -12.122740
S -4.034981 -14.813505 -9.429057
S -4.034981 -12.119822 -6.735374
S -1.341298 -12.119822 -9.429057
S -1.341298 -14.813505 -6.735374
S -4.034981 -14.813505 -4.041691
S -4.034981 -12.119822 -1.348008
S -1.341298 -12.119822 -4.041691
S -1.341298 -14.813505 -1.348008
S -4.034981 -14.813505 1.345674
S -4.034981 -12.119822 4.039357
S -1.341298 -12.119822 1.345674
S -1.341298 -14.813505 4.039357
S -4.034981 -14.813505 6.733040
S -4.034981 -12.119822 9.426723
S -1.341298 -12.119822 6.733040
S -1.341298 -14.813505 9.426723
S -4.034981 -14.813505 12.120406
S -4.034981 -12.119822 14.814089
S -1.341298 -12.119822 12.120406
S -1.341298 -14.813505 14.814089
S -4.034981 -14.813505 17.507772
S -4.034981 -12.119822 20.201455
S -1.341298 -12.119822 17.507772
S -1.341298 -14.813505 20.201455
S -4.034981 -14.813505 22.895137
S -4.034981 -12.119822 25.588820
S -1.341298 -12.119822 22.895137
S -1.341298 -14.813505 25.588820
S -4.034981 -14.813505 28.282503
S -1.341298 -12.119822 28.282503
S -4.034981 -6.732457 -28.284837
S -1.341298 -9.426140 -28.284837
S -4.034981 -9.426140 -25.591154
S -4.034981 -6.732457 -22.897471
S -1.341298 -6.732457 -25.591154
S -1.341298 -9.426140 -22.897471
S -4.034981 -9.426140 -20.203789
S -4.034981 -6.732457 -17.510106
S -1.341298 -6.732457 -20.203789
S -1.341298 -9.426140 -17.510106
S -4.034981 -9.426140 -14.816423
S -4.034981 -6.732457 -12.122740
S -1.341298 -6.732457 -14.816423
S -1.341298 -9.426140 -12.122740
S -4.034981 -9.426140 -9.429057
S -4.034981 -6.732457 -6.735374
S -1.341298 -6.732457 -9.429057
S -1.341298 -9.426140 -6.735374
S -4.034981 -9.426140 -4.041691
S -4.034981 -6.732457 -1.348008
S -1.341298 -6.732457 -4.041691
S -1.341298 -9.426140 -1.348008
S -4.034981 -9.426140 1.345674
S -4.034981 -6.732457 4.039357
S -1.341298 -6.732457 1.345674
S -1.341298 -9.426140 4.039357
S -4.034981 -9.426140 6.733040
S -4.034981 -6.732457 9.426723
S -1.341298 -6.732457 6.733040
S -1.341298 -9.426140 9.426723
S -4.034981 -9.426140 12.120406
S -4.034981 -6.732457 14.814089
S -1.341298 -6.732457 12.120406
S -1.341298 -9.426140 14.814089
S -4.034981 -9.426140 17.507772
S -4.034981 -6.732457 20.201455
S -1.341298 -6.732457 17.507772
S -1.341298 -9.426140 20.201455
S -4.034981 -9.426140 22.895137
S -4.034981 -6.732457 25.588820
S -1.341298 -6.732457 22.895137
S -1.341298 -9.426140 25.588820
S -4.034981 -9.426140 28.282503
S -1.341298 -6.732457 28.282503
S -4.034981 -1.345091 -28.284837
S -1.341298 -4.038774 -28.284837
S -4.034981 -4.038774 -25.591154
S -4.034981 -1.345091 -22.897471
S -1.341298 -1.345091 -25.591154
S -1.341298 -4.038774 -22.897471
S -4.034981 -4.038774 -20.203789
S -4.034981 -1.345091 -17.510106
S -1.341298 -1.345091 -20.203789
S -1.341298 -4.038774 -17.510106
S -4.034981 -4.038774 -14.816423
S -4.034981 -1.345091 -12.122740
S -1.341298 -1.345091 -14.816423
S -1.341298 -4.038774 -12.122740
S -4.034981 -4.038774 -9.429057
S -4.034981 -1.345091 -6.735374
S -1.341298 -1.345091 -9.429057
S -1.341298 -4.038774 -6.735374
S -4.034981 -4.038774 -4.041691
S -4.034981 -1.345091 -1.348008
S -1.341298 -1.345091 -4.041691
S -1.341298 -4.038774 -1.348008
S -4.034981 -4.038774 1.345674
S -4.034981 -1.345091 4.039357
S -1.341298 -1.345091 1.345674
S -1.341298 -4.038774 4.039357
S -4.034981 -4.038774 6.733040
S -4.034981 -1.345091 9.426723
S -1.341298 -1.345091 6.733040
S -1.341298 -4.038774 9.426723
S -4.034981 -4.038774 12.120406
S -4.034981 -1.345091 14.814089
S -1.341298 -1.345091 12.120406
S -1.341298 -4.038774 14.814089
S -4.034981 -4.038774 17.507772
S -4.034981 -1.345091 20.201455
S -1.341298 -1.345091 17.507772
S -1.341298 -4.038774 20.201455
S -4.034981 -4.038774 22.895137
S -4.034981 -1.345091 25.588820
S -1.341298 -1.345091 22.895137
S -1.341298 -4.038774 25.588820
S -4.034981 -4.038774 28.282503
S -1.341298 -1.345091 28.282503
S -4.034981 4.042275 -28.284837
S -1.341298 1.348592 -28.284837
S -4.034981 1.348592 -25.591154
S -4.034981 4.042275 -22.897471
S -1.341298 4.042275 -25.591154
S -1.341298 1.348592 -22.897471
S -4.034981 1.348592 -20.203789
S -4.034981 4.042275 -17.510106
S -1.341298 4.042275 -20.203789
S -1.341298 1.348592 -17.510106
S -4.034981 1.348592 -14.816423
S -4.034981 4.042275 -12.122740
S -1.341298 4.042275 -14.816423
S -1.341298 1.348592 -12.122740
S -4.034981 1.348592 -9.429057
S -4.034981 4.042275 -6.735374
S -1.341298 4.042275 -9.429057
S -1.341298 1.348592 -6.735374
S -4.034981 1.348592 -4.041691
S -4.034981 4.042275 -1.348008
S -1.341298 4.042275 -4.041691
S -1.341298 1.348592 -1.348008
S -4.034981 1.348592 1.345674
S -4.034981 4.042275 4.039357
S -1.341298 4.042275 1.345674
S -1.341298 1.348592 4.039357
S -4.034981 1.348592 6.733040
S -4.034981 4.042275 9.426723
S -1.341298 4.042275 6.733040
S -1.341298 1.348592 9.426723
S -4.034981 1.348592 12.120406
S -4.034981 4.042275 14.814089
S -1.341298 4.042275 12.120406
S -1.341298 1.348592 14.814089
S -4.034981 1.348592 17.507772
S -4.034981 4.042275 20.201455
S -1.341298 4.042275 17.507772
S -1.341298 1.348592 20.201455
S -4.034981 1.348592 22.895137
S -4.034981 4.042275 25.588820
S -1.341298 4.042275 22.895137
S -1.341298 1.348592 25.588820
S -4.034981 1.348592 28.282503
S -1.341298 4.042275 28.282503
S -4.034981 9.429641 -28.284837
S -1.341298 6.735958 -28.284837
S -4.034981 6.735958 -25.591154
S -4.034981 9.429641 -22.897471
S -1.341298 9.429641 -25.591154
S -1.341298 6.735958 -22.897471
S -4.034981 6.735958 -20.203789
S -4.034981 9.429641 -17.510106
S -1.341298 9.429641 -20.203789
S -1.341298 6.735958 -17.510106
S -4.034981 6.735958 -14.816423
S -4.034981 9.429641 -12.122740
S -1.341298 9.429641 -14.816423
S -1.341298 6.735958 -12.122740
S -4.034981 6.735958 -9.429057
S -4.034981 9.429641 -6.735374
S -1.341298 9.429641 -9.429057
S -1.341298 6.735958 -6.735374
S -4.034981 6.735958 -4.041691
S -4.034981 9.429641 -1.348008
S -1.341298 9.429641 -4.041691
S -1.341298 6.735958 -1.348008
S -4.034981 6.735958 1.345674
S -4.034981 9.429641 4.039357
S -1.341298 9.429641 1.345674
S -1.341298 6.735958 4.039357
S -4.034981 6.735958 6.733040
S -4.034981 9.429641 9.426723
S -1.341298 9.429641 6.733040
S -1.341298 6.735958 9.426723
S -4.034981 6.735958 12.120406
S -4.034981 9.429641 14.814089
S -1.341298 9.429641 12.120406
S -1.341298 6.735958 14.814089
S -4.034981 6.735958 17.507772
S -4.034981 9.429641 20.201455
S -1.341298 9.429641 17.507772
S -1.341298 6.735958 20.201455
S -4.034981 6.735958 22.895137
S -4.034981 9.429641 25.588820
S -1.341298 9.429641 22.895137
S -1.341298 6.735958 25.588820
S -4.034981 6.735958 28.282503
S -1.341298 9.429641 28.282503
S -4.034981 14.817006 -28.284837
S -1.341298 12.123323 -28.284837
S -4.034981 12.123323 -25.591154
S -4.034981 14.817006 -22.897471
S -1.341298 14.817006 -25.591154
S -1.341298 12.123323 -22.897471
S -4.034981 12.123323 -20.203789
S -4.034981 14.817006 -17.510106
S -1.341298 14.817006 -20.203789
S -1.341298 12.123323 -17.510106
S -4.034981 12.123323 -14.816423
S -4.034981 14.817006 -12.122740
S -1.341298 14.817006 -14.816423
S -1.341298 12.123323 -12.122740
S -4.034981 12.123323 -9.429057
S -4.034981 14.817006 -6.735374
S -1.341298 14.817006 -9.429057
S -1.341298 12.123323 -6.735374
S -4.034981 12.123323 -4.041691
S -4.034981 14.817006 -1.348008
S -1.341298 14.817006 -4.041691
S -1.341298 12.123323 -1.348008
S -4.034981 12.123323 1.345674
S -4.034981 14.817006 4.039357
S -1.341298 14.817006 1.345674
S -1.341298 12.123323 4.039357
S -4.034981 12.123323 6.733040
S -4.034981 14.817006 9.426723
S -1.341298 14.817006 6.733040
S -1.341298 12.123323 9.426723
S -4.034981 12.123323 12.120406
S -4.034981 14.817006 14.814089
S -1.341298 14.817006 12.120406
S -1.341298 12.123323 14.814089
S -4.034981 12.123323 17.507772
S -4.034981 14.817006 20.201455
S -1.341298 14.817006 17.507772
S -1.341298 12.123323 20.201455
S -4.034981 12.123323 22.895137
S -4.034981 14.817006 25.588820
S -1.341298 14.817006 22.895137
S -1.341298 12.123323 25.588820
S -4.034981 12.123323 28.282503
S -1.341298 14.817006 28.282503
S -4.034981 20.204372 -28.284837
S -1.341298 17.510689 -28.284837
S -4.034981 17.510689 -25.591154
S -4.034981 20.204372 -22.897471
S -1.341298 20.204372 -25.591154
S -1.341298 17.510689 -22.897471
S -4.034981 17.510689 -20.203789
S -4.034981 20.204372 -17.510106
S -1.341298 20.204372 -20.203789
S -1.341298 17.510689 -17.510106
S -4.034981 17.510689 -14.816423
S -4.034981 20.204372 -12.122740
S -1.341298 20.204372 -14.816423
S -1.341298 17.510689 -12.122740
S -4.034981 17.510689 -9.429057
S -4.034981 20.204372 -6.735374
S -1.341298 20.204372 -9.429057
S -1.341298 17.510689 -6.735374
S -4.034981 17.510689 -4.041691
S -4.034981 20.204372 -1.348008
S -1.341298 20.204372 -4.041691
S -1.341298 17.510689 -1.348008
S -4.034981 17.510689 1.345674
S -4.034981 20.204372 4.039357
S -1.341298 20.204372 1.345674
S -1.341298 17.510689 4.039357
S -4.034981 17.510689 6.733040
S -4.034981 20.204372 9.426723
S -1.341298 20.204372 6.733040
S -1.341298 17.510689 9.426723
S -4.034981 17.510689 12.120406
S -4.034981 20.204372 14.814089
S -1.341298 20.204372 12.120406
S -1.341298 17.510689 14.814089
S -4.034981 17.510689 17.507772
S -4.034981 20.204372 20.201455
S -1.341298 20.204372 17.507772
S -1.341298 17.510689 20.201455
S -4.034981 17.510689 22.895137
S -4.034981 20.204372 25.588820
S -1.341298 20.204372 22.895137
S -1.341298 17.510689 25.588820
S -4.034981 17.510689 28.282503
S -1.341298 20.204372 28.282503
S -1.341298 22.898055 -28.284837
S -4.034981 22.898055 -25.591154
S -4.034981 25.591738 -22.897471
S -1.341298 25.591738 -25.591154
S -1.341298 22.898055 -22.897471
S -4.034981 22.898055 -20.203789
S -4.034981 25.591738 -17.510106
S -1.341298 25.591738 -20.203789
S -1.341298 22.898055 -17.510106
S -4.034981 22.898055 -14.816423
S -4.034981 25.591738 -12.122740
S -1.341298 25.591738 -14.816423
S -1.341298 22.898055 -12.122740
S -4.034981 22.898055 -9.429057
S -4.034981 25.591738 -6.735374
S -1.341298 25.591738 -9.429057
S -1.341298 22.898055 -6.735374
S -4.034981 22.898055 -4.041691
S -4.034981 25.591738 -1.348008
S -1.341298 25.591738 -4.041691
S -1.341298 22.898055 -1.348008
S -4.034981 22.898055 1.345674
S -4.034981 25.591738 4.039357
S -1.341298 25.591738 1.345674
S -1.341298 22.898055 4.039357
S -4.034981 22.898055 6.733040
S -4.034981 25.591738 9.426723
S -1.341298 25.591738 6.733040
S -1.341298 22.898055 9.426723
S -4.034981 22.898055 12.120406
S -4.034981 25.591738 14.814089
S -1.341298 25.591738 12.120406
S -1.341298 22.898055 14.814089
S -4.034981 22.898055 17.507772
S -4.034981 25.591738 20.201455
S -1.341298 25.591738 17.507772
S -1.341298 22.898055 20.201455
S -4.034981 22.898055 22.895137
S -4.034981 25.591738 25.588820
S -1.341298 25.591738 22.895137
S -1.341298 22.898055 25.588820
S -4.034981 22.898055 28.282503
S -1.341298 25.591738 28.282503
S -1.341298 28.285421 -22.897471
S -4.034981 28.285421 -20.203789
S -1.341298 28.285421 -17.510106
S -4.034981 28.285421 -14.816423
S -1.341298 28.285421 -12.122740
S -4.034981 28.285421 -9.429057
S -1.341298 28.285421 -6.735374
S -4.034981 28.285421 -4.041691
S -1.341298 28.285421 -1.348008
S -4.034981 28.285421 1.345674
S -1.341298 28.285421 4.039357
S -4.034981 28.285421 6.733040
S -1.341298 28.285421 9.426723
S -4.034981 28.285421 12.120406
S -1.341298 28.285421 14.814089
S -4.034981 28.285421 17.507772
S -1.341298 28.285421 20.201455
S -4.034981 28.285421 22.895137
S -1.341298 28.285421 25.588820
S 1.352385 -28.281920 -22.897471
S 1.352385 -28.281920 -17.510106
S 4.046067 -28.281920 -20.203789
S 1.352385 -28.281920 -12.122740
S 4.046067 -28.281920 -14.816423
S 1.352385 -28.281920 -6.735374
S 4.046067 -28.281920 -9.429057
S 1.352385 -28.281920 -1.348008
S 4.046067 -28.281920 -4.041691
S 1.352385 -28.281920 4.039357
S 4.046067 -28.281920 1.345674
S 1.352385 -28.281920 9.426723
S 4.046067 -28.281920 6.733040
S 1.352385 -28.281920 14.814089
S 4.046067 -28.281920 12.120406
S 1.352385 -28.281920 20.201455
S 4.046067 -28.281920 17.507772
S 1.352385 -28.281920 25.588820
S 4.046067 -28.281920 22.895137
S 1.352385 -22.894554 -28.284837
S 1.352385 -25.588237 -25.591154
S 1.352385 -22.894554 -22.897471
S 4.046067 -22.894554 -25.591154
S 4.046067 -25.588237 -22.897471
S 1.352385 -25.588237 -20.203789
S 1.352385 -22.894554 -17.510106
S 4.046067 -22.894554 -20.203789
S 4.046067 -25.588237 -17.510106
S 1.352385 -25.588237 -14.816423
S 1.352385 -22.894554 -12.122740
S 4.046067 -22.894554 -14.816423
S 4.046067 -25.588237 -12.122740
S 1.352385 -25.588237 -9.429057
S 1.352385 -22.894554 -6.735374
S 4.046067 -22.894554 -9.429057
S 4.046067 -25.588237 -6.735374
S 1.352385 -25.588237 -4.041691
S 1.352385 -22.894554 -1.348008
S 4.046067 -22.894554 -4.041691
S 4.046067 -25.588237 -1.348008
S 1.352385 -25.588237 1.345674
S 1.352385 -22.894554 4.039357
S 4.046067 -22.894554 1.345674
S 4.046067 -25.588237 4.039357
S 1.352385 -25.588237 6.733040
S 1.352385 -22.894554 9.426723
S 4.046067 -22.894554 6.733040
S 4.046067 -25.588237 9.426723
S 1.352385 -25.588237 12.120406
S 1.352385 -22.894554 14.814089
S 4.046067 -22.894554 12.120406
S 4.046067 -25.588237 14.814089
S 1.352385 -25.588237 17.507772
S 1.352385 -22.894554 20.201455
S 4.046067 -22.894554 17.507772
S 4.046067 -25.588237 20.201455
S 1.352385 -25.588237 22.895137
S 1.352385 -22.894554 25.588820
S 4.046067 -22.894554 22.895137
S 4.046067 -25.588237 25.588820
S 1.352385 -25.588237 28.282503
S 4.046067 -22.894554 28.282503
S 1.352385 -17.507188 -28.284837
S 4.046067 -20.200871 -28.284837
S 1.352385 -20.200871 -25.591154
S 1.352385 -17.507188 -22.897471
S 4.046067 -17.507188 -25.591154
S 4.046067 -20.200871 -22.897471
S 1.352385 -20.200871 -20.203789
S 1.352385 -17.507188 -17.510106
S 4.046067 -17.507188 -20.203789
S 4.046067 -20.200871 -17.510106
S 1.352385 -20.200871 -14.816423
S 1.352385 -17.507188 -12.122740
S 4.046067 -17.507188 -14.816423
S 4.046067 -20.200871 -12.122740
S 1.352385 -20.200871 -9.429057
S 1.352385 -17.507188 -6.735374
S 4.046067 -17.507188 -9.429057
S 4.046067 -20.200871 -6.735374
S 1.352385 -20.200871 -4.041691
S 1.352385 -17.507188 -1.348008
S 4.046067 -17.507188 -4.041691
S 4.046067 -20.200871 -1.348008
S 1.352385 -20.200871 1.345674
S 1.352385 -17.507188 4.039357
S 4.046067 -17.507188 1.345674
S 4.046067 -20.200871 4.039357
S 1.352385 -20.200871 6.733040
S 1.352385 -17.507188 9.426723
S 4.046067 -17.507188 6.733040
S 4.046067 -20.200871 9.426723
S 1.352385 -20.200871 12.120406
S 1.352385 -17.507188 14.814089
S 4.046067 -17.507188 12.120406
S 4.046067 -20.200871 14.814089
S 1.352385 -20.200871 17.507772
S 1.352385 -17.507188 20.201455
S 4.046067 -17.507188 17.507772
S 4.046067 -20.200871 20.201455
S 1.352385 -20.200871 22.895137
S 1.352385 -17.507188 25.588820
S 4.046067 -17.507188 22.895137
S 4.046067 -20.200871 25.588820
S 1.352385 -20.200871 28.282503
S 4.046067 -17.507188 28.282503
S 1.352385 -12.119822 -28.284837
S 4.046067 -14.813505 -28.284837
S 1.352385 -14.813505 -25.591154
S 1.352385 -12.119822 -22.897471
S 4.046067 -12.119822 -25.591154
S 4.046067 -14.813505 -22.897471
S 1.352385 -14.813505 -20.203789
S 1.352385 -12.119822 -17.510106
S 4.046067 -12.119822 -20.203789
S 4.046067 -14.813505 -17.510106
S 1.352385 -14.813505 -14.816423
S 1.352385 -12.119822 -12.122740
S 4.046067 -12.119822 -14.816423
S 4.046067 -14.813505 -12.122740
S 1.352385 -14.813505 -9.429057
S 1.352385 -12.119822 -6.735374
S 4.046067 -12.119822 -9.429057
S 4.046067 -14.813505 -6.735374
S 1.352385 -14.813505 -4.041691
S 1.352385 -12.119822 -1.348008
S 4.046067 -12.119822 -4.041691
S 4.046067 -14.813505 -1.348008
S 1.352385 -14.813505 1.345674
S 1.352385 -12.119822 4.039357
S 4.046067 -12.119822 1.345674
S 4.046067 -14.813505 4.039357
S 1.352385 -14.813505 6.733040
S 1.352385 -12.119822 9.426723
S 4.046067 -12.119822 6.733040
S 4.046067 -14.813505 9.426723
S 1.352385 -14.813505 12.120406
S 1.352385 -12.119822 14.814089
S 4.046067 -12.119822 12.120406
S 4.046067 -14.813505 14.814089
S 1.352385 -14.813505 17.507772
S 1.352385 -12.119822 20.201455
S 4.046067 -12.119822 17.507772
S 4.046067 -14.813505 20.201455
S 1.352385 -14.813505 22.895137
S 1.352385 -12.119822 25.588820
S 4.046067 -12.119822 22.895137
S 4.046067 -14.813505 25.588820
S 1.352385 -14.813505 28.282503
S 4.046067 -12.119822 28.282503
S 1.352385 -6.732457 -28.284837
S 4.046067 -9.426140 -28.284837
S 1.352385 -9.426140 -25.591154
S 1.352385 -6.732457 -22.897471
S 4.046067 -6.732457 -25.591154
S 4.046067 -9.426140 -22.897471
S 1.352385 -9.426140 -20.203789
S 1.352385 -6.732457 -17.510106
S 4.046067 -6.732457 -20.203789
S 4.046067 -9.426140 -17.510106
S 1.352385 -9.426140 -14.816423
S 1.352385 -6.732457 -12.122740
S 4.046067 -6.732457 -14.816423
S 4.046067 -9.426140 -12.122740
S 1.352385 -9.426140 -9.429057
S 1.352385 -6.732457 -6.735374
S 4.046067 -6.732457 -9.429057
S 4.046067 -9.426140 -6.735374
S 1.352385 -9.426140 -4.041691
S 1.352385 -6.732457 -1.348008
S 4.046067 -6.732457 -4.041691
S 4.046067 -9.426140 -1.348008
S 1.352385 -9.426140 1.345674
S 1.352385 -6.732457 4.039357
S 4.046067 -6.732457 1.345674
S 4.046067 -9.426140 4.039357
S 1.352385 -9.426140 6.733040
S 1.352385 -6.732457 9.426723
S 4.046067 -6.732457 6.733040
S 4.046067 -9.426140 9.426723
S 1.352385 -9.426140 12.120406
S 1.352385 -6.732457 14.814089
S 4.046067 -6.732457 12.120406
S 4.046067 -9.426140 14.814089
S 1.352385 -9.426140 17.507772
S 1.352385 -6.732457 20.201455
S 4.046067 -6.732457 17.507772
S 4.046067 -9.426140 20.201455
S 1.352385 -9.426140 22.895137
S 1.352385 -6.732457 25.588820
S 4.046067 -6.732457 22.895137
S 4.046067 -9.426140 25.588820
S 1.352385 -9.426140 28.282503
S 4.046067 -6.732457 28.282503
S 1.352385 -1.345091 -28.284837
S 4.046067 -4.038774 -28.284837
S 1.352385 -4.038774 -25.591154
S 1.352385 -1.345091 -22.897471
S 4.046067 -1.345091 -25.591154
S 4.046067 -4.038774 -22.897471
S 1.352385 -4.038774 -20.203789
S 1.352385 -1.345091 -17.510106
S 4.046067 -1.345091 -20.203789
S 4.046067 -4.038774 -17.510106
S 1.352385 -4.038774 -14.816423
S 1.352385 -1.345091 -12.122740
S 4.046067 -1.345091 -14.816423
S 4.046067 -4.038774 -12.122740
S 1.352385 -4.038774 -9.429057
S 1.352385 -1.345091 -6.735374
S 4.046067 -1.345091 -9.429057
S 4.046067 -4.038774 -6.735374
S 1.352385 -4.038774 -4.041691
S 1.352385 -1.345091 -1.348008
S 4.046067 -1.345091 -4.041691
S 4.046067 -4.038774 -1.348008
S 1.352385 -4.038774 1.345674
S 1.352385 -1.345091 4.039357
S 4.046067 -1.345091 1.345674
S 4.046067 -4.038774 4.039357
S 1.352385 -4.038774 6.733040
S 1.352385 -1.345091 9.426723
S 4.046067 -1.345091 6.733040
S 4.046067 -4.038774 9.426723
S 1.352385 -4.038774 12.120406
S 1.352385 -1.345091 14.814089
S 4.046067 -1.345091 12.120406
S 4.046067 -4.038774 14.814089
S 1.352385 -4.038774 17.507772
S 1.352385 -1.345091 20.201455
S 4.046067 -1.345091 17.507772
S 4.046067 -4.038774 20.201455
S 1.352385 -4.038774 22.895137
S 1.352385 -1.345091 25.588820
S 4.046067 -1.345091 22.895137
S 4.046067 -4.038774 25.588820
S 1.352385 -4.038774 28.282503
S 4.046067 -1.345091 28.282503
S 1.352385 4.042275 -28.284837
S 4.046067 1.348592 -28.284837
S 1.352385 1.348592 -25.591154
S 1.352385 4.042275 -22.897471
S 4.046067 4.042275 -25.591154
S 4.046067 1.348592 -22.897471
S 1.352385 1.348592 -20.203789
S 1.352385 4.042275 -17.510106
S 4.046067 4.042275 -20.203789
S 4.046067 1.348592 -17.510106
S 1.352385 1.348592 -14.816423
S 1.352385 4.042275 -12.122740
S 4.046067 4.042275 -14.816423
S 4.046067 1.348592 -12.122740
S 1.352385 1.348592 -9.429057
S 1.352385 4.042275 -6.735374
S 4.046067 4.042275 -9.429057
S 4.046067 1.348592 -6.735374
S 1.352385 1.348592 -4.041691
S 1.352385 4.042275 -1.348008
S 4.046067 4.042275 -4.041691
S 4.046067 1.348592 -1.348008
S 1.352385 1.348592 1.345674
S 1.352385 4.042275 4.039357
S 4.046067 4.042275 1.345674
S 4.046067 1.348592 4.039357
S 1.352385 1.348592 6.733040
S 1.352385 4.042275 9.426723
S 4.046067 4.042275 6.733040
S 4.046067 1.348592 9.426723
S 1.352385 1.348592 12.120406
S 1.352385 4.042275 14.814089
S 4.046067 4.042275 12.120406
S 4.046067 1.348592 14.814089
S 1.352385 1.348592 17.507772
S 1.352385 4.042275 20.201455
S 4.046067 4.042275 17.507772
S 4.046067 1.348592 20.201455
S 1.352385 1.348592 22.895137
S 1.352385 4.042275 25.588820
S 4.046067 4.042275 22.895137
S 4.046067 1.348592 25.588820
S 1.352385 1.348592 28.282503
S 4.046067 4.042275 28.282503
S 1.352385 9.429641 -28.284837
S 4.046067 6.735958 -28.284837
S 1.352385 6.735958 -25.591154
S 1.352385 9.429641 -22.897471
S 4.046067 9.429641 -25.591154
S 4.046067 6.735958 -22.897471
S 1.352385 6.735958 -20.203789
S 1.352385 9.429641 -17.510106
S 4.046067 9.429641 -20.203789
S 4.046067 6.735958 -17.510106
S 1.352385 6.735958 -14.816423
S 1.352385 9.429641 -12.122740
S 4.046067 9.429641 -14.816423
S 4.046067 6.735958 -12.122740
S 1.352385 6.735958 -9.429057
S 1.352385 9.429641 -6.735374
S 4.046067 9.429641 -9.429057
S 4.046067 6.735958 -6.735374
S 1.352385 6.735958 -4.041691
S 1.352385 9.429641 -1.348008
S 4.046067 9.429641 -4.041691
S 4.046067 6.735958 -1.348008
S 1.352385 6.735958 1.345674
S 1.352385 9.429641 4.039357
S 4.046067 9.429641 1.345674
S 4.046067 6.735958 4.039357
S 1.352385 6.735958 6.733040
S 1.352385 9.429641 9.426723
S 4.046067 9.429641 6.733040
S 4.046067 6.735958 9.426723
S 1.352385 6.735958 12.120406
S 1.352385 9.429641 14.814089
S 4.046067 9.429641 12.120406
S 4.046067 6.735958 14.814089
S 1.352385 6.735958 17.507772
S 1.352385 9.429641 20.201455
S 4.046067 9.429641 17.507772
S 4.046067 6.735958 20.201455
S 1.352385 6.735958 22.895137
S 1.352385 9.429641 25.588820
S 4.046067 9.429641 22.895137
S 4.046067 6.735958 25.588820
S 1.352385 6.735958 28.282503
S 4.046067 9.429641 28.282503
S 1.352385 14.817006 -28.284837
S 4.046067 12.123323 -28.284837
S 1.352385 12.123323 -25.591154
S 1.352385 14.817006 -22.897471
S 4.046067 14.817006 -25.591154
S 4.046067 12.123323 -22.897471
S 1.352385 12.123323 -20.203789
S 1.352385 14.817006 -17.510106
S 4.046067 14.817006 -20.203789
S 4.046067 12.123323 -17.510106
S 1.352385 12.123323 -14.816423
S 1.352385 14.817006 -12.122740
S 4.046067 14.817006 -14.816423
S 4.046067 12.123323 -12.122740
S 1.352385 12.123323 -9.429057
S 1.352385 14.817006 -6.735374
S 4.046067 14.817006 -9.429057
S 4.046067 12.123323 -6.735374
S 1.352385 12.123323 -4.041691
S 1.352385 14.817006 -1.348008
S 4.046067 14.817006 -4.041691
S 4.046067 12.123323 -1.348008
S 1.352385 12.123323 1.345674
S 1.352385 14.817006 4.039357
S 4.046067 14.817006 1.345674
S 4.046067 12.123323 4.039357
S 1.352385 12.123323 6.733040
S 1.352385 14.817006 9.426723
S 4.046067 14.817006 6.733040
S 4.046067 12.123323 9.426723
S 1.352385 12.123323 12.120406
S 1.352385 14.817006 14.814089
S 4.046067 14.817006 12.120406
S 4.046067 12.123323 14.814089
S 1.352385 12.123323 17.507772
S 1.352385 14.817006 20.201455
S 4.046067 14.817006 17.507772
S 4.046067 12.123323 20.201455
S 1.352385 12.123323 22.895137
S 1.352385 14.817006 25.588820
S 4.046067 14.817006 22.895137
S 4.046067 12.123323 25.588820
S 1.352385 12.123323 28.282503
S 4.046067 14.817006 28.282503
S 1.352385 20.204372 -28.284837
S 4.046067 17.510689 -28.284837
S 1.352385 17.510689 -25.591154
S 1.352385 20.204372 -22.897471
S 4.046067 20.204372 -25.591154
S 4.046067 17.510689 -22.897471
S 1.352385 17.510689 -20.203789
S 1.352385 20.204372 -17.510106
S 4.046067 20.204372 -20.203789
S 4.046067 17.510689 -17.510106
S 1.352385 17.510689 -14.816423
S 1.352385 20.204372 -12.122740
S 4.046067 20.204372 -14.816423
S 4.046067 17.510689 -12.122740
S 1.352385 17.510689 -9.429057
S 1.352385 20.204372 -6.735374
S 4.046067 20.204372 -9.429057
S 4.046067 17.510689 -6.735374
S 1.352385 17.510689 -4.041691
S 1.352385 20.204372 -1.348008
S 4.046067 20.204372 -4.041691
S 4.046067 17.510689 -1.348008
S 1.352385 17.510689 1.345674
S 1.352385 20.204372 4.039357
S 4.046067 20.204372 1.345674
S 4.046067 17.510689 4.039357
S 1.352385 17.510689 6.733040
S 1.352385 20.204372 9.426723
S 4.046067 20.204372 6.733040
S 4.046067 17.510689 9.426723
S 1.352385 17.510689 12.120406
S 1.352385 20.204372 14.814089
S 4.046067 20.204372 12.120406
S 4.046067 17.510689 14.814089
S 1.352385 17.510689 17.507772
S 1.352385 20.204372 20.201455
S 4.046067 20.204372 17.507772
S 4.046067 17.510689 20.201455
S 1.352385 17.510689 22.895137
S 1.352385 20.204372 25.588820
S 4.046067 20.204372 22.895137
S 4.046067 17.510689 25.588820
S 1.352385 17.510689 28.282503
S 4.046067 20.204372 28.282503
S 1.352385 25.591738 -28.284837
S 4.046067 22.898055 -28.284837
S 1.352385 22.898055 -25.591154
S 1.352385 25.591738 -22.897471
S 4.046067 25.591738 -25.591154
S 4.046067 22.898055 -22.897471
S 1.352385 22.898055 -20.203789
S 1.352385 25.591738 -17.510106
S 4.046067 25.591738 -20.203789
S 4.046067 22.898055 -17.510106
S 1.352385 22.898055 -14.816423
S 1.352385 25.591738 -12.122740
S 4.046067 25.591738 -14.816423
S 4.046067 22.898055 -12.122740
S 1.352385 22.898055 -9.429057
S 1.352385 25.591738 -6.735374
S 4.046067 25.591738 -9.429057
S 4.046067 22.898055 -6.735374
S 1.352385 22.898055 -4.041691
S 1.352385 25.591738 -1.348008
S 4.046067 25.591738 -4.041691
S 4.046067 22.898055 -1.348008
S 1.352385 22.898055 1.345674
S 1.352385 25.591738 4.039357
S 4.046067 25.591738 1.345674
S 4.046067 22.898055 4.039357
S 1.352385 22.898055 6.733040
S 1.352385 25.591738 9.426723
S 4.046067 25.591738 6.733040
S 4.046067 22.898055 9.426723
S 1.352385 22.898055 12.120406
S 1.352385 25.591738 14.814089
S 4.046067 25.591738 12.120406
S 4.046067 22.898055 14.814089
S 1.352385 22.898055 17.507772
S 1.352385 25.591738 20.201455
S 4.046067 25.591738 17.507772
S 4.046067 22.898055 20.201455
S 1.352385 22.898055 22.895137
S 1.352385 25.591738 25.588820
S 4.046067 25.591738 22.895137
S 4.046067 22.898055 25.588820
S 1.352385 22.898055 28.282503
S 1.352385 28.285421 -25.591154
S 4.046067 28.285421 -22.897471
S 1.352385 28.285421 -20.203789
S 4.046067 28.285421 -17.510106
S 1.352385 28.285421 -14.816423
S 4.046067 28.285421 -12.122740
S 1.352385 28.285421 -9.429057
S 4.046067 28.285421 -6.735374
S 1.352385 28.285421 -4.041691
S 4.046067 28.285421 -1.348008
S 1.352385 28.285421 1.345674
S 4.046067 28.285421 4.039357
S 1.352385 28.285421 6.733040
S 4.046067 28.285421 9.426723
S 1.352385 28.285421 12.120406
S 4.046067 28.285421 14.814089
S 1.352385 28.285421 17.507772
S 4.046067 28.285421 20.201455
S 1.352385 28.285421 22.895137
S 6.739750 -28.281920 -17.510106
S 6.739750 -28.281920 -12.122740
S 9.433433 -28.281920 -14.816423
S 6.739750 -28.281920 -6.735374
S 9.433433 -28.281920 -9.429057
S 6.739750 -28.281920 -1.348008
S 9.433433 -28.281920 -4.041691
S 6.739750 -28.281920 4.039357
S 9.433433 -28.281920 1.345674
S 6.739750 -28.281920 9.426723
S 9.433433 -28.281920 6.733040
S 6.739750 -28.281920 14.814089
S 9.433433 -28.281920 12.120406
S 6.739750 -28.281920 20.201455
S 9.433433 -28.281920 17.507772
S 6.739750 -22.894554 -22.897471
S 6.739750 -25.588237 -20.203789
S 6.739750 -22.894554 -17.510106
S 9.433433 -22.894554 -20.203789
S 9.433433 -25.588237 -17.510106
S 6.739750 -25.588237 -14.816423
S 6.739750 -22.894554 -12.122740
S 9.433433 -22.894554 -14.816423
S 9.433433 -25.588237 -12.122740
S 6.739750 -25.588237 -9.429057
S 6.739750 -22.894554 -6.735374
S 9.433433 -22.894554 -9.429057
S 9.433433 -25.588237 -6.735374
S 6.739750 -25.588237 -4.041691
S 6.739750 -22.894554 -1.348008
S 9.433433 -22.894554 -4.041691
S 9.433433 -25.588237 -1.348008
S 6.739750 -25.588237 1.345674
S 6.739750 -22.894554 4.039357
S 9.433433 -22.894554 1.345674
S 9.433433 -25.588237 4.039357
S 6.739750 -25.588237 6.733040
S 6.739750 -22.894554 9.426723
S 9.433433 -22.894554 6.733040
S 9.433433 -25.588237 9.426723
S 6.739750 -25.588237 12.120406
S 6.739750 -22.894554 14.814089
S 9.433433 -22.894554 12.120406
S 9.433433 -25.588237 14.814089
S 6.739750 -25.588237 17.507772
S 6.739750 -22.894554 20.201455
S 9.433433 -22.894554 17.507772
S 9.433433 -25.588237 20.201455
S 6.739750 -25.588237 22.895137
S 6.739750 -22.894554 25.588820
S 9.433433 -22.894554 22.895137
S 6.739750 -17.507188 -28.284837
S 6.739750 -20.200871 -25.591154
S 6.739750 -17.507188 -22.897471
S 9.433433 -17.507188 -25.591154
S 9.433433 -20.200871 -22.897471
S 6.739750 -20.200871 -20.203789
S 6.739750 -17.507188 -17.510106
S 9.433433 -17.507188 -20.203789
S 9.433433 -20.200871 -17.510106
S 6.739750 -20.200871 -14.816423
S 6.739750 -17.507188 -12.122740
S 9.433433 -17.507188 -14.816423
S 9.433433 -20.200871 -12.122740
S 6.739750 -20.200871 -9.429057
S 6.739750 -17.507188 -6.735374
S 9.433433 -17.507188 -9.429057
S 9.433433 -20.200871 -6.735374
S 6.739750 -20.200871 -4.041691
S 6.739750 -17.507188 -1.348008
S 9.433433 -17.507188 -4.041691
S 9.433433 -20.200871 -1.348008
S 6.739750 -20.200871 1.345674
S 6.739750 -17.507188 4.039357
S 9.433433 -17.507188 1.345674
S 9.433433 -20.200871 4.039357
S 6.739750 -20.200871 6.733040
S 6.739750 -17.507188 9.426723
S 9.433433 -17.507188 6.733040
S 9.433433 -20.200871 9.426723
S 6.739750 -20.200871 12.120406
S 6.739750 -17.507188 14.814089
S 9.433433 -17.507188 12.120406
S 9.433433 -20.200871 14.814089
S 6.739750 -20.200871 17.507772
S 6.739750 -17.507188 20.201455
S 9.433433 -17.507188 17.507772
S 9.433433 -20.200871 20.201455
S 6.739750 -20.200871 22.895137
S 6.739750 -17.507188 25.588820
S 9.433433 -17.507188 22.895137
S 9.433433 -20.200871 25.588820
S 6.739750 -20.200871 28.282503
S 9.433433 -17.507188 28.282503
S 6.739750 -12.119822 -28.284837
S 9.433433 -14.813505 -28.284837
S 6.739750 -14.813505 -25.591154
S 6.739750 -12.119822 -22.897471
S 9.433433 -12.119822 -25.591154
S 9.433433 -14.813505 -22.897471
S 6.739750 -14.813505 -20.203789
S 6.739750 -12.119822 -17.510106
S 9.433433 -12.119822 -20.203789
S 9.433433 -14.813505 -17.510106
S 6.739750 -14.813505 -14.816423
S 6.739750 -12.119822 -12.122740
S 9.433433 -12.119822 -14.816423
S 9.433433 -14.813505 -12.122740
S 6.739750 -14.813505 -9.429057
S 6.739750 -12.119822 -6.735374
S 9.433433 -12.119822 -9.429057
S 9.433433 -14.813505 -6.735374
S 6.739750 -14.813505 -4.041691
S 6.739750 -12.119822 -1.348008
S 9.433433 -12.119822 -4.041691
S 9.433433 -14.813505 -1.348008
S 6.739750 -14.813505 1.345674
S 6.739750 -12.119822 4.039357
S 9.433433 -12.119822 1.345674
S 9.433433 -14.813505 4.039357
S 6.739750 -14.813505 6.733040
S 6.739750 -12.119822 9.426723
S 9.433433 -12.119822 6.733040
S 9.433433 -14.813505 9.426723
S 6.739750 -14.813505 12.120406
S 6.739750 -12.119822 14.814089
S 9.433433 -12.119822 12.120406
S 9.433433 -14.813505 14.814089
S 6.739750 -14.813505 17.507772
S 6.739750 -12.119822 20.201455
S 9.433433 -12.119822 17.507772
S 9.433433 -14.813505 20.201455
S 6.739750 -14.813505 22.895137
S 6.739750 -12.119822 25.588820
S 9.433433 -12.119822 22.895137
S 9.433433 -14.813505 25.588820
S 6.739750 -14.813505 28.282503
S 9.433433 -12.119822 28.282503
S 6.739750 -6.732457 -28.284837
S 9.433433 -9.426140 -28.284837
S 6.739750 -9.426140 -25.591154
S 6.739750 -6.732457 -22.897471
S 9.433433 -6.732457 -25.591154
S 9.433433 -9.426140 -22.897471
S 6.739750 -9.426140 -20.203789
S 6.739750 -6.732457 -17.510106
S 9.433433 -6.732457 -20.203789
S 9.433433 -9.426140 -17.510106
S 6.739750 -9.426140 -14.816423
S 6.739750 -6.732457 -12.122740
S 9.433433 -6.732457 -14.816423
S 9.433433 -9.426140 -12.122740
S 6.739750 -9.426140 -9.429057
S 6.739750 -6.732457 -6.735374
S 9.433433 -6.732457 -9.429057
S 9.433433 -9.426140 -6.735374
S 6.739750 -9.426140 -4.041691
S 6.739750 -6.732457 -1.348008
S 9.433433 -6.732457 -4.041691
S 9.433433 -9.426140 -1.348008
S 6.739750 -9.426140 1.345674
S 6.739750 -6.732457 4.039357
S 9.433433 -6.732457 1.345674
S 9.433433 -9.426140 4.039357
S 6.739750 -9.426140 6.733040
S 6.739750 -6.732457 9.426723
S 9.433433 -6.732457 6.733040
S 9.433433 -9.426140 9.426723
S 6.739750 -9.426140 12.120406
S 6.739750 -6.732457 14.814089
S 9.433433 -6.732457 12.120406
S 9.433433 -9.426140 14.814089
S 6.739750 -9.426140 17.507772
S 6.739750 -6.732457 20.201455
S 9.433433 -6.732457 17.507772
S 9.433433 -9.426140 20.201455
S 6.739750 -9.426140 22.895137
S 6.739750 -6.732457 25.588820
S 9.433433 -6.732457 22.895137
S 9.433433 -9.426140 25.588820
S 6.739750 -9.426140 28.282503
S 9.433433 -6.732457 28.282503
S 6.739750 -1.345091 -28.284837
S 9.433433 -4.038774 -28.284837
S 6.739750 -4.038774 -25.591154
S 6.739750 -1.345091 -22.897471
S 9.433433 -1.345091 -25.591154
S 9.433433 -4.038774 -22.897471
S 6.739750 -4.038774 -20.203789
S 6.739750 -1.345091 -17.510106
S 9.433433 -1.345091 -20.203789
S 9.433433 -4.038774 -17.510106
S 6.739750 -4.038774 -14.816423
S 6.739750 -1.345091 -12.122740
S 9.433433 -1.345091 -14.816423
S 9.433433 -4.038774 -12.122740
S 6.739750 -4.038774 -9.429057
S 6.739750 -1.345091 -6.735374
S 9.433433 -1.345091 -9.429057
S 9.433433 -4.038774 -6.735374
S 6.739750 -4.038774 -4.041691
S 6.739750 -1.345091 -1.348008
S 9.433433 -1.345091 -4.041691
S 9.433433 -4.038774 -1.348008
S 6.739750 -4.038774 1.345674
S 6.739750 -1.345091 4.039357
S 9.433433 -1.345091 1.345674
S 9.433433 -4.038774 4.039357
S 6.739750 -4.038774 6.733040
S 6.739750 -1.345091 9.426723
S 9.433433 -1.345091 6.733040
S 9.433433 -4.038774 9.426723
S 6.739750 -4.038774 12.120406
S 6.739750 -1.345091 14.814089
S 9.433433 -1.345091 12.120406
S 9.433433 -4.038774 14.814089
S 6.739750 -4.038774 17.507772
S 6.739750 -1.345091 20.201455
S 9.433433 -1.345091 17.507772
S 9.433433 -4.038774 20.201455
S 6.739750 -4.038774 22.895137
S 6.739750 -1.345091 25.588820
S 9.433433 -1.345091 22.895137
S 9.433433 -4.038774 25.588820
S 6.739750 -4.038774 28.282503
S 9.433433 -1.345091 28.282503
S 6.739750 4.042275 -28.284837
S 9.433433 1.348592 -28.284837
S 6.739750 1.348592 -25.591154
S 6.739750 4.042275 -22.897471
S 9.433433 4.042275 -25.591154
S 9.433433 1.348592 -22.897471
S 6.739750 1.348592 -20.203789
S 6.739750 4.042275 -17.510106
S 9.433433 4.042275 -20.203789
S 9.433433 1.348592 -17.510106
S 6.739750 1.348592 -14.816423
S 6.739750 4.042275 -12.122740
S 9.433433 4.042275 -14.816423
S 9.433433 1.348592 -12.122740
S 6.739750 1.348592 -9.429057
S 6.739750 4.042275 -6.735374
S 9.433433 4.042275 -9.429057
S 9.433433 1.348592 -6.735374
S 6.739750 1.348592 -4.041691
S 6.739750 4.042275 -1.348008
S 9.433433 4.042275 -4.041691
S 9.433433 1.348592 -1.348008
S 6.739750 1.348592 1.345674
S 6.739750 4.042275 4.039357
S 9.433433 4.042275 1.345674
S 9.433433 1.348592 4.039357
S 6.739750 1.348592 6.733040
S 6.739750 4.042275 9.426723
S 9.433433 4.042275 6.733040
S 9.433433 1.348592 9.426723
S 6.739750 1.348592 12.120406
S 6.739750 4.042275 14.814089
S 9.433433 4.042275 12.120406
S 9.433433 1.348592 14.814089
S 6.739750 1.348592 17.507772
S 6.739750 4.042275 20.201455
S 9.433433 4.042275 17.507772
S 9.433433 1.348592 20.201455
S 6.739750 1.348592 22.895137
S 6.739750 4.042275 25.588820
S 9.433433 4.042275 22.895137
S 9.433433 1.348592 25.588820
S 6.739750 1.348592 28.282503
S 9.433433 4.042275 28.282503
S 6.739750 9.429641 -28.284837
S 9.433433 6.735958 -28.284837
S 6.739750 6.735958 -25.591154
S 6.739750 9.429641 -22.897471
S 9.433433 9.429641 -25.591154
S 9.433433 6.735958 -22.897471
S 6.739750 6.735958 -20.203789
S 6.739750 9.429641 -17.510106
S 9.433433 9.429641 -20.203789
S 9.433433 6.735958 -17.510106
S 6.739750 6.735958 -14.816423
S 6.739750 9.429641 -12.122740
S 9.433433 9.429641 -14.816423
S 9.433433 6.735958 -12.122740
S 6.739750 6.735958 -9.429057
S 6.739750 9.429641 -6.735374
S 9.433433 9.429641 -9.429057
S 9.433433 6.735958 -6.735374
S 6.739750 6.735958 -4.041691
S 6.739750 9.429641 -1.348008
S 9.433433 9.429641 -4.041691
S 9.433433 6.735958 -1.348008
S 6.739750 6.735958 1.345674
S 6.739750 9.429641 4.039357
S 9.433433 9.429641 1.345674
S 9.433433 6.735958 4.039357
S 6.739750 6.735958 6.733040
S 6.739750 9.429641 9.426723
S 9.433433 9.429641 6.733040
S 9.433433 6.735958 9.426723
S 6.739750 6.735958 12.120406
S 6.739750 9.429641 14.814089
S 9.433433 9.429641 12.120406
S 9.433433 6.735958 14.814089
S 6.739750 6.735958 17.507772
S 6.739750 9.429641 20.201455
S 9.433433 9.429641 17.507772
S 9.433433 6.735958 20.201455
S 6.739750 6.735958 22.895137
S 6.739750 9.429641 25.588820
S 9.433433 9.429641 22.895137
S 9.433433 6.735958 25.588820
S 6.739750 6.735958 28.282503
S 9.433433 9.429641 28.282503
S 6.739750 14.817006 -28.284837
S 9.433433 12.123323 -28.284837
S 6.739750 12.123323 -25.591154
S 6.739750 14.817006 -22.897471
S 9.433433 14.817006 -25.591154
S 9.433433 12.123323 -22.897471
S 6.739750 12.123323 -20.203789
S 6.739750 14.817006 -17.510106
S 9.433433 14.817006 -20.203789
S 9.433433 12.123323 -17.510106
S 6.739750 12.123323 -14.816423
S 6.739750 14.817006 -12.122740
S 9.433433 14.817006 -14.816423
S 9.433433 12.123323 -12.122740
S 6.739750 12.123323 -9.429057
S 6.739750 14.817006 -6.735374
S 9.433433 14.817006 -9.429057
S 9.433433 12.123323 -6.735374
S 6.739750 12.123323 -4.041691
S 6.739750 14.817006 -1.348008
S 9.433433 14.817006 -4.041691
S 9.433433 12.123323 -1.348008
S 6.739750 12.123323 1.345674
S 6.739750 14.817006 4.039357
S 9.433433 14.817006 1.345674
S 9.433433 12.123323 4.039357
S 6.739750 12.123323 6.733040
S 6.739750 14.817006 9.426723
S 9.433433 14.817006 6.733040
S 9.433433 12.123323 9.426723
S 6.739750 12.123323 12.120406
S 6.739750 14.817006 14.814089
S 9.433433 14.817006 12.120406
S 9.433433 12.123323 14.814089
S 6.739750 12.123323 17.507772
S 6.739750 14.817006 20.201455
S 9.433433 14.817006 17.507772
S 9.433433 12.123323 20.201455
S 6.739750 12.123323 22.895137
S 6.739750 14.817006 25.588820
S 9.433433 14.817006 22.895137
S 9.433433 12.123323 25.588820
S 6.739750 12.123323 28.282503
S 9.433433 14.817006 28.282503
S 6.739750 20.204372 -28.284837
S 9.433433 17.510689 -28.284837
S 6.739750 17.510689 -25.591154
S 6.739750 20.204372 -22.897471
S 9.433433 20.204372 -25.591154
S 9.433433 17.510689 -22.897471
S 6.739750 17.510689 -20.203789
S 6.739750 20.204372 -17.510106
S 9.433433 20.204372 -20.203789
S 9.433433 17.510689 -17.510106
S 6.739750 17.510689 -14.816423
S 6.739750 20.204372 -12.122740
S 9.433433 20.204372 -14.816423
S 9.433433 17.510689 -12.122740
S 6.739750 17.510689 -9.429057
S 6.739750 20.204372 -6.735374
S 9.433433 20.204372 -9.429057
S 9.433433 17.510689 -6.735374
S 6.739750 17.510689 -4.041691
S 6.739750 20.204372 -1.348008
S 9.433433 20.204372 -4.041691
S 9.433433 17.510689 -1.348008
S 6.739750 17.510689 1.345674
S 6.739750 20.204372 4.039357
S 9.433433 20.204372 1.345674
S 9.433433 17.510689 4.039357
S 6.739750 17.510689 6.733040
S 6.739750 20.204372 9.426723
S 9.433433 20.204372 6.733040
S 9.433433 17.510689 9.426723
S 6.739750 17.510689 12.120406
S 6.739750 20.204372 14.814089
S 9.433433 20.204372 12.120406
S 9.433433 17.510689 14.814089
S 6.739750 17.510689 17.507772
S 6.739750 20.204372 20.201455
S 9.433433 20.204372 17.507772
S 9.433433 17.510689 20.201455
S 6.739750 17.510689 22.895137
S 6.739750 20.204372 25.588820
S 9.433433 20.204372 22.895137
S 9.433433 17.510689 25.588820
S 6.739750 17.510689 28.282503
S 6.739750 22.898055 -25.591154
S 6.739750 25.591738 -22.897471
S 9.433433 22.898055 -22.897471
S 6.739750 22.898055 -20.203789
S 6.739750 25.591738 -17.510106
S 9.433433 25.591738 -20.203789
S 9.433433 22.898055 -17.510106
S 6.739750 22.898055 -14.816423
S 6.739750 25.591738 -12.122740
S 9.433433 25.591738 -14.816423
S 9.433433 22.898055 -12.122740
S 6.739750 22.898055 -9.429057
S 6.739750 25.591738 -6.735374
S 9.433433 25.591738 -9.429057
S 9.433433 22.898055 -6.735374
S 6.739750 22.898055 -4.041691
S 6.739750 25.591738 -1.348008
S 9.433433 25.591738 -4.041691
S 9.433433 22.898055 -1.348008
S 6.739750 22.898055 1.345674
S 6.739750 25.591738 4.039357
S 9.433433 25.591738 1.345674
S 9.433433 22.898055 4.039357
S 6.739750 22.898055 6.733040
S 6.739750 25.591738 9.426723
S 9.433433 25.591738 6.733040
S 9.433433 22.898055 9.426723
S 6.739750 22.898055 12.120406
S 6.739750 25.591738 14.814089
S 9.433433 25.591738 12.120406
S 9.433433 22.898055 14.814089
S 6.739750 22.898055 17.507772
S 6.739750 25.591738 20.201455
S 9.433433 25.591738 17.507772
S 9.433433 22.898055 20.201455
S 6.739750 22.898055 22.895137
S 6.739750 28.285421 -20.203789
S 9.433433 28.285421 -17.510106
S 6.739750 28.285421 -14.816423
S 9.433433 28.285421 -12.122740
S 6.739750 28.285421 -9.429057
S 9.433433 28.285421 -6.735374
S 6.739750 28.285421 -4.041691
S 9.433433 28.285421 -1.348008
S 6.739750 28.285421 1.345674
S 9.433433 28.285421 4.039357
S 6.739750 28.285421 6.733040
S 9.433433 28.285421 9.426723
S 6.739750 28.285421 12.120406
S 9.433433 28.285421 14.814089
S 6.739750 28.285421 17.507772
S 12.127116 -28.281920 -12.122740
S 12.127116 -28.281920 -6.735374
S 14.820799 -28.281920 -9.429057
S 12.127116 -28.281920 -1.348008
S 14.820799 -28.281920 -4.041691
S 12.127116 -28.281920 4.039357
S 14.820799 -28.281920 1.345674
S 12.127116 -28.281920 9.426723
S 14.820799 -28.281920 6.733040
S 12.127116 -28.281920 14.814089
S 14.820799 -28.281920 12.120406
S 12.127116 -22.894554 -17.510106
S 12.127116 -25.588237 -14.816423
S 12.127116 -22.894554 -12.122740
S 14.820799 -22.894554 -14.816423
S 14.820799 -25.588237 -12.122740
S 12.127116 -25.588237 -9.429057
S 12.127116 -22.894554 -6.735374
S 14.820799 -22.894554 -9.429057
S 14.820799 -25.588237 -6.735374
S 12.127116 -25.588237 -4.041691
S 12.127116 -22.894554 -1.348008
S 14.820799 -22.894554 -4.041691
S 14.820799 -25.588237 -1.348008
S 12.127116 -25.588237 1.345674
S 12.127116 -22.894554 4.039357
S 14.820799 -22.894554 1.345674
S 14.820799 -25.588237 4.039357
S 12.127116 -25.588237 6.733040
S 12.127116 -22.894554 9.426723
S 14.820799 -22.894554 6.733040
S 14.820799 -25.588237 9.426723
S 12.127116 -25.588237 12.120406
S 12.127116 -22.894554 14.814089
S 14.820799 -22.894554 12.120406
S 14.820799 -25.588237 14.814089
S 12.127116 -25.588237 17.507772
S 12.127116 -22.894554 20.201455
S 14.820799 -22.894554 17.507772
S 12.127116 -17.507188 -22.897471
S 12.127116 -20.200871 -20.203789
S 12.127116 -17.507188 -17.510106
S 14.820799 -17.507188 -20.203789
S 14.820799 -20.200871 -17.510106
S 12.127116 -20.200871 -14.816423
S 12.127116 -17.507188 -12.122740
S 14.820799 -17.507188 -14.816423
S 14.820799 -20.200871 -12.122740
S 12.127116 -20.200871 -9.429057
S 12.127116 -17.507188 -6.735374
S 14.820799 -17.507188 -9.429057
S 14.820799 -20.200871 -6.735374
S 12.127116 -20.200871 -4.041691
S 12.127116 -17.507188 -1.348008
S 14.820799 -17.507188 -4.041691
S 14.820799 -20.200871 -1.348008
S 12.127116 -20.200871 1.345674
S 12.127116 -17.507188 4.039357
S 14.820799 -17.507188 1.345674
S 14.820799 -20.200871 4.039357
S 12.127116 -20.200871 6.733040
S 12.127116 -17.507188 9.426723
S 14.820799 -17.507188 6.733040
S 14.820799 -20.200871 9.426723
S 12.127116 -20.200871 12.120406
S 12.127116 -17.507188 14.814089
S 14.820799 -17.507188 12.120406
S 14.820799 -20.200871 14.814089
S 12.127116 -20.200871 17.507772
S 12.127116 -17.507188 20.201455
S 14.820799 -17.507188 17.507772
S 14.820799 -20.200871 20.201455
S 12.127116 -20.200871 22.895137
S 12.127116 -17.507188 25.588820
S 14.820799 -17.507188 22.895137
S 12.127116 -12.119822 -28.284837
S 12.127116 -14.813505 -25.591154
S 12.127116 -12.119822 -22.897471
S 14.820799 -12.119822 -25.591154
S 14.820799 -14.813505 -22.897471
S 12.127116 -14.813505 -20.203789
S 12.127116 -12.119822 -17.510106
S 14.820799 -12.119822 -20.203789
S 14.820799 -14.813505 -17.510106
S 12.127116 -14.813505 -14.816423
S 12.127116 -12.119822 -12.122740
S 14.820799 -12.119822 -14.816423
S 14.820799 -14.813505 -12.122740
S 12.127116 -14.813505 -9.429057
S 12.127116 -12.119822 -6.735374
S 14.820799 -12.119822 -9.429057
S 14.820799 -14.813505 -6.735374
S 12.127116 -14.813505 -4.041691
S 12.127116 -12.119822 -1.348008
S 14.820799 -12.119822 -4.041691
S 14.820799 -14.813505 -1.348008
S 12.127116 -14.813505 1.345674
S 12.127116 -12.119822 4.039357
S 14.820799 -12.119822 1.345674
S 14.820799 -14.813505 4.039357
S 12.127116 -14.813505 6.733040
S 12.127116 -12.119822 9.426723
S 14.820799 -12.119822 6.733040
S 14.820799 -14.813505 9.426723
S 12.127116 -14.813505 12.120406
S 12.127116 -12.119822 14.814089
S 14.820799 -12.119822 12.120406
S 14.820799 -14.813505 14.814089
S 12.127116 -14.813505 17.507772
S 12.127116 -12.119822 20.201455
S 14.820799 -12.119822 17.507772
S 14.820799 -14.813505 20.201455
S 12.127116 -14.813505 22.895137
S 12.127116 -12.119822 25.588820
S 14.820799 -12.119822 22.895137
S 14.820799 -14.813505 25.588820
S 12.127116 -14.813505 28.282503
S 14.820799 -12.119822 28.282503
S 12.127116 -6.732457 -28.284837
S 14.820799 -9.426140 -28.284837
S 12.127116 -9.426140 -25.591154
S 12.127116 -6.732457 -22.897471
S 14.820799 -6.732457 -25.591154
S 14.820799 -9.426140 -22.897471
S 12.127116 -9.426140 -20.203789
S 12.127116 -6.732457 -17.510106
S 14.820799 -6.732457 -20.203789
S 14.820799 -9.426140 -17.510106
S 12.127116 -9.426140 -14.816423
S 12.127116 -6.732457 -12.122740
S 14.820799 -6.732457 -14.816423
S 14.820799 -9.426140 -12.122740
S 12.127116 -9.426140 -9.429057
S 12.127116 -6.732457 -6.735374
S 14.820799 -6.732457 -9.429057
S 14.820799 -9.426140 -6.735374
S 12.127116 -9.426140 -4.041691
S 12.127116 -6.732457 -1.348008
S 14.820799 -6.732457 -4.041691
S 14.820799 -9.426140 -1.348008
S 12.127116 -9.426140 1.345674
S 12.127116 -6.732457 4.039357
S 14.820799 -6.732457 1.345674
S 14.820799 -9.426140 4.039357
S 12.127116 -9.426140 6.733040
S 12.127116 -6.732457 9.426723
S 14.820799 -6.732457 6.733040
S 14.820799 -9.426140 9.426723
S 12.127116 -9.426140 12.120406
S 12.127116 -6.732457 14.814089
S 14.820799 -6.732457 12.120406
S 14.820799 -9.426140 14.814089
S 12.127116 -9.426140 17.507772
S 12.127116 -6.732457 20.201455
S 14.820799 -6.732457 17.507772
S 14.820799 -9.426140 20.201455
S 12.127116 -9.426140 22.895137
S 12.127116 -6.732457 25.588820
S 14.820799 -6.732457 22.895137
S 14.820799 -9.426140 25.588820
S 12.127116 -9.426140 28.282503
S 14.820799 -6.732457 28.282503
S 12.127116 -1.345091 -28.284837
S 14.820799 -4.038774 -28.284837
S 12.127116 -4.038774 -25.591154
S 12.127116 -1.345091 -22.897471
S 14.820799 -1.345091 -25.591154
S 14.820799 -4.038774 -22.897471
S 12.127116 -4.038774 -20.203789
S 12.127116 -1.345091 -17.510106
S 14.820799 -1.345091 -20.203789
S 14.820799 -4.038774 -17.510106
S 12.127116 -4.038774 -14.816423
S 12.127116 -1.345091 -12.122740
S 14.820799 -1.345091 -14.816423
S 14.820799 -4.038774 -12.122740
S 12.127116 -4.038774 -9.429057
S 12.127116 -1.345091 -6.735374
S 14.820799 -1.345091 -9.429057
S 14.820799 -4.038774 -6.735374
S 12.127116 -4.038774 -4.041691
S 12.127116 -1.345091 -1.348008
S 14.820799 -1.345091 -4.041691
S 14.820799 -4.038774 -1.348008
S 12.127116 -4.038774 1.345674
S 12.127116 -1.345091 4.039357
S 14.820799 -1.345091 1.345674
S 14.820799 -4.038774 4.039357
S 12.127116 -4.038774 6.733040
S 12.127116 -1.345091 9.426723
S 14.820799 -1.345091 6.733040
S 14.820799 -4.038774 9.426723
S 12.127116 -4.038774 12.120406
S 12.127116 -1.345091 14.814089
S 14.820799 -1.345091 12.120406
S 14.820799 -4.038774 14.814089
S 12.127116 -4.038774 17.507772
S 12.127116 -1.345091 20.201455
S 14.820799 -1.345091 17.507772
S 14.820799 -4.038774 20.201455
S 12.127116 -4.038774 22.895137
S 12.127116 -1.345091 25.588820
S 14.820799 -1.345091 22.895137
S 14.820799 -4.038774 25.588820
S 12.127116 -4.038774 28.282503
S 14.820799 -1.345091 28.282503
S 12.127116 4.042275 -28.284837
S 14.820799 1.348592 -28.284837
S 12.127116 1.348592 -25.591154
S 12.127116 4.042275 -22.897471
S 14.820799 4.042275 -25.591154
S 14.820799 1.348592 -22.897471
S 12.127116 1.348592 -20.203789
S 12.127116 4.042275 -17.510106
S 14.820799 4.042275 -20.203789
S 14.820799 1.348592 -17.510106
S 12.127116 1.348592 -14.816423
S 12.127116 4.042275 -12.122740
S 14.820799 4.042275 -14.816423
S 14.820799 1.348592 -12.122740
S 12.127116 1.348592 -9.429057
S 12.127116 4.042275 -6.735374
S 14.820799 4.042275 -9.429057
S 14.820799 1.348592 -6.735374
S 12.127116 1.348592 -4.041691
S 12.127116 4.042275 -1.348008
S 14.820799 4.042275 -4.041691
S 14.820799 1.348592 -1.348008
S 12.127116 1.348592 1.345674
S 12.127116 4.042275 4.039357
S 14.820799 4.042275 1.345674
S 14.820799 1.348592 4.039357
S 12.127116 1.348592 6.733040
S 12.127116 4.042275 9.426723
S 14.820799 4.042275 6.733040
S 14.820799 1.348592 9.426723
S 12.127116 1.348592 12.120406
S 12.127116 4.042275 14.814089
S 14.820799 4.042275 12.120406
S 14.820799 1.348592 14.814089
S 12.127116 1.348592 17.507772
S 12.127116 4.042275 20.201455
S 14.820799 4.042275 17.507772
S 14.820799 1.348592 20.201455
S 12.127116 1.348592 22.895137
S 12.127116 4.042275 25.588820
S 14.820799 4.042275 22.895137
S 14.820799 1.348592 25.588820
S 12.127116 1.348592 28.282503
S 14.820799 4.042275 28.282503
S 12.127116 9.429641 -28.284837
S 14.820799 6.735958 -28.284837
S 12.127116 6.735958 -25.591154
S 12.127116 9.429641 -22.897471
S 14.820799 9.429641 -25.591154
S 14.820799 6.735958 -22.897471
S 12.127116 6.735958 -20.203789
S 12.127116 9.429641 -17.510106
S 14.820799 9.429641 -20.203789
S 14.820799 6.735958 -17.510106
S 12.127116 6.735958 -14.816423
S 12.127116 9.429641 -12.122740
S 14.820799 9.429641 -14.816423
S 14.820799 6.735958 -12.122740
S 12.127116 6.735958 -9.429057
S 12.127116 9.429641 -6.735374
S 14.820799 9.429641 -9.429057
S 14.820799 6.735958 -6.735374
S 12.127116 6.735958 -4.041691
S 12.127116 9.429641 -1.348008
S 14.820799 9.429641 -4.041691
S 14.820799 6.735958 -1.348008
S 12.127116 6.735958 1.345674
S 12.127116 9.429641 4.039357
S 14.820799 9.429641 1.345674
S 14.820799 6.735958 4.039357
S 12.127116 6.735958 6.733040
S 12.127116 9.429641 9.426723
S 14.820799 9.429641 6.733040
S 14.820799 6.735958 9.426723
S 12.127116 6.735958 12.120406
S 12.127116 9.429641 14.814089
S 14.820799 9.429641 12.120406
S 14.820799 6.735958 14.814089
S 12.127116 6.735958 17.507772
S 12.127116 9.429641 20.201455
S 14.820799 9.429641 17.507772
S 14.820799 6.735958 20.201455
S 12.127116 6.735958 22.895137
S 12.127116 9.429641 25.588820
S 14.820799 9.429641 22.895137
S 14.820799 6.735958 25.588820
S 12.127116 6.735958 28.282503
S 14.820799 9.429641 28.282503
S 12.127116 14.817006 -28.284837
S 14.820799 12.123323 -28.284837
S 12.127116 12.123323 -25.591154
S 12.127116 14.817006 -22.897471
S 14.820799 14.817006 -25.591154
S 14.820799 12.123323 -22.897471
S 12.127116 12.123323 -20.203789
S 12.127116 14.817006 -17.510106
S 14.820799 14.817006 -20.203789
S 14.820799 12.123323 -17.510106
S 12.127116 12.123323 -14.816423
S 12.127116 14.817006 -12.122740
S 14.820799 14.817006 -14.816423
S 14.820799 12.123323 -12.122740
S 12.127116 12.123323 -9.429057
S 12.127116 14.817006 -6.735374
S 14.820799 14.817006 -9.429057
S 14.820799 12.123323 -6.735374
S 12.127116 12.123323 -4.041691
S 12.127116 14.817006 -1.348008
S 14.820799 14.817006 -4.041691
S 14.820799 12.123323 -1.348008
S 12.127116 12.123323 1.345674
S 12.127116 14.817006 4.039357
S 14.820799 14.817006 1.345674
S 14.820799 12.123323 4.039357
S 12.127116 12.123323 6.733040
S 12.127116 14.817006 9.426723
S 14.820799 14.817006 6.733040
S 14.820799 12.123323 9.426723
S 12.127116 12.123323 12.120406
S 12.127116 14.817006 14.814089
S 14.820799 14.817006 12.120406
S 14.820799 12.123323 14.814089
S 12.127116 12.123323 17.507772
S 12.127116 14.817006 20.201455
S 14.820799 14.817006 17.507772
S 14.820799 12.123323 20.201455
S 12.127116 12.123323 22.895137
S 12.127116 14.817006 25.588820
S 14.820799 14.817006 22.895137
S 14.820799 12.123323 25.588820
S 12.127116 12.123323 28.282503
S 12.127116 17.510689 -25.591154
S 12.127116 20.204372 -22.897471
S 14.820799 17.510689 -22.897471
S 12.127116 17.510689 -20.203789
S 12.127116 20.204372 -17.510106
S 14.820799 20.204372 -20.203789
S 14.820799 17.510689 -17.510106
S 12.127116 17.510689 -14.816423
S 12.127116 20.204372 -12.122740
S 14.820799 20.204372 -14.816423
S 14.820799 17.510689 -12.122740
S 12.127116 17.510689 -9.429057
S 12.127116 20.204372 -6.735374
S 14.820799 20.204372 -9.429057
S 14.820799 17.510689 -6.735374
S 12.127116 17.510689 -4.041691
S 12.127116 20.204372 -1.348008
S 14.820799 20.204372 -4.041691
S 14.820799 17.510689 -1.348008
S 12.127116 17.510689 1.345674
S 12.127116 20.204372 4.039357
S 14.820799 20.204372 1.345674
S 14.820799 17.510689 4.039357
S 12.127116 17.510689 6.733040
S 12.127116 20.204372 9.426723
S 14.820799 20.204372 6.733040
S 14.820799 17.510689 9.426723
S 12.127116 17.510689 12.120406
S 12.127116 20.204372 14.814089
S 14.820799 20.204372 12.120406
S 14.820799 17.510689 14.814089
S 12.127116 17.510689 17.507772
S 12.127116 20.204372 20.201455
S 14.820799 20.204372 17.507772
S 14.820799 17.510689 20.201455
S 12.127116 17.510689 22.895137
S 12.127116 22.898055 -20.203789
S 12.127116 25.591738 -17.510106
S 14.820799 22.898055 -17.510106
S 12.127116 22.898055 -14.816423
S 12.127116 25.591738 -12.122740
S 14.820799 25.591738 -14.816423
S 14.820799 22.898055 -12.122740
S 12.127116 22.898055 -9.429057
S 12.127116 25.591738 -6.735374
S 14.820799 25.591738 -9.429057
S 14.820799 22.898055 -6.735374
S 12.127116 22.898055 -4.041691
S 12.127116 25.591738 -1.348008
S 14.820799 25.591738 -4.041691
S 14.820799 22.898055 -1.348008
S 12.127116 22.898055 1.345674
S 12.127116 25.591738 4.039357
S 14.820799 25.591738 1.345674
S 14.820799 22.898055 4.039357
S 12.127116 22.898055 6.733040
S 12.127116 25.591738 9.426723
S 14.820799 25.591738 6.733040
S 14.820799 22.898055 9.426723
S 12.127116 22.898055 12.120406
S 12.127116 25.591738 14.814089
S 14.820799 25.591738 12.120406
S 14.820799 22.898055 14.814089
S 12.127116 22.898055 17.507772
S 12.127116 28.285421 -14.816423
S 14.820799 28.285421 -12.122740
S 12.127116 28.285421 -9.429057
S 14.820799 28.285421 -6.735374
S 12.127116 28.285421 -4.041691
S 14.820799 28.285421 -1.348008
S 12.127116 28.285421 1.345674
S 14.820799 28.285421 4.039357
S 12.127116 28.285421 6.733040
S 14.820799 28.285421 9.426723
S 12.127116 28.285421 12.120406
S 17.514482 -28.281920 -6.735374
S 17.514482 -28.281920 -1.348008
S 20.208165 -28.281920 -4.041691
S 17.514482 -28.281920 4.039357
S 20.208165 -28.281920 1.345674
S 17.514482 -28.281920 9.426723
S 20.208165 -28.281920 6.733040
S 17.514482 -22.894554 -12.122740
S 17.514482 -25.588237 -9.429057
S 17.514482 -22.894554 -6.735374
S 20.208165 -22.894554 -9.429057
S 20.208165 -25.588237 -6.735374
S 17.514482 -25.588237 -4.041691
S 17.514482 -22.894554 -1.348008
S 20.208165 -22.894554 -4.041691
S 20.208165 -25.588237 -1.348008
S 17.514482 -25.588237 1.345674
S 17.514482 -22.894554 4.039357
S 20.208165 -22.894554 1.345674
S 20.208165 -25.588237 4.039357
S 17.514482 -25.588237 6.733040
S 17.514482 -22.894554 9.426723
S 20.208165 -22.894554 6.733040
S 20.208165 -25.588237 9.426723
S 17.514482 -25.588237 12.120406
S 17.514482 -22.894554 14.814089
S 20.208165 -22.894554 12.120406
S 17.514482 -17.507188 -17.510106
S 17.514482 -20.200871 -14.816423
S 17.514482 -17.507188 -12.122740
S 20.208165 -17.507188 -14.816423
S 20.208165 -20.200871 -12.122740
S 17.514482 -20.200871 -9.429057
S 17.514482 -17.507188 -6.735374
S 20.208165 -17.507188 -9.429057
S 20.208165 -20.200871 -6.735374
S 17.514482 -20.200871 -4.041691
S 17.514482 -17.507188 -1.348008
S 20.208165 -17.507188 -4.041691
S 20.208165 -20.200871 -1.348008
S 17.514482 -20.200871 1.345674
S 17.514482 -17.507188 4.039357
S 20.208165 -17.507188 1.345674
S 20.208165 -20.200871 4.039357
S 17.514482 -20.200871 6.733040
S 17.514482 -17.507188 9.426723
S 20.208165 -17.507188 6.733040
S 20.208165 -20.200871 9.426723
S 17.514482 -20.200871 12.120406
S 17.514482 -17.507188 14.814089
S 20.208165 -17.507188 12.120406
S 20.208165 -20.200871 14.814089
S 17.514482 -20.200871 17.507772
S 17.514482 -17.507188 20.201455
S 20.208165 -17.507188 17.507772
S 17.514482 -12.119822 -22.897471
S 17.514482 -14.813505 -20.203789
S 17.514482 -12.119822 -17.510106
S 20.208165 -12.119822 -20.203789
S 20.208165 -14.813505 -17.510106
S 17.514482 -14.813505 -14.816423
S 17.514482 -12.119822 -12.122740
S 20.208165 -12.119822 -14.816423
S 20.208165 -14.813505 -12.122740
S 17.514482 -14.813505 -9.429057
S 17.514482 -12.119822 -6.735374
S 20.208165 -12.119822 -9.429057
S 20.208165 -14.813505 -6.735374
S 17.514482 -14.813505 -4.041691
S 17.514482 -12.119822 -1.348008
S 20.208165 -12.119822 -4.041691
S 20.208165 -14.813505 -1.348008
S 17.514482 -14.813505 1.345674
S 17.514482 -12.119822 4.039357
S 20.208165 -12.119822 1.345674
S 20.208165 -14.813505 4.039357
S 17.514482 -14.813505 6.733040
S 17.514482 -12.119822 9.426723
S 20.208165 -12.119822 6.733040
S 20.208165 -14.813505 9.426723
S 17.514482 -14.813505 12.120406
S 17.514482 -12.119822 14.814089
S 20.208165 -12.119822 12.120406
S 20.208165 -14.813505 14.814089
S 17.514482 -14.813505 17.507772
S 17.514482 -12.119822 20.201455
S 20.208165 -12.119822 17.507772
S 20.208165 -14.813505 20.201455
S 17.514482 -14.813505 22.895137
S 17.514482 -12.119822 25.588820
S 20.208165 -12.119822 22.895137
S 17.514482 -6.732457 -28.284837
S 17.514482 -9.426140 -25.591154
S 17.514482 -6.732457 -22.897471
S 20.208165 -6.732457 -25.591154
S 20.208165 -9.426140 -22.897471
S 17.514482 -9.426140 -20.203789
S 17.514482 -6.732457 -17.510106
S 20.208165 -6.732457 -20.203789
S 20.208165 -9.426140 -17.510106
S 17.514482 -9.426140 -14.816423
S 17.514482 -6.732457 -12.122740
S 20.208165 -6.732457 -14.816423
S 20.208165 -9.426140 -12.122740
S 17.514482 -9.426140 -9.429057
S 17.514482 -6.732457 -6.735374
S 20.208165 -6.732457 -9.429057
S 20.208165 -9.426140 -6.735374
S 17.514482 -9.426140 -4.041691
S 17.514482 -6.732457 -1.348008
S 20.208165 -6.732457 -4.041691
S 20.208165 -9.426140 -1.348008
S 17.514482 -9.426140 1.345674
S 17.514482 -6.732457 4.039357
S 20.208165 -6.732457 1.345674
S 20.208165 -9.426140 4.039357
S 17.514482 -9.426140 6.733040
S 17.514482 -6.732457 9.426723
S 20.208165 -6.732457 6.733040
S 20.208165 -9.426140 9.426723
S 17.514482 -9.426140 12.120406
S 17.514482 -6.732457 14.814089
S 20.208165 -6.732457 12.120406
S 20.208165 -9.426140 14.814089
S 17.514482 -9.426140 17.507772
S 17.514482 -6.732457 20.201455
S 20.208165 -6.732457 17.507772
S 20.208165 -9.426140 20.201455
S 17.514482 -9.426140 22.895137
S 17.514482 -6.732457 25.588820
S 20.208165 -6.732457 22.895137
S 20.208165 -9.426140 25.588820
S 17.514482 -9.426140 28.282503
S 20.208165 -6.732457 28.282503
S 17.514482 -1.345091 -28.284837
S 20.208165 -4.038774 -28.284837
S 17.514482 -4.038774 -25.591154
S 17.514482 -1.345091 -22.897471
S 20.208165 -1.345091 -25.591154
S 20.208165 -4.038774 -22.897471
S 17.514482 -4.038774 -20.203789
S 17.514482 -1.345091 -17.510106
S 20.208165 -1.345091 -20.203789
S 20.208165 -4.038774 -17.510106
S 17.514482 -4.038774 -14.816423
S 17.514482 -1.345091 -12.122740
S 20.208165 -1.345091 -14.816423
S 20.208165 -4.038774 -12.122740
S 17.514482 -4.038774 -9.429057
S 17.514482 -1.345091 -6.735374
S 20.208165 -1.345091 -9.429057
S 20.208165 -4.038774 -6.735374
S 17.514482 -4.038774 -4.041691
S 17.514482 -1.345091 -1.348008
S 20.208165 -1.345091 -4.041691
S 20.208165 -4.038774 -1.348008
S 17.514482 -4.038774 1.345674
S 17.514482 -1.345091 4.039357
S 20.208165 -1.345091 1.345674
S 20.208165 -4.038774 4.039357
S 17.514482 -4.038774 6.733040
S 17.514482 -1.345091 9.426723
S 20.208165 -1.345091 6.733040
S 20.208165 -4.038774 9.426723
S 17.514482 -4.038774 12.120406
S 17.514482 -1.345091 14.814089
S 20.208165 -1.345091 12.120406
S 20.208165 -4.038774 14.814089
S 17.514482 -4.038774 17.507772
S 17.514482 -1.345091 20.201455
S 20.208165 -1.345091 17.507772
S 20.208165 -4.038774 20.201455
S 17.514482 -4.038774 22.895137
S 17.514482 -1.345091 25.588820
S 20.208165 -1.345091 22.895137
S 20.208165 -4.038774 25.588820
S 17.514482 -4.038774 28.282503
S 20.208165 -1.345091 28.282503
S 17.514482 4.042275 -28.284837
S 20.208165 1.348592 -28.284837
S 17.514482 1.348592 -25.591154
S 17.514482 4.042275 -22.897471
S 20.208165 4.042275 -25.591154
S 20.208165 1.348592 -22.897471
S 17.514482 1.348592 -20.203789
S 17.514482 4.042275 -17.510106
S 20.208165 4.042275 -20.203789
S 20.208165 1.348592 -17.510106
S 17.514482 1.348592 -14.816423
S 17.514482 4.042275 -12.122740
S 20.208165 4.042275 -14.816423
S 20.208165 1.348592 -12.122740
S 17.514482 1.348592 -9.429057
S 17.514482 4.042275 -6.735374
S 20.208165 4.042275 -9.429057
S 20.208165 1.348592 -6.735374
S 17.514482 1.348592 -4.041691
S 17.514482 4.042275 -1.348008
S 20.208165 4.042275 -4.041691
S 20.208165 1.348592 -1.348008
S 17.514482 1.348592 1.345674
S 17.514482 4.042275 4.039357
S 20.208165 4.042275 1.345674
S 20.208165 1.348592 4.039357
S 17.514482 1.348592 6.733040
S 17.514482 4.042275 9.426723
S 20.208165 4.042275 6.733040
S 20.208165 1.348592 9.426723
S 17.514482 1.348592 12.120406
S 17.514482 4.042275 14.814089
S 20.208165 4.042275 12.120406
S 20.208165 1.348592 14.814089
S 17.514482 1.348592 17.507772
S 17.514482 4.042275 20.201455
S 20.208165 4.042275 17.507772
S 20.208165 1.348592 20.201455
S 17.514482 1.348592 22.895137
S 17.514482 4.042275 25.588820
S 20.208165 4.042275 22.895137
S 20.208165 1.348592 25.588820
S 17.514482 1.348592 28.282503
S 20.208165 4.042275 28.282503
S 17.514482 9.429641 -28.284837
S 20.208165 6.735958 -28.284837
S 17.514482 6.735958 -25.591154
S 17.514482 9.429641 -22.897471
S 20.208165 9.429641 -25.591154
S 20.208165 6.735958 -22.897471
S 17.514482 6.735958 -20.203789
S 17.514482 9.429641 -17.510106
S 20.208165 9.429641 -20.203789
S 20.208165 6.735958 -17.510106
S 17.514482 6.735958 -14.816423
S 17.514482 9.429641 -12.122740
S 20.208165 9.429641 -14.816423
S 20.208165 6.735958 -12.122740
S 17.514482 6.735958 -9.429057
S 17.514482 9.429641 -6.735374
S 20.208165 9.429641 -9.429057
S 20.208165 6.735958 -6.735374
S 17.514482 6.735958 -4.041691
S 17.514482 9.429641 -1.348008
S 20.208165 9.429641 -4.041691
S 20.208165 6.735958 -1.348008
S 17.514482 6.735958 1.345674
S 17.514482 9.429641 4.039357
S 20.208165 9.429641 1.345674
S 20.208165 6.735958 4.039357
S 17.514482 6.735958 6.733040
S 17.514482 9.429641 9.426723
S 20.208165 9.429641 6.733040
S 20.208165 6.735958 9.426723
S 17.514482 6.735958 12.120406
S 17.514482 9.429641 14.814089
S 20.208165 9.429641 12.120406
S 20.208165 6.735958 14.814089
S 17.514482 6.735958 17.507772
S 17.514482 9.429641 20.201455
S 20.208165 9.429641 17.507772
S 20.208165 6.735958 20.201455
S 17.514482 6.735958 22.895137
S 17.514482 9.429641 25.588820
S 20.208165 9.429641 22.895137
S 20.208165 6.735958 25.588820
S 17.514482 6.735958 28.282503
S 17.514482 12.123323 -25.591154
S 17.514482 14.817006 -22.897471
S 20.208165 12.123323 -22.897471
S 17.514482 12.123323 -20.203789
S 17.514482 14.817006 -17.510106
S 20.208165 14.817006 -20.203789
S 20.208165 12.123323 -17.510106
S 17.514482 12.123323 -14.816423
S 17.514482 14.817006 -12.122740
S 20.208165 14.817006 -14.816423
S 20.208165 12.123323 -12.122740
S 17.514482 12.123323 -9.429057
S 17.514482 14.817006 -6.735374
S 20.208165 14.817006 -9.429057
S 20.208165 12.123323 -6.735374
S 17.514482 12.123323 -4.041691
S 17.514482 14.817006 -1.348008
S 20.208165 14.817006 -4.041691
S 20.208165 12.123323 -1.348008
S 17.514482 12.123323 1.345674
S 17.514482 14.817006 4.039357
S 20.208165 14.817006 1.345674
S 20.208165 12.123323 4.039357
S 17.514482 12.123323 6.733040
S 17.514482 14.817006 9.426723
S 20.208165 14.817006 6.733040
S 20.208165 12.123323 9.426723
S 17.514482 12.123323 12.120406
S 17.514482 14.817006 14.814089
S 20.208165 14.817006 12.120406
S 20.208165 12.123323 14.814089
S 17.514482 12.123323 17.507772
S 17.514482 14.817006 20.201455
S 20.208165 14.817006 17.507772
S 20.208165 12.123323 20.201455
S 17.514482 12.123323 22.895137
S 17.514482 17.510689 -20.203789
S 17.514482 20.204372 -17.510106
S 20.208165 17.510689 -17.510106
S 17.514482 17.510689 -14.816423
S 17.514482 20.204372 -12.122740
S 20.208165 20.204372 -14.816423
S 20.208165 17.510689 -12.122740
S 17.514482 17.510689 -9.429057
S 17.514482 20.204372 -6.735374
S 20.208165 20.204372 -9.429057
S 20.208165 17.510689 -6.735374
S 17.514482 17.510689 -4.041691
S 17.514482 20.204372 -1.348008
S 20.208165 20.204372 -4.041691
S 20.208165 17.510689 -1.348008
S 17.514482 17.510689 1.345674
S 17.514482 20.204372 4.039357
S 20.208165 20.204372 1.345674
S 20.208165 17.510689 4.039357
S 17.514482 17.510689 6.733040
S 17.514482 20.204372 9.426723
S 20.208165 20.204372 6.733040
S 20.208165 17.510689 9.426723
S 17.514482 17.510689 12.120406
S 17.514482 20.204372 14.814089
S 20.208165 20.204372 12.120406
S 20.208165 17.510689 14.814089
S 17.514482 17.510689 17.507772
S 17.514482 22.898055 -14.816423
S 17.514482 25.591738 -12.122740
S 20.208165 22.898055 -12.122740
S 17.514482 22.898055 -9.429057
S 17.514482 25.591738 -6.735374
S 20.208165 25.591738 -9.429057
S 20.208165 22.898055 -6.735374
S 17.514482 22.898055 -4.041691
S 17.514482 25.591738 -1.348008
S 20.208165 25.591738 -4.041691
S 20.208165 22.898055 -1.348008
S 17.514482 22.898055 1.345674
S 17.514482 25.591738 4.039357
S 20.208165 25.591738 1.345674
S 20.208165 22.898055 4.039357
S 17.514482 22.898055 6.733040
S 17.514482 25.591738 9.426723
S 20.208165 25.591738 6.733040
S 20.208165 22.898055 9.426723
S 17.514482 22.898055 12.120406
S 17.514482 28.285421 -9.429057
S 20.208165 28.285421 -6.735374
S 17.514482 28.285421 -4.041691
S 20.208165 28.285421 -1.348008
S 17.514482 28.285421 1.345674
S 20.208165 28.285421 4.039357
S 17.514482 28.285421 6.733040
S 22.901848 -28.281920 -1.348008
S 22.901848 -28.281920 4.039357
S 25.595530 -28.281920 1.345674
S 22.901848 -22.894554 -6.735374
S 22.901848 -25.588237 -4.041691
S 22.901848 -22.894554 -1.348008
S 25.595530 -22.894554 -4.041691
S 25.595530 -25.588237 -1.348008
S 22.901848 -25.588237 1.345674
S 22.901848 -22.894554 4.039357
S 25.595530 -22.894554 1.345674
S 25.595530 -25.588237 4.039357
S 22.901848 -25.588237 6.733040
S 22.901848 -22.894554 9.426723
S 25.595530 -22.894554 6.733040
S 22.901848 -17.507188 -12.122740
S 22.901848 -20.200871 -9.429057
S 22.901848 -17.507188 -6.735374
S 25.595530 -17.507188 -9.429057
S 25.595530 -20.200871 -6.735374
S 22.901848 -20.200871 -4.041691
S 22.901848 -17.507188 -1.348008
S 25.595530 -17.507188 -4.041691
S 25.595530 -20.200871 -1.348008
S 22.901848 -20.200871 1.345674
S 22.901848 -17.507188 4.039357
S 25.595530 -17.507188 1.345674
S 25.595530 -20.200871 4.039357
S 22.901848 -20.200871 6.733040
S 22.901848 -17.507188 9.426723
S 25.595530 -17.507188 6.733040
S 25.595530 -20.200871 9.426723
S 22.901848 -20.200871 12.120406
S 22.901848 -17.507188 14.814089
S 25.595530 -17.507188 12.120406
S 22.901848 -12.119822 -17.510106
S 22.901848 -14.813505 -14.816423
S 22.901848 -12.119822 -12.122740
S 25.595530 -12.119822 -14.816423
S 25.595530 -14.813505 -12.122740
S 22.901848 -14.813505 -9.429057
S 22.901848 -12.119822 -6.735374
S 25.595530 -12.119822 -9.429057
S 25.595530 -14.813505 -6.735374
S 22.901848 -14.813505 -4.041691
S 22.901848 -12.119822 -1.348008
S 25.595530 -12.119822 -4.041691
S 25.595530 -14.813505 -1.348008
S 22.901848 -14.813505 1.345674
S 22.901848 -12.119822 4.039357
S 25.595530 -12.119822 1.345674
S 25.595530 -14.813505 4.039357
S 22.901848 -14.813505 6.733040
S 22.901848 -12.119822 9.426723
S 25.595530 -12.119822 6.733040
S 25.595530 -14.813505 9.426723
S 22.901848 -14.813505 12.120406
S 22.901848 -12.119822 14.814089
S 25.595530 -12.119822 12.120406
S 25.595530 -14.813505 14.814089
S 22.901848 -14.813505 17.507772
S 22.901848 -12.119822 20.201455
S 25.595530 -12.119822 17.507772
S 22.901848 -6.732457 -22.897471
S 22.901848 -9.426140 -20.203789
S 22.901848 -6.732457 -17.510106
S 25.595530 -6.732457 -20.203789
S 25.595530 -9.426140 -17.510106
S 22.901848 -9.426140 -14.816423
S 22.901848 -6.732457 -12.122740
S 25.595530 -6.732457 -14.816423
S 25.595530 -9.426140 -12.122740
S 22.901848 -9.426140 -9.429057
S 22.901848 -6.732457 -6.735374
S 25.595530 -6.732457 -9.429057
S 25.595530 -9.426140 -6.735374
S 22.901848 -9.426140 -4.041691
S 22.901848 -6.732457 -1.348008
S 25.595530 -6.732457 -4.041691
S 25.595530 -9.426140 -1.348008
S 22.901848 -9.426140 1.345674
S 22.901848 -6.732457 4.039357
S 25.595530 -6.732457 1.345674
S 25.595530 -9.426140 4.039357
S 22.901848 -9.426140 6.733040
S 22.901848 -6.732457 9.426723
S 25.595530 -6.732457 6.733040
S 25.595530 -9.426140 9.426723
S 22.901848 -9.426140 12.120406
S 22.901848 -6.732457 14.814089
S 25.595530 -6.732457 12.120406
S 25.595530 -9.426140 14.814089
S 22.901848 -9.426140 17.507772
S 22.901848 -6.732457 20.201455
S 25.595530 -6.732457 17.507772
S 25.595530 -9.426140 20.201455
S 22.901848 -9.426140 22.895137
S 22.901848 -6.732457 25.588820
S 25.595530 -6.732457 22.895137
S 22.901848 -1.345091 -28.284837
S 22.901848 -4.038774 -25.591154
S 22.901848 -1.345091 -22.897471
S 25.595530 -1.345091 -25.591154
S 25.595530 -4.038774 -22.897471
S 22.901848 -4.038774 -20.203789
S 22.901848 -1.345091 -17.510106
S 25.595530 -1.345091 -20.203789
S 25.595530 -4.038774 -17.510106
S 22.901848 -4.038774 -14.816423
S 22.901848 -1.345091 -12.122740
S 25.595530 -1.345091 -14.816423
S 25.595530 -4.038774 -12.122740
S 22.901848 -4.038774 -9.429057
S 22.901848 -1.345091 -6.735374
S 25.595530 -1.345091 -9.429057
S 25.595530 -4.038774 -6.735374
S 22.901848 -4.038774 -4.041691
S 22.901848 -1.345091 -1.348008
S 25.595530 -1.345091 -4.041691
S 25.595530 -4.038774 -1.348008
S 22.901848 -4.038774 1.345674
S 22.901848 -1.345091 4.039357
S 25.595530 -1.345091 1.345674
S 25.595530 -4.038774 4.039357
S 22.901848 -4.038774 6.733040
S 22.901848 -1.345091 9.426723
S 25.595530 -1.345091 6.733040
S 25.595530 -4.038774 9.426723
S 22.901848 -4.038774 12.120406
S 22.901848 -1.345091 14.814089
S 25.595530 -1.345091 12.120406
S 25.595530 -4.038774 14.814089
S 22.901848 -4.038774 17.507772
S 22.901848 -1.345091 20.201455
S 25.595530 -1.345091 17.507772
S 25.595530 -4.038774 20.201455
S 22.901848 -4.038774 22.895137
S 22.901848 -1.345091 25.588820
S 25.595530 -1.345091 22.895137
S 25.595530 -4.038774 25.588820
S 22.901848 -4.038774 28.282503
S 25.595530 -1.345091 28.282503
S 22.901848 4.042275 -28.284837
S 25.595530 1.348592 -28.284837
S 22.901848 1.348592 -25.591154
S 22.901848 4.042275 -22.897471
S 25.595530 4.042275 -25.591154
S 25.595530 1.348592 -22.897471
S 22.901848 1.348592 -20.203789
S 22.901848 4.042275 -17.510106
S 25.595530 4.042275 -20.203789
S 25.595530 1.348592 -17.510106
S 22.901848 1.348592 -14.816423
S 22.901848 4.042275 -12.122740
S 25.595530 4.042275 -14.816423
S 25.595530 1.348592 -12.122740
S 22.901848 1.348592 -9.429057
S 22.901848 4.042275 -6.735374
S 25.595530 4.042275 -9.429057
S 25.595530 1.348592 -6.735374
S 22.901848 1.348592 -4.041691
S 22.901848 4.042275 -1.348008
S 25.595530 4.042275 -4.041691
S 25.595530 1.348592 -1.348008
S 22.901848 1.348592 1.345674
S 22.901848 4.042275 4.039357
S 25.595530 4.042275 1.345674
S 25.595530 1.348592 4.039357
S 22.901848 1.348592 6.733040
S 22.901848 4.042275 9.426723
S 25.595530 4.042275 6.733040
S 25.595530 1.348592 9.426723
S 22.901848 1.348592 12.120406
S 22.901848 4.042275 14.814089
S 25.595530 4.042275 12.120406
S 25.595530 1.348592 14.814089
S 22.901848 1.348592 17.507772
S 22.901848 4.042275 20.201455
S 25.595530 4.042275 17.507772
S 25.595530 1.348592 20.201455
S 22.901848 1.348592 22.895137
S 22.901848 4.042275 25.588820
S 25.595530 4.042275 22.895137
S 25.595530 1.348592 25.588820
S 22.901848 1.348592 28.282503
S 22.901848 6.735958 -25.591154
S 22.901848 9.429641 -22.897471
S 25.595530 6.735958 -22.897471
S 22.901848 6.735958 -20.203789
S 22.901848 9.429641 -17.510106
S 25.595530 9.429641 -20.203789
S 25.595530 6.735958 -17.510106
S 22.901848 6.735958 -14.816423
S 22.901848 9.429641 -12.122740
S 25.595530 9.429641 -14.816423
S 25.595530 6.735958 -12.122740
S 22.901848 6.735958 -9.429057
S 22.901848 9.429641 -6.735374
S 25.595530 9.429641 -9.429057
S 25.595530 6.735958 -6.735374
S 22.901848 6.735958 -4.041691
S 22.901848 9.429641 -1.348008
S 25.595530 9.429641 -4.041691
S 25.595530 6.735958 -1.348008
S 22.901848 6.735958 1.345674
S 22.901848 9.429641 4.039357
S 25.595530 9.429641 1.345674
S 25.595530 6.735958 4.039357
S 22.901848 6.735958 6.733040
S 22.901848 9.429641 9.426723
S 25.595530 9.429641 6.733040
S 25.595530 6.735958 9.426723
S 22.901848 6.735958 12.120406
S 22.901848 9.429641 14.814089
S 25.595530 9.429641 12.120406
S 25.595530 6.735958 14.814089
S 22.901848 6.735958 17.507772
S 22.901848 9.429641 20.201455
S 25.595530 9.429641 17.507772
S 25.595530 6.735958 20.201455
S 22.901848 6.735958 22.895137
S 22.901848 12.123323 -20.203789
S 22.901848 14.817006 -17.510106
S 25.595530 12.123323 -17.510106
S 22.901848 12.123323 -14.816423
S 22.901848 14.817006 -12.122740
S 25.595530 14.817006 -14.816423
S 25.595530 12.123323 -12.122740
S 22.901848 12.123323 -9.429057
S 22.901848 14.817006 -6.735374
S 25.595530 14.817006 -9.429057
S 25.595530 12.123323 -6.735374
S 22.901848 12.123323 -4.041691
S 22.901848 14.817006 -1.348008
S 25.595530 14.817006 -4.041691
S 25.595530 12.123323 -1.348008
S 22.901848 12.123323 1.345674
S 22.901848 14.817006 4.039357
S 25.595530 14.817006 1.345674
S 25.595530 12.123323 4.039357
S 22.901848 12.123323 6.733040
S 22.901848 14.817006 9.426723
S 25.595530 14.817006 6.733040
S 25.595530 12.123323 9.426723
S 22.901848 12.123323 12.120406
S 22.901848 14.817006 14.814089
S 25.595530 14.817006 12.120406
S 25.595530 12.123323 14.814089
S 22.901848 12.123323 17.507772
S 22.901848 17.510689 -14.816423
S 22.901848 20.204372 -12.122740
S 25.595530 17.510689 -12.122740
S 22.901848 17.510689 -9.429057
S 22.901848 20.204372 -6.735374
S 25.595530 20.204372 -9.429057
S 25.595530 17.510689 -6.735374
S 22.901848 17.510689 -4.041691
S 22.901848 20.204372 -1.348008
S 25.595530 20.204372 -4.041691
S 25.595530 17.510689 -1.348008
S 22.901848 17.510689 1.345674
S 22.901848 20.204372 4.039357
S 25.595530 20.204372 1.345674
S 25.595530 17.510689 4.039357
S 22.901848 17.510689 6.733040
S 22.901848 20.204372 9.426723
S 25.595530 20.204372 6.733040
S 25.595530 17.510689 9.426723
S 22.901848 17.510689 12.120406
S 22.901848 22.898055 -9.429057
S 22.901848 25.591738 -6.735374
S 25.595530 22.898055 -6.735374
S 22.901848 22.898055 -4.041691
S 22.901848 25.591738 -1.348008
S 25.595530 25.591738 -4.041691
S 25.595530 22.898055 -1.348008
S 22.901848 22.898055 1.345674
S 22.901848 25.591738 4.039357
S 25.595530 25.591738 1.345674
S 25.595530 22.898055 4.039357
S 22.901848 22.898055 6.733040
S 22.901848 28.285421 -4.041691
S 25.595530 28.285421 -1.348008
S 22.901848 28.285421 1.345674
S 28.289213 -22.894554 -1.348008
S 28.289213 -25.588237 1.345674
S 28.289213 -22.894554 4.039357
S 28.289213 -17.507188 -6.735374
S 28.289213 -20.200871 -4.041691
S 28.289213 -17.507188 -1.348008
S 28.289213 -20.200871 1.345674
S 28.289213 -17.507188 4.039357
S 28.289213 -20.200871 6.733040
S 28.289213 -17.507188 9.426723
S 28.289213 -12.119822 -12.122740
S 28.289213 -14.813505 -9.429057
S 28.289213 -12.119822 -6.735374
S 28.289213 -14.813505 -4.041691
S 28.289213 -12.119822 -1.348008
S 28.289213 -14.813505 1.345674
S 28.289213 -12.119822 4.039357
S 28.289213 -14.813505 6.733040
S 28.289213 -12.119822 9.426723
S 28.289213 -14.813505 12.120406
S 28.289213 -12.119822 14.814089
S 28.289213 -6.732457 -17.510106
S 28.289213 -9.426140 -14.816423
S 28.289213 -6.732457 -12.122740
S 28.289213 -9.426140 -9.429057
S 28.289213 -6.732457 -6.735374
S 28.289213 -9.426140 -4.041691
S 28.289213 -6.732457 -1.348008
S 28.289213 -9.426140 1.345674
S 28.289213 -6.732457 4.039357
S 28.289213 -9.426140 6.733040
S 28.289213 -6.732457 9.426723
S 28.289213 -9.426140 12.120406
S 28.289213 -6.732457 14.814089
S 28.289213 -9.426140 17.507772
S 28.289213 -6.732457 20.201455
S 28.289213 -1.345091 -22.897471
S 28.289213 -4.038774 -20.203789
S 28.289213 -1.345091 -17.510106
S 28.289213 -4.038774 -14.816423
S 28.289213 -1.345091 -12.122740
S 28.289213 -4.038774 -9.429057
S 28.289213 -1.345091 -6.735374
S 28.289213 -4.038774 -4.041691
S 28.289213 -1.345091 -1.348008
S 28.289213 -4.038774 1.345674
S 28.289213 -1.345091 4.039357
S 28.289213 -4.038774 6.733040
S 28.289213 -1.345091 9.426723
S 28.289213 -4.038774 12.120406
S 28.289213 -1.345091 14.814089
S 28.289213 -4.038774 17.507772
S 28.289213 -1.345091 20.201455
S 28.289213 -4.038774 22.895137
S 28.289213 -1.345091 25.588820
S 28.289213 1.348592 -25.591154
S 28.289213 4.042275 -22.897471
S 28.289213 1.348592 -20.203789
S 28.289213 4.042275 -17.510106
S 28.289213 1.348592 -14.816423
S 28.289213 4.042275 -12.122740
S 28.289213 1.348592 -9.429057
S 28.289213 4.042275 -6.735374
S 28.289213 1.348592 -4.041691
S 28.289213 4.042275 -1.348008
S 28.289213 1.348592 1.345674
S 28.289213 4.042275 4.039357
S 28.289213 1.348592 6.733040
S 28.289213 4.042275 9.426723
S 28.289213 1.348592 12.120406
S 28.289213 4.042275 14.814089
S 28.289213 1.348592 17.507772
S 28.289213 4.042275 20.201455
S 28.289213 1.348592 22.895137
S 28.289213 6.735958 -20.203789
S 28.289213 9.429641 -17.510106
S 28.289213 6.735958 -14.816423
S 28.289213 9.429641 -12.122740
S 28.289213 6.735958 -9.429057
S 28.289213 9.429641 -6.735374
S 28.289213 6.735958 -4.041691
S 28.289213 9.429641 -1.348008
S 28.289213 6.735958 1.345674
S 28.289213 9.429641 4.039357
S 28.289213 6.735958 6.733040
S 28.289213 9.429641 9.426723
S 28.289213 6.735958 12.120406
S 28.289213 9.429641 14.814089
S 28.289213 6.735958 17.507772
S 28.289213 12.123323 -14.816423
S 28.289213 14.817006 -12.122740
S 28.289213 12.123323 -9.429057
S 28.289213 14.817006 -6.735374
S 28.289213 12.123323 -4.041691
S 28.289213 14.817006 -1.348008
S 28.289213 12.123323 1.345674
S 28.289213 14.817006 4.039357
S 28.289213 12.123323 6.733040
S 28.289213 14.817006 9.426723
S 28.289213 12.123323 12.120406
S 28.289213 17.510689 -9.429057
S 28.289213 20.204372 -6.735374
S 28.289213 17.510689 -4.041691
S 28.289213 20.204372 -1.348008
S 28.289213 17.510689 1.345674
S 28.289213 20.204372 4.039357
S 28.289213 17.510689 6.733040
S 28.289213 22.898055 -4.041691
S 28.289213 25.591738 -1.348008
S 28.289213 22.898055 1.345674
Cl -30.971810 -22.894554 -1.348008
Cl -30.971810 -17.507188 -6.735374
Cl -30.971810 -20.200871 -4.041691
Cl -30.971810 -17.507188 -1.348008
Cl -30.971810 -20.200871 1.345674
Cl -30.971810 -17.507188 4.039357
Cl -30.971810 -12.119822 -12.122740
Cl -30.971810 -14.813505 -9.429057
Cl -30.971810 -12.119822 -6.735374
Cl -30.971810 -14.813505 -4.041691
Cl -30.971810 -12.119822 -1.348008
Cl -30.971810 -14.813505 1.345674
Cl -30.971810 -12.119822 4.039357
Cl -30.971810 -14.813505 6.733040
Cl -30.971810 -12.119822 9.426723
Cl -30.971810 -6.732457 -17.510106
Cl -30.971810 -9.426140 -14.816423
Cl -30.971810 -6.732457 -12.122740
Cl -30.971810 -9.426140 -9.429057
Cl -30.971810 -6.732457 -6.735374
Cl -30.971810 -9.426140 -4.041691
Cl -30.971810 -6.732457 -1.348008
Cl -30.971810 -9.426140 1.345674
Cl -30.971810 -6.732457 4.039357
Cl -30.971810 -9.426140 6.733040
Cl -30.971810 -6.732457 9.426723
Cl -30.971810 -9.426140 12.120406
Cl -30.971810 -6.732457 14.814089
Cl -30.971810 -1.345091 -22.897471
Cl -30.971810 -4.038774 -20.203789
Cl -30.971810 -1.345091 -17.510106
Cl -30.971810 -4.038774 -14.816423
Cl -30.971810 -1.345091 -12.122740
Cl -30.971810 -4.038774 -9.429057
Cl -30.971810 -1.345091 -6.735374
Cl -30.971810 -4.038774 -4.041691
Cl -30.971810 -1.345091 -1.348008
Cl -30.971810 -4.038774 1.345674
Cl -30.971810 -1.345091 4.039357
Cl -30.971810 -4.038774 6.733040
Cl -30.971810 -1.345091 9.426723
Cl -30.971810 -4.038774 12.120406
Cl -30.971810 -1.345091 14.814089
Cl -30.971810 -4.038774 17.507772
Cl -30.971810 -1.345091 20.201455
Cl -30.971810 1.348592 -20.203789
Cl -30.971810 4.042275 -17.510106
Cl -30.971810 1.348592 -14.816423
Cl -30.971810 4.042275 -12.122740
Cl -30.971810 1.348592 -9.429057
Cl -30.971810 4.042275 -6.735374
Cl -30.971810 1.348592 -4.041691
Cl -30.971810 4.042275 -1.348008
Cl -30.971810 1.348592 1.345674
Cl -30.971810 4.042275 4.039357
Cl -30.971810 1.348592 6.733040
Cl -30.971810 4.042275 9.426723
Cl -30.971810 1.348592 12.120406
Cl -30.971810 4.042275 14.814089
Cl -30.971810 1.348592 17.507772
Cl -30.971810 4.042275 20.201455
Cl -30.971810 1.348592 22.895137
Cl -30.971810 6.735958 -14.816423
Cl -30.971810 9.429641 -12.122740
Cl -30.971810 6.735958 -9.429057
Cl -30.971810 9.429641 -6.735374
Cl -30.971810 6.735958 -4.041691
Cl -30.971810 9.429641 -1.348008
Cl -30.971810 6.735958 1.345674
Cl -30.971810 9.429641 4.039357
Cl -30.971810 6.735958 6.733040
Cl -30.971810 9.429641 9.426723
Cl -30.971810 6.735958 12.120406
Cl -30.971810 9.429641 14.814089
Cl -30.971810 6.735958 17.507772
Cl -30.971810 12.123323 -9.429057
Cl -30.971810 14.817006 -6.735374
Cl -30.971810 12.123323 -4.041691
Cl -30.971810 14.817006 -1.348008
Cl -30.971810 12.123323 1.345674
Cl -30.971810 14.817006 4.039357
Cl -30.971810 12.123323 6.733040
Cl -30.971810 14.817006 9.426723
Cl -30.971810 12.123323 12.120406
Cl -30.971810 17.510689 -4.041691
Cl -30.971810 20.204372 -1.348008
Cl -30.971810 17.510689 1.345674
Cl -30.971810 20.204372 4.039357
Cl -30.971810 17.510689 6.733040
Cl -30.971810 22.898055 1.345674
Cl -22.890761 -30.975603 -1.348008
Cl -22.890761 -1.345091 -30.978520
Cl -22.890761 1.348592 30.976186
Cl -22.890761 30.979104 1.345674
Cl -17.503396 -30.975603 -6.735374
Cl -20.197078 -30.975603 -4.041691
Cl -17.503396 -30.975603 -1.348008
Cl -20.197078 -30.975603 1.345674
Cl -17.503396 -30.975603 4.039357
Cl -17.503396 -6.732457 -30.978520
Cl -20.197078 -4.038774 -30.978520
Cl -17.503396 -1.345091 -30.978520
Cl -20.197078 -1.345091 30.976186
Cl -17.503396 -4.038774 30.976186
Cl -20.197078 1.348592 -30.978520
Cl -17.503396 4.042275 -30.978520
Cl -20.197078 4.042275 30.976186
Cl -17.503396 1.348592 30.976186
Cl -17.503396 6.735958 30.976186
Cl -20.197078 30.979104 -1.348008
Cl -17.503396 30.979104 -4.041691
Cl -20.197078 30.979104 4.039357
Cl -17.503396 30.979104 1.345674
Cl -17.503396 30.979104 6.733040
Cl -12.116030 -30.975603 -12.122740
Cl -14.809713 -30.975603 -9.429057
Cl -12.116030 -30.975603 -6.735374
Cl -14.809713 -30.975603 -4.041691
Cl -12.116030 -30.975603 -1.348008
Cl -14.809713 -30.975603 1.345674
Cl -12.116030 -30.975603 4.039357
Cl -14.809713 -30.975603 6.733040
Cl -12.116030 -30.975603 9.426723
Cl -12.116030 -12.119822 -30.978520
Cl -14.809713 -9.426140 -30.978520
Cl -12.116030 -6.732457 -30.978520
Cl -14.809713 -6.732457 30.976186
Cl -12.116030 -9.426140 30.976186
Cl -14.809713 -4.038774 -30.978520
Cl -12.116030 -1.345091 -30.978520
Cl -14.809713 -1.345091 30.976186
Cl -12.116030 -4.038774 30.976186
Cl -14.809713 1.348592 -30.978520
Cl -12.116030 4.042275 -30.978520
Cl -14.809713 4.042275 30.976186
Cl -12.116030 1.348592 30.976186
Cl -14.809713 6.735958 -30.978520
Cl -12.116030 9.429641 -30.978520
Cl -14.809713 9.429641 30.976186
Cl -12.116030 6.735958 30.976186
Cl -12.116030 12.123323 30.976186
Cl -14.809713 30.979104 -6.735374
Cl -12.116030 30.979104 -9.429057
Cl -14.809713 30.979104 -1.348008
Cl -12.116030 30.979104 -4.041691
Cl -14.809713 30.979104 4.039357
Cl -12.116030 30.979104 1.345674
Cl -14.809713 30.979104 9.426723
Cl -12.116030 30.979104 6.733040
Cl -12.116030 30.979104 12.120406
Cl -6.728664 -30.975603 -17.510106
Cl -9.422347 -30.975603 -14.816423
Cl -6.728664 -30.975603 -12.122740
Cl -9.422347 -30.975603 -9.429057
Cl -6.728664 -30.975603 -6.735374
Cl -9.422347 -30.975603 -4.041691
Cl -6.728664 -30.975603 -1.348008
Cl -9.422347 -30.975603 1.345674
Cl -6.728664 -30.975603 4.039357
Cl -9.422347 -30.975603 6.733040
Cl -6.728664 -30.975603 9.426723
Cl -9.422347 -30.975603 12.120406
Cl -6.728664 -30.975603 14.814089
Cl -6.728664 -17.507188 -30.978520
Cl -9.422347 -14.813505 -30.978520
Cl -6.728664 -12.119822 -30.978520
Cl -9.422347 -12.119822 30.976186
Cl -6.728664 -14.813505 30.976186
Cl -9.422347 -9.426140 -30.978520
Cl -6.728664 -6.732457 -30.978520
Cl -9.422347 -6.732457 30.976186
Cl -6.728664 -9.426140 30.976186
Cl -9.422347 -4.038774 -30.978520
Cl -6.728664 -1.345091 -30.978520
Cl -9.422347 -1.345091 30.976186
Cl -6.728664 -4.038774 30.976186
Cl -9.422347 1.348592 -30.978520
Cl -6.728664 4.042275 -30.978520
Cl -9.422347 4.042275 30.976186
Cl -6.728664 1.348592 30.976186
Cl -9.422347 6.735958 -30.978520
Cl -6.728664 9.429641 -30.978520
Cl -9.422347 9.429641 30.976186
Cl -6.728664 6.735958 30.976186
Cl -9.422347 12.123323 -30.978520
Cl -6.728664 14.817006 -30.978520
Cl -9.422347 14.817006 30.976186
Cl -6.728664 12.123323 30.976186
Cl -6.728664 17.510689 30.976186
Cl -9.422347 30.979104 -12.122740
Cl -6.728664 30.979104 -14.816423
Cl -9.422347 30.979104 -6.735374
Cl -6.728664 30.979104 -9.429057
Cl -9.422347 30.979104 -1.348008
Cl -6.728664 30.979104 -4.041691
Cl -9.422347 30.979104 4.039357
Cl -6.728664 30.979104 1.345674
Cl -9.422347 30.979104 9.426723
Cl -6.728664 30.979104 6.733040
Cl -9.422347 30.979104 14.814089
Cl -6.728664 30.979104 12.120406
Cl -6.728664 30.979104 17.507772
Cl -1.341298 -30.975603 -22.897471
Cl -4.034981 -30.975603 -20.203789
Cl -1.341298 -30.975603 -17.510106
Cl -4.034981 -30.975603 -14.816423
Cl -1.341298 -30.975603 -12.122740
Cl -4.034981 -30.975603 -9.429057
Cl -1.341298 -30.975603 -6.735374
Cl -4.034981 -30.975603 -4.041691
Cl -1.341298 -30.975603 -1.348008
Cl -4.034981 -30.975603 1.345674
Cl -1.341298 -30.975603 4.039357
Cl -4.034981 -30.975603 6.733040
Cl -1.341298 -30.975603 9.426723
Cl -4.034981 -30.975603 12.120406
Cl -1.341298 -30.975603 14.814089
Cl -4.034981 -30.975603 17.507772
Cl -1.341298 -30.975603 20.201455
Cl -1.341298 -22.894554 -30.978520
Cl -4.034981 -20.200871 -30.978520
Cl -1.341298 -17.507188 -30.978520
Cl -4.034981 -17.507188 30.976186
Cl -1.341298 -20.200871 30.976186
Cl -4.034981 -14.813505 -30.978520
Cl -1.341298 -12.119822 -30.978520
Cl -4.034981 -12.119822 30.976186
Cl -1.341298 -14.813505 30.976186
Cl -4.034981 -9.426140 -30.978520
Cl -1.341298 -6.732457 -30.978520
Cl -4.034981 -6.732457 30.976186
Cl -1.341298 -9.426140 30.976186
Cl -4.034981 -4.038774 -30.978520
Cl -1.341298 -1.345091 -30.978520
Cl -4.034981 -1.345091 30.976186
Cl -1.341298 -4.038774 30.976186
Cl -4.034981 1.348592 -30.978520
Cl -1.341298 4.042275 -30.978520
Cl -4.034981 4.042275 30.976186
Cl -1.341298 1.348592 30.976186
Cl -4.034981 6.735958 -30.978520
Cl -1.341298 9.429641 -30.978520
Cl -4.034981 9.429641 30.976186
Cl -1.341298 6.735958 30.976186
Cl -4.034981 12.123323 -30.978520
Cl -1.341298 14.817006 -30.978520
Cl -4.034981 14.817006 30.976186
Cl -1.341298 12.123323 30.976186
Cl -4.034981 17.510689 -30.978520
Cl -1.341298 20.204372 -30.978520
Cl -4.034981 20.204372 30.976186
Cl -1.341298 17.510689 30.976186
Cl -1.341298 22.898055 30.976186
Cl -4.034981 30.979104 -17.510106
Cl -1.341298 30.979104 -20.203789
Cl -4.034981 30.979104 -12.122740
Cl -1.341298 30.979104 -14.816423
Cl -4.034981 30.979104 -6.735374
Cl -1.341298 30.979104 -9.429057
Cl -4.034981 30.979104 -1.348008
Cl -1.341298 30.979104 -4.041691
Cl -4.034981 30.979104 4.039357
Cl -1.341298 30.979104 1.345674
Cl -4.034981 30.979104 9.426723
Cl -1.341298 30.979104 6.733040
Cl -4.034981 30.979104 14.814089
Cl -1.341298 30.979104 12.120406
Cl -4.034981 30.979104 20.201455
Cl -1.341298 30.979104 17.507772
Cl -1.341298 30.979104 22.895137
Cl 1.352385 -30.975603 -20.203789
Cl 4.046067 -30.975603 -17.510106
Cl 1.352385 -30.975603 -14.816423
Cl 4.046067 -30.975603 -12.122740
Cl 1.352385 -30.975603 -9.429057
Cl 4.046067 -30.975603 -6.735374
Cl 1.352385 -30.975603 -4.041691
Cl 4.046067 -30.975603 -1.348008
Cl 1.352385 -30.975603 1.345674
Cl 4.046067 -30.975603 4.039357
Cl 1.352385 -30.975603 6.733040
Cl 4.046067 -30.975603 9.426723
Cl 1.352385 -30.975603 12.120406
Cl 4.046067 -30.975603 14.814089
Cl 1.352385 -30.975603 17.507772
Cl 4.046067 -30.975603 20.201455
Cl 1.352385 -30.975603 22.895137
Cl 1.352385 -22.894554 30.976186
Cl 1.352385 -20.200871 -30.978520
Cl 4.046067 -17.507188 -30.978520
Cl 1.352385 -17.507188 30.976186
Cl 4.046067 -20.200871 30.976186
Cl 1.352385 -14.813505 -30.978520
Cl 4.046067 -12.119822 -30.978520
Cl 1.352385 -12.119822 30.976186
Cl 4.046067 -14.813505 30.976186
Cl 1.352385 -9.426140 -30.978520
Cl 4.046067 -6.732457 -30.978520
Cl 1.352385 -6.732457 30.976186
Cl 4.046067 -9.426140 30.976186
Cl 1.352385 -4.038774 -30.978520
Cl 4.046067 -1.345091 -30.978520
Cl 1.352385 -1.345091 30.976186
Cl 4.046067 -4.038774 30.976186
Cl 1.352385 1.348592 -30.978520
Cl 4.046067 4.042275 -30.978520
Cl 1.352385 4.042275 30.976186
Cl 4.046067 1.348592 30.976186
Cl 1.352385 6.735958 -30.978520
Cl 4.046067 9.429641 -30.978520
Cl 1.352385 9.429641 30.976186
Cl 4.046067 6.735958 30.976186
Cl 1.352385 12.123323 -30.978520
Cl 4.046067 14.817006 -30.978520
Cl 1.352385 14.817006 30.976186
Cl 4.046067 12.123323 30.976186
Cl 1.352385 17.510689 -30.978520
Cl 4.046067 20.204372 -30.978520
Cl 1.352385 20.204372 30.976186
Cl 4.046067 17.510689 30.976186
Cl 1.352385 22.898055 -30.978520
Cl 1.352385 30.979104 -22.897471
Cl 1.352385 30.979104 -17.510106
Cl 4.046067 30.979104 -20.203789
Cl 1.352385 30.979104 -12.122740
Cl 4.046067 30.979104 -14.816423
Cl 1.352385 30.979104 -6.735374
Cl 4.046067 30.979104 -9.429057
Cl 1.352385 30.979104 -1.348008
Cl 4.046067 30.979104 -4.041691
Cl 1.352385 30.979104 4.039357
Cl 4.046067 30.979104 1.345674
Cl 1.352385 30.979104 9.426723
Cl 4.046067 30.979104 6.733040
Cl 1.352385 30.979104 14.814089
Cl 4.046067 30.979104 12.120406
Cl 1.352385 30.979104 20.201455
Cl 4.046067 30.979104 17.507772
Cl 6.739750 -30.975603 -14.816423
Cl 9.433433 -30.975603 -12.122740
Cl 6.739750 -30.975603 -9.429057
Cl 9.433433 -30.975603 -6.735374
Cl 6.739750 -30.975603 -4.041691
Cl 9.433433 -30.975603 -1.348008
Cl 6.739750 -30.975603 1.345674
Cl 9.433433 -30.975603 4.039357
Cl 6.739750 -30.975603 6.733040
Cl 9.433433 -30.975603 9.426723
Cl 6.739750 -30.975603 12.120406
Cl 9.433433 -30.975603 14.814089
Cl 6.739750 -30.975603 17.507772
Cl 6.739750 -17.507188 30.976186
Cl 6.739750 -14.813505 -30.978520
Cl 9.433433 -12.119822 -30.978520
Cl 6.739750 -12.119822 30.976186
Cl 9.433433 -14.813505 30.976186
Cl 6.739750 -9.426140 -30.978520
Cl 9.433433 -6.732457 -30.978520
Cl 6.739750 -6.732457 30.976186
Cl 9.433433 -9.426140 30.976186
Cl 6.739750 -4.038774 -30.978520
Cl 9.433433 -1.345091 -30.978520
Cl 6.739750 -1.345091 30.976186
Cl 9.433433 -4.038774 30.976186
Cl 6.739750 1.348592 -30.978520
Cl 9.433433 4.042275 -30.978520
Cl 6.739750 4.042275 30.976186
Cl 9.433433 1.348592 30.976186
Cl 6.739750 6.735958 -30.978520
Cl 9.433433 9.429641 -30.978520
Cl 6.739750 9.429641 30.976186
Cl 9.433433 6.735958 30.976186
Cl 6.739750 12.123323 -30.978520
Cl 9.433433 14.817006 -30.978520
Cl 6.739750 14.817006 30.976186
Cl 9.433433 12.123323 30.976186
Cl 6.739750 17.510689 -30.978520
Cl 6.739750 30.979104 -17.510106
Cl 6.739750 30.979104 -12.122740
Cl 9.433433 30.979104 -14.816423
Cl 6.739750 30.979104 -6.735374
Cl 9.433433 30.979104 -9.429057
Cl 6.739750 30.979104 -1.348008
Cl 9.433433 30.979104 -4.041691
Cl 6.739750 30.979104 4.039357
Cl 9.433433 30.979104 1.345674
Cl 6.739750 30.979104 9.426723
Cl 9.433433 30.979104 6.733040
Cl 6.739750 30.979104 14.814089
Cl 9.433433 30.979104 12.120406
Cl 12.127116 -30.975603 -9.429057
Cl 14.820799 -30.975603 -6.735374
Cl 12.127116 -30.975603 -4.041691
Cl 14.820799 -30.975603 -1.348008
Cl 12.127116 -30.975603 1.345674
Cl 14.820799 -30.975603 4.039357
Cl 12.127116 -30.975603 6.733040
Cl 14.820799 -30.975603 9.426723
Cl 12.127116 -30.975603 12.120406
Cl 12.127116 -12.119822 30.976186
Cl 12.127116 -9.426140 -30.978520
Cl 14.820799 -6.732457 -30.978520
Cl 12.127116 -6.732457 30.976186
Cl 14.820799 -9.426140 30.976186
Cl 12.127116 -4.038774 -30.978520
Cl 14.820799 -1.345091 -30.978520
Cl 12.127116 -1.345091 30.976186
Cl 14.820799 -4.038774 30.976186
Cl 12.127116 1.348592 -30.978520
Cl 14.820799 4.042275 -30.978520
Cl 12.127116 4.042275 30.976186
Cl 14.820799 1.348592 30.976186
Cl 12.127116 6.735958 -30.978520
Cl 14.820799 9.429641 -30.978520
Cl 12.127116 9.429641 30.976186
Cl 14.820799 6.735958 30.976186
Cl 12.127116 12.123323 -30.978520
Cl 12.127116 30.979104 -12.122740
Cl 12.127116 30.979104 -6.735374
Cl 14.820799 30.979104 -9.429057
Cl 12.127116 30.979104 -1.348008
Cl 14.820799 30.979104 -4.041691
Cl 12.127116 30.979104 4.039357
Cl 14.820799 30.979104 1.345674
Cl 12.127116 30.979104 9.426723
Cl 14.820799 30.979104 6.733040
Cl 17.514482 -30.975603 -4.041691
Cl 20.208165 -30.975603 -1.348008
Cl 17.514482 -30.975603 1.345674
Cl 20.208165 -30.975603 4.039357
Cl 17.514482 -30.975603 6.733040
Cl 17.514482 -6.732457 30.976186
Cl 17.514482 -4.038774 -30.978520
Cl 20.208165 -1.345091 -30.978520
Cl 17.514482 -1.345091 30.976186
Cl 20.208165 -4.038774 30.976186
Cl 17.514482 1.348592 -30.978520
Cl 20.208165 4.042275 -30.978520
Cl 17.514482 4.042275 30.976186
Cl 20.208165 1.348592 30.976186
Cl 17.514482 6.735958 -30.978520
Cl 17.514482 30.979104 -6.735374
Cl 17.514482 30.979104 -1.348008
Cl 20.208165 30.979104 -4.041691
Cl 17.514482 30.979104 4.039357
Cl 20.208165 30.979104 1.345674
Cl 22.901848 -30.975603 1.345674
Cl 22.901848 -1.345091 30.976186
Cl 22.901848 1.348592 -30.978520
Cl 22.901848 30.979104 -1.348008
Cl 30.982896 -22.894554 1.345674
Cl 30.982896 -17.507188 -4.041691
Cl 30.982896 -20.200871 -1.348008
Cl 30.982896 -17.507188 1.345674
Cl 30.982896 -20.200871 4.039357
Cl 30.982896 -17.507188 6.733040
Cl 30.982896 -12.119822 -9.429057
Cl 30.982896 -14.813505 -6.735374
Cl 30.982896 -12.119822 -4.041691
Cl 30.982896 -14.813505 -1.348008
Cl 30.982896 -12.119822 1.345674
Cl 30.982896 -14.813505 4.039357
Cl 30.982896 -12.119822 6.733040
Cl 30.982896 -14.813505 9.426723
Cl 30.982896 -12.119822 12.120406
Cl 30.982896 -6.732457 -14.816423
Cl 30.982896 -9.426140 -12.122740
Cl 30.982896 -6.732457 -9.429057
Cl 30.982896 -9.426140 -6.735374
Cl 30.982896 -6.732457 -4.041691
Cl 30.982896 -9.426140 -1.348008
Cl 30.982896 -6.732457 1.345674
Cl 30.982896 -9.426140 4.039357
Cl 30.982896 -6.732457 6.733040
Cl 30.982896 -9.426140 9.426723
Cl 30.982896 -6.732457 12.120406
Cl 30.982896 -9.426140 14.814089
Cl 30.982896 -6.732457 17.507772
Cl 30.982896 -1.345091 -20.203789
Cl 30.982896 -4.038774 -17.510106
Cl 30.982896 -1.345091 -14.816423
Cl 30.982896 -4.038774 -12.122740
Cl 30.982896 -1.345091 -9.429057
Cl 30.982896 -4.038774 -6.735374
Cl 30.982896 -1.345091 -4.041691
Cl 30.982896 -4.038774 -1.348008
Cl 30.982896 -1.345091 1.345674
Cl 30.982896 -4.038774 4.039357
Cl 30.982896 -1.345091 6.733040
Cl 30.982896 -4.038774 9.426723
Cl 30.982896 -1.345091 12.120406
Cl 30.982896 -4.038774 14.814089
Cl 30.982896 -1.345091 17.507772
Cl 30.982896 -4.038774 20.201455
Cl 30.982896 -1.345091 22.895137
Cl 30.982896 1.348592 -22.897471
Cl 30.982896 4.042275 -20.203789
Cl 30.982896 1.348592 -17.510106
Cl 30.982896 4.042275 -14.816423
Cl 30.982896 1.348592 -12.122740
Cl 30.982896 4.042275 -9.429057
Cl 30.982896 1.348592 -6.735374
Cl 30.982896 4.042275 -4.041691
Cl 30.982896 1.348592 -1.348008
Cl 30.982896 4.042275 1.345674
Cl 30.982896 1.348592 4.039357
Cl 30.982896 4.042275 6.733040
Cl 30.982896 1.348592 9.426723
Cl 30.982896 4.042275 12.120406
Cl 30.982896 1.348592 14.814089
Cl 30.982896 4.042275 17.507772
Cl 30.982896 1.348592 20.201455
Cl 30.982896 6.735958 -17.510106
Cl 30.982896 9.429641 -14.816423
Cl 30.982896 6.735958 -12.122740
Cl 30.982896 9.429641 -9.429057
Cl 30.982896 6.735958 -6.735374
Cl 30.982896 9.429641 -4.041691
Cl 30.982896 6.735958 -1.348008
Cl 30.982896 9.429641 1.345674
Cl 30.982896 6.735958 4.039357
Cl 30.982896 9.429641 6.733040
Cl 30.982896 6.735958 9.426723
Cl 30.982896 9.429641 12.120406
Cl 30.982896 6.735958 14.814089
Cl 30.982896 12.123323 -12.122740
Cl 30.982896 14.817006 -9.429057
Cl 30.982896 12.123323 -6.735374
Cl 30.982896 14.817006 -4.041691
Cl 30.982896 12.123323 -1.348008
Cl 30.982896 14.817006 1.345674
Cl 30.982896 12.123323 4.039357
Cl 30.982896 14.817006 6.733040
Cl 30.982896 12.123323 9.426723
Cl 30.982896 17.510689 -6.735374
Cl 30.982896 20.204372 -4.041691
Cl 30.982896 17.510689 -1.348008
Cl 30.982896 20.204372 1.345674
Cl 30.982896 17.510689 4.039357
Cl 30.982896 22.898055 -1.348008
Cl -20.197078 -20.200871 14.814089
Cl -20.197078 14.817006 -20.203789
Cl 14.820799 -20.200871 -20.203789
Cl 14.820799 20.204372 20.201455
Cl -25.584444 -1.345091 28.282503
Cl -25.584444 28.285421 -1.348008
Cl 28.289213 -25.588237 -1.348008
Cl 28.289213 1.348592 25.588820
Cl -1.341298 -25.588237 28.282503
Cl -1.341298 28.285421 -25.591154
Cl 28.289213 -1.345091 -25.591154
Cl 28.289213 25.591738 1.345674
Cl -28.278127 -25.588237 1.345674
Cl -28.278127 1.348592 -25.591154
Cl 1.352385 -28.281920 -25.591154
Cl 1.352385 25.591738 28.282503
Cl -12.116030 -14.813505 28.282503
Cl -12.116030 28.285421 -14.816423
Cl 28.289213 -12.119822 -14.816423
Cl 28.289213 14.817006 12.120406
Cl -28.278127 -9.426140 17.507772
Cl -28.278127 17.510689 -9.429057
Cl 17.514482 -28.281920 -9.429057
Cl 17.514482 9.429641 28.282503
Cl -9.422347 -28.281920 17.507772
Cl -9.422347 17.510689 -28.284837
Cl 17.514482 -9.426140 -28.284837
Cl 17.514482 28.285421 9.426723
Cl -20.197078 -28.281920 6.733040
Cl -20.197078 6.735958 -28.284837
Cl 6.739750 -20.200871 -28.284837
Cl 6.739750 28.285421 20.201455
Cl -28.278127 -17.507188 9.426723
Cl -28.278127 9.429641 -17.510106
Cl 9.433433 -28.281920 -17.510106
Cl 9.433433 17.510689 28.282503
Cl -20.197078 -9.426140 25.588820
Cl -20.197078 25.591738 -9.429057
Cl 25.595530 -20.200871 -9.429057
Cl 25.595530 9.429641 20.201455
Cl -9.422347 -22.894554 22.895137
Cl -9.422347 22.898055 -22.897471
