4357
CdSe-Se-Cd2131Se2036Cl190-reconstructed
Cd -17.388332 -22.627843 -24.423286
Cd -17.388332 -22.627843 -17.333446
Cd -15.215289 -23.882450 -20.878366
Cd -17.388332 -22.627843 -10.243606
Cd -15.215289 -23.882450 -13.788526
Cd -17.388332 -22.627843 -3.153767
Cd -15.215289 -23.882450 -6.698686
Cd -17.388332 -22.627843 3.936073
Cd -15.215289 -23.882450 0.391153
Cd -17.388332 -22.627843 11.025913
Cd -15.215289 -23.882450 7.480993
Cd -17.388332 -22.627843 18.115753
Cd -15.215289 -23.882450 14.570833
Cd -15.215289 -23.882450 21.660673
Cd -19.561374 -18.864023 -24.423286
Cd -19.561374 -18.864023 -17.333446
Cd -17.388332 -20.118630 -20.878366
Cd -19.561374 -18.864023 -10.243606
Cd -17.388332 -20.118630 -13.788526
Cd -19.561374 -18.864023 -3.153767
Cd -17.388332 -20.118630 -6.698686
Cd -19.561374 -18.864023 3.936073
Cd -17.388332 -20.118630 0.391153
Cd -19.561374 -18.864023 11.025913
Cd -17.388332 -20.118630 7.480993
Cd -19.561374 -18.864023 18.115753
Cd -17.388332 -20.118630 14.570833
Cd -17.388332 -20.118630 21.660673
Cd -21.734417 -15.100202 -24.423286
Cd -21.734417 -15.100202 -17.333446
Cd -19.561374 -16.354809 -20.878366
Cd -21.734417 -15.100202 -10.243606
Cd -19.561374 -16.354809 -13.788526
Cd -21.734417 -15.100202 -3.153767
Cd -19.561374 -16.354809 -6.698686
Cd -21.734417 -15.100202 3.936073
Cd -19.561374 -16.354809 0.391153
Cd -21.734417 -15.100202 11.025913
Cd -19.561374 -16.354809 7.480993
Cd -21.734417 -15.100202 18.115753
Cd -19.561374 -16.354809 14.570833
Cd -19.561374 -16.354809 21.660673
Cd -23.907460 -11.336382 -24.423286
Cd -23.907460 -11.336382 -17.333446
Cd -21.734417 -12.590989 -20.878366
Cd -23.907460 -11.336382 -10.243606
Cd -21.734417 -12.590989 -13.788526
Cd -23.907460 -11.336382 -3.153767
Cd -21.734417 -12.590989 -6.698686
Cd -23.907460 -11.336382 3.936073
Cd -21.734417 -12.590989 0.391153
Cd -23.907460 -11.336382 11.025913
Cd -21.734417 -12.590989 7.480993
Cd -23.907460 -11.336382 18.115753
Cd -21.734417 -12.590989 14.570833
Cd -21.734417 -12.590989 21.660673
Cd -26.080502 -7.572562 -24.423286
Cd -26.080502 -7.572562 -17.333446
Cd -23.907460 -8.827168 -20.878366
Cd -26.080502 -7.572562 -10.243606
Cd -23.907460 -8.827168 -13.788526
Cd -26.080502 -7.572562 -3.153767
Cd -23.907460 -8.827168 -6.698686
Cd -26.080502 -7.572562 3.936073
Cd -23.907460 -8.827168 0.391153
Cd -26.080502 -7.572562 11.025913
Cd -23.907460 -8.827168 7.480993
Cd -26.080502 -7.572562 18.115753
Cd -23.907460 -8.827168 14.570833
Cd -23.907460 -8.827168 21.660673
Cd -28.253545 -3.808741 -24.423286
Cd -28.253545 -3.808741 -17.333446
Cd -26.080502 -5.063348 -20.878366
Cd -28.253545 -3.808741 -10.243606
Cd -26.080502 -5.063348 -13.788526
Cd -28.253545 -3.808741 -3.153767
Cd -26.080502 -5.063348 -6.698686
Cd -28.253545 -3.808741 3.936073
Cd -26.080502 -5.063348 0.391153
Cd -28.253545 -3.808741 11.025913
Cd -26.080502 -5.063348 7.480993
Cd -28.253545 -3.808741 18.115753
Cd -26.080502 -5.063348 14.570833
Cd -26.080502 -5.063348 21.660673
Cd -30.426588 -0.044921 -17.333446
Cd -28.253545 -1.299528 -20.878366
Cd -30.426588 -0.044921 -10.243606
Cd -28.253545 -1.299528 -13.788526
Cd -30.426588 -0.044921 -3.153767
Cd -28.253545 -1.299528 -6.698686
Cd -30.426588 -0.044921 3.936073
Cd -28.253545 -1.299528 0.391153
Cd -30.426588 -0.044921 11.025913
Cd -28.253545 -1.299528 7.480993
Cd -30.426588 -0.044921 18.115753
Cd -28.253545 -1.299528 14.570833
Cd -28.253545 -1.299528 21.660673
Cd -13.042246 -22.627843 -24.423286
Cd -13.042246 -22.627843 -17.333446
Cd -10.869203 -23.882450 -20.878366
Cd -13.042246 -22.627843 -10.243606
Cd -10.869203 -23.882450 -13.788526
Cd -13.042246 -22.627843 -3.153767
Cd -10.869203 -23.882450 -6.698686
Cd -13.042246 -22.627843 3.936073
Cd -10.869203 -23.882450 0.391153
Cd -13.042246 -22.627843 11.025913
Cd -10.869203 -23.882450 7.480993
Cd -13.042246 -22.627843 18.115753
Cd -10.869203 -23.882450 14.570833
Cd -13.042246 -22.627843 25.205593
Cd -10.869203 -23.882450 21.660673
Cd -15.215289 -18.864023 -17.333446
Cd -13.042246 -20.118630 -20.878366
Cd -15.215289 -18.864023 -10.243606
Cd -13.042246 -20.118630 -13.788526
Cd -15.215289 -18.864023 -3.153767
Cd -13.042246 -20.118630 -6.698686
Cd -15.215289 -18.864023 3.936073
Cd -13.042246 -20.118630 0.391153
Cd -15.215289 -18.864023 11.025913
Cd -13.042246 -20.118630 7.480993
Cd -15.215289 -18.864023 18.115753
Cd -13.042246 -20.118630 14.570833
Cd -15.215289 -18.864023 25.205593
Cd -13.042246 -20.118630 21.660673
Cd -17.388332 -15.100202 -24.423286
Cd -17.388332 -15.100202 -17.333446
Cd -15.215289 -16.354809 -20.878366
Cd -17.388332 -15.100202 -10.243606
Cd -15.215289 -16.354809 -13.788526
Cd -17.388332 -15.100202 -3.153767
Cd -15.215289 -16.354809 -6.698686
Cd -17.388332 -15.100202 3.936073
Cd -15.215289 -16.354809 0.391153
Cd -17.388332 -15.100202 11.025913
Cd -15.215289 -16.354809 7.480993
Cd -17.388332 -15.100202 18.115753
Cd -15.215289 -16.354809 14.570833
Cd -17.388332 -15.100202 25.205593
Cd -15.215289 -16.354809 21.660673
Cd -19.561374 -11.336382 -24.423286
Cd -19.561374 -11.336382 -17.333446
Cd -17.388332 -12.590989 -20.878366
Cd -19.561374 -11.336382 -10.243606
Cd -17.388332 -12.590989 -13.788526
Cd -19.561374 -11.336382 -3.153767
Cd -17.388332 -12.590989 -6.698686
Cd -19.561374 -11.336382 3.936073
Cd -17.388332 -12.590989 0.391153
Cd -19.561374 -11.336382 11.025913
Cd -17.388332 -12.590989 7.480993
Cd -19.561374 -11.336382 18.115753
Cd -17.388332 -12.590989 14.570833
Cd -19.561374 -11.336382 25.205593
Cd -17.388332 -12.590989 21.660673
Cd -21.734417 -7.572562 -17.333446
Cd -19.561374 -8.827168 -20.878366
Cd -21.734417 -7.572562 -10.243606
Cd -19.561374 -8.827168 -13.788526
Cd -21.734417 -7.572562 -3.153767
Cd -19.561374 -8.827168 -6.698686
Cd -21.734417 -7.572562 3.936073
Cd -19.561374 -8.827168 0.391153
Cd -21.734417 -7.572562 11.025913
Cd -19.561374 -8.827168 7.480993
Cd -21.734417 -7.572562 18.115753
Cd -19.561374 -8.827168 14.570833
Cd -21.734417 -7.572562 25.205593
Cd -19.561374 -8.827168 21.660673
Cd -23.907460 -3.808741 -24.423286
Cd -23.907460 -3.808741 -17.333446
Cd -21.734417 -5.063348 -20.878366
Cd -23.907460 -3.808741 -10.243606
Cd -21.734417 -5.063348 -13.788526
Cd -23.907460 -3.808741 -3.153767
Cd -21.734417 -5.063348 -6.698686
Cd -23.907460 -3.808741 3.936073
Cd -21.734417 -5.063348 0.391153
Cd -23.907460 -3.808741 11.025913
Cd -21.734417 -5.063348 7.480993
Cd -23.907460 -3.808741 18.115753
Cd -21.734417 -5.063348 14.570833
Cd -23.907460 -3.808741 25.205593
Cd -21.734417 -5.063348 21.660673
Cd -26.080502 -0.044921 -24.423286
Cd -26.080502 -0.044921 -17.333446
Cd -23.907460 -1.299528 -20.878366
Cd -26.080502 -0.044921 -10.243606
Cd -23.907460 -1.299528 -13.788526
Cd -26.080502 -0.044921 -3.153767
Cd -23.907460 -1.299528 -6.698686
Cd -26.080502 -0.044921 3.936073
Cd -23.907460 -1.299528 0.391153
Cd -26.080502 -0.044921 11.025913
Cd -23.907460 -1.299528 7.480993
Cd -26.080502 -0.044921 18.115753
Cd -23.907460 -1.299528 14.570833
Cd -26.080502 -0.044921 25.205593
Cd -23.907460 -1.299528 21.660673
Cd -26.080502 2.464293 -20.878366
Cd -26.080502 2.464293 -13.788526
Cd -26.080502 2.464293 -6.698686
Cd -26.080502 2.464293 0.391153
Cd -26.080502 2.464293 7.480993
Cd -26.080502 2.464293 14.570833
Cd -26.080502 2.464293 21.660673
Cd -8.696161 -22.627843 -24.423286
Cd -8.696161 -22.627843 -17.333446
Cd -6.523118 -23.882450 -20.878366
Cd -8.696161 -22.627843 -10.243606
Cd -6.523118 -23.882450 -13.788526
Cd -8.696161 -22.627843 -3.153767
Cd -6.523118 -23.882450 -6.698686
Cd -8.696161 -22.627843 3.936073
Cd -6.523118 -23.882450 0.391153
Cd -8.696161 -22.627843 11.025913
Cd -6.523118 -23.882450 7.480993
Cd -8.696161 -22.627843 18.115753
Cd -6.523118 -23.882450 14.570833
Cd -8.696161 -22.627843 25.205593
Cd -6.523118 -23.882450 21.660673
Cd -10.869203 -18.864023 -24.423286
Cd -10.869203 -18.864023 -17.333446
Cd -8.696161 -20.118630 -20.878366
Cd -10.869203 -18.864023 -10.243606
Cd -8.696161 -20.118630 -13.788526
Cd -10.869203 -18.864023 -3.153767
Cd -8.696161 -20.118630 -6.698686
Cd -10.869203 -18.864023 3.936073
Cd -8.696161 -20.118630 0.391153
Cd -10.869203 -18.864023 11.025913
Cd -8.696161 -20.118630 7.480993
Cd -10.869203 -18.864023 18.115753
Cd -8.696161 -20.118630 14.570833
Cd -8.696161 -20.118630 21.660673
Cd -13.042246 -15.100202 -24.423286
Cd -13.042246 -15.100202 -17.333446
Cd -10.869203 -16.354809 -20.878366
Cd -13.042246 -15.100202 -10.243606
Cd -10.869203 -16.354809 -13.788526
Cd -13.042246 -15.100202 -3.153767
Cd -10.869203 -16.354809 -6.698686
Cd -13.042246 -15.100202 3.936073
Cd -10.869203 -16.354809 0.391153
Cd -13.042246 -15.100202 11.025913
Cd -10.869203 -16.354809 7.480993
Cd -13.042246 -15.100202 18.115753
Cd -10.869203 -16.354809 14.570833
Cd -13.042246 -15.100202 25.205593
Cd -10.869203 -16.354809 21.660673
Cd -15.215289 -11.336382 -17.333446
Cd -13.042246 -12.590989 -20.878366
Cd -15.215289 -11.336382 -10.243606
Cd -13.042246 -12.590989 -13.788526
Cd -15.215289 -11.336382 -3.153767
Cd -13.042246 -12.590989 -6.698686
Cd -15.215289 -11.336382 3.936073
Cd -13.042246 -12.590989 0.391153
Cd -15.215289 -11.336382 11.025913
Cd -13.042246 -12.590989 7.480993
Cd -15.215289 -11.336382 18.115753
Cd -13.042246 -12.590989 14.570833
Cd -15.215289 -11.336382 25.205593
Cd -13.042246 -12.590989 21.660673
Cd -17.388332 -7.572562 -24.423286
Cd -17.388332 -7.572562 -17.333446
Cd -15.215289 -8.827168 -20.878366
Cd -17.388332 -7.572562 -10.243606
Cd -15.215289 -8.827168 -13.788526
Cd -17.388332 -7.572562 -3.153767
Cd -15.215289 -8.827168 -6.698686
Cd -17.388332 -7.572562 3.936073
Cd -15.215289 -8.827168 0.391153
Cd -17.388332 -7.572562 11.025913
Cd -15.215289 -8.827168 7.480993
Cd -17.388332 -7.572562 18.115753
Cd -15.215289 -8.827168 14.570833
Cd -15.215289 -8.827168 21.660673
Cd -19.561374 -3.808741 -24.423286
Cd -19.561374 -3.808741 -17.333446
Cd -17.388332 -5.063348 -20.878366
Cd -19.561374 -3.808741 -10.243606
Cd -17.388332 -5.063348 -13.788526
Cd -19.561374 -3.808741 -3.153767
Cd -17.388332 -5.063348 -6.698686
Cd -19.561374 -3.808741 3.936073
Cd -17.388332 -5.063348 0.391153
Cd -19.561374 -3.808741 11.025913
Cd -17.388332 -5.063348 7.480993
Cd -19.561374 -3.808741 18.115753
Cd -17.388332 -5.063348 14.570833
Cd -19.561374 -3.808741 25.205593
Cd -17.388332 -5.063348 21.660673
Cd -21.734417 -0.044921 -17.333446
Cd -19.561374 -1.299528 -20.878366
Cd -21.734417 -0.044921 -10.243606
Cd -19.561374 -1.299528 -13.788526
Cd -21.734417 -0.044921 -3.153767
Cd -19.561374 -1.299528 -6.698686
Cd -21.734417 -0.044921 3.936073
Cd -19.561374 -1.299528 0.391153
Cd -21.734417 -0.044921 11.025913
Cd -19.561374 -1.299528 7.480993
Cd -21.734417 -0.044921 18.115753
Cd -19.561374 -1.299528 14.570833
Cd -21.734417 -0.044921 25.205593
Cd -19.561374 -1.299528 21.660673
Cd -23.907460 3.718899 -24.423286
Cd -23.907460 3.718899 -17.333446
Cd -21.734417 2.464293 -20.878366
Cd -23.907460 3.718899 -10.243606
Cd -21.734417 2.464293 -13.788526
Cd -23.907460 3.718899 -3.153767
Cd -21.734417 2.464293 -6.698686
Cd -23.907460 3.718899 3.936073
Cd -21.734417 2.464293 0.391153
Cd -23.907460 3.718899 11.025913
Cd -21.734417 2.464293 7.480993
Cd -23.907460 3.718899 18.115753
Cd -21.734417 2.464293 14.570833
Cd -23.907460 3.718899 25.205593
Cd -21.734417 2.464293 21.660673
Cd -23.907460 6.228113 -20.878366
Cd -23.907460 6.228113 -13.788526
Cd -23.907460 6.228113 -6.698686
Cd -23.907460 6.228113 0.391153
Cd -23.907460 6.228113 7.480993
Cd -23.907460 6.228113 14.570833
Cd -23.907460 6.228113 21.660673
Cd -4.350075 -22.627843 -24.423286
Cd -4.350075 -22.627843 -17.333446
Cd -2.177033 -23.882450 -20.878366
Cd -4.350075 -22.627843 -10.243606
Cd -2.177033 -23.882450 -13.788526
Cd -4.350075 -22.627843 -3.153767
Cd -2.177033 -23.882450 -6.698686
Cd -4.350075 -22.627843 3.936073
Cd -2.177033 -23.882450 0.391153
Cd -4.350075 -22.627843 11.025913
Cd -2.177033 -23.882450 7.480993
Cd -4.350075 -22.627843 18.115753
Cd -2.177033 -23.882450 14.570833
Cd -4.350075 -22.627843 25.205593
Cd -2.177033 -23.882450 21.660673
Cd -6.523118 -18.864023 -24.423286
Cd -6.523118 -18.864023 -17.333446
Cd -4.350075 -20.118630 -20.878366
Cd -6.523118 -18.864023 -10.243606
Cd -4.350075 -20.118630 -13.788526
Cd -6.523118 -18.864023 -3.153767
Cd -4.350075 -20.118630 -6.698686
Cd -6.523118 -18.864023 3.936073
Cd -4.350075 -20.118630 0.391153
Cd -6.523118 -18.864023 11.025913
Cd -4.350075 -20.118630 7.480993
Cd -6.523118 -18.864023 18.115753
Cd -4.350075 -20.118630 14.570833
Cd -6.523118 -18.864023 25.205593
Cd -4.350075 -20.118630 21.660673
Cd -8.696161 -15.100202 -17.333446
Cd -6.523118 -16.354809 -20.878366
Cd -8.696161 -15.100202 -10.243606
Cd -6.523118 -16.354809 -13.788526
Cd -8.696161 -15.100202 -3.153767
Cd -6.523118 -16.354809 -6.698686
Cd -8.696161 -15.100202 3.936073
Cd -6.523118 -16.354809 0.391153
Cd -8.696161 -15.100202 11.025913
Cd -6.523118 -16.354809 7.480993
Cd -8.696161 -15.100202 18.115753
Cd -6.523118 -16.354809 14.570833
Cd -8.696161 -15.100202 25.205593
Cd -6.523118 -16.354809 21.660673
Cd -10.869203 -11.336382 -24.423286
Cd -10.869203 -11.336382 -17.333446
Cd -8.696161 -12.590989 -20.878366
Cd -10.869203 -11.336382 -10.243606
Cd -8.696161 -12.590989 -13.788526
Cd -10.869203 -11.336382 -3.153767
Cd -8.696161 -12.590989 -6.698686
Cd -10.869203 -11.336382 3.936073
Cd -8.696161 -12.590989 0.391153
Cd -10.869203 -11.336382 11.025913
Cd -8.696161 -12.590989 7.480993
Cd -10.869203 -11.336382 18.115753
Cd -8.696161 -12.590989 14.570833
Cd -8.696161 -12.590989 21.660673
Cd -13.042246 -7.572562 -24.423286
Cd -13.042246 -7.572562 -17.333446
Cd -10.869203 -8.827168 -20.878366
Cd -13.042246 -7.572562 -10.243606
Cd -10.869203 -8.827168 -13.788526
Cd -13.042246 -7.572562 -3.153767
Cd -10.869203 -8.827168 -6.698686
Cd -13.042246 -7.572562 3.936073
Cd -10.869203 -8.827168 0.391153
Cd -13.042246 -7.572562 11.025913
Cd -10.869203 -8.827168 7.480993
Cd -13.042246 -7.572562 18.115753
Cd -10.869203 -8.827168 14.570833
Cd -13.042246 -7.572562 25.205593
Cd -10.869203 -8.827168 21.660673
Cd -15.215289 -3.808741 -17.333446
Cd -13.042246 -5.063348 -20.878366
Cd -15.215289 -3.808741 -10.243606
Cd -13.042246 -5.063348 -13.788526
Cd -15.215289 -3.808741 -3.153767
Cd -13.042246 -5.063348 -6.698686
Cd -15.215289 -3.808741 3.936073
Cd -13.042246 -5.063348 0.391153
Cd -15.215289 -3.808741 11.025913
Cd -13.042246 -5.063348 7.480993
Cd -15.215289 -3.808741 18.115753
Cd -13.042246 -5.063348 14.570833
Cd -15.215289 -3.808741 25.205593
Cd -13.042246 -5.063348 21.660673
Cd -17.388332 -0.044921 -24.423286
Cd -17.388332 -0.044921 -17.333446
Cd -15.215289 -1.299528 -20.878366
Cd -17.388332 -0.044921 -10.243606
Cd -15.215289 -1.299528 -13.788526
Cd -17.388332 -0.044921 -3.153767
Cd -15.215289 -1.299528 -6.698686
Cd -17.388332 -0.044921 3.936073
Cd -15.215289 -1.299528 0.391153
Cd -17.388332 -0.044921 11.025913
Cd -15.215289 -1.299528 7.480993
Cd -17.388332 -0.044921 18.115753
Cd -15.215289 -1.299528 14.570833
Cd -15.215289 -1.299528 21.660673
Cd -19.561374 3.718899 -24.423286
Cd -19.561374 3.718899 -17.333446
Cd -17.388332 2.464293 -20.878366
Cd -19.561374 3.718899 -10.243606
Cd -17.388332 2.464293 -13.788526
Cd -19.561374 3.718899 -3.153767
Cd -17.388332 2.464293 -6.698686
Cd -19.561374 3.718899 3.936073
Cd -17.388332 2.464293 0.391153
Cd -19.561374 3.718899 11.025913
Cd -17.388332 2.464293 7.480993
Cd -19.561374 3.718899 18.115753
Cd -17.388332 2.464293 14.570833
Cd -19.561374 3.718899 25.205593
Cd -17.388332 2.464293 21.660673
Cd -21.734417 7.482720 -24.423286
Cd -21.734417 7.482720 -17.333446
Cd -19.561374 6.228113 -20.878366
Cd -21.734417 7.482720 -10.243606
Cd -19.561374 6.228113 -13.788526
Cd -21.734417 7.482720 -3.153767
Cd -19.561374 6.228113 -6.698686
Cd -21.734417 7.482720 3.936073
Cd -19.561374 6.228113 0.391153
Cd -21.734417 7.482720 11.025913
Cd -19.561374 6.228113 7.480993
Cd -21.734417 7.482720 18.115753
Cd -19.561374 6.228113 14.570833
Cd -21.734417 7.482720 25.205593
Cd -19.561374 6.228113 21.660673
Cd -21.734417 9.991933 -20.878366
Cd -21.734417 9.991933 -13.788526
Cd -21.734417 9.991933 -6.698686
Cd -21.734417 9.991933 0.391153
Cd -21.734417 9.991933 7.480993
Cd -21.734417 9.991933 14.570833
Cd -21.734417 9.991933 21.660673
Cd -0.003990 -22.627843 -24.423286
Cd -0.003990 -22.627843 -17.333446
Cd 2.169053 -23.882450 -20.878366
Cd -0.003990 -22.627843 -10.243606
Cd 2.169053 -23.882450 -13.788526
Cd -0.003990 -22.627843 -3.153767
Cd 2.169053 -23.882450 -6.698686
Cd -0.003990 -22.627843 3.936073
Cd 2.169053 -23.882450 0.391153
Cd -0.003990 -22.627843 11.025913
Cd 2.169053 -23.882450 7.480993
Cd -0.003990 -22.627843 18.115753
Cd 2.169053 -23.882450 14.570833
Cd -0.003990 -22.627843 25.205593
Cd 2.169053 -23.882450 21.660673
Cd -2.177033 -18.864023 -17.333446
Cd -0.003990 -20.118630 -20.878366
Cd -2.177033 -18.864023 -10.243606
Cd -0.003990 -20.118630 -13.788526
Cd -2.177033 -18.864023 -3.153767
Cd -0.003990 -20.118630 -6.698686
Cd -2.177033 -18.864023 3.936073
Cd -0.003990 -20.118630 0.391153
Cd -2.177033 -18.864023 11.025913
Cd -0.003990 -20.118630 7.480993
Cd -2.177033 -18.864023 18.115753
Cd -0.003990 -20.118630 14.570833
Cd -2.177033 -18.864023 25.205593
Cd -0.003990 -20.118630 21.660673
Cd -4.350075 -15.100202 -24.423286
Cd -4.350075 -15.100202 -17.333446
Cd -2.177033 -16.354809 -20.878366
Cd -4.350075 -15.100202 -10.243606
Cd -2.177033 -16.354809 -13.788526
Cd -4.350075 -15.100202 -3.153767
Cd -2.177033 -16.354809 -6.698686
Cd -4.350075 -15.100202 3.936073
Cd -2.177033 -16.354809 0.391153
Cd -4.350075 -15.100202 11.025913
Cd -2.177033 -16.354809 7.480993
Cd -4.350075 -15.100202 18.115753
Cd -2.177033 -16.354809 14.570833
Cd -2.177033 -16.354809 21.660673
Cd -6.523118 -11.336382 -24.423286
Cd -6.523118 -11.336382 -17.333446
Cd -4.350075 -12.590989 -20.878366
Cd -6.523118 -11.336382 -10.243606
Cd -4.350075 -12.590989 -13.788526
Cd -6.523118 -11.336382 -3.153767
Cd -4.350075 -12.590989 -6.698686
Cd -6.523118 -11.336382 3.936073
Cd -4.350075 -12.590989 0.391153
Cd -6.523118 -11.336382 11.025913
Cd -4.350075 -12.590989 7.480993
Cd -6.523118 -11.336382 18.115753
Cd -4.350075 -12.590989 14.570833
Cd -6.523118 -11.336382 25.205593
Cd -4.350075 -12.590989 21.660673
Cd -8.696161 -7.572562 -17.333446
Cd -6.523118 -8.827168 -20.878366
Cd -8.696161 -7.572562 -10.243606
Cd -6.523118 -8.827168 -13.788526
Cd -8.696161 -7.572562 -3.153767
Cd -6.523118 -8.827168 -6.698686
Cd -8.696161 -7.572562 3.936073
Cd -6.523118 -8.827168 0.391153
Cd -8.696161 -7.572562 11.025913
Cd -6.523118 -8.827168 7.480993
Cd -8.696161 -7.572562 18.115753
Cd -6.523118 -8.827168 14.570833
Cd -8.696161 -7.572562 25.205593
Cd -6.523118 -8.827168 21.660673
Cd -10.869203 -3.808741 -24.423286
Cd -10.869203 -3.808741 -17.333446
Cd -8.696161 -5.063348 -20.878366
Cd -10.869203 -3.808741 -10.243606
Cd -8.696161 -5.063348 -13.788526
Cd -10.869203 -3.808741 -3.153767
Cd -8.696161 -5.063348 -6.698686
Cd -10.869203 -3.808741 3.936073
Cd -8.696161 -5.063348 0.391153
Cd -10.869203 -3.808741 11.025913
Cd -8.696161 -5.063348 7.480993
Cd -10.869203 -3.808741 18.115753
Cd -8.696161 -5.063348 14.570833
Cd -10.869203 -3.808741 25.205593
Cd -8.696161 -5.063348 21.660673
Cd -13.042246 -0.044921 -24.423286
Cd -13.042246 -0.044921 -17.333446
Cd -10.869203 -1.299528 -20.878366
Cd -13.042246 -0.044921 -10.243606
Cd -10.869203 -1.299528 -13.788526
Cd -13.042246 -0.044921 -3.153767
Cd -10.869203 -1.299528 -6.698686
Cd -13.042246 -0.044921 3.936073
Cd -10.869203 -1.299528 0.391153
Cd -13.042246 -0.044921 11.025913
Cd -10.869203 -1.299528 7.480993
Cd -13.042246 -0.044921 18.115753
Cd -10.869203 -1.299528 14.570833
Cd -13.042246 -0.044921 25.205593
Cd -10.869203 -1.299528 21.660673
Cd -15.215289 3.718899 -17.333446
Cd -13.042246 2.464293 -20.878366
Cd -15.215289 3.718899 -10.243606
Cd -13.042246 2.464293 -13.788526
Cd -15.215289 3.718899 -3.153767
Cd -13.042246 2.464293 -6.698686
Cd -15.215289 3.718899 3.936073
Cd -13.042246 2.464293 0.391153
Cd -15.215289 3.718899 11.025913
Cd -13.042246 2.464293 7.480993
Cd -15.215289 3.718899 18.115753
Cd -13.042246 2.464293 14.570833
Cd -15.215289 3.718899 25.205593
Cd -13.042246 2.464293 21.660673
Cd -17.388332 7.482720 -24.423286
Cd -17.388332 7.482720 -17.333446
Cd -15.215289 6.228113 -20.878366
Cd -17.388332 7.482720 -10.243606
Cd -15.215289 6.228113 -13.788526
Cd -17.388332 7.482720 -3.153767
Cd -15.215289 6.228113 -6.698686
Cd -17.388332 7.482720 3.936073
Cd -15.215289 6.228113 0.391153
Cd -17.388332 7.482720 11.025913
Cd -15.215289 6.228113 7.480993
Cd -17.388332 7.482720 18.115753
Cd -15.215289 6.228113 14.570833
Cd -15.215289 6.228113 21.660673
Cd -19.561374 11.246540 -24.423286
Cd -19.561374 11.246540 -17.333446
Cd -17.388332 9.991933 -20.878366
Cd -19.561374 11.246540 -10.243606
Cd -17.388332 9.991933 -13.788526
Cd -19.561374 11.246540 -3.153767
Cd -17.388332 9.991933 -6.698686
Cd -19.561374 11.246540 3.936073
Cd -17.388332 9.991933 0.391153
Cd -19.561374 11.246540 11.025913
Cd -17.388332 9.991933 7.480993
Cd -19.561374 11.246540 18.115753
Cd -17.388332 9.991933 14.570833
Cd -19.561374 11.246540 25.205593
Cd -17.388332 9.991933 21.660673
Cd -19.561374 13.755754 -20.878366
Cd -19.561374 13.755754 -13.788526
Cd -19.561374 13.755754 -6.698686
Cd -19.561374 13.755754 0.391153
Cd -19.561374 13.755754 7.480993
Cd -19.561374 13.755754 14.570833
Cd -19.561374 13.755754 21.660673
Cd 4.342095 -22.627843 -24.423286
Cd 4.342095 -22.627843 -17.333446
Cd 6.515138 -23.882450 -20.878366
Cd 4.342095 -22.627843 -10.243606
Cd 6.515138 -23.882450 -13.788526
Cd 4.342095 -22.627843 -3.153767
Cd 6.515138 -23.882450 -6.698686
Cd 4.342095 -22.627843 3.936073
Cd 6.515138 -23.882450 0.391153
Cd 4.342095 -22.627843 11.025913
Cd 6.515138 -23.882450 7.480993
Cd 4.342095 -22.627843 18.115753
Cd 6.515138 -23.882450 14.570833
Cd 4.342095 -22.627843 25.205593
Cd 6.515138 -23.882450 21.660673
Cd 2.169053 -18.864023 -24.423286
Cd 2.169053 -18.864023 -17.333446
Cd 4.342095 -20.118630 -20.878366
Cd 2.169053 -18.864023 -10.243606
Cd 4.342095 -20.118630 -13.788526
Cd 2.169053 -18.864023 -3.153767
Cd 4.342095 -20.118630 -6.698686
Cd 2.169053 -18.864023 3.936073
Cd 4.342095 -20.118630 0.391153
Cd 2.169053 -18.864023 11.025913
Cd 4.342095 -20.118630 7.480993
Cd 2.169053 -18.864023 18.115753
Cd 4.342095 -20.118630 14.570833
Cd 4.342095 -20.118630 21.660673
Cd -0.003990 -15.100202 -24.423286
Cd -0.003990 -15.100202 -17.333446
Cd 2.169053 -16.354809 -20.878366
Cd -0.003990 -15.100202 -10.243606
Cd 2.169053 -16.354809 -13.788526
Cd -0.003990 -15.100202 -3.153767
Cd 2.169053 -16.354809 -6.698686
Cd -0.003990 -15.100202 3.936073
Cd 2.169053 -16.354809 0.391153
Cd -0.003990 -15.100202 11.025913
Cd 2.169053 -16.354809 7.480993
Cd -0.003990 -15.100202 18.115753
Cd 2.169053 -16.354809 14.570833
Cd -0.003990 -15.100202 25.205593
Cd 2.169053 -16.354809 21.660673
Cd -2.177033 -11.336382 -17.333446
Cd -0.003990 -12.590989 -20.878366
Cd -2.177033 -11.336382 -10.243606
Cd -0.003990 -12.590989 -13.788526
Cd -2.177033 -11.336382 -3.153767
Cd -0.003990 -12.590989 -6.698686
Cd -2.177033 -11.336382 3.936073
Cd -0.003990 -12.590989 0.391153
Cd -2.177033 -11.336382 11.025913
Cd -0.003990 -12.590989 7.480993
Cd -2.177033 -11.336382 18.115753
Cd -0.003990 -12.590989 14.570833
Cd -2.177033 -11.336382 25.205593
Cd -0.003990 -12.590989 21.660673
Cd -4.350075 -7.572562 -24.423286
Cd -4.350075 -7.572562 -17.333446
Cd -2.177033 -8.827168 -20.878366
Cd -4.350075 -7.572562 -10.243606
Cd -2.177033 -8.827168 -13.788526
Cd -4.350075 -7.572562 -3.153767
Cd -2.177033 -8.827168 -6.698686
Cd -4.350075 -7.572562 3.936073
Cd -2.177033 -8.827168 0.391153
Cd -4.350075 -7.572562 11.025913
Cd -2.177033 -8.827168 7.480993
Cd -4.350075 -7.572562 18.115753
Cd -2.177033 -8.827168 14.570833
Cd -2.177033 -8.827168 21.660673
Cd -6.523118 -3.808741 -24.423286
Cd -6.523118 -3.808741 -17.333446
Cd -4.350075 -5.063348 -20.878366
Cd -6.523118 -3.808741 -10.243606
Cd -4.350075 -5.063348 -13.788526
Cd -6.523118 -3.808741 -3.153767
Cd -4.350075 -5.063348 -6.698686
Cd -6.523118 -3.808741 3.936073
Cd -4.350075 -5.063348 0.391153
Cd -6.523118 -3.808741 11.025913
Cd -4.350075 -5.063348 7.480993
Cd -6.523118 -3.808741 18.115753
Cd -4.350075 -5.063348 14.570833
Cd -6.523118 -3.808741 25.205593
Cd -4.350075 -5.063348 21.660673
Cd -8.696161 -0.044921 -17.333446
Cd -6.523118 -1.299528 -20.878366
Cd -8.696161 -0.044921 -10.243606
Cd -6.523118 -1.299528 -13.788526
Cd -8.696161 -0.044921 -3.153767
Cd -6.523118 -1.299528 -6.698686
Cd -8.696161 -0.044921 3.936073
Cd -6.523118 -1.299528 0.391153
Cd -8.696161 -0.044921 11.025913
Cd -6.523118 -1.299528 7.480993
Cd -8.696161 -0.044921 18.115753
Cd -6.523118 -1.299528 14.570833
Cd -8.696161 -0.044921 25.205593
Cd -6.523118 -1.299528 21.660673
Cd -10.869203 3.718899 -24.423286
Cd -10.869203 3.718899 -17.333446
Cd -8.696161 2.464293 -20.878366
Cd -10.869203 3.718899 -10.243606
Cd -8.696161 2.464293 -13.788526
Cd -10.869203 3.718899 -3.153767
Cd -8.696161 2.464293 -6.698686
Cd -10.869203 3.718899 3.936073
Cd -8.696161 2.464293 0.391153
Cd -10.869203 3.718899 11.025913
Cd -8.696161 2.464293 7.480993
Cd -10.869203 3.718899 18.115753
Cd -8.696161 2.464293 14.570833
Cd -10.869203 3.718899 25.205593
Cd -8.696161 2.464293 21.660673
Cd -13.042246 7.482720 -24.423286
Cd -13.042246 7.482720 -17.333446
Cd -10.869203 6.228113 -20.878366
Cd -13.042246 7.482720 -10.243606
Cd -10.869203 6.228113 -13.788526
Cd -13.042246 7.482720 -3.153767
Cd -10.869203 6.228113 -6.698686
Cd -13.042246 7.482720 3.936073
Cd -10.869203 6.228113 0.391153
Cd -13.042246 7.482720 11.025913
Cd -10.869203 6.228113 7.480993
Cd -13.042246 7.482720 18.115753
Cd -10.869203 6.228113 14.570833
Cd -13.042246 7.482720 25.205593
Cd -10.869203 6.228113 21.660673
Cd -15.215289 11.246540 -17.333446
Cd -13.042246 9.991933 -20.878366
Cd -15.215289 11.246540 -10.243606
Cd -13.042246 9.991933 -13.788526
Cd -15.215289 11.246540 -3.153767
Cd -13.042246 9.991933 -6.698686
Cd -15.215289 11.246540 3.936073
Cd -13.042246 9.991933 0.391153
Cd -15.215289 11.246540 11.025913
Cd -13.042246 9.991933 7.480993
Cd -15.215289 11.246540 18.115753
Cd -13.042246 9.991933 14.570833
Cd -15.215289 11.246540 25.205593
Cd -13.042246 9.991933 21.660673
Cd -17.388332 15.010360 -24.423286
Cd -17.388332 15.010360 -17.333446
Cd -15.215289 13.755754 -20.878366
Cd -17.388332 15.010360 -10.243606
Cd -15.215289 13.755754 -13.788526
Cd -17.388332 15.010360 -3.153767
Cd -15.215289 13.755754 -6.698686
Cd -17.388332 15.010360 3.936073
Cd -15.215289 13.755754 0.391153
Cd -17.388332 15.010360 11.025913
Cd -15.215289 13.755754 7.480993
Cd -17.388332 15.010360 18.115753
Cd -15.215289 13.755754 14.570833
Cd -17.388332 15.010360 25.205593
Cd -15.215289 13.755754 21.660673
Cd -17.388332 17.519574 -20.878366
Cd -17.388332 17.519574 -13.788526
Cd -17.388332 17.519574 -6.698686
Cd -17.388332 17.519574 0.391153
Cd -17.388332 17.519574 7.480993
Cd -17.388332 17.519574 14.570833
Cd -17.388332 17.519574 21.660673
Cd 8.688181 -22.627843 -24.423286
Cd 8.688181 -22.627843 -17.333446
Cd 10.861223 -23.882450 -20.878366
Cd 8.688181 -22.627843 -10.243606
Cd 10.861223 -23.882450 -13.788526
Cd 8.688181 -22.627843 -3.153767
Cd 10.861223 -23.882450 -6.698686
Cd 8.688181 -22.627843 3.936073
Cd 10.861223 -23.882450 0.391153
Cd 8.688181 -22.627843 11.025913
Cd 10.861223 -23.882450 7.480993
Cd 8.688181 -22.627843 18.115753
Cd 10.861223 -23.882450 14.570833
Cd 8.688181 -22.627843 25.205593
Cd 10.861223 -23.882450 21.660673
Cd 6.515138 -18.864023 -24.423286
Cd 6.515138 -18.864023 -17.333446
Cd 8.688181 -20.118630 -20.878366
Cd 6.515138 -18.864023 -10.243606
Cd 8.688181 -20.118630 -13.788526
Cd 6.515138 -18.864023 -3.153767
Cd 8.688181 -20.118630 -6.698686
Cd 6.515138 -18.864023 3.936073
Cd 8.688181 -20.118630 0.391153
Cd 6.515138 -18.864023 11.025913
Cd 8.688181 -20.118630 7.480993
Cd 6.515138 -18.864023 18.115753
Cd 8.688181 -20.118630 14.570833
Cd 6.515138 -18.864023 25.205593
Cd 8.688181 -20.118630 21.660673
Cd 4.342095 -15.100202 -17.333446
Cd 6.515138 -16.354809 -20.878366
Cd 4.342095 -15.100202 -10.243606
Cd 6.515138 -16.354809 -13.788526
Cd 4.342095 -15.100202 -3.153767
Cd 6.515138 -16.354809 -6.698686
Cd 4.342095 -15.100202 3.936073
Cd 6.515138 -16.354809 0.391153
Cd 4.342095 -15.100202 11.025913
Cd 6.515138 -16.354809 7.480993
Cd 4.342095 -15.100202 18.115753
Cd 6.515138 -16.354809 14.570833
Cd 4.342095 -15.100202 25.205593
Cd 6.515138 -16.354809 21.660673
Cd 2.169053 -11.336382 -24.423286
Cd 2.169053 -11.336382 -17.333446
Cd 4.342095 -12.590989 -20.878366
Cd 2.169053 -11.336382 -10.243606
Cd 4.342095 -12.590989 -13.788526
Cd 2.169053 -11.336382 -3.153767
Cd 4.342095 -12.590989 -6.698686
Cd 2.169053 -11.336382 3.936073
Cd 4.342095 -12.590989 0.391153
Cd 2.169053 -11.336382 11.025913
Cd 4.342095 -12.590989 7.480993
Cd 2.169053 -11.336382 18.115753
Cd 4.342095 -12.590989 14.570833
Cd 2.169053 -11.336382 25.205593
Cd 4.342095 -12.590989 21.660673
Cd -0.003990 -7.572562 -24.423286
Cd -0.003990 -7.572562 -17.333446
Cd 2.169053 -8.827168 -20.878366
Cd -0.003990 -7.572562 -10.243606
Cd 2.169053 -8.827168 -13.788526
Cd -0.003990 -7.572562 -3.153767
Cd 2.169053 -8.827168 -6.698686
Cd -0.003990 -7.572562 3.936073
Cd 2.169053 -8.827168 0.391153
Cd -0.003990 -7.572562 11.025913
Cd 2.169053 -8.827168 7.480993
Cd -0.003990 -7.572562 18.115753
Cd 2.169053 -8.827168 14.570833
Cd -0.003990 -7.572562 25.205593
Cd 2.169053 -8.827168 21.660673
Cd -2.177033 -3.808741 -17.333446
Cd -0.003990 -5.063348 -20.878366
Cd -2.177033 -3.808741 -10.243606
Cd -0.003990 -5.063348 -13.788526
Cd -2.177033 -3.808741 -3.153767
Cd -0.003990 -5.063348 -6.698686
Cd -2.177033 -3.808741 3.936073
Cd -0.003990 -5.063348 0.391153
Cd -2.177033 -3.808741 11.025913
Cd -0.003990 -5.063348 7.480993
Cd -2.177033 -3.808741 18.115753
Cd -0.003990 -5.063348 14.570833
Cd -2.177033 -3.808741 25.205593
Cd -0.003990 -5.063348 21.660673
Cd -4.350075 -0.044921 -24.423286
Cd -4.350075 -0.044921 -17.333446
Cd -2.177033 -1.299528 -20.878366
Cd -4.350075 -0.044921 -10.243606
Cd -2.177033 -1.299528 -13.788526
Cd -4.350075 -0.044921 -3.153767
Cd -2.177033 -1.299528 -6.698686
Cd -4.350075 -0.044921 3.936073
Cd -2.177033 -1.299528 0.391153
Cd -4.350075 -0.044921 11.025913
Cd -2.177033 -1.299528 7.480993
Cd -4.350075 -0.044921 18.115753
Cd -2.177033 -1.299528 14.570833
Cd -4.350075 -0.044921 25.205593
Cd -2.177033 -1.299528 21.660673
Cd -6.523118 3.718899 -24.423286
Cd -6.523118 3.718899 -17.333446
Cd -4.350075 2.464293 -20.878366
Cd -6.523118 3.718899 -10.243606
Cd -4.350075 2.464293 -13.788526
Cd -6.523118 3.718899 -3.153767
Cd -4.350075 2.464293 -6.698686
Cd -6.523118 3.718899 3.936073
Cd -4.350075 2.464293 0.391153
Cd -6.523118 3.718899 11.025913
Cd -4.350075 2.464293 7.480993
Cd -6.523118 3.718899 18.115753
Cd -4.350075 2.464293 14.570833
Cd -6.523118 3.718899 25.205593
Cd -4.350075 2.464293 21.660673
Cd -8.696161 7.482720 -17.333446
Cd -6.523118 6.228113 -20.878366
Cd -8.696161 7.482720 -10.243606
Cd -6.523118 6.228113 -13.788526
Cd -8.696161 7.482720 -3.153767
Cd -6.523118 6.228113 -6.698686
Cd -8.696161 7.482720 3.936073
Cd -6.523118 6.228113 0.391153
Cd -8.696161 7.482720 11.025913
Cd -6.523118 6.228113 7.480993
Cd -8.696161 7.482720 18.115753
Cd -6.523118 6.228113 14.570833
Cd -8.696161 7.482720 25.205593
Cd -6.523118 6.228113 21.660673
Cd -10.869203 11.246540 -24.423286
Cd -10.869203 11.246540 -17.333446
Cd -8.696161 9.991933 -20.878366
Cd -10.869203 11.246540 -10.243606
Cd -8.696161 9.991933 -13.788526
Cd -10.869203 11.246540 -3.153767
Cd -8.696161 9.991933 -6.698686
Cd -10.869203 11.246540 3.936073
Cd -8.696161 9.991933 0.391153
Cd -10.869203 11.246540 11.025913
Cd -8.696161 9.991933 7.480993
Cd -10.869203 11.246540 18.115753
Cd -8.696161 9.991933 14.570833
Cd -8.696161 9.991933 21.660673
Cd -13.042246 15.010360 -24.423286
Cd -13.042246 15.010360 -17.333446
Cd -10.869203 13.755754 -20.878366
Cd -13.042246 15.010360 -10.243606
Cd -10.869203 13.755754 -13.788526
Cd -13.042246 15.010360 -3.153767
Cd -10.869203 13.755754 -6.698686
Cd -13.042246 15.010360 3.936073
Cd -10.869203 13.755754 0.391153
Cd -13.042246 15.010360 11.025913
Cd -10.869203 13.755754 7.480993
Cd -13.042246 15.010360 18.115753
Cd -10.869203 13.755754 14.570833
Cd -13.042246 15.010360 25.205593
Cd -10.869203 13.755754 21.660673
Cd -15.215289 18.774181 -24.423286
Cd -15.215289 18.774181 -17.333446
Cd -13.042246 17.519574 -20.878366
Cd -15.215289 18.774181 -10.243606
Cd -13.042246 17.519574 -13.788526
Cd -15.215289 18.774181 -3.153767
Cd -13.042246 17.519574 -6.698686
Cd -15.215289 18.774181 3.936073
Cd -13.042246 17.519574 0.391153
Cd -15.215289 18.774181 11.025913
Cd -13.042246 17.519574 7.480993
Cd -15.215289 18.774181 18.115753
Cd -13.042246 17.519574 14.570833
Cd -15.215289 18.774181 25.205593
Cd -13.042246 17.519574 21.660673
Cd -15.215289 21.283394 -20.878366
Cd -15.215289 21.283394 -13.788526
Cd -15.215289 21.283394 -6.698686
Cd -15.215289 21.283394 0.391153
Cd -15.215289 21.283394 7.480993
Cd -15.215289 21.283394 14.570833
Cd -15.215289 21.283394 21.660673
Cd 13.034266 -22.627843 -24.423286
Cd 13.034266 -22.627843 -17.333446
Cd 15.207309 -23.882450 -20.878366
Cd 13.034266 -22.627843 -10.243606
Cd 15.207309 -23.882450 -13.788526
Cd 13.034266 -22.627843 -3.153767
Cd 15.207309 -23.882450 -6.698686
Cd 13.034266 -22.627843 3.936073
Cd 15.207309 -23.882450 0.391153
Cd 13.034266 -22.627843 11.025913
Cd 15.207309 -23.882450 7.480993
Cd 13.034266 -22.627843 18.115753
Cd 15.207309 -23.882450 14.570833
Cd 13.034266 -22.627843 25.205593
Cd 15.207309 -23.882450 21.660673
Cd 10.861223 -18.864023 -17.333446
Cd 13.034266 -20.118630 -20.878366
Cd 10.861223 -18.864023 -10.243606
Cd 13.034266 -20.118630 -13.788526
Cd 10.861223 -18.864023 -3.153767
Cd 13.034266 -20.118630 -6.698686
Cd 10.861223 -18.864023 3.936073
Cd 13.034266 -20.118630 0.391153
Cd 10.861223 -18.864023 11.025913
Cd 13.034266 -20.118630 7.480993
Cd 10.861223 -18.864023 18.115753
Cd 13.034266 -20.118630 14.570833
Cd 10.861223 -18.864023 25.205593
Cd 13.034266 -20.118630 21.660673
Cd 8.688181 -15.100202 -24.423286
Cd 8.688181 -15.100202 -17.333446
Cd 10.861223 -16.354809 -20.878366
Cd 8.688181 -15.100202 -10.243606
Cd 10.861223 -16.354809 -13.788526
Cd 8.688181 -15.100202 -3.153767
Cd 10.861223 -16.354809 -6.698686
Cd 8.688181 -15.100202 3.936073
Cd 10.861223 -16.354809 0.391153
Cd 8.688181 -15.100202 11.025913
Cd 10.861223 -16.354809 7.480993
Cd 8.688181 -15.100202 18.115753
Cd 10.861223 -16.354809 14.570833
Cd 10.861223 -16.354809 21.660673
Cd 6.515138 -11.336382 -24.423286
Cd 6.515138 -11.336382 -17.333446
Cd 8.688181 -12.590989 -20.878366
Cd 6.515138 -11.336382 -10.243606
Cd 8.688181 -12.590989 -13.788526
Cd 6.515138 -11.336382 -3.153767
Cd 8.688181 -12.590989 -6.698686
Cd 6.515138 -11.336382 3.936073
Cd 8.688181 -12.590989 0.391153
Cd 6.515138 -11.336382 11.025913
Cd 8.688181 -12.590989 7.480993
Cd 6.515138 -11.336382 18.115753
Cd 8.688181 -12.590989 14.570833
Cd 6.515138 -11.336382 25.205593
Cd 8.688181 -12.590989 21.660673
Cd 4.342095 -7.572562 -17.333446
Cd 6.515138 -8.827168 -20.878366
Cd 4.342095 -7.572562 -10.243606
Cd 6.515138 -8.827168 -13.788526
Cd 4.342095 -7.572562 -3.153767
Cd 6.515138 -8.827168 -6.698686
Cd 4.342095 -7.572562 3.936073
Cd 6.515138 -8.827168 0.391153
Cd 4.342095 -7.572562 11.025913
Cd 6.515138 -8.827168 7.480993
Cd 4.342095 -7.572562 18.115753
Cd 6.515138 -8.827168 14.570833
Cd 4.342095 -7.572562 25.205593
Cd 6.515138 -8.827168 21.660673
Cd 2.169053 -3.808741 -24.423286
Cd 2.169053 -3.808741 -17.333446
Cd 4.342095 -5.063348 -20.878366
Cd 2.169053 -3.808741 -10.243606
Cd 4.342095 -5.063348 -13.788526
Cd 2.169053 -3.808741 -3.153767
Cd 4.342095 -5.063348 -6.698686
Cd 2.169053 -3.808741 3.936073
Cd 4.342095 -5.063348 0.391153
Cd 2.169053 -3.808741 11.025913
Cd 4.342095 -5.063348 7.480993
Cd 2.169053 -3.808741 18.115753
Cd 4.342095 -5.063348 14.570833
Cd 2.169053 -3.808741 25.205593
Cd 4.342095 -5.063348 21.660673
Cd -0.003990 -0.044921 -24.423286
Cd -0.003990 -0.044921 -17.333446
Cd 2.169053 -1.299528 -20.878366
Cd -0.003990 -0.044921 -10.243606
Cd 2.169053 -1.299528 -13.788526
Cd -0.003990 -0.044921 -3.153767
Cd 2.169053 -1.299528 -6.698686
Cd -0.003990 -0.044921 3.936073
Cd 2.169053 -1.299528 0.391153
Cd -0.003990 -0.044921 11.025913
Cd 2.169053 -1.299528 7.480993
Cd -0.003990 -0.044921 18.115753
Cd 2.169053 -1.299528 14.570833
Cd -0.003990 -0.044921 25.205593
Cd 2.169053 -1.299528 21.660673
Cd -2.177033 3.718899 -17.333446
Cd -0.003990 2.464293 -20.878366
Cd -2.177033 3.718899 -10.243606
Cd -0.003990 2.464293 -13.788526
Cd -2.177033 3.718899 -3.153767
Cd -0.003990 2.464293 -6.698686
Cd -2.177033 3.718899 3.936073
Cd -0.003990 2.464293 0.391153
Cd -2.177033 3.718899 11.025913
Cd -0.003990 2.464293 7.480993
Cd -2.177033 3.718899 18.115753
Cd -0.003990 2.464293 14.570833
Cd -2.177033 3.718899 25.205593
Cd -0.003990 2.464293 21.660673
Cd -4.350075 7.482720 -24.423286
Cd -4.350075 7.482720 -17.333446
Cd -2.177033 6.228113 -20.878366
Cd -4.350075 7.482720 -10.243606
Cd -2.177033 6.228113 -13.788526
Cd -4.350075 7.482720 -3.153767
Cd -2.177033 6.228113 -6.698686
Cd -4.350075 7.482720 3.936073
Cd -2.177033 6.228113 0.391153
Cd -4.350075 7.482720 11.025913
Cd -2.177033 6.228113 7.480993
Cd -4.350075 7.482720 18.115753
Cd -2.177033 6.228113 14.570833
Cd -4.350075 7.482720 25.205593
Cd -2.177033 6.228113 21.660673
Cd -6.523118 11.246540 -24.423286
Cd -6.523118 11.246540 -17.333446
Cd -4.350075 9.991933 -20.878366
Cd -6.523118 11.246540 -10.243606
Cd -4.350075 9.991933 -13.788526
Cd -6.523118 11.246540 -3.153767
Cd -4.350075 9.991933 -6.698686
Cd -6.523118 11.246540 3.936073
Cd -4.350075 9.991933 0.391153
Cd -6.523118 11.246540 11.025913
Cd -4.350075 9.991933 7.480993
Cd -6.523118 11.246540 18.115753
Cd -4.350075 9.991933 14.570833
Cd -6.523118 11.246540 25.205593
Cd -4.350075 9.991933 21.660673
Cd -8.696161 15.010360 -17.333446
Cd -6.523118 13.755754 -20.878366
Cd -8.696161 15.010360 -10.243606
Cd -6.523118 13.755754 -13.788526
Cd -8.696161 15.010360 -3.153767
Cd -6.523118 13.755754 -6.698686
Cd -8.696161 15.010360 3.936073
Cd -6.523118 13.755754 0.391153
Cd -8.696161 15.010360 11.025913
Cd -6.523118 13.755754 7.480993
Cd -8.696161 15.010360 18.115753
Cd -6.523118 13.755754 14.570833
Cd -8.696161 15.010360 25.205593
Cd -6.523118 13.755754 21.660673
Cd -10.869203 18.774181 -24.423286
Cd -10.869203 18.774181 -17.333446
Cd -8.696161 17.519574 -20.878366
Cd -10.869203 18.774181 -10.243606
Cd -8.696161 17.519574 -13.788526
Cd -10.869203 18.774181 -3.153767
Cd -8.696161 17.519574 -6.698686
Cd -10.869203 18.774181 3.936073
Cd -8.696161 17.519574 0.391153
Cd -10.869203 18.774181 11.025913
Cd -8.696161 17.519574 7.480993
Cd -10.869203 18.774181 18.115753
Cd -8.696161 17.519574 14.570833
Cd -8.696161 17.519574 21.660673
Cd -13.042246 22.538001 -24.423286
Cd -13.042246 22.538001 -17.333446
Cd -10.869203 21.283394 -20.878366
Cd -13.042246 22.538001 -10.243606
Cd -10.869203 21.283394 -13.788526
Cd -13.042246 22.538001 -3.153767
Cd -10.869203 21.283394 -6.698686
Cd -13.042246 22.538001 3.936073
Cd -10.869203 21.283394 0.391153
Cd -13.042246 22.538001 11.025913
Cd -10.869203 21.283394 7.480993
Cd -13.042246 22.538001 18.115753
Cd -10.869203 21.283394 14.570833
Cd -13.042246 22.538001 25.205593
Cd -10.869203 21.283394 21.660673
Cd -13.042246 25.047215 -20.878366
Cd -13.042246 25.047215 -13.788526
Cd -13.042246 25.047215 -6.698686
Cd -13.042246 25.047215 0.391153
Cd -13.042246 25.047215 7.480993
Cd -13.042246 25.047215 14.570833
Cd -13.042246 25.047215 21.660673
Cd 17.380352 -22.627843 -24.423286
Cd 17.380352 -22.627843 -17.333446
Cd 17.380352 -22.627843 -10.243606
Cd 17.380352 -22.627843 -3.153767
Cd 17.380352 -22.627843 3.936073
Cd 17.380352 -22.627843 11.025913
Cd 17.380352 -22.627843 18.115753
Cd 15.207309 -18.864023 -24.423286
Cd 15.207309 -18.864023 -17.333446
Cd 17.380352 -20.118630 -20.878366
Cd 15.207309 -18.864023 -10.243606
Cd 17.380352 -20.118630 -13.788526
Cd 15.207309 -18.864023 -3.153767
Cd 17.380352 -20.118630 -6.698686
Cd 15.207309 -18.864023 3.936073
Cd 17.380352 -20.118630 0.391153
Cd 15.207309 -18.864023 11.025913
Cd 17.380352 -20.118630 7.480993
Cd 15.207309 -18.864023 18.115753
Cd 17.380352 -20.118630 14.570833
Cd 15.207309 -18.864023 25.205593
Cd 17.380352 -20.118630 21.660673
Cd 13.034266 -15.100202 -24.423286
Cd 13.034266 -15.100202 -17.333446
Cd 15.207309 -16.354809 -20.878366
Cd 13.034266 -15.100202 -10.243606
Cd 15.207309 -16.354809 -13.788526
Cd 13.034266 -15.100202 -3.153767
Cd 15.207309 -16.354809 -6.698686
Cd 13.034266 -15.100202 3.936073
Cd 15.207309 -16.354809 0.391153
Cd 13.034266 -15.100202 11.025913
Cd 15.207309 -16.354809 7.480993
Cd 13.034266 -15.100202 18.115753
Cd 15.207309 -16.354809 14.570833
Cd 13.034266 -15.100202 25.205593
Cd 15.207309 -16.354809 21.660673
Cd 10.861223 -11.336382 -17.333446
Cd 13.034266 -12.590989 -20.878366
Cd 10.861223 -11.336382 -10.243606
Cd 13.034266 -12.590989 -13.788526
Cd 10.861223 -11.336382 -3.153767
Cd 13.034266 -12.590989 -6.698686
Cd 10.861223 -11.336382 3.936073
Cd 13.034266 -12.590989 0.391153
Cd 10.861223 -11.336382 11.025913
Cd 13.034266 -12.590989 7.480993
Cd 10.861223 -11.336382 18.115753
Cd 13.034266 -12.590989 14.570833
Cd 10.861223 -11.336382 25.205593
Cd 13.034266 -12.590989 21.660673
Cd 8.688181 -7.572562 -24.423286
Cd 8.688181 -7.572562 -17.333446
Cd 10.861223 -8.827168 -20.878366
Cd 8.688181 -7.572562 -10.243606
Cd 10.861223 -8.827168 -13.788526
Cd 8.688181 -7.572562 -3.153767
Cd 10.861223 -8.827168 -6.698686
Cd 8.688181 -7.572562 3.936073
Cd 10.861223 -8.827168 0.391153
Cd 8.688181 -7.572562 11.025913
Cd 10.861223 -8.827168 7.480993
Cd 8.688181 -7.572562 18.115753
Cd 10.861223 -8.827168 14.570833
Cd 8.688181 -7.572562 25.205593
Cd 10.861223 -8.827168 21.660673
Cd 6.515138 -3.808741 -24.423286
Cd 6.515138 -3.808741 -17.333446
Cd 8.688181 -5.063348 -20.878366
Cd 6.515138 -3.808741 -10.243606
Cd 8.688181 -5.063348 -13.788526
Cd 6.515138 -3.808741 -3.153767
Cd 8.688181 -5.063348 -6.698686
Cd 6.515138 -3.808741 3.936073
Cd 8.688181 -5.063348 0.391153
Cd 6.515138 -3.808741 11.025913
Cd 8.688181 -5.063348 7.480993
Cd 6.515138 -3.808741 18.115753
Cd 8.688181 -5.063348 14.570833
Cd 6.515138 -3.808741 25.205593
Cd 8.688181 -5.063348 21.660673
Cd 4.342095 -0.044921 -17.333446
Cd 6.515138 -1.299528 -20.878366
Cd 4.342095 -0.044921 -10.243606
Cd 6.515138 -1.299528 -13.788526
Cd 4.342095 -0.044921 -3.153767
Cd 6.515138 -1.299528 -6.698686
Cd 4.342095 -0.044921 3.936073
Cd 6.515138 -1.299528 0.391153
Cd 4.342095 -0.044921 11.025913
Cd 6.515138 -1.299528 7.480993
Cd 4.342095 -0.044921 18.115753
Cd 6.515138 -1.299528 14.570833
Cd 4.342095 -0.044921 25.205593
Cd 6.515138 -1.299528 21.660673
Cd 2.169053 3.718899 -24.423286
Cd 2.169053 3.718899 -17.333446
Cd 4.342095 2.464293 -20.878366
Cd 2.169053 3.718899 -10.243606
Cd 4.342095 2.464293 -13.788526
Cd 2.169053 3.718899 -3.153767
Cd 4.342095 2.464293 -6.698686
Cd 2.169053 3.718899 3.936073
Cd 4.342095 2.464293 0.391153
Cd 2.169053 3.718899 11.025913
Cd 4.342095 2.464293 7.480993
Cd 2.169053 3.718899 18.115753
Cd 4.342095 2.464293 14.570833
Cd 4.342095 2.464293 21.660673
Cd -0.003990 7.482720 -24.423286
Cd -0.003990 7.482720 -17.333446
Cd 2.169053 6.228113 -20.878366
Cd -0.003990 7.482720 -10.243606
Cd 2.169053 6.228113 -13.788526
Cd -0.003990 7.482720 -3.153767
Cd 2.169053 6.228113 -6.698686
Cd -0.003990 7.482720 3.936073
Cd 2.169053 6.228113 0.391153
Cd -0.003990 7.482720 11.025913
Cd 2.169053 6.228113 7.480993
Cd -0.003990 7.482720 18.115753
Cd 2.169053 6.228113 14.570833
Cd -0.003990 7.482720 25.205593
Cd 2.169053 6.228113 21.660673
Cd -2.177033 11.246540 -17.333446
Cd -0.003990 9.991933 -20.878366
Cd -2.177033 11.246540 -10.243606
Cd -0.003990 9.991933 -13.788526
Cd -2.177033 11.246540 -3.153767
Cd -0.003990 9.991933 -6.698686
Cd -2.177033 11.246540 3.936073
Cd -0.003990 9.991933 0.391153
Cd -2.177033 11.246540 11.025913
Cd -0.003990 9.991933 7.480993
Cd -2.177033 11.246540 18.115753
Cd -0.003990 9.991933 14.570833
Cd -2.177033 11.246540 25.205593
Cd -0.003990 9.991933 21.660673
Cd -4.350075 15.010360 -24.423286
Cd -4.350075 15.010360 -17.333446
Cd -2.177033 13.755754 -20.878366
Cd -4.350075 15.010360 -10.243606
Cd -2.177033 13.755754 -13.788526
Cd -4.350075 15.010360 -3.153767
Cd -2.177033 13.755754 -6.698686
Cd -4.350075 15.010360 3.936073
Cd -2.177033 13.755754 0.391153
Cd -4.350075 15.010360 11.025913
Cd -2.177033 13.755754 7.480993
Cd -4.350075 15.010360 18.115753
Cd -2.177033 13.755754 14.570833
Cd -2.177033 13.755754 21.660673
Cd -6.523118 18.774181 -24.423286
Cd -6.523118 18.774181 -17.333446
Cd -4.350075 17.519574 -20.878366
Cd -6.523118 18.774181 -10.243606
Cd -4.350075 17.519574 -13.788526
Cd -6.523118 18.774181 -3.153767
Cd -4.350075 17.519574 -6.698686
Cd -6.523118 18.774181 3.936073
Cd -4.350075 17.519574 0.391153
Cd -6.523118 18.774181 11.025913
Cd -4.350075 17.519574 7.480993
Cd -6.523118 18.774181 18.115753
Cd -4.350075 17.519574 14.570833
Cd -6.523118 18.774181 25.205593
Cd -4.350075 17.519574 21.660673
Cd -8.696161 22.538001 -17.333446
Cd -6.523118 21.283394 -20.878366
Cd -8.696161 22.538001 -10.243606
Cd -6.523118 21.283394 -13.788526
Cd -8.696161 22.538001 -3.153767
Cd -6.523118 21.283394 -6.698686
Cd -8.696161 22.538001 3.936073
Cd -6.523118 21.283394 0.391153
Cd -8.696161 22.538001 11.025913
Cd -6.523118 21.283394 7.480993
Cd -8.696161 22.538001 18.115753
Cd -6.523118 21.283394 14.570833
Cd -8.696161 22.538001 25.205593
Cd -6.523118 21.283394 21.660673
Cd -10.869203 26.301821 -24.423286
Cd -10.869203 26.301821 -17.333446
Cd -8.696161 25.047215 -20.878366
Cd -10.869203 26.301821 -10.243606
Cd -8.696161 25.047215 -13.788526
Cd -10.869203 26.301821 -3.153767
Cd -8.696161 25.047215 -6.698686
Cd -10.869203 26.301821 3.936073
Cd -8.696161 25.047215 0.391153
Cd -10.869203 26.301821 11.025913
Cd -8.696161 25.047215 7.480993
Cd -10.869203 26.301821 18.115753
Cd -8.696161 25.047215 14.570833
Cd -10.869203 26.301821 25.205593
Cd -8.696161 25.047215 21.660673
Cd 19.553394 -18.864023 -24.423286
Cd 19.553394 -18.864023 -17.333446
Cd 19.553394 -18.864023 -10.243606
Cd 19.553394 -18.864023 -3.153767
Cd 19.553394 -18.864023 3.936073
Cd 19.553394 -18.864023 11.025913
Cd 19.553394 -18.864023 18.115753
Cd 17.380352 -15.100202 -17.333446
Cd 19.553394 -16.354809 -20.878366
Cd 17.380352 -15.100202 -10.243606
Cd 19.553394 -16.354809 -13.788526
Cd 17.380352 -15.100202 -3.153767
Cd 19.553394 -16.354809 -6.698686
Cd 17.380352 -15.100202 3.936073
Cd 19.553394 -16.354809 0.391153
Cd 17.380352 -15.100202 11.025913
Cd 19.553394 -16.354809 7.480993
Cd 17.380352 -15.100202 18.115753
Cd 19.553394 -16.354809 14.570833
Cd 17.380352 -15.100202 25.205593
Cd 19.553394 -16.354809 21.660673
Cd 15.207309 -11.336382 -24.423286
Cd 15.207309 -11.336382 -17.333446
Cd 17.380352 -12.590989 -20.878366
Cd 15.207309 -11.336382 -10.243606
Cd 17.380352 -12.590989 -13.788526
Cd 15.207309 -11.336382 -3.153767
Cd 17.380352 -12.590989 -6.698686
Cd 15.207309 -11.336382 3.936073
Cd 17.380352 -12.590989 0.391153
Cd 15.207309 -11.336382 11.025913
Cd 17.380352 -12.590989 7.480993
Cd 15.207309 -11.336382 18.115753
Cd 17.380352 -12.590989 14.570833
Cd 17.380352 -12.590989 21.660673
Cd 13.034266 -7.572562 -24.423286
Cd 13.034266 -7.572562 -17.333446
Cd 15.207309 -8.827168 -20.878366
Cd 13.034266 -7.572562 -10.243606
Cd 15.207309 -8.827168 -13.788526
Cd 13.034266 -7.572562 -3.153767
Cd 15.207309 -8.827168 -6.698686
Cd 13.034266 -7.572562 3.936073
Cd 15.207309 -8.827168 0.391153
Cd 13.034266 -7.572562 11.025913
Cd 15.207309 -8.827168 7.480993
Cd 13.034266 -7.572562 18.115753
Cd 15.207309 -8.827168 14.570833
Cd 13.034266 -7.572562 25.205593
Cd 15.207309 -8.827168 21.660673
Cd 10.861223 -3.808741 -17.333446
Cd 13.034266 -5.063348 -20.878366
Cd 10.861223 -3.808741 -10.243606
Cd 13.034266 -5.063348 -13.788526
Cd 10.861223 -3.808741 -3.153767
Cd 13.034266 -5.063348 -6.698686
Cd 10.861223 -3.808741 3.936073
Cd 13.034266 -5.063348 0.391153
Cd 10.861223 -3.808741 11.025913
Cd 13.034266 -5.063348 7.480993
Cd 10.861223 -3.808741 18.115753
Cd 13.034266 -5.063348 14.570833
Cd 10.861223 -3.808741 25.205593
Cd 13.034266 -5.063348 21.660673
Cd 8.688181 -0.044921 -24.423286
Cd 8.688181 -0.044921 -17.333446
Cd 10.861223 -1.299528 -20.878366
Cd 8.688181 -0.044921 -10.243606
Cd 10.861223 -1.299528 -13.788526
Cd 8.688181 -0.044921 -3.153767
Cd 10.861223 -1.299528 -6.698686
Cd 8.688181 -0.044921 3.936073
Cd 10.861223 -1.299528 0.391153
Cd 8.688181 -0.044921 11.025913
Cd 10.861223 -1.299528 7.480993
Cd 8.688181 -0.044921 18.115753
Cd 10.861223 -1.299528 14.570833
Cd 8.688181 -0.044921 25.205593
Cd 10.861223 -1.299528 21.660673
Cd 6.515138 3.718899 -24.423286
Cd 6.515138 3.718899 -17.333446
Cd 8.688181 2.464293 -20.878366
Cd 6.515138 3.718899 -10.243606
Cd 8.688181 2.464293 -13.788526
Cd 6.515138 3.718899 -3.153767
Cd 8.688181 2.464293 -6.698686
Cd 6.515138 3.718899 3.936073
Cd 8.688181 2.464293 0.391153
Cd 6.515138 3.718899 11.025913
Cd 8.688181 2.464293 7.480993
Cd 6.515138 3.718899 18.115753
Cd 8.688181 2.464293 14.570833
Cd 6.515138 3.718899 25.205593
Cd 8.688181 2.464293 21.660673
Cd 4.342095 7.482720 -17.333446
Cd 6.515138 6.228113 -20.878366
Cd 4.342095 7.482720 -10.243606
Cd 6.515138 6.228113 -13.788526
Cd 4.342095 7.482720 -3.153767
Cd 6.515138 6.228113 -6.698686
Cd 4.342095 7.482720 3.936073
Cd 6.515138 6.228113 0.391153
Cd 4.342095 7.482720 11.025913
Cd 6.515138 6.228113 7.480993
Cd 4.342095 7.482720 18.115753
Cd 6.515138 6.228113 14.570833
Cd 4.342095 7.482720 25.205593
Cd 6.515138 6.228113 21.660673
Cd 2.169053 11.246540 -24.423286
Cd 2.169053 11.246540 -17.333446
Cd 4.342095 9.991933 -20.878366
Cd 2.169053 11.246540 -10.243606
Cd 4.342095 9.991933 -13.788526
Cd 2.169053 11.246540 -3.153767
Cd 4.342095 9.991933 -6.698686
Cd 2.169053 11.246540 3.936073
Cd 4.342095 9.991933 0.391153
Cd 2.169053 11.246540 11.025913
Cd 4.342095 9.991933 7.480993
Cd 2.169053 11.246540 18.115753
Cd 4.342095 9.991933 14.570833
Cd 2.169053 11.246540 25.205593
Cd 4.342095 9.991933 21.660673
Cd -0.003990 15.010360 -24.423286
Cd -0.003990 15.010360 -17.333446
Cd 2.169053 13.755754 -20.878366
Cd -0.003990 15.010360 -10.243606
Cd 2.169053 13.755754 -13.788526
Cd -0.003990 15.010360 -3.153767
Cd 2.169053 13.755754 -6.698686
Cd -0.003990 15.010360 3.936073
Cd 2.169053 13.755754 0.391153
Cd -0.003990 15.010360 11.025913
Cd 2.169053 13.755754 7.480993
Cd -0.003990 15.010360 18.115753
Cd 2.169053 13.755754 14.570833
Cd -0.003990 15.010360 25.205593
Cd 2.169053 13.755754 21.660673
Cd -2.177033 18.774181 -17.333446
Cd -0.003990 17.519574 -20.878366
Cd -2.177033 18.774181 -10.243606
Cd -0.003990 17.519574 -13.788526
Cd -2.177033 18.774181 -3.153767
Cd -0.003990 17.519574 -6.698686
Cd -2.177033 18.774181 3.936073
Cd -0.003990 17.519574 0.391153
Cd -2.177033 18.774181 11.025913
Cd -0.003990 17.519574 7.480993
Cd -2.177033 18.774181 18.115753
Cd -0.003990 17.519574 14.570833
Cd -2.177033 18.774181 25.205593
Cd -0.003990 17.519574 21.660673
Cd -4.350075 22.538001 -24.423286
Cd -4.350075 22.538001 -17.333446
Cd -2.177033 21.283394 -20.878366
Cd -4.350075 22.538001 -10.243606
Cd -2.177033 21.283394 -13.788526
Cd -4.350075 22.538001 -3.153767
Cd -2.177033 21.283394 -6.698686
Cd -4.350075 22.538001 3.936073
Cd -2.177033 21.283394 0.391153
Cd -4.350075 22.538001 11.025913
Cd -2.177033 21.283394 7.480993
Cd -4.350075 22.538001 18.115753
Cd -2.177033 21.283394 14.570833
Cd -2.177033 21.283394 21.660673
Cd -6.523118 26.301821 -24.423286
Cd -6.523118 26.301821 -17.333446
Cd -4.350075 25.047215 -20.878366
Cd -6.523118 26.301821 -10.243606
Cd -4.350075 25.047215 -13.788526
Cd -6.523118 26.301821 -3.153767
Cd -4.350075 25.047215 -6.698686
Cd -6.523118 26.301821 3.936073
Cd -4.350075 25.047215 0.391153
Cd -6.523118 26.301821 11.025913
Cd -4.350075 25.047215 7.480993
Cd -6.523118 26.301821 18.115753
Cd -4.350075 25.047215 14.570833
Cd -6.523118 26.301821 25.205593
Cd -4.350075 25.047215 21.660673
Cd 21.726437 -15.100202 -24.423286
Cd 21.726437 -15.100202 -17.333446
Cd 21.726437 -15.100202 -10.243606
Cd 21.726437 -15.100202 -3.153767
Cd 21.726437 -15.100202 3.936073
Cd 21.726437 -15.100202 11.025913
Cd 21.726437 -15.100202 18.115753
Cd 19.553394 -11.336382 -24.423286
Cd 19.553394 -11.336382 -17.333446
Cd 21.726437 -12.590989 -20.878366
Cd 19.553394 -11.336382 -10.243606
Cd 21.726437 -12.590989 -13.788526
Cd 19.553394 -11.336382 -3.153767
Cd 21.726437 -12.590989 -6.698686
Cd 19.553394 -11.336382 3.936073
Cd 21.726437 -12.590989 0.391153
Cd 19.553394 -11.336382 11.025913
Cd 21.726437 -12.590989 7.480993
Cd 19.553394 -11.336382 18.115753
Cd 21.726437 -12.590989 14.570833
Cd 19.553394 -11.336382 25.205593
Cd 21.726437 -12.590989 21.660673
Cd 17.380352 -7.572562 -17.333446
Cd 19.553394 -8.827168 -20.878366
Cd 17.380352 -7.572562 -10.243606
Cd 19.553394 -8.827168 -13.788526
Cd 17.380352 -7.572562 -3.153767
Cd 19.553394 -8.827168 -6.698686
Cd 17.380352 -7.572562 3.936073
Cd 19.553394 -8.827168 0.391153
Cd 17.380352 -7.572562 11.025913
Cd 19.553394 -8.827168 7.480993
Cd 17.380352 -7.572562 18.115753
Cd 19.553394 -8.827168 14.570833
Cd 17.380352 -7.572562 25.205593
Cd 19.553394 -8.827168 21.660673
Cd 15.207309 -3.808741 -24.423286
Cd 15.207309 -3.808741 -17.333446
Cd 17.380352 -5.063348 -20.878366
Cd 15.207309 -3.808741 -10.243606
Cd 17.380352 -5.063348 -13.788526
Cd 15.207309 -3.808741 -3.153767
Cd 17.380352 -5.063348 -6.698686
Cd 15.207309 -3.808741 3.936073
Cd 17.380352 -5.063348 0.391153
Cd 15.207309 -3.808741 11.025913
Cd 17.380352 -5.063348 7.480993
Cd 15.207309 -3.808741 18.115753
Cd 17.380352 -5.063348 14.570833
Cd 17.380352 -5.063348 21.660673
Cd 13.034266 -0.044921 -24.423286
Cd 13.034266 -0.044921 -17.333446
Cd 15.207309 -1.299528 -20.878366
Cd 13.034266 -0.044921 -10.243606
Cd 15.207309 -1.299528 -13.788526
Cd 13.034266 -0.044921 -3.153767
Cd 15.207309 -1.299528 -6.698686
Cd 13.034266 -0.044921 3.936073
Cd 15.207309 -1.299528 0.391153
Cd 13.034266 -0.044921 11.025913
Cd 15.207309 -1.299528 7.480993
Cd 13.034266 -0.044921 18.115753
Cd 15.207309 -1.299528 14.570833
Cd 13.034266 -0.044921 25.205593
Cd 15.207309 -1.299528 21.660673
Cd 10.861223 3.718899 -17.333446
Cd 13.034266 2.464293 -20.878366
Cd 10.861223 3.718899 -10.243606
Cd 13.034266 2.464293 -13.788526
Cd 10.861223 3.718899 -3.153767
Cd 13.034266 2.464293 -6.698686
Cd 10.861223 3.718899 3.936073
Cd 13.034266 2.464293 0.391153
Cd 10.861223 3.718899 11.025913
Cd 13.034266 2.464293 7.480993
Cd 10.861223 3.718899 18.115753
Cd 13.034266 2.464293 14.570833
Cd 10.861223 3.718899 25.205593
Cd 13.034266 2.464293 21.660673
Cd 8.688181 7.482720 -24.423286
Cd 8.688181 7.482720 -17.333446
Cd 10.861223 6.228113 -20.878366
Cd 8.688181 7.482720 -10.243606
Cd 10.861223 6.228113 -13.788526
Cd 8.688181 7.482720 -3.153767
Cd 10.861223 6.228113 -6.698686
Cd 8.688181 7.482720 3.936073
Cd 10.861223 6.228113 0.391153
Cd 8.688181 7.482720 11.025913
Cd 10.861223 6.228113 7.480993
Cd 8.688181 7.482720 18.115753
Cd 10.861223 6.228113 14.570833
Cd 8.688181 7.482720 25.205593
Cd 10.861223 6.228113 21.660673
Cd 6.515138 11.246540 -24.423286
Cd 6.515138 11.246540 -17.333446
Cd 8.688181 9.991933 -20.878366
Cd 6.515138 11.246540 -10.243606
Cd 8.688181 9.991933 -13.788526
Cd 6.515138 11.246540 -3.153767
Cd 8.688181 9.991933 -6.698686
Cd 6.515138 11.246540 3.936073
Cd 8.688181 9.991933 0.391153
Cd 6.515138 11.246540 11.025913
Cd 8.688181 9.991933 7.480993
Cd 6.515138 11.246540 18.115753
Cd 8.688181 9.991933 14.570833
Cd 6.515138 11.246540 25.205593
Cd 8.688181 9.991933 21.660673
Cd 4.342095 15.010360 -17.333446
Cd 6.515138 13.755754 -20.878366
Cd 4.342095 15.010360 -10.243606
Cd 6.515138 13.755754 -13.788526
Cd 4.342095 15.010360 -3.153767
Cd 6.515138 13.755754 -6.698686
Cd 4.342095 15.010360 3.936073
Cd 6.515138 13.755754 0.391153
Cd 4.342095 15.010360 11.025913
Cd 6.515138 13.755754 7.480993
Cd 4.342095 15.010360 18.115753
Cd 6.515138 13.755754 14.570833
Cd 4.342095 15.010360 25.205593
Cd 6.515138 13.755754 21.660673
Cd 2.169053 18.774181 -24.423286
Cd 2.169053 18.774181 -17.333446
Cd 4.342095 17.519574 -20.878366
Cd 2.169053 18.774181 -10.243606
Cd 4.342095 17.519574 -13.788526
Cd 2.169053 18.774181 -3.153767
Cd 4.342095 17.519574 -6.698686
Cd 2.169053 18.774181 3.936073
Cd 4.342095 17.519574 0.391153
Cd 2.169053 18.774181 11.025913
Cd 4.342095 17.519574 7.480993
Cd 2.169053 18.774181 18.115753
Cd 4.342095 17.519574 14.570833
Cd 4.342095 17.519574 21.660673
Cd -0.003990 22.538001 -24.423286
Cd -0.003990 22.538001 -17.333446
Cd 2.169053 21.283394 -20.878366
Cd -0.003990 22.538001 -10.243606
Cd 2.169053 21.283394 -13.788526
Cd -0.003990 22.538001 -3.153767
Cd 2.169053 21.283394 -6.698686
Cd -0.003990 22.538001 3.936073
Cd 2.169053 21.283394 0.391153
Cd -0.003990 22.538001 11.025913
Cd 2.169053 21.283394 7.480993
Cd -0.003990 22.538001 18.115753
Cd 2.169053 21.283394 14.570833
Cd -0.003990 22.538001 25.205593
Cd 2.169053 21.283394 21.660673
Cd -2.177033 26.301821 -24.423286
Cd -2.177033 26.301821 -17.333446
Cd -0.003990 25.047215 -20.878366
Cd -2.177033 26.301821 -10.243606
Cd -0.003990 25.047215 -13.788526
Cd -2.177033 26.301821 -3.153767
Cd -0.003990 25.047215 -6.698686
Cd -2.177033 26.301821 3.936073
Cd -0.003990 25.047215 0.391153
Cd -2.177033 26.301821 11.025913
Cd -0.003990 25.047215 7.480993
Cd -2.177033 26.301821 18.115753
Cd -0.003990 25.047215 14.570833
Cd -2.177033 26.301821 25.205593
Cd -0.003990 25.047215 21.660673
Cd 23.899480 -11.336382 -24.423286
Cd 23.899480 -11.336382 -17.333446
Cd 23.899480 -11.336382 -10.243606
Cd 23.899480 -11.336382 -3.153767
Cd 23.899480 -11.336382 3.936073
Cd 23.899480 -11.336382 11.025913
Cd 23.899480 -11.336382 18.115753
Cd 21.726437 -7.572562 -24.423286
Cd 21.726437 -7.572562 -17.333446
Cd 23.899480 -8.827168 -20.878366
Cd 21.726437 -7.572562 -10.243606
Cd 23.899480 -8.827168 -13.788526
Cd 21.726437 -7.572562 -3.153767
Cd 23.899480 -8.827168 -6.698686
Cd 21.726437 -7.572562 3.936073
Cd 23.899480 -8.827168 0.391153
Cd 21.726437 -7.572562 11.025913
Cd 23.899480 -8.827168 7.480993
Cd 21.726437 -7.572562 18.115753
Cd 23.899480 -8.827168 14.570833
Cd 21.726437 -7.572562 25.205593
Cd 23.899480 -8.827168 21.660673
Cd 19.553394 -3.808741 -24.423286
Cd 19.553394 -3.808741 -17.333446
Cd 21.726437 -5.063348 -20.878366
Cd 19.553394 -3.808741 -10.243606
Cd 21.726437 -5.063348 -13.788526
Cd 19.553394 -3.808741 -3.153767
Cd 21.726437 -5.063348 -6.698686
Cd 19.553394 -3.808741 3.936073
Cd 21.726437 -5.063348 0.391153
Cd 19.553394 -3.808741 11.025913
Cd 21.726437 -5.063348 7.480993
Cd 19.553394 -3.808741 18.115753
Cd 21.726437 -5.063348 14.570833
Cd 19.553394 -3.808741 25.205593
Cd 21.726437 -5.063348 21.660673
Cd 17.380352 -0.044921 -17.333446
Cd 19.553394 -1.299528 -20.878366
Cd 17.380352 -0.044921 -10.243606
Cd 19.553394 -1.299528 -13.788526
Cd 17.380352 -0.044921 -3.153767
Cd 19.553394 -1.299528 -6.698686
Cd 17.380352 -0.044921 3.936073
Cd 19.553394 -1.299528 0.391153
Cd 17.380352 -0.044921 11.025913
Cd 19.553394 -1.299528 7.480993
Cd 17.380352 -0.044921 18.115753
Cd 19.553394 -1.299528 14.570833
Cd 17.380352 -0.044921 25.205593
Cd 19.553394 -1.299528 21.660673
Cd 15.207309 3.718899 -24.423286
Cd 15.207309 3.718899 -17.333446
Cd 17.380352 2.464293 -20.878366
Cd 15.207309 3.718899 -10.243606
Cd 17.380352 2.464293 -13.788526
Cd 15.207309 3.718899 -3.153767
Cd 17.380352 2.464293 -6.698686
Cd 15.207309 3.718899 3.936073
Cd 17.380352 2.464293 0.391153
Cd 15.207309 3.718899 11.025913
Cd 17.380352 2.464293 7.480993
Cd 15.207309 3.718899 18.115753
Cd 17.380352 2.464293 14.570833
Cd 17.380352 2.464293 21.660673
Cd 13.034266 7.482720 -24.423286
Cd 13.034266 7.482720 -17.333446
Cd 15.207309 6.228113 -20.878366
Cd 13.034266 7.482720 -10.243606
Cd 15.207309 6.228113 -13.788526
Cd 13.034266 7.482720 -3.153767
Cd 15.207309 6.228113 -6.698686
Cd 13.034266 7.482720 3.936073
Cd 15.207309 6.228113 0.391153
Cd 13.034266 7.482720 11.025913
Cd 15.207309 6.228113 7.480993
Cd 13.034266 7.482720 18.115753
Cd 15.207309 6.228113 14.570833
Cd 13.034266 7.482720 25.205593
Cd 15.207309 6.228113 21.660673
Cd 10.861223 11.246540 -17.333446
Cd 13.034266 9.991933 -20.878366
Cd 10.861223 11.246540 -10.243606
Cd 13.034266 9.991933 -13.788526
Cd 10.861223 11.246540 -3.153767
Cd 13.034266 9.991933 -6.698686
Cd 10.861223 11.246540 3.936073
Cd 13.034266 9.991933 0.391153
Cd 10.861223 11.246540 11.025913
Cd 13.034266 9.991933 7.480993
Cd 10.861223 11.246540 18.115753
Cd 13.034266 9.991933 14.570833
Cd 10.861223 11.246540 25.205593
Cd 13.034266 9.991933 21.660673
Cd 8.688181 15.010360 -24.423286
Cd 8.688181 15.010360 -17.333446
Cd 10.861223 13.755754 -20.878366
Cd 8.688181 15.010360 -10.243606
Cd 10.861223 13.755754 -13.788526
Cd 8.688181 15.010360 -3.153767
Cd 10.861223 13.755754 -6.698686
Cd 8.688181 15.010360 3.936073
Cd 10.861223 13.755754 0.391153
Cd 8.688181 15.010360 11.025913
Cd 10.861223 13.755754 7.480993
Cd 8.688181 15.010360 18.115753
Cd 10.861223 13.755754 14.570833
Cd 10.861223 13.755754 21.660673
Cd 6.515138 18.774181 -24.423286
Cd 6.515138 18.774181 -17.333446
Cd 8.688181 17.519574 -20.878366
Cd 6.515138 18.774181 -10.243606
Cd 8.688181 17.519574 -13.788526
Cd 6.515138 18.774181 -3.153767
Cd 8.688181 17.519574 -6.698686
Cd 6.515138 18.774181 3.936073
Cd 8.688181 17.519574 0.391153
Cd 6.515138 18.774181 11.025913
Cd 8.688181 17.519574 7.480993
Cd 6.515138 18.774181 18.115753
Cd 8.688181 17.519574 14.570833
Cd 6.515138 18.774181 25.205593
Cd 8.688181 17.519574 21.660673
Cd 4.342095 22.538001 -17.333446
Cd 6.515138 21.283394 -20.878366
Cd 4.342095 22.538001 -10.243606
Cd 6.515138 21.283394 -13.788526
Cd 4.342095 22.538001 -3.153767
Cd 6.515138 21.283394 -6.698686
Cd 4.342095 22.538001 3.936073
Cd 6.515138 21.283394 0.391153
Cd 4.342095 22.538001 11.025913
Cd 6.515138 21.283394 7.480993
Cd 4.342095 22.538001 18.115753
Cd 6.515138 21.283394 14.570833
Cd 4.342095 22.538001 25.205593
Cd 6.515138 21.283394 21.660673
Cd 2.169053 26.301821 -24.423286
Cd 2.169053 26.301821 -17.333446
Cd 4.342095 25.047215 -20.878366
Cd 2.169053 26.301821 -10.243606
Cd 4.342095 25.047215 -13.788526
Cd 2.169053 26.301821 -3.153767
Cd 4.342095 25.047215 -6.698686
Cd 2.169053 26.301821 3.936073
Cd 4.342095 25.047215 0.391153
Cd 2.169053 26.301821 11.025913
Cd 4.342095 25.047215 7.480993
Cd 2.169053 26.301821 18.115753
Cd 4.342095 25.047215 14.570833
Cd 2.169053 26.301821 25.205593
Cd 4.342095 25.047215 21.660673
Cd 26.072522 -7.572562 -24.423286
Cd 26.072522 -7.572562 -17.333446
Cd 26.072522 -7.572562 -10.243606
Cd 26.072522 -7.572562 -3.153767
Cd 26.072522 -7.572562 3.936073
Cd 26.072522 -7.572562 11.025913
Cd 26.072522 -7.572562 18.115753
Cd 23.899480 -3.808741 -17.333446
Cd 26.072522 -5.063348 -20.878366
Cd 23.899480 -3.808741 -10.243606
Cd 26.072522 -5.063348 -13.788526
Cd 23.899480 -3.808741 -3.153767
Cd 26.072522 -5.063348 -6.698686
Cd 23.899480 -3.808741 3.936073
Cd 26.072522 -5.063348 0.391153
Cd 23.899480 -3.808741 11.025913
Cd 26.072522 -5.063348 7.480993
Cd 23.899480 -3.808741 18.115753
Cd 26.072522 -5.063348 14.570833
Cd 23.899480 -3.808741 25.205593
Cd 26.072522 -5.063348 21.660673
Cd 21.726437 -0.044921 -24.423286
Cd 21.726437 -0.044921 -17.333446
Cd 23.899480 -1.299528 -20.878366
Cd 21.726437 -0.044921 -10.243606
Cd 23.899480 -1.299528 -13.788526
Cd 21.726437 -0.044921 -3.153767
Cd 23.899480 -1.299528 -6.698686
Cd 21.726437 -0.044921 3.936073
Cd 23.899480 -1.299528 0.391153
Cd 21.726437 -0.044921 11.025913
Cd 23.899480 -1.299528 7.480993
Cd 21.726437 -0.044921 18.115753
Cd 23.899480 -1.299528 14.570833
Cd 23.899480 -1.299528 21.660673
Cd 19.553394 3.718899 -24.423286
Cd 19.553394 3.718899 -17.333446
Cd 21.726437 2.464293 -20.878366
Cd 19.553394 3.718899 -10.243606
Cd 21.726437 2.464293 -13.788526
Cd 19.553394 3.718899 -3.153767
Cd 21.726437 2.464293 -6.698686
Cd 19.553394 3.718899 3.936073
Cd 21.726437 2.464293 0.391153
Cd 19.553394 3.718899 11.025913
Cd 21.726437 2.464293 7.480993
Cd 19.553394 3.718899 18.115753
Cd 21.726437 2.464293 14.570833
Cd 19.553394 3.718899 25.205593
Cd 21.726437 2.464293 21.660673
Cd 17.380352 7.482720 -17.333446
Cd 19.553394 6.228113 -20.878366
Cd 17.380352 7.482720 -10.243606
Cd 19.553394 6.228113 -13.788526
Cd 17.380352 7.482720 -3.153767
Cd 19.553394 6.228113 -6.698686
Cd 17.380352 7.482720 3.936073
Cd 19.553394 6.228113 0.391153
Cd 17.380352 7.482720 11.025913
Cd 19.553394 6.228113 7.480993
Cd 17.380352 7.482720 18.115753
Cd 19.553394 6.228113 14.570833
Cd 17.380352 7.482720 25.205593
Cd 19.553394 6.228113 21.660673
Cd 15.207309 11.246540 -24.423286
Cd 15.207309 11.246540 -17.333446
Cd 17.380352 9.991933 -20.878366
Cd 15.207309 11.246540 -10.243606
Cd 17.380352 9.991933 -13.788526
Cd 15.207309 11.246540 -3.153767
Cd 17.380352 9.991933 -6.698686
Cd 15.207309 11.246540 3.936073
Cd 17.380352 9.991933 0.391153
Cd 15.207309 11.246540 11.025913
Cd 17.380352 9.991933 7.480993
Cd 15.207309 11.246540 18.115753
Cd 17.380352 9.991933 14.570833
Cd 17.380352 9.991933 21.660673
Cd 13.034266 15.010360 -24.423286
Cd 13.034266 15.010360 -17.333446
Cd 15.207309 13.755754 -20.878366
Cd 13.034266 15.010360 -10.243606
Cd 15.207309 13.755754 -13.788526
Cd 13.034266 15.010360 -3.153767
Cd 15.207309 13.755754 -6.698686
Cd 13.034266 15.010360 3.936073
Cd 15.207309 13.755754 0.391153
Cd 13.034266 15.010360 11.025913
Cd 15.207309 13.755754 7.480993
Cd 13.034266 15.010360 18.115753
Cd 15.207309 13.755754 14.570833
Cd 13.034266 15.010360 25.205593
Cd 15.207309 13.755754 21.660673
Cd 10.861223 18.774181 -17.333446
Cd 13.034266 17.519574 -20.878366
Cd 10.861223 18.774181 -10.243606
Cd 13.034266 17.519574 -13.788526
Cd 10.861223 18.774181 -3.153767
Cd 13.034266 17.519574 -6.698686
Cd 10.861223 18.774181 3.936073
Cd 13.034266 17.519574 0.391153
Cd 10.861223 18.774181 11.025913
Cd 13.034266 17.519574 7.480993
Cd 10.861223 18.774181 18.115753
Cd 13.034266 17.519574 14.570833
Cd 10.861223 18.774181 25.205593
Cd 13.034266 17.519574 21.660673
Cd 8.688181 22.538001 -24.423286
Cd 8.688181 22.538001 -17.333446
Cd 10.861223 21.283394 -20.878366
Cd 8.688181 22.538001 -10.243606
Cd 10.861223 21.283394 -13.788526
Cd 8.688181 22.538001 -3.153767
Cd 10.861223 21.283394 -6.698686
Cd 8.688181 22.538001 3.936073
Cd 10.861223 21.283394 0.391153
Cd 8.688181 22.538001 11.025913
Cd 10.861223 21.283394 7.480993
Cd 8.688181 22.538001 18.115753
Cd 10.861223 21.283394 14.570833
Cd 10.861223 21.283394 21.660673
Cd 6.515138 26.301821 -24.423286
Cd 6.515138 26.301821 -17.333446
Cd 8.688181 25.047215 -20.878366
Cd 6.515138 26.301821 -10.243606
Cd 8.688181 25.047215 -13.788526
Cd 6.515138 26.301821 -3.153767
Cd 8.688181 25.047215 -6.698686
Cd 6.515138 26.301821 3.936073
Cd 8.688181 25.047215 0.391153
Cd 6.515138 26.301821 11.025913
Cd 8.688181 25.047215 7.480993
Cd 6.515138 26.301821 18.115753
Cd 8.688181 25.047215 14.570833
Cd 6.515138 26.301821 25.205593
Cd 8.688181 25.047215 21.660673
Cd 28.245565 -3.808741 -24.423286
Cd 28.245565 -3.808741 -17.333446
Cd 28.245565 -3.808741 -10.243606
Cd 28.245565 -3.808741 -3.153767
Cd 28.245565 -3.808741 3.936073
Cd 28.245565 -3.808741 11.025913
Cd 28.245565 -3.808741 18.115753
Cd 26.072522 -0.044921 -24.423286
Cd 26.072522 -0.044921 -17.333446
Cd 28.245565 -1.299528 -20.878366
Cd 26.072522 -0.044921 -10.243606
Cd 28.245565 -1.299528 -13.788526
Cd 26.072522 -0.044921 -3.153767
Cd 28.245565 -1.299528 -6.698686
Cd 26.072522 -0.044921 3.936073
Cd 28.245565 -1.299528 0.391153
Cd 26.072522 -0.044921 11.025913
Cd 28.245565 -1.299528 7.480993
Cd 26.072522 -0.044921 18.115753
Cd 28.245565 -1.299528 14.570833
Cd 26.072522 -0.044921 25.205593
Cd 28.245565 -1.299528 21.660673
Cd 23.899480 3.718899 -24.423286
Cd 23.899480 3.718899 -17.333446
Cd 26.072522 2.464293 -20.878366
Cd 23.899480 3.718899 -10.243606
Cd 26.072522 2.464293 -13.788526
Cd 23.899480 3.718899 -3.153767
Cd 26.072522 2.464293 -6.698686
Cd 23.899480 3.718899 3.936073
Cd 26.072522 2.464293 0.391153
Cd 23.899480 3.718899 11.025913
Cd 26.072522 2.464293 7.480993
Cd 23.899480 3.718899 18.115753
Cd 26.072522 2.464293 14.570833
Cd 23.899480 3.718899 25.205593
Cd 26.072522 2.464293 21.660673
Cd 21.726437 7.482720 -24.423286
Cd 21.726437 7.482720 -17.333446
Cd 23.899480 6.228113 -20.878366
Cd 21.726437 7.482720 -10.243606
Cd 23.899480 6.228113 -13.788526
Cd 21.726437 7.482720 -3.153767
Cd 23.899480 6.228113 -6.698686
Cd 21.726437 7.482720 3.936073
Cd 23.899480 6.228113 0.391153
Cd 21.726437 7.482720 11.025913
Cd 23.899480 6.228113 7.480993
Cd 21.726437 7.482720 18.115753
Cd 23.899480 6.228113 14.570833
Cd 21.726437 7.482720 25.205593
Cd 23.899480 6.228113 21.660673
Cd 19.553394 11.246540 -24.423286
Cd 19.553394 11.246540 -17.333446
Cd 21.726437 9.991933 -20.878366
Cd 19.553394 11.246540 -10.243606
Cd 21.726437 9.991933 -13.788526
Cd 19.553394 11.246540 -3.153767
Cd 21.726437 9.991933 -6.698686
Cd 19.553394 11.246540 3.936073
Cd 21.726437 9.991933 0.391153
Cd 19.553394 11.246540 11.025913
Cd 21.726437 9.991933 7.480993
Cd 19.553394 11.246540 18.115753
Cd 21.726437 9.991933 14.570833
Cd 19.553394 11.246540 25.205593
Cd 21.726437 9.991933 21.660673
Cd 17.380352 15.010360 -24.423286
Cd 17.380352 15.010360 -17.333446
Cd 19.553394 13.755754 -20.878366
Cd 17.380352 15.010360 -10.243606
Cd 19.553394 13.755754 -13.788526
Cd 17.380352 15.010360 -3.153767
Cd 19.553394 13.755754 -6.698686
Cd 17.380352 15.010360 3.936073
Cd 19.553394 13.755754 0.391153
Cd 17.380352 15.010360 11.025913
Cd 19.553394 13.755754 7.480993
Cd 17.380352 15.010360 18.115753
Cd 19.553394 13.755754 14.570833
Cd 17.380352 15.010360 25.205593
Cd 19.553394 13.755754 21.660673
Cd 15.207309 18.774181 -24.423286
Cd 15.207309 18.774181 -17.333446
Cd 17.380352 17.519574 -20.878366
Cd 15.207309 18.774181 -10.243606
Cd 17.380352 17.519574 -13.788526
Cd 15.207309 18.774181 -3.153767
Cd 17.380352 17.519574 -6.698686
Cd 15.207309 18.774181 3.936073
Cd 17.380352 17.519574 0.391153
Cd 15.207309 18.774181 11.025913
Cd 17.380352 17.519574 7.480993
Cd 15.207309 18.774181 18.115753
Cd 17.380352 17.519574 14.570833
Cd 15.207309 18.774181 25.205593
Cd 17.380352 17.519574 21.660673
Cd 13.034266 22.538001 -24.423286
Cd 13.034266 22.538001 -17.333446
Cd 15.207309 21.283394 -20.878366
Cd 13.034266 22.538001 -10.243606
Cd 15.207309 21.283394 -13.788526
Cd 13.034266 22.538001 -3.153767
Cd 15.207309 21.283394 -6.698686
Cd 13.034266 22.538001 3.936073
Cd 15.207309 21.283394 0.391153
Cd 13.034266 22.538001 11.025913
Cd 15.207309 21.283394 7.480993
Cd 13.034266 22.538001 18.115753
Cd 15.207309 21.283394 14.570833
Cd 13.034266 22.538001 25.205593
Cd 15.207309 21.283394 21.660673
Cd 10.861223 26.301821 -24.423286
Cd 10.861223 26.301821 -17.333446
Cd 13.034266 25.047215 -20.878366
Cd 10.861223 26.301821 -10.243606
Cd 13.034266 25.047215 -13.788526
Cd 10.861223 26.301821 -3.153767
Cd 13.034266 25.047215 -6.698686
Cd 10.861223 26.301821 3.936073
Cd 13.034266 25.047215 0.391153
Cd 10.861223 26.301821 11.025913
Cd 13.034266 25.047215 7.480993
Cd 10.861223 26.301821 18.115753
Cd 13.034266 25.047215 14.570833
Cd 10.861223 26.301821 25.205593
Cd 13.034266 25.047215 21.660673
Cd 30.418608 -0.044921 -17.333446
Cd 30.418608 -0.044921 -10.243606
Cd 30.418608 -0.044921 -3.153767
Cd 30.418608 -0.044921 3.936073
Cd 30.418608 -0.044921 11.025913
Cd 30.418608 -0.044921 18.115753
Se -17.388332 -22.627843 -21.757838
Se -15.215289 -23.882450 -18.212918
Se -17.388332 -22.627843 -14.667998
Se -15.215289 -23.882450 -11.123078
Se -17.388332 -22.627843 -7.578158
Se -15.215289 -23.882450 -4.033238
Se -17.388332 -22.627843 -0.488318
Se -15.215289 -23.882450 3.056602
Se -17.388332 -22.627843 6.601522
Se -15.215289 -23.882450 10.146442
Se -17.388332 -22.627843 13.691362
Se -15.215289 -23.882450 17.236282
Se -17.388332 -22.627843 20.781202
Se -19.561374 -18.864023 -21.757838
Se -17.388332 -20.118630 -18.212918
Se -19.561374 -18.864023 -14.667998
Se -17.388332 -20.118630 -11.123078
Se -19.561374 -18.864023 -7.578158
Se -17.388332 -20.118630 -4.033238
Se -19.561374 -18.864023 -0.488318
Se -17.388332 -20.118630 3.056602
Se -19.561374 -18.864023 6.601522
Se -17.388332 -20.118630 10.146442
Se -19.561374 -18.864023 13.691362
Se -17.388332 -20.118630 17.236282
Se -19.561374 -18.864023 20.781202
Se -21.734417 -15.100202 -21.757838
Se -19.561374 -16.354809 -18.212918
Se -21.734417 -15.100202 -14.667998
Se -19.561374 -16.354809 -11.123078
Se -21.734417 -15.100202 -7.578158
Se -19.561374 -16.354809 -4.033238
Se -21.734417 -15.100202 -0.488318
Se -19.561374 -16.354809 3.056602
Se -21.734417 -15.100202 6.601522
Se -19.561374 -16.354809 10.146442
Se -21.734417 -15.100202 13.691362
Se -19.561374 -16.354809 17.236282
Se -21.734417 -15.100202 20.781202
Se -23.907460 -11.336382 -21.757838
Se -21.734417 -12.590989 -18.212918
Se -23.907460 -11.336382 -14.667998
Se -21.734417 -12.590989 -11.123078
Se -23.907460 -11.336382 -7.578158
Se -21.734417 -12.590989 -4.033238
Se -23.907460 -11.336382 -0.488318
Se -21.734417 -12.590989 3.056602
Se -23.907460 -11.336382 6.601522
Se -21.734417 -12.590989 10.146442
Se -23.907460 -11.336382 13.691362
Se -21.734417 -12.590989 17.236282
Se -23.907460 -11.336382 20.781202
Se -26.080502 -7.572562 -21.757838
Se -23.907460 -8.827168 -18.212918
Se -26.080502 -7.572562 -14.667998
Se -23.907460 -8.827168 -11.123078
Se -26.080502 -7.572562 -7.578158
Se -23.907460 -8.827168 -4.033238
Se -26.080502 -7.572562 -0.488318
Se -23.907460 -8.827168 3.056602
Se -26.080502 -7.572562 6.601522
Se -23.907460 -8.827168 10.146442
Se -26.080502 -7.572562 13.691362
Se -23.907460 -8.827168 17.236282
Se -26.080502 -7.572562 20.781202
Se -28.253545 -3.808741 -21.757838
Se -26.080502 -5.063348 -18.212918
Se -28.253545 -3.808741 -14.667998
Se -26.080502 -5.063348 -11.123078
Se -28.253545 -3.808741 -7.578158
Se -26.080502 -5.063348 -4.033238
Se -28.253545 -3.808741 -0.488318
Se -26.080502 -5.063348 3.056602
Se -28.253545 -3.808741 6.601522
Se -26.080502 -5.063348 10.146442
Se -28.253545 -3.808741 13.691362
Se -26.080502 -5.063348 17.236282
Se -28.253545 -3.808741 20.781202
Se -28.253545 -1.299528 -18.212918
Se -28.253545 -1.299528 -11.123078
Se -28.253545 -1.299528 -4.033238
Se -28.253545 -1.299528 3.056602
Se -28.253545 -1.299528 10.146442
Se -28.253545 -1.299528 17.236282
Se -13.042246 -22.627843 -21.757838
Se -10.869203 -23.882450 -18.212918
Se -13.042246 -22.627843 -14.667998
Se -10.869203 -23.882450 -11.123078
Se -13.042246 -22.627843 -7.578158
Se -10.869203 -23.882450 -4.033238
Se -13.042246 -22.627843 -0.488318
Se -10.869203 -23.882450 3.056602
Se -13.042246 -22.627843 6.601522
Se -10.869203 -23.882450 10.146442
Se -13.042246 -22.627843 13.691362
Se -10.869203 -23.882450 17.236282
Se -13.042246 -22.627843 20.781202
Se -10.869203 -23.882450 24.326122
Se -15.215289 -18.864023 -21.757838
Se -13.042246 -20.118630 -18.212918
Se -15.215289 -18.864023 -14.667998
Se -13.042246 -20.118630 -11.123078
Se -15.215289 -18.864023 -7.578158
Se -13.042246 -20.118630 -4.033238
Se -15.215289 -18.864023 -0.488318
Se -13.042246 -20.118630 3.056602
Se -15.215289 -18.864023 6.601522
Se -13.042246 -20.118630 10.146442
Se -15.215289 -18.864023 13.691362
Se -13.042246 -20.118630 17.236282
Se -15.215289 -18.864023 20.781202
Se -13.042246 -20.118630 24.326122
Se -17.388332 -15.100202 -21.757838
Se -15.215289 -16.354809 -18.212918
Se -17.388332 -15.100202 -14.667998
Se -15.215289 -16.354809 -11.123078
Se -17.388332 -15.100202 -7.578158
Se -15.215289 -16.354809 -4.033238
Se -17.388332 -15.100202 -0.488318
Se -15.215289 -16.354809 3.056602
Se -17.388332 -15.100202 6.601522
Se -15.215289 -16.354809 10.146442
Se -17.388332 -15.100202 13.691362
Se -15.215289 -16.354809 17.236282
Se -17.388332 -15.100202 20.781202
Se -15.215289 -16.354809 24.326122
Se -19.561374 -11.336382 -21.757838
Se -17.388332 -12.590989 -18.212918
Se -19.561374 -11.336382 -14.667998
Se -17.388332 -12.590989 -11.123078
Se -19.561374 -11.336382 -7.578158
Se -17.388332 -12.590989 -4.033238
Se -19.561374 -11.336382 -0.488318
Se -17.388332 -12.590989 3.056602
Se -19.561374 -11.336382 6.601522
Se -17.388332 -12.590989 10.146442
Se -19.561374 -11.336382 13.691362
Se -17.388332 -12.590989 17.236282
Se -19.561374 -11.336382 20.781202
Se -17.388332 -12.590989 24.326122
Se -21.734417 -7.572562 -21.757838
Se -19.561374 -8.827168 -18.212918
Se -21.734417 -7.572562 -14.667998
Se -19.561374 -8.827168 -11.123078
Se -21.734417 -7.572562 -7.578158
Se -19.561374 -8.827168 -4.033238
Se -21.734417 -7.572562 -0.488318
Se -19.561374 -8.827168 3.056602
Se -21.734417 -7.572562 6.601522
Se -19.561374 -8.827168 10.146442
Se -21.734417 -7.572562 13.691362
Se -19.561374 -8.827168 17.236282
Se -21.734417 -7.572562 20.781202
Se -19.561374 -8.827168 24.326122
Se -23.907460 -3.808741 -21.757838
Se -21.734417 -5.063348 -18.212918
Se -23.907460 -3.808741 -14.667998
Se -21.734417 -5.063348 -11.123078
Se -23.907460 -3.808741 -7.578158
Se -21.734417 -5.063348 -4.033238
Se -23.907460 -3.808741 -0.488318
Se -21.734417 -5.063348 3.056602
Se -23.907460 -3.808741 6.601522
Se -21.734417 -5.063348 10.146442
Se -23.907460 -3.808741 13.691362
Se -21.734417 -5.063348 17.236282
Se -23.907460 -3.808741 20.781202
Se -21.734417 -5.063348 24.326122
Se -26.080502 -0.044921 -21.757838
Se -23.907460 -1.299528 -18.212918
Se -26.080502 -0.044921 -14.667998
Se -23.907460 -1.299528 -11.123078
Se -26.080502 -0.044921 -7.578158
Se -23.907460 -1.299528 -4.033238
Se -26.080502 -0.044921 -0.488318
Se -23.907460 -1.299528 3.056602
Se -26.080502 -0.044921 6.601522
Se -23.907460 -1.299528 10.146442
Se -26.080502 -0.044921 13.691362
Se -23.907460 -1.299528 17.236282
Se -26.080502 -0.044921 20.781202
Se -23.907460 -1.299528 24.326122
Se -26.080502 2.464293 -18.212918
Se -26.080502 2.464293 -11.123078
Se -26.080502 2.464293 -4.033238
Se -26.080502 2.464293 3.056602
Se -26.080502 2.464293 10.146442
Se -26.080502 2.464293 17.236282
Se -26.080502 2.464293 24.326122
Se -8.696161 -22.627843 -21.757838
Se -6.523118 -23.882450 -18.212918
Se -8.696161 -22.627843 -14.667998
Se -6.523118 -23.882450 -11.123078
Se -8.696161 -22.627843 -7.578158
Se -6.523118 -23.882450 -4.033238
Se -8.696161 -22.627843 -0.488318
Se -6.523118 -23.882450 3.056602
Se -8.696161 -22.627843 6.601522
Se -6.523118 -23.882450 10.146442
Se -8.696161 -22.627843 13.691362
Se -6.523118 -23.882450 17.236282
Se -8.696161 -22.627843 20.781202
Se -6.523118 -23.882450 24.326122
Se -8.696161 -20.118630 -25.302758
Se -10.869203 -18.864023 -21.757838
Se -8.696161 -20.118630 -18.212918
Se -10.869203 -18.864023 -14.667998
Se -8.696161 -20.118630 -11.123078
Se -10.869203 -18.864023 -7.578158
Se -8.696161 -20.118630 -4.033238
Se -10.869203 -18.864023 -0.488318
Se -8.696161 -20.118630 3.056602
Se -10.869203 -18.864023 6.601522
Se -8.696161 -20.118630 10.146442
Se -10.869203 -18.864023 13.691362
Se -8.696161 -20.118630 17.236282
Se -10.869203 -18.864023 20.781202
Se -8.696161 -20.118630 24.326122
Se -13.042246 -15.100202 -21.757838
Se -10.869203 -16.354809 -18.212918
Se -13.042246 -15.100202 -14.667998
Se -10.869203 -16.354809 -11.123078
Se -13.042246 -15.100202 -7.578158
Se -10.869203 -16.354809 -4.033238
Se -13.042246 -15.100202 -0.488318
Se -10.869203 -16.354809 3.056602
Se -13.042246 -15.100202 6.601522
Se -10.869203 -16.354809 10.146442
Se -13.042246 -15.100202 13.691362
Se -10.869203 -16.354809 17.236282
Se -13.042246 -15.100202 20.781202
Se -10.869203 -16.354809 24.326122
Se -15.215289 -11.336382 -21.757838
Se -13.042246 -12.590989 -18.212918
Se -15.215289 -11.336382 -14.667998
Se -13.042246 -12.590989 -11.123078
Se -15.215289 -11.336382 -7.578158
Se -13.042246 -12.590989 -4.033238
Se -15.215289 -11.336382 -0.488318
Se -13.042246 -12.590989 3.056602
Se -15.215289 -11.336382 6.601522
Se -13.042246 -12.590989 10.146442
Se -15.215289 -11.336382 13.691362
Se -13.042246 -12.590989 17.236282
Se -15.215289 -11.336382 20.781202
Se -13.042246 -12.590989 24.326122
Se -17.388332 -7.572562 -21.757838
Se -15.215289 -8.827168 -18.212918
Se -17.388332 -7.572562 -14.667998
Se -15.215289 -8.827168 -11.123078
Se -17.388332 -7.572562 -7.578158
Se -15.215289 -8.827168 -4.033238
Se -17.388332 -7.572562 -0.488318
Se -15.215289 -8.827168 3.056602
Se -17.388332 -7.572562 6.601522
Se -15.215289 -8.827168 10.146442
Se -17.388332 -7.572562 13.691362
Se -15.215289 -8.827168 17.236282
Se -17.388332 -7.572562 20.781202
Se -15.215289 -8.827168 24.326122
Se -19.561374 -3.808741 -21.757838
Se -17.388332 -5.063348 -18.212918
Se -19.561374 -3.808741 -14.667998
Se -17.388332 -5.063348 -11.123078
Se -19.561374 -3.808741 -7.578158
Se -17.388332 -5.063348 -4.033238
Se -19.561374 -3.808741 -0.488318
Se -17.388332 -5.063348 3.056602
Se -19.561374 -3.808741 6.601522
Se -17.388332 -5.063348 10.146442
Se -19.561374 -3.808741 13.691362
Se -17.388332 -5.063348 17.236282
Se -19.561374 -3.808741 20.781202
Se -17.388332 -5.063348 24.326122
Se -21.734417 -0.044921 -21.757838
Se -19.561374 -1.299528 -18.212918
Se -21.734417 -0.044921 -14.667998
Se -19.561374 -1.299528 -11.123078
Se -21.734417 -0.044921 -7.578158
Se -19.561374 -1.299528 -4.033238
Se -21.734417 -0.044921 -0.488318
Se -19.561374 -1.299528 3.056602
Se -21.734417 -0.044921 6.601522
Se -19.561374 -1.299528 10.146442
Se -21.734417 -0.044921 13.691362
Se -19.561374 -1.299528 17.236282
Se -21.734417 -0.044921 20.781202
Se -19.561374 -1.299528 24.326122
Se -23.907460 3.718899 -21.757838
Se -21.734417 2.464293 -18.212918
Se -23.907460 3.718899 -14.667998
Se -21.734417 2.464293 -11.123078
Se -23.907460 3.718899 -7.578158
Se -21.734417 2.464293 -4.033238
Se -23.907460 3.718899 -0.488318
Se -21.734417 2.464293 3.056602
Se -23.907460 3.718899 6.601522
Se -21.734417 2.464293 10.146442
Se -23.907460 3.718899 13.691362
Se -21.734417 2.464293 17.236282
Se -23.907460 3.718899 20.781202
Se -21.734417 2.464293 24.326122
Se -23.907460 6.228113 -18.212918
Se -23.907460 6.228113 -11.123078
Se -23.907460 6.228113 -4.033238
Se -23.907460 6.228113 3.056602
Se -23.907460 6.228113 10.146442
Se -23.907460 6.228113 17.236282
Se -23.907460 6.228113 24.326122
Se -4.350075 -22.627843 -21.757838
Se -2.177033 -23.882450 -18.212918
Se -4.350075 -22.627843 -14.667998
Se -2.177033 -23.882450 -11.123078
Se -4.350075 -22.627843 -7.578158
Se -2.177033 -23.882450 -4.033238
Se -4.350075 -22.627843 -0.488318
Se -2.177033 -23.882450 3.056602
Se -4.350075 -22.627843 6.601522
Se -2.177033 -23.882450 10.146442
Se -4.350075 -22.627843 13.691362
Se -2.177033 -23.882450 17.236282
Se -4.350075 -22.627843 20.781202
Se -2.177033 -23.882450 24.326122
Se -6.523118 -18.864023 -21.757838
Se -4.350075 -20.118630 -18.212918
Se -6.523118 -18.864023 -14.667998
Se -4.350075 -20.118630 -11.123078
Se -6.523118 -18.864023 -7.578158
Se -4.350075 -20.118630 -4.033238
Se -6.523118 -18.864023 -0.488318
Se -4.350075 -20.118630 3.056602
Se -6.523118 -18.864023 6.601522
Se -4.350075 -20.118630 10.146442
Se -6.523118 -18.864023 13.691362
Se -4.350075 -20.118630 17.236282
Se -6.523118 -18.864023 20.781202
Se -4.350075 -20.118630 24.326122
Se -8.696161 -15.100202 -21.757838
Se -6.523118 -16.354809 -18.212918
Se -8.696161 -15.100202 -14.667998
Se -6.523118 -16.354809 -11.123078
Se -8.696161 -15.100202 -7.578158
Se -6.523118 -16.354809 -4.033238
Se -8.696161 -15.100202 -0.488318
Se -6.523118 -16.354809 3.056602
Se -8.696161 -15.100202 6.601522
Se -6.523118 -16.354809 10.146442
Se -8.696161 -15.100202 13.691362
Se -6.523118 -16.354809 17.236282
Se -8.696161 -15.100202 20.781202
Se -6.523118 -16.354809 24.326122
Se -10.869203 -11.336382 -21.757838
Se -8.696161 -12.590989 -18.212918
Se -10.869203 -11.336382 -14.667998
Se -8.696161 -12.590989 -11.123078
Se -10.869203 -11.336382 -7.578158
Se -8.696161 -12.590989 -4.033238
Se -10.869203 -11.336382 -0.488318
Se -8.696161 -12.590989 3.056602
Se -10.869203 -11.336382 6.601522
Se -8.696161 -12.590989 10.146442
Se -10.869203 -11.336382 13.691362
Se -8.696161 -12.590989 17.236282
Se -10.869203 -11.336382 20.781202
Se -8.696161 -12.590989 24.326122
Se -13.042246 -7.572562 -21.757838
Se -10.869203 -8.827168 -18.212918
Se -13.042246 -7.572562 -14.667998
Se -10.869203 -8.827168 -11.123078
Se -13.042246 -7.572562 -7.578158
Se -10.869203 -8.827168 -4.033238
Se -13.042246 -7.572562 -0.488318
Se -10.869203 -8.827168 3.056602
Se -13.042246 -7.572562 6.601522
Se -10.869203 -8.827168 10.146442
Se -13.042246 -7.572562 13.691362
Se -10.869203 -8.827168 17.236282
Se -13.042246 -7.572562 20.781202
Se -10.869203 -8.827168 24.326122
Se -15.215289 -3.808741 -21.757838
Se -13.042246 -5.063348 -18.212918
Se -15.215289 -3.808741 -14.667998
Se -13.042246 -5.063348 -11.123078
Se -15.215289 -3.808741 -7.578158
Se -13.042246 -5.063348 -4.033238
Se -15.215289 -3.808741 -0.488318
Se -13.042246 -5.063348 3.056602
Se -15.215289 -3.808741 6.601522
Se -13.042246 -5.063348 10.146442
Se -15.215289 -3.808741 13.691362
Se -13.042246 -5.063348 17.236282
Se -15.215289 -3.808741 20.781202
Se -13.042246 -5.063348 24.326122
Se -17.388332 -0.044921 -21.757838
Se -15.215289 -1.299528 -18.212918
Se -17.388332 -0.044921 -14.667998
Se -15.215289 -1.299528 -11.123078
Se -17.388332 -0.044921 -7.578158
Se -15.215289 -1.299528 -4.033238
Se -17.388332 -0.044921 -0.488318
Se -15.215289 -1.299528 3.056602
Se -17.388332 -0.044921 6.601522
Se -15.215289 -1.299528 10.146442
Se -17.388332 -0.044921 13.691362
Se -15.215289 -1.299528 17.236282
Se -17.388332 -0.044921 20.781202
Se -15.215289 -1.299528 24.326122
Se -19.561374 3.718899 -21.757838
Se -17.388332 2.464293 -18.212918
Se -19.561374 3.718899 -14.667998
Se -17.388332 2.464293 -11.123078
Se -19.561374 3.718899 -7.578158
Se -17.388332 2.464293 -4.033238
Se -19.561374 3.718899 -0.488318
Se -17.388332 2.464293 3.056602
Se -19.561374 3.718899 6.601522
Se -17.388332 2.464293 10.146442
Se -19.561374 3.718899 13.691362
Se -17.388332 2.464293 17.236282
Se -19.561374 3.718899 20.781202
Se -17.388332 2.464293 24.326122
Se -19.561374 6.228113 -25.302758
Se -21.734417 7.482720 -21.757838
Se -19.561374 6.228113 -18.212918
Se -21.734417 7.482720 -14.667998
Se -19.561374 6.228113 -11.123078
Se -21.734417 7.482720 -7.578158
Se -19.561374 6.228113 -4.033238
Se -21.734417 7.482720 -0.488318
Se -19.561374 6.228113 3.056602
Se -21.734417 7.482720 6.601522
Se -19.561374 6.228113 10.146442
Se -21.734417 7.482720 13.691362
Se -19.561374 6.228113 17.236282
Se -21.734417 7.482720 20.781202
Se -19.561374 6.228113 24.326122
Se -21.734417 9.991933 -18.212918
Se -21.734417 9.991933 -11.123078
Se -21.734417 9.991933 -4.033238
Se -21.734417 9.991933 3.056602
Se -21.734417 9.991933 10.146442
Se -21.734417 9.991933 17.236282
Se -21.734417 9.991933 24.326122
Se -0.003990 -22.627843 -21.757838
Se 2.169053 -23.882450 -18.212918
Se -0.003990 -22.627843 -14.667998
Se 2.169053 -23.882450 -11.123078
Se -0.003990 -22.627843 -7.578158
Se 2.169053 -23.882450 -4.033238
Se -0.003990 -22.627843 -0.488318
Se 2.169053 -23.882450 3.056602
Se -0.003990 -22.627843 6.601522
Se 2.169053 -23.882450 10.146442
Se -0.003990 -22.627843 13.691362
Se 2.169053 -23.882450 17.236282
Se -0.003990 -22.627843 20.781202
Se 2.169053 -23.882450 24.326122
Se -2.177033 -18.864023 -21.757838
Se -0.003990 -20.118630 -18.212918
Se -2.177033 -18.864023 -14.667998
Se -0.003990 -20.118630 -11.123078
Se -2.177033 -18.864023 -7.578158
Se -0.003990 -20.118630 -4.033238
Se -2.177033 -18.864023 -0.488318
Se -0.003990 -20.118630 3.056602
Se -2.177033 -18.864023 6.601522
Se -0.003990 -20.118630 10.146442
Se -2.177033 -18.864023 13.691362
Se -0.003990 -20.118630 17.236282
Se -2.177033 -18.864023 20.781202
Se -0.003990 -20.118630 24.326122
Se -4.350075 -15.100202 -21.757838
Se -2.177033 -16.354809 -18.212918
Se -4.350075 -15.100202 -14.667998
Se -2.177033 -16.354809 -11.123078
Se -4.350075 -15.100202 -7.578158
Se -2.177033 -16.354809 -4.033238
Se -4.350075 -15.100202 -0.488318
Se -2.177033 -16.354809 3.056602
Se -4.350075 -15.100202 6.601522
Se -2.177033 -16.354809 10.146442
Se -4.350075 -15.100202 13.691362
Se -2.177033 -16.354809 17.236282
Se -4.350075 -15.100202 20.781202
Se -2.177033 -16.354809 24.326122
Se -6.523118 -11.336382 -21.757838
Se -4.350075 -12.590989 -18.212918
Se -6.523118 -11.336382 -14.667998
Se -4.350075 -12.590989 -11.123078
Se -6.523118 -11.336382 -7.578158
Se -4.350075 -12.590989 -4.033238
Se -6.523118 -11.336382 -0.488318
Se -4.350075 -12.590989 3.056602
Se -6.523118 -11.336382 6.601522
Se -4.350075 -12.590989 10.146442
Se -6.523118 -11.336382 13.691362
Se -4.350075 -12.590989 17.236282
Se -6.523118 -11.336382 20.781202
Se -4.350075 -12.590989 24.326122
Se -8.696161 -7.572562 -21.757838
Se -6.523118 -8.827168 -18.212918
Se -8.696161 -7.572562 -14.667998
Se -6.523118 -8.827168 -11.123078
Se -8.696161 -7.572562 -7.578158
Se -6.523118 -8.827168 -4.033238
Se -8.696161 -7.572562 -0.488318
Se -6.523118 -8.827168 3.056602
Se -8.696161 -7.572562 6.601522
Se -6.523118 -8.827168 10.146442
Se -8.696161 -7.572562 13.691362
Se -6.523118 -8.827168 17.236282
Se -8.696161 -7.572562 20.781202
Se -6.523118 -8.827168 24.326122
Se -10.869203 -3.808741 -21.757838
Se -8.696161 -5.063348 -18.212918
Se -10.869203 -3.808741 -14.667998
Se -8.696161 -5.063348 -11.123078
Se -10.869203 -3.808741 -7.578158
Se -8.696161 -5.063348 -4.033238
Se -10.869203 -3.808741 -0.488318
Se -8.696161 -5.063348 3.056602
Se -10.869203 -3.808741 6.601522
Se -8.696161 -5.063348 10.146442
Se -10.869203 -3.808741 13.691362
Se -8.696161 -5.063348 17.236282
Se -10.869203 -3.808741 20.781202
Se -8.696161 -5.063348 24.326122
Se -13.042246 -0.044921 -21.757838
Se -10.869203 -1.299528 -18.212918
Se -13.042246 -0.044921 -14.667998
Se -10.869203 -1.299528 -11.123078
Se -13.042246 -0.044921 -7.578158
Se -10.869203 -1.299528 -4.033238
Se -13.042246 -0.044921 -0.488318
Se -10.869203 -1.299528 3.056602
Se -13.042246 -0.044921 6.601522
Se -10.869203 -1.299528 10.146442
Se -13.042246 -0.044921 13.691362
Se -10.869203 -1.299528 17.236282
Se -13.042246 -0.044921 20.781202
Se -10.869203 -1.299528 24.326122
Se -15.215289 3.718899 -21.757838
Se -13.042246 2.464293 -18.212918
Se -15.215289 3.718899 -14.667998
Se -13.042246 2.464293 -11.123078
Se -15.215289 3.718899 -7.578158
Se -13.042246 2.464293 -4.033238
Se -15.215289 3.718899 -0.488318
Se -13.042246 2.464293 3.056602
Se -15.215289 3.718899 6.601522
Se -13.042246 2.464293 10.146442
Se -15.215289 3.718899 13.691362
Se -13.042246 2.464293 17.236282
Se -15.215289 3.718899 20.781202
Se -13.042246 2.464293 24.326122
Se -17.388332 7.482720 -21.757838
Se -15.215289 6.228113 -18.212918
Se -17.388332 7.482720 -14.667998
Se -15.215289 6.228113 -11.123078
Se -17.388332 7.482720 -7.578158
Se -15.215289 6.228113 -4.033238
Se -17.388332 7.482720 -0.488318
Se -15.215289 6.228113 3.056602
Se -17.388332 7.482720 6.601522
Se -15.215289 6.228113 10.146442
Se -17.388332 7.482720 13.691362
Se -15.215289 6.228113 17.236282
Se -17.388332 7.482720 20.781202
Se -15.215289 6.228113 24.326122
Se -19.561374 11.246540 -21.757838
Se -17.388332 9.991933 -18.212918
Se -19.561374 11.246540 -14.667998
Se -17.388332 9.991933 -11.123078
Se -19.561374 11.246540 -7.578158
Se -17.388332 9.991933 -4.033238
Se -19.561374 11.246540 -0.488318
Se -17.388332 9.991933 3.056602
Se -19.561374 11.246540 6.601522
Se -17.388332 9.991933 10.146442
Se -19.561374 11.246540 13.691362
Se -17.388332 9.991933 17.236282
Se -19.561374 11.246540 20.781202
Se -17.388332 9.991933 24.326122
Se -19.561374 13.755754 -18.212918
Se -19.561374 13.755754 -11.123078
Se -19.561374 13.755754 -4.033238
Se -19.561374 13.755754 3.056602
Se -19.561374 13.755754 10.146442
Se -19.561374 13.755754 17.236282
Se -19.561374 13.755754 24.326122
Se 4.342095 -22.627843 -21.757838
Se 6.515138 -23.882450 -18.212918
Se 4.342095 -22.627843 -14.667998
Se 6.515138 -23.882450 -11.123078
Se 4.342095 -22.627843 -7.578158
Se 6.515138 -23.882450 -4.033238
Se 4.342095 -22.627843 -0.488318
Se 6.515138 -23.882450 3.056602
Se 4.342095 -22.627843 6.601522
Se 6.515138 -23.882450 10.146442
Se 4.342095 -22.627843 13.691362
Se 6.515138 -23.882450 17.236282
Se 4.342095 -22.627843 20.781202
Se 6.515138 -23.882450 24.326122
Se 4.342095 -20.118630 -25.302758
Se 2.169053 -18.864023 -21.757838
Se 4.342095 -20.118630 -18.212918
Se 2.169053 -18.864023 -14.667998
Se 4.342095 -20.118630 -11.123078
Se 2.169053 -18.864023 -7.578158
Se 4.342095 -20.118630 -4.033238
Se 2.169053 -18.864023 -0.488318
Se 4.342095 -20.118630 3.056602
Se 2.169053 -18.864023 6.601522
Se 4.342095 -20.118630 10.146442
Se 2.169053 -18.864023 13.691362
Se 4.342095 -20.118630 17.236282
Se 2.169053 -18.864023 20.781202
Se 4.342095 -20.118630 24.326122
Se -0.003990 -15.100202 -21.757838
Se 2.169053 -16.354809 -18.212918
Se -0.003990 -15.100202 -14.667998
Se 2.169053 -16.354809 -11.123078
Se -0.003990 -15.100202 -7.578158
Se 2.169053 -16.354809 -4.033238
Se -0.003990 -15.100202 -0.488318
Se 2.169053 -16.354809 3.056602
Se -0.003990 -15.100202 6.601522
Se 2.169053 -16.354809 10.146442
Se -0.003990 -15.100202 13.691362
Se 2.169053 -16.354809 17.236282
Se -0.003990 -15.100202 20.781202
Se 2.169053 -16.354809 24.326122
Se -2.177033 -11.336382 -21.757838
Se -0.003990 -12.590989 -18.212918
Se -2.177033 -11.336382 -14.667998
Se -0.003990 -12.590989 -11.123078
Se -2.177033 -11.336382 -7.578158
Se -0.003990 -12.590989 -4.033238
Se -2.177033 -11.336382 -0.488318
Se -0.003990 -12.590989 3.056602
Se -2.177033 -11.336382 6.601522
Se -0.003990 -12.590989 10.146442
Se -2.177033 -11.336382 13.691362
Se -0.003990 -12.590989 17.236282
Se -2.177033 -11.336382 20.781202
Se -0.003990 -12.590989 24.326122
Se -4.350075 -7.572562 -21.757838
Se -2.177033 -8.827168 -18.212918
Se -4.350075 -7.572562 -14.667998
Se -2.177033 -8.827168 -11.123078
Se -4.350075 -7.572562 -7.578158
Se -2.177033 -8.827168 -4.033238
Se -4.350075 -7.572562 -0.488318
Se -2.177033 -8.827168 3.056602
Se -4.350075 -7.572562 6.601522
Se -2.177033 -8.827168 10.146442
Se -4.350075 -7.572562 13.691362
Se -2.177033 -8.827168 17.236282
Se -4.350075 -7.572562 20.781202
Se -2.177033 -8.827168 24.326122
Se -6.523118 -3.808741 -21.757838
Se -4.350075 -5.063348 -18.212918
Se -6.523118 -3.808741 -14.667998
Se -4.350075 -5.063348 -11.123078
Se -6.523118 -3.808741 -7.578158
Se -4.350075 -5.063348 -4.033238
Se -6.523118 -3.808741 -0.488318
Se -4.350075 -5.063348 3.056602
Se -6.523118 -3.808741 6.601522
Se -4.350075 -5.063348 10.146442
Se -6.523118 -3.808741 13.691362
Se -4.350075 -5.063348 17.236282
Se -6.523118 -3.808741 20.781202
Se -4.350075 -5.063348 24.326122
Se -8.696161 -0.044921 -21.757838
Se -6.523118 -1.299528 -18.212918
Se -8.696161 -0.044921 -14.667998
Se -6.523118 -1.299528 -11.123078
Se -8.696161 -0.044921 -7.578158
Se -6.523118 -1.299528 -4.033238
Se -8.696161 -0.044921 -0.488318
Se -6.523118 -1.299528 3.056602
Se -8.696161 -0.044921 6.601522
Se -6.523118 -1.299528 10.146442
Se -8.696161 -0.044921 13.691362
Se -6.523118 -1.299528 17.236282
Se -8.696161 -0.044921 20.781202
Se -6.523118 -1.299528 24.326122
Se -10.869203 3.718899 -21.757838
Se -8.696161 2.464293 -18.212918
Se -10.869203 3.718899 -14.667998
Se -8.696161 2.464293 -11.123078
Se -10.869203 3.718899 -7.578158
Se -8.696161 2.464293 -4.033238
Se -10.869203 3.718899 -0.488318
Se -8.696161 2.464293 3.056602
Se -10.869203 3.718899 6.601522
Se -8.696161 2.464293 10.146442
Se -10.869203 3.718899 13.691362
Se -8.696161 2.464293 17.236282
Se -10.869203 3.718899 20.781202
Se -8.696161 2.464293 24.326122
Se -13.042246 7.482720 -21.757838
Se -10.869203 6.228113 -18.212918
Se -13.042246 7.482720 -14.667998
Se -10.869203 6.228113 -11.123078
Se -13.042246 7.482720 -7.578158
Se -10.869203 6.228113 -4.033238
Se -13.042246 7.482720 -0.488318
Se -10.869203 6.228113 3.056602
Se -13.042246 7.482720 6.601522
Se -10.869203 6.228113 10.146442
Se -13.042246 7.482720 13.691362
Se -10.869203 6.228113 17.236282
Se -13.042246 7.482720 20.781202
Se -10.869203 6.228113 24.326122
Se -15.215289 11.246540 -21.757838
Se -13.042246 9.991933 -18.212918
Se -15.215289 11.246540 -14.667998
Se -13.042246 9.991933 -11.123078
Se -15.215289 11.246540 -7.578158
Se -13.042246 9.991933 -4.033238
Se -15.215289 11.246540 -0.488318
Se -13.042246 9.991933 3.056602
Se -15.215289 11.246540 6.601522
Se -13.042246 9.991933 10.146442
Se -15.215289 11.246540 13.691362
Se -13.042246 9.991933 17.236282
Se -15.215289 11.246540 20.781202
Se -13.042246 9.991933 24.326122
Se -17.388332 15.010360 -21.757838
Se -15.215289 13.755754 -18.212918
Se -17.388332 15.010360 -14.667998
Se -15.215289 13.755754 -11.123078
Se -17.388332 15.010360 -7.578158
Se -15.215289 13.755754 -4.033238
Se -17.388332 15.010360 -0.488318
Se -15.215289 13.755754 3.056602
Se -17.388332 15.010360 6.601522
Se -15.215289 13.755754 10.146442
Se -17.388332 15.010360 13.691362
Se -15.215289 13.755754 17.236282
Se -17.388332 15.010360 20.781202
Se -15.215289 13.755754 24.326122
Se -17.388332 17.519574 -18.212918
Se -17.388332 17.519574 -11.123078
Se -17.388332 17.519574 -4.033238
Se -17.388332 17.519574 3.056602
Se -17.388332 17.519574 10.146442
Se -17.388332 17.519574 17.236282
Se -17.388332 17.519574 24.326122
Se 8.688181 -22.627843 -21.757838
Se 10.861223 -23.882450 -18.212918
Se 8.688181 -22.627843 -14.667998
Se 10.861223 -23.882450 -11.123078
Se 8.688181 -22.627843 -7.578158
Se 10.861223 -23.882450 -4.033238
Se 8.688181 -22.627843 -0.488318
Se 10.861223 -23.882450 3.056602
Se 8.688181 -22.627843 6.601522
Se 10.861223 -23.882450 10.146442
Se 8.688181 -22.627843 13.691362
Se 10.861223 -23.882450 17.236282
Se 8.688181 -22.627843 20.781202
Se 10.861223 -23.882450 24.326122
Se 6.515138 -18.864023 -21.757838
Se 8.688181 -20.118630 -18.212918
Se 6.515138 -18.864023 -14.667998
Se 8.688181 -20.118630 -11.123078
Se 6.515138 -18.864023 -7.578158
Se 8.688181 -20.118630 -4.033238
Se 6.515138 -18.864023 -0.488318
Se 8.688181 -20.118630 3.056602
Se 6.515138 -18.864023 6.601522
Se 8.688181 -20.118630 10.146442
Se 6.515138 -18.864023 13.691362
Se 8.688181 -20.118630 17.236282
Se 6.515138 -18.864023 20.781202
Se 8.688181 -20.118630 24.326122
Se 4.342095 -15.100202 -21.757838
Se 6.515138 -16.354809 -18.212918
Se 4.342095 -15.100202 -14.667998
Se 6.515138 -16.354809 -11.123078
Se 4.342095 -15.100202 -7.578158
Se 6.515138 -16.354809 -4.033238
Se 4.342095 -15.100202 -0.488318
Se 6.515138 -16.354809 3.056602
Se 4.342095 -15.100202 6.601522
Se 6.515138 -16.354809 10.146442
Se 4.342095 -15.100202 13.691362
Se 6.515138 -16.354809 17.236282
Se 4.342095 -15.100202 20.781202
Se 6.515138 -16.354809 24.326122
Se 2.169053 -11.336382 -21.757838
Se 4.342095 -12.590989 -18.212918
Se 2.169053 -11.336382 -14.667998
Se 4.342095 -12.590989 -11.123078
Se 2.169053 -11.336382 -7.578158
Se 4.342095 -12.590989 -4.033238
Se 2.169053 -11.336382 -0.488318
Se 4.342095 -12.590989 3.056602
Se 2.169053 -11.336382 6.601522
Se 4.342095 -12.590989 10.146442
Se 2.169053 -11.336382 13.691362
Se 4.342095 -12.590989 17.236282
Se 2.169053 -11.336382 20.781202
Se 4.342095 -12.590989 24.326122
Se -0.003990 -7.572562 -21.757838
Se 2.169053 -8.827168 -18.212918
Se -0.003990 -7.572562 -14.667998
Se 2.169053 -8.827168 -11.123078
Se -0.003990 -7.572562 -7.578158
Se 2.169053 -8.827168 -4.033238
Se -0.003990 -7.572562 -0.488318
Se 2.169053 -8.827168 3.056602
Se -0.003990 -7.572562 6.601522
Se 2.169053 -8.827168 10.146442
Se -0.003990 -7.572562 13.691362
Se 2.169053 -8.827168 17.236282
Se -0.003990 -7.572562 20.781202
Se 2.169053 -8.827168 24.326122
Se -2.177033 -3.808741 -21.757838
Se -0.003990 -5.063348 -18.212918
Se -2.177033 -3.808741 -14.667998
Se -0.003990 -5.063348 -11.123078
Se -2.177033 -3.808741 -7.578158
Se -0.003990 -5.063348 -4.033238
Se -2.177033 -3.808741 -0.488318
Se -0.003990 -5.063348 3.056602
Se -2.177033 -3.808741 6.601522
Se -0.003990 -5.063348 10.146442
Se -2.177033 -3.808741 13.691362
Se -0.003990 -5.063348 17.236282
Se -2.177033 -3.808741 20.781202
Se -0.003990 -5.063348 24.326122
Se -4.350075 -0.044921 -21.757838
Se -2.177033 -1.299528 -18.212918
Se -4.350075 -0.044921 -14.667998
Se -2.177033 -1.299528 -11.123078
Se -4.350075 -0.044921 -7.578158
Se -2.177033 -1.299528 -4.033238
Se -4.350075 -0.044921 -0.488318
Se -2.177033 -1.299528 3.056602
Se -4.350075 -0.044921 6.601522
Se -2.177033 -1.299528 10.146442
Se -4.350075 -0.044921 13.691362
Se -2.177033 -1.299528 17.236282
Se -4.350075 -0.044921 20.781202
Se -2.177033 -1.299528 24.326122
Se -6.523118 3.718899 -21.757838
Se -4.350075 2.464293 -18.212918
Se -6.523118 3.718899 -14.667998
Se -4.350075 2.464293 -11.123078
Se -6.523118 3.718899 -7.578158
Se -4.350075 2.464293 -4.033238
Se -6.523118 3.718899 -0.488318
Se -4.350075 2.464293 3.056602
Se -6.523118 3.718899 6.601522
Se -4.350075 2.464293 10.146442
Se -6.523118 3.718899 13.691362
Se -4.350075 2.464293 17.236282
Se -6.523118 3.718899 20.781202
Se -4.350075 2.464293 24.326122
Se -8.696161 7.482720 -21.757838
Se -6.523118 6.228113 -18.212918
Se -8.696161 7.482720 -14.667998
Se -6.523118 6.228113 -11.123078
Se -8.696161 7.482720 -7.578158
Se -6.523118 6.228113 -4.033238
Se -8.696161 7.482720 -0.488318
Se -6.523118 6.228113 3.056602
Se -8.696161 7.482720 6.601522
Se -6.523118 6.228113 10.146442
Se -8.696161 7.482720 13.691362
Se -6.523118 6.228113 17.236282
Se -8.696161 7.482720 20.781202
Se -6.523118 6.228113 24.326122
Se -10.869203 11.246540 -21.757838
Se -8.696161 9.991933 -18.212918
Se -10.869203 11.246540 -14.667998
Se -8.696161 9.991933 -11.123078
Se -10.869203 11.246540 -7.578158
Se -8.696161 9.991933 -4.033238
Se -10.869203 11.246540 -0.488318
Se -8.696161 9.991933 3.056602
Se -10.869203 11.246540 6.601522
Se -8.696161 9.991933 10.146442
Se -10.869203 11.246540 13.691362
Se -8.696161 9.991933 17.236282
Se -10.869203 11.246540 20.781202
Se -8.696161 9.991933 24.326122
Se -13.042246 15.010360 -21.757838
Se -10.869203 13.755754 -18.212918
Se -13.042246 15.010360 -14.667998
Se -10.869203 13.755754 -11.123078
Se -13.042246 15.010360 -7.578158
Se -10.869203 13.755754 -4.033238
Se -13.042246 15.010360 -0.488318
Se -10.869203 13.755754 3.056602
Se -13.042246 15.010360 6.601522
Se -10.869203 13.755754 10.146442
Se -13.042246 15.010360 13.691362
Se -10.869203 13.755754 17.236282
Se -13.042246 15.010360 20.781202
Se -10.869203 13.755754 24.326122
Se -13.042246 17.519574 -25.302758
Se -15.215289 18.774181 -21.757838
Se -13.042246 17.519574 -18.212918
Se -15.215289 18.774181 -14.667998
Se -13.042246 17.519574 -11.123078
Se -15.215289 18.774181 -7.578158
Se -13.042246 17.519574 -4.033238
Se -15.215289 18.774181 -0.488318
Se -13.042246 17.519574 3.056602
Se -15.215289 18.774181 6.601522
Se -13.042246 17.519574 10.146442
Se -15.215289 18.774181 13.691362
Se -13.042246 17.519574 17.236282
Se -15.215289 18.774181 20.781202
Se -13.042246 17.519574 24.326122
Se -15.215289 21.283394 -18.212918
Se -15.215289 21.283394 -11.123078
Se -15.215289 21.283394 -4.033238
Se -15.215289 21.283394 3.056602
Se -15.215289 21.283394 10.146442
Se -15.215289 21.283394 17.236282
Se -15.215289 21.283394 24.326122
Se 13.034266 -22.627843 -21.757838
Se 15.207309 -23.882450 -18.212918
Se 13.034266 -22.627843 -14.667998
Se 15.207309 -23.882450 -11.123078
Se 13.034266 -22.627843 -7.578158
Se 15.207309 -23.882450 -4.033238
Se 13.034266 -22.627843 -0.488318
Se 15.207309 -23.882450 3.056602
Se 13.034266 -22.627843 6.601522
Se 15.207309 -23.882450 10.146442
Se 13.034266 -22.627843 13.691362
Se 15.207309 -23.882450 17.236282
Se 13.034266 -22.627843 20.781202
Se 10.861223 -18.864023 -21.757838
Se 13.034266 -20.118630 -18.212918
Se 10.861223 -18.864023 -14.667998
Se 13.034266 -20.118630 -11.123078
Se 10.861223 -18.864023 -7.578158
Se 13.034266 -20.118630 -4.033238
Se 10.861223 -18.864023 -0.488318
Se 13.034266 -20.118630 3.056602
Se 10.861223 -18.864023 6.601522
Se 13.034266 -20.118630 10.146442
Se 10.861223 -18.864023 13.691362
Se 13.034266 -20.118630 17.236282
Se 10.861223 -18.864023 20.781202
Se 13.034266 -20.118630 24.326122
Se 8.688181 -15.100202 -21.757838
Se 10.861223 -16.354809 -18.212918
Se 8.688181 -15.100202 -14.667998
Se 10.861223 -16.354809 -11.123078
Se 8.688181 -15.100202 -7.578158
Se 10.861223 -16.354809 -4.033238
Se 8.688181 -15.100202 -0.488318
Se 10.861223 -16.354809 3.056602
Se 8.688181 -15.100202 6.601522
Se 10.861223 -16.354809 10.146442
Se 8.688181 -15.100202 13.691362
Se 10.861223 -16.354809 17.236282
Se 8.688181 -15.100202 20.781202
Se 10.861223 -16.354809 24.326122
Se 6.515138 -11.336382 -21.757838
Se 8.688181 -12.590989 -18.212918
Se 6.515138 -11.336382 -14.667998
Se 8.688181 -12.590989 -11.123078
Se 6.515138 -11.336382 -7.578158
Se 8.688181 -12.590989 -4.033238
Se 6.515138 -11.336382 -0.488318
Se 8.688181 -12.590989 3.056602
Se 6.515138 -11.336382 6.601522
Se 8.688181 -12.590989 10.146442
Se 6.515138 -11.336382 13.691362
Se 8.688181 -12.590989 17.236282
Se 6.515138 -11.336382 20.781202
Se 8.688181 -12.590989 24.326122
Se 4.342095 -7.572562 -21.757838
Se 6.515138 -8.827168 -18.212918
Se 4.342095 -7.572562 -14.667998
Se 6.515138 -8.827168 -11.123078
Se 4.342095 -7.572562 -7.578158
Se 6.515138 -8.827168 -4.033238
Se 4.342095 -7.572562 -0.488318
Se 6.515138 -8.827168 3.056602
Se 4.342095 -7.572562 6.601522
Se 6.515138 -8.827168 10.146442
Se 4.342095 -7.572562 13.691362
Se 6.515138 -8.827168 17.236282
Se 4.342095 -7.572562 20.781202
Se 6.515138 -8.827168 24.326122
Se 2.169053 -3.808741 -21.757838
Se 4.342095 -5.063348 -18.212918
Se 2.169053 -3.808741 -14.667998
Se 4.342095 -5.063348 -11.123078
Se 2.169053 -3.808741 -7.578158
Se 4.342095 -5.063348 -4.033238
Se 2.169053 -3.808741 -0.488318
Se 4.342095 -5.063348 3.056602
Se 2.169053 -3.808741 6.601522
Se 4.342095 -5.063348 10.146442
Se 2.169053 -3.808741 13.691362
Se 4.342095 -5.063348 17.236282
Se 2.169053 -3.808741 20.781202
Se 4.342095 -5.063348 24.326122
Se -0.003990 -0.044921 -21.757838
Se 2.169053 -1.299528 -18.212918
Se -0.003990 -0.044921 -14.667998
Se 2.169053 -1.299528 -11.123078
Se -0.003990 -0.044921 -7.578158
Se 2.169053 -1.299528 -4.033238
Se -0.003990 -0.044921 -0.488318
Se 2.169053 -1.299528 3.056602
Se -0.003990 -0.044921 6.601522
Se 2.169053 -1.299528 10.146442
Se -0.003990 -0.044921 13.691362
Se 2.169053 -1.299528 17.236282
Se -0.003990 -0.044921 20.781202
Se 2.169053 -1.299528 24.326122
Se -2.177033 3.718899 -21.757838
Se -0.003990 2.464293 -18.212918
Se -2.177033 3.718899 -14.667998
Se -0.003990 2.464293 -11.123078
Se -2.177033 3.718899 -7.578158
Se -0.003990 2.464293 -4.033238
Se -2.177033 3.718899 -0.488318
Se -0.003990 2.464293 3.056602
Se -2.177033 3.718899 6.601522
Se -0.003990 2.464293 10.146442
Se -2.177033 3.718899 13.691362
Se -0.003990 2.464293 17.236282
Se -2.177033 3.718899 20.781202
Se -0.003990 2.464293 24.326122
Se -4.350075 7.482720 -21.757838
Se -2.177033 6.228113 -18.212918
Se -4.350075 7.482720 -14.667998
Se -2.177033 6.228113 -11.123078
Se -4.350075 7.482720 -7.578158
Se -2.177033 6.228113 -4.033238
Se -4.350075 7.482720 -0.488318
Se -2.177033 6.228113 3.056602
Se -4.350075 7.482720 6.601522
Se -2.177033 6.228113 10.146442
Se -4.350075 7.482720 13.691362
Se -2.177033 6.228113 17.236282
Se -4.350075 7.482720 20.781202
Se -2.177033 6.228113 24.326122
Se -6.523118 11.246540 -21.757838
Se -4.350075 9.991933 -18.212918
Se -6.523118 11.246540 -14.667998
Se -4.350075 9.991933 -11.123078
Se -6.523118 11.246540 -7.578158
Se -4.350075 9.991933 -4.033238
Se -6.523118 11.246540 -0.488318
Se -4.350075 9.991933 3.056602
Se -6.523118 11.246540 6.601522
Se -4.350075 9.991933 10.146442
Se -6.523118 11.246540 13.691362
Se -4.350075 9.991933 17.236282
Se -6.523118 11.246540 20.781202
Se -4.350075 9.991933 24.326122
Se -8.696161 15.010360 -21.757838
Se -6.523118 13.755754 -18.212918
Se -8.696161 15.010360 -14.667998
Se -6.523118 13.755754 -11.123078
Se -8.696161 15.010360 -7.578158
Se -6.523118 13.755754 -4.033238
Se -8.696161 15.010360 -0.488318
Se -6.523118 13.755754 3.056602
Se -8.696161 15.010360 6.601522
Se -6.523118 13.755754 10.146442
Se -8.696161 15.010360 13.691362
Se -6.523118 13.755754 17.236282
Se -8.696161 15.010360 20.781202
Se -6.523118 13.755754 24.326122
Se -10.869203 18.774181 -21.757838
Se -8.696161 17.519574 -18.212918
Se -10.869203 18.774181 -14.667998
Se -8.696161 17.519574 -11.123078
Se -10.869203 18.774181 -7.578158
Se -8.696161 17.519574 -4.033238
Se -10.869203 18.774181 -0.488318
Se -8.696161 17.519574 3.056602
Se -10.869203 18.774181 6.601522
Se -8.696161 17.519574 10.146442
Se -10.869203 18.774181 13.691362
Se -8.696161 17.519574 17.236282
Se -10.869203 18.774181 20.781202
Se -8.696161 17.519574 24.326122
Se -13.042246 22.538001 -21.757838
Se -10.869203 21.283394 -18.212918
Se -13.042246 22.538001 -14.667998
Se -10.869203 21.283394 -11.123078
Se -13.042246 22.538001 -7.578158
Se -10.869203 21.283394 -4.033238
Se -13.042246 22.538001 -0.488318
Se -10.869203 21.283394 3.056602
Se -13.042246 22.538001 6.601522
Se -10.869203 21.283394 10.146442
Se -13.042246 22.538001 13.691362
Se -10.869203 21.283394 17.236282
Se -13.042246 22.538001 20.781202
Se -10.869203 21.283394 24.326122
Se -13.042246 25.047215 -18.212918
Se -13.042246 25.047215 -11.123078
Se -13.042246 25.047215 -4.033238
Se -13.042246 25.047215 3.056602
Se -13.042246 25.047215 10.146442
Se -13.042246 25.047215 17.236282
Se -13.042246 25.047215 24.326122
Se 17.380352 -22.627843 -21.757838
Se 17.380352 -22.627843 -14.667998
Se 17.380352 -22.627843 -7.578158
Se 17.380352 -22.627843 -0.488318
Se 17.380352 -22.627843 6.601522
Se 17.380352 -22.627843 13.691362
Se 17.380352 -22.627843 20.781202
Se 15.207309 -18.864023 -21.757838
Se 17.380352 -20.118630 -18.212918
Se 15.207309 -18.864023 -14.667998
Se 17.380352 -20.118630 -11.123078
Se 15.207309 -18.864023 -7.578158
Se 17.380352 -20.118630 -4.033238
Se 15.207309 -18.864023 -0.488318
Se 17.380352 -20.118630 3.056602
Se 15.207309 -18.864023 6.601522
Se 17.380352 -20.118630 10.146442
Se 15.207309 -18.864023 13.691362
Se 17.380352 -20.118630 17.236282
Se 15.207309 -18.864023 20.781202
Se 13.034266 -15.100202 -21.757838
Se 15.207309 -16.354809 -18.212918
Se 13.034266 -15.100202 -14.667998
Se 15.207309 -16.354809 -11.123078
Se 13.034266 -15.100202 -7.578158
Se 15.207309 -16.354809 -4.033238
Se 13.034266 -15.100202 -0.488318
Se 15.207309 -16.354809 3.056602
Se 13.034266 -15.100202 6.601522
Se 15.207309 -16.354809 10.146442
Se 13.034266 -15.100202 13.691362
Se 15.207309 -16.354809 17.236282
Se 13.034266 -15.100202 20.781202
Se 15.207309 -16.354809 24.326122
Se 10.861223 -11.336382 -21.757838
Se 13.034266 -12.590989 -18.212918
Se 10.861223 -11.336382 -14.667998
Se 13.034266 -12.590989 -11.123078
Se 10.861223 -11.336382 -7.578158
Se 13.034266 -12.590989 -4.033238
Se 10.861223 -11.336382 -0.488318
Se 13.034266 -12.590989 3.056602
Se 10.861223 -11.336382 6.601522
Se 13.034266 -12.590989 10.146442
Se 10.861223 -11.336382 13.691362
Se 13.034266 -12.590989 17.236282
Se 10.861223 -11.336382 20.781202
Se 13.034266 -12.590989 24.326122
Se 8.688181 -7.572562 -21.757838
Se 10.861223 -8.827168 -18.212918
Se 8.688181 -7.572562 -14.667998
Se 10.861223 -8.827168 -11.123078
Se 8.688181 -7.572562 -7.578158
Se 10.861223 -8.827168 -4.033238
Se 8.688181 -7.572562 -0.488318
Se 10.861223 -8.827168 3.056602
Se 8.688181 -7.572562 6.601522
Se 10.861223 -8.827168 10.146442
Se 8.688181 -7.572562 13.691362
Se 10.861223 -8.827168 17.236282
Se 8.688181 -7.572562 20.781202
Se 10.861223 -8.827168 24.326122
Se 6.515138 -3.808741 -21.757838
Se 8.688181 -5.063348 -18.212918
Se 6.515138 -3.808741 -14.667998
Se 8.688181 -5.063348 -11.123078
Se 6.515138 -3.808741 -7.578158
Se 8.688181 -5.063348 -4.033238
Se 6.515138 -3.808741 -0.488318
Se 8.688181 -5.063348 3.056602
Se 6.515138 -3.808741 6.601522
Se 8.688181 -5.063348 10.146442
Se 6.515138 -3.808741 13.691362
Se 8.688181 -5.063348 17.236282
Se 6.515138 -3.808741 20.781202
Se 8.688181 -5.063348 24.326122
Se 4.342095 -0.044921 -21.757838
Se 6.515138 -1.299528 -18.212918
Se 4.342095 -0.044921 -14.667998
Se 6.515138 -1.299528 -11.123078
Se 4.342095 -0.044921 -7.578158
Se 6.515138 -1.299528 -4.033238
Se 4.342095 -0.044921 -0.488318
Se 6.515138 -1.299528 3.056602
Se 4.342095 -0.044921 6.601522
Se 6.515138 -1.299528 10.146442
Se 4.342095 -0.044921 13.691362
Se 6.515138 -1.299528 17.236282
Se 4.342095 -0.044921 20.781202
Se 6.515138 -1.299528 24.326122
Se 2.169053 3.718899 -21.757838
Se 4.342095 2.464293 -18.212918
Se 2.169053 3.718899 -14.667998
Se 4.342095 2.464293 -11.123078
Se 2.169053 3.718899 -7.578158
Se 4.342095 2.464293 -4.033238
Se 2.169053 3.718899 -0.488318
Se 4.342095 2.464293 3.056602
Se 2.169053 3.718899 6.601522
Se 4.342095 2.464293 10.146442
Se 2.169053 3.718899 13.691362
Se 4.342095 2.464293 17.236282
Se 2.169053 3.718899 20.781202
Se 4.342095 2.464293 24.326122
Se -0.003990 7.482720 -21.757838
Se 2.169053 6.228113 -18.212918
Se -0.003990 7.482720 -14.667998
Se 2.169053 6.228113 -11.123078
Se -0.003990 7.482720 -7.578158
Se 2.169053 6.228113 -4.033238
Se -0.003990 7.482720 -0.488318
Se 2.169053 6.228113 3.056602
Se -0.003990 7.482720 6.601522
Se 2.169053 6.228113 10.146442
Se -0.003990 7.482720 13.691362
Se 2.169053 6.228113 17.236282
Se -0.003990 7.482720 20.781202
Se 2.169053 6.228113 24.326122
Se -2.177033 11.246540 -21.757838
Se -0.003990 9.991933 -18.212918
Se -2.177033 11.246540 -14.667998
Se -0.003990 9.991933 -11.123078
Se -2.177033 11.246540 -7.578158
Se -0.003990 9.991933 -4.033238
Se -2.177033 11.246540 -0.488318
Se -0.003990 9.991933 3.056602
Se -2.177033 11.246540 6.601522
Se -0.003990 9.991933 10.146442
Se -2.177033 11.246540 13.691362
Se -0.003990 9.991933 17.236282
Se -2.177033 11.246540 20.781202
Se -0.003990 9.991933 24.326122
Se -4.350075 15.010360 -21.757838
Se -2.177033 13.755754 -18.212918
Se -4.350075 15.010360 -14.667998
Se -2.177033 13.755754 -11.123078
Se -4.350075 15.010360 -7.578158
Se -2.177033 13.755754 -4.033238
Se -4.350075 15.010360 -0.488318
Se -2.177033 13.755754 3.056602
Se -4.350075 15.010360 6.601522
Se -2.177033 13.755754 10.146442
Se -4.350075 15.010360 13.691362
Se -2.177033 13.755754 17.236282
Se -4.350075 15.010360 20.781202
Se -2.177033 13.755754 24.326122
Se -6.523118 18.774181 -21.757838
Se -4.350075 17.519574 -18.212918
Se -6.523118 18.774181 -14.667998
Se -4.350075 17.519574 -11.123078
Se -6.523118 18.774181 -7.578158
Se -4.350075 17.519574 -4.033238
Se -6.523118 18.774181 -0.488318
Se -4.350075 17.519574 3.056602
Se -6.523118 18.774181 6.601522
Se -4.350075 17.519574 10.146442
Se -6.523118 18.774181 13.691362
Se -4.350075 17.519574 17.236282
Se -6.523118 18.774181 20.781202
Se -4.350075 17.519574 24.326122
Se -8.696161 22.538001 -21.757838
Se -6.523118 21.283394 -18.212918
Se -8.696161 22.538001 -14.667998
Se -6.523118 21.283394 -11.123078
Se -8.696161 22.538001 -7.578158
Se -6.523118 21.283394 -4.033238
Se -8.696161 22.538001 -0.488318
Se -6.523118 21.283394 3.056602
Se -8.696161 22.538001 6.601522
Se -6.523118 21.283394 10.146442
Se -8.696161 22.538001 13.691362
Se -6.523118 21.283394 17.236282
Se -8.696161 22.538001 20.781202
Se -6.523118 21.283394 24.326122
Se -10.869203 26.301821 -21.757838
Se -8.696161 25.047215 -18.212918
Se -10.869203 26.301821 -14.667998
Se -8.696161 25.047215 -11.123078
Se -10.869203 26.301821 -7.578158
Se -8.696161 25.047215 -4.033238
Se -10.869203 26.301821 -0.488318
Se -8.696161 25.047215 3.056602
Se -10.869203 26.301821 6.601522
Se -8.696161 25.047215 10.146442
Se -10.869203 26.301821 13.691362
Se -8.696161 25.047215 17.236282
Se -10.869203 26.301821 20.781202
Se -8.696161 25.047215 24.326122
Se 19.553394 -18.864023 -21.757838
Se 19.553394 -18.864023 -14.667998
Se 19.553394 -18.864023 -7.578158
Se 19.553394 -18.864023 -0.488318
Se 19.553394 -18.864023 6.601522
Se 19.553394 -18.864023 13.691362
Se 19.553394 -18.864023 20.781202
Se 17.380352 -15.100202 -21.757838
Se 19.553394 -16.354809 -18.212918
Se 17.380352 -15.100202 -14.667998
Se 19.553394 -16.354809 -11.123078
Se 17.380352 -15.100202 -7.578158
Se 19.553394 -16.354809 -4.033238
Se 17.380352 -15.100202 -0.488318
Se 19.553394 -16.354809 3.056602
Se 17.380352 -15.100202 6.601522
Se 19.553394 -16.354809 10.146442
Se 17.380352 -15.100202 13.691362
Se 19.553394 -16.354809 17.236282
Se 17.380352 -15.100202 20.781202
Se 15.207309 -11.336382 -21.757838
Se 17.380352 -12.590989 -18.212918
Se 15.207309 -11.336382 -14.667998
Se 17.380352 -12.590989 -11.123078
Se 15.207309 -11.336382 -7.578158
Se 17.380352 -12.590989 -4.033238
Se 15.207309 -11.336382 -0.488318
Se 17.380352 -12.590989 3.056602
Se 15.207309 -11.336382 6.601522
Se 17.380352 -12.590989 10.146442
Se 15.207309 -11.336382 13.691362
Se 17.380352 -12.590989 17.236282
Se 15.207309 -11.336382 20.781202
Se 17.380352 -12.590989 24.326122
Se 13.034266 -7.572562 -21.757838
Se 15.207309 -8.827168 -18.212918
Se 13.034266 -7.572562 -14.667998
Se 15.207309 -8.827168 -11.123078
Se 13.034266 -7.572562 -7.578158
Se 15.207309 -8.827168 -4.033238
Se 13.034266 -7.572562 -0.488318
Se 15.207309 -8.827168 3.056602
Se 13.034266 -7.572562 6.601522
Se 15.207309 -8.827168 10.146442
Se 13.034266 -7.572562 13.691362
Se 15.207309 -8.827168 17.236282
Se 13.034266 -7.572562 20.781202
Se 15.207309 -8.827168 24.326122
Se 10.861223 -3.808741 -21.757838
Se 13.034266 -5.063348 -18.212918
Se 10.861223 -3.808741 -14.667998
Se 13.034266 -5.063348 -11.123078
Se 10.861223 -3.808741 -7.578158
Se 13.034266 -5.063348 -4.033238
Se 10.861223 -3.808741 -0.488318
Se 13.034266 -5.063348 3.056602
Se 10.861223 -3.808741 6.601522
Se 13.034266 -5.063348 10.146442
Se 10.861223 -3.808741 13.691362
Se 13.034266 -5.063348 17.236282
Se 10.861223 -3.808741 20.781202
Se 13.034266 -5.063348 24.326122
Se 8.688181 -0.044921 -21.757838
Se 10.861223 -1.299528 -18.212918
Se 8.688181 -0.044921 -14.667998
Se 10.861223 -1.299528 -11.123078
Se 8.688181 -0.044921 -7.578158
Se 10.861223 -1.299528 -4.033238
Se 8.688181 -0.044921 -0.488318
Se 10.861223 -1.299528 3.056602
Se 8.688181 -0.044921 6.601522
Se 10.861223 -1.299528 10.146442
Se 8.688181 -0.044921 13.691362
Se 10.861223 -1.299528 17.236282
Se 8.688181 -0.044921 20.781202
Se 10.861223 -1.299528 24.326122
Se 6.515138 3.718899 -21.757838
Se 8.688181 2.464293 -18.212918
Se 6.515138 3.718899 -14.667998
Se 8.688181 2.464293 -11.123078
Se 6.515138 3.718899 -7.578158
Se 8.688181 2.464293 -4.033238
Se 6.515138 3.718899 -0.488318
Se 8.688181 2.464293 3.056602
Se 6.515138 3.718899 6.601522
Se 8.688181 2.464293 10.146442
Se 6.515138 3.718899 13.691362
Se 8.688181 2.464293 17.236282
Se 6.515138 3.718899 20.781202
Se 8.688181 2.464293 24.326122
Se 4.342095 7.482720 -21.757838
Se 6.515138 6.228113 -18.212918
Se 4.342095 7.482720 -14.667998
Se 6.515138 6.228113 -11.123078
Se 4.342095 7.482720 -7.578158
Se 6.515138 6.228113 -4.033238
Se 4.342095 7.482720 -0.488318
Se 6.515138 6.228113 3.056602
Se 4.342095 7.482720 6.601522
Se 6.515138 6.228113 10.146442
Se 4.342095 7.482720 13.691362
Se 6.515138 6.228113 17.236282
Se 4.342095 7.482720 20.781202
Se 6.515138 6.228113 24.326122
Se 2.169053 11.246540 -21.757838
Se 4.342095 9.991933 -18.212918
Se 2.169053 11.246540 -14.667998
Se 4.342095 9.991933 -11.123078
Se 2.169053 11.246540 -7.578158
Se 4.342095 9.991933 -4.033238
Se 2.169053 11.246540 -0.488318
Se 4.342095 9.991933 3.056602
Se 2.169053 11.246540 6.601522
Se 4.342095 9.991933 10.146442
Se 2.169053 11.246540 13.691362
Se 4.342095 9.991933 17.236282
Se 2.169053 11.246540 20.781202
Se 4.342095 9.991933 24.326122
Se -0.003990 15.010360 -21.757838
Se 2.169053 13.755754 -18.212918
Se -0.003990 15.010360 -14.667998
Se 2.169053 13.755754 -11.123078
Se -0.003990 15.010360 -7.578158
Se 2.169053 13.755754 -4.033238
Se -0.003990 15.010360 -0.488318
Se 2.169053 13.755754 3.056602
Se -0.003990 15.010360 6.601522
Se 2.169053 13.755754 10.146442
Se -0.003990 15.010360 13.691362
Se 2.169053 13.755754 17.236282
Se -0.003990 15.010360 20.781202
Se 2.169053 13.755754 24.326122
Se -2.177033 18.774181 -21.757838
Se -0.003990 17.519574 -18.212918
Se -2.177033 18.774181 -14.667998
Se -0.003990 17.519574 -11.123078
Se -2.177033 18.774181 -7.578158
Se -0.003990 17.519574 -4.033238
Se -2.177033 18.774181 -0.488318
Se -0.003990 17.519574 3.056602
Se -2.177033 18.774181 6.601522
Se -0.003990 17.519574 10.146442
Se -2.177033 18.774181 13.691362
Se -0.003990 17.519574 17.236282
Se -2.177033 18.774181 20.781202
Se -0.003990 17.519574 24.326122
Se -4.350075 22.538001 -21.757838
Se -2.177033 21.283394 -18.212918
Se -4.350075 22.538001 -14.667998
Se -2.177033 21.283394 -11.123078
Se -4.350075 22.538001 -7.578158
Se -2.177033 21.283394 -4.033238
Se -4.350075 22.538001 -0.488318
Se -2.177033 21.283394 3.056602
Se -4.350075 22.538001 6.601522
Se -2.177033 21.283394 10.146442
Se -4.350075 22.538001 13.691362
Se -2.177033 21.283394 17.236282
Se -4.350075 22.538001 20.781202
Se -2.177033 21.283394 24.326122
Se -6.523118 26.301821 -21.757838
Se -4.350075 25.047215 -18.212918
Se -6.523118 26.301821 -14.667998
Se -4.350075 25.047215 -11.123078
Se -6.523118 26.301821 -7.578158
Se -4.350075 25.047215 -4.033238
Se -6.523118 26.301821 -0.488318
Se -4.350075 25.047215 3.056602
Se -6.523118 26.301821 6.601522
Se -4.350075 25.047215 10.146442
Se -6.523118 26.301821 13.691362
Se -4.350075 25.047215 17.236282
Se -6.523118 26.301821 20.781202
Se -4.350075 25.047215 24.326122
Se 21.726437 -15.100202 -21.757838
Se 21.726437 -15.100202 -14.667998
Se 21.726437 -15.100202 -7.578158
Se 21.726437 -15.100202 -0.488318
Se 21.726437 -15.100202 6.601522
Se 21.726437 -15.100202 13.691362
Se 21.726437 -15.100202 20.781202
Se 19.553394 -11.336382 -21.757838
Se 21.726437 -12.590989 -18.212918
Se 19.553394 -11.336382 -14.667998
Se 21.726437 -12.590989 -11.123078
Se 19.553394 -11.336382 -7.578158
Se 21.726437 -12.590989 -4.033238
Se 19.553394 -11.336382 -0.488318
Se 21.726437 -12.590989 3.056602
Se 19.553394 -11.336382 6.601522
Se 21.726437 -12.590989 10.146442
Se 19.553394 -11.336382 13.691362
Se 21.726437 -12.590989 17.236282
Se 19.553394 -11.336382 20.781202
Se 17.380352 -7.572562 -21.757838
Se 19.553394 -8.827168 -18.212918
Se 17.380352 -7.572562 -14.667998
Se 19.553394 -8.827168 -11.123078
Se 17.380352 -7.572562 -7.578158
Se 19.553394 -8.827168 -4.033238
Se 17.380352 -7.572562 -0.488318
Se 19.553394 -8.827168 3.056602
Se 17.380352 -7.572562 6.601522
Se 19.553394 -8.827168 10.146442
Se 17.380352 -7.572562 13.691362
Se 19.553394 -8.827168 17.236282
Se 17.380352 -7.572562 20.781202
Se 19.553394 -8.827168 24.326122
Se 15.207309 -3.808741 -21.757838
Se 17.380352 -5.063348 -18.212918
Se 15.207309 -3.808741 -14.667998
Se 17.380352 -5.063348 -11.123078
Se 15.207309 -3.808741 -7.578158
Se 17.380352 -5.063348 -4.033238
Se 15.207309 -3.808741 -0.488318
Se 17.380352 -5.063348 3.056602
Se 15.207309 -3.808741 6.601522
Se 17.380352 -5.063348 10.146442
Se 15.207309 -3.808741 13.691362
Se 17.380352 -5.063348 17.236282
Se 15.207309 -3.808741 20.781202
Se 17.380352 -5.063348 24.326122
Se 13.034266 -0.044921 -21.757838
Se 15.207309 -1.299528 -18.212918
Se 13.034266 -0.044921 -14.667998
Se 15.207309 -1.299528 -11.123078
Se 13.034266 -0.044921 -7.578158
Se 15.207309 -1.299528 -4.033238
Se 13.034266 -0.044921 -0.488318
Se 15.207309 -1.299528 3.056602
Se 13.034266 -0.044921 6.601522
Se 15.207309 -1.299528 10.146442
Se 13.034266 -0.044921 13.691362
Se 15.207309 -1.299528 17.236282
Se 13.034266 -0.044921 20.781202
Se 15.207309 -1.299528 24.326122
Se 10.861223 3.718899 -21.757838
Se 13.034266 2.464293 -18.212918
Se 10.861223 3.718899 -14.667998
Se 13.034266 2.464293 -11.123078
Se 10.861223 3.718899 -7.578158
Se 13.034266 2.464293 -4.033238
Se 10.861223 3.718899 -0.488318
Se 13.034266 2.464293 3.056602
Se 10.861223 3.718899 6.601522
Se 13.034266 2.464293 10.146442
Se 10.861223 3.718899 13.691362
Se 13.034266 2.464293 17.236282
Se 10.861223 3.718899 20.781202
Se 13.034266 2.464293 24.326122
Se 8.688181 7.482720 -21.757838
Se 10.861223 6.228113 -18.212918
Se 8.688181 7.482720 -14.667998
Se 10.861223 6.228113 -11.123078
Se 8.688181 7.482720 -7.578158
Se 10.861223 6.228113 -4.033238
Se 8.688181 7.482720 -0.488318
Se 10.861223 6.228113 3.056602
Se 8.688181 7.482720 6.601522
Se 10.861223 6.228113 10.146442
Se 8.688181 7.482720 13.691362
Se 10.861223 6.228113 17.236282
Se 8.688181 7.482720 20.781202
Se 10.861223 6.228113 24.326122
Se 6.515138 11.246540 -21.757838
Se 8.688181 9.991933 -18.212918
Se 6.515138 11.246540 -14.667998
Se 8.688181 9.991933 -11.123078
Se 6.515138 11.246540 -7.578158
Se 8.688181 9.991933 -4.033238
Se 6.515138 11.246540 -0.488318
Se 8.688181 9.991933 3.056602
Se 6.515138 11.246540 6.601522
Se 8.688181 9.991933 10.146442
Se 6.515138 11.246540 13.691362
Se 8.688181 9.991933 17.236282
Se 6.515138 11.246540 20.781202
Se 8.688181 9.991933 24.326122
Se 4.342095 15.010360 -21.757838
Se 6.515138 13.755754 -18.212918
Se 4.342095 15.010360 -14.667998
Se 6.515138 13.755754 -11.123078
Se 4.342095 15.010360 -7.578158
Se 6.515138 13.755754 -4.033238
Se 4.342095 15.010360 -0.488318
Se 6.515138 13.755754 3.056602
Se 4.342095 15.010360 6.601522
Se 6.515138 13.755754 10.146442
Se 4.342095 15.010360 13.691362
Se 6.515138 13.755754 17.236282
Se 4.342095 15.010360 20.781202
Se 6.515138 13.755754 24.326122
Se 2.169053 18.774181 -21.757838
Se 4.342095 17.519574 -18.212918
Se 2.169053 18.774181 -14.667998
Se 4.342095 17.519574 -11.123078
Se 2.169053 18.774181 -7.578158
Se 4.342095 17.519574 -4.033238
Se 2.169053 18.774181 -0.488318
Se 4.342095 17.519574 3.056602
Se 2.169053 18.774181 6.601522
Se 4.342095 17.519574 10.146442
Se 2.169053 18.774181 13.691362
Se 4.342095 17.519574 17.236282
Se 2.169053 18.774181 20.781202
Se 4.342095 17.519574 24.326122
Se -0.003990 22.538001 -21.757838
Se 2.169053 21.283394 -18.212918
Se -0.003990 22.538001 -14.667998
Se 2.169053 21.283394 -11.123078
Se -0.003990 22.538001 -7.578158
Se 2.169053 21.283394 -4.033238
Se -0.003990 22.538001 -0.488318
Se 2.169053 21.283394 3.056602
Se -0.003990 22.538001 6.601522
Se 2.169053 21.283394 10.146442
Se -0.003990 22.538001 13.691362
Se 2.169053 21.283394 17.236282
Se -0.003990 22.538001 20.781202
Se 2.169053 21.283394 24.326122
Se -2.177033 26.301821 -21.757838
Se -0.003990 25.047215 -18.212918
Se -2.177033 26.301821 -14.667998
Se -0.003990 25.047215 -11.123078
Se -2.177033 26.301821 -7.578158
Se -0.003990 25.047215 -4.033238
Se -2.177033 26.301821 -0.488318
Se -0.003990 25.047215 3.056602
Se -2.177033 26.301821 6.601522
Se -0.003990 25.047215 10.146442
Se -2.177033 26.301821 13.691362
Se -0.003990 25.047215 17.236282
Se -2.177033 26.301821 20.781202
Se -0.003990 25.047215 24.326122
Se 23.899480 -11.336382 -21.757838
Se 23.899480 -11.336382 -14.667998
Se 23.899480 -11.336382 -7.578158
Se 23.899480 -11.336382 -0.488318
Se 23.899480 -11.336382 6.601522
Se 23.899480 -11.336382 13.691362
Se 23.899480 -11.336382 20.781202
Se 21.726437 -7.572562 -21.757838
Se 23.899480 -8.827168 -18.212918
Se 21.726437 -7.572562 -14.667998
Se 23.899480 -8.827168 -11.123078
Se 21.726437 -7.572562 -7.578158
Se 23.899480 -8.827168 -4.033238
Se 21.726437 -7.572562 -0.488318
Se 23.899480 -8.827168 3.056602
Se 21.726437 -7.572562 6.601522
Se 23.899480 -8.827168 10.146442
Se 21.726437 -7.572562 13.691362
Se 23.899480 -8.827168 17.236282
Se 21.726437 -7.572562 20.781202
Se 19.553394 -3.808741 -21.757838
Se 21.726437 -5.063348 -18.212918
Se 19.553394 -3.808741 -14.667998
Se 21.726437 -5.063348 -11.123078
Se 19.553394 -3.808741 -7.578158
Se 21.726437 -5.063348 -4.033238
Se 19.553394 -3.808741 -0.488318
Se 21.726437 -5.063348 3.056602
Se 19.553394 -3.808741 6.601522
Se 21.726437 -5.063348 10.146442
Se 19.553394 -3.808741 13.691362
Se 21.726437 -5.063348 17.236282
Se 19.553394 -3.808741 20.781202
Se 21.726437 -5.063348 24.326122
Se 17.380352 -0.044921 -21.757838
Se 19.553394 -1.299528 -18.212918
Se 17.380352 -0.044921 -14.667998
Se 19.553394 -1.299528 -11.123078
Se 17.380352 -0.044921 -7.578158
Se 19.553394 -1.299528 -4.033238
Se 17.380352 -0.044921 -0.488318
Se 19.553394 -1.299528 3.056602
Se 17.380352 -0.044921 6.601522
Se 19.553394 -1.299528 10.146442
Se 17.380352 -0.044921 13.691362
Se 19.553394 -1.299528 17.236282
Se 17.380352 -0.044921 20.781202
Se 19.553394 -1.299528 24.326122
Se 15.207309 3.718899 -21.757838
Se 17.380352 2.464293 -18.212918
Se 15.207309 3.718899 -14.667998
Se 17.380352 2.464293 -11.123078
Se 15.207309 3.718899 -7.578158
Se 17.380352 2.464293 -4.033238
Se 15.207309 3.718899 -0.488318
Se 17.380352 2.464293 3.056602
Se 15.207309 3.718899 6.601522
Se 17.380352 2.464293 10.146442
Se 15.207309 3.718899 13.691362
Se 17.380352 2.464293 17.236282
Se 15.207309 3.718899 20.781202
Se 17.380352 2.464293 24.326122
Se 13.034266 7.482720 -21.757838
Se 15.207309 6.228113 -18.212918
Se 13.034266 7.482720 -14.667998
Se 15.207309 6.228113 -11.123078
Se 13.034266 7.482720 -7.578158
Se 15.207309 6.228113 -4.033238
Se 13.034266 7.482720 -0.488318
Se 15.207309 6.228113 3.056602
Se 13.034266 7.482720 6.601522
Se 15.207309 6.228113 10.146442
Se 13.034266 7.482720 13.691362
Se 15.207309 6.228113 17.236282
Se 13.034266 7.482720 20.781202
Se 15.207309 6.228113 24.326122
Se 10.861223 11.246540 -21.757838
Se 13.034266 9.991933 -18.212918
Se 10.861223 11.246540 -14.667998
Se 13.034266 9.991933 -11.123078
Se 10.861223 11.246540 -7.578158
Se 13.034266 9.991933 -4.033238
Se 10.861223 11.246540 -0.488318
Se 13.034266 9.991933 3.056602
Se 10.861223 11.246540 6.601522
Se 13.034266 9.991933 10.146442
Se 10.861223 11.246540 13.691362
Se 13.034266 9.991933 17.236282
Se 10.861223 11.246540 20.781202
Se 13.034266 9.991933 24.326122
Se 8.688181 15.010360 -21.757838
Se 10.861223 13.755754 -18.212918
Se 8.688181 15.010360 -14.667998
Se 10.861223 13.755754 -11.123078
Se 8.688181 15.010360 -7.578158
Se 10.861223 13.755754 -4.033238
Se 8.688181 15.010360 -0.488318
Se 10.861223 13.755754 3.056602
Se 8.688181 15.010360 6.601522
Se 10.861223 13.755754 10.146442
Se 8.688181 15.010360 13.691362
Se 10.861223 13.755754 17.236282
Se 8.688181 15.010360 20.781202
Se 10.861223 13.755754 24.326122
Se 6.515138 18.774181 -21.757838
Se 8.688181 17.519574 -18.212918
Se 6.515138 18.774181 -14.667998
Se 8.688181 17.519574 -11.123078
Se 6.515138 18.774181 -7.578158
Se 8.688181 17.519574 -4.033238
Se 6.515138 18.774181 -0.488318
Se 8.688181 17.519574 3.056602
Se 6.515138 18.774181 6.601522
Se 8.688181 17.519574 10.146442
Se 6.515138 18.774181 13.691362
Se 8.688181 17.519574 17.236282
Se 6.515138 18.774181 20.781202
Se 8.688181 17.519574 24.326122
Se 4.342095 22.538001 -21.757838
Se 6.515138 21.283394 -18.212918
Se 4.342095 22.538001 -14.667998
Se 6.515138 21.283394 -11.123078
Se 4.342095 22.538001 -7.578158
Se 6.515138 21.283394 -4.033238
Se 4.342095 22.538001 -0.488318
Se 6.515138 21.283394 3.056602
Se 4.342095 22.538001 6.601522
Se 6.515138 21.283394 10.146442
Se 4.342095 22.538001 13.691362
Se 6.515138 21.283394 17.236282
Se 4.342095 22.538001 20.781202
Se 6.515138 21.283394 24.326122
Se 2.169053 26.301821 -21.757838
Se 4.342095 25.047215 -18.212918
Se 2.169053 26.301821 -14.667998
Se 4.342095 25.047215 -11.123078
Se 2.169053 26.301821 -7.578158
Se 4.342095 25.047215 -4.033238
Se 2.169053 26.301821 -0.488318
Se 4.342095 25.047215 3.056602
Se 2.169053 26.301821 6.601522
Se 4.342095 25.047215 10.146442
Se 2.169053 26.301821 13.691362
Se 4.342095 25.047215 17.236282
Se 2.169053 26.301821 20.781202
Se 4.342095 25.047215 24.326122
Se 26.072522 -7.572562 -21.757838
Se 26.072522 -7.572562 -14.667998
Se 26.072522 -7.572562 -7.578158
Se 26.072522 -7.572562 -0.488318
Se 26.072522 -7.572562 6.601522
Se 26.072522 -7.572562 13.691362
Se 26.072522 -7.572562 20.781202
Se 23.899480 -3.808741 -21.757838
Se 26.072522 -5.063348 -18.212918
Se 23.899480 -3.808741 -14.667998
Se 26.072522 -5.063348 -11.123078
Se 23.899480 -3.808741 -7.578158
Se 26.072522 -5.063348 -4.033238
Se 23.899480 -3.808741 -0.488318
Se 26.072522 -5.063348 3.056602
Se 23.899480 -3.808741 6.601522
Se 26.072522 -5.063348 10.146442
Se 23.899480 -3.808741 13.691362
Se 26.072522 -5.063348 17.236282
Se 23.899480 -3.808741 20.781202
Se 21.726437 -0.044921 -21.757838
Se 23.899480 -1.299528 -18.212918
Se 21.726437 -0.044921 -14.667998
Se 23.899480 -1.299528 -11.123078
Se 21.726437 -0.044921 -7.578158
Se 23.899480 -1.299528 -4.033238
Se 21.726437 -0.044921 -0.488318
Se 23.899480 -1.299528 3.056602
Se 21.726437 -0.044921 6.601522
Se 23.899480 -1.299528 10.146442
Se 21.726437 -0.044921 13.691362
Se 23.899480 -1.299528 17.236282
Se 21.726437 -0.044921 20.781202
Se 23.899480 -1.299528 24.326122
Se 21.726437 2.464293 -25.302758
Se 19.553394 3.718899 -21.757838
Se 21.726437 2.464293 -18.212918
Se 19.553394 3.718899 -14.667998
Se 21.726437 2.464293 -11.123078
Se 19.553394 3.718899 -7.578158
Se 21.726437 2.464293 -4.033238
Se 19.553394 3.718899 -0.488318
Se 21.726437 2.464293 3.056602
Se 19.553394 3.718899 6.601522
Se 21.726437 2.464293 10.146442
Se 19.553394 3.718899 13.691362
Se 21.726437 2.464293 17.236282
Se 19.553394 3.718899 20.781202
Se 21.726437 2.464293 24.326122
Se 17.380352 7.482720 -21.757838
Se 19.553394 6.228113 -18.212918
Se 17.380352 7.482720 -14.667998
Se 19.553394 6.228113 -11.123078
Se 17.380352 7.482720 -7.578158
Se 19.553394 6.228113 -4.033238
Se 17.380352 7.482720 -0.488318
Se 19.553394 6.228113 3.056602
Se 17.380352 7.482720 6.601522
Se 19.553394 6.228113 10.146442
Se 17.380352 7.482720 13.691362
Se 19.553394 6.228113 17.236282
Se 17.380352 7.482720 20.781202
Se 19.553394 6.228113 24.326122
Se 15.207309 11.246540 -21.757838
Se 17.380352 9.991933 -18.212918
Se 15.207309 11.246540 -14.667998
Se 17.380352 9.991933 -11.123078
Se 15.207309 11.246540 -7.578158
Se 17.380352 9.991933 -4.033238
Se 15.207309 11.246540 -0.488318
Se 17.380352 9.991933 3.056602
Se 15.207309 11.246540 6.601522
Se 17.380352 9.991933 10.146442
Se 15.207309 11.246540 13.691362
Se 17.380352 9.991933 17.236282
Se 15.207309 11.246540 20.781202
Se 17.380352 9.991933 24.326122
Se 15.207309 13.755754 -25.302758
Se 13.034266 15.010360 -21.757838
Se 15.207309 13.755754 -18.212918
Se 13.034266 15.010360 -14.667998
Se 15.207309 13.755754 -11.123078
Se 13.034266 15.010360 -7.578158
Se 15.207309 13.755754 -4.033238
Se 13.034266 15.010360 -0.488318
Se 15.207309 13.755754 3.056602
Se 13.034266 15.010360 6.601522
Se 15.207309 13.755754 10.146442
Se 13.034266 15.010360 13.691362
Se 15.207309 13.755754 17.236282
Se 13.034266 15.010360 20.781202
Se 15.207309 13.755754 24.326122
Se 10.861223 18.774181 -21.757838
Se 13.034266 17.519574 -18.212918
Se 10.861223 18.774181 -14.667998
Se 13.034266 17.519574 -11.123078
Se 10.861223 18.774181 -7.578158
Se 13.034266 17.519574 -4.033238
Se 10.861223 18.774181 -0.488318
Se 13.034266 17.519574 3.056602
Se 10.861223 18.774181 6.601522
Se 13.034266 17.519574 10.146442
Se 10.861223 18.774181 13.691362
Se 13.034266 17.519574 17.236282
Se 10.861223 18.774181 20.781202
Se 13.034266 17.519574 24.326122
Se 8.688181 22.538001 -21.757838
Se 10.861223 21.283394 -18.212918
Se 8.688181 22.538001 -14.667998
Se 10.861223 21.283394 -11.123078
Se 8.688181 22.538001 -7.578158
Se 10.861223 21.283394 -4.033238
Se 8.688181 22.538001 -0.488318
Se 10.861223 21.283394 3.056602
Se 8.688181 22.538001 6.601522
Se 10.861223 21.283394 10.146442
Se 8.688181 22.538001 13.691362
Se 10.861223 21.283394 17.236282
Se 8.688181 22.538001 20.781202
Se 10.861223 21.283394 24.326122
Se 6.515138 26.301821 -21.757838
Se 8.688181 25.047215 -18.212918
Se 6.515138 26.301821 -14.667998
Se 8.688181 25.047215 -11.123078
Se 6.515138 26.301821 -7.578158
Se 8.688181 25.047215 -4.033238
Se 6.515138 26.301821 -0.488318
Se 8.688181 25.047215 3.056602
Se 6.515138 26.301821 6.601522
Se 8.688181 25.047215 10.146442
Se 6.515138 26.301821 13.691362
Se 8.688181 25.047215 17.236282
Se 6.515138 26.301821 20.781202
Se 8.688181 25.047215 24.326122
Se 28.245565 -3.808741 -21.757838
Se 28.245565 -3.808741 -14.667998
Se 28.245565 -3.808741 -7.578158
Se 28.245565 -3.808741 -0.488318
Se 28.245565 -3.808741 6.601522
Se 28.245565 -3.808741 13.691362
Se 28.245565 -3.808741 20.781202
Se 26.072522 -0.044921 -21.757838
Se 28.245565 -1.299528 -18.212918
Se 26.072522 -0.044921 -14.667998
Se 28.245565 -1.299528 -11.123078
Se 26.072522 -0.044921 -7.578158
Se 28.245565 -1.299528 -4.033238
Se 26.072522 -0.044921 -0.488318
Se 28.245565 -1.299528 3.056602
Se 26.072522 -0.044921 6.601522
Se 28.245565 -1.299528 10.146442
Se 26.072522 -0.044921 13.691362
Se 28.245565 -1.299528 17.236282
Se 26.072522 -0.044921 20.781202
Se 23.899480 3.718899 -21.757838
Se 26.072522 2.464293 -18.212918
Se 23.899480 3.718899 -14.667998
Se 26.072522 2.464293 -11.123078
Se 23.899480 3.718899 -7.578158
Se 26.072522 2.464293 -4.033238
Se 23.899480 3.718899 -0.488318
Se 26.072522 2.464293 3.056602
Se 23.899480 3.718899 6.601522
Se 26.072522 2.464293 10.146442
Se 23.899480 3.718899 13.691362
Se 26.072522 2.464293 17.236282
Se 23.899480 3.718899 20.781202
Se 26.072522 2.464293 24.326122
Se 21.726437 7.482720 -21.757838
Se 23.899480 6.228113 -18.212918
Se 21.726437 7.482720 -14.667998
Se 23.899480 6.228113 -11.123078
Se 21.726437 7.482720 -7.578158
Se 23.899480 6.228113 -4.033238
Se 21.726437 7.482720 -0.488318
Se 23.899480 6.228113 3.056602
Se 21.726437 7.482720 6.601522
Se 23.899480 6.228113 10.146442
Se 21.726437 7.482720 13.691362
Se 23.899480 6.228113 17.236282
Se 21.726437 7.482720 20.781202
Se 23.899480 6.228113 24.326122
Se 19.553394 11.246540 -21.757838
Se 21.726437 9.991933 -18.212918
Se 19.553394 11.246540 -14.667998
Se 21.726437 9.991933 -11.123078
Se 19.553394 11.246540 -7.578158
Se 21.726437 9.991933 -4.033238
Se 19.553394 11.246540 -0.488318
Se 21.726437 9.991933 3.056602
Se 19.553394 11.246540 6.601522
Se 21.726437 9.991933 10.146442
Se 19.553394 11.246540 13.691362
Se 21.726437 9.991933 17.236282
Se 19.553394 11.246540 20.781202
Se 21.726437 9.991933 24.326122
Se 17.380352 15.010360 -21.757838
Se 19.553394 13.755754 -18.212918
Se 17.380352 15.010360 -14.667998
Se 19.553394 13.755754 -11.123078
Se 17.380352 15.010360 -7.578158
Se 19.553394 13.755754 -4.033238
Se 17.380352 15.010360 -0.488318
Se 19.553394 13.755754 3.056602
Se 17.380352 15.010360 6.601522
Se 19.553394 13.755754 10.146442
Se 17.380352 15.010360 13.691362
Se 19.553394 13.755754 17.236282
Se 17.380352 15.010360 20.781202
Se 19.553394 13.755754 24.326122
Se 15.207309 18.774181 -21.757838
Se 17.380352 17.519574 -18.212918
Se 15.207309 18.774181 -14.667998
Se 17.380352 17.519574 -11.123078
Se 15.207309 18.774181 -7.578158
Se 17.380352 17.519574 -4.033238
Se 15.207309 18.774181 -0.488318
Se 17.380352 17.519574 3.056602
Se 15.207309 18.774181 6.601522
Se 17.380352 17.519574 10.146442
Se 15.207309 18.774181 13.691362
Se 17.380352 17.519574 17.236282
Se 15.207309 18.774181 20.781202
Se 17.380352 17.519574 24.326122
Se 13.034266 22.538001 -21.757838
Se 15.207309 21.283394 -18.212918
Se 13.034266 22.538001 -14.667998
Se 15.207309 21.283394 -11.123078
Se 13.034266 22.538001 -7.578158
Se 15.207309 21.283394 -4.033238
Se 13.034266 22.538001 -0.488318
Se 15.207309 21.283394 3.056602
Se 13.034266 22.538001 6.601522
Se 15.207309 21.283394 10.146442
Se 13.034266 22.538001 13.691362
Se 15.207309 21.283394 17.236282
Se 13.034266 22.538001 20.781202
Se 15.207309 21.283394 24.326122
Se 10.861223 26.301821 -21.757838
Se 13.034266 25.047215 -18.212918
Se 10.861223 26.301821 -14.667998
Se 13.034266 25.047215 -11.123078
Se 10.861223 26.301821 -7.578158
Se 13.034266 25.047215 -4.033238
Se 10.861223 26.301821 -0.488318
Se 13.034266 25.047215 3.056602
Se 10.861223 26.301821 6.601522
Se 13.034266 25.047215 10.146442
Se 10.861223 26.301821 13.691362
Se 13.034266 25.047215 17.236282
Se 10.861223 26.301821 20.781202
Se 13.034266 25.047215 24.326122
Cl -15.215289 -23.882450 -25.302758
Cl -15.215289 -23.882450 24.326122
Cl -17.388332 -20.118630 -25.302758
Cl -17.388332 -20.118630 24.326122
Cl -19.561374 -16.354809 -25.302758
Cl -19.561374 -16.354809 24.326122
Cl -21.734417 -12.590989 -25.302758
Cl -21.734417 -12.590989 24.326122
Cl -23.907460 -8.827168 -25.302758
Cl -23.907460 -8.827168 24.326122
Cl -26.080502 -5.063348 -25.302758
Cl -26.080502 -5.063348 24.326122
Cl -28.253545 -1.299528 -25.302758
Cl -30.426588 -0.044921 -14.667998
Cl -30.426588 -0.044921 -7.578158
Cl -30.426588 -0.044921 -0.488318
Cl -30.426588 -0.044921 6.601522
Cl -30.426588 -0.044921 13.691362
Cl -30.426588 -0.044921 20.781202
Cl -28.253545 -1.299528 24.326122
Cl -10.869203 -23.882450 -25.302758
Cl -13.042246 -20.118630 -25.302758
Cl -15.215289 -16.354809 -25.302758
Cl -17.388332 -12.590989 -25.302758
Cl -19.561374 -8.827168 -25.302758
Cl -21.734417 -5.063348 -25.302758
Cl -23.907460 -1.299528 -25.302758
Cl -26.080502 2.464293 -25.302758
Cl -6.523118 -23.882450 -25.302758
Cl -10.869203 -16.354809 -25.302758
Cl -13.042246 -12.590989 -25.302758
Cl -15.215289 -8.827168 -25.302758
Cl -17.388332 -5.063348 -25.302758
Cl -19.561374 -1.299528 -25.302758
Cl -21.734417 2.464293 -25.302758
Cl -23.907460 6.228113 -25.302758
Cl -2.177033 -23.882450 -25.302758
Cl -4.350075 -20.118630 -25.302758
Cl -6.523118 -16.354809 -25.302758
Cl -8.696161 -12.590989 -25.302758
Cl -10.869203 -8.827168 -25.302758
Cl -13.042246 -5.063348 -25.302758
Cl -15.215289 -1.299528 -25.302758
Cl -17.388332 2.464293 -25.302758
Cl -21.734417 9.991933 -25.302758
Cl 2.169053 -23.882450 -25.302758
Cl -0.003990 -20.118630 -25.302758
Cl -2.177033 -16.354809 -25.302758
Cl -4.350075 -12.590989 -25.302758
Cl -6.523118 -8.827168 -25.302758
Cl -8.696161 -5.063348 -25.302758
Cl -10.869203 -1.299528 -25.302758
Cl -13.042246 2.464293 -25.302758
Cl -15.215289 6.228113 -25.302758
Cl -17.388332 9.991933 -25.302758
Cl -19.561374 13.755754 -25.302758
Cl 6.515138 -23.882450 -25.302758
Cl 2.169053 -16.354809 -25.302758
Cl -0.003990 -12.590989 -25.302758
Cl -2.177033 -8.827168 -25.302758
Cl -4.350075 -5.063348 -25.302758
Cl -6.523118 -1.299528 -25.302758
Cl -8.696161 2.464293 -25.302758
Cl -10.869203 6.228113 -25.302758
Cl -13.042246 9.991933 -25.302758
Cl -15.215289 13.755754 -25.302758
Cl -17.388332 17.519574 -25.302758
Cl 10.861223 -23.882450 -25.302758
Cl 8.688181 -20.118630 -25.302758
Cl 6.515138 -16.354809 -25.302758
Cl 4.342095 -12.590989 -25.302758
Cl 2.169053 -8.827168 -25.302758
Cl -0.003990 -5.063348 -25.302758
Cl -2.177033 -1.299528 -25.302758
Cl -4.350075 2.464293 -25.302758
Cl -6.523118 6.228113 -25.302758
Cl -8.696161 9.991933 -25.302758
Cl -10.869203 13.755754 -25.302758
Cl -15.215289 21.283394 -25.302758
Cl 15.207309 -23.882450 -25.302758
Cl 15.207309 -23.882450 24.326122
Cl 13.034266 -20.118630 -25.302758
Cl 10.861223 -16.354809 -25.302758
Cl 8.688181 -12.590989 -25.302758
Cl 6.515138 -8.827168 -25.302758
Cl 4.342095 -5.063348 -25.302758
Cl 2.169053 -1.299528 -25.302758
Cl -0.003990 2.464293 -25.302758
Cl -2.177033 6.228113 -25.302758
Cl -4.350075 9.991933 -25.302758
Cl -6.523118 13.755754 -25.302758
Cl -8.696161 17.519574 -25.302758
Cl -10.869203 21.283394 -25.302758
Cl -13.042246 25.047215 -25.302758
Cl 17.380352 -20.118630 -25.302758
Cl 17.380352 -20.118630 24.326122
Cl 15.207309 -16.354809 -25.302758
Cl 13.034266 -12.590989 -25.302758
Cl 10.861223 -8.827168 -25.302758
Cl 8.688181 -5.063348 -25.302758
Cl 6.515138 -1.299528 -25.302758
Cl 4.342095 2.464293 -25.302758
Cl 2.169053 6.228113 -25.302758
Cl -0.003990 9.991933 -25.302758
Cl -2.177033 13.755754 -25.302758
Cl -4.350075 17.519574 -25.302758
Cl -6.523118 21.283394 -25.302758
Cl -8.696161 25.047215 -25.302758
Cl 19.553394 -16.354809 -25.302758
Cl 19.553394 -16.354809 24.326122
Cl 17.380352 -12.590989 -25.302758
Cl 15.207309 -8.827168 -25.302758
Cl 13.034266 -5.063348 -25.302758
Cl 10.861223 -1.299528 -25.302758
Cl 8.688181 2.464293 -25.302758
Cl 6.515138 6.228113 -25.302758
Cl 4.342095 9.991933 -25.302758
Cl 2.169053 13.755754 -25.302758
Cl -0.003990 17.519574 -25.302758
Cl -2.177033 21.283394 -25.302758
Cl -4.350075 25.047215 -25.302758
Cl 21.726437 -12.590989 -25.302758
Cl 21.726437 -12.590989 24.326122
Cl 19.553394 -8.827168 -25.302758
Cl 17.380352 -5.063348 -25.302758
Cl 15.207309 -1.299528 -25.302758
Cl 13.034266 2.464293 -25.302758
Cl 10.861223 6.228113 -25.302758
Cl 8.688181 9.991933 -25.302758
Cl 6.515138 13.755754 -25.302758
Cl 4.342095 17.519574 -25.302758
Cl 2.169053 21.283394 -25.302758
Cl -0.003990 25.047215 -25.302758
Cl 23.899480 -8.827168 -25.302758
Cl 23.899480 -8.827168 24.326122
Cl 21.726437 -5.063348 -25.302758
Cl 19.553394 -1.299528 -25.302758
Cl 17.380352 2.464293 -25.302758
Cl 15.207309 6.228113 -25.302758
Cl 13.034266 9.991933 -25.302758
Cl 10.861223 13.755754 -25.302758
Cl 8.688181 17.519574 -25.302758
Cl 6.515138 21.283394 -25.302758
Cl 4.342095 25.047215 -25.302758
Cl 26.072522 -5.063348 -25.302758
Cl 26.072522 -5.063348 24.326122
Cl 23.899480 -1.299528 -25.302758
Cl 19.553394 6.228113 -25.302758
Cl 17.380352 9.991933 -25.302758
Cl 13.034266 17.519574 -25.302758
Cl 10.861223 21.283394 -25.302758
Cl 8.688181 25.047215 -25.302758
Cl 28.245565 -1.299528 -25.302758
Cl 28.245565 -1.299528 24.326122
Cl 26.072522 2.464293 -25.302758
Cl 23.899480 6.228113 -25.302758
Cl 21.726437 9.991933 -25.302758
Cl 19.553394 13.755754 -25.302758
Cl 17.380352 17.519574 -25.302758
Cl 15.207309 21.283394 -25.302758
Cl 13.034266 25.047215 -25.302758
Cl 30.418608 -0.044921 -14.667998
Cl 30.418608 -0.044921 -7.578158
Cl 30.418608 -0.044921 -0.488318
Cl 30.418608 -0.044921 6.601522
Cl 30.418608 -0.044921 13.691362
Cl 30.418608 -0.044921 20.781202
Cl -2.177033 28.811035 24.326122
Cl 10.861223 26.301821 27.871042
Cl -32.599630 -1.299528 -18.212918
Cl 32.591650 -1.299528 -18.212918
Cl -32.599630 -1.299528 17.236282
Cl 32.591650 -1.299528 17.236282
Cl -10.869203 26.301821 27.871042
Cl 6.515138 28.811035 24.326122
Cl -32.599630 -1.299528 -4.033238
Cl 32.591650 -1.299528 -4.033238
Cl 2.169053 26.301821 27.871042
Cl -6.523118 28.811035 24.326122
Cl -32.599630 -1.299528 10.146442
Cl 32.591650 -1.299528 10.146442
Cl -32.599630 -1.299528 -11.123078
Cl 32.591650 -1.299528 -11.123078
Cl -32.599630 -1.299528 3.056602
Cl 32.591650 -1.299528 3.056602
Cl -15.215289 -26.391663 -0.488318
Cl 15.207309 -26.391663 -21.757838
Cl 15.207309 -26.391663 20.781202
Cl 10.861223 28.811035 -25.302758
Cl -6.523118 -21.373236 26.085064
