2028
InAs-In-In881As748Cl399-reconstructed
In -21.384719 -15.267055 -12.205965
In -24.438280 -12.213494 -12.205965
In -21.384719 -9.159932 -12.205965
In -21.384719 -12.213494 -15.259527
In -24.438280 -9.159932 -9.152404
In -21.384719 -9.159932 -6.098842
In -21.384719 -12.213494 -9.152404
In -24.438280 -6.106370 -6.098842
In -21.384719 -3.052809 -6.098842
In -21.384719 -6.106370 -9.152404
In -24.438280 -3.052809 -3.045280
In -21.384719 -3.052809 0.008281
In -21.384719 -6.106370 -3.045280
In -24.438280 0.000753 0.008281
In -21.384719 3.054315 0.008281
In -21.384719 0.000753 -3.045280
In -24.438280 3.054315 3.061843
In -21.384719 3.054315 6.115405
In -21.384719 0.000753 3.061843
In -24.438280 6.107876 6.115405
In -21.384719 9.161438 6.115405
In -21.384719 6.107876 3.061843
In -24.438280 9.161438 9.168966
In -21.384719 9.161438 12.222528
In -21.384719 6.107876 9.168966
In -24.438280 12.214999 12.222528
In -21.384719 15.268561 12.222528
In -21.384719 12.214999 9.168966
In -21.384719 12.214999 15.276090
In -15.277595 -21.374179 -12.205965
In -18.331157 -18.320617 -12.205965
In -18.331157 -15.267055 -15.259527
In -15.277595 -15.267055 -12.205965
In -15.277595 -18.320617 -15.259527
In -18.331157 -15.267055 -9.152404
In -15.277595 -15.267055 -6.098842
In -15.277595 -18.320617 -9.152404
In -18.331157 -12.213494 -18.313089
In -15.277595 -9.159932 -18.313089
In -15.277595 -12.213494 -21.366650
In -18.331157 -12.213494 -12.205965
In -18.331157 -9.159932 -15.259527
In -15.277595 -9.159932 -12.205965
In -15.277595 -12.213494 -15.259527
In -18.331157 -12.213494 -6.098842
In -18.331157 -9.159932 -9.152404
In -15.277595 -9.159932 -6.098842
In -15.277595 -12.213494 -9.152404
In -18.331157 -9.159932 -3.045280
In -15.277595 -9.159932 0.008281
In -15.277595 -12.213494 -3.045280
In -18.331157 -6.106370 -12.205965
In -15.277595 -3.052809 -12.205965
In -15.277595 -6.106370 -15.259527
In -18.331157 -6.106370 -6.098842
In -18.331157 -3.052809 -9.152404
In -15.277595 -3.052809 -6.098842
In -15.277595 -6.106370 -9.152404
In -18.331157 -6.106370 0.008281
In -18.331157 -3.052809 -3.045280
In -15.277595 -3.052809 0.008281
In -15.277595 -6.106370 -3.045280
In -18.331157 -3.052809 3.061843
In -15.277595 -3.052809 6.115405
In -15.277595 -6.106370 3.061843
In -18.331157 0.000753 -6.098842
In -15.277595 3.054315 -6.098842
In -15.277595 0.000753 -9.152404
In -18.331157 0.000753 0.008281
In -18.331157 3.054315 -3.045280
In -15.277595 3.054315 0.008281
In -15.277595 0.000753 -3.045280
In -18.331157 0.000753 6.115405
In -18.331157 3.054315 3.061843
In -15.277595 3.054315 6.115405
In -15.277595 0.000753 3.061843
In -18.331157 3.054315 9.168966
In -15.277595 3.054315 12.222528
In -15.277595 0.000753 9.168966
In -18.331157 6.107876 0.008281
In -15.277595 9.161438 0.008281
In -15.277595 6.107876 -3.045280
In -18.331157 6.107876 6.115405
In -18.331157 9.161438 3.061843
In -15.277595 9.161438 6.115405
In -15.277595 6.107876 3.061843
In -18.331157 6.107876 12.222528
In -18.331157 9.161438 9.168966
In -15.277595 9.161438 12.222528
In -15.277595 6.107876 9.168966
In -18.331157 9.161438 15.276090
In -15.277595 9.161438 18.329651
In -15.277595 6.107876 15.276090
In -18.331157 12.214999 6.115405
In -15.277595 15.268561 6.115405
In -15.277595 12.214999 3.061843
In -18.331157 12.214999 12.222528
In -18.331157 15.268561 9.168966
In -15.277595 15.268561 12.222528
In -15.277595 12.214999 9.168966
In -18.331157 12.214999 18.329651
In -18.331157 15.268561 15.276090
In -15.277595 12.214999 15.276090
In -15.277595 12.214999 21.383213
In -18.331157 18.322123 12.222528
In -15.277595 21.375684 12.222528
In -15.277595 18.322123 9.168966
In -15.277595 18.322123 15.276090
In -12.224034 -24.427740 -12.205965
In -12.224034 -21.374179 -15.259527
In -9.170472 -21.374179 -12.205965
In -12.224034 -21.374179 -9.152404
In -9.170472 -21.374179 -6.098842
In -9.170472 -24.427740 -9.152404
In -12.224034 -18.320617 -18.313089
In -12.224034 -15.267055 -21.366650
In -9.170472 -15.267055 -18.313089
In -12.224034 -18.320617 -12.205965
In -12.224034 -15.267055 -15.259527
In -9.170472 -15.267055 -12.205965
In -9.170472 -18.320617 -15.259527
In -12.224034 -18.320617 -6.098842
In -12.224034 -15.267055 -9.152404
In -9.170472 -15.267055 -6.098842
In -9.170472 -18.320617 -9.152404
In -12.224034 -15.267055 -3.045280
In -9.170472 -15.267055 0.008281
In -9.170472 -18.320617 -3.045280
In -12.224034 -12.213494 -24.420212
In -9.170472 -9.159932 -24.420212
In -12.224034 -12.213494 -18.313089
In -9.170472 -9.159932 -18.313089
In -9.170472 -12.213494 -21.366650
In -12.224034 -12.213494 -12.205965
In -12.224034 -9.159932 -15.259527
In -9.170472 -9.159932 -12.205965
In -9.170472 -12.213494 -15.259527
In -12.224034 -12.213494 -6.098842
In -12.224034 -9.159932 -9.152404
In -9.170472 -9.159932 -6.098842
In -9.170472 -12.213494 -9.152404
In -12.224034 -12.213494 0.008281
In -12.224034 -9.159932 -3.045280
In -9.170472 -9.159932 0.008281
In -9.170472 -12.213494 -3.045280
In -12.224034 -9.159932 3.061843
In -9.170472 -9.159932 6.115405
In -9.170472 -12.213494 3.061843
In -12.224034 -6.106370 -18.313089
In -9.170472 -3.052809 -18.313089
In -9.170472 -6.106370 -21.366650
In -12.224034 -6.106370 -12.205965
In -12.224034 -3.052809 -15.259527
In -9.170472 -3.052809 -12.205965
In -9.170472 -6.106370 -15.259527
In -12.224034 -6.106370 -6.098842
In -12.224034 -3.052809 -9.152404
In -9.170472 -3.052809 -6.098842
In -9.170472 -6.106370 -9.152404
In -12.224034 -6.106370 0.008281
In -12.224034 -3.052809 -3.045280
In -9.170472 -3.052809 0.008281
In -9.170472 -6.106370 -3.045280
In -12.224034 -6.106370 6.115405
In -12.224034 -3.052809 3.061843
In -9.170472 -3.052809 6.115405
In -9.170472 -6.106370 3.061843
In -12.224034 -3.052809 9.168966
In -9.170472 -3.052809 12.222528
In -9.170472 -6.106370 9.168966
In -12.224034 0.000753 -12.205965
In -9.170472 3.054315 -12.205965
In -9.170472 0.000753 -15.259527
In -12.224034 0.000753 -6.098842
In -12.224034 3.054315 -9.152404
In -9.170472 3.054315 -6.098842
In -9.170472 0.000753 -9.152404
In -12.224034 0.000753 0.008281
In -12.224034 3.054315 -3.045280
In -9.170472 3.054315 0.008281
In -9.170472 0.000753 -3.045280
In -12.224034 0.000753 6.115405
In -12.224034 3.054315 3.061843
In -9.170472 3.054315 6.115405
In -9.170472 0.000753 3.061843
In -12.224034 0.000753 12.222528
In -12.224034 3.054315 9.168966
In -9.170472 3.054315 12.222528
In -9.170472 0.000753 9.168966
In -12.224034 3.054315 15.276090
In -9.170472 3.054315 18.329651
In -9.170472 0.000753 15.276090
In -12.224034 6.107876 -6.098842
In -9.170472 9.161438 -6.098842
In -9.170472 6.107876 -9.152404
In -12.224034 6.107876 0.008281
In -12.224034 9.161438 -3.045280
In -9.170472 9.161438 0.008281
In -9.170472 6.107876 -3.045280
In -12.224034 6.107876 6.115405
In -12.224034 9.161438 3.061843
In -9.170472 9.161438 6.115405
In -9.170472 6.107876 3.061843
In -12.224034 6.107876 12.222528
In -12.224034 9.161438 9.168966
In -9.170472 9.161438 12.222528
In -9.170472 6.107876 9.168966
In -12.224034 6.107876 18.329651
In -12.224034 9.161438 15.276090
In -9.170472 9.161438 18.329651
In -9.170472 6.107876 15.276090
In -9.170472 9.161438 24.436775
In -9.170472 6.107876 21.383213
In -12.224034 12.214999 0.008281
In -9.170472 15.268561 0.008281
In -9.170472 12.214999 -3.045280
In -12.224034 12.214999 6.115405
In -12.224034 15.268561 3.061843
In -9.170472 15.268561 6.115405
In -9.170472 12.214999 3.061843
In -12.224034 12.214999 12.222528
In -12.224034 15.268561 9.168966
In -9.170472 15.268561 12.222528
In -9.170472 12.214999 9.168966
In -12.224034 12.214999 18.329651
In -12.224034 15.268561 15.276090
In -9.170472 15.268561 18.329651
In -9.170472 12.214999 15.276090
In -12.224034 12.214999 24.436775
In -12.224034 15.268561 21.383213
In -9.170472 12.214999 21.383213
In -12.224034 18.322123 6.115405
In -9.170472 21.375684 6.115405
In -9.170472 18.322123 3.061843
In -12.224034 18.322123 12.222528
In -12.224034 21.375684 9.168966
In -9.170472 21.375684 12.222528
In -9.170472 18.322123 9.168966
In -12.224034 18.322123 18.329651
In -12.224034 21.375684 15.276090
In -9.170472 18.322123 15.276090
In -12.224034 24.429246 12.222528
In -9.170472 24.429246 9.168966
In -6.116910 -24.427740 -6.098842
In -6.116910 -21.374179 -9.152404
In -3.063349 -21.374179 -6.098842
In -6.116910 -21.374179 -3.045280
In -3.063349 -21.374179 0.008281
In -3.063349 -24.427740 -3.045280
In -6.116910 -18.320617 -12.205965
In -6.116910 -15.267055 -15.259527
In -3.063349 -15.267055 -12.205965
In -6.116910 -18.320617 -6.098842
In -6.116910 -15.267055 -9.152404
In -3.063349 -15.267055 -6.098842
In -3.063349 -18.320617 -9.152404
In -6.116910 -18.320617 0.008281
In -6.116910 -15.267055 -3.045280
In -3.063349 -15.267055 0.008281
In -3.063349 -18.320617 -3.045280
In -6.116910 -15.267055 3.061843
In -3.063349 -15.267055 6.115405
In -3.063349 -18.320617 3.061843
In -6.116910 -12.213494 -18.313089
In -6.116910 -9.159932 -21.366650
In -3.063349 -9.159932 -18.313089
In -6.116910 -12.213494 -12.205965
In -6.116910 -9.159932 -15.259527
In -3.063349 -9.159932 -12.205965
In -3.063349 -12.213494 -15.259527
In -6.116910 -12.213494 -6.098842
In -6.116910 -9.159932 -9.152404
In -3.063349 -9.159932 -6.098842
In -3.063349 -12.213494 -9.152404
In -6.116910 -12.213494 0.008281
In -6.116910 -9.159932 -3.045280
In -3.063349 -9.159932 0.008281
In -3.063349 -12.213494 -3.045280
In -6.116910 -12.213494 6.115405
In -6.116910 -9.159932 3.061843
In -3.063349 -9.159932 6.115405
In -3.063349 -12.213494 3.061843
In -6.116910 -9.159932 9.168966
In -3.063349 -9.159932 12.222528
In -3.063349 -12.213494 9.168966
In -6.116910 -6.106370 -24.420212
In -3.063349 -3.052809 -24.420212
In -6.116910 -6.106370 -18.313089
In -6.116910 -3.052809 -21.366650
In -3.063349 -3.052809 -18.313089
In -3.063349 -6.106370 -21.366650
In -6.116910 -6.106370 -12.205965
In -6.116910 -3.052809 -15.259527
In -3.063349 -3.052809 -12.205965
In -3.063349 -6.106370 -15.259527
In -6.116910 -6.106370 -6.098842
In -6.116910 -3.052809 -9.152404
In -3.063349 -3.052809 -6.098842
In -3.063349 -6.106370 -9.152404
In -6.116910 -6.106370 0.008281
In -6.116910 -3.052809 -3.045280
In -3.063349 -3.052809 0.008281
In -3.063349 -6.106370 -3.045280
In -6.116910 -6.106370 6.115405
In -6.116910 -3.052809 3.061843
In -3.063349 -3.052809 6.115405
In -3.063349 -6.106370 3.061843
In -6.116910 -6.106370 12.222528
In -6.116910 -3.052809 9.168966
In -3.063349 -3.052809 12.222528
In -3.063349 -6.106370 9.168966
In -6.116910 -3.052809 15.276090
In -3.063349 -3.052809 18.329651
In -3.063349 -6.106370 15.276090
In -6.116910 0.000753 -18.313089
In -3.063349 3.054315 -18.313089
In -3.063349 0.000753 -21.366650
In -6.116910 0.000753 -12.205965
In -6.116910 3.054315 -15.259527
In -3.063349 3.054315 -12.205965
In -3.063349 0.000753 -15.259527
In -6.116910 0.000753 -6.098842
In -6.116910 3.054315 -9.152404
In -3.063349 3.054315 -6.098842
In -3.063349 0.000753 -9.152404
In -6.116910 0.000753 0.008281
In -6.116910 3.054315 -3.045280
In -3.063349 3.054315 0.008281
In -3.063349 0.000753 -3.045280
In -6.116910 0.000753 6.115405
In -6.116910 3.054315 3.061843
In -3.063349 3.054315 6.115405
In -3.063349 0.000753 3.061843
In -6.116910 0.000753 12.222528
In -6.116910 3.054315 9.168966
In -3.063349 3.054315 12.222528
In -3.063349 0.000753 9.168966
In -6.116910 0.000753 18.329651
In -6.116910 3.054315 15.276090
In -3.063349 3.054315 18.329651
In -3.063349 0.000753 15.276090
In -6.116910 3.054315 21.383213
In -3.063349 3.054315 24.436775
In -3.063349 0.000753 21.383213
In -6.116910 6.107876 -12.205965
In -3.063349 9.161438 -12.205965
In -3.063349 6.107876 -15.259527
In -6.116910 6.107876 -6.098842
In -6.116910 9.161438 -9.152404
In -3.063349 9.161438 -6.098842
In -3.063349 6.107876 -9.152404
In -6.116910 6.107876 0.008281
In -6.116910 9.161438 -3.045280
In -3.063349 9.161438 0.008281
In -3.063349 6.107876 -3.045280
In -6.116910 6.107876 6.115405
In -6.116910 9.161438 3.061843
In -3.063349 9.161438 6.115405
In -3.063349 6.107876 3.061843
In -6.116910 6.107876 12.222528
In -6.116910 9.161438 9.168966
In -3.063349 9.161438 12.222528
In -3.063349 6.107876 9.168966
In -6.116910 6.107876 18.329651
In -6.116910 9.161438 15.276090
In -3.063349 9.161438 18.329651
In -3.063349 6.107876 15.276090
In -6.116910 6.107876 24.436775
In -6.116910 9.161438 21.383213
In -3.063349 6.107876 21.383213
In -6.116910 12.214999 -6.098842
In -3.063349 15.268561 -6.098842
In -3.063349 12.214999 -9.152404
In -6.116910 12.214999 0.008281
In -6.116910 15.268561 -3.045280
In -3.063349 15.268561 0.008281
In -3.063349 12.214999 -3.045280
In -6.116910 12.214999 6.115405
In -6.116910 15.268561 3.061843
In -3.063349 15.268561 6.115405
In -3.063349 12.214999 3.061843
In -6.116910 12.214999 12.222528
In -6.116910 15.268561 9.168966
In -3.063349 15.268561 12.222528
In -3.063349 12.214999 9.168966
In -6.116910 12.214999 18.329651
In -6.116910 15.268561 15.276090
In -3.063349 12.214999 15.276090
In -6.116910 18.322123 0.008281
In -3.063349 21.375684 0.008281
In -3.063349 18.322123 -3.045280
In -6.116910 18.322123 6.115405
In -6.116910 21.375684 3.061843
In -3.063349 21.375684 6.115405
In -3.063349 18.322123 3.061843
In -6.116910 18.322123 12.222528
In -6.116910 21.375684 9.168966
In -3.063349 18.322123 9.168966
In -6.116910 24.429246 6.115405
In -3.063349 24.429246 3.061843
In -0.009787 -24.427740 0.008281
In -0.009787 -21.374179 -3.045280
In 3.043775 -21.374179 0.008281
In -0.009787 -21.374179 3.061843
In 3.043775 -21.374179 6.115405
In 3.043775 -24.427740 3.061843
In -0.009787 -18.320617 -6.098842
In -0.009787 -15.267055 -9.152404
In 3.043775 -15.267055 -6.098842
In -0.009787 -18.320617 0.008281
In -0.009787 -15.267055 -3.045280
In 3.043775 -15.267055 0.008281
In 3.043775 -18.320617 -3.045280
In -0.009787 -18.320617 6.115405
In -0.009787 -15.267055 3.061843
In 3.043775 -15.267055 6.115405
In 3.043775 -18.320617 3.061843
In -0.009787 -15.267055 9.168966
In 3.043775 -15.267055 12.222528
In 3.043775 -18.320617 9.168966
In -0.009787 -12.213494 -12.205965
In -0.009787 -9.159932 -15.259527
In 3.043775 -9.159932 -12.205965
In -0.009787 -12.213494 -6.098842
In -0.009787 -9.159932 -9.152404
In 3.043775 -9.159932 -6.098842
In 3.043775 -12.213494 -9.152404
In -0.009787 -12.213494 0.008281
In -0.009787 -9.159932 -3.045280
In 3.043775 -9.159932 0.008281
In 3.043775 -12.213494 -3.045280
In -0.009787 -12.213494 6.115405
In -0.009787 -9.159932 3.061843
In 3.043775 -9.159932 6.115405
In 3.043775 -12.213494 3.061843
In -0.009787 -12.213494 12.222528
In -0.009787 -9.159932 9.168966
In 3.043775 -9.159932 12.222528
In 3.043775 -12.213494 9.168966
In -0.009787 -9.159932 15.276090
In 3.043775 -9.159932 18.329651
In 3.043775 -12.213494 15.276090
In -0.009787 -6.106370 -18.313089
In -0.009787 -3.052809 -21.366650
In 3.043775 -3.052809 -18.313089
In -0.009787 -6.106370 -12.205965
In -0.009787 -3.052809 -15.259527
In 3.043775 -3.052809 -12.205965
In 3.043775 -6.106370 -15.259527
In -0.009787 -6.106370 -6.098842
In -0.009787 -3.052809 -9.152404
In 3.043775 -3.052809 -6.098842
In 3.043775 -6.106370 -9.152404
In -0.009787 -6.106370 0.008281
In -0.009787 -3.052809 -3.045280
In 3.043775 -3.052809 0.008281
In 3.043775 -6.106370 -3.045280
In -0.009787 -6.106370 6.115405
In -0.009787 -3.052809 3.061843
In 3.043775 -3.052809 6.115405
In 3.043775 -6.106370 3.061843
In -0.009787 -6.106370 12.222528
In -0.009787 -3.052809 9.168966
In 3.043775 -3.052809 12.222528
In 3.043775 -6.106370 9.168966
In -0.009787 -6.106370 18.329651
In -0.009787 -3.052809 15.276090
In 3.043775 -3.052809 18.329651
In 3.043775 -6.106370 15.276090
In -0.009787 -3.052809 21.383213
In 3.043775 -3.052809 24.436775
In 3.043775 -6.106370 21.383213
In -0.009787 0.000753 -24.420212
In 3.043775 3.054315 -24.420212
In -0.009787 0.000753 -18.313089
In -0.009787 3.054315 -21.366650
In 3.043775 3.054315 -18.313089
In 3.043775 0.000753 -21.366650
In -0.009787 0.000753 -12.205965
In -0.009787 3.054315 -15.259527
In 3.043775 3.054315 -12.205965
In 3.043775 0.000753 -15.259527
In -0.009787 0.000753 -6.098842
In -0.009787 3.054315 -9.152404
In 3.043775 3.054315 -6.098842
In 3.043775 0.000753 -9.152404
In -0.009787 0.000753 0.008281
In -0.009787 3.054315 -3.045280
In 3.043775 3.054315 0.008281
In 3.043775 0.000753 -3.045280
In -0.009787 0.000753 6.115405
In -0.009787 3.054315 3.061843
In 3.043775 3.054315 6.115405
In 3.043775 0.000753 3.061843
In -0.009787 0.000753 12.222528
In -0.009787 3.054315 9.168966
In 3.043775 3.054315 12.222528
In 3.043775 0.000753 9.168966
In -0.009787 0.000753 18.329651
In -0.009787 3.054315 15.276090
In 3.043775 3.054315 18.329651
In 3.043775 0.000753 15.276090
In -0.009787 0.000753 24.436775
In -0.009787 3.054315 21.383213
In 3.043775 0.000753 21.383213
In -0.009787 6.107876 -18.313089
In 3.043775 9.161438 -18.313089
In 3.043775 6.107876 -21.366650
In -0.009787 6.107876 -12.205965
In -0.009787 9.161438 -15.259527
In 3.043775 9.161438 -12.205965
In 3.043775 6.107876 -15.259527
In -0.009787 6.107876 -6.098842
In -0.009787 9.161438 -9.152404
In 3.043775 9.161438 -6.098842
In 3.043775 6.107876 -9.152404
In -0.009787 6.107876 0.008281
In -0.009787 9.161438 -3.045280
In 3.043775 9.161438 0.008281
In 3.043775 6.107876 -3.045280
In -0.009787 6.107876 6.115405
In -0.009787 9.161438 3.061843
In 3.043775 9.161438 6.115405
In 3.043775 6.107876 3.061843
In -0.009787 6.107876 12.222528
In -0.009787 9.161438 9.168966
In 3.043775 9.161438 12.222528
In 3.043775 6.107876 9.168966
In -0.009787 6.107876 18.329651
In -0.009787 9.161438 15.276090
In 3.043775 6.107876 15.276090
In -0.009787 12.214999 -12.205965
In 3.043775 15.268561 -12.205965
In 3.043775 12.214999 -15.259527
In -0.009787 12.214999 -6.098842
In -0.009787 15.268561 -9.152404
In 3.043775 15.268561 -6.098842
In 3.043775 12.214999 -9.152404
In -0.009787 12.214999 0.008281
In -0.009787 15.268561 -3.045280
In 3.043775 15.268561 0.008281
In 3.043775 12.214999 -3.045280
In -0.009787 12.214999 6.115405
In -0.009787 15.268561 3.061843
In 3.043775 15.268561 6.115405
In 3.043775 12.214999 3.061843
In -0.009787 12.214999 12.222528
In -0.009787 15.268561 9.168966
In 3.043775 12.214999 9.168966
In -0.009787 18.322123 -6.098842
In 3.043775 21.375684 -6.098842
In 3.043775 18.322123 -9.152404
In -0.009787 18.322123 0.008281
In -0.009787 21.375684 -3.045280
In 3.043775 21.375684 0.008281
In 3.043775 18.322123 -3.045280
In -0.009787 18.322123 6.115405
In -0.009787 21.375684 3.061843
In 3.043775 18.322123 3.061843
In -0.009787 24.429246 0.008281
In 3.043775 24.429246 -3.045280
In 6.097336 -24.427740 6.115405
In 6.097336 -21.374179 3.061843
In 9.150898 -21.374179 6.115405
In 6.097336 -21.374179 9.168966
In 9.150898 -21.374179 12.222528
In 9.150898 -24.427740 9.168966
In 6.097336 -18.320617 0.008281
In 6.097336 -15.267055 -3.045280
In 9.150898 -15.267055 0.008281
In 6.097336 -18.320617 6.115405
In 6.097336 -15.267055 3.061843
In 9.150898 -15.267055 6.115405
In 9.150898 -18.320617 3.061843
In 6.097336 -18.320617 12.222528
In 6.097336 -15.267055 9.168966
In 9.150898 -15.267055 12.222528
In 9.150898 -18.320617 9.168966
In 6.097336 -15.267055 15.276090
In 9.150898 -15.267055 18.329651
In 9.150898 -18.320617 15.276090
In 6.097336 -12.213494 -6.098842
In 6.097336 -9.159932 -9.152404
In 9.150898 -9.159932 -6.098842
In 6.097336 -12.213494 0.008281
In 6.097336 -9.159932 -3.045280
In 9.150898 -9.159932 0.008281
In 9.150898 -12.213494 -3.045280
In 6.097336 -12.213494 6.115405
In 6.097336 -9.159932 3.061843
In 9.150898 -9.159932 6.115405
In 9.150898 -12.213494 3.061843
In 6.097336 -12.213494 12.222528
In 6.097336 -9.159932 9.168966
In 9.150898 -9.159932 12.222528
In 9.150898 -12.213494 9.168966
In 6.097336 -12.213494 18.329651
In 6.097336 -9.159932 15.276090
In 9.150898 -9.159932 18.329651
In 9.150898 -12.213494 15.276090
In 6.097336 -9.159932 21.383213
In 9.150898 -9.159932 24.436775
In 9.150898 -12.213494 21.383213
In 6.097336 -6.106370 -12.205965
In 6.097336 -3.052809 -15.259527
In 9.150898 -3.052809 -12.205965
In 6.097336 -6.106370 -6.098842
In 6.097336 -3.052809 -9.152404
In 9.150898 -3.052809 -6.098842
In 9.150898 -6.106370 -9.152404
In 6.097336 -6.106370 0.008281
In 6.097336 -3.052809 -3.045280
In 9.150898 -3.052809 0.008281
In 9.150898 -6.106370 -3.045280
In 6.097336 -6.106370 6.115405
In 6.097336 -3.052809 3.061843
In 9.150898 -3.052809 6.115405
In 9.150898 -6.106370 3.061843
In 6.097336 -6.106370 12.222528
In 6.097336 -3.052809 9.168966
In 9.150898 -3.052809 12.222528
In 9.150898 -6.106370 9.168966
In 6.097336 -6.106370 18.329651
In 6.097336 -3.052809 15.276090
In 9.150898 -3.052809 18.329651
In 9.150898 -6.106370 15.276090
In 6.097336 -6.106370 24.436775
In 6.097336 -3.052809 21.383213
In 9.150898 -6.106370 21.383213
In 6.097336 0.000753 -18.313089
In 6.097336 3.054315 -21.366650
In 9.150898 3.054315 -18.313089
In 6.097336 0.000753 -12.205965
In 6.097336 3.054315 -15.259527
In 9.150898 3.054315 -12.205965
In 9.150898 0.000753 -15.259527
In 6.097336 0.000753 -6.098842
In 6.097336 3.054315 -9.152404
In 9.150898 3.054315 -6.098842
In 9.150898 0.000753 -9.152404
In 6.097336 0.000753 0.008281
In 6.097336 3.054315 -3.045280
In 9.150898 3.054315 0.008281
In 9.150898 0.000753 -3.045280
In 6.097336 0.000753 6.115405
In 6.097336 3.054315 3.061843
In 9.150898 3.054315 6.115405
In 9.150898 0.000753 3.061843
In 6.097336 0.000753 12.222528
In 6.097336 3.054315 9.168966
In 9.150898 3.054315 12.222528
In 9.150898 0.000753 9.168966
In 6.097336 0.000753 18.329651
In 6.097336 3.054315 15.276090
In 9.150898 0.000753 15.276090
In 6.097336 6.107876 -24.420212
In 9.150898 9.161438 -24.420212
In 6.097336 6.107876 -18.313089
In 6.097336 9.161438 -21.366650
In 9.150898 9.161438 -18.313089
In 9.150898 6.107876 -21.366650
In 6.097336 6.107876 -12.205965
In 6.097336 9.161438 -15.259527
In 9.150898 9.161438 -12.205965
In 9.150898 6.107876 -15.259527
In 6.097336 6.107876 -6.098842
In 6.097336 9.161438 -9.152404
In 9.150898 9.161438 -6.098842
In 9.150898 6.107876 -9.152404
In 6.097336 6.107876 0.008281
In 6.097336 9.161438 -3.045280
In 9.150898 9.161438 0.008281
In 9.150898 6.107876 -3.045280
In 6.097336 6.107876 6.115405
In 6.097336 9.161438 3.061843
In 9.150898 9.161438 6.115405
In 9.150898 6.107876 3.061843
In 6.097336 6.107876 12.222528
In 6.097336 9.161438 9.168966
In 9.150898 6.107876 9.168966
In 6.097336 12.214999 -18.313089
In 9.150898 15.268561 -18.313089
In 9.150898 12.214999 -21.366650
In 6.097336 12.214999 -12.205965
In 6.097336 15.268561 -15.259527
In 9.150898 15.268561 -12.205965
In 9.150898 12.214999 -15.259527
In 6.097336 12.214999 -6.098842
In 6.097336 15.268561 -9.152404
In 9.150898 15.268561 -6.098842
In 9.150898 12.214999 -9.152404
In 6.097336 12.214999 0.008281
In 6.097336 15.268561 -3.045280
In 9.150898 15.268561 0.008281
In 9.150898 12.214999 -3.045280
In 6.097336 12.214999 6.115405
In 6.097336 15.268561 3.061843
In 9.150898 12.214999 3.061843
In 6.097336 18.322123 -12.205965
In 9.150898 21.375684 -12.205965
In 9.150898 18.322123 -15.259527
In 6.097336 18.322123 -6.098842
In 6.097336 21.375684 -9.152404
In 9.150898 21.375684 -6.098842
In 9.150898 18.322123 -9.152404
In 6.097336 18.322123 0.008281
In 6.097336 21.375684 -3.045280
In 9.150898 18.322123 -3.045280
In 6.097336 24.429246 -6.098842
In 9.150898 24.429246 -9.152404
In 12.204460 -24.427740 12.222528
In 12.204460 -21.374179 9.168966
In 15.258021 -21.374179 12.222528
In 12.204460 -21.374179 15.276090
In 12.204460 -18.320617 6.115405
In 12.204460 -15.267055 3.061843
In 15.258021 -15.267055 6.115405
In 12.204460 -18.320617 12.222528
In 12.204460 -15.267055 9.168966
In 15.258021 -15.267055 12.222528
In 15.258021 -18.320617 9.168966
In 12.204460 -18.320617 18.329651
In 12.204460 -15.267055 15.276090
In 15.258021 -18.320617 15.276090
In 12.204460 -15.267055 21.383213
In 12.204460 -12.213494 0.008281
In 12.204460 -9.159932 -3.045280
In 15.258021 -9.159932 0.008281
In 12.204460 -12.213494 6.115405
In 12.204460 -9.159932 3.061843
In 15.258021 -9.159932 6.115405
In 15.258021 -12.213494 3.061843
In 12.204460 -12.213494 12.222528
In 12.204460 -9.159932 9.168966
In 15.258021 -9.159932 12.222528
In 15.258021 -12.213494 9.168966
In 12.204460 -12.213494 18.329651
In 12.204460 -9.159932 15.276090
In 15.258021 -9.159932 18.329651
In 15.258021 -12.213494 15.276090
In 12.204460 -12.213494 24.436775
In 15.258021 -12.213494 21.383213
In 12.204460 -6.106370 -6.098842
In 12.204460 -3.052809 -9.152404
In 15.258021 -3.052809 -6.098842
In 12.204460 -6.106370 0.008281
In 12.204460 -3.052809 -3.045280
In 15.258021 -3.052809 0.008281
In 15.258021 -6.106370 -3.045280
In 12.204460 -6.106370 6.115405
In 12.204460 -3.052809 3.061843
In 15.258021 -3.052809 6.115405
In 15.258021 -6.106370 3.061843
In 12.204460 -6.106370 12.222528
In 12.204460 -3.052809 9.168966
In 15.258021 -3.052809 12.222528
In 15.258021 -6.106370 9.168966
In 12.204460 -6.106370 18.329651
In 12.204460 -3.052809 15.276090
In 15.258021 -6.106370 15.276090
In 12.204460 0.000753 -12.205965
In 12.204460 3.054315 -15.259527
In 15.258021 3.054315 -12.205965
In 12.204460 0.000753 -6.098842
In 12.204460 3.054315 -9.152404
In 15.258021 3.054315 -6.098842
In 15.258021 0.000753 -9.152404
In 12.204460 0.000753 0.008281
In 12.204460 3.054315 -3.045280
In 15.258021 3.054315 0.008281
In 15.258021 0.000753 -3.045280
In 12.204460 0.000753 6.115405
In 12.204460 3.054315 3.061843
In 15.258021 3.054315 6.115405
In 15.258021 0.000753 3.061843
In 12.204460 0.000753 12.222528
In 12.204460 3.054315 9.168966
In 15.258021 0.000753 9.168966
In 12.204460 6.107876 -18.313089
In 15.258021 9.161438 -18.313089
In 12.204460 6.107876 -12.205965
In 12.204460 9.161438 -15.259527
In 15.258021 9.161438 -12.205965
In 15.258021 6.107876 -15.259527
In 12.204460 6.107876 -6.098842
In 12.204460 9.161438 -9.152404
In 15.258021 9.161438 -6.098842
In 15.258021 6.107876 -9.152404
In 12.204460 6.107876 0.008281
In 12.204460 9.161438 -3.045280
In 15.258021 9.161438 0.008281
In 15.258021 6.107876 -3.045280
In 12.204460 6.107876 6.115405
In 12.204460 9.161438 3.061843
In 15.258021 6.107876 3.061843
In 12.204460 12.214999 -24.420212
In 12.204460 12.214999 -18.313089
In 12.204460 15.268561 -21.366650
In 15.258021 12.214999 -21.366650
In 12.204460 12.214999 -12.205965
In 12.204460 15.268561 -15.259527
In 15.258021 15.268561 -12.205965
In 15.258021 12.214999 -15.259527
In 12.204460 12.214999 -6.098842
In 12.204460 15.268561 -9.152404
In 15.258021 15.268561 -6.098842
In 15.258021 12.214999 -9.152404
In 12.204460 12.214999 0.008281
In 12.204460 15.268561 -3.045280
In 15.258021 12.214999 -3.045280
In 12.204460 18.322123 -18.313089
In 12.204460 18.322123 -12.205965
In 12.204460 21.375684 -15.259527
In 15.258021 21.375684 -12.205965
In 15.258021 18.322123 -15.259527
In 12.204460 18.322123 -6.098842
In 12.204460 21.375684 -9.152404
In 15.258021 18.322123 -9.152404
In 12.204460 24.429246 -12.205965
In 18.311583 -18.320617 12.222528
In 18.311583 -15.267055 9.168966
In 21.365145 -15.267055 12.222528
In 18.311583 -15.267055 15.276090
In 18.311583 -12.213494 6.115405
In 18.311583 -9.159932 3.061843
In 21.365145 -9.159932 6.115405
In 18.311583 -12.213494 12.222528
In 18.311583 -9.159932 9.168966
In 21.365145 -9.159932 12.222528
In 21.365145 -12.213494 9.168966
In 18.311583 -12.213494 18.329651
In 18.311583 -9.159932 15.276090
In 21.365145 -12.213494 15.276090
In 18.311583 -6.106370 0.008281
In 18.311583 -3.052809 -3.045280
In 21.365145 -3.052809 0.008281
In 18.311583 -6.106370 6.115405
In 18.311583 -3.052809 3.061843
In 21.365145 -3.052809 6.115405
In 21.365145 -6.106370 3.061843
In 18.311583 -6.106370 12.222528
In 18.311583 -3.052809 9.168966
In 21.365145 -6.106370 9.168966
In 18.311583 0.000753 -6.098842
In 18.311583 3.054315 -9.152404
In 21.365145 3.054315 -6.098842
In 18.311583 0.000753 0.008281
In 18.311583 3.054315 -3.045280
In 21.365145 3.054315 0.008281
In 21.365145 0.000753 -3.045280
In 18.311583 0.000753 6.115405
In 18.311583 3.054315 3.061843
In 21.365145 0.000753 3.061843
In 18.311583 6.107876 -12.205965
In 18.311583 9.161438 -15.259527
In 21.365145 9.161438 -12.205965
In 18.311583 6.107876 -6.098842
In 18.311583 9.161438 -9.152404
In 21.365145 9.161438 -6.098842
In 21.365145 6.107876 -9.152404
In 18.311583 6.107876 0.008281
In 18.311583 9.161438 -3.045280
In 21.365145 6.107876 -3.045280
In 18.311583 12.214999 -18.313089
In 18.311583 12.214999 -12.205965
In 18.311583 15.268561 -15.259527
In 21.365145 15.268561 -12.205965
In 21.365145 12.214999 -15.259527
In 18.311583 12.214999 -6.098842
In 18.311583 15.268561 -9.152404
In 21.365145 12.214999 -9.152404
In 18.311583 18.322123 -12.205965
In 24.418706 -12.213494 12.222528
In 24.418706 -9.159932 9.168966
In 24.418706 -6.106370 6.115405
In 24.418706 -3.052809 3.061843
In 24.418706 0.000753 0.008281
In 24.418706 3.054315 -3.045280
In 24.418706 6.107876 -6.098842
In 24.418706 9.161438 -9.152404
In 24.418706 12.214999 -12.205965
As -22.911499 -13.740275 -13.732746
As -22.911499 -10.686713 -10.679184
As -22.911499 -7.633151 -7.625623
As -22.911499 -4.579590 -4.572061
As -22.911499 -1.526028 -1.518499
As -22.911499 1.527534 1.535062
As -22.911499 4.581095 4.588624
As -22.911499 7.634657 7.642185
As -22.911499 10.688219 10.695747
As -22.911499 13.741780 13.749309
As -16.804376 -19.847398 -13.732746
As -16.804376 -16.793836 -10.679184
As -16.804376 -10.686713 -16.786308
As -16.804376 -13.740275 -13.732746
As -19.857938 -10.686713 -13.732746
As -19.857938 -13.740275 -10.679184
As -16.804376 -10.686713 -10.679184
As -16.804376 -13.740275 -7.625623
As -19.857938 -10.686713 -7.625623
As -16.804376 -10.686713 -4.572061
As -16.804376 -7.633151 -13.732746
As -19.857938 -7.633151 -10.679184
As -16.804376 -4.579590 -10.679184
As -16.804376 -7.633151 -7.625623
As -19.857938 -4.579590 -7.625623
As -19.857938 -7.633151 -4.572061
As -16.804376 -4.579590 -4.572061
As -16.804376 -7.633151 -1.518499
As -19.857938 -4.579590 -1.518499
As -16.804376 -4.579590 1.535062
As -16.804376 -1.526028 -7.625623
As -19.857938 -1.526028 -4.572061
As -16.804376 1.527534 -4.572061
As -16.804376 -1.526028 -1.518499
As -19.857938 1.527534 -1.518499
As -19.857938 -1.526028 1.535062
As -16.804376 1.527534 1.535062
As -16.804376 -1.526028 4.588624
As -19.857938 1.527534 4.588624
As -16.804376 1.527534 7.642185
As -16.804376 4.581095 -1.518499
As -19.857938 4.581095 1.535062
As -16.804376 7.634657 1.535062
As -16.804376 4.581095 4.588624
As -19.857938 7.634657 4.588624
As -19.857938 4.581095 7.642185
As -16.804376 7.634657 7.642185
As -16.804376 4.581095 10.695747
As -19.857938 7.634657 10.695747
As -16.804376 7.634657 13.749309
As -16.804376 10.688219 4.588624
As -19.857938 10.688219 7.642185
As -16.804376 13.741780 7.642185
As -16.804376 10.688219 10.695747
As -19.857938 13.741780 10.695747
As -19.857938 10.688219 13.749309
As -16.804376 13.741780 13.749309
As -16.804376 10.688219 16.802870
As -16.804376 16.795342 10.695747
As -16.804376 19.848904 13.749309
As -10.697253 -22.900960 -10.679184
As -10.697253 -16.793836 -16.786308
As -10.697253 -19.847398 -13.732746
As -13.750815 -16.793836 -13.732746
As -13.750815 -19.847398 -10.679184
As -10.697253 -16.793836 -10.679184
As -10.697253 -19.847398 -7.625623
As -13.750815 -16.793836 -7.625623
As -10.697253 -16.793836 -4.572061
As -13.750815 -13.740275 -22.893431
As -10.697253 -10.686713 -22.893431
As -10.697253 -13.740275 -19.839869
As -13.750815 -10.686713 -19.839869
As -13.750815 -13.740275 -16.786308
As -10.697253 -10.686713 -16.786308
As -10.697253 -13.740275 -13.732746
As -13.750815 -10.686713 -13.732746
As -13.750815 -13.740275 -10.679184
As -10.697253 -10.686713 -10.679184
As -10.697253 -13.740275 -7.625623
As -13.750815 -10.686713 -7.625623
As -13.750815 -13.740275 -4.572061
As -10.697253 -10.686713 -4.572061
As -10.697253 -13.740275 -1.518499
As -13.750815 -10.686713 -1.518499
As -10.697253 -10.686713 1.535062
As -10.697253 -7.633151 -19.839869
As -13.750815 -7.633151 -16.786308
As -10.697253 -4.579590 -16.786308
As -10.697253 -7.633151 -13.732746
As -13.750815 -4.579590 -13.732746
As -13.750815 -7.633151 -10.679184
As -10.697253 -4.579590 -10.679184
As -10.697253 -7.633151 -7.625623
As -13.750815 -4.579590 -7.625623
As -13.750815 -7.633151 -4.572061
As -10.697253 -4.579590 -4.572061
As -10.697253 -7.633151 -1.518499
As -13.750815 -4.579590 -1.518499
As -13.750815 -7.633151 1.535062
As -10.697253 -4.579590 1.535062
As -10.697253 -7.633151 4.588624
As -13.750815 -4.579590 4.588624
As -10.697253 -4.579590 7.642185
As -10.697253 -1.526028 -13.732746
As -13.750815 -1.526028 -10.679184
As -10.697253 1.527534 -10.679184
As -10.697253 -1.526028 -7.625623
As -13.750815 1.527534 -7.625623
As -13.750815 -1.526028 -4.572061
As -10.697253 1.527534 -4.572061
As -10.697253 -1.526028 -1.518499
As -13.750815 1.527534 -1.518499
As -13.750815 -1.526028 1.535062
As -10.697253 1.527534 1.535062
As -10.697253 -1.526028 4.588624
As -13.750815 1.527534 4.588624
As -13.750815 -1.526028 7.642185
As -10.697253 1.527534 7.642185
As -10.697253 -1.526028 10.695747
As -13.750815 1.527534 10.695747
As -10.697253 1.527534 13.749309
As -10.697253 4.581095 -7.625623
As -13.750815 4.581095 -4.572061
As -10.697253 7.634657 -4.572061
As -10.697253 4.581095 -1.518499
As -13.750815 7.634657 -1.518499
As -13.750815 4.581095 1.535062
As -10.697253 7.634657 1.535062
As -10.697253 4.581095 4.588624
As -13.750815 7.634657 4.588624
As -13.750815 4.581095 7.642185
As -10.697253 7.634657 7.642185
As -10.697253 4.581095 10.695747
As -13.750815 7.634657 10.695747
As -13.750815 4.581095 13.749309
As -10.697253 7.634657 13.749309
As -10.697253 4.581095 16.802870
As -13.750815 7.634657 16.802870
As -10.697253 7.634657 19.856432
As -10.697253 10.688219 -1.518499
As -13.750815 10.688219 1.535062
As -10.697253 13.741780 1.535062
As -10.697253 10.688219 4.588624
As -13.750815 13.741780 4.588624
As -13.750815 10.688219 7.642185
As -10.697253 13.741780 7.642185
As -10.697253 10.688219 10.695747
As -13.750815 13.741780 10.695747
As -13.750815 10.688219 13.749309
As -10.697253 13.741780 13.749309
As -10.697253 10.688219 16.802870
As -13.750815 13.741780 16.802870
As -13.750815 10.688219 19.856432
As -10.697253 13.741780 19.856432
As -10.697253 10.688219 22.909994
As -13.750815 13.741780 22.909994
As -10.697253 16.795342 4.588624
As -13.750815 16.795342 7.642185
As -10.697253 19.848904 7.642185
As -10.697253 16.795342 10.695747
As -13.750815 19.848904 10.695747
As -13.750815 16.795342 13.749309
As -10.697253 19.848904 13.749309
As -10.697253 16.795342 16.802870
As -10.697253 22.902465 10.695747
As -7.643691 -22.900960 -7.625623
As -4.590130 -22.900960 -4.572061
As -7.643691 -16.793836 -13.732746
As -7.643691 -19.847398 -10.679184
As -4.590130 -16.793836 -10.679184
As -4.590130 -19.847398 -7.625623
As -7.643691 -16.793836 -7.625623
As -7.643691 -19.847398 -4.572061
As -4.590130 -16.793836 -4.572061
As -4.590130 -19.847398 -1.518499
As -7.643691 -16.793836 -1.518499
As -4.590130 -16.793836 1.535062
As -7.643691 -10.686713 -19.839869
As -7.643691 -13.740275 -16.786308
As -4.590130 -10.686713 -16.786308
As -4.590130 -13.740275 -13.732746
As -7.643691 -10.686713 -13.732746
As -7.643691 -13.740275 -10.679184
As -4.590130 -10.686713 -10.679184
As -4.590130 -13.740275 -7.625623
As -7.643691 -10.686713 -7.625623
As -7.643691 -13.740275 -4.572061
As -4.590130 -10.686713 -4.572061
As -4.590130 -13.740275 -1.518499
As -7.643691 -10.686713 -1.518499
As -7.643691 -13.740275 1.535062
As -4.590130 -10.686713 1.535062
As -4.590130 -13.740275 4.588624
As -7.643691 -10.686713 4.588624
As -4.590130 -10.686713 7.642185
As -7.643691 -7.633151 -22.893431
As -4.590130 -4.579590 -22.893431
As -4.590130 -7.633151 -19.839869
As -7.643691 -4.579590 -19.839869
As -7.643691 -7.633151 -16.786308
As -4.590130 -4.579590 -16.786308
As -4.590130 -7.633151 -13.732746
As -7.643691 -4.579590 -13.732746
As -7.643691 -7.633151 -10.679184
As -4.590130 -4.579590 -10.679184
As -4.590130 -7.633151 -7.625623
As -7.643691 -4.579590 -7.625623
As -7.643691 -7.633151 -4.572061
As -4.590130 -4.579590 -4.572061
As -4.590130 -7.633151 -1.518499
As -7.643691 -4.579590 -1.518499
As -7.643691 -7.633151 1.535062
As -4.590130 -4.579590 1.535062
As -4.590130 -7.633151 4.588624
As -7.643691 -4.579590 4.588624
As -7.643691 -7.633151 7.642185
As -4.590130 -4.579590 7.642185
As -4.590130 -7.633151 10.695747
As -7.643691 -4.579590 10.695747
As -4.590130 -4.579590 13.749309
As -4.590130 -1.526028 -19.839869
As -7.643691 -1.526028 -16.786308
As -4.590130 1.527534 -16.786308
As -4.590130 -1.526028 -13.732746
As -7.643691 1.527534 -13.732746
As -7.643691 -1.526028 -10.679184
As -4.590130 1.527534 -10.679184
As -4.590130 -1.526028 -7.625623
As -7.643691 1.527534 -7.625623
As -7.643691 -1.526028 -4.572061
As -4.590130 1.527534 -4.572061
As -4.590130 -1.526028 -1.518499
As -7.643691 1.527534 -1.518499
As -7.643691 -1.526028 1.535062
As -4.590130 1.527534 1.535062
As -4.590130 -1.526028 4.588624
As -7.643691 1.527534 4.588624
As -7.643691 -1.526028 7.642185
As -4.590130 1.527534 7.642185
As -4.590130 -1.526028 10.695747
As -7.643691 1.527534 10.695747
As -7.643691 -1.526028 13.749309
As -4.590130 1.527534 13.749309
As -4.590130 -1.526028 16.802870
As -7.643691 1.527534 16.802870
As -4.590130 1.527534 19.856432
As -4.590130 4.581095 -13.732746
As -7.643691 4.581095 -10.679184
As -4.590130 7.634657 -10.679184
As -4.590130 4.581095 -7.625623
As -7.643691 7.634657 -7.625623
As -7.643691 4.581095 -4.572061
As -4.590130 7.634657 -4.572061
As -4.590130 4.581095 -1.518499
As -7.643691 7.634657 -1.518499
As -7.643691 4.581095 1.535062
As -4.590130 7.634657 1.535062
As -4.590130 4.581095 4.588624
As -7.643691 7.634657 4.588624
As -7.643691 4.581095 7.642185
As -4.590130 7.634657 7.642185
As -4.590130 4.581095 10.695747
As -7.643691 7.634657 10.695747
As -7.643691 4.581095 13.749309
As -4.590130 7.634657 13.749309
As -4.590130 4.581095 16.802870
As -7.643691 7.634657 16.802870
As -7.643691 4.581095 19.856432
As -4.590130 7.634657 19.856432
As -4.590130 4.581095 22.909994
As -7.643691 7.634657 22.909994
As -4.590130 10.688219 -7.625623
As -7.643691 10.688219 -4.572061
As -4.590130 13.741780 -4.572061
As -4.590130 10.688219 -1.518499
As -7.643691 13.741780 -1.518499
As -7.643691 10.688219 1.535062
As -4.590130 13.741780 1.535062
As -4.590130 10.688219 4.588624
As -7.643691 13.741780 4.588624
As -7.643691 10.688219 7.642185
As -4.590130 13.741780 7.642185
As -4.590130 10.688219 10.695747
As -7.643691 13.741780 10.695747
As -7.643691 10.688219 13.749309
As -4.590130 13.741780 13.749309
As -4.590130 10.688219 16.802870
As -7.643691 13.741780 16.802870
As -7.643691 10.688219 19.856432
As -4.590130 16.795342 -1.518499
As -7.643691 16.795342 1.535062
As -4.590130 19.848904 1.535062
As -4.590130 16.795342 4.588624
As -7.643691 19.848904 4.588624
As -7.643691 16.795342 7.642185
As -4.590130 19.848904 7.642185
As -4.590130 16.795342 10.695747
As -7.643691 19.848904 10.695747
As -7.643691 16.795342 13.749309
As -4.590130 22.902465 4.588624
As -7.643691 22.902465 7.642185
As -1.536568 -22.900960 -1.518499
As 1.516994 -22.900960 1.535062
As -1.536568 -16.793836 -7.625623
As -1.536568 -19.847398 -4.572061
As 1.516994 -16.793836 -4.572061
As 1.516994 -19.847398 -1.518499
As -1.536568 -16.793836 -1.518499
As -1.536568 -19.847398 1.535062
As 1.516994 -16.793836 1.535062
As 1.516994 -19.847398 4.588624
As -1.536568 -16.793836 4.588624
As 1.516994 -16.793836 7.642185
As -1.536568 -10.686713 -13.732746
As -1.536568 -13.740275 -10.679184
As 1.516994 -10.686713 -10.679184
As 1.516994 -13.740275 -7.625623
As -1.536568 -10.686713 -7.625623
As -1.536568 -13.740275 -4.572061
As 1.516994 -10.686713 -4.572061
As 1.516994 -13.740275 -1.518499
As -1.536568 -10.686713 -1.518499
As -1.536568 -13.740275 1.535062
As 1.516994 -10.686713 1.535062
As 1.516994 -13.740275 4.588624
As -1.536568 -10.686713 4.588624
As -1.536568 -13.740275 7.642185
As 1.516994 -10.686713 7.642185
As 1.516994 -13.740275 10.695747
As -1.536568 -10.686713 10.695747
As 1.516994 -10.686713 13.749309
As -1.536568 -4.579590 -19.839869
As -1.536568 -7.633151 -16.786308
As 1.516994 -4.579590 -16.786308
As 1.516994 -7.633151 -13.732746
As -1.536568 -4.579590 -13.732746
As -1.536568 -7.633151 -10.679184
As 1.516994 -4.579590 -10.679184
As 1.516994 -7.633151 -7.625623
As -1.536568 -4.579590 -7.625623
As -1.536568 -7.633151 -4.572061
As 1.516994 -4.579590 -4.572061
As 1.516994 -7.633151 -1.518499
As -1.536568 -4.579590 -1.518499
As -1.536568 -7.633151 1.535062
As 1.516994 -4.579590 1.535062
As 1.516994 -7.633151 4.588624
As -1.536568 -4.579590 4.588624
As -1.536568 -7.633151 7.642185
As 1.516994 -4.579590 7.642185
As 1.516994 -7.633151 10.695747
As -1.536568 -4.579590 10.695747
As -1.536568 -7.633151 13.749309
As 1.516994 -4.579590 13.749309
As 1.516994 -7.633151 16.802870
As -1.536568 -4.579590 16.802870
As 1.516994 -4.579590 19.856432
As -1.536568 -1.526028 -22.893431
As 1.516994 1.527534 -22.893431
As 1.516994 -1.526028 -19.839869
As -1.536568 1.527534 -19.839869
As -1.536568 -1.526028 -16.786308
As 1.516994 1.527534 -16.786308
As 1.516994 -1.526028 -13.732746
As -1.536568 1.527534 -13.732746
As -1.536568 -1.526028 -10.679184
As 1.516994 1.527534 -10.679184
As 1.516994 -1.526028 -7.625623
As -1.536568 1.527534 -7.625623
As -1.536568 -1.526028 -4.572061
As 1.516994 1.527534 -4.572061
As 1.516994 -1.526028 -1.518499
As -1.536568 1.527534 -1.518499
As -1.536568 -1.526028 1.535062
As 1.516994 1.527534 1.535062
As 1.516994 -1.526028 4.588624
As -1.536568 1.527534 4.588624
As -1.536568 -1.526028 7.642185
As 1.516994 1.527534 7.642185
As 1.516994 -1.526028 10.695747
As -1.536568 1.527534 10.695747
As -1.536568 -1.526028 13.749309
As 1.516994 1.527534 13.749309
As 1.516994 -1.526028 16.802870
As -1.536568 1.527534 16.802870
As -1.536568 -1.526028 19.856432
As 1.516994 1.527534 19.856432
As 1.516994 -1.526028 22.909994
As -1.536568 1.527534 22.909994
As 1.516994 4.581095 -19.839869
As -1.536568 4.581095 -16.786308
As 1.516994 7.634657 -16.786308
As 1.516994 4.581095 -13.732746
As -1.536568 7.634657 -13.732746
As -1.536568 4.581095 -10.679184
As 1.516994 7.634657 -10.679184
As 1.516994 4.581095 -7.625623
As -1.536568 7.634657 -7.625623
As -1.536568 4.581095 -4.572061
As 1.516994 7.634657 -4.572061
As 1.516994 4.581095 -1.518499
As -1.536568 7.634657 -1.518499
As -1.536568 4.581095 1.535062
As 1.516994 7.634657 1.535062
As 1.516994 4.581095 4.588624
As -1.536568 7.634657 4.588624
As -1.536568 4.581095 7.642185
As 1.516994 7.634657 7.642185
As 1.516994 4.581095 10.695747
As -1.536568 7.634657 10.695747
As -1.536568 4.581095 13.749309
As 1.516994 7.634657 13.749309
As 1.516994 4.581095 16.802870
As -1.536568 7.634657 16.802870
As -1.536568 4.581095 19.856432
As 1.516994 10.688219 -13.732746
As -1.536568 10.688219 -10.679184
As 1.516994 13.741780 -10.679184
As 1.516994 10.688219 -7.625623
As -1.536568 13.741780 -7.625623
As -1.536568 10.688219 -4.572061
As 1.516994 13.741780 -4.572061
As 1.516994 10.688219 -1.518499
As -1.536568 13.741780 -1.518499
As -1.536568 10.688219 1.535062
As 1.516994 13.741780 1.535062
As 1.516994 10.688219 4.588624
As -1.536568 13.741780 4.588624
As -1.536568 10.688219 7.642185
As 1.516994 13.741780 7.642185
As 1.516994 10.688219 10.695747
As -1.536568 13.741780 10.695747
As -1.536568 10.688219 13.749309
As 1.516994 16.795342 -7.625623
As -1.536568 16.795342 -4.572061
As 1.516994 19.848904 -4.572061
As 1.516994 16.795342 -1.518499
As -1.536568 19.848904 -1.518499
As -1.536568 16.795342 1.535062
As 1.516994 19.848904 1.535062
As 1.516994 16.795342 4.588624
As -1.536568 19.848904 4.588624
As -1.536568 16.795342 7.642185
As 1.516994 22.902465 -1.518499
As -1.536568 22.902465 1.535062
As 4.570555 -22.900960 4.588624
As 7.624117 -22.900960 7.642185
As 4.570555 -16.793836 -1.518499
As 4.570555 -19.847398 1.535062
As 7.624117 -16.793836 1.535062
As 7.624117 -19.847398 4.588624
As 4.570555 -16.793836 4.588624
As 4.570555 -19.847398 7.642185
As 7.624117 -16.793836 7.642185
As 7.624117 -19.847398 10.695747
As 4.570555 -16.793836 10.695747
As 7.624117 -16.793836 13.749309
As 4.570555 -10.686713 -7.625623
As 4.570555 -13.740275 -4.572061
As 7.624117 -10.686713 -4.572061
As 7.624117 -13.740275 -1.518499
As 4.570555 -10.686713 -1.518499
As 4.570555 -13.740275 1.535062
As 7.624117 -10.686713 1.535062
As 7.624117 -13.740275 4.588624
As 4.570555 -10.686713 4.588624
As 4.570555 -13.740275 7.642185
As 7.624117 -10.686713 7.642185
As 7.624117 -13.740275 10.695747
As 4.570555 -10.686713 10.695747
As 4.570555 -13.740275 13.749309
As 7.624117 -10.686713 13.749309
As 7.624117 -13.740275 16.802870
As 4.570555 -10.686713 16.802870
As 7.624117 -10.686713 19.856432
As 4.570555 -4.579590 -13.732746
As 4.570555 -7.633151 -10.679184
As 7.624117 -4.579590 -10.679184
As 7.624117 -7.633151 -7.625623
As 4.570555 -4.579590 -7.625623
As 4.570555 -7.633151 -4.572061
As 7.624117 -4.579590 -4.572061
As 7.624117 -7.633151 -1.518499
As 4.570555 -4.579590 -1.518499
As 4.570555 -7.633151 1.535062
As 7.624117 -4.579590 1.535062
As 7.624117 -7.633151 4.588624
As 4.570555 -4.579590 4.588624
As 4.570555 -7.633151 7.642185
As 7.624117 -4.579590 7.642185
As 7.624117 -7.633151 10.695747
As 4.570555 -4.579590 10.695747
As 4.570555 -7.633151 13.749309
As 7.624117 -4.579590 13.749309
As 7.624117 -7.633151 16.802870
As 4.570555 -4.579590 16.802870
As 4.570555 -7.633151 19.856432
As 7.624117 -4.579590 19.856432
As 7.624117 -7.633151 22.909994
As 4.570555 -4.579590 22.909994
As 4.570555 1.527534 -19.839869
As 4.570555 -1.526028 -16.786308
As 7.624117 1.527534 -16.786308
As 7.624117 -1.526028 -13.732746
As 4.570555 1.527534 -13.732746
As 4.570555 -1.526028 -10.679184
As 7.624117 1.527534 -10.679184
As 7.624117 -1.526028 -7.625623
As 4.570555 1.527534 -7.625623
As 4.570555 -1.526028 -4.572061
As 7.624117 1.527534 -4.572061
As 7.624117 -1.526028 -1.518499
As 4.570555 1.527534 -1.518499
As 4.570555 -1.526028 1.535062
As 7.624117 1.527534 1.535062
As 7.624117 -1.526028 4.588624
As 4.570555 1.527534 4.588624
As 4.570555 -1.526028 7.642185
As 7.624117 1.527534 7.642185
As 7.624117 -1.526028 10.695747
As 4.570555 1.527534 10.695747
As 4.570555 -1.526028 13.749309
As 7.624117 1.527534 13.749309
As 7.624117 -1.526028 16.802870
As 4.570555 1.527534 16.802870
As 4.570555 -1.526028 19.856432
As 4.570555 4.581095 -22.893431
As 7.624117 7.634657 -22.893431
As 7.624117 4.581095 -19.839869
As 4.570555 7.634657 -19.839869
As 4.570555 4.581095 -16.786308
As 7.624117 7.634657 -16.786308
As 7.624117 4.581095 -13.732746
As 4.570555 7.634657 -13.732746
As 4.570555 4.581095 -10.679184
As 7.624117 7.634657 -10.679184
As 7.624117 4.581095 -7.625623
As 4.570555 7.634657 -7.625623
As 4.570555 4.581095 -4.572061
As 7.624117 7.634657 -4.572061
As 7.624117 4.581095 -1.518499
As 4.570555 7.634657 -1.518499
As 4.570555 4.581095 1.535062
As 7.624117 7.634657 1.535062
As 7.624117 4.581095 4.588624
As 4.570555 7.634657 4.588624
As 4.570555 4.581095 7.642185
As 7.624117 7.634657 7.642185
As 7.624117 4.581095 10.695747
As 4.570555 7.634657 10.695747
As 4.570555 4.581095 13.749309
As 7.624117 10.688219 -19.839869
As 4.570555 10.688219 -16.786308
As 7.624117 13.741780 -16.786308
As 7.624117 10.688219 -13.732746
As 4.570555 13.741780 -13.732746
As 4.570555 10.688219 -10.679184
As 7.624117 13.741780 -10.679184
As 7.624117 10.688219 -7.625623
As 4.570555 13.741780 -7.625623
As 4.570555 10.688219 -4.572061
As 7.624117 13.741780 -4.572061
As 7.624117 10.688219 -1.518499
As 4.570555 13.741780 -1.518499
As 4.570555 10.688219 1.535062
As 7.624117 13.741780 1.535062
As 7.624117 10.688219 4.588624
As 4.570555 13.741780 4.588624
As 4.570555 10.688219 7.642185
As 7.624117 16.795342 -13.732746
As 4.570555 16.795342 -10.679184
As 7.624117 19.848904 -10.679184
As 7.624117 16.795342 -7.625623
As 4.570555 19.848904 -7.625623
As 4.570555 16.795342 -4.572061
As 7.624117 19.848904 -4.572061
As 7.624117 16.795342 -1.518499
As 4.570555 19.848904 -1.518499
As 4.570555 16.795342 1.535062
As 7.624117 22.902465 -7.625623
As 4.570555 22.902465 -4.572061
As 10.677679 -22.900960 10.695747
As 10.677679 -16.793836 4.588624
As 10.677679 -19.847398 7.642185
As 13.731240 -16.793836 7.642185
As 13.731240 -19.847398 10.695747
As 10.677679 -16.793836 10.695747
As 10.677679 -19.847398 13.749309
As 13.731240 -16.793836 13.749309
As 10.677679 -16.793836 16.802870
As 10.677679 -10.686713 -1.518499
As 10.677679 -13.740275 1.535062
As 13.731240 -10.686713 1.535062
As 13.731240 -13.740275 4.588624
As 10.677679 -10.686713 4.588624
As 10.677679 -13.740275 7.642185
As 13.731240 -10.686713 7.642185
As 13.731240 -13.740275 10.695747
As 10.677679 -10.686713 10.695747
As 10.677679 -13.740275 13.749309
As 13.731240 -10.686713 13.749309
As 13.731240 -13.740275 16.802870
As 10.677679 -10.686713 16.802870
As 10.677679 -13.740275 19.856432
As 13.731240 -10.686713 19.856432
As 13.731240 -13.740275 22.909994
As 10.677679 -10.686713 22.909994
As 10.677679 -4.579590 -7.625623
As 10.677679 -7.633151 -4.572061
As 13.731240 -4.579590 -4.572061
As 13.731240 -7.633151 -1.518499
As 10.677679 -4.579590 -1.518499
As 10.677679 -7.633151 1.535062
As 13.731240 -4.579590 1.535062
As 13.731240 -7.633151 4.588624
As 10.677679 -4.579590 4.588624
As 10.677679 -7.633151 7.642185
As 13.731240 -4.579590 7.642185
As 13.731240 -7.633151 10.695747
As 10.677679 -4.579590 10.695747
As 10.677679 -7.633151 13.749309
As 13.731240 -4.579590 13.749309
As 13.731240 -7.633151 16.802870
As 10.677679 -4.579590 16.802870
As 10.677679 -7.633151 19.856432
As 10.677679 1.527534 -13.732746
As 10.677679 -1.526028 -10.679184
As 13.731240 1.527534 -10.679184
As 13.731240 -1.526028 -7.625623
As 10.677679 1.527534 -7.625623
As 10.677679 -1.526028 -4.572061
As 13.731240 1.527534 -4.572061
As 13.731240 -1.526028 -1.518499
As 10.677679 1.527534 -1.518499
As 10.677679 -1.526028 1.535062
As 13.731240 1.527534 1.535062
As 13.731240 -1.526028 4.588624
As 10.677679 1.527534 4.588624
As 10.677679 -1.526028 7.642185
As 13.731240 1.527534 7.642185
As 13.731240 -1.526028 10.695747
As 10.677679 1.527534 10.695747
As 10.677679 -1.526028 13.749309
As 10.677679 7.634657 -19.839869
As 10.677679 4.581095 -16.786308
As 13.731240 7.634657 -16.786308
As 13.731240 4.581095 -13.732746
As 10.677679 7.634657 -13.732746
As 10.677679 4.581095 -10.679184
As 13.731240 7.634657 -10.679184
As 13.731240 4.581095 -7.625623
As 10.677679 7.634657 -7.625623
As 10.677679 4.581095 -4.572061
As 13.731240 7.634657 -4.572061
As 13.731240 4.581095 -1.518499
As 10.677679 7.634657 -1.518499
As 10.677679 4.581095 1.535062
As 13.731240 7.634657 1.535062
As 13.731240 4.581095 4.588624
As 10.677679 7.634657 4.588624
As 10.677679 4.581095 7.642185
As 10.677679 10.688219 -22.893431
As 13.731240 13.741780 -22.893431
As 13.731240 10.688219 -19.839869
As 10.677679 13.741780 -19.839869
As 10.677679 10.688219 -16.786308
As 13.731240 13.741780 -16.786308
As 13.731240 10.688219 -13.732746
As 10.677679 13.741780 -13.732746
As 10.677679 10.688219 -10.679184
As 13.731240 13.741780 -10.679184
As 13.731240 10.688219 -7.625623
As 10.677679 13.741780 -7.625623
As 10.677679 10.688219 -4.572061
As 13.731240 13.741780 -4.572061
As 13.731240 10.688219 -1.518499
As 10.677679 13.741780 -1.518499
As 10.677679 10.688219 1.535062
As 10.677679 16.795342 -16.786308
As 13.731240 16.795342 -13.732746
As 10.677679 19.848904 -13.732746
As 10.677679 16.795342 -10.679184
As 13.731240 19.848904 -10.679184
As 13.731240 16.795342 -7.625623
As 10.677679 19.848904 -7.625623
As 10.677679 16.795342 -4.572061
As 10.677679 22.902465 -10.679184
As 16.784802 -16.793836 10.695747
As 16.784802 -19.847398 13.749309
As 16.784802 -10.686713 4.588624
As 16.784802 -13.740275 7.642185
As 19.838364 -10.686713 7.642185
As 19.838364 -13.740275 10.695747
As 16.784802 -10.686713 10.695747
As 16.784802 -13.740275 13.749309
As 19.838364 -10.686713 13.749309
As 16.784802 -10.686713 16.802870
As 16.784802 -4.579590 -1.518499
As 16.784802 -7.633151 1.535062
As 19.838364 -4.579590 1.535062
As 19.838364 -7.633151 4.588624
As 16.784802 -4.579590 4.588624
As 16.784802 -7.633151 7.642185
As 19.838364 -4.579590 7.642185
As 19.838364 -7.633151 10.695747
As 16.784802 -4.579590 10.695747
As 16.784802 -7.633151 13.749309
As 16.784802 1.527534 -7.625623
As 16.784802 -1.526028 -4.572061
As 19.838364 1.527534 -4.572061
As 19.838364 -1.526028 -1.518499
As 16.784802 1.527534 -1.518499
As 16.784802 -1.526028 1.535062
As 19.838364 1.527534 1.535062
As 19.838364 -1.526028 4.588624
As 16.784802 1.527534 4.588624
As 16.784802 -1.526028 7.642185
As 16.784802 7.634657 -13.732746
As 16.784802 4.581095 -10.679184
As 19.838364 7.634657 -10.679184
As 19.838364 4.581095 -7.625623
As 16.784802 7.634657 -7.625623
As 16.784802 4.581095 -4.572061
As 19.838364 7.634657 -4.572061
As 19.838364 4.581095 -1.518499
As 16.784802 7.634657 -1.518499
As 16.784802 4.581095 1.535062
As 16.784802 10.688219 -16.786308
As 19.838364 10.688219 -13.732746
As 16.784802 13.741780 -13.732746
As 16.784802 10.688219 -10.679184
As 19.838364 13.741780 -10.679184
As 19.838364 10.688219 -7.625623
As 16.784802 13.741780 -7.625623
As 16.784802 10.688219 -4.572061
As 16.784802 19.848904 -13.732746
As 16.784802 16.795342 -10.679184
As 22.891925 -10.686713 10.695747
As 22.891925 -13.740275 13.749309
As 22.891925 -4.579590 4.588624
As 22.891925 -7.633151 7.642185
As 22.891925 1.527534 -1.518499
As 22.891925 -1.526028 1.535062
As 22.891925 7.634657 -7.625623
As 22.891925 4.581095 -4.572061
As 22.891925 13.741780 -13.732746
As 22.891925 10.688219 -10.679184
Cl -16.804376 -16.793836 -16.786308
Cl -19.857938 -16.793836 -13.732746
Cl -16.804376 -13.740275 -19.839869
Cl -19.857938 -13.740275 -16.786308
Cl -19.857938 13.741780 16.802870
Cl -16.804376 13.741780 19.856432
Cl -19.857938 16.795342 13.749309
Cl -16.804376 16.795342 16.802870
Cl -13.750815 -22.900960 -13.732746
Cl -13.750815 -16.793836 -19.839869
Cl -13.750815 -19.847398 -16.786308
Cl -13.750815 19.848904 16.802870
Cl -13.750815 16.795342 19.856432
Cl -13.750815 22.902465 13.749309
Cl 13.731240 -22.900960 13.749309
Cl 13.731240 -19.847398 16.802870
Cl 13.731240 -16.793836 19.856432
Cl 13.731240 16.795342 -19.839869
Cl 13.731240 19.848904 -16.786308
Cl 13.731240 22.902465 -13.732746
Cl 19.838364 -16.793836 13.749309
Cl 16.784802 -16.793836 16.802870
Cl 19.838364 -13.740275 16.802870
Cl 16.784802 -13.740275 19.856432
Cl 16.784802 13.741780 -19.839869
Cl 19.838364 13.741780 -16.786308
Cl 16.784802 16.795342 -16.786308
Cl 19.838364 16.795342 -13.732746
Cl 13.731240 25.956027 -10.679184
Cl 25.945487 -13.740275 10.695747
Cl -10.697253 25.956027 13.749309
Cl 25.945487 10.688219 -13.732746
Cl -13.750815 10.688219 25.963555
Cl 10.677679 13.741780 -25.946993
Cl -10.697253 -13.740275 -25.946993
Cl 13.731240 -10.686713 25.963555
Cl -25.965061 7.634657 4.588624
Cl -7.643691 -25.954521 -4.572061
Cl 4.570555 25.956027 -1.518499
Cl 25.945487 -4.579590 1.535062
Cl -25.965061 -10.686713 -13.732746
Cl 10.677679 -25.954521 13.749309
Cl 1.516994 -1.526028 -25.946993
Cl 1.516994 1.527534 25.963555
Cl 10.677679 -25.954521 7.642185
Cl 25.945487 10.688219 -7.625623
Cl -25.965061 13.741780 10.695747
Cl -13.750815 -25.954521 -10.679184
Cl -7.643691 10.688219 25.963555
Cl 10.677679 7.634657 -25.946993
Cl -25.965061 -7.633151 -4.572061
Cl -7.643691 25.956027 4.588624
Cl -10.697253 -7.633151 -25.946993
Cl 7.624117 -10.686713 25.963555
Cl -25.965061 7.634657 10.695747
Cl 7.624117 25.956027 -10.679184
Cl -25.965061 -1.526028 -4.572061
Cl 1.516994 -25.954521 4.588624
Cl 7.624117 25.956027 -4.572061
Cl 25.945487 -7.633151 4.588624
Cl -4.590130 1.527534 25.963555
Cl 1.516994 4.581095 -25.946993
Cl -7.643691 -25.954521 -10.679184
Cl 25.945487 -7.633151 10.695747
Cl -25.965061 4.581095 1.535062
Cl -4.590130 -25.954521 -1.518499
Cl -1.536568 25.956027 4.588624
Cl 25.945487 1.527534 -4.572061
Cl -1.536568 -4.579590 -25.946993
Cl 4.570555 -1.526028 25.963555
Cl -25.965061 -1.526028 1.535062
Cl -1.536568 25.956027 -1.518499
Cl 1.516994 -25.954521 -1.518499
Cl 25.945487 1.527534 1.535062
Cl -25.965061 -10.686713 -7.625623
Cl -10.697253 25.956027 7.642185
Cl -7.643691 -4.579590 -25.946993
Cl 4.570555 -7.633151 25.963555
Cl 7.624117 -25.954521 4.588624
Cl 25.945487 7.634657 -4.572061
Cl -4.590130 7.634657 25.963555
Cl 7.624117 4.581095 -25.946993
Cl -10.697253 -7.633151 10.695747
Cl -7.643691 10.688219 -10.679184
Cl 7.624117 -10.686713 -10.679184
Cl 10.677679 7.634657 10.695747
Cl 1.516994 -16.793836 13.749309
Cl -16.804376 -1.526028 -13.732746
Cl -1.536568 16.795342 13.749309
Cl 16.784802 1.527534 -13.732746
Cl 4.570555 16.795342 -16.786308
Cl -16.804376 4.581095 16.802870
Cl -4.590130 -16.793836 -16.786308
Cl 16.784802 -4.579590 16.802870
Cl -13.750815 -13.740275 1.535062
Cl -13.750815 13.741780 -1.518499
Cl 13.731240 -13.740275 -1.518499
Cl 13.731240 13.741780 1.535062
Cl -19.857938 -19.847398 -10.679184
Cl -19.857938 19.848904 10.695747
Cl 19.838364 -19.847398 10.695747
Cl 19.838364 19.848904 -10.679184
Cl -19.857938 -10.686713 -19.839869
Cl 10.677679 -19.847398 19.856432
Cl -10.697253 19.848904 19.856432
Cl 19.838364 10.688219 -19.839869
Cl -4.590130 -7.633151 16.802870
Cl -7.643691 4.581095 -16.786308
Cl 1.516994 -19.847398 -7.625623
Cl 19.838364 1.527534 7.642185
Cl -19.857938 -1.526028 7.642185
Cl -1.536568 19.848904 -7.625623
Cl 4.570555 7.634657 16.802870
Cl 7.624117 -4.579590 -16.786308
Cl -16.804376 4.581095 -7.625623
Cl -4.590130 -16.793836 7.642185
Cl 4.570555 16.795342 7.642185
Cl 16.784802 -4.579590 -7.625623
Cl -10.697253 -1.526028 16.802870
Cl -1.536568 10.688219 -16.786308
Cl 1.516994 -10.686713 -16.786308
Cl 10.677679 1.527534 16.802870
Cl -19.857938 13.741780 4.588624
Cl -13.750815 -19.847398 -4.572061
Cl 13.731240 19.848904 -4.572061
Cl 19.838364 -13.740275 4.588624
Cl -19.857938 -7.633151 1.535062
Cl -7.643691 19.848904 -1.518499
Cl 7.624117 -19.847398 -1.518499
Cl 19.838364 7.634657 1.535062
Cl -22.911499 10.688219 16.802870
Cl 10.677679 22.902465 -16.786308
Cl -10.697253 -22.900960 -16.786308
Cl 22.891925 -10.686713 16.802870
Cl 4.570555 10.688219 -22.893431
Cl -10.697253 4.581095 22.909994
Cl -22.911499 -4.579590 -10.679184
Cl 4.570555 -22.900960 10.695747
Cl -4.590130 22.902465 10.695747
Cl 22.891925 4.581095 -10.679184
Cl -4.590130 -10.686713 -22.893431
Cl 10.677679 -4.579590 22.909994
Cl -4.590130 1.527534 -22.893431
Cl -1.536568 -4.579590 22.909994
Cl -4.590130 13.741780 19.856432
Cl 13.731240 4.581095 -19.839869
Cl 4.570555 -13.740275 19.856432
Cl -13.750815 -4.579590 -19.839869
Cl 13.731240 -19.847398 4.588624
Cl 19.838364 13.741780 -4.572061
Cl -19.857938 -13.740275 -4.572061
Cl -13.750815 19.848904 4.588624
Cl 7.624117 19.848904 1.535062
Cl 19.838364 -7.633151 -1.518499
Cl -19.857938 7.634657 -1.518499
Cl -7.643691 -19.847398 1.535062
Cl -4.590130 -25.954521 -7.625623
Cl 25.945487 -4.579590 7.642185
Cl -25.965061 4.581095 7.642185
Cl 4.570555 25.956027 -7.625623
Cl -10.697253 13.741780 25.963555
Cl 13.731240 10.688219 -25.946993
Cl -13.750815 -10.686713 -25.946993
Cl 10.677679 -13.740275 25.963555
Cl -16.804376 10.688219 22.909994
Cl 10.677679 16.795342 -22.893431
Cl -10.697253 -16.793836 -22.893431
Cl 16.784802 -10.686713 22.909994
Cl 13.731240 -25.954521 10.695747
Cl 25.945487 13.741780 -10.679184
Cl -25.965061 -13.740275 -10.679184
Cl -13.750815 25.956027 10.695747
Cl 7.624117 -13.740275 -7.625623
Cl 13.731240 7.634657 7.642185
Cl -13.750815 -7.633151 7.642185
Cl -7.643691 13.741780 -7.625623
Cl 1.516994 7.634657 19.856432
Cl 7.624117 -1.526028 -19.839869
Cl -13.750815 4.581095 -10.679184
Cl -4.590130 -13.740275 10.695747
Cl -16.804376 1.527534 13.749309
Cl -1.536568 -16.793836 -13.732746
Cl 1.516994 16.795342 -13.732746
Cl 16.784802 -1.526028 13.749309
Cl 4.570555 13.741780 10.695747
Cl 13.731240 -4.579590 -10.679184
Cl -19.857938 -7.633151 -16.786308
Cl 7.624117 -19.847398 16.802870
Cl -7.643691 19.848904 16.802870
Cl 19.838364 7.634657 -16.786308
Cl -22.911499 1.527534 -4.572061
Cl -1.536568 -22.900960 4.588624
Cl 1.516994 22.902465 4.588624
Cl 22.891925 -1.526028 -4.572061
Cl -7.643691 -1.526028 19.856432
Cl -1.536568 7.634657 -19.839869
Cl 1.516994 -7.633151 -19.839869
Cl 7.624117 1.527534 19.856432
Cl -10.697253 1.527534 -16.786308
Cl -1.536568 -10.686713 16.802870
Cl 10.677679 13.741780 4.588624
Cl 13.731240 -10.686713 -4.572061
Cl -10.697253 -13.740275 4.588624
Cl -13.750815 10.688219 -4.572061
Cl -25.965061 10.688219 13.749309
Cl 10.677679 25.956027 -13.732746
Cl -10.697253 -25.954521 -13.732746
Cl 25.945487 -10.686713 13.749309
Cl 16.784802 22.902465 -10.679184
Cl 22.891925 -16.793836 10.695747
Cl -22.911499 16.795342 10.695747
Cl -16.804376 -22.900960 -10.679184
Cl -7.643691 25.956027 10.695747
Cl 25.945487 7.634657 -10.679184
Cl -25.965061 -7.633151 -10.679184
Cl 7.624117 -25.954521 10.695747
Cl -7.643691 4.581095 25.963555
Cl 4.570555 7.634657 -25.946993
Cl -7.643691 -10.686713 -25.946993
Cl 10.677679 -7.633151 25.963555
Cl -25.965061 1.527534 4.588624
Cl 1.516994 25.956027 -4.572061
Cl -1.536568 -25.954521 -4.572061
Cl 25.945487 -1.526028 4.588624
Cl -4.590130 -1.526028 -25.946993
Cl 1.516994 -4.579590 25.963555
Cl 16.784802 -22.900960 10.695747
Cl 22.891925 16.795342 -10.679184
Cl -19.857938 10.688219 19.856432
Cl 10.677679 19.848904 -19.839869
Cl -10.697253 -19.847398 -19.839869
Cl 19.838364 -10.686713 19.856432
Cl -22.911499 -16.793836 -10.679184
Cl -16.804376 22.902465 10.695747
Cl 10.677679 25.956027 -7.625623
Cl 25.945487 -10.686713 7.642185
Cl -25.965061 10.688219 7.642185
Cl -10.697253 -25.954521 -7.625623
Cl 4.570555 -25.954521 1.535062
Cl 25.945487 4.581095 -1.518499
Cl -25.965061 -4.579590 -1.518499
Cl -4.590130 25.956027 1.535062
Cl -1.536568 4.581095 25.963555
Cl 4.570555 1.527534 -25.946993
Cl -10.697253 16.795342 22.909994
Cl 16.784802 10.688219 -22.893431
Cl -16.804376 -10.686713 -22.893431
Cl 10.677679 -16.793836 22.909994
Cl 1.516994 -16.793836 -10.679184
Cl 16.784802 1.527534 10.695747
Cl -16.804376 -1.526028 10.695747
Cl -1.536568 16.795342 -10.679184
Cl 13.731240 -16.793836 1.535062
Cl 16.784802 13.741780 -1.518499
Cl -16.804376 -13.740275 -1.518499
Cl -13.750815 16.795342 1.535062
Cl -1.536568 13.741780 16.802870
Cl 13.731240 1.527534 -16.786308
Cl -19.857938 -1.526028 -10.679184
Cl 1.516994 -19.847398 10.695747
Cl 10.677679 19.848904 -1.518499
Cl 19.838364 -10.686713 1.535062
Cl -19.857938 10.688219 1.535062
Cl -10.697253 -19.847398 -1.518499
Cl 7.624117 -7.633151 -13.732746
Cl 7.624117 7.634657 13.749309
Cl -13.750815 4.581095 19.856432
Cl 4.570555 13.741780 -19.839869
Cl -1.536568 19.848904 10.695747
Cl 19.838364 1.527534 -10.679184
Cl -19.857938 -4.579590 4.588624
Cl -4.590130 19.848904 -4.572061
Cl -4.590130 -22.900960 -10.679184
Cl 22.891925 -4.579590 10.695747
Cl -10.697253 -1.526028 -19.839869
Cl 1.516994 -10.686713 19.856432
Cl 4.570555 -19.847398 -4.572061
Cl 19.838364 4.581095 4.588624
Cl -22.911499 4.581095 10.695747
Cl 4.570555 22.902465 -10.679184
Cl -7.643691 -7.633151 13.749309
Cl -7.643691 7.634657 -13.732746
Cl -4.590130 -13.740275 -19.839869
Cl 13.731240 -4.579590 19.856432
Cl -25.965061 1.527534 -1.518499
Cl -1.536568 -25.954521 1.535062
Cl 1.516994 25.956027 1.535062
Cl 25.945487 -1.526028 -1.518499
Cl -22.911499 -10.686713 -16.786308
Cl 10.677679 -22.900960 16.802870
Cl -10.697253 22.902465 16.802870
Cl 22.891925 10.688219 -16.786308
Cl -1.536568 1.527534 -25.946993
Cl -1.536568 -1.526028 25.963555
Cl -4.590130 -7.633151 -25.946993
Cl 7.624117 -4.579590 25.963555
Cl -10.697253 7.634657 25.963555
Cl 7.624117 10.688219 -25.946993
Cl -4.590130 25.956027 7.642185
Cl 25.945487 4.581095 -7.625623
Cl -25.965061 -4.579590 -7.625623
Cl 4.570555 -25.954521 7.642185
Cl 16.784802 -19.847398 7.642185
Cl 19.838364 16.795342 -7.625623
Cl -19.857938 -16.793836 -7.625623
Cl -16.804376 19.848904 7.642185
Cl -1.536568 7.634657 22.909994
Cl 7.624117 1.527534 -22.893431
Cl 7.624117 -22.900960 1.535062
Cl 22.891925 7.634657 -1.518499
Cl -22.911499 -7.633151 -1.518499
Cl -7.643691 22.902465 1.535062
Cl 7.624117 13.741780 7.642185
Cl 13.731240 -7.633151 -7.625623
Cl -13.750815 7.634657 -7.625623
Cl -7.643691 -13.740275 7.642185
Cl -7.643691 -19.847398 -16.786308
Cl 19.838364 -7.633151 16.802870
Cl -19.857938 7.634657 16.802870
Cl 7.624117 19.848904 -16.786308
Cl 1.516994 -4.579590 -22.893431
Cl 4.570555 1.527534 22.909994
Cl -16.804376 -4.579590 -16.786308
Cl 4.570555 -16.793836 16.802870
Cl 7.624117 -16.793836 -4.572061
Cl 16.784802 7.634657 4.588624
Cl -16.804376 -7.633151 4.588624
Cl -7.643691 16.795342 -4.572061
Cl 4.570555 19.848904 4.588624
Cl 19.838364 -4.579590 -4.572061
Cl -19.857938 4.581095 -4.572061
Cl -4.590130 -19.847398 4.588624
Cl -13.750815 -1.526028 13.749309
Cl -1.536568 13.741780 -13.732746
Cl 1.516994 -13.740275 -13.732746
Cl 13.731240 1.527534 13.749309
Cl -4.590130 -4.579590 19.856432
Cl -4.590130 4.581095 -19.839869
Cl 1.516994 13.741780 13.749309
Cl 13.731240 -1.526028 -13.732746
Cl -13.750815 1.527534 -13.732746
Cl -1.536568 -13.740275 13.749309
Cl 13.731240 22.902465 -7.625623
Cl 22.891925 -13.740275 7.642185
Cl -22.911499 13.741780 7.642185
Cl -13.750815 -22.900960 -7.625623
Cl -7.643691 13.741780 22.909994
Cl 16.784802 7.634657 -19.839869
Cl 7.624117 -13.740275 22.909994
Cl -10.697253 -4.579590 -22.893431
Cl -1.536568 -22.900960 -7.625623
Cl 22.891925 -1.526028 7.642185
Cl -22.911499 1.527534 7.642185
Cl 1.516994 22.902465 -7.625623
Cl 22.891925 10.688219 -4.572061
Cl 10.677679 -22.900960 4.588624
Cl -22.911499 -10.686713 -4.572061
Cl -10.697253 22.902465 4.588624
Cl 7.624117 22.902465 -1.518499
Cl 22.891925 -7.633151 1.535062
Cl -7.643691 -22.900960 -1.518499
Cl -22.911499 7.634657 1.535062
Cl 10.677679 4.581095 -22.893431
Cl -4.590130 19.848904 13.749309
Cl -7.643691 1.527534 22.909994
Cl 1.516994 7.634657 -22.893431
Cl 7.624117 4.581095 16.802870
Cl 4.570555 -7.633151 -16.786308
Cl 1.516994 -7.633151 22.909994
Cl -16.804376 13.741780 1.535062
Cl 16.784802 -13.740275 1.535062
Cl 13.731240 16.795342 -1.518499
Cl -13.750815 -16.793836 -1.518499
Cl 19.838364 4.581095 -13.732746
Cl -1.536568 10.688219 19.856432
Cl 4.570555 19.848904 -13.732746
Cl -4.590130 -19.847398 -13.732746
Cl 19.838364 -4.579590 13.749309
Cl -19.857938 4.581095 13.749309
Cl -10.697253 10.688219 -7.625623
Cl -10.697253 -10.686713 7.642185
Cl 10.677679 -10.686713 -7.625623
Cl 10.677679 10.688219 7.642185
Cl -19.857938 1.527534 -7.625623
Cl -1.536568 -10.686713 -19.839869
Cl 10.677679 -1.526028 19.856432
Cl -1.536568 -19.847398 7.642185
Cl -4.590130 10.688219 -13.732746
Cl -10.697253 -4.579590 13.749309
Cl 1.516994 19.848904 7.642185
Cl 19.838364 -1.526028 -7.625623
Cl 7.624117 13.741780 -22.893431
Cl 10.677679 -1.526028 -16.786308
Cl 16.784802 10.688219 1.535062
Cl -22.911499 -7.633151 -13.732746
Cl -16.804376 -10.686713 1.535062
Cl 10.677679 -16.793836 -1.518499
Cl -10.697253 16.795342 -1.518499
Cl 7.624117 -22.900960 13.749309
