634
InP-P-In288P259Cl87-clean
In -10.313293 -10.313293 4.409340
In -10.313293 -13.265269 7.361317
In -13.265269 -10.313293 7.361317
In -10.313293 -10.313293 10.313293
In -10.313293 -4.409340 -1.494613
In -10.313293 -7.361317 1.457364
In -13.265269 -4.409340 1.457364
In -13.265269 -7.361317 4.409340
In -10.313293 -4.409340 4.409340
In -10.313293 -7.361317 7.361317
In -13.265269 -4.409340 7.361317
In -13.265269 -7.361317 10.313293
In -10.313293 -4.409340 10.313293
In -10.313293 -7.361317 13.265269
In -10.313293 1.494613 -7.398565
In -10.313293 -1.457364 -4.446589
In -13.265269 1.494613 -4.446589
In -13.265269 -1.457364 -1.494613
In -10.313293 1.494613 -1.494613
In -10.313293 -1.457364 1.457364
In -13.265269 1.494613 1.457364
In -13.265269 -1.457364 4.409340
In -10.313293 1.494613 4.409340
In -10.313293 -1.457364 7.361317
In -10.313293 7.398565 -13.302518
In -10.313293 4.446589 -10.350542
In -13.265269 7.398565 -10.350542
In -13.265269 4.446589 -7.398565
In -10.313293 7.398565 -7.398565
In -10.313293 4.446589 -4.446589
In -13.265269 7.398565 -4.446589
In -13.265269 4.446589 -1.494613
In -10.313293 7.398565 -1.494613
In -10.313293 4.446589 1.457364
In -10.313293 10.350542 -10.350542
In -13.265269 10.350542 -7.398565
In -10.313293 13.302518 -7.398565
In -10.313293 10.350542 -4.446589
In -4.409340 -10.313293 -1.494613
In -4.409340 -13.265269 1.457364
In -7.361317 -10.313293 1.457364
In -7.361317 -13.265269 4.409340
In -4.409340 -10.313293 4.409340
In -4.409340 -13.265269 7.361317
In -7.361317 -10.313293 7.361317
In -7.361317 -13.265269 10.313293
In -4.409340 -10.313293 10.313293
In -7.361317 -10.313293 13.265269
In -4.409340 -4.409340 -7.398565
In -4.409340 -7.361317 -4.446589
In -7.361317 -4.409340 -4.446589
In -7.361317 -7.361317 -1.494613
In -4.409340 -4.409340 -1.494613
In -4.409340 -7.361317 1.457364
In -7.361317 -4.409340 1.457364
In -7.361317 -7.361317 4.409340
In -4.409340 -4.409340 4.409340
In -4.409340 -7.361317 7.361317
In -7.361317 -4.409340 7.361317
In -7.361317 -7.361317 10.313293
In -4.409340 -4.409340 10.313293
In -4.409340 -7.361317 13.265269
In -7.361317 -4.409340 13.265269
In -4.409340 1.494613 -13.302518
In -4.409340 -1.457364 -10.350542
In -7.361317 1.494613 -10.350542
In -7.361317 -1.457364 -7.398565
In -4.409340 1.494613 -7.398565
In -4.409340 -1.457364 -4.446589
In -7.361317 1.494613 -4.446589
In -7.361317 -1.457364 -1.494613
In -4.409340 1.494613 -1.494613
In -4.409340 -1.457364 1.457364
In -7.361317 1.494613 1.457364
In -7.361317 -1.457364 4.409340
In -4.409340 1.494613 4.409340
In -4.409340 -1.457364 7.361317
In -7.361317 1.494613 7.361317
In -7.361317 -1.457364 10.313293
In -4.409340 1.494613 10.313293
In -4.409340 -1.457364 13.265269
In -7.361317 4.446589 -13.302518
In -4.409340 7.398565 -13.302518
In -4.409340 4.446589 -10.350542
In -7.361317 7.398565 -10.350542
In -7.361317 4.446589 -7.398565
In -4.409340 7.398565 -7.398565
In -4.409340 4.446589 -4.446589
In -7.361317 7.398565 -4.446589
In -7.361317 4.446589 -1.494613
In -4.409340 7.398565 -1.494613
In -4.409340 4.446589 1.457364
In -7.361317 7.398565 1.457364
In -7.361317 4.446589 4.409340
In -4.409340 7.398565 4.409340
In -4.409340 4.446589 7.361317
In -7.361317 10.350542 -13.302518
In -4.409340 10.350542 -10.350542
In -7.361317 13.302518 -10.350542
In -7.361317 10.350542 -7.398565
In -4.409340 13.302518 -7.398565
In -4.409340 10.350542 -4.446589
In -7.361317 13.302518 -4.446589
In -7.361317 10.350542 -1.494613
In -4.409340 13.302518 -1.494613
In -4.409340 10.350542 1.457364
In 1.494613 -10.313293 -7.398565
In 1.494613 -13.265269 -4.446589
In -1.457364 -10.313293 -4.446589
In -1.457364 -13.265269 -1.494613
In 1.494613 -10.313293 -1.494613
In 1.494613 -13.265269 1.457364
In -1.457364 -10.313293 1.457364
In -1.457364 -13.265269 4.409340
In 1.494613 -10.313293 4.409340
In -1.457364 -10.313293 7.361317
In 1.494613 -4.409340 -13.302518
In 1.494613 -7.361317 -10.350542
In -1.457364 -4.409340 -10.350542
In -1.457364 -7.361317 -7.398565
In 1.494613 -4.409340 -7.398565
In 1.494613 -7.361317 -4.446589
In -1.457364 -4.409340 -4.446589
In -1.457364 -7.361317 -1.494613
In 1.494613 -4.409340 -1.494613
In 1.494613 -7.361317 1.457364
In -1.457364 -4.409340 1.457364
In -1.457364 -7.361317 4.409340
In 1.494613 -4.409340 4.409340
In 1.494613 -7.361317 7.361317
In -1.457364 -4.409340 7.361317
In -1.457364 -7.361317 10.313293
In 1.494613 -4.409340 10.313293
In -1.457364 -4.409340 13.265269
In -1.457364 -1.457364 -13.302518
In 1.494613 1.494613 -13.302518
In 1.494613 -1.457364 -10.350542
In -1.457364 1.494613 -10.350542
In -1.457364 -1.457364 -7.398565
In 1.494613 1.494613 -7.398565
In 1.494613 -1.457364 -4.446589
In -1.457364 1.494613 -4.446589
In -1.457364 -1.457364 -1.494613
In 1.494613 1.494613 -1.494613
In 1.494613 -1.457364 1.457364
In -1.457364 1.494613 1.457364
In -1.457364 -1.457364 4.409340
In 1.494613 1.494613 4.409340
In 1.494613 -1.457364 7.361317
In -1.457364 1.494613 7.361317
In -1.457364 -1.457364 10.313293
In 1.494613 1.494613 10.313293
In 1.494613 -1.457364 13.265269
In -1.457364 1.494613 13.265269
In -1.457364 4.446589 -13.302518
In 1.494613 4.446589 -10.350542
In -1.457364 7.398565 -10.350542
In -1.457364 4.446589 -7.398565
In 1.494613 7.398565 -7.398565
In 1.494613 4.446589 -4.446589
In -1.457364 7.398565 -4.446589
In -1.457364 4.446589 -1.494613
In 1.494613 7.398565 -1.494613
In 1.494613 4.446589 1.457364
In -1.457364 7.398565 1.457364
In -1.457364 4.446589 4.409340
In 1.494613 7.398565 4.409340
In 1.494613 4.446589 7.361317
In -1.457364 7.398565 7.361317
In -1.457364 4.446589 10.313293
In 1.494613 7.398565 10.313293
In 1.494613 4.446589 13.265269
In -1.457364 10.350542 -7.398565
In 1.494613 10.350542 -4.446589
In -1.457364 13.302518 -4.446589
In -1.457364 10.350542 -1.494613
In 1.494613 13.302518 -1.494613
In 1.494613 10.350542 1.457364
In -1.457364 13.302518 1.457364
In -1.457364 10.350542 4.409340
In 1.494613 13.302518 4.409340
In 1.494613 10.350542 7.361317
In 7.398565 -10.313293 -13.302518
In 7.398565 -13.265269 -10.350542
In 4.446589 -10.313293 -10.350542
In 4.446589 -13.265269 -7.398565
In 7.398565 -10.313293 -7.398565
In 7.398565 -13.265269 -4.446589
In 4.446589 -10.313293 -4.446589
In 4.446589 -13.265269 -1.494613
In 7.398565 -10.313293 -1.494613
In 4.446589 -10.313293 1.457364
In 4.446589 -7.361317 -13.302518
In 7.398565 -4.409340 -13.302518
In 7.398565 -7.361317 -10.350542
In 4.446589 -4.409340 -10.350542
In 4.446589 -7.361317 -7.398565
In 7.398565 -4.409340 -7.398565
In 7.398565 -7.361317 -4.446589
In 4.446589 -4.409340 -4.446589
In 4.446589 -7.361317 -1.494613
In 7.398565 -4.409340 -1.494613
In 7.398565 -7.361317 1.457364
In 4.446589 -4.409340 1.457364
In 4.446589 -7.361317 4.409340
In 7.398565 -4.409340 4.409340
In 4.446589 -4.409340 7.361317
In 4.446589 -1.457364 -13.302518
In 7.398565 -1.457364 -10.350542
In 4.446589 1.494613 -10.350542
In 4.446589 -1.457364 -7.398565
In 7.398565 1.494613 -7.398565
In 7.398565 -1.457364 -4.446589
In 4.446589 1.494613 -4.446589
In 4.446589 -1.457364 -1.494613
In 7.398565 1.494613 -1.494613
In 7.398565 -1.457364 1.457364
In 4.446589 1.494613 1.457364
In 4.446589 -1.457364 4.409340
In 7.398565 1.494613 4.409340
In 7.398565 -1.457364 7.361317
In 4.446589 1.494613 7.361317
In 4.446589 -1.457364 10.313293
In 7.398565 1.494613 10.313293
In 4.446589 1.494613 13.265269
In 4.446589 4.446589 -7.398565
In 7.398565 4.446589 -4.446589
In 4.446589 7.398565 -4.446589
In 4.446589 4.446589 -1.494613
In 7.398565 7.398565 -1.494613
In 7.398565 4.446589 1.457364
In 4.446589 7.398565 1.457364
In 4.446589 4.446589 4.409340
In 7.398565 7.398565 4.409340
In 7.398565 4.446589 7.361317
In 4.446589 7.398565 7.361317
In 4.446589 4.446589 10.313293
In 7.398565 7.398565 10.313293
In 7.398565 4.446589 13.265269
In 4.446589 7.398565 13.265269
In 4.446589 10.350542 -1.494613
In 7.398565 10.350542 1.457364
In 4.446589 13.302518 1.457364
In 4.446589 10.350542 4.409340
In 7.398565 13.302518 4.409340
In 7.398565 10.350542 7.361317
In 4.446589 13.302518 7.361317
In 4.446589 10.350542 10.313293
In 7.398565 13.302518 10.313293
In 7.398565 10.350542 13.265269
In 10.350542 -10.313293 -10.350542
In 10.350542 -13.265269 -7.398565
In 13.302518 -10.313293 -7.398565
In 10.350542 -10.313293 -4.446589
In 10.350542 -7.361317 -13.302518
In 13.302518 -7.361317 -10.350542
In 10.350542 -4.409340 -10.350542
In 10.350542 -7.361317 -7.398565
In 13.302518 -4.409340 -7.398565
In 13.302518 -7.361317 -4.446589
In 10.350542 -4.409340 -4.446589
In 10.350542 -7.361317 -1.494613
In 13.302518 -4.409340 -1.494613
In 10.350542 -4.409340 1.457364
In 10.350542 -1.457364 -7.398565
In 13.302518 -1.457364 -4.446589
In 10.350542 1.494613 -4.446589
In 10.350542 -1.457364 -1.494613
In 13.302518 1.494613 -1.494613
In 13.302518 -1.457364 1.457364
In 10.350542 1.494613 1.457364
In 10.350542 -1.457364 4.409340
In 13.302518 1.494613 4.409340
In 10.350542 1.494613 7.361317
In 10.350542 4.446589 -1.494613
In 13.302518 4.446589 1.457364
In 10.350542 7.398565 1.457364
In 10.350542 4.446589 4.409340
In 13.302518 7.398565 4.409340
In 13.302518 4.446589 7.361317
In 10.350542 7.398565 7.361317
In 10.350542 4.446589 10.313293
In 13.302518 7.398565 10.313293
In 10.350542 7.398565 13.265269
In 10.350542 10.350542 4.409340
In 13.302518 10.350542 7.361317
In 10.350542 13.302518 7.361317
In 10.350542 10.350542 10.313293
P -11.789281 -8.837305 2.933352
P -8.837305 -8.837305 -0.018624
P -8.837305 -11.789281 2.933352
P -11.789281 -8.837305 8.837305
P -8.837305 -8.837305 5.885328
P -8.837305 -11.789281 8.837305
P -8.837305 -8.837305 11.789281
P -11.789281 -2.933352 -2.970601
P -8.837305 -2.933352 -5.922577
P -8.837305 -5.885328 -2.970601
P -11.789281 -5.885328 -0.018624
P -11.789281 -2.933352 2.933352
P -8.837305 -2.933352 -0.018624
P -8.837305 -5.885328 2.933352
P -11.789281 -5.885328 5.885328
P -11.789281 -2.933352 8.837305
P -8.837305 -2.933352 5.885328
P -8.837305 -5.885328 8.837305
P -8.837305 -2.933352 11.789281
P -11.789281 2.970601 -8.874554
P -8.837305 2.970601 -11.826530
P -8.837305 0.018624 -8.874554
P -11.789281 0.018624 -5.922577
P -11.789281 2.970601 -2.970601
P -8.837305 2.970601 -5.922577
P -8.837305 0.018624 -2.970601
P -11.789281 0.018624 -0.018624
P -11.789281 2.970601 2.933352
P -8.837305 2.970601 -0.018624
P -8.837305 0.018624 2.933352
P -11.789281 0.018624 5.885328
P -8.837305 2.970601 5.885328
P -8.837305 0.018624 8.837305
P -11.789281 8.874554 -8.874554
P -8.837305 8.874554 -11.826530
P -8.837305 5.922577 -8.874554
P -11.789281 5.922577 -5.922577
P -11.789281 8.874554 -2.970601
P -8.837305 8.874554 -5.922577
P -8.837305 5.922577 -2.970601
P -11.789281 5.922577 -0.018624
P -8.837305 8.874554 -0.018624
P -8.837305 5.922577 2.933352
P -8.837305 11.826530 -8.874554
P -8.837305 11.826530 -2.970601
P -5.885328 -8.837305 -2.970601
P -2.933352 -8.837305 -5.922577
P -2.933352 -11.789281 -2.970601
P -5.885328 -11.789281 -0.018624
P -5.885328 -8.837305 2.933352
P -2.933352 -8.837305 -0.018624
P -2.933352 -11.789281 2.933352
P -5.885328 -11.789281 5.885328
P -5.885328 -8.837305 8.837305
P -2.933352 -8.837305 5.885328
P -2.933352 -11.789281 8.837305
P -2.933352 -8.837305 11.789281
P -5.885328 -2.933352 -8.874554
P -2.933352 -2.933352 -11.826530
P -2.933352 -5.885328 -8.874554
P -5.885328 -2.933352 -2.970601
P -2.933352 -2.933352 -5.922577
P -2.933352 -5.885328 -2.970601
P -5.885328 -5.885328 -0.018624
P -5.885328 -2.933352 2.933352
P -2.933352 -2.933352 -0.018624
P -2.933352 -5.885328 2.933352
P -5.885328 -5.885328 5.885328
P -5.885328 -2.933352 8.837305
P -2.933352 -2.933352 5.885328
P -2.933352 -5.885328 8.837305
P -5.885328 -5.885328 11.789281
P -2.933352 -2.933352 11.789281
P -5.885328 0.018624 -11.826530
P -5.885328 2.970601 -8.874554
P -2.933352 2.970601 -11.826530
P -2.933352 0.018624 -8.874554
P -5.885328 0.018624 -5.922577
P -5.885328 2.970601 -2.970601
P -2.933352 2.970601 -5.922577
P -2.933352 0.018624 -2.970601
P -5.885328 0.018624 -0.018624
P -5.885328 2.970601 2.933352
P -2.933352 2.970601 -0.018624
P -2.933352 0.018624 2.933352
P -5.885328 0.018624 5.885328
P -5.885328 2.970601 8.837305
P -2.933352 2.970601 5.885328
P -2.933352 0.018624 8.837305
P -5.885328 0.018624 11.789281
P -2.933352 2.970601 11.789281
P -5.885328 5.922577 -11.826530
P -5.885328 8.874554 -8.874554
P -2.933352 8.874554 -11.826530
P -2.933352 5.922577 -8.874554
P -5.885328 5.922577 -5.922577
P -5.885328 8.874554 -2.970601
P -2.933352 8.874554 -5.922577
P -2.933352 5.922577 -2.970601
P -5.885328 5.922577 -0.018624
P -5.885328 8.874554 2.933352
P -2.933352 8.874554 -0.018624
P -2.933352 5.922577 2.933352
P -5.885328 5.922577 5.885328
P -2.933352 8.874554 5.885328
P -2.933352 5.922577 8.837305
P -2.933352 11.826530 -8.874554
P -5.885328 11.826530 -5.922577
P -2.933352 11.826530 -2.970601
P -5.885328 11.826530 -0.018624
P -2.933352 11.826530 2.933352
P 0.018624 -8.837305 -8.874554
P 2.970601 -8.837305 -11.826530
P 2.970601 -11.789281 -8.874554
P 0.018624 -11.789281 -5.922577
P 0.018624 -8.837305 -2.970601
P 2.970601 -8.837305 -5.922577
P 2.970601 -11.789281 -2.970601
P 0.018624 -11.789281 -0.018624
P 0.018624 -8.837305 2.933352
P 2.970601 -8.837305 -0.018624
P 2.970601 -11.789281 2.933352
P 0.018624 -11.789281 5.885328
P 0.018624 -8.837305 8.837305
P 2.970601 -8.837305 5.885328
P 0.018624 -5.885328 -11.826530
P 0.018624 -2.933352 -8.874554
P 2.970601 -2.933352 -11.826530
P 2.970601 -5.885328 -8.874554
P 0.018624 -5.885328 -5.922577
P 0.018624 -2.933352 -2.970601
P 2.970601 -2.933352 -5.922577
P 2.970601 -5.885328 -2.970601
P 0.018624 -5.885328 -0.018624
P 0.018624 -2.933352 2.933352
P 2.970601 -2.933352 -0.018624
P 2.970601 -5.885328 2.933352
P 0.018624 -5.885328 5.885328
P 0.018624 -2.933352 8.837305
P 2.970601 -2.933352 5.885328
P 2.970601 -5.885328 8.837305
P 0.018624 -5.885328 11.789281
P 2.970601 -2.933352 11.789281
P 0.018624 0.018624 -11.826530
P 0.018624 2.970601 -8.874554
P 2.970601 2.970601 -11.826530
P 2.970601 0.018624 -8.874554
P 0.018624 0.018624 -5.922577
P 0.018624 2.970601 -2.970601
P 2.970601 2.970601 -5.922577
P 2.970601 0.018624 -2.970601
P 0.018624 0.018624 -0.018624
P 0.018624 2.970601 2.933352
P 2.970601 2.970601 -0.018624
P 2.970601 0.018624 2.933352
P 0.018624 0.018624 5.885328
P 0.018624 2.970601 8.837305
P 2.970601 2.970601 5.885328
P 2.970601 0.018624 8.837305
P 0.018624 0.018624 11.789281
P 2.970601 2.970601 11.789281
P 0.018624 5.922577 -11.826530
P 0.018624 8.874554 -8.874554
P 2.970601 5.922577 -8.874554
P 0.018624 5.922577 -5.922577
P 0.018624 8.874554 -2.970601
P 2.970601 8.874554 -5.922577
P 2.970601 5.922577 -2.970601
P 0.018624 5.922577 -0.018624
P 0.018624 8.874554 2.933352
P 2.970601 8.874554 -0.018624
P 2.970601 5.922577 2.933352
P 0.018624 5.922577 5.885328
P 0.018624 8.874554 8.837305
P 2.970601 8.874554 5.885328
P 2.970601 5.922577 8.837305
P 0.018624 5.922577 11.789281
P 2.970601 8.874554 11.789281
P 0.018624 11.826530 -5.922577
P 2.970601 11.826530 -2.970601
P 0.018624 11.826530 -0.018624
P 2.970601 11.826530 2.933352
P 0.018624 11.826530 5.885328
P 2.970601 11.826530 8.837305
P 5.922577 -8.837305 -8.874554
P 8.874554 -8.837305 -11.826530
P 8.874554 -11.789281 -8.874554
P 5.922577 -11.789281 -5.922577
P 5.922577 -8.837305 -2.970601
P 8.874554 -8.837305 -5.922577
P 8.874554 -11.789281 -2.970601
P 5.922577 -11.789281 -0.018624
P 5.922577 -8.837305 2.933352
P 8.874554 -8.837305 -0.018624
P 5.922577 -5.885328 -11.826530
P 5.922577 -2.933352 -8.874554
P 8.874554 -2.933352 -11.826530
P 8.874554 -5.885328 -8.874554
P 5.922577 -5.885328 -5.922577
P 5.922577 -2.933352 -2.970601
P 8.874554 -2.933352 -5.922577
P 8.874554 -5.885328 -2.970601
P 5.922577 -5.885328 -0.018624
P 5.922577 -2.933352 2.933352
P 8.874554 -2.933352 -0.018624
P 8.874554 -5.885328 2.933352
P 5.922577 -5.885328 5.885328
P 5.922577 -2.933352 8.837305
P 8.874554 -2.933352 5.885328
P 5.922577 0.018624 -11.826530
P 5.922577 2.970601 -8.874554
P 8.874554 0.018624 -8.874554
P 5.922577 0.018624 -5.922577
P 5.922577 2.970601 -2.970601
P 8.874554 2.970601 -5.922577
P 8.874554 0.018624 -2.970601
P 5.922577 0.018624 -0.018624
P 5.922577 2.970601 2.933352
P 8.874554 2.970601 -0.018624
P 8.874554 0.018624 2.933352
P 5.922577 0.018624 5.885328
P 5.922577 2.970601 8.837305
P 8.874554 2.970601 5.885328
P 8.874554 0.018624 8.837305
P 5.922577 0.018624 11.789281
P 8.874554 2.970601 11.789281
P 5.922577 8.874554 -2.970601
P 8.874554 5.922577 -2.970601
P 5.922577 5.922577 -0.018624
P 5.922577 8.874554 2.933352
P 8.874554 8.874554 -0.018624
P 8.874554 5.922577 2.933352
P 5.922577 5.922577 5.885328
P 5.922577 8.874554 8.837305
P 8.874554 8.874554 5.885328
P 8.874554 5.922577 8.837305
P 5.922577 5.922577 11.789281
P 8.874554 8.874554 11.789281
P 5.922577 11.826530 -0.018624
P 8.874554 11.826530 2.933352
P 5.922577 11.826530 5.885328
P 8.874554 11.826530 8.837305
P 11.826530 -8.837305 -8.874554
P 11.826530 -8.837305 -2.970601
P 11.826530 -2.933352 -8.874554
P 11.826530 -5.885328 -5.922577
P 11.826530 -2.933352 -2.970601
P 11.826530 -5.885328 -0.018624
P 11.826530 -2.933352 2.933352
P 11.826530 0.018624 -5.922577
P 11.826530 2.970601 -2.970601
P 11.826530 0.018624 -0.018624
P 11.826530 2.970601 2.933352
P 11.826530 0.018624 5.885328
P 11.826530 2.970601 8.837305
P 11.826530 5.922577 -0.018624
P 11.826530 8.874554 2.933352
P 11.826530 5.922577 5.885328
P 11.826530 8.874554 8.837305
Cl -14.741257 -8.837305 5.885328
Cl -14.741257 -2.933352 -0.018624
Cl -14.741257 -5.885328 2.933352
Cl -14.741257 -2.933352 5.885328
Cl -14.741257 -5.885328 8.837305
Cl -14.741257 2.970601 -5.922577
Cl -14.741257 0.018624 -2.970601
Cl -14.741257 2.970601 -0.018624
Cl -14.741257 0.018624 2.933352
Cl -14.741257 5.922577 -8.874554
Cl -14.741257 8.874554 -5.922577
Cl -14.741257 5.922577 -2.970601
Cl -8.837305 -14.741257 5.885328
Cl -11.789281 -11.789281 5.885328
Cl -11.789281 -5.885328 11.789281
Cl -8.837305 -5.885328 14.741257
Cl -8.837305 5.922577 -14.778506
Cl -11.789281 5.922577 -11.826530
Cl -11.789281 11.826530 -5.922577
Cl -8.837305 14.778506 -5.922577
Cl -5.885328 -14.741257 2.933352
Cl -2.933352 -14.741257 -0.018624
Cl -5.885328 -14.741257 8.837305
Cl -2.933352 -14.741257 5.885328
Cl -5.885328 -11.789281 11.789281
Cl -5.885328 -8.837305 14.741257
Cl -5.885328 -5.885328 -5.922577
Cl -5.885328 -2.933352 14.741257
Cl -2.933352 -5.885328 14.741257
Cl -5.885328 2.970601 -14.778506
Cl -2.933352 0.018624 -14.778506
Cl -2.933352 0.018624 14.741257
Cl -5.885328 8.874554 -14.778506
Cl -2.933352 5.922577 -14.778506
Cl -5.885328 11.826530 -11.826530
Cl -5.885328 14.778506 -8.874554
Cl -5.885328 14.778506 -2.970601
Cl -2.933352 14.778506 -5.922577
Cl -2.933352 14.778506 -0.018624
Cl 0.018624 -14.741257 -2.970601
Cl 2.970601 -14.741257 -5.922577
Cl 0.018624 -14.741257 2.933352
Cl 2.970601 -14.741257 -0.018624
Cl 0.018624 -2.933352 -14.778506
Cl 2.970601 -5.885328 -14.778506
Cl 0.018624 -2.933352 14.741257
Cl 0.018624 2.970601 -14.778506
Cl 2.970601 0.018624 -14.778506
Cl 0.018624 2.970601 14.741257
Cl 2.970601 0.018624 14.741257
Cl 2.970601 5.922577 14.741257
Cl 0.018624 14.778506 -2.970601
Cl 0.018624 14.778506 2.933352
Cl 2.970601 14.778506 -0.018624
Cl 2.970601 14.778506 5.885328
Cl 5.922577 -14.741257 -8.874554
Cl 5.922577 -14.741257 -2.970601
Cl 8.874554 -14.741257 -5.922577
Cl 5.922577 -8.837305 -14.778506
Cl 5.922577 -11.789281 -11.826530
Cl 5.922577 -2.933352 -14.778506
Cl 8.874554 -5.885328 -14.778506
Cl 5.922577 2.970601 14.741257
Cl 5.922577 5.922577 -5.922577
Cl 5.922577 8.874554 14.741257
Cl 8.874554 5.922577 14.741257
Cl 5.922577 14.778506 2.933352
Cl 5.922577 14.778506 8.837305
Cl 8.874554 14.778506 5.885328
Cl 5.922577 11.826530 11.789281
Cl 11.826530 -11.789281 -5.922577
Cl 14.778506 -8.837305 -5.922577
Cl 11.826530 -5.885328 -11.826530
Cl 14.778506 -5.885328 -8.874554
Cl 14.778506 -2.933352 -5.922577
Cl 14.778506 -5.885328 -2.970601
Cl 14.778506 -2.933352 -0.018624
Cl 14.778506 0.018624 -2.970601
Cl 14.778506 2.970601 -0.018624
Cl 14.778506 0.018624 2.933352
Cl 14.778506 2.970601 5.885328
Cl 14.778506 5.922577 2.933352
Cl 14.778506 8.874554 5.885328
Cl 14.778506 5.922577 8.837305
Cl 11.826530 5.922577 11.789281
Cl 11.826530 11.826530 5.885328
Cl -11.789281 -11.789281 11.789281
