1990
AlSb-Al-Al929Sb863Cl198-clean
Al -21.654891 -15.464891 12.369891
Al -21.654891 -18.559891 15.464891
Al -24.749891 -15.464891 15.464891
Al -21.654891 -15.464891 18.559891
Al -21.654891 -9.274891 6.179891
Al -21.654891 -12.369891 9.274891
Al -24.749891 -9.274891 9.274891
Al -24.749891 -12.369891 12.369891
Al -21.654891 -9.274891 12.369891
Al -21.654891 -12.369891 15.464891
Al -21.654891 -3.084891 -0.010109
Al -21.654891 -6.179891 3.084891
Al -24.749891 -3.084891 3.084891
Al -24.749891 -6.179891 6.179891
Al -21.654891 -3.084891 6.179891
Al -21.654891 -6.179891 9.274891
Al -21.654891 3.105109 -6.200109
Al -21.654891 0.010109 -3.105109
Al -24.749891 3.105109 -3.105109
Al -24.749891 0.010109 -0.010109
Al -21.654891 3.105109 -0.010109
Al -21.654891 0.010109 3.084891
Al -21.654891 9.295109 -12.390109
Al -21.654891 6.200109 -9.295109
Al -24.749891 9.295109 -9.295109
Al -24.749891 6.200109 -6.200109
Al -21.654891 9.295109 -6.200109
Al -21.654891 6.200109 -3.105109
Al -21.654891 15.485109 -18.580109
Al -21.654891 12.390109 -15.485109
Al -24.749891 15.485109 -15.485109
Al -24.749891 12.390109 -12.390109
Al -21.654891 15.485109 -12.390109
Al -21.654891 12.390109 -9.295109
Al -21.654891 18.580109 -15.485109
Al -15.464891 -21.654891 12.369891
Al -15.464891 -24.749891 15.464891
Al -18.559891 -21.654891 15.464891
Al -15.464891 -21.654891 18.559891
Al -15.464891 -15.464891 6.179891
Al -15.464891 -18.559891 9.274891
Al -18.559891 -15.464891 9.274891
Al -18.559891 -18.559891 12.369891
Al -15.464891 -15.464891 12.369891
Al -15.464891 -18.559891 15.464891
Al -18.559891 -15.464891 15.464891
Al -18.559891 -18.559891 18.559891
Al -15.464891 -15.464891 18.559891
Al -15.464891 -18.559891 21.654891
Al -18.559891 -15.464891 21.654891
Al -15.464891 -15.464891 24.749891
Al -15.464891 -9.274891 -0.010109
Al -15.464891 -12.369891 3.084891
Al -18.559891 -9.274891 3.084891
Al -18.559891 -12.369891 6.179891
Al -15.464891 -9.274891 6.179891
Al -15.464891 -12.369891 9.274891
Al -18.559891 -9.274891 9.274891
Al -18.559891 -12.369891 12.369891
Al -15.464891 -9.274891 12.369891
Al -15.464891 -12.369891 15.464891
Al -18.559891 -9.274891 15.464891
Al -18.559891 -12.369891 18.559891
Al -15.464891 -9.274891 18.559891
Al -15.464891 -12.369891 21.654891
Al -15.464891 -3.084891 -6.200109
Al -15.464891 -6.179891 -3.105109
Al -18.559891 -3.084891 -3.105109
Al -18.559891 -6.179891 -0.010109
Al -15.464891 -3.084891 -0.010109
Al -15.464891 -6.179891 3.084891
Al -18.559891 -3.084891 3.084891
Al -18.559891 -6.179891 6.179891
Al -15.464891 -3.084891 6.179891
Al -15.464891 -6.179891 9.274891
Al -18.559891 -3.084891 9.274891
Al -18.559891 -6.179891 12.369891
Al -15.464891 -3.084891 12.369891
Al -15.464891 -6.179891 15.464891
Al -15.464891 3.105109 -12.390109
Al -15.464891 0.010109 -9.295109
Al -18.559891 3.105109 -9.295109
Al -18.559891 0.010109 -6.200109
Al -15.464891 3.105109 -6.200109
Al -15.464891 0.010109 -3.105109
Al -18.559891 3.105109 -3.105109
Al -18.559891 0.010109 -0.010109
Al -15.464891 3.105109 -0.010109
Al -15.464891 0.010109 3.084891
Al -18.559891 3.105109 3.084891
Al -18.559891 0.010109 6.179891
Al -15.464891 3.105109 6.179891
Al -15.464891 0.010109 9.274891
Al -15.464891 9.295109 -18.580109
Al -15.464891 6.200109 -15.485109
Al -18.559891 9.295109 -15.485109
Al -18.559891 6.200109 -12.390109
Al -15.464891 9.295109 -12.390109
Al -15.464891 6.200109 -9.295109
Al -18.559891 9.295109 -9.295109
Al -18.559891 6.200109 -6.200109
Al -15.464891 9.295109 -6.200109
Al -15.464891 6.200109 -3.105109
Al -18.559891 9.295109 -3.105109
Al -18.559891 6.200109 -0.010109
Al -15.464891 9.295109 -0.010109
Al -15.464891 6.200109 3.084891
Al -15.464891 15.485109 -24.770109
Al -15.464891 12.390109 -21.675109
Al -18.559891 15.485109 -21.675109
Al -18.559891 12.390109 -18.580109
Al -15.464891 15.485109 -18.580109
Al -15.464891 12.390109 -15.485109
Al -18.559891 15.485109 -15.485109
Al -18.559891 12.390109 -12.390109
Al -15.464891 15.485109 -12.390109
Al -15.464891 12.390109 -9.295109
Al -18.559891 15.485109 -9.295109
Al -18.559891 12.390109 -6.200109
Al -15.464891 15.485109 -6.200109
Al -15.464891 12.390109 -3.105109
Al -15.464891 18.580109 -21.675109
Al -18.559891 18.580109 -18.580109
Al -15.464891 21.675109 -18.580109
Al -15.464891 18.580109 -15.485109
Al -18.559891 21.675109 -15.485109
Al -18.559891 18.580109 -12.390109
Al -15.464891 21.675109 -12.390109
Al -15.464891 18.580109 -9.295109
Al -15.464891 24.770109 -15.485109
Al -9.274891 -21.654891 6.179891
Al -9.274891 -24.749891 9.274891
Al -12.369891 -21.654891 9.274891
Al -12.369891 -24.749891 12.369891
Al -9.274891 -21.654891 12.369891
Al -12.369891 -21.654891 15.464891
Al -9.274891 -15.464891 -0.010109
Al -9.274891 -18.559891 3.084891
Al -12.369891 -15.464891 3.084891
Al -12.369891 -18.559891 6.179891
Al -9.274891 -15.464891 6.179891
Al -9.274891 -18.559891 9.274891
Al -12.369891 -15.464891 9.274891
Al -12.369891 -18.559891 12.369891
Al -9.274891 -15.464891 12.369891
Al -9.274891 -18.559891 15.464891
Al -12.369891 -15.464891 15.464891
Al -12.369891 -18.559891 18.559891
Al -9.274891 -15.464891 18.559891
Al -12.369891 -15.464891 21.654891
Al -9.274891 -9.274891 -6.200109
Al -9.274891 -12.369891 -3.105109
Al -12.369891 -9.274891 -3.105109
Al -12.369891 -12.369891 -0.010109
Al -9.274891 -9.274891 -0.010109
Al -9.274891 -12.369891 3.084891
Al -12.369891 -9.274891 3.084891
Al -12.369891 -12.369891 6.179891
Al -9.274891 -9.274891 6.179891
Al -9.274891 -12.369891 9.274891
Al -12.369891 -9.274891 9.274891
Al -12.369891 -12.369891 12.369891
Al -9.274891 -9.274891 12.369891
Al -9.274891 -12.369891 15.464891
Al -12.369891 -9.274891 15.464891
Al -12.369891 -12.369891 18.559891
Al -9.274891 -9.274891 18.559891
Al -9.274891 -12.369891 21.654891
Al -12.369891 -9.274891 21.654891
Al -12.369891 -12.369891 24.749891
Al -9.274891 -9.274891 24.749891
Al -9.274891 -3.084891 -12.390109
Al -9.274891 -6.179891 -9.295109
Al -12.369891 -3.084891 -9.295109
Al -12.369891 -6.179891 -6.200109
Al -9.274891 -3.084891 -6.200109
Al -9.274891 -6.179891 -3.105109
Al -12.369891 -3.084891 -3.105109
Al -12.369891 -6.179891 -0.010109
Al -9.274891 -3.084891 -0.010109
Al -9.274891 -6.179891 3.084891
Al -12.369891 -3.084891 3.084891
Al -12.369891 -6.179891 6.179891
Al -9.274891 -3.084891 6.179891
Al -9.274891 -6.179891 9.274891
Al -12.369891 -3.084891 9.274891
Al -12.369891 -6.179891 12.369891
Al -9.274891 -3.084891 12.369891
Al -9.274891 -6.179891 15.464891
Al -12.369891 -3.084891 15.464891
Al -12.369891 -6.179891 18.559891
Al -9.274891 -3.084891 18.559891
Al -9.274891 -6.179891 21.654891
Al -9.274891 3.105109 -18.580109
Al -9.274891 0.010109 -15.485109
Al -12.369891 3.105109 -15.485109
Al -12.369891 0.010109 -12.390109
Al -9.274891 3.105109 -12.390109
Al -9.274891 0.010109 -9.295109
Al -12.369891 3.105109 -9.295109
Al -12.369891 0.010109 -6.200109
Al -9.274891 3.105109 -6.200109
Al -9.274891 0.010109 -3.105109
Al -12.369891 3.105109 -3.105109
Al -12.369891 0.010109 -0.010109
Al -9.274891 3.105109 -0.010109
Al -9.274891 0.010109 3.084891
Al -12.369891 3.105109 3.084891
Al -12.369891 0.010109 6.179891
Al -9.274891 3.105109 6.179891
Al -9.274891 0.010109 9.274891
Al -12.369891 3.105109 9.274891
Al -12.369891 0.010109 12.369891
Al -9.274891 3.105109 12.369891
Al -9.274891 0.010109 15.464891
Al -9.274891 9.295109 -24.770109
Al -9.274891 6.200109 -21.675109
Al -12.369891 9.295109 -21.675109
Al -12.369891 6.200109 -18.580109
Al -9.274891 9.295109 -18.580109
Al -9.274891 6.200109 -15.485109
Al -12.369891 9.295109 -15.485109
Al -12.369891 6.200109 -12.390109
Al -9.274891 9.295109 -12.390109
Al -9.274891 6.200109 -9.295109
Al -12.369891 9.295109 -9.295109
Al -12.369891 6.200109 -6.200109
Al -9.274891 9.295109 -6.200109
Al -9.274891 6.200109 -3.105109
Al -12.369891 9.295109 -3.105109
Al -12.369891 6.200109 -0.010109
Al -9.274891 9.295109 -0.010109
Al -9.274891 6.200109 3.084891
Al -12.369891 9.295109 3.084891
Al -12.369891 6.200109 6.179891
Al -9.274891 9.295109 6.179891
Al -9.274891 6.200109 9.274891
Al -12.369891 12.390109 -24.770109
Al -9.274891 12.390109 -21.675109
Al -12.369891 15.485109 -21.675109
Al -12.369891 12.390109 -18.580109
Al -9.274891 15.485109 -18.580109
Al -9.274891 12.390109 -15.485109
Al -12.369891 15.485109 -15.485109
Al -12.369891 12.390109 -12.390109
Al -9.274891 15.485109 -12.390109
Al -9.274891 12.390109 -9.295109
Al -12.369891 15.485109 -9.295109
Al -12.369891 12.390109 -6.200109
Al -9.274891 15.485109 -6.200109
Al -9.274891 12.390109 -3.105109
Al -12.369891 15.485109 -3.105109
Al -12.369891 12.390109 -0.010109
Al -9.274891 15.485109 -0.010109
Al -9.274891 12.390109 3.084891
Al -12.369891 18.580109 -18.580109
Al -9.274891 18.580109 -15.485109
Al -12.369891 21.675109 -15.485109
Al -12.369891 18.580109 -12.390109
Al -9.274891 21.675109 -12.390109
Al -9.274891 18.580109 -9.295109
Al -12.369891 21.675109 -9.295109
Al -12.369891 18.580109 -6.200109
Al -9.274891 21.675109 -6.200109
Al -9.274891 18.580109 -3.105109
Al -12.369891 24.770109 -12.390109
Al -9.274891 24.770109 -9.295109
Al -3.084891 -21.654891 -0.010109
Al -3.084891 -24.749891 3.084891
Al -6.179891 -21.654891 3.084891
Al -6.179891 -24.749891 6.179891
Al -3.084891 -21.654891 6.179891
Al -6.179891 -21.654891 9.274891
Al -3.084891 -15.464891 -6.200109
Al -3.084891 -18.559891 -3.105109
Al -6.179891 -15.464891 -3.105109
Al -6.179891 -18.559891 -0.010109
Al -3.084891 -15.464891 -0.010109
Al -3.084891 -18.559891 3.084891
Al -6.179891 -15.464891 3.084891
Al -6.179891 -18.559891 6.179891
Al -3.084891 -15.464891 6.179891
Al -3.084891 -18.559891 9.274891
Al -6.179891 -15.464891 9.274891
Al -6.179891 -18.559891 12.369891
Al -3.084891 -15.464891 12.369891
Al -6.179891 -15.464891 15.464891
Al -3.084891 -9.274891 -12.390109
Al -3.084891 -12.369891 -9.295109
Al -6.179891 -9.274891 -9.295109
Al -6.179891 -12.369891 -6.200109
Al -3.084891 -9.274891 -6.200109
Al -3.084891 -12.369891 -3.105109
Al -6.179891 -9.274891 -3.105109
Al -6.179891 -12.369891 -0.010109
Al -3.084891 -9.274891 -0.010109
Al -3.084891 -12.369891 3.084891
Al -6.179891 -9.274891 3.084891
Al -6.179891 -12.369891 6.179891
Al -3.084891 -9.274891 6.179891
Al -3.084891 -12.369891 9.274891
Al -6.179891 -9.274891 9.274891
Al -6.179891 -12.369891 12.369891
Al -3.084891 -9.274891 12.369891
Al -3.084891 -12.369891 15.464891
Al -6.179891 -9.274891 15.464891
Al -6.179891 -12.369891 18.559891
Al -3.084891 -9.274891 18.559891
Al -6.179891 -9.274891 21.654891
Al -3.084891 -3.084891 -18.580109
Al -3.084891 -6.179891 -15.485109
Al -6.179891 -3.084891 -15.485109
Al -6.179891 -6.179891 -12.390109
Al -3.084891 -3.084891 -12.390109
Al -3.084891 -6.179891 -9.295109
Al -6.179891 -3.084891 -9.295109
Al -6.179891 -6.179891 -6.200109
Al -3.084891 -3.084891 -6.200109
Al -3.084891 -6.179891 -3.105109
Al -6.179891 -3.084891 -3.105109
Al -6.179891 -6.179891 -0.010109
Al -3.084891 -3.084891 -0.010109
Al -3.084891 -6.179891 3.084891
Al -6.179891 -3.084891 3.084891
Al -6.179891 -6.179891 6.179891
Al -3.084891 -3.084891 6.179891
Al -3.084891 -6.179891 9.274891
Al -6.179891 -3.084891 9.274891
Al -6.179891 -6.179891 12.369891
Al -3.084891 -3.084891 12.369891
Al -3.084891 -6.179891 15.464891
Al -6.179891 -3.084891 15.464891
Al -6.179891 -6.179891 18.559891
Al -3.084891 -3.084891 18.559891
Al -3.084891 -6.179891 21.654891
Al -6.179891 -3.084891 21.654891
Al -6.179891 -6.179891 24.749891
Al -3.084891 -3.084891 24.749891
Al -3.084891 3.105109 -24.770109
Al -3.084891 0.010109 -21.675109
Al -6.179891 3.105109 -21.675109
Al -6.179891 0.010109 -18.580109
Al -3.084891 3.105109 -18.580109
Al -3.084891 0.010109 -15.485109
Al -6.179891 3.105109 -15.485109
Al -6.179891 0.010109 -12.390109
Al -3.084891 3.105109 -12.390109
Al -3.084891 0.010109 -9.295109
Al -6.179891 3.105109 -9.295109
Al -6.179891 0.010109 -6.200109
Al -3.084891 3.105109 -6.200109
Al -3.084891 0.010109 -3.105109
Al -6.179891 3.105109 -3.105109
Al -6.179891 0.010109 -0.010109
Al -3.084891 3.105109 -0.010109
Al -3.084891 0.010109 3.084891
Al -6.179891 3.105109 3.084891
Al -6.179891 0.010109 6.179891
Al -3.084891 3.105109 6.179891
Al -3.084891 0.010109 9.274891
Al -6.179891 3.105109 9.274891
Al -6.179891 0.010109 12.369891
Al -3.084891 3.105109 12.369891
Al -3.084891 0.010109 15.464891
Al -6.179891 3.105109 15.464891
Al -6.179891 0.010109 18.559891
Al -3.084891 3.105109 18.559891
Al -3.084891 0.010109 21.654891
Al -6.179891 6.200109 -24.770109
Al -3.084891 6.200109 -21.675109
Al -6.179891 9.295109 -21.675109
Al -6.179891 6.200109 -18.580109
Al -3.084891 9.295109 -18.580109
Al -3.084891 6.200109 -15.485109
Al -6.179891 9.295109 -15.485109
Al -6.179891 6.200109 -12.390109
Al -3.084891 9.295109 -12.390109
Al -3.084891 6.200109 -9.295109
Al -6.179891 9.295109 -9.295109
Al -6.179891 6.200109 -6.200109
Al -3.084891 9.295109 -6.200109
Al -3.084891 6.200109 -3.105109
Al -6.179891 9.295109 -3.105109
Al -6.179891 6.200109 -0.010109
Al -3.084891 9.295109 -0.010109
Al -3.084891 6.200109 3.084891
Al -6.179891 9.295109 3.084891
Al -6.179891 6.200109 6.179891
Al -3.084891 9.295109 6.179891
Al -3.084891 6.200109 9.274891
Al -6.179891 9.295109 9.274891
Al -6.179891 6.200109 12.369891
Al -3.084891 9.295109 12.369891
Al -3.084891 6.200109 15.464891
Al -6.179891 12.390109 -18.580109
Al -3.084891 12.390109 -15.485109
Al -6.179891 15.485109 -15.485109
Al -6.179891 12.390109 -12.390109
Al -3.084891 15.485109 -12.390109
Al -3.084891 12.390109 -9.295109
Al -6.179891 15.485109 -9.295109
Al -6.179891 12.390109 -6.200109
Al -3.084891 15.485109 -6.200109
Al -3.084891 12.390109 -3.105109
Al -6.179891 15.485109 -3.105109
Al -6.179891 12.390109 -0.010109
Al -3.084891 15.485109 -0.010109
Al -3.084891 12.390109 3.084891
Al -6.179891 15.485109 3.084891
Al -6.179891 12.390109 6.179891
Al -3.084891 15.485109 6.179891
Al -3.084891 12.390109 9.274891
Al -6.179891 18.580109 -12.390109
Al -3.084891 18.580109 -9.295109
Al -6.179891 21.675109 -9.295109
Al -6.179891 18.580109 -6.200109
Al -3.084891 21.675109 -6.200109
Al -3.084891 18.580109 -3.105109
Al -6.179891 21.675109 -3.105109
Al -6.179891 18.580109 -0.010109
Al -3.084891 21.675109 -0.010109
Al -3.084891 18.580109 3.084891
Al -6.179891 24.770109 -6.200109
Al -3.084891 24.770109 -3.105109
Al 3.105109 -21.654891 -6.200109
Al 3.105109 -24.749891 -3.105109
Al 0.010109 -21.654891 -3.105109
Al 0.010109 -24.749891 -0.010109
Al 3.105109 -21.654891 -0.010109
Al 0.010109 -21.654891 3.084891
Al 3.105109 -15.464891 -12.390109
Al 3.105109 -18.559891 -9.295109
Al 0.010109 -15.464891 -9.295109
Al 0.010109 -18.559891 -6.200109
Al 3.105109 -15.464891 -6.200109
Al 3.105109 -18.559891 -3.105109
Al 0.010109 -15.464891 -3.105109
Al 0.010109 -18.559891 -0.010109
Al 3.105109 -15.464891 -0.010109
Al 3.105109 -18.559891 3.084891
Al 0.010109 -15.464891 3.084891
Al 0.010109 -18.559891 6.179891
Al 3.105109 -15.464891 6.179891
Al 0.010109 -15.464891 9.274891
Al 3.105109 -9.274891 -18.580109
Al 3.105109 -12.369891 -15.485109
Al 0.010109 -9.274891 -15.485109
Al 0.010109 -12.369891 -12.390109
Al 3.105109 -9.274891 -12.390109
Al 3.105109 -12.369891 -9.295109
Al 0.010109 -9.274891 -9.295109
Al 0.010109 -12.369891 -6.200109
Al 3.105109 -9.274891 -6.200109
Al 3.105109 -12.369891 -3.105109
Al 0.010109 -9.274891 -3.105109
Al 0.010109 -12.369891 -0.010109
Al 3.105109 -9.274891 -0.010109
Al 3.105109 -12.369891 3.084891
Al 0.010109 -9.274891 3.084891
Al 0.010109 -12.369891 6.179891
Al 3.105109 -9.274891 6.179891
Al 3.105109 -12.369891 9.274891
Al 0.010109 -9.274891 9.274891
Al 0.010109 -12.369891 12.369891
Al 3.105109 -9.274891 12.369891
Al 0.010109 -9.274891 15.464891
Al 3.105109 -3.084891 -24.770109
Al 3.105109 -6.179891 -21.675109
Al 0.010109 -3.084891 -21.675109
Al 0.010109 -6.179891 -18.580109
Al 3.105109 -3.084891 -18.580109
Al 3.105109 -6.179891 -15.485109
Al 0.010109 -3.084891 -15.485109
Al 0.010109 -6.179891 -12.390109
Al 3.105109 -3.084891 -12.390109
Al 3.105109 -6.179891 -9.295109
Al 0.010109 -3.084891 -9.295109
Al 0.010109 -6.179891 -6.200109
Al 3.105109 -3.084891 -6.200109
Al 3.105109 -6.179891 -3.105109
Al 0.010109 -3.084891 -3.105109
Al 0.010109 -6.179891 -0.010109
Al 3.105109 -3.084891 -0.010109
Al 3.105109 -6.179891 3.084891
Al 0.010109 -3.084891 3.084891
Al 0.010109 -6.179891 6.179891
Al 3.105109 -3.084891 6.179891
Al 3.105109 -6.179891 9.274891
Al 0.010109 -3.084891 9.274891
Al 0.010109 -6.179891 12.369891
Al 3.105109 -3.084891 12.369891
Al 3.105109 -6.179891 15.464891
Al 0.010109 -3.084891 15.464891
Al 0.010109 -6.179891 18.559891
Al 3.105109 -3.084891 18.559891
Al 0.010109 -3.084891 21.654891
Al 0.010109 0.010109 -24.770109
Al 3.105109 0.010109 -21.675109
Al 0.010109 3.105109 -21.675109
Al 0.010109 0.010109 -18.580109
Al 3.105109 3.105109 -18.580109
Al 3.105109 0.010109 -15.485109
Al 0.010109 3.105109 -15.485109
Al 0.010109 0.010109 -12.390109
Al 3.105109 3.105109 -12.390109
Al 3.105109 0.010109 -9.295109
Al 0.010109 3.105109 -9.295109
Al 0.010109 0.010109 -6.200109
Al 3.105109 3.105109 -6.200109
Al 3.105109 0.010109 -3.105109
Al 0.010109 3.105109 -3.105109
Al 0.010109 0.010109 -0.010109
Al 3.105109 3.105109 -0.010109
Al 3.105109 0.010109 3.084891
Al 0.010109 3.105109 3.084891
Al 0.010109 0.010109 6.179891
Al 3.105109 3.105109 6.179891
Al 3.105109 0.010109 9.274891
Al 0.010109 3.105109 9.274891
Al 0.010109 0.010109 12.369891
Al 3.105109 3.105109 12.369891
Al 3.105109 0.010109 15.464891
Al 0.010109 3.105109 15.464891
Al 0.010109 0.010109 18.559891
Al 3.105109 3.105109 18.559891
Al 3.105109 0.010109 21.654891
Al 0.010109 3.105109 21.654891
Al 0.010109 0.010109 24.749891
Al 3.105109 3.105109 24.749891
Al 0.010109 6.200109 -18.580109
Al 3.105109 6.200109 -15.485109
Al 0.010109 9.295109 -15.485109
Al 0.010109 6.200109 -12.390109
Al 3.105109 9.295109 -12.390109
Al 3.105109 6.200109 -9.295109
Al 0.010109 9.295109 -9.295109
Al 0.010109 6.200109 -6.200109
Al 3.105109 9.295109 -6.200109
Al 3.105109 6.200109 -3.105109
Al 0.010109 9.295109 -3.105109
Al 0.010109 6.200109 -0.010109
Al 3.105109 9.295109 -0.010109
Al 3.105109 6.200109 3.084891
Al 0.010109 9.295109 3.084891
Al 0.010109 6.200109 6.179891
Al 3.105109 9.295109 6.179891
Al 3.105109 6.200109 9.274891
Al 0.010109 9.295109 9.274891
Al 0.010109 6.200109 12.369891
Al 3.105109 9.295109 12.369891
Al 3.105109 6.200109 15.464891
Al 0.010109 9.295109 15.464891
Al 0.010109 6.200109 18.559891
Al 3.105109 9.295109 18.559891
Al 3.105109 6.200109 21.654891
Al 0.010109 12.390109 -12.390109
Al 3.105109 12.390109 -9.295109
Al 0.010109 15.485109 -9.295109
Al 0.010109 12.390109 -6.200109
Al 3.105109 15.485109 -6.200109
Al 3.105109 12.390109 -3.105109
Al 0.010109 15.485109 -3.105109
Al 0.010109 12.390109 -0.010109
Al 3.105109 15.485109 -0.010109
Al 3.105109 12.390109 3.084891
Al 0.010109 15.485109 3.084891
Al 0.010109 12.390109 6.179891
Al 3.105109 15.485109 6.179891
Al 3.105109 12.390109 9.274891
Al 0.010109 15.485109 9.274891
Al 0.010109 12.390109 12.369891
Al 3.105109 15.485109 12.369891
Al 3.105109 12.390109 15.464891
Al 0.010109 18.580109 -6.200109
Al 3.105109 18.580109 -3.105109
Al 0.010109 21.675109 -3.105109
Al 0.010109 18.580109 -0.010109
Al 3.105109 21.675109 -0.010109
Al 3.105109 18.580109 3.084891
Al 0.010109 21.675109 3.084891
Al 0.010109 18.580109 6.179891
Al 3.105109 21.675109 6.179891
Al 3.105109 18.580109 9.274891
Al 0.010109 24.770109 -0.010109
Al 3.105109 24.770109 3.084891
Al 9.295109 -21.654891 -12.390109
Al 9.295109 -24.749891 -9.295109
Al 6.200109 -21.654891 -9.295109
Al 6.200109 -24.749891 -6.200109
Al 9.295109 -21.654891 -6.200109
Al 6.200109 -21.654891 -3.105109
Al 9.295109 -15.464891 -18.580109
Al 9.295109 -18.559891 -15.485109
Al 6.200109 -15.464891 -15.485109
Al 6.200109 -18.559891 -12.390109
Al 9.295109 -15.464891 -12.390109
Al 9.295109 -18.559891 -9.295109
Al 6.200109 -15.464891 -9.295109
Al 6.200109 -18.559891 -6.200109
Al 9.295109 -15.464891 -6.200109
Al 9.295109 -18.559891 -3.105109
Al 6.200109 -15.464891 -3.105109
Al 6.200109 -18.559891 -0.010109
Al 9.295109 -15.464891 -0.010109
Al 6.200109 -15.464891 3.084891
Al 9.295109 -9.274891 -24.770109
Al 9.295109 -12.369891 -21.675109
Al 6.200109 -9.274891 -21.675109
Al 6.200109 -12.369891 -18.580109
Al 9.295109 -9.274891 -18.580109
Al 9.295109 -12.369891 -15.485109
Al 6.200109 -9.274891 -15.485109
Al 6.200109 -12.369891 -12.390109
Al 9.295109 -9.274891 -12.390109
Al 9.295109 -12.369891 -9.295109
Al 6.200109 -9.274891 -9.295109
Al 6.200109 -12.369891 -6.200109
Al 9.295109 -9.274891 -6.200109
Al 9.295109 -12.369891 -3.105109
Al 6.200109 -9.274891 -3.105109
Al 6.200109 -12.369891 -0.010109
Al 9.295109 -9.274891 -0.010109
Al 9.295109 -12.369891 3.084891
Al 6.200109 -9.274891 3.084891
Al 6.200109 -12.369891 6.179891
Al 9.295109 -9.274891 6.179891
Al 6.200109 -9.274891 9.274891
Al 6.200109 -6.179891 -24.770109
Al 9.295109 -6.179891 -21.675109
Al 6.200109 -3.084891 -21.675109
Al 6.200109 -6.179891 -18.580109
Al 9.295109 -3.084891 -18.580109
Al 9.295109 -6.179891 -15.485109
Al 6.200109 -3.084891 -15.485109
Al 6.200109 -6.179891 -12.390109
Al 9.295109 -3.084891 -12.390109
Al 9.295109 -6.179891 -9.295109
Al 6.200109 -3.084891 -9.295109
Al 6.200109 -6.179891 -6.200109
Al 9.295109 -3.084891 -6.200109
Al 9.295109 -6.179891 -3.105109
Al 6.200109 -3.084891 -3.105109
Al 6.200109 -6.179891 -0.010109
Al 9.295109 -3.084891 -0.010109
Al 9.295109 -6.179891 3.084891
Al 6.200109 -3.084891 3.084891
Al 6.200109 -6.179891 6.179891
Al 9.295109 -3.084891 6.179891
Al 9.295109 -6.179891 9.274891
Al 6.200109 -3.084891 9.274891
Al 6.200109 -6.179891 12.369891
Al 9.295109 -3.084891 12.369891
Al 6.200109 -3.084891 15.464891
Al 6.200109 0.010109 -18.580109
Al 9.295109 0.010109 -15.485109
Al 6.200109 3.105109 -15.485109
Al 6.200109 0.010109 -12.390109
Al 9.295109 3.105109 -12.390109
Al 9.295109 0.010109 -9.295109
Al 6.200109 3.105109 -9.295109
Al 6.200109 0.010109 -6.200109
Al 9.295109 3.105109 -6.200109
Al 9.295109 0.010109 -3.105109
Al 6.200109 3.105109 -3.105109
Al 6.200109 0.010109 -0.010109
Al 9.295109 3.105109 -0.010109
Al 9.295109 0.010109 3.084891
Al 6.200109 3.105109 3.084891
Al 6.200109 0.010109 6.179891
Al 9.295109 3.105109 6.179891
Al 9.295109 0.010109 9.274891
Al 6.200109 3.105109 9.274891
Al 6.200109 0.010109 12.369891
Al 9.295109 3.105109 12.369891
Al 9.295109 0.010109 15.464891
Al 6.200109 3.105109 15.464891
Al 6.200109 0.010109 18.559891
Al 9.295109 3.105109 18.559891
Al 6.200109 3.105109 21.654891
Al 6.200109 6.200109 -12.390109
Al 9.295109 6.200109 -9.295109
Al 6.200109 9.295109 -9.295109
Al 6.200109 6.200109 -6.200109
Al 9.295109 9.295109 -6.200109
Al 9.295109 6.200109 -3.105109
Al 6.200109 9.295109 -3.105109
Al 6.200109 6.200109 -0.010109
Al 9.295109 9.295109 -0.010109
Al 9.295109 6.200109 3.084891
Al 6.200109 9.295109 3.084891
Al 6.200109 6.200109 6.179891
Al 9.295109 9.295109 6.179891
Al 9.295109 6.200109 9.274891
Al 6.200109 9.295109 9.274891
Al 6.200109 6.200109 12.369891
Al 9.295109 9.295109 12.369891
Al 9.295109 6.200109 15.464891
Al 6.200109 9.295109 15.464891
Al 6.200109 6.200109 18.559891
Al 9.295109 9.295109 18.559891
Al 9.295109 6.200109 21.654891
Al 6.200109 9.295109 21.654891
Al 6.200109 6.200109 24.749891
Al 9.295109 9.295109 24.749891
Al 6.200109 12.390109 -6.200109
Al 9.295109 12.390109 -3.105109
Al 6.200109 15.485109 -3.105109
Al 6.200109 12.390109 -0.010109
Al 9.295109 15.485109 -0.010109
Al 9.295109 12.390109 3.084891
Al 6.200109 15.485109 3.084891
Al 6.200109 12.390109 6.179891
Al 9.295109 15.485109 6.179891
Al 9.295109 12.390109 9.274891
Al 6.200109 15.485109 9.274891
Al 6.200109 12.390109 12.369891
Al 9.295109 15.485109 12.369891
Al 9.295109 12.390109 15.464891
Al 6.200109 15.485109 15.464891
Al 6.200109 12.390109 18.559891
Al 9.295109 15.485109 18.559891
Al 9.295109 12.390109 21.654891
Al 6.200109 18.580109 -0.010109
Al 9.295109 18.580109 3.084891
Al 6.200109 21.675109 3.084891
Al 6.200109 18.580109 6.179891
Al 9.295109 21.675109 6.179891
Al 9.295109 18.580109 9.274891
Al 6.200109 21.675109 9.274891
Al 6.200109 18.580109 12.369891
Al 9.295109 21.675109 12.369891
Al 9.295109 18.580109 15.464891
Al 6.200109 24.770109 6.179891
Al 9.295109 24.770109 9.274891
Al 15.485109 -21.654891 -18.580109
Al 15.485109 -24.749891 -15.485109
Al 12.390109 -21.654891 -15.485109
Al 12.390109 -24.749891 -12.390109
Al 15.485109 -21.654891 -12.390109
Al 12.390109 -21.654891 -9.295109
Al 15.485109 -15.464891 -24.770109
Al 15.485109 -18.559891 -21.675109
Al 12.390109 -15.464891 -21.675109
Al 12.390109 -18.559891 -18.580109
Al 15.485109 -15.464891 -18.580109
Al 15.485109 -18.559891 -15.485109
Al 12.390109 -15.464891 -15.485109
Al 12.390109 -18.559891 -12.390109
Al 15.485109 -15.464891 -12.390109
Al 15.485109 -18.559891 -9.295109
Al 12.390109 -15.464891 -9.295109
Al 12.390109 -18.559891 -6.200109
Al 15.485109 -15.464891 -6.200109
Al 12.390109 -15.464891 -3.105109
Al 12.390109 -12.369891 -24.770109
Al 15.485109 -12.369891 -21.675109
Al 12.390109 -9.274891 -21.675109
Al 12.390109 -12.369891 -18.580109
Al 15.485109 -9.274891 -18.580109
Al 15.485109 -12.369891 -15.485109
Al 12.390109 -9.274891 -15.485109
Al 12.390109 -12.369891 -12.390109
Al 15.485109 -9.274891 -12.390109
Al 15.485109 -12.369891 -9.295109
Al 12.390109 -9.274891 -9.295109
Al 12.390109 -12.369891 -6.200109
Al 15.485109 -9.274891 -6.200109
Al 15.485109 -12.369891 -3.105109
Al 12.390109 -9.274891 -3.105109
Al 12.390109 -12.369891 -0.010109
Al 15.485109 -9.274891 -0.010109
Al 12.390109 -9.274891 3.084891
Al 12.390109 -6.179891 -18.580109
Al 15.485109 -6.179891 -15.485109
Al 12.390109 -3.084891 -15.485109
Al 12.390109 -6.179891 -12.390109
Al 15.485109 -3.084891 -12.390109
Al 15.485109 -6.179891 -9.295109
Al 12.390109 -3.084891 -9.295109
Al 12.390109 -6.179891 -6.200109
Al 15.485109 -3.084891 -6.200109
Al 15.485109 -6.179891 -3.105109
Al 12.390109 -3.084891 -3.105109
Al 12.390109 -6.179891 -0.010109
Al 15.485109 -3.084891 -0.010109
Al 15.485109 -6.179891 3.084891
Al 12.390109 -3.084891 3.084891
Al 12.390109 -6.179891 6.179891
Al 15.485109 -3.084891 6.179891
Al 12.390109 -3.084891 9.274891
Al 12.390109 0.010109 -12.390109
Al 15.485109 0.010109 -9.295109
Al 12.390109 3.105109 -9.295109
Al 12.390109 0.010109 -6.200109
Al 15.485109 3.105109 -6.200109
Al 15.485109 0.010109 -3.105109
Al 12.390109 3.105109 -3.105109
Al 12.390109 0.010109 -0.010109
Al 15.485109 3.105109 -0.010109
Al 15.485109 0.010109 3.084891
Al 12.390109 3.105109 3.084891
Al 12.390109 0.010109 6.179891
Al 15.485109 3.105109 6.179891
Al 15.485109 0.010109 9.274891
Al 12.390109 3.105109 9.274891
Al 12.390109 0.010109 12.369891
Al 15.485109 3.105109 12.369891
Al 12.390109 3.105109 15.464891
Al 12.390109 6.200109 -6.200109
Al 15.485109 6.200109 -3.105109
Al 12.390109 9.295109 -3.105109
Al 12.390109 6.200109 -0.010109
Al 15.485109 9.295109 -0.010109
Al 15.485109 6.200109 3.084891
Al 12.390109 9.295109 3.084891
Al 12.390109 6.200109 6.179891
Al 15.485109 9.295109 6.179891
Al 15.485109 6.200109 9.274891
Al 12.390109 9.295109 9.274891
Al 12.390109 6.200109 12.369891
Al 15.485109 9.295109 12.369891
Al 15.485109 6.200109 15.464891
Al 12.390109 9.295109 15.464891
Al 12.390109 6.200109 18.559891
Al 15.485109 9.295109 18.559891
Al 12.390109 9.295109 21.654891
Al 12.390109 12.390109 -0.010109
Al 15.485109 12.390109 3.084891
Al 12.390109 15.485109 3.084891
Al 12.390109 12.390109 6.179891
Al 15.485109 15.485109 6.179891
Al 15.485109 12.390109 9.274891
Al 12.390109 15.485109 9.274891
Al 12.390109 12.390109 12.369891
Al 15.485109 15.485109 12.369891
Al 15.485109 12.390109 15.464891
Al 12.390109 15.485109 15.464891
Al 12.390109 12.390109 18.559891
Al 15.485109 15.485109 18.559891
Al 15.485109 12.390109 21.654891
Al 12.390109 15.485109 21.654891
Al 12.390109 12.390109 24.749891
Al 15.485109 15.485109 24.749891
Al 12.390109 18.580109 6.179891
Al 15.485109 18.580109 9.274891
Al 12.390109 21.675109 9.274891
Al 12.390109 18.580109 12.369891
Al 15.485109 21.675109 12.369891
Al 15.485109 18.580109 15.464891
Al 12.390109 21.675109 15.464891
Al 12.390109 18.580109 18.559891
Al 15.485109 21.675109 18.559891
Al 15.485109 18.580109 21.654891
Al 12.390109 24.770109 12.369891
Al 15.485109 24.770109 15.464891
Al 18.580109 -21.654891 -15.485109
Al 18.580109 -15.464891 -21.675109
Al 18.580109 -18.559891 -18.580109
Al 21.675109 -15.464891 -18.580109
Al 21.675109 -18.559891 -15.485109
Al 18.580109 -15.464891 -15.485109
Al 18.580109 -18.559891 -12.390109
Al 21.675109 -15.464891 -12.390109
Al 18.580109 -15.464891 -9.295109
Al 18.580109 -12.369891 -18.580109
Al 21.675109 -12.369891 -15.485109
Al 18.580109 -9.274891 -15.485109
Al 18.580109 -12.369891 -12.390109
Al 21.675109 -9.274891 -12.390109
Al 21.675109 -12.369891 -9.295109
Al 18.580109 -9.274891 -9.295109
Al 18.580109 -12.369891 -6.200109
Al 21.675109 -9.274891 -6.200109
Al 18.580109 -9.274891 -3.105109
Al 18.580109 -6.179891 -12.390109
Al 21.675109 -6.179891 -9.295109
Al 18.580109 -3.084891 -9.295109
Al 18.580109 -6.179891 -6.200109
Al 21.675109 -3.084891 -6.200109
Al 21.675109 -6.179891 -3.105109
Al 18.580109 -3.084891 -3.105109
Al 18.580109 -6.179891 -0.010109
Al 21.675109 -3.084891 -0.010109
Al 18.580109 -3.084891 3.084891
Al 18.580109 0.010109 -6.200109
Al 21.675109 0.010109 -3.105109
Al 18.580109 3.105109 -3.105109
Al 18.580109 0.010109 -0.010109
Al 21.675109 3.105109 -0.010109
Al 21.675109 0.010109 3.084891
Al 18.580109 3.105109 3.084891
Al 18.580109 0.010109 6.179891
Al 21.675109 3.105109 6.179891
Al 18.580109 3.105109 9.274891
Al 18.580109 6.200109 -0.010109
Al 21.675109 6.200109 3.084891
Al 18.580109 9.295109 3.084891
Al 18.580109 6.200109 6.179891
Al 21.675109 9.295109 6.179891
Al 21.675109 6.200109 9.274891
Al 18.580109 9.295109 9.274891
Al 18.580109 6.200109 12.369891
Al 21.675109 9.295109 12.369891
Al 18.580109 9.295109 15.464891
Al 18.580109 12.390109 6.179891
Al 21.675109 12.390109 9.274891
Al 18.580109 15.485109 9.274891
Al 18.580109 12.390109 12.369891
Al 21.675109 15.485109 12.369891
Al 21.675109 12.390109 15.464891
Al 18.580109 15.485109 15.464891
Al 18.580109 12.390109 18.559891
Al 21.675109 15.485109 18.559891
Al 18.580109 15.485109 21.654891
Al 18.580109 18.580109 12.369891
Al 21.675109 18.580109 15.464891
Al 18.580109 21.675109 15.464891
Al 18.580109 18.580109 18.559891
Al 24.770109 -15.464891 -15.485109
Al 24.770109 -12.369891 -12.390109
Al 24.770109 -9.274891 -9.295109
Al 24.770109 -6.179891 -6.200109
Al 24.770109 -3.084891 -3.105109
Al 24.770109 0.010109 -0.010109
Al 24.770109 3.105109 3.084891
Al 24.770109 6.200109 6.179891
Al 24.770109 9.295109 9.274891
Al 24.770109 12.390109 12.369891
Al 24.770109 15.485109 15.464891
Sb -23.202391 -13.917391 10.822391
Sb -20.107391 -13.917391 7.727391
Sb -20.107391 -17.012391 10.822391
Sb -20.107391 -13.917391 13.917391
Sb -20.107391 -17.012391 17.012391
Sb -20.107391 -7.727391 1.537391
Sb -20.107391 -10.822391 4.632391
Sb -23.202391 -10.822391 7.727391
Sb -23.202391 -7.727391 10.822391
Sb -20.107391 -7.727391 7.727391
Sb -20.107391 -10.822391 10.822391
Sb -23.202391 -10.822391 13.917391
Sb -20.107391 -10.822391 17.012391
Sb -20.107391 -1.537391 -4.652609
Sb -20.107391 -4.632391 -1.557609
Sb -23.202391 -4.632391 1.537391
Sb -23.202391 -1.537391 4.632391
Sb -20.107391 -1.537391 1.537391
Sb -20.107391 -4.632391 4.632391
Sb -23.202391 -4.632391 7.727391
Sb -20.107391 -1.537391 7.727391
Sb -20.107391 -4.632391 10.822391
Sb -23.202391 4.652609 -7.747609
Sb -20.107391 4.652609 -10.842609
Sb -23.202391 1.557609 -4.652609
Sb -23.202391 4.652609 -1.557609
Sb -20.107391 4.652609 -4.652609
Sb -20.107391 1.557609 -1.557609
Sb -23.202391 1.557609 1.537391
Sb -20.107391 1.557609 4.632391
Sb -23.202391 10.842609 -13.937609
Sb -20.107391 10.842609 -17.032609
Sb -23.202391 7.747609 -10.842609
Sb -23.202391 10.842609 -7.747609
Sb -20.107391 10.842609 -10.842609
Sb -20.107391 7.747609 -7.747609
Sb -23.202391 7.747609 -4.652609
Sb -20.107391 10.842609 -4.652609
Sb -20.107391 7.747609 -1.557609
Sb -20.107391 17.032609 -17.032609
Sb -20.107391 13.937609 -13.937609
Sb -23.202391 13.937609 -10.842609
Sb -20.107391 17.032609 -10.842609
Sb -17.012391 -20.107391 10.822391
Sb -13.917391 -20.107391 7.727391
Sb -13.917391 -23.202391 10.822391
Sb -17.012391 -20.107391 17.012391
Sb -13.917391 -20.107391 13.917391
Sb -17.012391 -13.917391 4.632391
Sb -13.917391 -13.917391 1.537391
Sb -13.917391 -17.012391 4.632391
Sb -17.012391 -13.917391 10.822391
Sb -13.917391 -13.917391 7.727391
Sb -13.917391 -17.012391 10.822391
Sb -17.012391 -17.012391 13.917391
Sb -17.012391 -13.917391 17.012391
Sb -13.917391 -13.917391 13.917391
Sb -13.917391 -17.012391 17.012391
Sb -17.012391 -17.012391 20.107391
Sb -13.917391 -13.917391 20.107391
Sb -17.012391 -7.727391 -1.557609
Sb -13.917391 -7.727391 -4.652609
Sb -13.917391 -10.822391 -1.557609
Sb -17.012391 -7.727391 4.632391
Sb -13.917391 -7.727391 1.537391
Sb -13.917391 -10.822391 4.632391
Sb -17.012391 -10.822391 7.727391
Sb -17.012391 -7.727391 10.822391
Sb -13.917391 -7.727391 7.727391
Sb -13.917391 -10.822391 10.822391
Sb -17.012391 -10.822391 13.917391
Sb -17.012391 -7.727391 17.012391
Sb -13.917391 -7.727391 13.917391
Sb -13.917391 -10.822391 17.012391
Sb -17.012391 -10.822391 20.107391
Sb -13.917391 -7.727391 20.107391
Sb -13.917391 -10.822391 23.202391
Sb -17.012391 -1.537391 -7.747609
Sb -13.917391 -1.537391 -10.842609
Sb -13.917391 -4.632391 -7.747609
Sb -17.012391 -1.537391 -1.557609
Sb -13.917391 -1.537391 -4.652609
Sb -13.917391 -4.632391 -1.557609
Sb -17.012391 -4.632391 1.537391
Sb -17.012391 -1.537391 4.632391
Sb -13.917391 -1.537391 1.537391
Sb -13.917391 -4.632391 4.632391
Sb -17.012391 -4.632391 7.727391
Sb -13.917391 -1.537391 7.727391
Sb -13.917391 -4.632391 10.822391
Sb -17.012391 -4.632391 13.917391
Sb -13.917391 -1.537391 13.917391
Sb -17.012391 4.652609 -13.937609
Sb -13.917391 4.652609 -17.032609
Sb -13.917391 1.557609 -13.937609
Sb -17.012391 4.652609 -7.747609
Sb -13.917391 4.652609 -10.842609
Sb -13.917391 1.557609 -7.747609
Sb -17.012391 1.557609 -4.652609
Sb -17.012391 4.652609 -1.557609
Sb -13.917391 4.652609 -4.652609
Sb -13.917391 1.557609 -1.557609
Sb -17.012391 1.557609 1.537391
Sb -13.917391 4.652609 1.537391
Sb -13.917391 1.557609 4.632391
Sb -17.012391 1.557609 7.727391
Sb -13.917391 4.652609 7.727391
Sb -13.917391 1.557609 10.822391
Sb -17.012391 10.842609 -20.127609
Sb -13.917391 10.842609 -23.222609
Sb -17.012391 10.842609 -13.937609
Sb -13.917391 10.842609 -17.032609
Sb -13.917391 7.747609 -13.937609
Sb -17.012391 7.747609 -10.842609
Sb -17.012391 10.842609 -7.747609
Sb -13.917391 10.842609 -10.842609
Sb -13.917391 7.747609 -7.747609
Sb -17.012391 7.747609 -4.652609
Sb -13.917391 10.842609 -4.652609
Sb -13.917391 7.747609 -1.557609
Sb -17.012391 7.747609 1.537391
Sb -13.917391 7.747609 4.632391
Sb -17.012391 17.032609 -20.127609
Sb -13.917391 13.937609 -20.127609
Sb -17.012391 13.937609 -17.032609
Sb -17.012391 17.032609 -13.937609
Sb -13.917391 17.032609 -17.032609
Sb -13.917391 13.937609 -13.937609
Sb -17.012391 13.937609 -10.842609
Sb -17.012391 17.032609 -7.747609
Sb -13.917391 17.032609 -10.842609
Sb -13.917391 13.937609 -7.747609
Sb -17.012391 13.937609 -4.652609
Sb -13.917391 17.032609 -4.652609
Sb -13.917391 13.937609 -1.557609
Sb -17.012391 20.127609 -17.032609
Sb -13.917391 20.127609 -13.937609
Sb -17.012391 20.127609 -10.842609
Sb -13.917391 23.222609 -10.842609
Sb -7.727391 -20.107391 1.537391
Sb -7.727391 -23.202391 4.632391
Sb -10.822391 -23.202391 7.727391
Sb -10.822391 -20.107391 10.822391
Sb -7.727391 -20.107391 7.727391
Sb -7.727391 -23.202391 10.822391
Sb -10.822391 -23.202391 13.917391
Sb -10.822391 -20.107391 17.012391
Sb -7.727391 -20.107391 13.917391
Sb -7.727391 -13.917391 -4.652609
Sb -10.822391 -17.012391 1.537391
Sb -10.822391 -13.917391 4.632391
Sb -7.727391 -13.917391 1.537391
Sb -7.727391 -17.012391 4.632391
Sb -10.822391 -17.012391 7.727391
Sb -10.822391 -13.917391 10.822391
Sb -7.727391 -13.917391 7.727391
Sb -7.727391 -17.012391 10.822391
Sb -10.822391 -17.012391 13.917391
Sb -10.822391 -13.917391 17.012391
Sb -7.727391 -13.917391 13.917391
Sb -10.822391 -17.012391 20.107391
Sb -10.822391 -13.917391 23.202391
Sb -7.727391 -13.917391 20.107391
Sb -7.727391 -10.822391 -7.747609
Sb -10.822391 -10.822391 -4.652609
Sb -10.822391 -7.727391 -1.557609
Sb -7.727391 -7.727391 -4.652609
Sb -7.727391 -10.822391 -1.557609
Sb -10.822391 -10.822391 1.537391
Sb -10.822391 -7.727391 4.632391
Sb -7.727391 -7.727391 1.537391
Sb -7.727391 -10.822391 4.632391
Sb -10.822391 -10.822391 7.727391
Sb -10.822391 -7.727391 10.822391
Sb -7.727391 -7.727391 7.727391
Sb -7.727391 -10.822391 10.822391
Sb -10.822391 -10.822391 13.917391
Sb -10.822391 -7.727391 17.012391
Sb -7.727391 -7.727391 13.917391
Sb -7.727391 -10.822391 17.012391
Sb -10.822391 -10.822391 20.107391
Sb -10.822391 -7.727391 23.202391
Sb -7.727391 -7.727391 20.107391
Sb -7.727391 -10.822391 23.202391
Sb -7.727391 -4.632391 -13.937609
Sb -10.822391 -4.632391 -10.842609
Sb -10.822391 -1.537391 -7.747609
Sb -7.727391 -1.537391 -10.842609
Sb -7.727391 -4.632391 -7.747609
Sb -10.822391 -4.632391 -4.652609
Sb -10.822391 -1.537391 -1.557609
Sb -7.727391 -1.537391 -4.652609
Sb -7.727391 -4.632391 -1.557609
Sb -10.822391 -4.632391 1.537391
Sb -10.822391 -1.537391 4.632391
Sb -7.727391 -1.537391 1.537391
Sb -7.727391 -4.632391 4.632391
Sb -10.822391 -4.632391 7.727391
Sb -10.822391 -1.537391 10.822391
Sb -7.727391 -1.537391 7.727391
Sb -7.727391 -4.632391 10.822391
Sb -10.822391 -4.632391 13.917391
Sb -10.822391 -1.537391 17.012391
Sb -7.727391 -1.537391 13.917391
Sb -7.727391 -4.632391 17.012391
Sb -10.822391 -4.632391 20.107391
Sb -7.727391 -1.537391 20.107391
Sb -7.727391 -4.632391 23.202391
Sb -7.727391 4.652609 -23.222609
Sb -7.727391 1.557609 -20.127609
Sb -10.822391 1.557609 -17.032609
Sb -10.822391 4.652609 -13.937609
Sb -7.727391 4.652609 -17.032609
Sb -7.727391 1.557609 -13.937609
Sb -10.822391 1.557609 -10.842609
Sb -10.822391 4.652609 -7.747609
Sb -7.727391 4.652609 -10.842609
Sb -7.727391 1.557609 -7.747609
Sb -10.822391 1.557609 -4.652609
Sb -10.822391 4.652609 -1.557609
Sb -7.727391 4.652609 -4.652609
Sb -7.727391 1.557609 -1.557609
Sb -10.822391 1.557609 1.537391
Sb -10.822391 4.652609 4.632391
Sb -7.727391 4.652609 1.537391
Sb -7.727391 1.557609 4.632391
Sb -10.822391 1.557609 7.727391
Sb -10.822391 4.652609 10.822391
Sb -7.727391 4.652609 7.727391
Sb -7.727391 1.557609 10.822391
Sb -7.727391 4.652609 13.917391
Sb -10.822391 7.747609 -23.222609
Sb -10.822391 10.842609 -20.127609
Sb -7.727391 10.842609 -23.222609
Sb -7.727391 7.747609 -20.127609
Sb -10.822391 7.747609 -17.032609
Sb -10.822391 10.842609 -13.937609
Sb -7.727391 10.842609 -17.032609
Sb -7.727391 7.747609 -13.937609
Sb -10.822391 7.747609 -10.842609
Sb -10.822391 10.842609 -7.747609
Sb -7.727391 10.842609 -10.842609
Sb -7.727391 7.747609 -7.747609
Sb -10.822391 7.747609 -4.652609
Sb -10.822391 10.842609 -1.557609
Sb -7.727391 10.842609 -4.652609
Sb -7.727391 7.747609 -1.557609
Sb -10.822391 7.747609 1.537391
Sb -10.822391 10.842609 4.632391
Sb -7.727391 10.842609 1.537391
Sb -7.727391 7.747609 4.632391
Sb -7.727391 10.842609 7.727391
Sb -7.727391 7.747609 10.822391
Sb -10.822391 13.937609 -23.222609
Sb -10.822391 17.032609 -20.127609
Sb -7.727391 13.937609 -20.127609
Sb -10.822391 13.937609 -17.032609
Sb -10.822391 17.032609 -13.937609
Sb -7.727391 13.937609 -13.937609
Sb -10.822391 13.937609 -10.842609
Sb -10.822391 17.032609 -7.747609
Sb -7.727391 17.032609 -10.842609
Sb -7.727391 13.937609 -7.747609
Sb -10.822391 13.937609 -4.652609
Sb -7.727391 17.032609 -4.652609
Sb -7.727391 13.937609 -1.557609
Sb -10.822391 13.937609 1.537391
Sb -7.727391 17.032609 1.537391
Sb -7.727391 13.937609 4.632391
Sb -10.822391 20.127609 -17.032609
Sb -10.822391 23.222609 -13.937609
Sb -7.727391 20.127609 -13.937609
Sb -10.822391 20.127609 -10.842609
Sb -10.822391 23.222609 -7.747609
Sb -7.727391 23.222609 -10.842609
Sb -7.727391 20.127609 -7.747609
Sb -10.822391 20.127609 -4.652609
Sb -7.727391 23.222609 -4.652609
Sb -4.632391 -20.107391 -1.557609
Sb -1.537391 -20.107391 -4.652609
Sb -1.537391 -23.202391 -1.557609
Sb -4.632391 -23.202391 1.537391
Sb -4.632391 -20.107391 4.632391
Sb -1.537391 -20.107391 1.537391
Sb -1.537391 -23.202391 4.632391
Sb -4.632391 -23.202391 7.727391
Sb -1.537391 -20.107391 7.727391
Sb -4.632391 -13.917391 -7.747609
Sb -1.537391 -13.917391 -10.842609
Sb -1.537391 -17.012391 -7.747609
Sb -4.632391 -13.917391 -1.557609
Sb -1.537391 -13.917391 -4.652609
Sb -1.537391 -17.012391 -1.557609
Sb -4.632391 -17.012391 1.537391
Sb -4.632391 -13.917391 4.632391
Sb -1.537391 -13.917391 1.537391
Sb -1.537391 -17.012391 4.632391
Sb -4.632391 -17.012391 7.727391
Sb -4.632391 -13.917391 10.822391
Sb -1.537391 -13.917391 7.727391
Sb -1.537391 -17.012391 10.822391
Sb -4.632391 -17.012391 13.917391
Sb -4.632391 -13.917391 17.012391
Sb -4.632391 -7.727391 -13.937609
Sb -1.537391 -10.822391 -13.937609
Sb -4.632391 -7.727391 -7.747609
Sb -1.537391 -7.727391 -10.842609
Sb -1.537391 -10.822391 -7.747609
Sb -4.632391 -10.822391 -4.652609
Sb -4.632391 -7.727391 -1.557609
Sb -1.537391 -7.727391 -4.652609
Sb -1.537391 -10.822391 -1.557609
Sb -4.632391 -10.822391 1.537391
Sb -4.632391 -7.727391 4.632391
Sb -1.537391 -7.727391 1.537391
Sb -1.537391 -10.822391 4.632391
Sb -4.632391 -10.822391 7.727391
Sb -4.632391 -7.727391 10.822391
Sb -1.537391 -7.727391 7.727391
Sb -1.537391 -10.822391 10.822391
Sb -4.632391 -10.822391 13.917391
Sb -4.632391 -7.727391 17.012391
Sb -1.537391 -7.727391 13.917391
Sb -1.537391 -10.822391 17.012391
Sb -4.632391 -7.727391 23.202391
Sb -4.632391 -1.537391 -20.127609
Sb -1.537391 -1.537391 -23.222609
Sb -1.537391 -4.632391 -20.127609
Sb -4.632391 -1.537391 -13.937609
Sb -1.537391 -1.537391 -17.032609
Sb -1.537391 -4.632391 -13.937609
Sb -4.632391 -4.632391 -10.842609
Sb -4.632391 -1.537391 -7.747609
Sb -1.537391 -1.537391 -10.842609
Sb -1.537391 -4.632391 -7.747609
Sb -4.632391 -4.632391 -4.652609
Sb -4.632391 -1.537391 -1.557609
Sb -1.537391 -1.537391 -4.652609
Sb -1.537391 -4.632391 -1.557609
Sb -4.632391 -4.632391 1.537391
Sb -4.632391 -1.537391 4.632391
Sb -1.537391 -1.537391 1.537391
Sb -1.537391 -4.632391 4.632391
Sb -4.632391 -4.632391 7.727391
Sb -4.632391 -1.537391 10.822391
Sb -1.537391 -1.537391 7.727391
Sb -1.537391 -4.632391 10.822391
Sb -4.632391 -4.632391 13.917391
Sb -4.632391 -1.537391 17.012391
Sb -1.537391 -1.537391 13.917391
Sb -1.537391 -4.632391 17.012391
Sb -4.632391 -4.632391 20.107391
Sb -4.632391 -1.537391 23.202391
Sb -1.537391 -1.537391 20.107391
Sb -1.537391 -4.632391 23.202391
Sb -4.632391 1.557609 -23.222609
Sb -4.632391 4.652609 -20.127609
Sb -1.537391 4.652609 -23.222609
Sb -1.537391 1.557609 -20.127609
Sb -4.632391 1.557609 -17.032609
Sb -4.632391 4.652609 -13.937609
Sb -1.537391 4.652609 -17.032609
Sb -1.537391 1.557609 -13.937609
Sb -4.632391 1.557609 -10.842609
Sb -4.632391 4.652609 -7.747609
Sb -1.537391 4.652609 -10.842609
Sb -1.537391 1.557609 -7.747609
Sb -4.632391 1.557609 -4.652609
Sb -4.632391 4.652609 -1.557609
Sb -1.537391 4.652609 -4.652609
Sb -1.537391 1.557609 -1.557609
Sb -4.632391 1.557609 1.537391
Sb -4.632391 4.652609 4.632391
Sb -1.537391 4.652609 1.537391
Sb -1.537391 1.557609 4.632391
Sb -4.632391 1.557609 7.727391
Sb -4.632391 4.652609 10.822391
Sb -1.537391 4.652609 7.727391
Sb -1.537391 1.557609 10.822391
Sb -4.632391 1.557609 13.917391
Sb -4.632391 4.652609 17.012391
Sb -1.537391 4.652609 13.917391
Sb -1.537391 1.557609 17.012391
Sb -4.632391 1.557609 20.107391
Sb -1.537391 1.557609 23.202391
Sb -4.632391 7.747609 -23.222609
Sb -4.632391 7.747609 -17.032609
Sb -4.632391 10.842609 -13.937609
Sb -1.537391 10.842609 -17.032609
Sb -1.537391 7.747609 -13.937609
Sb -4.632391 7.747609 -10.842609
Sb -4.632391 10.842609 -7.747609
Sb -1.537391 10.842609 -10.842609
Sb -1.537391 7.747609 -7.747609
Sb -4.632391 7.747609 -4.652609
Sb -4.632391 10.842609 -1.557609
Sb -1.537391 10.842609 -4.652609
Sb -1.537391 7.747609 -1.557609
Sb -4.632391 7.747609 1.537391
Sb -4.632391 10.842609 4.632391
Sb -1.537391 10.842609 1.537391
Sb -1.537391 7.747609 4.632391
Sb -4.632391 7.747609 7.727391
Sb -1.537391 10.842609 7.727391
Sb -1.537391 7.747609 10.822391
Sb -4.632391 7.747609 13.917391
Sb -1.537391 10.842609 13.917391
Sb -1.537391 7.747609 17.012391
Sb -4.632391 13.937609 -17.032609
Sb -4.632391 17.032609 -13.937609
Sb -4.632391 13.937609 -10.842609
Sb -4.632391 17.032609 -7.747609
Sb -1.537391 17.032609 -10.842609
Sb -1.537391 13.937609 -7.747609
Sb -4.632391 13.937609 -4.652609
Sb -4.632391 17.032609 -1.557609
Sb -1.537391 17.032609 -4.652609
Sb -1.537391 13.937609 -1.557609
Sb -4.632391 13.937609 1.537391
Sb -1.537391 17.032609 1.537391
Sb -1.537391 13.937609 4.632391
Sb -4.632391 13.937609 7.727391
Sb -1.537391 17.032609 7.727391
Sb -4.632391 23.222609 -7.747609
Sb -4.632391 20.127609 -4.652609
Sb -4.632391 23.222609 -1.557609
Sb -1.537391 23.222609 -4.652609
Sb -1.537391 20.127609 -1.557609
Sb -4.632391 20.127609 1.537391
Sb -1.537391 23.222609 1.537391
Sb -1.537391 20.127609 4.632391
Sb 4.652609 -20.107391 -10.842609
Sb 4.652609 -23.202391 -7.747609
Sb 1.557609 -23.202391 -4.652609
Sb 1.557609 -20.107391 -1.557609
Sb 4.652609 -20.107391 -4.652609
Sb 4.652609 -23.202391 -1.557609
Sb 1.557609 -23.202391 1.537391
Sb 4.652609 -20.107391 1.537391
Sb 4.652609 -13.917391 -17.032609
Sb 1.557609 -17.012391 -10.842609
Sb 1.557609 -13.917391 -7.747609
Sb 4.652609 -13.917391 -10.842609
Sb 4.652609 -17.012391 -7.747609
Sb 1.557609 -17.012391 -4.652609
Sb 1.557609 -13.917391 -1.557609
Sb 4.652609 -13.917391 -4.652609
Sb 4.652609 -17.012391 -1.557609
Sb 1.557609 -17.012391 1.537391
Sb 1.557609 -13.917391 4.632391
Sb 4.652609 -13.917391 1.537391
Sb 4.652609 -17.012391 4.632391
Sb 1.557609 -17.012391 7.727391
Sb 1.557609 -13.917391 10.822391
Sb 4.652609 -13.917391 7.727391
Sb 1.557609 -7.727391 -20.127609
Sb 4.652609 -7.727391 -23.222609
Sb 1.557609 -10.822391 -17.032609
Sb 1.557609 -7.727391 -13.937609
Sb 4.652609 -7.727391 -17.032609
Sb 4.652609 -10.822391 -13.937609
Sb 1.557609 -10.822391 -10.842609
Sb 1.557609 -7.727391 -7.747609
Sb 4.652609 -7.727391 -10.842609
Sb 4.652609 -10.822391 -7.747609
Sb 1.557609 -10.822391 -4.652609
Sb 1.557609 -7.727391 -1.557609
Sb 4.652609 -7.727391 -4.652609
Sb 4.652609 -10.822391 -1.557609
Sb 1.557609 -10.822391 1.537391
Sb 1.557609 -7.727391 4.632391
Sb 4.652609 -7.727391 1.537391
Sb 4.652609 -10.822391 4.632391
Sb 1.557609 -10.822391 7.727391
Sb 1.557609 -7.727391 10.822391
Sb 4.652609 -7.727391 7.727391
Sb 1.557609 -10.822391 13.917391
Sb 1.557609 -7.727391 17.012391
Sb 4.652609 -7.727391 13.917391
Sb 1.557609 -4.632391 -23.222609
Sb 1.557609 -1.537391 -20.127609
Sb 4.652609 -1.537391 -23.222609
Sb 4.652609 -4.632391 -20.127609
Sb 1.557609 -4.632391 -17.032609
Sb 1.557609 -1.537391 -13.937609
Sb 4.652609 -1.537391 -17.032609
Sb 4.652609 -4.632391 -13.937609
Sb 1.557609 -4.632391 -10.842609
Sb 1.557609 -1.537391 -7.747609
Sb 4.652609 -1.537391 -10.842609
Sb 4.652609 -4.632391 -7.747609
Sb 1.557609 -4.632391 -4.652609
Sb 1.557609 -1.537391 -1.557609
Sb 4.652609 -1.537391 -4.652609
Sb 4.652609 -4.632391 -1.557609
Sb 1.557609 -4.632391 1.537391
Sb 1.557609 -1.537391 4.632391
Sb 4.652609 -1.537391 1.537391
Sb 4.652609 -4.632391 4.632391
Sb 1.557609 -4.632391 7.727391
Sb 1.557609 -1.537391 10.822391
Sb 4.652609 -1.537391 7.727391
Sb 4.652609 -4.632391 10.822391
Sb 1.557609 -4.632391 13.917391
Sb 1.557609 -1.537391 17.012391
Sb 4.652609 -1.537391 13.917391
Sb 1.557609 -4.632391 20.107391
Sb 1.557609 -1.537391 23.202391
Sb 4.652609 -1.537391 20.107391
Sb 1.557609 1.557609 -23.222609
Sb 4.652609 1.557609 -20.127609
Sb 1.557609 1.557609 -17.032609
Sb 1.557609 4.652609 -13.937609
Sb 4.652609 4.652609 -17.032609
Sb 4.652609 1.557609 -13.937609
Sb 1.557609 1.557609 -10.842609
Sb 1.557609 4.652609 -7.747609
Sb 4.652609 4.652609 -10.842609
Sb 4.652609 1.557609 -7.747609
Sb 1.557609 1.557609 -4.652609
Sb 1.557609 4.652609 -1.557609
Sb 4.652609 4.652609 -4.652609
Sb 4.652609 1.557609 -1.557609
Sb 1.557609 1.557609 1.537391
Sb 1.557609 4.652609 4.632391
Sb 4.652609 4.652609 1.537391
Sb 4.652609 1.557609 4.632391
Sb 1.557609 1.557609 7.727391
Sb 1.557609 4.652609 10.822391
Sb 4.652609 4.652609 7.727391
Sb 4.652609 1.557609 10.822391
Sb 1.557609 1.557609 13.917391
Sb 1.557609 4.652609 17.012391
Sb 4.652609 4.652609 13.917391
Sb 4.652609 1.557609 17.012391
Sb 1.557609 1.557609 20.107391
Sb 1.557609 4.652609 23.202391
Sb 4.652609 4.652609 20.107391
Sb 4.652609 1.557609 23.202391
Sb 1.557609 7.747609 -17.032609
Sb 1.557609 10.842609 -13.937609
Sb 4.652609 7.747609 -13.937609
Sb 1.557609 7.747609 -10.842609
Sb 1.557609 10.842609 -7.747609
Sb 4.652609 7.747609 -7.747609
Sb 1.557609 7.747609 -4.652609
Sb 1.557609 10.842609 -1.557609
Sb 4.652609 10.842609 -4.652609
Sb 4.652609 7.747609 -1.557609
Sb 1.557609 7.747609 1.537391
Sb 1.557609 10.842609 4.632391
Sb 4.652609 10.842609 1.537391
Sb 4.652609 7.747609 4.632391
Sb 1.557609 7.747609 7.727391
Sb 1.557609 10.842609 10.822391
Sb 4.652609 10.842609 7.727391
Sb 4.652609 7.747609 10.822391
Sb 1.557609 7.747609 13.917391
Sb 1.557609 10.842609 17.012391
Sb 4.652609 10.842609 13.917391
Sb 4.652609 7.747609 17.012391
Sb 4.652609 7.747609 23.202391
Sb 1.557609 13.937609 -10.842609
Sb 4.652609 13.937609 -7.747609
Sb 1.557609 13.937609 -4.652609
Sb 1.557609 17.032609 -1.557609
Sb 4.652609 13.937609 -1.557609
Sb 1.557609 13.937609 1.537391
Sb 1.557609 17.032609 4.632391
Sb 4.652609 17.032609 1.537391
Sb 4.652609 13.937609 4.632391
Sb 1.557609 13.937609 7.727391
Sb 1.557609 17.032609 10.822391
Sb 4.652609 17.032609 7.727391
Sb 4.652609 13.937609 10.822391
Sb 4.652609 17.032609 13.917391
Sb 4.652609 13.937609 17.012391
Sb 1.557609 20.127609 -4.652609
Sb 1.557609 23.222609 -1.557609
Sb 4.652609 20.127609 -1.557609
Sb 1.557609 20.127609 1.537391
Sb 1.557609 23.222609 4.632391
Sb 4.652609 23.222609 1.537391
Sb 4.652609 20.127609 4.632391
Sb 4.652609 23.222609 7.727391
Sb 7.747609 -20.107391 -13.937609
Sb 10.842609 -20.107391 -17.032609
Sb 10.842609 -23.202391 -13.937609
Sb 7.747609 -23.202391 -10.842609
Sb 7.747609 -20.107391 -7.747609
Sb 10.842609 -20.107391 -10.842609
Sb 10.842609 -23.202391 -7.747609
Sb 7.747609 -23.202391 -4.652609
Sb 7.747609 -20.107391 -1.557609
Sb 10.842609 -20.107391 -4.652609
Sb 7.747609 -13.917391 -20.127609
Sb 10.842609 -13.917391 -23.222609
Sb 10.842609 -17.012391 -20.127609
Sb 7.747609 -13.917391 -13.937609
Sb 10.842609 -13.917391 -17.032609
Sb 10.842609 -17.012391 -13.937609
Sb 7.747609 -17.012391 -10.842609
Sb 7.747609 -13.917391 -7.747609
Sb 10.842609 -13.917391 -10.842609
Sb 10.842609 -17.012391 -7.747609
Sb 7.747609 -17.012391 -4.652609
Sb 7.747609 -13.917391 -1.557609
Sb 10.842609 -13.917391 -4.652609
Sb 10.842609 -17.012391 -1.557609
Sb 7.747609 -13.917391 4.632391
Sb 7.747609 -10.822391 -23.222609
Sb 7.747609 -7.727391 -20.127609
Sb 10.842609 -7.727391 -23.222609
Sb 10.842609 -10.822391 -20.127609
Sb 7.747609 -10.822391 -17.032609
Sb 7.747609 -7.727391 -13.937609
Sb 10.842609 -7.727391 -17.032609
Sb 10.842609 -10.822391 -13.937609
Sb 7.747609 -10.822391 -10.842609
Sb 7.747609 -7.727391 -7.747609
Sb 10.842609 -7.727391 -10.842609
Sb 10.842609 -10.822391 -7.747609
Sb 7.747609 -10.822391 -4.652609
Sb 7.747609 -7.727391 -1.557609
Sb 10.842609 -7.727391 -4.652609
Sb 10.842609 -10.822391 -1.557609
Sb 7.747609 -10.822391 1.537391
Sb 7.747609 -7.727391 4.632391
Sb 10.842609 -7.727391 1.537391
Sb 10.842609 -10.822391 4.632391
Sb 7.747609 -10.822391 7.727391
Sb 7.747609 -4.632391 -23.222609
Sb 7.747609 -1.537391 -20.127609
Sb 7.747609 -4.632391 -17.032609
Sb 7.747609 -1.537391 -13.937609
Sb 10.842609 -1.537391 -17.032609
Sb 10.842609 -4.632391 -13.937609
Sb 7.747609 -4.632391 -10.842609
Sb 7.747609 -1.537391 -7.747609
Sb 10.842609 -1.537391 -10.842609
Sb 10.842609 -4.632391 -7.747609
Sb 7.747609 -4.632391 -4.652609
Sb 7.747609 -1.537391 -1.557609
Sb 10.842609 -1.537391 -4.652609
Sb 10.842609 -4.632391 -1.557609
Sb 7.747609 -4.632391 1.537391
Sb 7.747609 -1.537391 4.632391
Sb 10.842609 -1.537391 1.537391
Sb 10.842609 -4.632391 4.632391
Sb 7.747609 -4.632391 7.727391
Sb 7.747609 -1.537391 10.822391
Sb 10.842609 -1.537391 7.727391
Sb 10.842609 -4.632391 10.822391
Sb 7.747609 -4.632391 13.917391
Sb 7.747609 -1.537391 17.012391
Sb 10.842609 -1.537391 13.917391
Sb 7.747609 4.652609 -13.937609
Sb 7.747609 1.557609 -10.842609
Sb 7.747609 4.652609 -7.747609
Sb 10.842609 4.652609 -10.842609
Sb 10.842609 1.557609 -7.747609
Sb 7.747609 1.557609 -4.652609
Sb 7.747609 4.652609 -1.557609
Sb 10.842609 4.652609 -4.652609
Sb 10.842609 1.557609 -1.557609
Sb 7.747609 1.557609 1.537391
Sb 7.747609 4.652609 4.632391
Sb 10.842609 4.652609 1.537391
Sb 10.842609 1.557609 4.632391
Sb 7.747609 1.557609 7.727391
Sb 7.747609 4.652609 10.822391
Sb 10.842609 4.652609 7.727391
Sb 10.842609 1.557609 10.822391
Sb 7.747609 1.557609 13.917391
Sb 7.747609 4.652609 17.012391
Sb 10.842609 4.652609 13.917391
Sb 7.747609 1.557609 20.107391
Sb 7.747609 4.652609 23.202391
Sb 10.842609 4.652609 20.107391
Sb 7.747609 7.747609 -10.842609
Sb 7.747609 10.842609 -7.747609
Sb 7.747609 7.747609 -4.652609
Sb 7.747609 10.842609 -1.557609
Sb 10.842609 10.842609 -4.652609
Sb 10.842609 7.747609 -1.557609
Sb 7.747609 7.747609 1.537391
Sb 7.747609 10.842609 4.632391
Sb 10.842609 10.842609 1.537391
Sb 10.842609 7.747609 4.632391
Sb 7.747609 7.747609 7.727391
Sb 7.747609 10.842609 10.822391
Sb 10.842609 10.842609 7.727391
Sb 10.842609 7.747609 10.822391
Sb 7.747609 7.747609 13.917391
Sb 7.747609 10.842609 17.012391
Sb 10.842609 10.842609 13.917391
Sb 10.842609 7.747609 17.012391
Sb 7.747609 7.747609 20.107391
Sb 7.747609 10.842609 23.202391
Sb 10.842609 10.842609 20.107391
Sb 10.842609 7.747609 23.202391
Sb 7.747609 17.032609 -1.557609
Sb 10.842609 13.937609 -1.557609
Sb 7.747609 13.937609 1.537391
Sb 7.747609 17.032609 4.632391
Sb 10.842609 13.937609 4.632391
Sb 7.747609 13.937609 7.727391
Sb 7.747609 17.032609 10.822391
Sb 10.842609 17.032609 7.727391
Sb 10.842609 13.937609 10.822391
Sb 7.747609 13.937609 13.917391
Sb 10.842609 17.032609 13.917391
Sb 10.842609 13.937609 17.012391
Sb 7.747609 13.937609 20.107391
Sb 10.842609 17.032609 20.107391
Sb 10.842609 13.937609 23.202391
Sb 7.747609 20.127609 1.537391
Sb 7.747609 23.222609 4.632391
Sb 10.842609 20.127609 4.632391
Sb 7.747609 20.127609 7.727391
Sb 7.747609 23.222609 10.822391
Sb 10.842609 23.222609 7.727391
Sb 10.842609 20.127609 10.822391
Sb 7.747609 20.127609 13.917391
Sb 10.842609 23.222609 13.917391
Sb 10.842609 20.127609 17.012391
Sb 13.937609 -20.107391 -13.937609
Sb 17.032609 -20.107391 -17.032609
Sb 13.937609 -23.202391 -10.842609
Sb 17.032609 -20.107391 -10.842609
Sb 13.937609 -13.917391 -20.127609
Sb 17.032609 -17.012391 -20.127609
Sb 13.937609 -17.012391 -17.032609
Sb 13.937609 -13.917391 -13.937609
Sb 17.032609 -13.917391 -17.032609
Sb 17.032609 -17.012391 -13.937609
Sb 13.937609 -17.012391 -10.842609
Sb 13.937609 -13.917391 -7.747609
Sb 17.032609 -13.917391 -10.842609
Sb 17.032609 -17.012391 -7.747609
Sb 13.937609 -17.012391 -4.652609
Sb 13.937609 -13.917391 -1.557609
Sb 17.032609 -13.917391 -4.652609
Sb 13.937609 -10.822391 -23.222609
Sb 13.937609 -7.727391 -20.127609
Sb 17.032609 -10.822391 -20.127609
Sb 13.937609 -10.822391 -17.032609
Sb 13.937609 -7.727391 -13.937609
Sb 17.032609 -10.822391 -13.937609
Sb 13.937609 -10.822391 -10.842609
Sb 13.937609 -7.727391 -7.747609
Sb 17.032609 -7.727391 -10.842609
Sb 17.032609 -10.822391 -7.747609
Sb 13.937609 -10.822391 -4.652609
Sb 13.937609 -7.727391 -1.557609
Sb 17.032609 -7.727391 -4.652609
Sb 13.937609 -10.822391 1.537391
Sb 13.937609 -7.727391 4.632391
Sb 17.032609 -7.727391 1.537391
Sb 13.937609 -4.632391 -17.032609
Sb 13.937609 -1.537391 -13.937609
Sb 17.032609 -4.632391 -13.937609
Sb 13.937609 -4.632391 -10.842609
Sb 13.937609 -1.537391 -7.747609
Sb 17.032609 -4.632391 -7.747609
Sb 13.937609 -4.632391 -4.652609
Sb 13.937609 -1.537391 -1.557609
Sb 17.032609 -1.537391 -4.652609
Sb 17.032609 -4.632391 -1.557609
Sb 13.937609 -4.632391 1.537391
Sb 13.937609 -1.537391 4.632391
Sb 17.032609 -1.537391 1.537391
Sb 13.937609 -4.632391 7.727391
Sb 13.937609 -1.537391 10.822391
Sb 17.032609 -1.537391 7.727391
Sb 13.937609 4.652609 -7.747609
Sb 17.032609 1.557609 -7.747609
Sb 13.937609 1.557609 -4.652609
Sb 13.937609 4.652609 -1.557609
Sb 17.032609 1.557609 -1.557609
Sb 13.937609 1.557609 1.537391
Sb 13.937609 4.652609 4.632391
Sb 17.032609 4.652609 1.537391
Sb 17.032609 1.557609 4.632391
Sb 13.937609 1.557609 7.727391
Sb 13.937609 4.652609 10.822391
Sb 17.032609 4.652609 7.727391
Sb 13.937609 1.557609 13.917391
Sb 13.937609 4.652609 17.012391
Sb 17.032609 4.652609 13.917391
Sb 13.937609 10.842609 -1.557609
Sb 17.032609 7.747609 -1.557609
Sb 13.937609 7.747609 1.537391
Sb 13.937609 10.842609 4.632391
Sb 17.032609 7.747609 4.632391
Sb 13.937609 7.747609 7.727391
Sb 13.937609 10.842609 10.822391
Sb 17.032609 10.842609 7.727391
Sb 17.032609 7.747609 10.822391
Sb 13.937609 7.747609 13.917391
Sb 13.937609 10.842609 17.012391
Sb 17.032609 10.842609 13.917391
Sb 13.937609 7.747609 20.107391
Sb 13.937609 10.842609 23.202391
Sb 17.032609 10.842609 20.107391
Sb 13.937609 17.032609 4.632391
Sb 17.032609 13.937609 4.632391
Sb 13.937609 13.937609 7.727391
Sb 13.937609 17.032609 10.822391
Sb 17.032609 13.937609 10.822391
Sb 13.937609 13.937609 13.917391
Sb 13.937609 17.032609 17.012391
Sb 17.032609 17.032609 13.917391
Sb 17.032609 13.937609 17.012391
Sb 13.937609 13.937609 20.107391
Sb 17.032609 17.032609 20.107391
Sb 13.937609 23.222609 10.822391
Sb 17.032609 20.127609 10.822391
Sb 13.937609 20.127609 13.917391
Sb 17.032609 20.127609 17.012391
Sb 20.127609 -17.012391 -17.032609
Sb 20.127609 -13.917391 -13.937609
Sb 20.127609 -17.012391 -10.842609
Sb 23.222609 -13.917391 -10.842609
Sb 20.127609 -10.822391 -17.032609
Sb 23.222609 -10.822391 -13.937609
Sb 20.127609 -10.822391 -10.842609
Sb 20.127609 -7.727391 -7.747609
Sb 23.222609 -7.727391 -10.842609
Sb 23.222609 -10.822391 -7.747609
Sb 20.127609 -10.822391 -4.652609
Sb 20.127609 -7.727391 -1.557609
Sb 20.127609 -4.632391 -10.842609
Sb 20.127609 -1.537391 -7.747609
Sb 23.222609 -4.632391 -7.747609
Sb 20.127609 -4.632391 -4.652609
Sb 20.127609 -1.537391 -1.557609
Sb 23.222609 -1.537391 -4.652609
Sb 23.222609 -4.632391 -1.557609
Sb 20.127609 -4.632391 1.537391
Sb 20.127609 -1.537391 4.632391
Sb 20.127609 1.557609 -4.652609
Sb 23.222609 1.557609 -1.557609
Sb 20.127609 1.557609 1.537391
Sb 20.127609 4.652609 4.632391
Sb 23.222609 4.652609 1.537391
Sb 23.222609 1.557609 4.632391
Sb 20.127609 1.557609 7.727391
Sb 23.222609 4.652609 7.727391
Sb 20.127609 7.747609 1.537391
Sb 20.127609 10.842609 4.632391
Sb 23.222609 7.747609 4.632391
Sb 20.127609 7.747609 7.727391
Sb 20.127609 10.842609 10.822391
Sb 23.222609 7.747609 10.822391
Sb 20.127609 7.747609 13.917391
Sb 20.127609 10.842609 17.012391
Sb 23.222609 10.842609 13.917391
Sb 20.127609 13.937609 7.727391
Sb 20.127609 17.032609 10.822391
Sb 23.222609 13.937609 10.822391
Sb 20.127609 13.937609 13.917391
Sb 20.127609 17.032609 17.012391
Cl -26.297391 -13.917391 13.917391
Cl -26.297391 -7.727391 7.727391
Cl -26.297391 -10.822391 10.822391
Cl -26.297391 -1.537391 1.537391
Cl -26.297391 -4.632391 4.632391
Cl -26.297391 4.652609 -4.652609
Cl -26.297391 1.557609 -1.557609
Cl -26.297391 10.842609 -10.842609
Cl -26.297391 7.747609 -7.747609
Cl -26.297391 13.937609 -13.937609
Cl -20.107391 -20.107391 13.917391
Cl -23.202391 -17.012391 13.917391
Cl -23.202391 -13.917391 17.012391
Cl -20.107391 -13.917391 20.107391
Cl -23.202391 -7.727391 4.632391
Cl -20.107391 -7.727391 13.917391
Cl -23.202391 -1.537391 -1.557609
Cl -20.107391 1.557609 -7.747609
Cl -20.107391 4.652609 1.537391
Cl -20.107391 7.747609 -13.937609
Cl -20.107391 13.937609 -20.127609
Cl -23.202391 13.937609 -17.032609
Cl -23.202391 17.032609 -13.937609
Cl -20.107391 13.937609 -7.747609
Cl -20.107391 20.127609 -13.937609
Cl -13.917391 -26.297391 13.917391
Cl -17.012391 -23.202391 13.917391
Cl -13.917391 -23.202391 17.012391
Cl -13.917391 -20.107391 20.107391
Cl -17.012391 -17.012391 7.727391
Cl -17.012391 -13.917391 23.202391
Cl -13.917391 -17.012391 23.202391
Cl -13.917391 -13.917391 26.297391
Cl -17.012391 -10.822391 1.537391
Cl -17.012391 -4.632391 -4.652609
Cl -17.012391 -1.537391 10.822391
Cl -13.917391 -4.632391 17.012391
Cl -17.012391 1.557609 -10.842609
Cl -17.012391 4.652609 4.632391
Cl -13.917391 7.747609 -20.127609
Cl -17.012391 7.747609 -17.032609
Cl -17.012391 10.842609 -1.557609
Cl -13.917391 10.842609 1.537391
Cl -13.917391 13.937609 -26.317609
Cl -17.012391 13.937609 -23.222609
Cl -13.917391 17.032609 -23.222609
Cl -13.917391 20.127609 -20.127609
Cl -17.012391 23.222609 -13.937609
Cl -13.917391 23.222609 -17.032609
Cl -13.917391 20.127609 -7.747609
Cl -13.917391 26.317609 -13.937609
Cl -10.822391 -26.297391 10.822391
Cl -7.727391 -26.297391 7.727391
Cl -10.822391 -20.107391 4.632391
Cl -10.822391 -13.917391 -1.557609
Cl -7.727391 -17.012391 -1.557609
Cl -7.727391 -17.012391 17.012391
Cl -10.822391 -7.727391 -7.747609
Cl -7.727391 -7.727391 -10.842609
Cl -10.822391 -10.822391 26.297391
Cl -7.727391 -7.727391 26.297391
Cl -10.822391 -1.537391 -13.937609
Cl -7.727391 -1.537391 -17.032609
Cl -10.822391 4.652609 -20.127609
Cl -10.822391 1.557609 13.917391
Cl -7.727391 1.557609 17.012391
Cl -10.822391 10.842609 -26.317609
Cl -7.727391 7.747609 -26.317609
Cl -10.822391 7.747609 7.727391
Cl -7.727391 17.032609 -17.032609
Cl -10.822391 17.032609 -1.557609
Cl -7.727391 20.127609 -1.557609
Cl -10.822391 26.317609 -10.842609
Cl -7.727391 26.317609 -7.747609
Cl -4.632391 -26.297391 4.632391
Cl -1.537391 -26.297391 1.537391
Cl -4.632391 -20.107391 10.822391
Cl -4.632391 -17.012391 -4.652609
Cl -1.537391 -13.917391 13.917391
Cl -1.537391 -7.727391 -17.032609
Cl -4.632391 -10.822391 -10.842609
Cl -4.632391 -10.822391 20.107391
Cl -1.537391 -7.727391 20.107391
Cl -4.632391 -4.632391 -17.032609
Cl -4.632391 -4.632391 26.297391
Cl -1.537391 -1.537391 26.297391
Cl -4.632391 4.652609 -26.317609
Cl -1.537391 1.557609 -26.317609
Cl -1.537391 4.652609 20.107391
Cl -4.632391 10.842609 -20.127609
Cl -1.537391 7.747609 -20.127609
Cl -4.632391 10.842609 10.822391
Cl -1.537391 13.937609 -13.937609
Cl -4.632391 17.032609 4.632391
Cl -1.537391 13.937609 10.822391
Cl -4.632391 20.127609 -10.842609
Cl -1.537391 20.127609 -7.747609
Cl -4.632391 26.317609 -4.652609
Cl -1.537391 26.317609 -1.557609
Cl 1.557609 -26.297391 -1.557609
Cl 4.652609 -26.297391 -4.652609
Cl 1.557609 -20.107391 -7.747609
Cl 1.557609 -20.107391 4.632391
Cl 1.557609 -13.917391 -13.937609
Cl 4.652609 -17.012391 -13.937609
Cl 4.652609 -10.822391 -20.127609
Cl 4.652609 -10.822391 10.822391
Cl 1.557609 -1.537391 -26.317609
Cl 4.652609 -4.632391 -26.317609
Cl 4.652609 -4.632391 17.012391
Cl 1.557609 4.652609 -20.127609
Cl 1.557609 1.557609 26.297391
Cl 4.652609 4.652609 26.297391
Cl 4.652609 10.842609 -10.842609
Cl 1.557609 7.747609 20.107391
Cl 4.652609 10.842609 20.107391
Cl 1.557609 17.032609 -7.747609
Cl 4.652609 17.032609 -4.652609
Cl 1.557609 13.937609 13.917391
Cl 1.557609 20.127609 7.727391
Cl 4.652609 20.127609 10.822391
Cl 1.557609 26.317609 1.537391
Cl 4.652609 26.317609 4.632391
Cl 7.747609 -26.297391 -7.747609
Cl 10.842609 -26.297391 -10.842609
Cl 7.747609 -17.012391 -17.032609
Cl 7.747609 -17.012391 1.537391
Cl 10.842609 -13.917391 1.537391
Cl 7.747609 -7.727391 -26.317609
Cl 10.842609 -10.822391 -26.317609
Cl 7.747609 -7.727391 10.822391
Cl 10.842609 -7.727391 7.727391
Cl 10.842609 -4.632391 -20.127609
Cl 7.747609 1.557609 -17.032609
Cl 10.842609 1.557609 -13.937609
Cl 10.842609 1.557609 17.012391
Cl 10.842609 7.747609 -7.747609
Cl 7.747609 7.747609 26.297391
Cl 10.842609 10.842609 26.297391
Cl 7.747609 13.937609 -4.652609
Cl 10.842609 17.032609 1.537391
Cl 7.747609 17.032609 17.012391
Cl 7.747609 26.317609 7.727391
Cl 10.842609 26.317609 10.822391
Cl 13.937609 -26.297391 -13.937609
Cl 13.937609 -20.107391 -20.127609
Cl 13.937609 -23.202391 -17.032609
Cl 17.032609 -23.202391 -13.937609
Cl 13.937609 -20.107391 -7.747609
Cl 13.937609 -13.917391 -26.317609
Cl 13.937609 -17.012391 -23.222609
Cl 17.032609 -13.917391 -23.222609
Cl 17.032609 -7.727391 -17.032609
Cl 17.032609 -10.822391 -1.557609
Cl 17.032609 -1.537391 -10.842609
Cl 17.032609 -4.632391 4.632391
Cl 13.937609 1.557609 -10.842609
Cl 17.032609 4.652609 -4.652609
Cl 17.032609 1.557609 10.822391
Cl 13.937609 7.747609 -4.652609
Cl 17.032609 10.842609 1.537391
Cl 17.032609 7.747609 17.012391
Cl 13.937609 13.937609 1.537391
Cl 17.032609 17.032609 7.727391
Cl 13.937609 17.032609 23.202391
Cl 17.032609 13.937609 23.202391
Cl 13.937609 13.937609 26.297391
Cl 13.937609 20.127609 7.727391
Cl 13.937609 23.222609 17.012391
Cl 17.032609 23.222609 13.917391
Cl 13.937609 20.127609 20.107391
Cl 13.937609 26.317609 13.917391
Cl 20.127609 -20.107391 -13.937609
Cl 20.127609 -13.917391 -20.127609
Cl 23.222609 -13.917391 -17.032609
Cl 23.222609 -17.012391 -13.937609
Cl 20.127609 -13.917391 -7.747609
Cl 20.127609 -7.727391 -13.937609
Cl 23.222609 -7.727391 -4.652609
Cl 23.222609 -1.537391 1.537391
Cl 20.127609 4.652609 -1.557609
Cl 20.127609 4.652609 10.822391
Cl 23.222609 10.842609 7.727391
Cl 23.222609 17.032609 13.917391
Cl 23.222609 13.937609 17.012391
Cl 20.127609 13.937609 20.107391
Cl 20.127609 20.127609 13.917391
Cl 26.317609 -13.917391 -13.937609
Cl 26.317609 -10.822391 -10.842609
Cl 26.317609 -7.727391 -7.747609
Cl 26.317609 -4.632391 -4.652609
Cl 26.317609 -1.537391 -1.557609
Cl 26.317609 1.557609 1.537391
Cl 26.317609 4.652609 4.632391
Cl 26.317609 7.747609 7.727391
Cl 26.317609 10.842609 10.822391
Cl 26.317609 13.937609 13.917391
Cl -20.107391 -20.107391 20.107391
