771
HgTe-Hg-Hg369Te336Cl66-clean
Hg -16.445654 -3.289984 -6.588503
Hg -16.445654 -6.579968 -3.298519
Hg -16.445654 -3.289984 -0.008534
Hg -16.445654 -6.579968 3.281450
Hg -16.445654 -3.289984 6.571434
Hg -16.445654 3.289984 -6.588503
Hg -16.445654 -0.000000 -3.298519
Hg -16.445654 3.289984 -0.008534
Hg -16.445654 -0.000000 3.281450
Hg -16.445654 3.289984 6.571434
Hg -16.445654 6.579968 -3.298519
Hg -16.445654 6.579968 3.281450
Hg -9.865685 -9.869953 -6.588503
Hg -9.865685 -13.159937 -3.298519
Hg -13.155670 -9.869953 -3.298519
Hg -9.865685 -9.869953 -0.008534
Hg -9.865685 -13.159937 3.281450
Hg -13.155670 -9.869953 3.281450
Hg -9.865685 -9.869953 6.571434
Hg -9.865685 -3.289984 -13.168471
Hg -9.865685 -6.579968 -9.878487
Hg -13.155670 -3.289984 -9.878487
Hg -13.155670 -6.579968 -6.588503
Hg -9.865685 -3.289984 -6.588503
Hg -9.865685 -6.579968 -3.298519
Hg -13.155670 -3.289984 -3.298519
Hg -13.155670 -6.579968 -0.008534
Hg -9.865685 -3.289984 -0.008534
Hg -9.865685 -6.579968 3.281450
Hg -13.155670 -3.289984 3.281450
Hg -13.155670 -6.579968 6.571434
Hg -9.865685 -3.289984 6.571434
Hg -9.865685 -6.579968 9.861418
Hg -13.155670 -3.289984 9.861418
Hg -9.865685 -3.289984 13.151402
Hg -9.865685 3.289984 -13.168471
Hg -9.865685 -0.000000 -9.878487
Hg -13.155670 3.289984 -9.878487
Hg -13.155670 -0.000000 -6.588503
Hg -9.865685 3.289984 -6.588503
Hg -9.865685 -0.000000 -3.298519
Hg -13.155670 3.289984 -3.298519
Hg -13.155670 -0.000000 -0.008534
Hg -9.865685 3.289984 -0.008534
Hg -9.865685 -0.000000 3.281450
Hg -13.155670 3.289984 3.281450
Hg -13.155670 -0.000000 6.571434
Hg -9.865685 3.289984 6.571434
Hg -9.865685 -0.000000 9.861418
Hg -13.155670 3.289984 9.861418
Hg -9.865685 3.289984 13.151402
Hg -9.865685 6.579968 -9.878487
Hg -13.155670 6.579968 -6.588503
Hg -9.865685 9.869953 -6.588503
Hg -9.865685 6.579968 -3.298519
Hg -13.155670 9.869953 -3.298519
Hg -13.155670 6.579968 -0.008534
Hg -9.865685 9.869953 -0.008534
Hg -9.865685 6.579968 3.281450
Hg -13.155670 9.869953 3.281450
Hg -13.155670 6.579968 6.571434
Hg -9.865685 9.869953 6.571434
Hg -9.865685 6.579968 9.861418
Hg -9.865685 13.159937 -3.298519
Hg -9.865685 13.159937 3.281450
Hg -3.285717 -16.449921 -6.588503
Hg -6.575701 -16.449921 -3.298519
Hg -3.285717 -16.449921 -0.008534
Hg -6.575701 -16.449921 3.281450
Hg -3.285717 -16.449921 6.571434
Hg -3.285717 -9.869953 -13.168471
Hg -3.285717 -13.159937 -9.878487
Hg -6.575701 -9.869953 -9.878487
Hg -6.575701 -13.159937 -6.588503
Hg -3.285717 -9.869953 -6.588503
Hg -3.285717 -13.159937 -3.298519
Hg -6.575701 -9.869953 -3.298519
Hg -6.575701 -13.159937 -0.008534
Hg -3.285717 -9.869953 -0.008534
Hg -3.285717 -13.159937 3.281450
Hg -6.575701 -9.869953 3.281450
Hg -6.575701 -13.159937 6.571434
Hg -3.285717 -9.869953 6.571434
Hg -3.285717 -13.159937 9.861418
Hg -6.575701 -9.869953 9.861418
Hg -3.285717 -9.869953 13.151402
Hg -3.285717 -6.579968 -16.458455
Hg -6.575701 -3.289984 -16.458455
Hg -6.575701 -6.579968 -13.168471
Hg -3.285717 -3.289984 -13.168471
Hg -3.285717 -6.579968 -9.878487
Hg -6.575701 -3.289984 -9.878487
Hg -6.575701 -6.579968 -6.588503
Hg -3.285717 -3.289984 -6.588503
Hg -3.285717 -6.579968 -3.298519
Hg -6.575701 -3.289984 -3.298519
Hg -6.575701 -6.579968 -0.008534
Hg -3.285717 -3.289984 -0.008534
Hg -3.285717 -6.579968 3.281450
Hg -6.575701 -3.289984 3.281450
Hg -6.575701 -6.579968 6.571434
Hg -3.285717 -3.289984 6.571434
Hg -3.285717 -6.579968 9.861418
Hg -6.575701 -3.289984 9.861418
Hg -6.575701 -6.579968 13.151402
Hg -3.285717 -3.289984 13.151402
Hg -3.285717 -6.579968 16.441387
Hg -6.575701 -3.289984 16.441387
Hg -3.285717 -0.000000 -16.458455
Hg -6.575701 3.289984 -16.458455
Hg -6.575701 -0.000000 -13.168471
Hg -3.285717 3.289984 -13.168471
Hg -3.285717 -0.000000 -9.878487
Hg -6.575701 3.289984 -9.878487
Hg -6.575701 -0.000000 -6.588503
Hg -3.285717 3.289984 -6.588503
Hg -3.285717 -0.000000 -3.298519
Hg -6.575701 3.289984 -3.298519
Hg -6.575701 -0.000000 -0.008534
Hg -3.285717 3.289984 -0.008534
Hg -3.285717 -0.000000 3.281450
Hg -6.575701 3.289984 3.281450
Hg -6.575701 -0.000000 6.571434
Hg -3.285717 3.289984 6.571434
Hg -3.285717 -0.000000 9.861418
Hg -6.575701 3.289984 9.861418
Hg -6.575701 -0.000000 13.151402
Hg -3.285717 3.289984 13.151402
Hg -3.285717 -0.000000 16.441387
Hg -6.575701 3.289984 16.441387
Hg -3.285717 6.579968 -16.458455
Hg -6.575701 6.579968 -13.168471
Hg -3.285717 9.869953 -13.168471
Hg -3.285717 6.579968 -9.878487
Hg -6.575701 9.869953 -9.878487
Hg -6.575701 6.579968 -6.588503
Hg -3.285717 9.869953 -6.588503
Hg -3.285717 6.579968 -3.298519
Hg -6.575701 9.869953 -3.298519
Hg -6.575701 6.579968 -0.008534
Hg -3.285717 9.869953 -0.008534
Hg -3.285717 6.579968 3.281450
Hg -6.575701 9.869953 3.281450
Hg -6.575701 6.579968 6.571434
Hg -3.285717 9.869953 6.571434
Hg -3.285717 6.579968 9.861418
Hg -6.575701 9.869953 9.861418
Hg -6.575701 6.579968 13.151402
Hg -3.285717 9.869953 13.151402
Hg -3.285717 6.579968 16.441387
Hg -3.285717 13.159937 -9.878487
Hg -6.575701 13.159937 -6.588503
Hg -3.285717 16.449921 -6.588503
Hg -3.285717 13.159937 -3.298519
Hg -6.575701 16.449921 -3.298519
Hg -6.575701 13.159937 -0.008534
Hg -3.285717 16.449921 -0.008534
Hg -3.285717 13.159937 3.281450
Hg -6.575701 16.449921 3.281450
Hg -6.575701 13.159937 6.571434
Hg -3.285717 16.449921 6.571434
Hg -3.285717 13.159937 9.861418
Hg 3.294251 -16.449921 -6.588503
Hg 0.004267 -16.449921 -3.298519
Hg 3.294251 -16.449921 -0.008534
Hg 0.004267 -16.449921 3.281450
Hg 3.294251 -16.449921 6.571434
Hg 3.294251 -9.869953 -13.168471
Hg 3.294251 -13.159937 -9.878487
Hg 0.004267 -9.869953 -9.878487
Hg 0.004267 -13.159937 -6.588503
Hg 3.294251 -9.869953 -6.588503
Hg 3.294251 -13.159937 -3.298519
Hg 0.004267 -9.869953 -3.298519
Hg 0.004267 -13.159937 -0.008534
Hg 3.294251 -9.869953 -0.008534
Hg 3.294251 -13.159937 3.281450
Hg 0.004267 -9.869953 3.281450
Hg 0.004267 -13.159937 6.571434
Hg 3.294251 -9.869953 6.571434
Hg 3.294251 -13.159937 9.861418
Hg 0.004267 -9.869953 9.861418
Hg 3.294251 -9.869953 13.151402
Hg 3.294251 -6.579968 -16.458455
Hg 0.004267 -3.289984 -16.458455
Hg 0.004267 -6.579968 -13.168471
Hg 3.294251 -3.289984 -13.168471
Hg 3.294251 -6.579968 -9.878487
Hg 0.004267 -3.289984 -9.878487
Hg 0.004267 -6.579968 -6.588503
Hg 3.294251 -3.289984 -6.588503
Hg 3.294251 -6.579968 -3.298519
Hg 0.004267 -3.289984 -3.298519
Hg 0.004267 -6.579968 -0.008534
Hg 3.294251 -3.289984 -0.008534
Hg 3.294251 -6.579968 3.281450
Hg 0.004267 -3.289984 3.281450
Hg 0.004267 -6.579968 6.571434
Hg 3.294251 -3.289984 6.571434
Hg 3.294251 -6.579968 9.861418
Hg 0.004267 -3.289984 9.861418
Hg 0.004267 -6.579968 13.151402
Hg 3.294251 -3.289984 13.151402
Hg 3.294251 -6.579968 16.441387
Hg 0.004267 -3.289984 16.441387
Hg 3.294251 -0.000000 -16.458455
Hg 0.004267 3.289984 -16.458455
Hg 0.004267 -0.000000 -13.168471
Hg 3.294251 3.289984 -13.168471
Hg 3.294251 -0.000000 -9.878487
Hg 0.004267 3.289984 -9.878487
Hg 0.004267 -0.000000 -6.588503
Hg 3.294251 3.289984 -6.588503
Hg 3.294251 -0.000000 -3.298519
Hg 0.004267 3.289984 -3.298519
Hg 0.004267 -0.000000 -0.008534
Hg 3.294251 3.289984 -0.008534
Hg 3.294251 -0.000000 3.281450
Hg 0.004267 3.289984 3.281450
Hg 0.004267 -0.000000 6.571434
Hg 3.294251 3.289984 6.571434
Hg 3.294251 -0.000000 9.861418
Hg 0.004267 3.289984 9.861418
Hg 0.004267 -0.000000 13.151402
Hg 3.294251 3.289984 13.151402
Hg 3.294251 -0.000000 16.441387
Hg 0.004267 3.289984 16.441387
Hg 3.294251 6.579968 -16.458455
Hg 0.004267 6.579968 -13.168471
Hg 3.294251 9.869953 -13.168471
Hg 3.294251 6.579968 -9.878487
Hg 0.004267 9.869953 -9.878487
Hg 0.004267 6.579968 -6.588503
Hg 3.294251 9.869953 -6.588503
Hg 3.294251 6.579968 -3.298519
Hg 0.004267 9.869953 -3.298519
Hg 0.004267 6.579968 -0.008534
Hg 3.294251 9.869953 -0.008534
Hg 3.294251 6.579968 3.281450
Hg 0.004267 9.869953 3.281450
Hg 0.004267 6.579968 6.571434
Hg 3.294251 9.869953 6.571434
Hg 3.294251 6.579968 9.861418
Hg 0.004267 9.869953 9.861418
Hg 0.004267 6.579968 13.151402
Hg 3.294251 9.869953 13.151402
Hg 3.294251 6.579968 16.441387
Hg 3.294251 13.159937 -9.878487
Hg 0.004267 13.159937 -6.588503
Hg 3.294251 16.449921 -6.588503
Hg 3.294251 13.159937 -3.298519
Hg 0.004267 16.449921 -3.298519
Hg 0.004267 13.159937 -0.008534
Hg 3.294251 16.449921 -0.008534
Hg 3.294251 13.159937 3.281450
Hg 0.004267 16.449921 3.281450
Hg 0.004267 13.159937 6.571434
Hg 3.294251 16.449921 6.571434
Hg 3.294251 13.159937 9.861418
Hg 6.584236 -16.449921 -3.298519
Hg 6.584236 -16.449921 3.281450
Hg 6.584236 -9.869953 -9.878487
Hg 6.584236 -13.159937 -6.588503
Hg 9.874220 -9.869953 -6.588503
Hg 9.874220 -13.159937 -3.298519
Hg 6.584236 -9.869953 -3.298519
Hg 6.584236 -13.159937 -0.008534
Hg 9.874220 -9.869953 -0.008534
Hg 9.874220 -13.159937 3.281450
Hg 6.584236 -9.869953 3.281450
Hg 6.584236 -13.159937 6.571434
Hg 9.874220 -9.869953 6.571434
Hg 6.584236 -9.869953 9.861418
Hg 6.584236 -3.289984 -16.458455
Hg 6.584236 -6.579968 -13.168471
Hg 9.874220 -3.289984 -13.168471
Hg 9.874220 -6.579968 -9.878487
Hg 6.584236 -3.289984 -9.878487
Hg 6.584236 -6.579968 -6.588503
Hg 9.874220 -3.289984 -6.588503
Hg 9.874220 -6.579968 -3.298519
Hg 6.584236 -3.289984 -3.298519
Hg 6.584236 -6.579968 -0.008534
Hg 9.874220 -3.289984 -0.008534
Hg 9.874220 -6.579968 3.281450
Hg 6.584236 -3.289984 3.281450
Hg 6.584236 -6.579968 6.571434
Hg 9.874220 -3.289984 6.571434
Hg 9.874220 -6.579968 9.861418
Hg 6.584236 -3.289984 9.861418
Hg 6.584236 -6.579968 13.151402
Hg 9.874220 -3.289984 13.151402
Hg 6.584236 -3.289984 16.441387
Hg 6.584236 3.289984 -16.458455
Hg 6.584236 -0.000000 -13.168471
Hg 9.874220 3.289984 -13.168471
Hg 9.874220 -0.000000 -9.878487
Hg 6.584236 3.289984 -9.878487
Hg 6.584236 -0.000000 -6.588503
Hg 9.874220 3.289984 -6.588503
Hg 9.874220 -0.000000 -3.298519
Hg 6.584236 3.289984 -3.298519
Hg 6.584236 -0.000000 -0.008534
Hg 9.874220 3.289984 -0.008534
Hg 9.874220 -0.000000 3.281450
Hg 6.584236 3.289984 3.281450
Hg 6.584236 -0.000000 6.571434
Hg 9.874220 3.289984 6.571434
Hg 9.874220 -0.000000 9.861418
Hg 6.584236 3.289984 9.861418
Hg 6.584236 -0.000000 13.151402
Hg 9.874220 3.289984 13.151402
Hg 6.584236 3.289984 16.441387
Hg 6.584236 6.579968 -13.168471
Hg 9.874220 6.579968 -9.878487
Hg 6.584236 9.869953 -9.878487
Hg 6.584236 6.579968 -6.588503
Hg 9.874220 9.869953 -6.588503
Hg 9.874220 6.579968 -3.298519
Hg 6.584236 9.869953 -3.298519
Hg 6.584236 6.579968 -0.008534
Hg 9.874220 9.869953 -0.008534
Hg 9.874220 6.579968 3.281450
Hg 6.584236 9.869953 3.281450
Hg 6.584236 6.579968 6.571434
Hg 9.874220 9.869953 6.571434
Hg 9.874220 6.579968 9.861418
Hg 6.584236 9.869953 9.861418
Hg 6.584236 6.579968 13.151402
Hg 6.584236 13.159937 -6.588503
Hg 9.874220 13.159937 -3.298519
Hg 6.584236 16.449921 -3.298519
Hg 6.584236 13.159937 -0.008534
Hg 9.874220 13.159937 3.281450
Hg 6.584236 16.449921 3.281450
Hg 6.584236 13.159937 6.571434
Hg 13.164204 -9.869953 -3.298519
Hg 13.164204 -9.869953 3.281450
Hg 13.164204 -3.289984 -9.878487
Hg 13.164204 -6.579968 -6.588503
Hg 16.454188 -3.289984 -6.588503
Hg 16.454188 -6.579968 -3.298519
Hg 13.164204 -3.289984 -3.298519
Hg 13.164204 -6.579968 -0.008534
Hg 16.454188 -3.289984 -0.008534
Hg 16.454188 -6.579968 3.281450
Hg 13.164204 -3.289984 3.281450
Hg 13.164204 -6.579968 6.571434
Hg 16.454188 -3.289984 6.571434
Hg 13.164204 -3.289984 9.861418
Hg 13.164204 3.289984 -9.878487
Hg 13.164204 -0.000000 -6.588503
Hg 16.454188 3.289984 -6.588503
Hg 16.454188 -0.000000 -3.298519
Hg 13.164204 3.289984 -3.298519
Hg 13.164204 -0.000000 -0.008534
Hg 16.454188 3.289984 -0.008534
Hg 16.454188 -0.000000 3.281450
Hg 13.164204 3.289984 3.281450
Hg 13.164204 -0.000000 6.571434
Hg 16.454188 3.289984 6.571434
Hg 13.164204 3.289984 9.861418
Hg 13.164204 6.579968 -6.588503
Hg 16.454188 6.579968 -3.298519
Hg 13.164204 9.869953 -3.298519
Hg 13.164204 6.579968 -0.008534
Hg 16.454188 6.579968 3.281450
Hg 13.164204 9.869953 3.281450
Hg 13.164204 6.579968 6.571434
Te -14.800662 -8.224961 -4.943511
Te -14.800662 -8.224961 1.636458
Te -14.800662 -4.934976 -8.233495
Te -14.800662 -1.644992 -4.943511
Te -14.800662 -4.934976 -1.653526
Te -14.800662 -1.644992 1.636458
Te -14.800662 -4.934976 4.926442
Te -14.800662 -1.644992 8.216426
Te -14.800662 1.644992 -8.233495
Te -14.800662 4.934976 -4.943511
Te -14.800662 1.644992 -1.653526
Te -14.800662 4.934976 1.636458
Te -14.800662 1.644992 4.926442
Te -14.800662 4.934976 8.216426
Te -14.800662 8.224961 -1.653526
Te -14.800662 8.224961 4.926442
Te -8.220693 -14.804929 -4.943511
Te -8.220693 -14.804929 1.636458
Te -11.510678 -8.224961 -8.233495
Te -8.220693 -8.224961 -11.523479
Te -8.220693 -11.514945 -8.233495
Te -11.510678 -11.514945 -4.943511
Te -11.510678 -8.224961 -1.653526
Te -8.220693 -8.224961 -4.943511
Te -8.220693 -11.514945 -1.653526
Te -11.510678 -11.514945 1.636458
Te -11.510678 -8.224961 4.926442
Te -8.220693 -8.224961 1.636458
Te -8.220693 -11.514945 4.926442
Te -8.220693 -8.224961 8.216426
Te -8.220693 -4.934976 -14.813463
Te -11.510678 -4.934976 -11.523479
Te -11.510678 -1.644992 -8.233495
Te -8.220693 -1.644992 -11.523479
Te -8.220693 -4.934976 -8.233495
Te -11.510678 -4.934976 -4.943511
Te -11.510678 -1.644992 -1.653526
Te -8.220693 -1.644992 -4.943511
Te -8.220693 -4.934976 -1.653526
Te -11.510678 -4.934976 1.636458
Te -11.510678 -1.644992 4.926442
Te -8.220693 -1.644992 1.636458
Te -8.220693 -4.934976 4.926442
Te -11.510678 -4.934976 8.216426
Te -11.510678 -1.644992 11.506410
Te -8.220693 -1.644992 8.216426
Te -8.220693 -4.934976 11.506410
Te -8.220693 -1.644992 14.796395
Te -8.220693 1.644992 -14.813463
Te -11.510678 1.644992 -11.523479
Te -11.510678 4.934976 -8.233495
Te -8.220693 4.934976 -11.523479
Te -8.220693 1.644992 -8.233495
Te -11.510678 1.644992 -4.943511
Te -11.510678 4.934976 -1.653526
Te -8.220693 4.934976 -4.943511
Te -8.220693 1.644992 -1.653526
Te -11.510678 1.644992 1.636458
Te -11.510678 4.934976 4.926442
Te -8.220693 4.934976 1.636458
Te -8.220693 1.644992 4.926442
Te -11.510678 1.644992 8.216426
Te -11.510678 4.934976 11.506410
Te -8.220693 4.934976 8.216426
Te -8.220693 1.644992 11.506410
Te -8.220693 4.934976 14.796395
Te -8.220693 8.224961 -8.233495
Te -11.510678 8.224961 -4.943511
Te -11.510678 11.514945 -1.653526
Te -8.220693 11.514945 -4.943511
Te -8.220693 8.224961 -1.653526
Te -11.510678 8.224961 1.636458
Te -11.510678 11.514945 4.926442
Te -8.220693 11.514945 1.636458
Te -8.220693 8.224961 4.926442
Te -11.510678 8.224961 8.216426
Te -8.220693 11.514945 8.216426
Te -8.220693 8.224961 11.506410
Te -8.220693 14.804929 -1.653526
Te -8.220693 14.804929 4.926442
Te -4.930709 -14.804929 -8.233495
Te -4.930709 -14.804929 -1.653526
Te -1.640725 -14.804929 -4.943511
Te -4.930709 -14.804929 4.926442
Te -1.640725 -14.804929 1.636458
Te -1.640725 -14.804929 8.216426
Te -4.930709 -8.224961 -14.813463
Te -4.930709 -11.514945 -11.523479
Te -4.930709 -8.224961 -8.233495
Te -1.640725 -8.224961 -11.523479
Te -1.640725 -11.514945 -8.233495
Te -4.930709 -11.514945 -4.943511
Te -4.930709 -8.224961 -1.653526
Te -1.640725 -8.224961 -4.943511
Te -1.640725 -11.514945 -1.653526
Te -4.930709 -11.514945 1.636458
Te -4.930709 -8.224961 4.926442
Te -1.640725 -8.224961 1.636458
Te -1.640725 -11.514945 4.926442
Te -4.930709 -11.514945 8.216426
Te -4.930709 -8.224961 11.506410
Te -1.640725 -8.224961 8.216426
Te -1.640725 -11.514945 11.506410
Te -1.640725 -8.224961 14.796395
Te -4.930709 -1.644992 -14.813463
Te -1.640725 -4.934976 -14.813463
Te -4.930709 -4.934976 -11.523479
Te -4.930709 -1.644992 -8.233495
Te -1.640725 -1.644992 -11.523479
Te -1.640725 -4.934976 -8.233495
Te -4.930709 -4.934976 -4.943511
Te -4.930709 -1.644992 -1.653526
Te -1.640725 -1.644992 -4.943511
Te -1.640725 -4.934976 -1.653526
Te -4.930709 -4.934976 1.636458
Te -4.930709 -1.644992 4.926442
Te -1.640725 -1.644992 1.636458
Te -1.640725 -4.934976 4.926442
Te -4.930709 -4.934976 8.216426
Te -4.930709 -1.644992 11.506410
Te -1.640725 -1.644992 8.216426
Te -1.640725 -4.934976 11.506410
Te -4.930709 -4.934976 14.796395
Te -1.640725 -1.644992 14.796395
Te -4.930709 4.934976 -14.813463
Te -1.640725 1.644992 -14.813463
Te -4.930709 1.644992 -11.523479
Te -4.930709 4.934976 -8.233495
Te -1.640725 4.934976 -11.523479
Te -1.640725 1.644992 -8.233495
Te -4.930709 1.644992 -4.943511
Te -4.930709 4.934976 -1.653526
Te -1.640725 4.934976 -4.943511
Te -1.640725 1.644992 -1.653526
Te -4.930709 1.644992 1.636458
Te -4.930709 4.934976 4.926442
Te -1.640725 4.934976 1.636458
Te -1.640725 1.644992 4.926442
Te -4.930709 1.644992 8.216426
Te -4.930709 4.934976 11.506410
Te -1.640725 4.934976 8.216426
Te -1.640725 1.644992 11.506410
Te -4.930709 1.644992 14.796395
Te -1.640725 4.934976 14.796395
Te -1.640725 8.224961 -14.813463
Te -4.930709 8.224961 -11.523479
Te -4.930709 11.514945 -8.233495
Te -1.640725 11.514945 -11.523479
Te -1.640725 8.224961 -8.233495
Te -4.930709 8.224961 -4.943511
Te -4.930709 11.514945 -1.653526
Te -1.640725 11.514945 -4.943511
Te -1.640725 8.224961 -1.653526
Te -4.930709 8.224961 1.636458
Te -4.930709 11.514945 4.926442
Te -1.640725 11.514945 1.636458
Te -1.640725 8.224961 4.926442
Te -4.930709 8.224961 8.216426
Te -4.930709 11.514945 11.506410
Te -1.640725 11.514945 8.216426
Te -1.640725 8.224961 11.506410
Te -4.930709 8.224961 14.796395
Te -1.640725 14.804929 -8.233495
Te -4.930709 14.804929 -4.943511
Te -1.640725 14.804929 -1.653526
Te -4.930709 14.804929 1.636458
Te -1.640725 14.804929 4.926442
Te -4.930709 14.804929 8.216426
Te 1.649259 -14.804929 -8.233495
Te 1.649259 -14.804929 -1.653526
Te 4.939243 -14.804929 -4.943511
Te 1.649259 -14.804929 4.926442
Te 4.939243 -14.804929 1.636458
Te 4.939243 -14.804929 8.216426
Te 1.649259 -8.224961 -14.813463
Te 1.649259 -11.514945 -11.523479
Te 1.649259 -8.224961 -8.233495
Te 4.939243 -8.224961 -11.523479
Te 4.939243 -11.514945 -8.233495
Te 1.649259 -11.514945 -4.943511
Te 1.649259 -8.224961 -1.653526
Te 4.939243 -8.224961 -4.943511
Te 4.939243 -11.514945 -1.653526
Te 1.649259 -11.514945 1.636458
Te 1.649259 -8.224961 4.926442
Te 4.939243 -8.224961 1.636458
Te 4.939243 -11.514945 4.926442
Te 1.649259 -11.514945 8.216426
Te 1.649259 -8.224961 11.506410
Te 4.939243 -8.224961 8.216426
Te 4.939243 -11.514945 11.506410
Te 4.939243 -8.224961 14.796395
Te 1.649259 -1.644992 -14.813463
Te 4.939243 -4.934976 -14.813463
Te 1.649259 -4.934976 -11.523479
Te 1.649259 -1.644992 -8.233495
Te 4.939243 -1.644992 -11.523479
Te 4.939243 -4.934976 -8.233495
Te 1.649259 -4.934976 -4.943511
Te 1.649259 -1.644992 -1.653526
Te 4.939243 -1.644992 -4.943511
Te 4.939243 -4.934976 -1.653526
Te 1.649259 -4.934976 1.636458
Te 1.649259 -1.644992 4.926442
Te 4.939243 -1.644992 1.636458
Te 4.939243 -4.934976 4.926442
Te 1.649259 -4.934976 8.216426
Te 1.649259 -1.644992 11.506410
Te 4.939243 -1.644992 8.216426
Te 4.939243 -4.934976 11.506410
Te 1.649259 -4.934976 14.796395
Te 4.939243 -1.644992 14.796395
Te 1.649259 4.934976 -14.813463
Te 4.939243 1.644992 -14.813463
Te 1.649259 1.644992 -11.523479
Te 1.649259 4.934976 -8.233495
Te 4.939243 4.934976 -11.523479
Te 4.939243 1.644992 -8.233495
Te 1.649259 1.644992 -4.943511
Te 1.649259 4.934976 -1.653526
Te 4.939243 4.934976 -4.943511
Te 4.939243 1.644992 -1.653526
Te 1.649259 1.644992 1.636458
Te 1.649259 4.934976 4.926442
Te 4.939243 4.934976 1.636458
Te 4.939243 1.644992 4.926442
Te 1.649259 1.644992 8.216426
Te 1.649259 4.934976 11.506410
Te 4.939243 4.934976 8.216426
Te 4.939243 1.644992 11.506410
Te 1.649259 1.644992 14.796395
Te 4.939243 4.934976 14.796395
Te 4.939243 8.224961 -14.813463
Te 1.649259 8.224961 -11.523479
Te 1.649259 11.514945 -8.233495
Te 4.939243 11.514945 -11.523479
Te 4.939243 8.224961 -8.233495
Te 1.649259 8.224961 -4.943511
Te 1.649259 11.514945 -1.653526
Te 4.939243 11.514945 -4.943511
Te 4.939243 8.224961 -1.653526
Te 1.649259 8.224961 1.636458
Te 1.649259 11.514945 4.926442
Te 4.939243 11.514945 1.636458
Te 4.939243 8.224961 4.926442
Te 1.649259 8.224961 8.216426
Te 1.649259 11.514945 11.506410
Te 4.939243 11.514945 8.216426
Te 4.939243 8.224961 11.506410
Te 1.649259 8.224961 14.796395
Te 4.939243 14.804929 -8.233495
Te 1.649259 14.804929 -4.943511
Te 4.939243 14.804929 -1.653526
Te 1.649259 14.804929 1.636458
Te 4.939243 14.804929 4.926442
Te 1.649259 14.804929 8.216426
Te 8.229228 -14.804929 -1.653526
Te 8.229228 -14.804929 4.926442
Te 8.229228 -8.224961 -8.233495
Te 8.229228 -11.514945 -4.943511
Te 8.229228 -8.224961 -1.653526
Te 11.519212 -8.224961 -4.943511
Te 11.519212 -11.514945 -1.653526
Te 8.229228 -11.514945 1.636458
Te 8.229228 -8.224961 4.926442
Te 11.519212 -8.224961 1.636458
Te 11.519212 -11.514945 4.926442
Te 8.229228 -11.514945 8.216426
Te 8.229228 -8.224961 11.506410
Te 11.519212 -8.224961 8.216426
Te 8.229228 -1.644992 -14.813463
Te 8.229228 -4.934976 -11.523479
Te 8.229228 -1.644992 -8.233495
Te 11.519212 -1.644992 -11.523479
Te 11.519212 -4.934976 -8.233495
Te 8.229228 -4.934976 -4.943511
Te 8.229228 -1.644992 -1.653526
Te 11.519212 -1.644992 -4.943511
Te 11.519212 -4.934976 -1.653526
Te 8.229228 -4.934976 1.636458
Te 8.229228 -1.644992 4.926442
Te 11.519212 -1.644992 1.636458
Te 11.519212 -4.934976 4.926442
Te 8.229228 -4.934976 8.216426
Te 8.229228 -1.644992 11.506410
Te 11.519212 -1.644992 8.216426
Te 11.519212 -4.934976 11.506410
Te 8.229228 -4.934976 14.796395
Te 8.229228 4.934976 -14.813463
Te 8.229228 1.644992 -11.523479
Te 8.229228 4.934976 -8.233495
Te 11.519212 4.934976 -11.523479
Te 11.519212 1.644992 -8.233495
Te 8.229228 1.644992 -4.943511
Te 8.229228 4.934976 -1.653526
Te 11.519212 4.934976 -4.943511
Te 11.519212 1.644992 -1.653526
Te 8.229228 1.644992 1.636458
Te 8.229228 4.934976 4.926442
Te 11.519212 4.934976 1.636458
Te 11.519212 1.644992 4.926442
Te 8.229228 1.644992 8.216426
Te 8.229228 4.934976 11.506410
Te 11.519212 4.934976 8.216426
Te 11.519212 1.644992 11.506410
Te 8.229228 1.644992 14.796395
Te 8.229228 8.224961 -11.523479
Te 8.229228 11.514945 -8.233495
Te 11.519212 8.224961 -8.233495
Te 8.229228 8.224961 -4.943511
Te 8.229228 11.514945 -1.653526
Te 11.519212 11.514945 -4.943511
Te 11.519212 8.224961 -1.653526
Te 8.229228 8.224961 1.636458
Te 8.229228 11.514945 4.926442
Te 11.519212 11.514945 1.636458
Te 11.519212 8.224961 4.926442
Te 8.229228 8.224961 8.216426
Te 8.229228 14.804929 -4.943511
Te 8.229228 14.804929 1.636458
Te 14.809196 -8.224961 -1.653526
Te 14.809196 -8.224961 4.926442
Te 14.809196 -1.644992 -8.233495
Te 14.809196 -4.934976 -4.943511
Te 14.809196 -1.644992 -1.653526
Te 14.809196 -4.934976 1.636458
Te 14.809196 -1.644992 4.926442
Te 14.809196 -4.934976 8.216426
Te 14.809196 4.934976 -8.233495
Te 14.809196 1.644992 -4.943511
Te 14.809196 4.934976 -1.653526
Te 14.809196 1.644992 1.636458
Te 14.809196 4.934976 4.926442
Te 14.809196 1.644992 8.216426
Te 14.809196 8.224961 -4.943511
Te 14.809196 8.224961 1.636458
Cl -18.090646 -4.934976 -4.943511
Cl -18.090646 -1.644992 -1.653526
Cl -18.090646 -4.934976 1.636458
Cl -18.090646 -1.644992 4.926442
Cl -18.090646 1.644992 -4.943511
Cl -18.090646 4.934976 -1.653526
Cl -18.090646 1.644992 1.636458
Cl -18.090646 4.934976 4.926442
Cl -4.930709 -18.094913 -4.943511
Cl -1.640725 -18.094913 -1.653526
Cl -4.930709 -18.094913 1.636458
Cl -1.640725 -18.094913 4.926442
Cl -4.930709 -4.934976 -18.103447
Cl -1.640725 -1.644992 -18.103447
Cl -4.930709 -1.644992 18.086379
Cl -1.640725 -4.934976 18.086379
Cl -4.930709 1.644992 -18.103447
Cl -1.640725 4.934976 -18.103447
Cl -4.930709 4.934976 18.086379
Cl -1.640725 1.644992 18.086379
Cl -4.930709 18.094913 -1.653526
Cl -1.640725 18.094913 -4.943511
Cl -4.930709 18.094913 4.926442
Cl -1.640725 18.094913 1.636458
Cl 1.649259 -18.094913 -4.943511
Cl 4.939243 -18.094913 -1.653526
Cl 1.649259 -18.094913 1.636458
Cl 4.939243 -18.094913 4.926442
Cl 1.649259 -4.934976 -18.103447
Cl 4.939243 -1.644992 -18.103447
Cl 1.649259 -1.644992 18.086379
Cl 4.939243 -4.934976 18.086379
Cl 1.649259 1.644992 -18.103447
Cl 4.939243 4.934976 -18.103447
Cl 1.649259 4.934976 18.086379
Cl 4.939243 1.644992 18.086379
Cl 1.649259 18.094913 -1.653526
Cl 4.939243 18.094913 -4.943511
Cl 1.649259 18.094913 4.926442
Cl 4.939243 18.094913 1.636458
Cl 18.099180 -1.644992 -4.943511
Cl 18.099180 -4.934976 -1.653526
Cl 18.099180 -1.644992 1.636458
Cl 18.099180 -4.934976 4.926442
Cl 18.099180 4.934976 -4.943511
Cl 18.099180 1.644992 -1.653526
Cl 18.099180 4.934976 1.636458
Cl 18.099180 1.644992 4.926442
Cl -11.510678 -11.514945 4.926442
Cl -11.510678 4.934976 -11.523479
Cl 4.939243 -11.514945 -11.523479
Cl 4.939243 11.514945 11.506410
Cl -8.220693 -4.934976 14.796395
Cl -8.220693 14.804929 -4.943511
Cl 14.809196 -8.224961 -4.943511
Cl 14.809196 4.934976 8.216426
Cl -4.930709 -14.804929 8.216426
Cl -4.930709 8.224961 -14.813463
Cl 8.229228 -4.934976 -14.813463
Cl 8.229228 14.804929 4.926442
Cl -14.800662 -4.934976 8.216426
Cl -14.800662 8.224961 -4.943511
Cl 8.229228 -14.804929 -4.943511
Cl 8.229228 4.934976 14.796395
Cl 1.649259 -11.514945 14.796395
Cl 1.649259 14.804929 -11.523479
