711
PbTe-Te-Pb340Te309Cl62-clean
Pb -9.831092 -9.785088 -9.812690
Pb -13.101989 -13.055985 -3.270897
Pb -9.831092 -13.055985 -6.541794
Pb -13.101989 -9.785088 -6.541794
Pb -9.831092 -9.785088 -3.270897
Pb -13.101989 -13.055985 3.270897
Pb -9.831092 -13.055985 -0.000000
Pb -13.101989 -9.785088 -0.000000
Pb -9.831092 -9.785088 3.270897
Pb -9.831092 -13.055985 6.541794
Pb -13.101989 -9.785088 6.541794
Pb -9.831092 -9.785088 9.812690
Pb -13.101989 -6.514191 -9.812690
Pb -9.831092 -6.514191 -13.083587
Pb -13.101989 -3.243294 -13.083587
Pb -9.831092 -3.243294 -9.812690
Pb -13.101989 -6.514191 -3.270897
Pb -9.831092 -6.514191 -6.541794
Pb -13.101989 -3.243294 -6.541794
Pb -9.831092 -3.243294 -3.270897
Pb -13.101989 -6.514191 3.270897
Pb -9.831092 -6.514191 -0.000000
Pb -13.101989 -3.243294 -0.000000
Pb -9.831092 -3.243294 3.270897
Pb -13.101989 -6.514191 9.812690
Pb -9.831092 -6.514191 6.541794
Pb -13.101989 -3.243294 6.541794
Pb -9.831092 -3.243294 9.812690
Pb -9.831092 -6.514191 13.083587
Pb -13.101989 -3.243294 13.083587
Pb -13.101989 0.027603 -9.812690
Pb -9.831092 0.027603 -13.083587
Pb -13.101989 3.298499 -13.083587
Pb -9.831092 3.298499 -9.812690
Pb -13.101989 0.027603 -3.270897
Pb -9.831092 0.027603 -6.541794
Pb -13.101989 3.298499 -6.541794
Pb -9.831092 3.298499 -3.270897
Pb -13.101989 0.027603 3.270897
Pb -9.831092 0.027603 -0.000000
Pb -13.101989 3.298499 -0.000000
Pb -9.831092 3.298499 3.270897
Pb -13.101989 0.027603 9.812690
Pb -9.831092 0.027603 6.541794
Pb -13.101989 3.298499 6.541794
Pb -9.831092 3.298499 9.812690
Pb -9.831092 0.027603 13.083587
Pb -13.101989 3.298499 13.083587
Pb -13.101989 6.569396 -9.812690
Pb -9.831092 6.569396 -13.083587
Pb -9.831092 9.840293 -9.812690
Pb -13.101989 6.569396 -3.270897
Pb -9.831092 6.569396 -6.541794
Pb -13.101989 9.840293 -6.541794
Pb -9.831092 9.840293 -3.270897
Pb -13.101989 6.569396 3.270897
Pb -9.831092 6.569396 -0.000000
Pb -13.101989 9.840293 -0.000000
Pb -9.831092 9.840293 3.270897
Pb -13.101989 6.569396 9.812690
Pb -9.831092 6.569396 6.541794
Pb -13.101989 9.840293 6.541794
Pb -9.831092 9.840293 9.812690
Pb -9.831092 6.569396 13.083587
Pb -13.101989 13.111190 -3.270897
Pb -9.831092 13.111190 -6.541794
Pb -13.101989 13.111190 3.270897
Pb -9.831092 13.111190 0.000000
Pb -9.831092 13.111190 6.541794
Pb -6.560195 -13.055985 -9.812690
Pb -3.289298 -13.055985 -13.083587
Pb -6.560195 -9.785088 -13.083587
Pb -3.289298 -9.785088 -9.812690
Pb -6.560195 -13.055985 -3.270897
Pb -3.289298 -13.055985 -6.541794
Pb -6.560195 -9.785088 -6.541794
Pb -3.289298 -9.785088 -3.270897
Pb -6.560195 -13.055985 3.270897
Pb -3.289298 -13.055985 -0.000000
Pb -6.560195 -9.785088 -0.000000
Pb -3.289298 -9.785088 3.270897
Pb -6.560195 -13.055985 9.812690
Pb -3.289298 -13.055985 6.541794
Pb -6.560195 -9.785088 6.541794
Pb -3.289298 -9.785088 9.812690
Pb -3.289298 -13.055985 13.083587
Pb -6.560195 -9.785088 13.083587
Pb -6.560195 -6.514191 -9.812690
Pb -3.289298 -6.514191 -13.083587
Pb -6.560195 -3.243294 -13.083587
Pb -3.289298 -3.243294 -9.812690
Pb -6.560195 -6.514191 -3.270897
Pb -3.289298 -6.514191 -6.541794
Pb -6.560195 -3.243294 -6.541794
Pb -3.289298 -3.243294 -3.270897
Pb -6.560195 -6.514191 3.270897
Pb -3.289298 -6.514191 -0.000000
Pb -6.560195 -3.243294 -0.000000
Pb -3.289298 -3.243294 3.270897
Pb -6.560195 -6.514191 9.812690
Pb -3.289298 -6.514191 6.541794
Pb -6.560195 -3.243294 6.541794
Pb -3.289298 -3.243294 9.812690
Pb -3.289298 -6.514191 13.083587
Pb -6.560195 -3.243294 13.083587
Pb -6.560195 0.027603 -9.812690
Pb -3.289298 0.027603 -13.083587
Pb -6.560195 3.298499 -13.083587
Pb -3.289298 3.298499 -9.812690
Pb -6.560195 0.027603 -3.270897
Pb -3.289298 0.027603 -6.541794
Pb -6.560195 3.298499 -6.541794
Pb -3.289298 3.298499 -3.270897
Pb -6.560195 0.027603 3.270897
Pb -3.289298 0.027603 -0.000000
Pb -6.560195 3.298499 -0.000000
Pb -3.289298 3.298499 3.270897
Pb -6.560195 0.027603 9.812690
Pb -3.289298 0.027603 6.541794
Pb -6.560195 3.298499 6.541794
Pb -3.289298 3.298499 9.812690
Pb -3.289298 0.027603 13.083587
Pb -6.560195 3.298499 13.083587
Pb -6.560195 6.569396 -9.812690
Pb -3.289298 6.569396 -13.083587
Pb -6.560195 9.840293 -13.083587
Pb -3.289298 9.840293 -9.812690
Pb -6.560195 6.569396 -3.270897
Pb -3.289298 6.569396 -6.541794
Pb -6.560195 9.840293 -6.541794
Pb -3.289298 9.840293 -3.270897
Pb -6.560195 6.569396 3.270897
Pb -3.289298 6.569396 0.000000
Pb -6.560195 9.840293 0.000000
Pb -3.289298 9.840293 3.270897
Pb -6.560195 6.569396 9.812690
Pb -3.289298 6.569396 6.541794
Pb -6.560195 9.840293 6.541794
Pb -3.289298 9.840293 9.812690
Pb -3.289298 6.569396 13.083587
Pb -6.560195 9.840293 13.083587
Pb -6.560195 13.111190 -9.812690
Pb -3.289298 13.111190 -13.083587
Pb -6.560195 13.111190 -3.270897
Pb -3.289298 13.111190 -6.541794
Pb -6.560195 13.111190 3.270897
Pb -3.289298 13.111190 0.000000
Pb -6.560195 13.111190 9.812690
Pb -3.289298 13.111190 6.541794
Pb -3.289298 13.111190 13.083587
Pb -0.018402 -13.055985 -9.812690
Pb 3.252495 -13.055985 -13.083587
Pb -0.018402 -9.785088 -13.083587
Pb 3.252495 -9.785088 -9.812690
Pb -0.018402 -13.055985 -3.270897
Pb 3.252495 -13.055985 -6.541794
Pb -0.018402 -9.785088 -6.541794
Pb 3.252495 -9.785088 -3.270897
Pb -0.018402 -13.055985 3.270897
Pb 3.252495 -13.055985 -0.000000
Pb -0.018402 -9.785088 -0.000000
Pb 3.252495 -9.785088 3.270897
Pb -0.018402 -13.055985 9.812690
Pb 3.252495 -13.055985 6.541794
Pb -0.018402 -9.785088 6.541794
Pb 3.252495 -9.785088 9.812690
Pb 3.252495 -13.055985 13.083587
Pb -0.018402 -9.785088 13.083587
Pb -0.018402 -6.514191 -9.812690
Pb 3.252495 -6.514191 -13.083587
Pb -0.018402 -3.243294 -13.083587
Pb 3.252495 -3.243294 -9.812690
Pb -0.018402 -6.514191 -3.270897
Pb 3.252495 -6.514191 -6.541794
Pb -0.018402 -3.243294 -6.541794
Pb 3.252495 -3.243294 -3.270897
Pb -0.018402 -6.514191 3.270897
Pb 3.252495 -6.514191 -0.000000
Pb -0.018402 -3.243294 -0.000000
Pb 3.252495 -3.243294 3.270897
Pb -0.018402 -6.514191 9.812690
Pb 3.252495 -6.514191 6.541794
Pb -0.018402 -3.243294 6.541794
Pb 3.252495 -3.243294 9.812690
Pb 3.252495 -6.514191 13.083587
Pb -0.018402 -3.243294 13.083587
Pb -0.018402 0.027603 -9.812690
Pb 3.252495 0.027603 -13.083587
Pb -0.018402 3.298499 -13.083587
Pb 3.252495 3.298499 -9.812690
Pb -0.018402 0.027603 -3.270897
Pb 3.252495 0.027603 -6.541794
Pb -0.018402 3.298499 -6.541794
Pb 3.252495 3.298499 -3.270897
Pb -0.018402 0.027603 3.270897
Pb 3.252495 0.027603 0.000000
Pb -0.018402 3.298499 0.000000
Pb 3.252495 3.298499 3.270897
Pb -0.018402 0.027603 9.812690
Pb 3.252495 0.027603 6.541794
Pb -0.018402 3.298499 6.541794
Pb 3.252495 3.298499 9.812690
Pb 3.252495 0.027603 13.083587
Pb -0.018402 3.298499 13.083587
Pb -0.018402 6.569396 -9.812690
Pb 3.252495 6.569396 -13.083587
Pb -0.018402 9.840293 -13.083587
Pb 3.252495 9.840293 -9.812690
Pb -0.018402 6.569396 -3.270897
Pb 3.252495 6.569396 -6.541794
Pb -0.018402 9.840293 -6.541794
Pb 3.252495 9.840293 -3.270897
Pb -0.018402 6.569396 3.270897
Pb 3.252495 6.569396 0.000000
Pb -0.018402 9.840293 0.000000
Pb 3.252495 9.840293 3.270897
Pb -0.018402 6.569396 9.812690
Pb 3.252495 6.569396 6.541794
Pb -0.018402 9.840293 6.541794
Pb 3.252495 9.840293 9.812690
Pb 3.252495 6.569396 13.083587
Pb -0.018402 9.840293 13.083587
Pb -0.018402 13.111190 -9.812690
Pb 3.252495 13.111190 -13.083587
Pb -0.018402 13.111190 -3.270897
Pb 3.252495 13.111190 -6.541794
Pb -0.018402 13.111190 3.270897
Pb 3.252495 13.111190 0.000000
Pb -0.018402 13.111190 9.812690
Pb 3.252495 13.111190 6.541794
Pb 3.252495 13.111190 13.083587
Pb 6.523392 -13.055985 -9.812690
Pb 6.523392 -9.785088 -13.083587
Pb 9.794289 -9.785088 -9.812690
Pb 6.523392 -13.055985 -3.270897
Pb 9.794289 -13.055985 -6.541794
Pb 6.523392 -9.785088 -6.541794
Pb 9.794289 -9.785088 -3.270897
Pb 6.523392 -13.055985 3.270897
Pb 9.794289 -13.055985 -0.000000
Pb 6.523392 -9.785088 -0.000000
Pb 9.794289 -9.785088 3.270897
Pb 6.523392 -13.055985 9.812690
Pb 9.794289 -13.055985 6.541794
Pb 6.523392 -9.785088 6.541794
Pb 9.794289 -9.785088 9.812690
Pb 6.523392 -9.785088 13.083587
Pb 6.523392 -6.514191 -9.812690
Pb 9.794289 -6.514191 -13.083587
Pb 6.523392 -3.243294 -13.083587
Pb 9.794289 -3.243294 -9.812690
Pb 6.523392 -6.514191 -3.270897
Pb 9.794289 -6.514191 -6.541794
Pb 6.523392 -3.243294 -6.541794
Pb 9.794289 -3.243294 -3.270897
Pb 6.523392 -6.514191 3.270897
Pb 9.794289 -6.514191 0.000000
Pb 6.523392 -3.243294 0.000000
Pb 9.794289 -3.243294 3.270897
Pb 6.523392 -6.514191 9.812690
Pb 9.794289 -6.514191 6.541794
Pb 6.523392 -3.243294 6.541794
Pb 9.794289 -3.243294 9.812690
Pb 9.794289 -6.514191 13.083587
Pb 6.523392 -3.243294 13.083587
Pb 6.523392 0.027603 -9.812690
Pb 9.794289 0.027603 -13.083587
Pb 6.523392 3.298499 -13.083587
Pb 9.794289 3.298499 -9.812690
Pb 6.523392 0.027603 -3.270897
Pb 9.794289 0.027603 -6.541794
Pb 6.523392 3.298499 -6.541794
Pb 9.794289 3.298499 -3.270897
Pb 6.523392 0.027603 3.270897
Pb 9.794289 0.027603 0.000000
Pb 6.523392 3.298499 0.000000
Pb 9.794289 3.298499 3.270897
Pb 6.523392 0.027603 9.812690
Pb 9.794289 0.027603 6.541794
Pb 6.523392 3.298499 6.541794
Pb 9.794289 3.298499 9.812690
Pb 9.794289 0.027603 13.083587
Pb 6.523392 3.298499 13.083587
Pb 6.523392 6.569396 -9.812690
Pb 9.794289 6.569396 -13.083587
Pb 6.523392 9.840293 -13.083587
Pb 9.794289 9.840293 -9.812690
Pb 6.523392 6.569396 -3.270897
Pb 9.794289 6.569396 -6.541794
Pb 6.523392 9.840293 -6.541794
Pb 9.794289 9.840293 -3.270897
Pb 6.523392 6.569396 3.270897
Pb 9.794289 6.569396 0.000000
Pb 6.523392 9.840293 0.000000
Pb 9.794289 9.840293 3.270897
Pb 6.523392 6.569396 9.812690
Pb 9.794289 6.569396 6.541794
Pb 6.523392 9.840293 6.541794
Pb 9.794289 9.840293 9.812690
Pb 9.794289 6.569396 13.083587
Pb 6.523392 9.840293 13.083587
Pb 6.523392 13.111190 -9.812690
Pb 6.523392 13.111190 -3.270897
Pb 9.794289 13.111190 -6.541794
Pb 6.523392 13.111190 3.270897
Pb 9.794289 13.111190 0.000000
Pb 6.523392 13.111190 9.812690
Pb 9.794289 13.111190 6.541794
Pb 13.065186 -13.055985 -3.270897
Pb 13.065186 -9.785088 -6.541794
Pb 13.065186 -13.055985 3.270897
Pb 13.065186 -9.785088 0.000000
Pb 13.065186 -9.785088 6.541794
Pb 13.065186 -6.514191 -9.812690
Pb 13.065186 -3.243294 -13.083587
Pb 13.065186 -6.514191 -3.270897
Pb 13.065186 -3.243294 -6.541794
Pb 13.065186 -6.514191 3.270897
Pb 13.065186 -3.243294 0.000000
Pb 13.065186 -6.514191 9.812690
Pb 13.065186 -3.243294 6.541794
Pb 13.065186 -3.243294 13.083587
Pb 13.065186 0.027603 -9.812690
Pb 13.065186 3.298499 -13.083587
Pb 13.065186 0.027603 -3.270897
Pb 13.065186 3.298499 -6.541794
Pb 13.065186 0.027603 3.270897
Pb 13.065186 3.298499 0.000000
Pb 13.065186 0.027603 9.812690
Pb 13.065186 3.298499 6.541794
Pb 13.065186 3.298499 13.083587
Pb 13.065186 6.569396 -9.812690
Pb 13.065186 6.569396 -3.270897
Pb 13.065186 9.840293 -6.541794
Pb 13.065186 6.569396 3.270897
Pb 13.065186 9.840293 0.000000
Pb 13.065186 6.569396 9.812690
Pb 13.065186 9.840293 6.541794
Pb 13.065186 13.111190 -3.270897
Pb 13.065186 13.111190 3.270897
Te -9.831092 -9.785088 -6.541794
Te -9.831092 -13.055985 -3.270897
Te -13.101989 -9.785088 -3.270897
Te -13.101989 -13.055985 -0.000000
Te -9.831092 -9.785088 -0.000000
Te -9.831092 -13.055985 3.270897
Te -13.101989 -9.785088 3.270897
Te -9.831092 -9.785088 6.541794
Te -9.831092 -3.243294 -13.083587
Te -9.831092 -6.514191 -9.812690
Te -13.101989 -3.243294 -9.812690
Te -13.101989 -6.514191 -6.541794
Te -9.831092 -3.243294 -6.541794
Te -9.831092 -6.514191 -3.270897
Te -13.101989 -3.243294 -3.270897
Te -13.101989 -6.514191 -0.000000
Te -9.831092 -3.243294 -0.000000
Te -9.831092 -6.514191 3.270897
Te -13.101989 -3.243294 3.270897
Te -13.101989 -6.514191 6.541794
Te -9.831092 -3.243294 6.541794
Te -9.831092 -6.514191 9.812690
Te -13.101989 -3.243294 9.812690
Te -9.831092 -3.243294 13.083587
Te -13.101989 0.027603 -13.083587
Te -9.831092 3.298499 -13.083587
Te -9.831092 0.027603 -9.812690
Te -13.101989 3.298499 -9.812690
Te -13.101989 0.027603 -6.541794
Te -9.831092 3.298499 -6.541794
Te -9.831092 0.027603 -3.270897
Te -13.101989 3.298499 -3.270897
Te -13.101989 0.027603 -0.000000
Te -9.831092 3.298499 -0.000000
Te -9.831092 0.027603 3.270897
Te -13.101989 3.298499 3.270897
Te -13.101989 0.027603 6.541794
Te -9.831092 3.298499 6.541794
Te -9.831092 0.027603 9.812690
Te -13.101989 3.298499 9.812690
Te -13.101989 0.027603 13.083587
Te -9.831092 3.298499 13.083587
Te -9.831092 6.569396 -9.812690
Te -13.101989 6.569396 -6.541794
Te -9.831092 9.840293 -6.541794
Te -9.831092 6.569396 -3.270897
Te -13.101989 9.840293 -3.270897
Te -13.101989 6.569396 -0.000000
Te -9.831092 9.840293 0.000000
Te -9.831092 6.569396 3.270897
Te -13.101989 9.840293 3.270897
Te -13.101989 6.569396 6.541794
Te -9.831092 9.840293 6.541794
Te -9.831092 6.569396 9.812690
Te -9.831092 13.111190 -3.270897
Te -13.101989 13.111190 0.000000
Te -9.831092 13.111190 3.270897
Te -3.289298 -9.785088 -13.083587
Te -3.289298 -13.055985 -9.812690
Te -6.560195 -9.785088 -9.812690
Te -6.560195 -13.055985 -6.541794
Te -3.289298 -9.785088 -6.541794
Te -3.289298 -13.055985 -3.270897
Te -6.560195 -9.785088 -3.270897
Te -6.560195 -13.055985 -0.000000
Te -3.289298 -9.785088 -0.000000
Te -3.289298 -13.055985 3.270897
Te -6.560195 -9.785088 3.270897
Te -6.560195 -13.055985 6.541794
Te -3.289298 -9.785088 6.541794
Te -3.289298 -13.055985 9.812690
Te -6.560195 -9.785088 9.812690
Te -3.289298 -9.785088 13.083587
Te -6.560195 -6.514191 -13.083587
Te -3.289298 -3.243294 -13.083587
Te -3.289298 -6.514191 -9.812690
Te -6.560195 -3.243294 -9.812690
Te -6.560195 -6.514191 -6.541794
Te -3.289298 -3.243294 -6.541794
Te -3.289298 -6.514191 -3.270897
Te -6.560195 -3.243294 -3.270897
Te -6.560195 -6.514191 -0.000000
Te -3.289298 -3.243294 -0.000000
Te -3.289298 -6.514191 3.270897
Te -6.560195 -3.243294 3.270897
Te -6.560195 -6.514191 6.541794
Te -3.289298 -3.243294 6.541794
Te -3.289298 -6.514191 9.812690
Te -6.560195 -3.243294 9.812690
Te -6.560195 -6.514191 13.083587
Te -3.289298 -3.243294 13.083587
Te -6.560195 0.027603 -13.083587
Te -3.289298 3.298499 -13.083587
Te -3.289298 0.027603 -9.812690
Te -6.560195 3.298499 -9.812690
Te -6.560195 0.027603 -6.541794
Te -3.289298 3.298499 -6.541794
Te -3.289298 0.027603 -3.270897
Te -6.560195 3.298499 -3.270897
Te -6.560195 0.027603 -0.000000
Te -3.289298 3.298499 0.000000
Te -3.289298 0.027603 3.270897
Te -6.560195 3.298499 3.270897
Te -6.560195 0.027603 6.541794
Te -3.289298 3.298499 6.541794
Te -3.289298 0.027603 9.812690
Te -6.560195 3.298499 9.812690
Te -6.560195 0.027603 13.083587
Te -3.289298 3.298499 13.083587
Te -6.560195 6.569396 -13.083587
Te -3.289298 9.840293 -13.083587
Te -3.289298 6.569396 -9.812690
Te -6.560195 9.840293 -9.812690
Te -6.560195 6.569396 -6.541794
Te -3.289298 9.840293 -6.541794
Te -3.289298 6.569396 -3.270897
Te -6.560195 9.840293 -3.270897
Te -6.560195 6.569396 0.000000
Te -3.289298 9.840293 0.000000
Te -3.289298 6.569396 3.270897
Te -6.560195 9.840293 3.270897
Te -6.560195 6.569396 6.541794
Te -3.289298 9.840293 6.541794
Te -3.289298 6.569396 9.812690
Te -6.560195 9.840293 9.812690
Te -6.560195 6.569396 13.083587
Te -3.289298 9.840293 13.083587
Te -3.289298 13.111190 -9.812690
Te -6.560195 13.111190 -6.541794
Te -3.289298 13.111190 -3.270897
Te -6.560195 13.111190 0.000000
Te -3.289298 13.111190 3.270897
Te -6.560195 13.111190 6.541794
Te -3.289298 13.111190 9.812690
Te -0.018402 -13.055985 -13.083587
Te 3.252495 -9.785088 -13.083587
Te 3.252495 -13.055985 -9.812690
Te -0.018402 -9.785088 -9.812690
Te -0.018402 -13.055985 -6.541794
Te 3.252495 -9.785088 -6.541794
Te 3.252495 -13.055985 -3.270897
Te -0.018402 -9.785088 -3.270897
Te -0.018402 -13.055985 -0.000000
Te 3.252495 -9.785088 -0.000000
Te 3.252495 -13.055985 3.270897
Te -0.018402 -9.785088 3.270897
Te -0.018402 -13.055985 6.541794
Te 3.252495 -9.785088 6.541794
Te 3.252495 -13.055985 9.812690
Te -0.018402 -9.785088 9.812690
Te -0.018402 -13.055985 13.083587
Te 3.252495 -9.785088 13.083587
Te -0.018402 -6.514191 -13.083587
Te 3.252495 -3.243294 -13.083587
Te 3.252495 -6.514191 -9.812690
Te -0.018402 -3.243294 -9.812690
Te -0.018402 -6.514191 -6.541794
Te 3.252495 -3.243294 -6.541794
Te 3.252495 -6.514191 -3.270897
Te -0.018402 -3.243294 -3.270897
Te -0.018402 -6.514191 -0.000000
Te 3.252495 -3.243294 0.000000
Te 3.252495 -6.514191 3.270897
Te -0.018402 -3.243294 3.270897
Te -0.018402 -6.514191 6.541794
Te 3.252495 -3.243294 6.541794
Te 3.252495 -6.514191 9.812690
Te -0.018402 -3.243294 9.812690
Te -0.018402 -6.514191 13.083587
Te 3.252495 -3.243294 13.083587
Te -0.018402 0.027603 -13.083587
Te 3.252495 3.298499 -13.083587
Te 3.252495 0.027603 -9.812690
Te -0.018402 3.298499 -9.812690
Te -0.018402 0.027603 -6.541794
Te 3.252495 3.298499 -6.541794
Te 3.252495 0.027603 -3.270897
Te -0.018402 3.298499 -3.270897
Te -0.018402 0.027603 0.000000
Te 3.252495 3.298499 0.000000
Te 3.252495 0.027603 3.270897
Te -0.018402 3.298499 3.270897
Te -0.018402 0.027603 6.541794
Te 3.252495 3.298499 6.541794
Te 3.252495 0.027603 9.812690
Te -0.018402 3.298499 9.812690
Te -0.018402 0.027603 13.083587
Te 3.252495 3.298499 13.083587
Te -0.018402 6.569396 -13.083587
Te 3.252495 9.840293 -13.083587
Te 3.252495 6.569396 -9.812690
Te -0.018402 9.840293 -9.812690
Te -0.018402 6.569396 -6.541794
Te 3.252495 9.840293 -6.541794
Te 3.252495 6.569396 -3.270897
Te -0.018402 9.840293 -3.270897
Te -0.018402 6.569396 0.000000
Te 3.252495 9.840293 0.000000
Te 3.252495 6.569396 3.270897
Te -0.018402 9.840293 3.270897
Te -0.018402 6.569396 6.541794
Te 3.252495 9.840293 6.541794
Te 3.252495 6.569396 9.812690
Te -0.018402 9.840293 9.812690
Te -0.018402 6.569396 13.083587
Te 3.252495 9.840293 13.083587
Te -0.018402 13.111190 -13.083587
Te 3.252495 13.111190 -9.812690
Te -0.018402 13.111190 -6.541794
Te 3.252495 13.111190 -3.270897
Te -0.018402 13.111190 0.000000
Te 3.252495 13.111190 3.270897
Te -0.018402 13.111190 6.541794
Te 3.252495 13.111190 9.812690
Te -0.018402 13.111190 13.083587
Te 6.523392 -9.785088 -9.812690
Te 6.523392 -13.055985 -6.541794
Te 9.794289 -9.785088 -6.541794
Te 9.794289 -13.055985 -3.270897
Te 6.523392 -9.785088 -3.270897
Te 6.523392 -13.055985 -0.000000
Te 9.794289 -9.785088 0.000000
Te 9.794289 -13.055985 3.270897
Te 6.523392 -9.785088 3.270897
Te 6.523392 -13.055985 6.541794
Te 9.794289 -9.785088 6.541794
Te 6.523392 -9.785088 9.812690
Te 6.523392 -6.514191 -13.083587
Te 9.794289 -3.243294 -13.083587
Te 9.794289 -6.514191 -9.812690
Te 6.523392 -3.243294 -9.812690
Te 6.523392 -6.514191 -6.541794
Te 9.794289 -3.243294 -6.541794
Te 9.794289 -6.514191 -3.270897
Te 6.523392 -3.243294 -3.270897
Te 6.523392 -6.514191 0.000000
Te 9.794289 -3.243294 0.000000
Te 9.794289 -6.514191 3.270897
Te 6.523392 -3.243294 3.270897
Te 6.523392 -6.514191 6.541794
Te 9.794289 -3.243294 6.541794
Te 9.794289 -6.514191 9.812690
Te 6.523392 -3.243294 9.812690
Te 6.523392 -6.514191 13.083587
Te 9.794289 -3.243294 13.083587
Te 6.523392 0.027603 -13.083587
Te 9.794289 3.298499 -13.083587
Te 9.794289 0.027603 -9.812690
Te 6.523392 3.298499 -9.812690
Te 6.523392 0.027603 -6.541794
Te 9.794289 3.298499 -6.541794
Te 9.794289 0.027603 -3.270897
Te 6.523392 3.298499 -3.270897
Te 6.523392 0.027603 0.000000
Te 9.794289 3.298499 0.000000
Te 9.794289 0.027603 3.270897
Te 6.523392 3.298499 3.270897
Te 6.523392 0.027603 6.541794
Te 9.794289 3.298499 6.541794
Te 9.794289 0.027603 9.812690
Te 6.523392 3.298499 9.812690
Te 6.523392 0.027603 13.083587
Te 9.794289 3.298499 13.083587
Te 6.523392 6.569396 -13.083587
Te 9.794289 6.569396 -9.812690
Te 6.523392 9.840293 -9.812690
Te 6.523392 6.569396 -6.541794
Te 9.794289 9.840293 -6.541794
Te 9.794289 6.569396 -3.270897
Te 6.523392 9.840293 -3.270897
Te 6.523392 6.569396 0.000000
Te 9.794289 9.840293 0.000000
Te 9.794289 6.569396 3.270897
Te 6.523392 9.840293 3.270897
Te 6.523392 6.569396 6.541794
Te 9.794289 9.840293 6.541794
Te 9.794289 6.569396 9.812690
Te 6.523392 9.840293 9.812690
Te 6.523392 6.569396 13.083587
Te 6.523392 13.111190 -6.541794
Te 9.794289 13.111190 -3.270897
Te 6.523392 13.111190 0.000000
Te 9.794289 13.111190 3.270897
Te 6.523392 13.111190 6.541794
Te 13.065186 -9.785088 -3.270897
Te 13.065186 -13.055985 0.000000
Te 13.065186 -9.785088 3.270897
Te 13.065186 -3.243294 -9.812690
Te 13.065186 -6.514191 -6.541794
Te 13.065186 -3.243294 -3.270897
Te 13.065186 -6.514191 0.000000
Te 13.065186 -3.243294 3.270897
Te 13.065186 -6.514191 6.541794
Te 13.065186 -3.243294 9.812690
Te 13.065186 0.027603 -13.083587
Te 13.065186 3.298499 -9.812690
Te 13.065186 0.027603 -6.541794
Te 13.065186 3.298499 -3.270897
Te 13.065186 0.027603 0.000000
Te 13.065186 3.298499 3.270897
Te 13.065186 0.027603 6.541794
Te 13.065186 3.298499 9.812690
Te 13.065186 0.027603 13.083587
Te 13.065186 6.569396 -6.541794
Te 13.065186 9.840293 -3.270897
Te 13.065186 6.569396 0.000000
Te 13.065186 9.840293 3.270897
Te 13.065186 6.569396 6.541794
Te 13.065186 13.111190 0.000000
Cl -13.101989 -9.785088 -9.812690
Cl 13.065186 6.569396 13.083587
Cl -13.101989 13.111190 6.541794
Cl 6.523392 13.111190 -13.083587
Cl 13.065186 -13.055985 -6.541794
Cl -6.560195 -13.055985 13.083587
Cl -13.101989 6.569396 -13.083587
Cl 9.794289 -13.055985 9.812690
Cl -13.101989 -13.055985 6.541794
Cl -13.101989 6.569396 13.083587
Cl -13.101989 13.111190 -6.541794
Cl 6.523392 -13.055985 -13.083587
Cl 6.523392 13.111190 13.083587
Cl 13.065186 13.111190 -6.541794
Cl -6.560195 -13.055985 -13.083587
Cl 13.065186 -6.514191 13.083587
Cl -13.101989 -6.514191 13.083587
Cl -6.560195 13.111190 -13.083587
Cl -6.560195 13.111190 13.083587
Cl 13.065186 -6.514191 -13.083587
Cl 13.065186 6.569396 -13.083587
Cl 13.065186 13.111190 6.541794
Cl -13.101989 -13.055985 -6.541794
Cl 6.523392 -13.055985 13.083587
Cl -13.101989 -6.514191 -13.083587
Cl 13.065186 -13.055985 6.541794
Cl -9.831092 -13.055985 9.812690
Cl -13.101989 9.840293 -9.812690
Cl -13.101989 9.840293 9.812690
Cl 9.794289 -9.785088 -13.083587
Cl 9.794289 9.840293 -13.083587
Cl 9.794289 9.840293 13.083587
Cl -9.831092 -9.785088 -13.083587
Cl -13.101989 -9.785088 9.812690
Cl -9.831092 9.840293 -13.083587
Cl -9.831092 9.840293 13.083587
Cl 9.794289 -13.055985 -9.812690
Cl 9.794289 -9.785088 13.083587
Cl 9.794289 13.111190 -9.812690
Cl 9.794289 13.111190 9.812690
Cl -9.831092 -13.055985 -9.812690
Cl -9.831092 -9.785088 13.083587
Cl -9.831092 13.111190 -9.812690
Cl -9.831092 13.111190 9.812690
Cl 13.065186 -9.785088 9.812690
Cl 13.065186 9.840293 -9.812690
Cl 13.065186 9.840293 9.812690
Cl 13.065186 -9.785088 -9.812690
Cl -16.372886 -13.055985 -3.270897
Cl -13.101989 -16.326882 3.270897
Cl -13.101989 -3.243294 -16.354484
Cl -13.101989 -3.243294 16.354484
Cl -13.101989 16.382087 -3.270897
Cl 16.336082 -13.055985 -3.270897
Cl -16.372886 13.111190 3.270897
Cl 13.065186 3.298499 -16.354484
Cl 13.065186 3.298499 16.354484
Cl 13.065186 16.382087 3.270897
Cl 13.065186 -16.326882 3.270897
Cl 16.336082 13.111190 -3.270897
Cl -3.289298 -16.326882 -13.083587
Cl 16.336082 -3.243294 13.083587
