1916
GaP-Ga-Ga827P696Cl393-reconstructed
Ga -19.085667 -13.619815 -10.884044
Ga -19.085667 -10.894003 -13.609857
Ga -19.085667 -8.168190 -10.884044
Ga -19.085667 -10.894003 -8.158232
Ga -19.085667 -8.168190 -5.432419
Ga -19.085667 -5.442378 -8.158232
Ga -19.085667 -2.716565 -5.432419
Ga -19.085667 -5.442378 -2.706607
Ga -19.085667 -2.716565 0.019206
Ga -19.085667 0.009247 -2.706607
Ga -19.085667 2.735060 0.019206
Ga -19.085667 0.009247 2.745018
Ga -19.085667 2.735060 5.470831
Ga -19.085667 5.460872 2.745018
Ga -19.085667 8.186685 5.470831
Ga -19.085667 5.460872 8.196643
Ga -19.085667 8.186685 10.922456
Ga -19.085667 10.912497 8.196643
Ga -19.085667 13.638310 10.922456
Ga -19.085667 10.912497 13.648268
Ga -13.634042 -19.071440 -10.884044
Ga -13.634042 -16.345628 -13.609857
Ga -16.359854 -13.619815 -13.609857
Ga -16.359854 -16.345628 -10.884044
Ga -13.634042 -13.619815 -10.884044
Ga -13.634042 -16.345628 -8.158232
Ga -16.359854 -13.619815 -8.158232
Ga -13.634042 -13.619815 -5.432419
Ga -13.634042 -10.894003 -19.061482
Ga -16.359854 -10.894003 -16.335669
Ga -13.634042 -8.168190 -16.335669
Ga -13.634042 -10.894003 -13.609857
Ga -16.359854 -8.168190 -13.609857
Ga -16.359854 -10.894003 -10.884044
Ga -13.634042 -8.168190 -10.884044
Ga -13.634042 -10.894003 -8.158232
Ga -16.359854 -8.168190 -8.158232
Ga -16.359854 -10.894003 -5.432419
Ga -13.634042 -8.168190 -5.432419
Ga -13.634042 -10.894003 -2.706607
Ga -16.359854 -8.168190 -2.706607
Ga -13.634042 -8.168190 0.019206
Ga -13.634042 -5.442378 -13.609857
Ga -16.359854 -5.442378 -10.884044
Ga -13.634042 -2.716565 -10.884044
Ga -13.634042 -5.442378 -8.158232
Ga -16.359854 -2.716565 -8.158232
Ga -16.359854 -5.442378 -5.432419
Ga -13.634042 -2.716565 -5.432419
Ga -13.634042 -5.442378 -2.706607
Ga -16.359854 -2.716565 -2.706607
Ga -16.359854 -5.442378 0.019206
Ga -13.634042 -2.716565 0.019206
Ga -13.634042 -5.442378 2.745018
Ga -16.359854 -2.716565 2.745018
Ga -13.634042 -2.716565 5.470831
Ga -13.634042 0.009247 -8.158232
Ga -16.359854 0.009247 -5.432419
Ga -13.634042 2.735060 -5.432419
Ga -13.634042 0.009247 -2.706607
Ga -16.359854 2.735060 -2.706607
Ga -16.359854 0.009247 0.019206
Ga -13.634042 2.735060 0.019206
Ga -13.634042 0.009247 2.745018
Ga -16.359854 2.735060 2.745018
Ga -16.359854 0.009247 5.470831
Ga -13.634042 2.735060 5.470831
Ga -13.634042 0.009247 8.196643
Ga -16.359854 2.735060 8.196643
Ga -13.634042 2.735060 10.922456
Ga -13.634042 5.460872 -2.706607
Ga -16.359854 5.460872 0.019206
Ga -13.634042 8.186685 0.019206
Ga -13.634042 5.460872 2.745018
Ga -16.359854 8.186685 2.745018
Ga -16.359854 5.460872 5.470831
Ga -13.634042 8.186685 5.470831
Ga -13.634042 5.460872 8.196643
Ga -16.359854 8.186685 8.196643
Ga -16.359854 5.460872 10.922456
Ga -13.634042 8.186685 10.922456
Ga -13.634042 5.460872 13.648268
Ga -16.359854 8.186685 13.648268
Ga -13.634042 8.186685 16.374081
Ga -13.634042 10.912497 2.745018
Ga -16.359854 10.912497 5.470831
Ga -13.634042 13.638310 5.470831
Ga -13.634042 10.912497 8.196643
Ga -16.359854 13.638310 8.196643
Ga -16.359854 10.912497 10.922456
Ga -13.634042 13.638310 10.922456
Ga -13.634042 10.912497 13.648268
Ga -16.359854 13.638310 13.648268
Ga -16.359854 10.912497 16.374081
Ga -13.634042 10.912497 19.099893
Ga -13.634042 16.364122 8.196643
Ga -16.359854 16.364122 10.922456
Ga -13.634042 19.089935 10.922456
Ga -13.634042 16.364122 13.648268
Ga -10.908229 -19.071440 -13.609857
Ga -8.182417 -19.071440 -10.884044
Ga -10.908229 -19.071440 -8.158232
Ga -8.182417 -19.071440 -5.432419
Ga -10.908229 -13.619815 -19.061482
Ga -10.908229 -16.345628 -16.335669
Ga -8.182417 -16.345628 -13.609857
Ga -10.908229 -13.619815 -13.609857
Ga -10.908229 -16.345628 -10.884044
Ga -8.182417 -13.619815 -10.884044
Ga -8.182417 -16.345628 -8.158232
Ga -10.908229 -13.619815 -8.158232
Ga -10.908229 -16.345628 -5.432419
Ga -8.182417 -13.619815 -5.432419
Ga -8.182417 -16.345628 -2.706607
Ga -10.908229 -13.619815 -2.706607
Ga -8.182417 -13.619815 0.019206
Ga -8.182417 -10.894003 -19.061482
Ga -10.908229 -8.168190 -19.061482
Ga -10.908229 -10.894003 -16.335669
Ga -8.182417 -8.168190 -16.335669
Ga -8.182417 -10.894003 -13.609857
Ga -10.908229 -8.168190 -13.609857
Ga -10.908229 -10.894003 -10.884044
Ga -8.182417 -8.168190 -10.884044
Ga -8.182417 -10.894003 -8.158232
Ga -10.908229 -8.168190 -8.158232
Ga -10.908229 -10.894003 -5.432419
Ga -8.182417 -8.168190 -5.432419
Ga -8.182417 -10.894003 -2.706607
Ga -10.908229 -8.168190 -2.706607
Ga -10.908229 -10.894003 0.019206
Ga -8.182417 -8.168190 0.019206
Ga -8.182417 -10.894003 2.745018
Ga -10.908229 -8.168190 2.745018
Ga -8.182417 -8.168190 5.470831
Ga -8.182417 -5.442378 -19.061482
Ga -10.908229 -5.442378 -16.335669
Ga -8.182417 -2.716565 -16.335669
Ga -8.182417 -5.442378 -13.609857
Ga -10.908229 -2.716565 -13.609857
Ga -10.908229 -5.442378 -10.884044
Ga -8.182417 -2.716565 -10.884044
Ga -8.182417 -5.442378 -8.158232
Ga -10.908229 -2.716565 -8.158232
Ga -10.908229 -5.442378 -5.432419
Ga -8.182417 -2.716565 -5.432419
Ga -8.182417 -5.442378 -2.706607
Ga -10.908229 -2.716565 -2.706607
Ga -10.908229 -5.442378 0.019206
Ga -8.182417 -2.716565 0.019206
Ga -8.182417 -5.442378 2.745018
Ga -10.908229 -2.716565 2.745018
Ga -10.908229 -5.442378 5.470831
Ga -8.182417 -2.716565 5.470831
Ga -8.182417 -5.442378 8.196643
Ga -10.908229 -2.716565 8.196643
Ga -8.182417 -2.716565 10.922456
Ga -8.182417 0.009247 -13.609857
Ga -10.908229 0.009247 -10.884044
Ga -8.182417 2.735060 -10.884044
Ga -8.182417 0.009247 -8.158232
Ga -10.908229 2.735060 -8.158232
Ga -10.908229 0.009247 -5.432419
Ga -8.182417 2.735060 -5.432419
Ga -8.182417 0.009247 -2.706607
Ga -10.908229 2.735060 -2.706607
Ga -10.908229 0.009247 0.019206
Ga -8.182417 2.735060 0.019206
Ga -8.182417 0.009247 2.745018
Ga -10.908229 2.735060 2.745018
Ga -10.908229 0.009247 5.470831
Ga -8.182417 2.735060 5.470831
Ga -8.182417 0.009247 8.196643
Ga -10.908229 2.735060 8.196643
Ga -10.908229 0.009247 10.922456
Ga -8.182417 2.735060 10.922456
Ga -8.182417 0.009247 13.648268
Ga -10.908229 2.735060 13.648268
Ga -8.182417 2.735060 16.374081
Ga -8.182417 5.460872 -8.158232
Ga -10.908229 5.460872 -5.432419
Ga -8.182417 8.186685 -5.432419
Ga -8.182417 5.460872 -2.706607
Ga -10.908229 8.186685 -2.706607
Ga -10.908229 5.460872 0.019206
Ga -8.182417 8.186685 0.019206
Ga -8.182417 5.460872 2.745018
Ga -10.908229 8.186685 2.745018
Ga -10.908229 5.460872 5.470831
Ga -8.182417 8.186685 5.470831
Ga -8.182417 5.460872 8.196643
Ga -10.908229 8.186685 8.196643
Ga -10.908229 5.460872 10.922456
Ga -8.182417 8.186685 10.922456
Ga -8.182417 5.460872 13.648268
Ga -10.908229 8.186685 13.648268
Ga -10.908229 5.460872 16.374081
Ga -8.182417 8.186685 16.374081
Ga -8.182417 5.460872 19.099893
Ga -10.908229 8.186685 19.099893
Ga -8.182417 10.912497 -2.706607
Ga -10.908229 10.912497 0.019206
Ga -8.182417 13.638310 0.019206
Ga -8.182417 10.912497 2.745018
Ga -10.908229 13.638310 2.745018
Ga -10.908229 10.912497 5.470831
Ga -8.182417 13.638310 5.470831
Ga -8.182417 10.912497 8.196643
Ga -10.908229 13.638310 8.196643
Ga -10.908229 10.912497 10.922456
Ga -8.182417 13.638310 10.922456
Ga -8.182417 10.912497 13.648268
Ga -10.908229 13.638310 13.648268
Ga -10.908229 10.912497 16.374081
Ga -8.182417 10.912497 19.099893
Ga -10.908229 13.638310 19.099893
Ga -8.182417 16.364122 2.745018
Ga -10.908229 16.364122 5.470831
Ga -8.182417 19.089935 5.470831
Ga -8.182417 16.364122 8.196643
Ga -10.908229 19.089935 8.196643
Ga -10.908229 16.364122 10.922456
Ga -8.182417 19.089935 10.922456
Ga -8.182417 16.364122 13.648268
Ga -10.908229 19.089935 13.648268
Ga -10.908229 16.364122 16.374081
Ga -5.456604 -19.071440 -8.158232
Ga -2.730792 -19.071440 -5.432419
Ga -5.456604 -19.071440 -2.706607
Ga -2.730792 -19.071440 0.019206
Ga -5.456604 -13.619815 -13.609857
Ga -5.456604 -16.345628 -10.884044
Ga -2.730792 -13.619815 -10.884044
Ga -2.730792 -16.345628 -8.158232
Ga -5.456604 -13.619815 -8.158232
Ga -5.456604 -16.345628 -5.432419
Ga -2.730792 -13.619815 -5.432419
Ga -2.730792 -16.345628 -2.706607
Ga -5.456604 -13.619815 -2.706607
Ga -5.456604 -16.345628 0.019206
Ga -2.730792 -13.619815 0.019206
Ga -2.730792 -16.345628 2.745018
Ga -5.456604 -13.619815 2.745018
Ga -2.730792 -13.619815 5.470831
Ga -5.456604 -8.168190 -19.061482
Ga -5.456604 -10.894003 -16.335669
Ga -2.730792 -8.168190 -16.335669
Ga -2.730792 -10.894003 -13.609857
Ga -5.456604 -8.168190 -13.609857
Ga -5.456604 -10.894003 -10.884044
Ga -2.730792 -8.168190 -10.884044
Ga -2.730792 -10.894003 -8.158232
Ga -5.456604 -8.168190 -8.158232
Ga -5.456604 -10.894003 -5.432419
Ga -2.730792 -8.168190 -5.432419
Ga -2.730792 -10.894003 -2.706607
Ga -5.456604 -8.168190 -2.706607
Ga -5.456604 -10.894003 0.019206
Ga -2.730792 -8.168190 0.019206
Ga -2.730792 -10.894003 2.745018
Ga -5.456604 -8.168190 2.745018
Ga -5.456604 -10.894003 5.470831
Ga -2.730792 -8.168190 5.470831
Ga -2.730792 -10.894003 8.196643
Ga -5.456604 -8.168190 8.196643
Ga -2.730792 -8.168190 10.922456
Ga -2.730792 -5.442378 -19.061482
Ga -5.456604 -2.716565 -19.061482
Ga -5.456604 -5.442378 -16.335669
Ga -2.730792 -2.716565 -16.335669
Ga -2.730792 -5.442378 -13.609857
Ga -5.456604 -2.716565 -13.609857
Ga -5.456604 -5.442378 -10.884044
Ga -2.730792 -2.716565 -10.884044
Ga -2.730792 -5.442378 -8.158232
Ga -5.456604 -2.716565 -8.158232
Ga -5.456604 -5.442378 -5.432419
Ga -2.730792 -2.716565 -5.432419
Ga -2.730792 -5.442378 -2.706607
Ga -5.456604 -2.716565 -2.706607
Ga -5.456604 -5.442378 0.019206
Ga -2.730792 -2.716565 0.019206
Ga -2.730792 -5.442378 2.745018
Ga -5.456604 -2.716565 2.745018
Ga -5.456604 -5.442378 5.470831
Ga -2.730792 -2.716565 5.470831
Ga -2.730792 -5.442378 8.196643
Ga -5.456604 -2.716565 8.196643
Ga -5.456604 -5.442378 10.922456
Ga -2.730792 -2.716565 10.922456
Ga -2.730792 -5.442378 13.648268
Ga -5.456604 -2.716565 13.648268
Ga -2.730792 -2.716565 16.374081
Ga -2.730792 0.009247 -19.061482
Ga -5.456604 0.009247 -16.335669
Ga -2.730792 2.735060 -16.335669
Ga -2.730792 0.009247 -13.609857
Ga -5.456604 2.735060 -13.609857
Ga -5.456604 0.009247 -10.884044
Ga -2.730792 2.735060 -10.884044
Ga -2.730792 0.009247 -8.158232
Ga -5.456604 2.735060 -8.158232
Ga -5.456604 0.009247 -5.432419
Ga -2.730792 2.735060 -5.432419
Ga -2.730792 0.009247 -2.706607
Ga -5.456604 2.735060 -2.706607
Ga -5.456604 0.009247 0.019206
Ga -2.730792 2.735060 0.019206
Ga -2.730792 0.009247 2.745018
Ga -5.456604 2.735060 2.745018
Ga -5.456604 0.009247 5.470831
Ga -2.730792 2.735060 5.470831
Ga -2.730792 0.009247 8.196643
Ga -5.456604 2.735060 8.196643
Ga -5.456604 0.009247 10.922456
Ga -2.730792 2.735060 10.922456
Ga -2.730792 0.009247 13.648268
Ga -5.456604 2.735060 13.648268
Ga -5.456604 0.009247 16.374081
Ga -2.730792 2.735060 16.374081
Ga -2.730792 0.009247 19.099893
Ga -5.456604 2.735060 19.099893
Ga -2.730792 5.460872 -13.609857
Ga -5.456604 5.460872 -10.884044
Ga -2.730792 8.186685 -10.884044
Ga -2.730792 5.460872 -8.158232
Ga -5.456604 8.186685 -8.158232
Ga -5.456604 5.460872 -5.432419
Ga -2.730792 8.186685 -5.432419
Ga -2.730792 5.460872 -2.706607
Ga -5.456604 8.186685 -2.706607
Ga -5.456604 5.460872 0.019206
Ga -2.730792 8.186685 0.019206
Ga -2.730792 5.460872 2.745018
Ga -5.456604 8.186685 2.745018
Ga -5.456604 5.460872 5.470831
Ga -2.730792 8.186685 5.470831
Ga -2.730792 5.460872 8.196643
Ga -5.456604 8.186685 8.196643
Ga -5.456604 5.460872 10.922456
Ga -2.730792 8.186685 10.922456
Ga -2.730792 5.460872 13.648268
Ga -5.456604 8.186685 13.648268
Ga -5.456604 5.460872 16.374081
Ga -2.730792 8.186685 16.374081
Ga -2.730792 5.460872 19.099893
Ga -5.456604 8.186685 19.099893
Ga -2.730792 10.912497 -8.158232
Ga -5.456604 10.912497 -5.432419
Ga -2.730792 13.638310 -5.432419
Ga -2.730792 10.912497 -2.706607
Ga -5.456604 13.638310 -2.706607
Ga -5.456604 10.912497 0.019206
Ga -2.730792 13.638310 0.019206
Ga -2.730792 10.912497 2.745018
Ga -5.456604 13.638310 2.745018
Ga -5.456604 10.912497 5.470831
Ga -2.730792 13.638310 5.470831
Ga -2.730792 10.912497 8.196643
Ga -5.456604 13.638310 8.196643
Ga -5.456604 10.912497 10.922456
Ga -2.730792 13.638310 10.922456
Ga -2.730792 10.912497 13.648268
Ga -5.456604 13.638310 13.648268
Ga -5.456604 10.912497 16.374081
Ga -2.730792 16.364122 -2.706607
Ga -5.456604 16.364122 0.019206
Ga -2.730792 19.089935 0.019206
Ga -2.730792 16.364122 2.745018
Ga -5.456604 19.089935 2.745018
Ga -5.456604 16.364122 5.470831
Ga -2.730792 19.089935 5.470831
Ga -2.730792 16.364122 8.196643
Ga -5.456604 19.089935 8.196643
Ga -5.456604 16.364122 10.922456
Ga -0.004979 -19.071440 -2.706607
Ga 2.720833 -19.071440 0.019206
Ga -0.004979 -19.071440 2.745018
Ga 2.720833 -19.071440 5.470831
Ga -0.004979 -13.619815 -8.158232
Ga -0.004979 -16.345628 -5.432419
Ga 2.720833 -13.619815 -5.432419
Ga 2.720833 -16.345628 -2.706607
Ga -0.004979 -13.619815 -2.706607
Ga -0.004979 -16.345628 0.019206
Ga 2.720833 -13.619815 0.019206
Ga 2.720833 -16.345628 2.745018
Ga -0.004979 -13.619815 2.745018
Ga -0.004979 -16.345628 5.470831
Ga 2.720833 -13.619815 5.470831
Ga 2.720833 -16.345628 8.196643
Ga -0.004979 -13.619815 8.196643
Ga 2.720833 -13.619815 10.922456
Ga -0.004979 -8.168190 -13.609857
Ga -0.004979 -10.894003 -10.884044
Ga 2.720833 -8.168190 -10.884044
Ga 2.720833 -10.894003 -8.158232
Ga -0.004979 -8.168190 -8.158232
Ga -0.004979 -10.894003 -5.432419
Ga 2.720833 -8.168190 -5.432419
Ga 2.720833 -10.894003 -2.706607
Ga -0.004979 -8.168190 -2.706607
Ga -0.004979 -10.894003 0.019206
Ga 2.720833 -8.168190 0.019206
Ga 2.720833 -10.894003 2.745018
Ga -0.004979 -8.168190 2.745018
Ga -0.004979 -10.894003 5.470831
Ga 2.720833 -8.168190 5.470831
Ga 2.720833 -10.894003 8.196643
Ga -0.004979 -8.168190 8.196643
Ga -0.004979 -10.894003 10.922456
Ga 2.720833 -8.168190 10.922456
Ga 2.720833 -10.894003 13.648268
Ga -0.004979 -8.168190 13.648268
Ga 2.720833 -8.168190 16.374081
Ga -0.004979 -2.716565 -19.061482
Ga -0.004979 -5.442378 -16.335669
Ga 2.720833 -2.716565 -16.335669
Ga 2.720833 -5.442378 -13.609857
Ga -0.004979 -2.716565 -13.609857
Ga -0.004979 -5.442378 -10.884044
Ga 2.720833 -2.716565 -10.884044
Ga 2.720833 -5.442378 -8.158232
Ga -0.004979 -2.716565 -8.158232
Ga -0.004979 -5.442378 -5.432419
Ga 2.720833 -2.716565 -5.432419
Ga 2.720833 -5.442378 -2.706607
Ga -0.004979 -2.716565 -2.706607
Ga -0.004979 -5.442378 0.019206
Ga 2.720833 -2.716565 0.019206
Ga 2.720833 -5.442378 2.745018
Ga -0.004979 -2.716565 2.745018
Ga -0.004979 -5.442378 5.470831
Ga 2.720833 -2.716565 5.470831
Ga 2.720833 -5.442378 8.196643
Ga -0.004979 -2.716565 8.196643
Ga -0.004979 -5.442378 10.922456
Ga 2.720833 -2.716565 10.922456
Ga 2.720833 -5.442378 13.648268
Ga -0.004979 -2.716565 13.648268
Ga -0.004979 -5.442378 16.374081
Ga 2.720833 -2.716565 16.374081
Ga 2.720833 -5.442378 19.099893
Ga -0.004979 -2.716565 19.099893
Ga 2.720833 0.009247 -19.061482
Ga -0.004979 2.735060 -19.061482
Ga -0.004979 0.009247 -16.335669
Ga 2.720833 2.735060 -16.335669
Ga 2.720833 0.009247 -13.609857
Ga -0.004979 2.735060 -13.609857
Ga -0.004979 0.009247 -10.884044
Ga 2.720833 2.735060 -10.884044
Ga 2.720833 0.009247 -8.158232
Ga -0.004979 2.735060 -8.158232
Ga -0.004979 0.009247 -5.432419
Ga 2.720833 2.735060 -5.432419
Ga 2.720833 0.009247 -2.706607
Ga -0.004979 2.735060 -2.706607
Ga -0.004979 0.009247 0.019206
Ga 2.720833 2.735060 0.019206
Ga 2.720833 0.009247 2.745018
Ga -0.004979 2.735060 2.745018
Ga -0.004979 0.009247 5.470831
Ga 2.720833 2.735060 5.470831
Ga 2.720833 0.009247 8.196643
Ga -0.004979 2.735060 8.196643
Ga -0.004979 0.009247 10.922456
Ga 2.720833 2.735060 10.922456
Ga 2.720833 0.009247 13.648268
Ga -0.004979 2.735060 13.648268
Ga -0.004979 0.009247 16.374081
Ga 2.720833 2.735060 16.374081
Ga 2.720833 0.009247 19.099893
Ga -0.004979 2.735060 19.099893
Ga 2.720833 5.460872 -19.061482
Ga -0.004979 5.460872 -16.335669
Ga 2.720833 8.186685 -16.335669
Ga 2.720833 5.460872 -13.609857
Ga -0.004979 8.186685 -13.609857
Ga -0.004979 5.460872 -10.884044
Ga 2.720833 8.186685 -10.884044
Ga 2.720833 5.460872 -8.158232
Ga -0.004979 8.186685 -8.158232
Ga -0.004979 5.460872 -5.432419
Ga 2.720833 8.186685 -5.432419
Ga 2.720833 5.460872 -2.706607
Ga -0.004979 8.186685 -2.706607
Ga -0.004979 5.460872 0.019206
Ga 2.720833 8.186685 0.019206
Ga 2.720833 5.460872 2.745018
Ga -0.004979 8.186685 2.745018
Ga -0.004979 5.460872 5.470831
Ga 2.720833 8.186685 5.470831
Ga 2.720833 5.460872 8.196643
Ga -0.004979 8.186685 8.196643
Ga -0.004979 5.460872 10.922456
Ga 2.720833 8.186685 10.922456
Ga 2.720833 5.460872 13.648268
Ga -0.004979 8.186685 13.648268
Ga -0.004979 5.460872 16.374081
Ga 2.720833 10.912497 -13.609857
Ga -0.004979 10.912497 -10.884044
Ga 2.720833 13.638310 -10.884044
Ga 2.720833 10.912497 -8.158232
Ga -0.004979 13.638310 -8.158232
Ga -0.004979 10.912497 -5.432419
Ga 2.720833 13.638310 -5.432419
Ga 2.720833 10.912497 -2.706607
Ga -0.004979 13.638310 -2.706607
Ga -0.004979 10.912497 0.019206
Ga 2.720833 13.638310 0.019206
Ga 2.720833 10.912497 2.745018
Ga -0.004979 13.638310 2.745018
Ga -0.004979 10.912497 5.470831
Ga 2.720833 13.638310 5.470831
Ga 2.720833 10.912497 8.196643
Ga -0.004979 13.638310 8.196643
Ga -0.004979 10.912497 10.922456
Ga 2.720833 16.364122 -8.158232
Ga -0.004979 16.364122 -5.432419
Ga 2.720833 19.089935 -5.432419
Ga 2.720833 16.364122 -2.706607
Ga -0.004979 19.089935 -2.706607
Ga -0.004979 16.364122 0.019206
Ga 2.720833 19.089935 0.019206
Ga 2.720833 16.364122 2.745018
Ga -0.004979 19.089935 2.745018
Ga -0.004979 16.364122 5.470831
Ga 5.446646 -19.071440 2.745018
Ga 8.172458 -19.071440 5.470831
Ga 5.446646 -19.071440 8.196643
Ga 8.172458 -19.071440 10.922456
Ga 5.446646 -13.619815 -2.706607
Ga 5.446646 -16.345628 0.019206
Ga 8.172458 -13.619815 0.019206
Ga 8.172458 -16.345628 2.745018
Ga 5.446646 -13.619815 2.745018
Ga 5.446646 -16.345628 5.470831
Ga 8.172458 -13.619815 5.470831
Ga 8.172458 -16.345628 8.196643
Ga 5.446646 -13.619815 8.196643
Ga 5.446646 -16.345628 10.922456
Ga 8.172458 -13.619815 10.922456
Ga 8.172458 -16.345628 13.648268
Ga 5.446646 -13.619815 13.648268
Ga 5.446646 -8.168190 -8.158232
Ga 5.446646 -10.894003 -5.432419
Ga 8.172458 -8.168190 -5.432419
Ga 8.172458 -10.894003 -2.706607
Ga 5.446646 -8.168190 -2.706607
Ga 5.446646 -10.894003 0.019206
Ga 8.172458 -8.168190 0.019206
Ga 8.172458 -10.894003 2.745018
Ga 5.446646 -8.168190 2.745018
Ga 5.446646 -10.894003 5.470831
Ga 8.172458 -8.168190 5.470831
Ga 8.172458 -10.894003 8.196643
Ga 5.446646 -8.168190 8.196643
Ga 5.446646 -10.894003 10.922456
Ga 8.172458 -8.168190 10.922456
Ga 8.172458 -10.894003 13.648268
Ga 5.446646 -8.168190 13.648268
Ga 5.446646 -10.894003 16.374081
Ga 8.172458 -8.168190 16.374081
Ga 8.172458 -10.894003 19.099893
Ga 5.446646 -8.168190 19.099893
Ga 5.446646 -2.716565 -13.609857
Ga 5.446646 -5.442378 -10.884044
Ga 8.172458 -2.716565 -10.884044
Ga 8.172458 -5.442378 -8.158232
Ga 5.446646 -2.716565 -8.158232
Ga 5.446646 -5.442378 -5.432419
Ga 8.172458 -2.716565 -5.432419
Ga 8.172458 -5.442378 -2.706607
Ga 5.446646 -2.716565 -2.706607
Ga 5.446646 -5.442378 0.019206
Ga 8.172458 -2.716565 0.019206
Ga 8.172458 -5.442378 2.745018
Ga 5.446646 -2.716565 2.745018
Ga 5.446646 -5.442378 5.470831
Ga 8.172458 -2.716565 5.470831
Ga 8.172458 -5.442378 8.196643
Ga 5.446646 -2.716565 8.196643
Ga 5.446646 -5.442378 10.922456
Ga 8.172458 -2.716565 10.922456
Ga 8.172458 -5.442378 13.648268
Ga 5.446646 -2.716565 13.648268
Ga 5.446646 -5.442378 16.374081
Ga 8.172458 -2.716565 16.374081
Ga 8.172458 -5.442378 19.099893
Ga 5.446646 -2.716565 19.099893
Ga 5.446646 2.735060 -19.061482
Ga 5.446646 0.009247 -16.335669
Ga 8.172458 2.735060 -16.335669
Ga 8.172458 0.009247 -13.609857
Ga 5.446646 2.735060 -13.609857
Ga 5.446646 0.009247 -10.884044
Ga 8.172458 2.735060 -10.884044
Ga 8.172458 0.009247 -8.158232
Ga 5.446646 2.735060 -8.158232
Ga 5.446646 0.009247 -5.432419
Ga 8.172458 2.735060 -5.432419
Ga 8.172458 0.009247 -2.706607
Ga 5.446646 2.735060 -2.706607
Ga 5.446646 0.009247 0.019206
Ga 8.172458 2.735060 0.019206
Ga 8.172458 0.009247 2.745018
Ga 5.446646 2.735060 2.745018
Ga 5.446646 0.009247 5.470831
Ga 8.172458 2.735060 5.470831
Ga 8.172458 0.009247 8.196643
Ga 5.446646 2.735060 8.196643
Ga 5.446646 0.009247 10.922456
Ga 8.172458 2.735060 10.922456
Ga 8.172458 0.009247 13.648268
Ga 5.446646 2.735060 13.648268
Ga 5.446646 0.009247 16.374081
Ga 8.172458 5.460872 -19.061482
Ga 5.446646 8.186685 -19.061482
Ga 5.446646 5.460872 -16.335669
Ga 8.172458 8.186685 -16.335669
Ga 8.172458 5.460872 -13.609857
Ga 5.446646 8.186685 -13.609857
Ga 5.446646 5.460872 -10.884044
Ga 8.172458 8.186685 -10.884044
Ga 8.172458 5.460872 -8.158232
Ga 5.446646 8.186685 -8.158232
Ga 5.446646 5.460872 -5.432419
Ga 8.172458 8.186685 -5.432419
Ga 8.172458 5.460872 -2.706607
Ga 5.446646 8.186685 -2.706607
Ga 5.446646 5.460872 0.019206
Ga 8.172458 8.186685 0.019206
Ga 8.172458 5.460872 2.745018
Ga 5.446646 8.186685 2.745018
Ga 5.446646 5.460872 5.470831
Ga 8.172458 8.186685 5.470831
Ga 8.172458 5.460872 8.196643
Ga 5.446646 8.186685 8.196643
Ga 5.446646 5.460872 10.922456
Ga 8.172458 10.912497 -19.061482
Ga 5.446646 10.912497 -16.335669
Ga 8.172458 10.912497 -13.609857
Ga 5.446646 13.638310 -13.609857
Ga 5.446646 10.912497 -10.884044
Ga 8.172458 13.638310 -10.884044
Ga 8.172458 10.912497 -8.158232
Ga 5.446646 13.638310 -8.158232
Ga 5.446646 10.912497 -5.432419
Ga 8.172458 13.638310 -5.432419
Ga 8.172458 10.912497 -2.706607
Ga 5.446646 13.638310 -2.706607
Ga 5.446646 10.912497 0.019206
Ga 8.172458 13.638310 0.019206
Ga 8.172458 10.912497 2.745018
Ga 5.446646 13.638310 2.745018
Ga 5.446646 10.912497 5.470831
Ga 8.172458 16.364122 -13.609857
Ga 5.446646 16.364122 -10.884044
Ga 8.172458 19.089935 -10.884044
Ga 8.172458 16.364122 -8.158232
Ga 5.446646 19.089935 -8.158232
Ga 5.446646 16.364122 -5.432419
Ga 8.172458 19.089935 -5.432419
Ga 8.172458 16.364122 -2.706607
Ga 5.446646 19.089935 -2.706607
Ga 5.446646 16.364122 0.019206
Ga 10.898271 -19.071440 8.196643
Ga 13.624083 -19.071440 10.922456
Ga 10.898271 -19.071440 13.648268
Ga 10.898271 -13.619815 2.745018
Ga 10.898271 -16.345628 5.470831
Ga 13.624083 -13.619815 5.470831
Ga 13.624083 -16.345628 8.196643
Ga 10.898271 -13.619815 8.196643
Ga 10.898271 -16.345628 10.922456
Ga 13.624083 -13.619815 10.922456
Ga 13.624083 -16.345628 13.648268
Ga 10.898271 -13.619815 13.648268
Ga 10.898271 -16.345628 16.374081
Ga 10.898271 -13.619815 19.099893
Ga 10.898271 -8.168190 -2.706607
Ga 10.898271 -10.894003 0.019206
Ga 13.624083 -8.168190 0.019206
Ga 13.624083 -10.894003 2.745018
Ga 10.898271 -8.168190 2.745018
Ga 10.898271 -10.894003 5.470831
Ga 13.624083 -8.168190 5.470831
Ga 13.624083 -10.894003 8.196643
Ga 10.898271 -8.168190 8.196643
Ga 10.898271 -10.894003 10.922456
Ga 13.624083 -8.168190 10.922456
Ga 13.624083 -10.894003 13.648268
Ga 10.898271 -8.168190 13.648268
Ga 10.898271 -10.894003 16.374081
Ga 13.624083 -8.168190 16.374081
Ga 13.624083 -10.894003 19.099893
Ga 10.898271 -8.168190 19.099893
Ga 10.898271 -2.716565 -8.158232
Ga 10.898271 -5.442378 -5.432419
Ga 13.624083 -2.716565 -5.432419
Ga 13.624083 -5.442378 -2.706607
Ga 10.898271 -2.716565 -2.706607
Ga 10.898271 -5.442378 0.019206
Ga 13.624083 -2.716565 0.019206
Ga 13.624083 -5.442378 2.745018
Ga 10.898271 -2.716565 2.745018
Ga 10.898271 -5.442378 5.470831
Ga 13.624083 -2.716565 5.470831
Ga 13.624083 -5.442378 8.196643
Ga 10.898271 -2.716565 8.196643
Ga 10.898271 -5.442378 10.922456
Ga 13.624083 -2.716565 10.922456
Ga 13.624083 -5.442378 13.648268
Ga 10.898271 -2.716565 13.648268
Ga 10.898271 -5.442378 16.374081
Ga 10.898271 2.735060 -13.609857
Ga 10.898271 0.009247 -10.884044
Ga 13.624083 2.735060 -10.884044
Ga 13.624083 0.009247 -8.158232
Ga 10.898271 2.735060 -8.158232
Ga 10.898271 0.009247 -5.432419
Ga 13.624083 2.735060 -5.432419
Ga 13.624083 0.009247 -2.706607
Ga 10.898271 2.735060 -2.706607
Ga 10.898271 0.009247 0.019206
Ga 13.624083 2.735060 0.019206
Ga 13.624083 0.009247 2.745018
Ga 10.898271 2.735060 2.745018
Ga 10.898271 0.009247 5.470831
Ga 13.624083 2.735060 5.470831
Ga 13.624083 0.009247 8.196643
Ga 10.898271 2.735060 8.196643
Ga 10.898271 0.009247 10.922456
Ga 10.898271 8.186685 -19.061482
Ga 10.898271 5.460872 -16.335669
Ga 13.624083 8.186685 -16.335669
Ga 13.624083 5.460872 -13.609857
Ga 10.898271 8.186685 -13.609857
Ga 10.898271 5.460872 -10.884044
Ga 13.624083 8.186685 -10.884044
Ga 13.624083 5.460872 -8.158232
Ga 10.898271 8.186685 -8.158232
Ga 10.898271 5.460872 -5.432419
Ga 13.624083 8.186685 -5.432419
Ga 13.624083 5.460872 -2.706607
Ga 10.898271 8.186685 -2.706607
Ga 10.898271 5.460872 0.019206
Ga 13.624083 8.186685 0.019206
Ga 13.624083 5.460872 2.745018
Ga 10.898271 8.186685 2.745018
Ga 10.898271 5.460872 5.470831
Ga 13.624083 10.912497 -19.061482
Ga 10.898271 13.638310 -19.061482
Ga 10.898271 10.912497 -16.335669
Ga 13.624083 10.912497 -13.609857
Ga 10.898271 13.638310 -13.609857
Ga 10.898271 10.912497 -10.884044
Ga 13.624083 13.638310 -10.884044
Ga 13.624083 10.912497 -8.158232
Ga 10.898271 13.638310 -8.158232
Ga 10.898271 10.912497 -5.432419
Ga 13.624083 13.638310 -5.432419
Ga 13.624083 10.912497 -2.706607
Ga 10.898271 13.638310 -2.706607
Ga 10.898271 10.912497 0.019206
Ga 10.898271 16.364122 -16.335669
Ga 13.624083 16.364122 -13.609857
Ga 10.898271 19.089935 -13.609857
Ga 10.898271 16.364122 -10.884044
Ga 13.624083 19.089935 -10.884044
Ga 13.624083 16.364122 -8.158232
Ga 10.898271 19.089935 -8.158232
Ga 10.898271 16.364122 -5.432419
Ga 16.349896 -13.619815 8.196643
Ga 16.349896 -16.345628 10.922456
Ga 19.075708 -13.619815 10.922456
Ga 16.349896 -13.619815 13.648268
Ga 16.349896 -8.168190 2.745018
Ga 16.349896 -10.894003 5.470831
Ga 19.075708 -8.168190 5.470831
Ga 19.075708 -10.894003 8.196643
Ga 16.349896 -8.168190 8.196643
Ga 16.349896 -10.894003 10.922456
Ga 19.075708 -8.168190 10.922456
Ga 19.075708 -10.894003 13.648268
Ga 16.349896 -8.168190 13.648268
Ga 16.349896 -10.894003 16.374081
Ga 16.349896 -2.716565 -2.706607
Ga 16.349896 -5.442378 0.019206
Ga 19.075708 -2.716565 0.019206
Ga 19.075708 -5.442378 2.745018
Ga 16.349896 -2.716565 2.745018
Ga 16.349896 -5.442378 5.470831
Ga 19.075708 -2.716565 5.470831
Ga 19.075708 -5.442378 8.196643
Ga 16.349896 -2.716565 8.196643
Ga 16.349896 -5.442378 10.922456
Ga 16.349896 2.735060 -8.158232
Ga 16.349896 0.009247 -5.432419
Ga 19.075708 2.735060 -5.432419
Ga 19.075708 0.009247 -2.706607
Ga 16.349896 2.735060 -2.706607
Ga 16.349896 0.009247 0.019206
Ga 19.075708 2.735060 0.019206
Ga 19.075708 0.009247 2.745018
Ga 16.349896 2.735060 2.745018
Ga 16.349896 0.009247 5.470831
Ga 16.349896 8.186685 -13.609857
Ga 16.349896 5.460872 -10.884044
Ga 19.075708 8.186685 -10.884044
Ga 19.075708 5.460872 -8.158232
Ga 16.349896 8.186685 -8.158232
Ga 16.349896 5.460872 -5.432419
Ga 19.075708 8.186685 -5.432419
Ga 19.075708 5.460872 -2.706607
Ga 16.349896 8.186685 -2.706607
Ga 16.349896 5.460872 0.019206
Ga 16.349896 10.912497 -16.335669
Ga 19.075708 10.912497 -13.609857
Ga 16.349896 13.638310 -13.609857
Ga 16.349896 10.912497 -10.884044
Ga 19.075708 13.638310 -10.884044
Ga 19.075708 10.912497 -8.158232
Ga 16.349896 13.638310 -8.158232
Ga 16.349896 10.912497 -5.432419
Ga 16.349896 16.364122 -10.884044
P -17.722761 -12.256909 -14.972763
P -17.722761 -12.256909 -9.521138
P -17.722761 -9.531096 -12.246950
P -17.722761 -6.805284 -9.521138
P -17.722761 -9.531096 -6.795325
P -17.722761 -6.805284 -4.069513
P -17.722761 -4.079471 -6.795325
P -17.722761 -1.353659 -4.069513
P -17.722761 -4.079471 -1.343700
P -17.722761 -1.353659 1.382112
P -17.722761 1.372154 -1.343700
P -17.722761 4.097966 1.382112
P -17.722761 1.372154 4.107925
P -17.722761 4.097966 6.833737
P -17.722761 6.823779 4.107925
P -17.722761 9.549591 6.833737
P -17.722761 6.823779 9.559550
P -17.722761 9.549591 12.285362
P -17.722761 12.275404 9.559550
P -17.722761 12.275404 15.011175
P -14.996948 -17.708534 -12.246950
P -12.271136 -17.708534 -9.521138
P -14.996948 -12.256909 -12.246950
P -12.271136 -12.256909 -14.972763
P -12.271136 -14.982721 -12.246950
P -14.996948 -14.982721 -9.521138
P -14.996948 -12.256909 -6.795325
P -12.271136 -12.256909 -9.521138
P -12.271136 -14.982721 -6.795325
P -12.271136 -12.256909 -4.069513
P -12.271136 -9.531096 -17.698575
P -14.996948 -9.531096 -14.972763
P -14.996948 -6.805284 -12.246950
P -12.271136 -6.805284 -14.972763
P -12.271136 -9.531096 -12.246950
P -14.996948 -9.531096 -9.521138
P -14.996948 -6.805284 -6.795325
P -12.271136 -6.805284 -9.521138
P -12.271136 -9.531096 -6.795325
P -14.996948 -9.531096 -4.069513
P -14.996948 -6.805284 -1.343700
P -12.271136 -6.805284 -4.069513
P -12.271136 -9.531096 -1.343700
P -12.271136 -6.805284 1.382112
P -12.271136 -4.079471 -12.246950
P -14.996948 -4.079471 -9.521138
P -14.996948 -1.353659 -6.795325
P -12.271136 -1.353659 -9.521138
P -12.271136 -4.079471 -6.795325
P -14.996948 -4.079471 -4.069513
P -14.996948 -1.353659 -1.343700
P -12.271136 -1.353659 -4.069513
P -12.271136 -4.079471 -1.343700
P -14.996948 -4.079471 1.382112
P -14.996948 -1.353659 4.107925
P -12.271136 -1.353659 1.382112
P -12.271136 -4.079471 4.107925
P -12.271136 -1.353659 6.833737
P -12.271136 1.372154 -6.795325
P -14.996948 1.372154 -4.069513
P -14.996948 4.097966 -1.343700
P -12.271136 4.097966 -4.069513
P -12.271136 1.372154 -1.343700
P -14.996948 1.372154 1.382112
P -14.996948 4.097966 4.107925
P -12.271136 4.097966 1.382112
P -12.271136 1.372154 4.107925
P -14.996948 1.372154 6.833737
P -14.996948 4.097966 9.559550
P -12.271136 4.097966 6.833737
P -12.271136 1.372154 9.559550
P -12.271136 4.097966 12.285362
P -12.271136 6.823779 -1.343700
P -14.996948 6.823779 1.382112
P -14.996948 9.549591 4.107925
P -12.271136 9.549591 1.382112
P -12.271136 6.823779 4.107925
P -14.996948 6.823779 6.833737
P -14.996948 9.549591 9.559550
P -12.271136 9.549591 6.833737
P -12.271136 6.823779 9.559550
P -14.996948 6.823779 12.285362
P -14.996948 9.549591 15.011175
P -12.271136 9.549591 12.285362
P -12.271136 6.823779 15.011175
P -12.271136 9.549591 17.736987
P -12.271136 12.275404 4.107925
P -14.996948 12.275404 6.833737
P -14.996948 15.001216 9.559550
P -12.271136 15.001216 6.833737
P -12.271136 12.275404 9.559550
P -14.996948 12.275404 12.285362
P -12.271136 15.001216 12.285362
P -12.271136 12.275404 15.011175
P -12.271136 17.727028 9.559550
P -14.996948 17.727028 12.285362
P -9.545323 -17.708534 -12.246950
P -9.545323 -17.708534 -6.795325
P -6.819511 -17.708534 -9.521138
P -6.819511 -17.708534 -4.069513
P -9.545323 -12.256909 -17.698575
P -9.545323 -14.982721 -14.972763
P -9.545323 -12.256909 -12.246950
P -6.819511 -12.256909 -14.972763
P -6.819511 -14.982721 -12.246950
P -9.545323 -14.982721 -9.521138
P -9.545323 -12.256909 -6.795325
P -6.819511 -12.256909 -9.521138
P -6.819511 -14.982721 -6.795325
P -9.545323 -14.982721 -4.069513
P -9.545323 -12.256909 -1.343700
P -6.819511 -12.256909 -4.069513
P -6.819511 -14.982721 -1.343700
P -6.819511 -12.256909 1.382112
P -9.545323 -6.805284 -17.698575
P -6.819511 -9.531096 -17.698575
P -9.545323 -9.531096 -14.972763
P -9.545323 -6.805284 -12.246950
P -6.819511 -6.805284 -14.972763
P -6.819511 -9.531096 -12.246950
P -9.545323 -9.531096 -9.521138
P -9.545323 -6.805284 -6.795325
P -6.819511 -6.805284 -9.521138
P -6.819511 -9.531096 -6.795325
P -9.545323 -9.531096 -4.069513
P -9.545323 -6.805284 -1.343700
P -6.819511 -6.805284 -4.069513
P -6.819511 -9.531096 -1.343700
P -9.545323 -9.531096 1.382112
P -9.545323 -6.805284 4.107925
P -6.819511 -6.805284 1.382112
P -6.819511 -9.531096 4.107925
P -6.819511 -6.805284 6.833737
P -6.819511 -4.079471 -17.698575
P -9.545323 -4.079471 -14.972763
P -9.545323 -1.353659 -12.246950
P -6.819511 -1.353659 -14.972763
P -6.819511 -4.079471 -12.246950
P -9.545323 -4.079471 -9.521138
P -9.545323 -1.353659 -6.795325
P -6.819511 -1.353659 -9.521138
P -6.819511 -4.079471 -6.795325
P -9.545323 -4.079471 -4.069513
P -9.545323 -1.353659 -1.343700
P -6.819511 -1.353659 -4.069513
P -6.819511 -4.079471 -1.343700
P -9.545323 -4.079471 1.382112
P -9.545323 -1.353659 4.107925
P -6.819511 -1.353659 1.382112
P -6.819511 -4.079471 4.107925
P -9.545323 -4.079471 6.833737
P -9.545323 -1.353659 9.559550
P -6.819511 -1.353659 6.833737
P -6.819511 -4.079471 9.559550
P -6.819511 -1.353659 12.285362
P -6.819511 1.372154 -12.246950
P -9.545323 1.372154 -9.521138
P -9.545323 4.097966 -6.795325
P -6.819511 4.097966 -9.521138
P -6.819511 1.372154 -6.795325
P -9.545323 1.372154 -4.069513
P -9.545323 4.097966 -1.343700
P -6.819511 4.097966 -4.069513
P -6.819511 1.372154 -1.343700
P -9.545323 1.372154 1.382112
P -9.545323 4.097966 4.107925
P -6.819511 4.097966 1.382112
P -6.819511 1.372154 4.107925
P -9.545323 1.372154 6.833737
P -9.545323 4.097966 9.559550
P -6.819511 4.097966 6.833737
P -6.819511 1.372154 9.559550
P -9.545323 1.372154 12.285362
P -9.545323 4.097966 15.011175
P -6.819511 4.097966 12.285362
P -6.819511 1.372154 15.011175
P -6.819511 4.097966 17.736987
P -6.819511 6.823779 -6.795325
P -9.545323 6.823779 -4.069513
P -9.545323 9.549591 -1.343700
P -6.819511 9.549591 -4.069513
P -6.819511 6.823779 -1.343700
P -9.545323 6.823779 1.382112
P -9.545323 9.549591 4.107925
P -6.819511 9.549591 1.382112
P -6.819511 6.823779 4.107925
P -9.545323 6.823779 6.833737
P -9.545323 9.549591 9.559550
P -6.819511 9.549591 6.833737
P -6.819511 6.823779 9.559550
P -9.545323 6.823779 12.285362
P -9.545323 9.549591 15.011175
P -6.819511 9.549591 12.285362
P -6.819511 6.823779 15.011175
P -9.545323 6.823779 17.736987
P -6.819511 9.549591 17.736987
P -6.819511 12.275404 -1.343700
P -9.545323 12.275404 1.382112
P -9.545323 15.001216 4.107925
P -6.819511 15.001216 1.382112
P -6.819511 12.275404 4.107925
P -9.545323 12.275404 6.833737
P -9.545323 15.001216 9.559550
P -6.819511 15.001216 6.833737
P -6.819511 12.275404 9.559550
P -9.545323 12.275404 12.285362
P -9.545323 15.001216 15.011175
P -6.819511 15.001216 12.285362
P -6.819511 12.275404 15.011175
P -9.545323 12.275404 17.736987
P -6.819511 17.727028 4.107925
P -9.545323 17.727028 6.833737
P -6.819511 17.727028 9.559550
P -9.545323 17.727028 12.285362
P -4.093698 -17.708534 -6.795325
P -4.093698 -17.708534 -1.343700
P -1.367886 -17.708534 -4.069513
P -1.367886 -17.708534 1.382112
P -4.093698 -12.256909 -12.246950
P -4.093698 -14.982721 -9.521138
P -4.093698 -12.256909 -6.795325
P -1.367886 -12.256909 -9.521138
P -1.367886 -14.982721 -6.795325
P -4.093698 -14.982721 -4.069513
P -4.093698 -12.256909 -1.343700
P -1.367886 -12.256909 -4.069513
P -1.367886 -14.982721 -1.343700
P -4.093698 -14.982721 1.382112
P -4.093698 -12.256909 4.107925
P -1.367886 -12.256909 1.382112
P -1.367886 -14.982721 4.107925
P -1.367886 -12.256909 6.833737
P -4.093698 -6.805284 -17.698575
P -4.093698 -9.531096 -14.972763
P -4.093698 -6.805284 -12.246950
P -1.367886 -6.805284 -14.972763
P -1.367886 -9.531096 -12.246950
P -4.093698 -9.531096 -9.521138
P -4.093698 -6.805284 -6.795325
P -1.367886 -6.805284 -9.521138
P -1.367886 -9.531096 -6.795325
P -4.093698 -9.531096 -4.069513
P -4.093698 -6.805284 -1.343700
P -1.367886 -6.805284 -4.069513
P -1.367886 -9.531096 -1.343700
P -4.093698 -9.531096 1.382112
P -4.093698 -6.805284 4.107925
P -1.367886 -6.805284 1.382112
P -1.367886 -9.531096 4.107925
P -4.093698 -9.531096 6.833737
P -4.093698 -6.805284 9.559550
P -1.367886 -6.805284 6.833737
P -1.367886 -9.531096 9.559550
P -1.367886 -6.805284 12.285362
P -4.093698 -1.353659 -17.698575
P -1.367886 -4.079471 -17.698575
P -4.093698 -4.079471 -14.972763
P -4.093698 -1.353659 -12.246950
P -1.367886 -1.353659 -14.972763
P -1.367886 -4.079471 -12.246950
P -4.093698 -4.079471 -9.521138
P -4.093698 -1.353659 -6.795325
P -1.367886 -1.353659 -9.521138
P -1.367886 -4.079471 -6.795325
P -4.093698 -4.079471 -4.069513
P -4.093698 -1.353659 -1.343700
P -1.367886 -1.353659 -4.069513
P -1.367886 -4.079471 -1.343700
P -4.093698 -4.079471 1.382112
P -4.093698 -1.353659 4.107925
P -1.367886 -1.353659 1.382112
P -1.367886 -4.079471 4.107925
P -4.093698 -4.079471 6.833737
P -4.093698 -1.353659 9.559550
P -1.367886 -1.353659 6.833737
P -1.367886 -4.079471 9.559550
P -4.093698 -4.079471 12.285362
P -4.093698 -1.353659 15.011175
P -1.367886 -1.353659 12.285362
P -1.367886 -4.079471 15.011175
P -1.367886 -1.353659 17.736987
P -1.367886 1.372154 -17.698575
P -4.093698 1.372154 -14.972763
P -4.093698 4.097966 -12.246950
P -1.367886 4.097966 -14.972763
P -1.367886 1.372154 -12.246950
P -4.093698 1.372154 -9.521138
P -4.093698 4.097966 -6.795325
P -1.367886 4.097966 -9.521138
P -1.367886 1.372154 -6.795325
P -4.093698 1.372154 -4.069513
P -4.093698 4.097966 -1.343700
P -1.367886 4.097966 -4.069513
P -1.367886 1.372154 -1.343700
P -4.093698 1.372154 1.382112
P -4.093698 4.097966 4.107925
P -1.367886 4.097966 1.382112
P -1.367886 1.372154 4.107925
P -4.093698 1.372154 6.833737
P -4.093698 4.097966 9.559550
P -1.367886 4.097966 6.833737
P -1.367886 1.372154 9.559550
P -4.093698 1.372154 12.285362
P -4.093698 4.097966 15.011175
P -1.367886 4.097966 12.285362
P -1.367886 1.372154 15.011175
P -4.093698 1.372154 17.736987
P -1.367886 4.097966 17.736987
P -1.367886 6.823779 -12.246950
P -4.093698 6.823779 -9.521138
P -4.093698 9.549591 -6.795325
P -1.367886 9.549591 -9.521138
P -1.367886 6.823779 -6.795325
P -4.093698 6.823779 -4.069513
P -4.093698 9.549591 -1.343700
P -1.367886 9.549591 -4.069513
P -1.367886 6.823779 -1.343700
P -4.093698 6.823779 1.382112
P -4.093698 9.549591 4.107925
P -1.367886 9.549591 1.382112
P -1.367886 6.823779 4.107925
P -4.093698 6.823779 6.833737
P -4.093698 9.549591 9.559550
P -1.367886 9.549591 6.833737
P -1.367886 6.823779 9.559550
P -4.093698 6.823779 12.285362
P -4.093698 9.549591 15.011175
P -1.367886 9.549591 12.285362
P -1.367886 6.823779 15.011175
P -4.093698 6.823779 17.736987
P -1.367886 12.275404 -6.795325
P -4.093698 12.275404 -4.069513
P -4.093698 15.001216 -1.343700
P -1.367886 15.001216 -4.069513
P -1.367886 12.275404 -1.343700
P -4.093698 12.275404 1.382112
P -4.093698 15.001216 4.107925
P -1.367886 15.001216 1.382112
P -1.367886 12.275404 4.107925
P -4.093698 12.275404 6.833737
P -4.093698 15.001216 9.559550
P -1.367886 15.001216 6.833737
P -1.367886 12.275404 9.559550
P -4.093698 12.275404 12.285362
P -1.367886 17.727028 -1.343700
P -4.093698 17.727028 1.382112
P -1.367886 17.727028 4.107925
P -4.093698 17.727028 6.833737
P 1.357927 -17.708534 -1.343700
P 1.357927 -17.708534 4.107925
P 4.083739 -17.708534 1.382112
P 4.083739 -17.708534 6.833737
P 1.357927 -12.256909 -6.795325
P 1.357927 -14.982721 -4.069513
P 1.357927 -12.256909 -1.343700
P 4.083739 -12.256909 -4.069513
P 4.083739 -14.982721 -1.343700
P 1.357927 -14.982721 1.382112
P 1.357927 -12.256909 4.107925
P 4.083739 -12.256909 1.382112
P 4.083739 -14.982721 4.107925
P 1.357927 -14.982721 6.833737
P 1.357927 -12.256909 9.559550
P 4.083739 -12.256909 6.833737
P 4.083739 -14.982721 9.559550
P 4.083739 -12.256909 12.285362
P 1.357927 -6.805284 -12.246950
P 1.357927 -9.531096 -9.521138
P 1.357927 -6.805284 -6.795325
P 4.083739 -6.805284 -9.521138
P 4.083739 -9.531096 -6.795325
P 1.357927 -9.531096 -4.069513
P 1.357927 -6.805284 -1.343700
P 4.083739 -6.805284 -4.069513
P 4.083739 -9.531096 -1.343700
P 1.357927 -9.531096 1.382112
P 1.357927 -6.805284 4.107925
P 4.083739 -6.805284 1.382112
P 4.083739 -9.531096 4.107925
P 1.357927 -9.531096 6.833737
P 1.357927 -6.805284 9.559550
P 4.083739 -6.805284 6.833737
P 4.083739 -9.531096 9.559550
P 1.357927 -9.531096 12.285362
P 1.357927 -6.805284 15.011175
P 4.083739 -6.805284 12.285362
P 4.083739 -9.531096 15.011175
P 4.083739 -6.805284 17.736987
P 1.357927 -1.353659 -17.698575
P 1.357927 -4.079471 -14.972763
P 1.357927 -1.353659 -12.246950
P 4.083739 -1.353659 -14.972763
P 4.083739 -4.079471 -12.246950
P 1.357927 -4.079471 -9.521138
P 1.357927 -1.353659 -6.795325
P 4.083739 -1.353659 -9.521138
P 4.083739 -4.079471 -6.795325
P 1.357927 -4.079471 -4.069513
P 1.357927 -1.353659 -1.343700
P 4.083739 -1.353659 -4.069513
P 4.083739 -4.079471 -1.343700
P 1.357927 -4.079471 1.382112
P 1.357927 -1.353659 4.107925
P 4.083739 -1.353659 1.382112
P 4.083739 -4.079471 4.107925
P 1.357927 -4.079471 6.833737
P 1.357927 -1.353659 9.559550
P 4.083739 -1.353659 6.833737
P 4.083739 -4.079471 9.559550
P 1.357927 -4.079471 12.285362
P 1.357927 -1.353659 15.011175
P 4.083739 -1.353659 12.285362
P 4.083739 -4.079471 15.011175
P 1.357927 -4.079471 17.736987
P 4.083739 -1.353659 17.736987
P 1.357927 4.097966 -17.698575
P 4.083739 1.372154 -17.698575
P 1.357927 1.372154 -14.972763
P 1.357927 4.097966 -12.246950
P 4.083739 4.097966 -14.972763
P 4.083739 1.372154 -12.246950
P 1.357927 1.372154 -9.521138
P 1.357927 4.097966 -6.795325
P 4.083739 4.097966 -9.521138
P 4.083739 1.372154 -6.795325
P 1.357927 1.372154 -4.069513
P 1.357927 4.097966 -1.343700
P 4.083739 4.097966 -4.069513
P 4.083739 1.372154 -1.343700
P 1.357927 1.372154 1.382112
P 1.357927 4.097966 4.107925
P 4.083739 4.097966 1.382112
P 4.083739 1.372154 4.107925
P 1.357927 1.372154 6.833737
P 1.357927 4.097966 9.559550
P 4.083739 4.097966 6.833737
P 4.083739 1.372154 9.559550
P 1.357927 1.372154 12.285362
P 1.357927 4.097966 15.011175
P 4.083739 4.097966 12.285362
P 4.083739 1.372154 15.011175
P 1.357927 1.372154 17.736987
P 4.083739 6.823779 -17.698575
P 1.357927 6.823779 -14.972763
P 1.357927 9.549591 -12.246950
P 4.083739 9.549591 -14.972763
P 4.083739 6.823779 -12.246950
P 1.357927 6.823779 -9.521138
P 1.357927 9.549591 -6.795325
P 4.083739 9.549591 -9.521138
P 4.083739 6.823779 -6.795325
P 1.357927 6.823779 -4.069513
P 1.357927 9.549591 -1.343700
P 4.083739 9.549591 -4.069513
P 4.083739 6.823779 -1.343700
P 1.357927 6.823779 1.382112
P 1.357927 9.549591 4.107925
P 4.083739 9.549591 1.382112
P 4.083739 6.823779 4.107925
P 1.357927 6.823779 6.833737
P 1.357927 9.549591 9.559550
P 4.083739 9.549591 6.833737
P 4.083739 6.823779 9.559550
P 1.357927 6.823779 12.285362
P 4.083739 12.275404 -12.246950
P 1.357927 12.275404 -9.521138
P 1.357927 15.001216 -6.795325
P 4.083739 15.001216 -9.521138
P 4.083739 12.275404 -6.795325
P 1.357927 12.275404 -4.069513
P 1.357927 15.001216 -1.343700
P 4.083739 15.001216 -4.069513
P 4.083739 12.275404 -1.343700
P 1.357927 12.275404 1.382112
P 1.357927 15.001216 4.107925
P 4.083739 15.001216 1.382112
P 4.083739 12.275404 4.107925
P 1.357927 12.275404 6.833737
P 4.083739 17.727028 -6.795325
P 1.357927 17.727028 -4.069513
P 4.083739 17.727028 -1.343700
P 1.357927 17.727028 1.382112
P 6.809552 -17.708534 4.107925
P 6.809552 -17.708534 9.559550
P 9.535364 -17.708534 6.833737
P 9.535364 -17.708534 12.285362
P 6.809552 -12.256909 -1.343700
P 6.809552 -14.982721 1.382112
P 6.809552 -12.256909 4.107925
P 9.535364 -12.256909 1.382112
P 9.535364 -14.982721 4.107925
P 6.809552 -14.982721 6.833737
P 6.809552 -12.256909 9.559550
P 9.535364 -12.256909 6.833737
P 9.535364 -14.982721 9.559550
P 6.809552 -14.982721 12.285362
P 6.809552 -12.256909 15.011175
P 9.535364 -12.256909 12.285362
P 9.535364 -14.982721 15.011175
P 9.535364 -12.256909 17.736987
P 6.809552 -6.805284 -6.795325
P 6.809552 -9.531096 -4.069513
P 6.809552 -6.805284 -1.343700
P 9.535364 -6.805284 -4.069513
P 9.535364 -9.531096 -1.343700
P 6.809552 -9.531096 1.382112
P 6.809552 -6.805284 4.107925
P 9.535364 -6.805284 1.382112
P 9.535364 -9.531096 4.107925
P 6.809552 -9.531096 6.833737
P 6.809552 -6.805284 9.559550
P 9.535364 -6.805284 6.833737
P 9.535364 -9.531096 9.559550
P 6.809552 -9.531096 12.285362
P 6.809552 -6.805284 15.011175
P 9.535364 -6.805284 12.285362
P 9.535364 -9.531096 15.011175
P 6.809552 -9.531096 17.736987
P 9.535364 -6.805284 17.736987
P 6.809552 -1.353659 -12.246950
P 6.809552 -4.079471 -9.521138
P 6.809552 -1.353659 -6.795325
P 9.535364 -1.353659 -9.521138
P 9.535364 -4.079471 -6.795325
P 6.809552 -4.079471 -4.069513
P 6.809552 -1.353659 -1.343700
P 9.535364 -1.353659 -4.069513
P 9.535364 -4.079471 -1.343700
P 6.809552 -4.079471 1.382112
P 6.809552 -1.353659 4.107925
P 9.535364 -1.353659 1.382112
P 9.535364 -4.079471 4.107925
P 6.809552 -4.079471 6.833737
P 6.809552 -1.353659 9.559550
P 9.535364 -1.353659 6.833737
P 9.535364 -4.079471 9.559550
P 6.809552 -4.079471 12.285362
P 6.809552 -1.353659 15.011175
P 9.535364 -1.353659 12.285362
P 9.535364 -4.079471 15.011175
P 6.809552 -4.079471 17.736987
P 6.809552 4.097966 -17.698575
P 6.809552 1.372154 -14.972763
P 6.809552 4.097966 -12.246950
P 9.535364 4.097966 -14.972763
P 9.535364 1.372154 -12.246950
P 6.809552 1.372154 -9.521138
P 6.809552 4.097966 -6.795325
P 9.535364 4.097966 -9.521138
P 9.535364 1.372154 -6.795325
P 6.809552 1.372154 -4.069513
P 6.809552 4.097966 -1.343700
P 9.535364 4.097966 -4.069513
P 9.535364 1.372154 -1.343700
P 6.809552 1.372154 1.382112
P 6.809552 4.097966 4.107925
P 9.535364 4.097966 1.382112
P 9.535364 1.372154 4.107925
P 6.809552 1.372154 6.833737
P 6.809552 4.097966 9.559550
P 9.535364 4.097966 6.833737
P 9.535364 1.372154 9.559550
P 6.809552 1.372154 12.285362
P 6.809552 9.549591 -17.698575
P 9.535364 6.823779 -17.698575
P 6.809552 6.823779 -14.972763
P 6.809552 9.549591 -12.246950
P 9.535364 9.549591 -14.972763
P 9.535364 6.823779 -12.246950
P 6.809552 6.823779 -9.521138
P 6.809552 9.549591 -6.795325
P 9.535364 9.549591 -9.521138
P 9.535364 6.823779 -6.795325
P 6.809552 6.823779 -4.069513
P 6.809552 9.549591 -1.343700
P 9.535364 9.549591 -4.069513
P 9.535364 6.823779 -1.343700
P 6.809552 6.823779 1.382112
P 6.809552 9.549591 4.107925
P 9.535364 9.549591 1.382112
P 9.535364 6.823779 4.107925
P 6.809552 6.823779 6.833737
P 9.535364 12.275404 -17.698575
P 6.809552 12.275404 -14.972763
P 6.809552 15.001216 -12.246950
P 9.535364 15.001216 -14.972763
P 9.535364 12.275404 -12.246950
P 6.809552 12.275404 -9.521138
P 6.809552 15.001216 -6.795325
P 9.535364 15.001216 -9.521138
P 9.535364 12.275404 -6.795325
P 6.809552 12.275404 -4.069513
P 6.809552 15.001216 -1.343700
P 9.535364 15.001216 -4.069513
P 9.535364 12.275404 -1.343700
P 6.809552 12.275404 1.382112
P 9.535364 17.727028 -12.246950
P 6.809552 17.727028 -9.521138
P 9.535364 17.727028 -6.795325
P 6.809552 17.727028 -4.069513
P 12.261177 -17.708534 9.559550
P 14.986989 -17.708534 12.285362
P 12.261177 -12.256909 4.107925
P 12.261177 -14.982721 6.833737
P 12.261177 -12.256909 9.559550
P 14.986989 -12.256909 6.833737
P 14.986989 -14.982721 9.559550
P 12.261177 -14.982721 12.285362
P 12.261177 -12.256909 15.011175
P 14.986989 -12.256909 12.285362
P 12.261177 -6.805284 -1.343700
P 12.261177 -9.531096 1.382112
P 12.261177 -6.805284 4.107925
P 14.986989 -6.805284 1.382112
P 14.986989 -9.531096 4.107925
P 12.261177 -9.531096 6.833737
P 12.261177 -6.805284 9.559550
P 14.986989 -6.805284 6.833737
P 14.986989 -9.531096 9.559550
P 12.261177 -9.531096 12.285362
P 12.261177 -6.805284 15.011175
P 14.986989 -6.805284 12.285362
P 14.986989 -9.531096 15.011175
P 12.261177 -9.531096 17.736987
P 12.261177 -1.353659 -6.795325
P 12.261177 -4.079471 -4.069513
P 12.261177 -1.353659 -1.343700
P 14.986989 -1.353659 -4.069513
P 14.986989 -4.079471 -1.343700
P 12.261177 -4.079471 1.382112
P 12.261177 -1.353659 4.107925
P 14.986989 -1.353659 1.382112
P 14.986989 -4.079471 4.107925
P 12.261177 -4.079471 6.833737
P 12.261177 -1.353659 9.559550
P 14.986989 -1.353659 6.833737
P 14.986989 -4.079471 9.559550
P 12.261177 -4.079471 12.285362
P 12.261177 4.097966 -12.246950
P 12.261177 1.372154 -9.521138
P 12.261177 4.097966 -6.795325
P 14.986989 4.097966 -9.521138
P 14.986989 1.372154 -6.795325
P 12.261177 1.372154 -4.069513
P 12.261177 4.097966 -1.343700
P 14.986989 4.097966 -4.069513
P 14.986989 1.372154 -1.343700
P 12.261177 1.372154 1.382112
P 12.261177 4.097966 4.107925
P 14.986989 4.097966 1.382112
P 14.986989 1.372154 4.107925
P 12.261177 1.372154 6.833737
P 12.261177 9.549591 -17.698575
P 12.261177 6.823779 -14.972763
P 12.261177 9.549591 -12.246950
P 14.986989 9.549591 -14.972763
P 14.986989 6.823779 -12.246950
P 12.261177 6.823779 -9.521138
P 12.261177 9.549591 -6.795325
P 14.986989 9.549591 -9.521138
P 14.986989 6.823779 -6.795325
P 12.261177 6.823779 -4.069513
P 12.261177 9.549591 -1.343700
P 14.986989 9.549591 -4.069513
P 14.986989 6.823779 -1.343700
P 12.261177 6.823779 1.382112
P 12.261177 12.275404 -14.972763
P 12.261177 15.001216 -12.246950
P 14.986989 12.275404 -12.246950
P 12.261177 12.275404 -9.521138
P 12.261177 15.001216 -6.795325
P 14.986989 15.001216 -9.521138
P 14.986989 12.275404 -6.795325
P 12.261177 12.275404 -4.069513
P 14.986989 17.727028 -12.246950
P 12.261177 17.727028 -9.521138
P 17.712802 -12.256909 9.559550
P 17.712802 -12.256909 15.011175
P 17.712802 -6.805284 4.107925
P 17.712802 -9.531096 6.833737
P 17.712802 -6.805284 9.559550
P 17.712802 -9.531096 12.285362
P 17.712802 -1.353659 -1.343700
P 17.712802 -4.079471 1.382112
P 17.712802 -1.353659 4.107925
P 17.712802 -4.079471 6.833737
P 17.712802 4.097966 -6.795325
P 17.712802 1.372154 -4.069513
P 17.712802 4.097966 -1.343700
P 17.712802 1.372154 1.382112
P 17.712802 9.549591 -12.246950
P 17.712802 6.823779 -9.521138
P 17.712802 9.549591 -6.795325
P 17.712802 6.823779 -4.069513
P 17.712802 12.275404 -14.972763
P 17.712802 12.275404 -9.521138
Cl -20.448573 -12.256909 -12.246950
Cl -17.722761 -14.982721 -12.246950
Cl -20.448573 -9.531096 -9.521138
Cl -20.448573 -6.805284 -6.795325
Cl -20.448573 -4.079471 -4.069513
Cl -20.448573 -1.353659 -1.343700
Cl -20.448573 1.372154 1.382112
Cl -20.448573 4.097966 4.107925
Cl -20.448573 6.823779 6.833737
Cl -20.448573 9.549591 9.559550
Cl -20.448573 12.275404 12.285362
Cl -17.722761 15.001216 12.285362
Cl -12.271136 -17.708534 -14.972763
Cl -12.271136 -20.434346 -12.246950
Cl -14.996948 -12.256909 -17.698575
Cl -12.271136 -12.256909 -20.424388
Cl -12.271136 -14.982721 -17.698575
Cl -14.996948 -14.982721 -14.972763
Cl -14.996948 15.001216 15.011175
Cl -14.996948 12.275404 17.736987
Cl -12.271136 15.001216 17.736987
Cl -12.271136 12.275404 20.462800
Cl -12.271136 20.452841 12.285362
Cl -12.271136 17.727028 15.011175
Cl -9.545323 -20.434346 -9.521138
Cl -6.819511 -20.434346 -6.795325
Cl -9.545323 -9.531096 -20.424388
Cl -6.819511 -6.805284 -20.424388
Cl -9.545323 9.549591 20.462800
Cl -6.819511 6.823779 20.462800
Cl -9.545323 20.452841 9.559550
Cl -6.819511 20.452841 6.833737
Cl -4.093698 -20.434346 -4.069513
Cl -1.367886 -20.434346 -1.343700
Cl -4.093698 -4.079471 -20.424388
Cl -1.367886 -1.353659 -20.424388
Cl -4.093698 4.097966 20.462800
Cl -1.367886 1.372154 20.462800
Cl -4.093698 20.452841 4.107925
Cl -1.367886 20.452841 1.382112
Cl 1.357927 -20.434346 1.382112
Cl 4.083739 -20.434346 4.107925
Cl 1.357927 -1.353659 20.462800
Cl 4.083739 -4.079471 20.462800
Cl 1.357927 1.372154 -20.424388
Cl 4.083739 4.097966 -20.424388
Cl 1.357927 20.452841 -1.343700
Cl 4.083739 20.452841 -4.069513
Cl 6.809552 -20.434346 6.833737
Cl 9.535364 -20.434346 9.559550
Cl 6.809552 -6.805284 20.462800
Cl 9.535364 -9.531096 20.462800
Cl 6.809552 6.823779 -20.424388
Cl 9.535364 9.549591 -20.424388
Cl 6.809552 20.452841 -6.795325
Cl 9.535364 20.452841 -9.521138
Cl 12.261177 -20.434346 12.285362
Cl 12.261177 -17.708534 15.011175
Cl 14.986989 -14.982721 15.011175
Cl 12.261177 -14.982721 17.736987
Cl 12.261177 -12.256909 20.462800
Cl 14.986989 -12.256909 17.736987
Cl 12.261177 12.275404 -20.424388
Cl 12.261177 15.001216 -17.698575
Cl 14.986989 12.275404 -17.698575
Cl 14.986989 15.001216 -14.972763
Cl 12.261177 17.727028 -14.972763
Cl 12.261177 20.452841 -12.246950
Cl 17.712802 -14.982721 12.285362
Cl 20.438614 -12.256909 12.285362
Cl 20.438614 -6.805284 6.833737
Cl 20.438614 -9.531096 9.559550
Cl 20.438614 -1.353659 1.382112
Cl 20.438614 -4.079471 4.107925
Cl 20.438614 4.097966 -4.069513
Cl 20.438614 1.372154 -1.343700
Cl 20.438614 9.549591 -9.521138
Cl 20.438614 6.823779 -6.795325
Cl 17.712802 15.001216 -12.246950
Cl 20.438614 12.275404 -12.246950
Cl -9.545323 -9.531096 6.833737
Cl -9.545323 6.823779 -9.521138
Cl 6.809552 -9.531096 -9.521138
Cl 9.535364 9.549591 6.833737
Cl -14.996948 9.549591 20.462800
Cl -14.996948 20.452841 9.559550
Cl -9.545323 15.001216 20.462800
Cl 20.438614 -14.982721 9.559550
Cl 9.535364 -14.982721 20.462800
Cl 14.986989 -9.531096 20.462800
Cl 9.535364 20.452841 -14.972763
Cl 20.438614 9.549591 -14.972763
Cl -20.448573 -14.982721 -9.521138
Cl -20.448573 -9.531096 -14.972763
Cl -9.545323 -20.434346 -14.972763
Cl 14.986989 20.452841 -9.521138
Cl 1.357927 -20.434346 6.833737
Cl 1.357927 6.823779 -20.424388
Cl 6.809552 1.372154 -20.424388
Cl 20.438614 -1.353659 6.833737
Cl -20.448573 1.372154 6.833737
Cl -20.448573 6.823779 1.382112
Cl -1.367886 20.452841 6.833737
Cl 6.809552 -20.434346 1.382112
Cl -1.367886 -4.079471 20.462800
Cl 4.083739 1.372154 20.462800
Cl -1.367886 20.452841 -4.069513
Cl 20.438614 -1.353659 -4.069513
Cl -9.545323 -20.434346 -4.069513
Cl -9.545323 -4.079471 -20.424388
Cl -4.093698 -9.531096 -20.424388
Cl 20.438614 9.549591 -4.069513
Cl -20.448573 -1.353659 -6.795325
Cl -20.448573 -6.805284 -1.343700
Cl -1.367886 -20.434346 -6.795325
Cl 6.809552 20.452841 -1.343700
Cl -12.271136 1.372154 15.011175
Cl -12.271136 15.001216 1.382112
Cl 14.986989 -12.256909 1.382112
Cl -1.367886 12.275404 15.011175
Cl 12.261177 -1.353659 15.011175
Cl 14.986989 1.372154 -12.246950
Cl 1.357927 15.001216 -12.246950
Cl 1.357927 -12.256909 15.011175
Cl -20.448573 15.001216 9.559550
Cl -20.448573 9.549591 15.011175
Cl -9.545323 20.452841 15.011175
Cl 14.986989 -20.434346 9.559550
Cl 9.535364 -20.434346 15.011175
Cl 14.986989 9.549591 -20.424388
Cl 9.535364 15.001216 -20.424388
Cl 20.438614 -9.531096 15.011175
Cl -14.996948 -20.434346 -9.521138
Cl -14.996948 -9.531096 -20.424388
Cl -9.545323 -14.982721 -20.424388
Cl 20.438614 15.001216 -9.521138
Cl -4.093698 -20.434346 1.382112
Cl -4.093698 1.372154 -20.424388
Cl 1.357927 -4.079471 -20.424388
Cl 20.438614 4.097966 1.382112
Cl -6.819511 1.372154 20.462800
Cl -1.367886 6.823779 20.462800
Cl -6.819511 20.452841 1.382112
Cl 20.438614 -6.805284 1.382112
Cl -14.996948 -12.256909 -1.343700
Cl -14.996948 -1.353659 -12.246950
Cl -1.367886 -14.982721 -12.246950
Cl 12.261177 15.001216 -1.343700
Cl -14.996948 -4.079471 6.833737
Cl -14.996948 6.823779 -4.069513
Cl 4.083739 15.001216 6.833737
Cl 6.809552 -14.982721 -4.069513
Cl -4.093698 -14.982721 6.833737
Cl -4.093698 6.823779 -14.972763
Cl 6.809552 -4.079471 -14.972763
Cl 14.986989 4.097966 6.833737
Cl -6.819511 -4.079471 15.011175
Cl -6.819511 15.001216 -4.069513
Cl 4.083739 6.823779 15.011175
Cl 14.986989 -6.805284 -4.069513
Cl 4.083739 -9.531096 20.462800
Cl 9.535364 -4.079471 20.462800
Cl 4.083739 20.452841 -9.521138
Cl 20.438614 4.097966 -9.521138
Cl -17.722761 4.097966 12.285362
Cl -17.722761 12.275404 4.107925
Cl -4.093698 17.727028 12.285362
Cl 12.261177 -17.708534 4.107925
Cl 4.083739 -17.708534 12.285362
Cl 12.261177 4.097966 -17.698575
Cl 17.712802 -4.079471 12.285362
Cl 4.083739 12.275404 -17.698575
Cl -9.545323 -14.982721 1.382112
Cl -9.545323 1.372154 -14.972763
Cl 1.357927 -9.531096 -14.972763
Cl 14.986989 9.549591 1.382112
Cl -4.093698 -9.531096 12.285362
Cl -4.093698 12.275404 -9.521138
Cl 9.535364 4.097966 12.285362
Cl 12.261177 -4.079471 -9.521138
Cl -20.448573 -6.805284 -12.246950
Cl -20.448573 -12.256909 -6.795325
Cl -6.819511 -20.434346 -12.246950
Cl 12.261177 20.452841 -6.795325
Cl -12.271136 6.823779 20.462800
Cl -6.819511 12.275404 20.462800
Cl -12.271136 20.452841 6.833737
Cl 20.438614 -12.256909 6.833737
Cl -20.448573 -4.079471 1.382112
Cl -20.448573 1.372154 -4.069513
Cl 1.357927 -20.434346 -4.069513
Cl 4.083739 20.452841 1.382112
Cl -14.996948 -17.708534 -6.795325
Cl -14.996948 -6.805284 -17.698575
Cl 17.712802 15.001216 -6.795325
Cl 9.535364 -12.256909 -4.069513
Cl -12.271136 -4.079471 9.559550
Cl -12.271136 9.549591 -4.069513
Cl 4.083739 12.275404 9.559550
Cl -4.093698 -12.256909 -17.698575
Cl 6.809552 17.727028 -14.972763
Cl 14.986989 -6.805284 17.736987
Cl 17.712802 6.823779 -14.972763
Cl -1.367886 -6.805284 17.736987
Cl -14.996948 1.372154 -9.521138
Cl 9.535364 15.001216 1.382112
Cl -14.996948 -9.531096 1.382112
Cl 1.357927 -14.982721 -9.521138
Cl -1.367886 17.727028 -6.795325
Cl 6.809552 1.372154 17.736987
Cl 17.712802 -1.353659 -6.795325
Cl -1.367886 -14.982721 9.559550
Cl -1.367886 9.549591 -14.972763
Cl 14.986989 1.372154 9.559550
Cl 9.535364 -1.353659 -14.972763
Cl 9.535364 -17.708534 17.736987
Cl -20.448573 6.823779 12.285362
Cl -20.448573 12.275404 6.833737
Cl -6.819511 20.452841 12.285362
Cl 12.261177 -20.434346 6.833737
Cl 6.809552 12.275404 -20.424388
Cl 20.438614 -6.805284 12.285362
Cl 12.261177 6.823779 -20.424388
Cl -6.819511 -20.434346 -1.343700
Cl -9.545323 -17.708534 -17.698575
Cl -6.819511 -1.353659 -20.424388
Cl 20.438614 6.823779 -1.343700
Cl 4.083739 -20.434346 9.559550
Cl -9.545323 4.097966 20.462800
Cl 20.438614 -9.531096 4.107925
Cl -9.545323 20.452841 4.107925
Cl -4.093698 9.549591 20.462800
Cl 6.809552 -12.256909 20.462800
Cl 4.083739 -1.353659 -20.424388
Cl -20.448573 4.097966 -1.343700
Cl 1.357927 20.452841 4.107925
Cl -20.448573 -1.353659 4.107925
Cl 4.083739 -20.434346 -1.343700
Cl -17.722761 17.727028 9.559550
Cl -9.545323 17.727028 17.736987
Cl 17.712802 -17.708534 9.559550
Cl -17.722761 9.549591 17.736987
Cl -1.367886 4.097966 -20.424388
Cl 20.438614 1.372154 4.107925
Cl -20.448573 -9.531096 -4.069513
Cl -20.448573 -4.079471 -9.521138
Cl 9.535364 20.452841 -4.069513
Cl 20.438614 -4.079471 -1.343700
Cl -4.093698 20.452841 -1.343700
Cl 1.357927 4.097966 20.462800
Cl -1.367886 -6.805284 -20.424388
Cl -4.093698 -1.353659 20.462800
Cl -4.093698 -20.434346 -9.521138
Cl -1.367886 -20.434346 4.107925
Cl -14.996948 12.275404 1.382112
Cl -1.367886 15.001216 12.285362
Cl -14.996948 1.372154 12.285362
Cl 12.261177 -14.982721 1.382112
Cl -12.271136 -4.079471 -17.698575
Cl 17.712802 12.275404 -4.069513
Cl -12.271136 -17.708534 -4.069513
Cl 9.535364 -6.805284 -9.521138
Cl -6.819511 9.549591 -9.521138
Cl 9.535364 6.823779 9.559550
Cl -6.819511 -9.531096 9.559550
Cl -4.093698 -14.982721 -14.972763
Cl -9.545323 4.097966 -12.246950
Cl 12.261177 9.549591 4.107925
Cl 4.083739 -14.982721 15.011175
Cl 14.986989 -9.531096 -1.343700
Cl -9.545323 15.001216 -1.343700
Cl 1.357927 9.549591 15.011175
Cl -9.545323 -12.256909 4.107925
Cl 4.083739 -9.531096 -12.246950
Cl 6.809552 20.452841 -12.246950
Cl 12.261177 -6.805284 20.462800
Cl -9.545323 -1.353659 15.011175
Cl 20.438614 6.823779 -12.246950
Cl -17.722761 -9.531096 -17.698575
Cl 17.712802 17.727028 -9.521138
Cl -17.722761 -17.708534 -9.521138
Cl -14.996948 4.097966 -6.795325
Cl 6.809552 15.001216 4.107925
Cl 4.083739 -14.982721 -6.795325
Cl -14.996948 -6.805284 4.107925
Cl 9.535364 17.727028 -17.698575
Cl 17.712802 -9.531096 17.736987
Cl 17.712802 9.549591 -17.698575
Cl 4.083739 9.549591 -20.424388
Cl 20.438614 -4.079471 9.559550
Cl 9.535364 4.097966 -20.424388
Cl 1.357927 -6.805284 20.462800
Cl 1.357927 20.452841 -6.795325
Cl 6.809552 -1.353659 20.462800
Cl 20.438614 1.372154 -6.795325
Cl -20.448573 4.097966 9.559550
Cl -20.448573 9.549591 4.107925
Cl -4.093698 20.452841 9.559550
Cl 9.535364 -20.434346 4.107925
Cl 6.809552 -20.434346 12.285362
Cl -6.819511 -12.256909 -20.424388
Cl -14.996948 17.727028 6.833737
Cl -14.996948 6.823779 17.736987
Cl 12.261177 1.372154 12.285362
Cl 17.712802 -14.982721 6.833737
Cl -6.819511 1.372154 -17.698575
Cl -6.819511 -17.708534 1.382112
Cl 12.261177 17.727028 -4.069513
Cl 12.261177 -1.353659 -12.246950
Cl -4.093698 12.275404 17.736987
Cl -1.367886 12.275404 -12.246950
Cl -17.722761 -12.256909 -4.069513
Cl -17.722761 -4.079471 -12.246950
Cl 17.712802 6.823779 1.382112
Cl 4.083739 -4.079471 -17.698575
Cl -1.367886 -9.531096 15.011175
Cl -9.545323 12.275404 -4.069513
Cl 12.261177 -9.531096 -4.069513
Cl -17.722761 -1.353659 6.833737
Cl 1.357927 17.727028 6.833737
Cl 6.809552 -17.708534 -1.343700
Cl -17.722761 6.823779 -1.343700
Cl -9.545323 -4.079471 12.285362
Cl 4.083739 9.549591 12.285362
Cl -12.271136 -20.434346 -6.795325
Cl -12.271136 -6.805284 -20.424388
Cl 20.438614 12.275404 -6.795325
Cl 14.986989 4.097966 -14.972763
Cl 4.083739 15.001216 -14.972763
Cl 14.986989 -4.079471 15.011175
Cl 14.986989 -4.079471 -6.795325
Cl -12.271136 -14.982721 -1.343700
Cl -4.093698 15.001216 -6.795325
Cl 6.809552 4.097966 15.011175
Cl -6.819511 -17.708534 -14.972763
Cl -1.367886 -17.708534 6.833737
Cl -12.271136 -1.353659 -14.972763
Cl 14.986989 12.275404 -1.343700
Cl 4.083739 -12.256909 17.736987
Cl -1.367886 -9.531096 -17.698575
Cl -6.819511 17.727028 15.011175
Cl -1.367886 6.823779 -17.698575
Cl -9.545323 1.372154 17.736987
Cl 17.712802 -12.256909 4.107925
Cl 17.712802 1.372154 6.833737
Cl -12.271136 17.727028 4.107925
Cl -1.367886 -17.708534 -9.521138
Cl -17.722761 -6.805284 1.382112
Cl -17.722761 1.372154 -6.795325
Cl 6.809552 17.727028 1.382112
Cl -4.093698 -4.079471 17.736987
Cl 9.535364 1.372154 -17.698575
Cl 9.535364 -1.353659 17.736987
Cl 1.357927 17.727028 -9.521138
Cl 17.712802 1.372154 -9.521138
Cl -4.093698 -12.256909 9.559550
Cl 1.357927 6.823779 17.736987
Cl 17.712802 -6.805284 -1.343700
Cl -6.819511 17.727028 -1.343700
Cl -14.996948 4.097966 15.011175
Cl 4.083739 -12.256909 -9.521138
Cl -6.819511 6.823779 -12.246950
Cl 12.261177 6.823779 6.833737
Cl -12.271136 -6.805284 6.833737
Cl 4.083739 -6.805284 -14.972763
Cl -14.996948 9.549591 -1.343700
Cl 1.357927 15.001216 9.559550
Cl 1.357927 -14.982721 12.285362
Cl 9.535364 -14.982721 -1.343700
Cl -6.819511 -14.982721 4.107925
Cl -12.271136 4.097966 -9.521138
Cl 9.535364 12.275404 4.107925
Cl -14.996948 -1.353659 9.559550
Cl 9.535364 -9.531096 -6.795325
Cl -17.722761 -6.805284 -14.972763
Cl 14.986989 17.727028 -6.795325
Cl -17.722761 -14.982721 -6.795325
Cl -17.722761 15.001216 6.833737
Cl 14.986989 -17.708534 6.833737
Cl 6.809552 9.549591 9.559550
Cl 6.809552 -17.708534 15.011175
Cl -9.545323 9.549591 -6.795325
Cl 17.712802 -1.353659 9.559550
Cl 1.357927 -17.708534 -6.795325
Cl -6.819511 -6.805284 12.285362
Cl 1.357927 9.549591 -17.698575
Cl -4.093698 15.001216 15.011175
Cl -1.367886 -12.256909 -14.972763
Cl -4.093698 4.097966 -17.698575
Cl 17.712802 4.097966 4.107925
Cl 14.986989 6.823779 -17.698575
Cl -12.271136 -12.256909 1.382112
Cl 9.535364 -4.079471 -12.246950
