993
PbSe-Se-Pb466Se405Cl122-clean
Pb -15.451005 -9.266245 -3.118837
Pb -15.451005 -9.266245 3.062810
Pb -15.451005 -3.084598 -9.300484
Pb -15.451005 -6.175422 -6.209661
Pb -15.451005 -3.084598 -3.118837
Pb -15.451005 -6.175422 -0.028014
Pb -15.451005 -3.084598 3.062810
Pb -15.451005 -6.175422 6.153634
Pb -15.451005 -3.084598 9.244457
Pb -15.451005 3.097049 -9.300484
Pb -15.451005 0.006225 -6.209661
Pb -15.451005 3.097049 -3.118837
Pb -15.451005 0.006225 -0.028014
Pb -15.451005 3.097049 3.062810
Pb -15.451005 0.006225 6.153634
Pb -15.451005 3.097049 9.244457
Pb -15.451005 6.187872 -6.209661
Pb -15.451005 9.278696 -3.118837
Pb -15.451005 6.187872 -0.028014
Pb -15.451005 9.278696 3.062810
Pb -15.451005 6.187872 6.153634
Pb -9.269358 -15.447892 -3.118837
Pb -9.269358 -15.447892 3.062810
Pb -9.269358 -9.266245 -9.300484
Pb -9.269358 -12.357069 -6.209661
Pb -12.360182 -9.266245 -6.209661
Pb -12.360182 -12.357069 -3.118837
Pb -9.269358 -9.266245 -3.118837
Pb -9.269358 -12.357069 -0.028014
Pb -12.360182 -9.266245 -0.028014
Pb -12.360182 -12.357069 3.062810
Pb -9.269358 -9.266245 3.062810
Pb -9.269358 -12.357069 6.153634
Pb -12.360182 -9.266245 6.153634
Pb -9.269358 -9.266245 9.244457
Pb -9.269358 -3.084598 -15.482131
Pb -9.269358 -6.175422 -12.391308
Pb -12.360182 -3.084598 -12.391308
Pb -12.360182 -6.175422 -9.300484
Pb -9.269358 -3.084598 -9.300484
Pb -9.269358 -6.175422 -6.209661
Pb -12.360182 -3.084598 -6.209661
Pb -12.360182 -6.175422 -3.118837
Pb -9.269358 -3.084598 -3.118837
Pb -9.269358 -6.175422 -0.028014
Pb -12.360182 -3.084598 -0.028014
Pb -12.360182 -6.175422 3.062810
Pb -9.269358 -3.084598 3.062810
Pb -9.269358 -6.175422 6.153634
Pb -12.360182 -3.084598 6.153634
Pb -12.360182 -6.175422 9.244457
Pb -9.269358 -3.084598 9.244457
Pb -9.269358 -6.175422 12.335281
Pb -12.360182 -3.084598 12.335281
Pb -9.269358 -3.084598 15.426104
Pb -9.269358 3.097049 -15.482131
Pb -9.269358 0.006225 -12.391308
Pb -12.360182 3.097049 -12.391308
Pb -12.360182 0.006225 -9.300484
Pb -9.269358 3.097049 -9.300484
Pb -9.269358 0.006225 -6.209661
Pb -12.360182 3.097049 -6.209661
Pb -12.360182 0.006225 -3.118837
Pb -9.269358 3.097049 -3.118837
Pb -9.269358 0.006225 -0.028014
Pb -12.360182 3.097049 -0.028014
Pb -12.360182 0.006225 3.062810
Pb -9.269358 3.097049 3.062810
Pb -9.269358 0.006225 6.153634
Pb -12.360182 3.097049 6.153634
Pb -12.360182 0.006225 9.244457
Pb -9.269358 3.097049 9.244457
Pb -9.269358 0.006225 12.335281
Pb -12.360182 3.097049 12.335281
Pb -9.269358 3.097049 15.426104
Pb -9.269358 6.187872 -12.391308
Pb -12.360182 6.187872 -9.300484
Pb -9.269358 9.278696 -9.300484
Pb -9.269358 6.187872 -6.209661
Pb -12.360182 9.278696 -6.209661
Pb -12.360182 6.187872 -3.118837
Pb -9.269358 9.278696 -3.118837
Pb -9.269358 6.187872 -0.028014
Pb -12.360182 9.278696 -0.028014
Pb -12.360182 6.187872 3.062810
Pb -9.269358 9.278696 3.062810
Pb -9.269358 6.187872 6.153634
Pb -12.360182 9.278696 6.153634
Pb -12.360182 6.187872 9.244457
Pb -9.269358 9.278696 9.244457
Pb -9.269358 6.187872 12.335281
Pb -9.269358 12.369519 -6.209661
Pb -12.360182 12.369519 -3.118837
Pb -9.269358 15.460343 -3.118837
Pb -9.269358 12.369519 -0.028014
Pb -12.360182 12.369519 3.062810
Pb -9.269358 15.460343 3.062810
Pb -9.269358 12.369519 6.153634
Pb -3.087711 -15.447892 -9.300484
Pb -6.178534 -15.447892 -6.209661
Pb -3.087711 -15.447892 -3.118837
Pb -6.178534 -15.447892 -0.028014
Pb -3.087711 -15.447892 3.062810
Pb -6.178534 -15.447892 6.153634
Pb -3.087711 -15.447892 9.244457
Pb -3.087711 -9.266245 -15.482131
Pb -3.087711 -12.357069 -12.391308
Pb -6.178534 -9.266245 -12.391308
Pb -6.178534 -12.357069 -9.300484
Pb -3.087711 -9.266245 -9.300484
Pb -3.087711 -12.357069 -6.209661
Pb -6.178534 -9.266245 -6.209661
Pb -6.178534 -12.357069 -3.118837
Pb -3.087711 -9.266245 -3.118837
Pb -3.087711 -12.357069 -0.028014
Pb -6.178534 -9.266245 -0.028014
Pb -6.178534 -12.357069 3.062810
Pb -3.087711 -9.266245 3.062810
Pb -3.087711 -12.357069 6.153634
Pb -6.178534 -9.266245 6.153634
Pb -6.178534 -12.357069 9.244457
Pb -3.087711 -9.266245 9.244457
Pb -3.087711 -12.357069 12.335281
Pb -6.178534 -9.266245 12.335281
Pb -3.087711 -9.266245 15.426104
Pb -6.178534 -6.175422 -15.482131
Pb -3.087711 -3.084598 -15.482131
Pb -3.087711 -6.175422 -12.391308
Pb -6.178534 -3.084598 -12.391308
Pb -6.178534 -6.175422 -9.300484
Pb -3.087711 -3.084598 -9.300484
Pb -3.087711 -6.175422 -6.209661
Pb -6.178534 -3.084598 -6.209661
Pb -6.178534 -6.175422 -3.118837
Pb -3.087711 -3.084598 -3.118837
Pb -3.087711 -6.175422 -0.028014
Pb -6.178534 -3.084598 -0.028014
Pb -6.178534 -6.175422 3.062810
Pb -3.087711 -3.084598 3.062810
Pb -3.087711 -6.175422 6.153634
Pb -6.178534 -3.084598 6.153634
Pb -6.178534 -6.175422 9.244457
Pb -3.087711 -3.084598 9.244457
Pb -3.087711 -6.175422 12.335281
Pb -6.178534 -3.084598 12.335281
Pb -6.178534 -6.175422 15.426104
Pb -3.087711 -3.084598 15.426104
Pb -6.178534 0.006225 -15.482131
Pb -3.087711 3.097049 -15.482131
Pb -3.087711 0.006225 -12.391308
Pb -6.178534 3.097049 -12.391308
Pb -6.178534 0.006225 -9.300484
Pb -3.087711 3.097049 -9.300484
Pb -3.087711 0.006225 -6.209661
Pb -6.178534 3.097049 -6.209661
Pb -6.178534 0.006225 -3.118837
Pb -3.087711 3.097049 -3.118837
Pb -3.087711 0.006225 -0.028014
Pb -6.178534 3.097049 -0.028014
Pb -6.178534 0.006225 3.062810
Pb -3.087711 3.097049 3.062810
Pb -3.087711 0.006225 6.153634
Pb -6.178534 3.097049 6.153634
Pb -6.178534 0.006225 9.244457
Pb -3.087711 3.097049 9.244457
Pb -3.087711 0.006225 12.335281
Pb -6.178534 3.097049 12.335281
Pb -6.178534 0.006225 15.426104
Pb -3.087711 3.097049 15.426104
Pb -6.178534 6.187872 -15.482131
Pb -3.087711 9.278696 -15.482131
Pb -3.087711 6.187872 -12.391308
Pb -6.178534 9.278696 -12.391308
Pb -6.178534 6.187872 -9.300484
Pb -3.087711 9.278696 -9.300484
Pb -3.087711 6.187872 -6.209661
Pb -6.178534 9.278696 -6.209661
Pb -6.178534 6.187872 -3.118837
Pb -3.087711 9.278696 -3.118837
Pb -3.087711 6.187872 -0.028014
Pb -6.178534 9.278696 -0.028014
Pb -6.178534 6.187872 3.062810
Pb -3.087711 9.278696 3.062810
Pb -3.087711 6.187872 6.153634
Pb -6.178534 9.278696 6.153634
Pb -6.178534 6.187872 9.244457
Pb -3.087711 9.278696 9.244457
Pb -3.087711 6.187872 12.335281
Pb -6.178534 9.278696 12.335281
Pb -6.178534 6.187872 15.426104
Pb -3.087711 9.278696 15.426104
Pb -3.087711 12.369519 -12.391308
Pb -6.178534 12.369519 -9.300484
Pb -3.087711 15.460343 -9.300484
Pb -3.087711 12.369519 -6.209661
Pb -6.178534 15.460343 -6.209661
Pb -6.178534 12.369519 -3.118837
Pb -3.087711 15.460343 -3.118837
Pb -3.087711 12.369519 -0.028014
Pb -6.178534 15.460343 -0.028014
Pb -6.178534 12.369519 3.062810
Pb -3.087711 15.460343 3.062810
Pb -3.087711 12.369519 6.153634
Pb -6.178534 15.460343 6.153634
Pb -6.178534 12.369519 9.244457
Pb -3.087711 15.460343 9.244457
Pb -3.087711 12.369519 12.335281
Pb 3.093936 -15.447892 -9.300484
Pb 0.003113 -15.447892 -6.209661
Pb 3.093936 -15.447892 -3.118837
Pb 0.003113 -15.447892 -0.028014
Pb 3.093936 -15.447892 3.062810
Pb 0.003113 -15.447892 6.153634
Pb 3.093936 -15.447892 9.244457
Pb 3.093936 -9.266245 -15.482131
Pb 3.093936 -12.357069 -12.391308
Pb 0.003113 -9.266245 -12.391308
Pb 0.003113 -12.357069 -9.300484
Pb 3.093936 -9.266245 -9.300484
Pb 3.093936 -12.357069 -6.209661
Pb 0.003113 -9.266245 -6.209661
Pb 0.003113 -12.357069 -3.118837
Pb 3.093936 -9.266245 -3.118837
Pb 3.093936 -12.357069 -0.028014
Pb 0.003113 -9.266245 -0.028014
Pb 0.003113 -12.357069 3.062810
Pb 3.093936 -9.266245 3.062810
Pb 3.093936 -12.357069 6.153634
Pb 0.003113 -9.266245 6.153634
Pb 0.003113 -12.357069 9.244457
Pb 3.093936 -9.266245 9.244457
Pb 3.093936 -12.357069 12.335281
Pb 0.003113 -9.266245 12.335281
Pb 3.093936 -9.266245 15.426104
Pb 0.003113 -6.175422 -15.482131
Pb 3.093936 -3.084598 -15.482131
Pb 3.093936 -6.175422 -12.391308
Pb 0.003113 -3.084598 -12.391308
Pb 0.003113 -6.175422 -9.300484
Pb 3.093936 -3.084598 -9.300484
Pb 3.093936 -6.175422 -6.209661
Pb 0.003113 -3.084598 -6.209661
Pb 0.003113 -6.175422 -3.118837
Pb 3.093936 -3.084598 -3.118837
Pb 3.093936 -6.175422 -0.028014
Pb 0.003113 -3.084598 -0.028014
Pb 0.003113 -6.175422 3.062810
Pb 3.093936 -3.084598 3.062810
Pb 3.093936 -6.175422 6.153634
Pb 0.003113 -3.084598 6.153634
Pb 0.003113 -6.175422 9.244457
Pb 3.093936 -3.084598 9.244457
Pb 3.093936 -6.175422 12.335281
Pb 0.003113 -3.084598 12.335281
Pb 0.003113 -6.175422 15.426104
Pb 3.093936 -3.084598 15.426104
Pb 0.003113 0.006225 -15.482131
Pb 3.093936 3.097049 -15.482131
Pb 3.093936 0.006225 -12.391308
Pb 0.003113 3.097049 -12.391308
Pb 0.003113 0.006225 -9.300484
Pb 3.093936 3.097049 -9.300484
Pb 3.093936 0.006225 -6.209661
Pb 0.003113 3.097049 -6.209661
Pb 0.003113 0.006225 -3.118837
Pb 3.093936 3.097049 -3.118837
Pb 3.093936 0.006225 -0.028014
Pb 0.003113 3.097049 -0.028014
Pb 0.003113 0.006225 3.062810
Pb 3.093936 3.097049 3.062810
Pb 3.093936 0.006225 6.153634
Pb 0.003113 3.097049 6.153634
Pb 0.003113 0.006225 9.244457
Pb 3.093936 3.097049 9.244457
Pb 3.093936 0.006225 12.335281
Pb 0.003113 3.097049 12.335281
Pb 0.003113 0.006225 15.426104
Pb 3.093936 3.097049 15.426104
Pb 0.003113 6.187872 -15.482131
Pb 3.093936 9.278696 -15.482131
Pb 3.093936 6.187872 -12.391308
Pb 0.003113 9.278696 -12.391308
Pb 0.003113 6.187872 -9.300484
Pb 3.093936 9.278696 -9.300484
Pb 3.093936 6.187872 -6.209661
Pb 0.003113 9.278696 -6.209661
Pb 0.003113 6.187872 -3.118837
Pb 3.093936 9.278696 -3.118837
Pb 3.093936 6.187872 -0.028014
Pb 0.003113 9.278696 -0.028014
Pb 0.003113 6.187872 3.062810
Pb 3.093936 9.278696 3.062810
Pb 3.093936 6.187872 6.153634
Pb 0.003113 9.278696 6.153634
Pb 0.003113 6.187872 9.244457
Pb 3.093936 9.278696 9.244457
Pb 3.093936 6.187872 12.335281
Pb 0.003113 9.278696 12.335281
Pb 0.003113 6.187872 15.426104
Pb 3.093936 9.278696 15.426104
Pb 3.093936 12.369519 -12.391308
Pb 0.003113 12.369519 -9.300484
Pb 3.093936 15.460343 -9.300484
Pb 3.093936 12.369519 -6.209661
Pb 0.003113 15.460343 -6.209661
Pb 0.003113 12.369519 -3.118837
Pb 3.093936 15.460343 -3.118837
Pb 3.093936 12.369519 -0.028014
Pb 0.003113 15.460343 -0.028014
Pb 0.003113 12.369519 3.062810
Pb 3.093936 15.460343 3.062810
Pb 3.093936 12.369519 6.153634
Pb 0.003113 15.460343 6.153634
Pb 0.003113 12.369519 9.244457
Pb 3.093936 15.460343 9.244457
Pb 3.093936 12.369519 12.335281
Pb 6.184760 -15.447892 -6.209661
Pb 9.275583 -15.447892 -3.118837
Pb 6.184760 -15.447892 -0.028014
Pb 9.275583 -15.447892 3.062810
Pb 6.184760 -15.447892 6.153634
Pb 6.184760 -9.266245 -12.391308
Pb 6.184760 -12.357069 -9.300484
Pb 9.275583 -9.266245 -9.300484
Pb 9.275583 -12.357069 -6.209661
Pb 6.184760 -9.266245 -6.209661
Pb 6.184760 -12.357069 -3.118837
Pb 9.275583 -9.266245 -3.118837
Pb 9.275583 -12.357069 -0.028014
Pb 6.184760 -9.266245 -0.028014
Pb 6.184760 -12.357069 3.062810
Pb 9.275583 -9.266245 3.062810
Pb 9.275583 -12.357069 6.153634
Pb 6.184760 -9.266245 6.153634
Pb 6.184760 -12.357069 9.244457
Pb 9.275583 -9.266245 9.244457
Pb 6.184760 -9.266245 12.335281
Pb 6.184760 -6.175422 -15.482131
Pb 9.275583 -3.084598 -15.482131
Pb 9.275583 -6.175422 -12.391308
Pb 6.184760 -3.084598 -12.391308
Pb 6.184760 -6.175422 -9.300484
Pb 9.275583 -3.084598 -9.300484
Pb 9.275583 -6.175422 -6.209661
Pb 6.184760 -3.084598 -6.209661
Pb 6.184760 -6.175422 -3.118837
Pb 9.275583 -3.084598 -3.118837
Pb 9.275583 -6.175422 -0.028014
Pb 6.184760 -3.084598 -0.028014
Pb 6.184760 -6.175422 3.062810
Pb 9.275583 -3.084598 3.062810
Pb 9.275583 -6.175422 6.153634
Pb 6.184760 -3.084598 6.153634
Pb 6.184760 -6.175422 9.244457
Pb 9.275583 -3.084598 9.244457
Pb 9.275583 -6.175422 12.335281
Pb 6.184760 -3.084598 12.335281
Pb 6.184760 -6.175422 15.426104
Pb 9.275583 -3.084598 15.426104
Pb 6.184760 0.006225 -15.482131
Pb 9.275583 3.097049 -15.482131
Pb 9.275583 0.006225 -12.391308
Pb 6.184760 3.097049 -12.391308
Pb 6.184760 0.006225 -9.300484
Pb 9.275583 3.097049 -9.300484
Pb 9.275583 0.006225 -6.209661
Pb 6.184760 3.097049 -6.209661
Pb 6.184760 0.006225 -3.118837
Pb 9.275583 3.097049 -3.118837
Pb 9.275583 0.006225 -0.028014
Pb 6.184760 3.097049 -0.028014
Pb 6.184760 0.006225 3.062810
Pb 9.275583 3.097049 3.062810
Pb 9.275583 0.006225 6.153634
Pb 6.184760 3.097049 6.153634
Pb 6.184760 0.006225 9.244457
Pb 9.275583 3.097049 9.244457
Pb 9.275583 0.006225 12.335281
Pb 6.184760 3.097049 12.335281
Pb 6.184760 0.006225 15.426104
Pb 9.275583 3.097049 15.426104
Pb 6.184760 6.187872 -15.482131
Pb 9.275583 6.187872 -12.391308
Pb 6.184760 9.278696 -12.391308
Pb 6.184760 6.187872 -9.300484
Pb 9.275583 9.278696 -9.300484
Pb 9.275583 6.187872 -6.209661
Pb 6.184760 9.278696 -6.209661
Pb 6.184760 6.187872 -3.118837
Pb 9.275583 9.278696 -3.118837
Pb 9.275583 6.187872 -0.028014
Pb 6.184760 9.278696 -0.028014
Pb 6.184760 6.187872 3.062810
Pb 9.275583 9.278696 3.062810
Pb 9.275583 6.187872 6.153634
Pb 6.184760 9.278696 6.153634
Pb 6.184760 6.187872 9.244457
Pb 9.275583 9.278696 9.244457
Pb 9.275583 6.187872 12.335281
Pb 6.184760 9.278696 12.335281
Pb 6.184760 6.187872 15.426104
Pb 6.184760 12.369519 -9.300484
Pb 9.275583 12.369519 -6.209661
Pb 6.184760 15.460343 -6.209661
Pb 6.184760 12.369519 -3.118837
Pb 9.275583 15.460343 -3.118837
Pb 9.275583 12.369519 -0.028014
Pb 6.184760 15.460343 -0.028014
Pb 6.184760 12.369519 3.062810
Pb 9.275583 15.460343 3.062810
Pb 9.275583 12.369519 6.153634
Pb 6.184760 15.460343 6.153634
Pb 6.184760 12.369519 9.244457
Pb 12.366407 -9.266245 -6.209661
Pb 12.366407 -12.357069 -3.118837
Pb 15.457230 -9.266245 -3.118837
Pb 12.366407 -9.266245 -0.028014
Pb 12.366407 -12.357069 3.062810
Pb 15.457230 -9.266245 3.062810
Pb 12.366407 -9.266245 6.153634
Pb 12.366407 -3.084598 -12.391308
Pb 12.366407 -6.175422 -9.300484
Pb 15.457230 -3.084598 -9.300484
Pb 15.457230 -6.175422 -6.209661
Pb 12.366407 -3.084598 -6.209661
Pb 12.366407 -6.175422 -3.118837
Pb 15.457230 -3.084598 -3.118837
Pb 15.457230 -6.175422 -0.028014
Pb 12.366407 -3.084598 -0.028014
Pb 12.366407 -6.175422 3.062810
Pb 15.457230 -3.084598 3.062810
Pb 15.457230 -6.175422 6.153634
Pb 12.366407 -3.084598 6.153634
Pb 12.366407 -6.175422 9.244457
Pb 15.457230 -3.084598 9.244457
Pb 12.366407 -3.084598 12.335281
Pb 12.366407 3.097049 -12.391308
Pb 12.366407 0.006225 -9.300484
Pb 15.457230 3.097049 -9.300484
Pb 15.457230 0.006225 -6.209661
Pb 12.366407 3.097049 -6.209661
Pb 12.366407 0.006225 -3.118837
Pb 15.457230 3.097049 -3.118837
Pb 15.457230 0.006225 -0.028014
Pb 12.366407 3.097049 -0.028014
Pb 12.366407 0.006225 3.062810
Pb 15.457230 3.097049 3.062810
Pb 15.457230 0.006225 6.153634
Pb 12.366407 3.097049 6.153634
Pb 12.366407 0.006225 9.244457
Pb 15.457230 3.097049 9.244457
Pb 12.366407 3.097049 12.335281
Pb 12.366407 6.187872 -9.300484
Pb 15.457230 6.187872 -6.209661
Pb 12.366407 9.278696 -6.209661
Pb 12.366407 6.187872 -3.118837
Pb 15.457230 9.278696 -3.118837
Pb 15.457230 6.187872 -0.028014
Pb 12.366407 9.278696 -0.028014
Pb 12.366407 6.187872 3.062810
Pb 15.457230 9.278696 3.062810
Pb 15.457230 6.187872 6.153634
Pb 12.366407 9.278696 6.153634
Pb 12.366407 6.187872 9.244457
Pb 12.366407 12.369519 -3.118837
Pb 12.366407 12.369519 3.062810
Se -15.451005 -9.266245 -0.028014
Se -15.451005 -3.084598 -6.209661
Se -15.451005 -6.175422 -3.118837
Se -15.451005 -3.084598 -0.028014
Se -15.451005 -6.175422 3.062810
Se -15.451005 -3.084598 6.153634
Se -15.451005 0.006225 -9.300484
Se -15.451005 3.097049 -6.209661
Se -15.451005 0.006225 -3.118837
Se -15.451005 3.097049 -0.028014
Se -15.451005 0.006225 3.062810
Se -15.451005 3.097049 6.153634
Se -15.451005 0.006225 9.244457
Se -15.451005 6.187872 -3.118837
Se -15.451005 9.278696 -0.028014
Se -15.451005 6.187872 3.062810
Se -9.269358 -15.447892 -0.028014
Se -9.269358 -9.266245 -6.209661
Se -12.360182 -12.357069 -0.028014
Se -9.269358 -12.357069 -3.118837
Se -12.360182 -9.266245 -3.118837
Se -9.269358 -9.266245 -0.028014
Se -9.269358 -12.357069 3.062810
Se -12.360182 -9.266245 3.062810
Se -9.269358 -9.266245 6.153634
Se -9.269358 -3.084598 -12.391308
Se -12.360182 -6.175422 -6.209661
Se -9.269358 -6.175422 -9.300484
Se -12.360182 -3.084598 -9.300484
Se -9.269358 -3.084598 -6.209661
Se -12.360182 -6.175422 -0.028014
Se -9.269358 -6.175422 -3.118837
Se -12.360182 -3.084598 -3.118837
Se -9.269358 -3.084598 -0.028014
Se -12.360182 -6.175422 6.153634
Se -9.269358 -6.175422 3.062810
Se -12.360182 -3.084598 3.062810
Se -9.269358 -3.084598 6.153634
Se -9.269358 -6.175422 9.244457
Se -12.360182 -3.084598 9.244457
Se -9.269358 -3.084598 12.335281
Se -12.360182 0.006225 -12.391308
Se -9.269358 0.006225 -15.482131
Se -9.269358 3.097049 -12.391308
Se -12.360182 0.006225 -6.209661
Se -9.269358 0.006225 -9.300484
Se -12.360182 3.097049 -9.300484
Se -9.269358 3.097049 -6.209661
Se -12.360182 0.006225 -0.028014
Se -9.269358 0.006225 -3.118837
Se -12.360182 3.097049 -3.118837
Se -9.269358 3.097049 -0.028014
Se -12.360182 0.006225 6.153634
Se -9.269358 0.006225 3.062810
Se -12.360182 3.097049 3.062810
Se -9.269358 3.097049 6.153634
Se -12.360182 0.006225 12.335281
Se -9.269358 0.006225 9.244457
Se -12.360182 3.097049 9.244457
Se -9.269358 3.097049 12.335281
Se -9.269358 0.006225 15.426104
Se -12.360182 6.187872 -6.209661
Se -9.269358 6.187872 -9.300484
Se -9.269358 9.278696 -6.209661
Se -12.360182 6.187872 -0.028014
Se -9.269358 6.187872 -3.118837
Se -12.360182 9.278696 -3.118837
Se -9.269358 9.278696 -0.028014
Se -12.360182 6.187872 6.153634
Se -9.269358 6.187872 3.062810
Se -12.360182 9.278696 3.062810
Se -9.269358 9.278696 6.153634
Se -9.269358 6.187872 9.244457
Se -12.360182 12.369519 -0.028014
Se -9.269358 12.369519 -3.118837
Se -9.269358 15.460343 -0.028014
Se -9.269358 12.369519 3.062810
Se -3.087711 -15.447892 -6.209661
Se -6.178534 -15.447892 -3.118837
Se -3.087711 -15.447892 -0.028014
Se -6.178534 -15.447892 3.062810
Se -3.087711 -15.447892 6.153634
Se -3.087711 -9.266245 -12.391308
Se -6.178534 -12.357069 -6.209661
Se -3.087711 -12.357069 -9.300484
Se -6.178534 -9.266245 -9.300484
Se -3.087711 -9.266245 -6.209661
Se -6.178534 -12.357069 -0.028014
Se -3.087711 -12.357069 -3.118837
Se -6.178534 -9.266245 -3.118837
Se -3.087711 -9.266245 -0.028014
Se -6.178534 -12.357069 6.153634
Se -3.087711 -12.357069 3.062810
Se -6.178534 -9.266245 3.062810
Se -3.087711 -9.266245 6.153634
Se -3.087711 -12.357069 9.244457
Se -6.178534 -9.266245 9.244457
Se -3.087711 -9.266245 12.335281
Se -6.178534 -6.175422 -12.391308
Se -3.087711 -6.175422 -15.482131
Se -6.178534 -3.084598 -15.482131
Se -3.087711 -3.084598 -12.391308
Se -6.178534 -6.175422 -6.209661
Se -3.087711 -6.175422 -9.300484
Se -6.178534 -3.084598 -9.300484
Se -3.087711 -3.084598 -6.209661
Se -6.178534 -6.175422 -0.028014
Se -3.087711 -6.175422 -3.118837
Se -6.178534 -3.084598 -3.118837
Se -3.087711 -3.084598 -0.028014
Se -6.178534 -6.175422 6.153634
Se -3.087711 -6.175422 3.062810
Se -6.178534 -3.084598 3.062810
Se -3.087711 -3.084598 6.153634
Se -6.178534 -6.175422 12.335281
Se -3.087711 -6.175422 9.244457
Se -6.178534 -3.084598 9.244457
Se -3.087711 -3.084598 12.335281
Se -3.087711 -6.175422 15.426104
Se -6.178534 -3.084598 15.426104
Se -6.178534 0.006225 -12.391308
Se -3.087711 0.006225 -15.482131
Se -6.178534 3.097049 -15.482131
Se -3.087711 3.097049 -12.391308
Se -6.178534 0.006225 -6.209661
Se -3.087711 0.006225 -9.300484
Se -6.178534 3.097049 -9.300484
Se -3.087711 3.097049 -6.209661
Se -6.178534 0.006225 -0.028014
Se -3.087711 0.006225 -3.118837
Se -6.178534 3.097049 -3.118837
Se -3.087711 3.097049 -0.028014
Se -6.178534 0.006225 6.153634
Se -3.087711 0.006225 3.062810
Se -6.178534 3.097049 3.062810
Se -3.087711 3.097049 6.153634
Se -6.178534 0.006225 12.335281
Se -3.087711 0.006225 9.244457
Se -6.178534 3.097049 9.244457
Se -3.087711 3.097049 12.335281
Se -3.087711 0.006225 15.426104
Se -6.178534 3.097049 15.426104
Se -6.178534 6.187872 -12.391308
Se -3.087711 6.187872 -15.482131
Se -3.087711 9.278696 -12.391308
Se -6.178534 6.187872 -6.209661
Se -3.087711 6.187872 -9.300484
Se -6.178534 9.278696 -9.300484
Se -3.087711 9.278696 -6.209661
Se -6.178534 6.187872 -0.028014
Se -3.087711 6.187872 -3.118837
Se -6.178534 9.278696 -3.118837
Se -3.087711 9.278696 -0.028014
Se -6.178534 6.187872 6.153634
Se -3.087711 6.187872 3.062810
Se -6.178534 9.278696 3.062810
Se -3.087711 9.278696 6.153634
Se -6.178534 6.187872 12.335281
Se -3.087711 6.187872 9.244457
Se -6.178534 9.278696 9.244457
Se -3.087711 9.278696 12.335281
Se -3.087711 6.187872 15.426104
Se -6.178534 12.369519 -6.209661
Se -3.087711 12.369519 -9.300484
Se -3.087711 15.460343 -6.209661
Se -6.178534 12.369519 -0.028014
Se -3.087711 12.369519 -3.118837
Se -6.178534 15.460343 -3.118837
Se -3.087711 15.460343 -0.028014
Se -6.178534 12.369519 6.153634
Se -3.087711 12.369519 3.062810
Se -6.178534 15.460343 3.062810
Se -3.087711 15.460343 6.153634
Se -3.087711 12.369519 9.244457
Se 0.003113 -15.447892 -9.300484
Se 3.093936 -15.447892 -6.209661
Se 0.003113 -15.447892 -3.118837
Se 3.093936 -15.447892 -0.028014
Se 0.003113 -15.447892 3.062810
Se 3.093936 -15.447892 6.153634
Se 0.003113 -15.447892 9.244457
Se 0.003113 -12.357069 -12.391308
Se 0.003113 -9.266245 -15.482131
Se 3.093936 -9.266245 -12.391308
Se 0.003113 -12.357069 -6.209661
Se 3.093936 -12.357069 -9.300484
Se 0.003113 -9.266245 -9.300484
Se 3.093936 -9.266245 -6.209661
Se 0.003113 -12.357069 -0.028014
Se 3.093936 -12.357069 -3.118837
Se 0.003113 -9.266245 -3.118837
Se 3.093936 -9.266245 -0.028014
Se 0.003113 -12.357069 6.153634
Se 3.093936 -12.357069 3.062810
Se 0.003113 -9.266245 3.062810
Se 3.093936 -9.266245 6.153634
Se 0.003113 -12.357069 12.335281
Se 3.093936 -12.357069 9.244457
Se 0.003113 -9.266245 9.244457
Se 3.093936 -9.266245 12.335281
Se 0.003113 -9.266245 15.426104
Se 0.003113 -6.175422 -12.391308
Se 3.093936 -6.175422 -15.482131
Se 0.003113 -3.084598 -15.482131
Se 3.093936 -3.084598 -12.391308
Se 0.003113 -6.175422 -6.209661
Se 3.093936 -6.175422 -9.300484
Se 0.003113 -3.084598 -9.300484
Se 3.093936 -3.084598 -6.209661
Se 0.003113 -6.175422 -0.028014
Se 3.093936 -6.175422 -3.118837
Se 0.003113 -3.084598 -3.118837
Se 3.093936 -3.084598 -0.028014
Se 0.003113 -6.175422 6.153634
Se 3.093936 -6.175422 3.062810
Se 0.003113 -3.084598 3.062810
Se 3.093936 -3.084598 6.153634
Se 0.003113 -6.175422 12.335281
Se 3.093936 -6.175422 9.244457
Se 0.003113 -3.084598 9.244457
Se 3.093936 -3.084598 12.335281
Se 3.093936 -6.175422 15.426104
Se 0.003113 -3.084598 15.426104
Se 0.003113 0.006225 -12.391308
Se 3.093936 0.006225 -15.482131
Se 0.003113 3.097049 -15.482131
Se 3.093936 3.097049 -12.391308
Se 0.003113 0.006225 -6.209661
Se 3.093936 0.006225 -9.300484
Se 0.003113 3.097049 -9.300484
Se 3.093936 3.097049 -6.209661
Se 0.003113 0.006225 -0.028014
Se 3.093936 0.006225 -3.118837
Se 0.003113 3.097049 -3.118837
Se 3.093936 3.097049 -0.028014
Se 0.003113 0.006225 6.153634
Se 3.093936 0.006225 3.062810
Se 0.003113 3.097049 3.062810
Se 3.093936 3.097049 6.153634
Se 0.003113 0.006225 12.335281
Se 3.093936 0.006225 9.244457
Se 0.003113 3.097049 9.244457
Se 3.093936 3.097049 12.335281
Se 3.093936 0.006225 15.426104
Se 0.003113 3.097049 15.426104
Se 0.003113 6.187872 -12.391308
Se 3.093936 6.187872 -15.482131
Se 0.003113 9.278696 -15.482131
Se 3.093936 9.278696 -12.391308
Se 0.003113 6.187872 -6.209661
Se 3.093936 6.187872 -9.300484
Se 0.003113 9.278696 -9.300484
Se 3.093936 9.278696 -6.209661
Se 0.003113 6.187872 -0.028014
Se 3.093936 6.187872 -3.118837
Se 0.003113 9.278696 -3.118837
Se 3.093936 9.278696 -0.028014
Se 0.003113 6.187872 6.153634
Se 3.093936 6.187872 3.062810
Se 0.003113 9.278696 3.062810
Se 3.093936 9.278696 6.153634
Se 0.003113 6.187872 12.335281
Se 3.093936 6.187872 9.244457
Se 0.003113 9.278696 9.244457
Se 3.093936 9.278696 12.335281
Se 3.093936 6.187872 15.426104
Se 0.003113 9.278696 15.426104
Se 0.003113 12.369519 -12.391308
Se 0.003113 12.369519 -6.209661
Se 3.093936 12.369519 -9.300484
Se 0.003113 15.460343 -9.300484
Se 3.093936 15.460343 -6.209661
Se 0.003113 12.369519 -0.028014
Se 3.093936 12.369519 -3.118837
Se 0.003113 15.460343 -3.118837
Se 3.093936 15.460343 -0.028014
Se 0.003113 12.369519 6.153634
Se 3.093936 12.369519 3.062810
Se 0.003113 15.460343 3.062810
Se 3.093936 15.460343 6.153634
Se 0.003113 12.369519 12.335281
Se 3.093936 12.369519 9.244457
Se 0.003113 15.460343 9.244457
Se 6.184760 -15.447892 -3.118837
Se 9.275583 -15.447892 -0.028014
Se 6.184760 -15.447892 3.062810
Se 6.184760 -12.357069 -6.209661
Se 6.184760 -9.266245 -9.300484
Se 9.275583 -9.266245 -6.209661
Se 6.184760 -12.357069 -0.028014
Se 9.275583 -12.357069 -3.118837
Se 6.184760 -9.266245 -3.118837
Se 9.275583 -9.266245 -0.028014
Se 6.184760 -12.357069 6.153634
Se 9.275583 -12.357069 3.062810
Se 6.184760 -9.266245 3.062810
Se 9.275583 -9.266245 6.153634
Se 6.184760 -9.266245 9.244457
Se 6.184760 -6.175422 -12.391308
Se 6.184760 -3.084598 -15.482131
Se 9.275583 -3.084598 -12.391308
Se 6.184760 -6.175422 -6.209661
Se 9.275583 -6.175422 -9.300484
Se 6.184760 -3.084598 -9.300484
Se 9.275583 -3.084598 -6.209661
Se 6.184760 -6.175422 -0.028014
Se 9.275583 -6.175422 -3.118837
Se 6.184760 -3.084598 -3.118837
Se 9.275583 -3.084598 -0.028014
Se 6.184760 -6.175422 6.153634
Se 9.275583 -6.175422 3.062810
Se 6.184760 -3.084598 3.062810
Se 9.275583 -3.084598 6.153634
Se 6.184760 -6.175422 12.335281
Se 9.275583 -6.175422 9.244457
Se 6.184760 -3.084598 9.244457
Se 9.275583 -3.084598 12.335281
Se 6.184760 -3.084598 15.426104
Se 6.184760 0.006225 -12.391308
Se 9.275583 0.006225 -15.482131
Se 6.184760 3.097049 -15.482131
Se 9.275583 3.097049 -12.391308
Se 6.184760 0.006225 -6.209661
Se 9.275583 0.006225 -9.300484
Se 6.184760 3.097049 -9.300484
Se 9.275583 3.097049 -6.209661
Se 6.184760 0.006225 -0.028014
Se 9.275583 0.006225 -3.118837
Se 6.184760 3.097049 -3.118837
Se 9.275583 3.097049 -0.028014
Se 6.184760 0.006225 6.153634
Se 9.275583 0.006225 3.062810
Se 6.184760 3.097049 3.062810
Se 9.275583 3.097049 6.153634
Se 6.184760 0.006225 12.335281
Se 9.275583 0.006225 9.244457
Se 6.184760 3.097049 9.244457
Se 9.275583 3.097049 12.335281
Se 9.275583 0.006225 15.426104
Se 6.184760 3.097049 15.426104
Se 6.184760 6.187872 -12.391308
Se 6.184760 6.187872 -6.209661
Se 9.275583 6.187872 -9.300484
Se 6.184760 9.278696 -9.300484
Se 9.275583 9.278696 -6.209661
Se 6.184760 6.187872 -0.028014
Se 9.275583 6.187872 -3.118837
Se 6.184760 9.278696 -3.118837
Se 9.275583 9.278696 -0.028014
Se 6.184760 6.187872 6.153634
Se 9.275583 6.187872 3.062810
Se 6.184760 9.278696 3.062810
Se 9.275583 9.278696 6.153634
Se 6.184760 6.187872 12.335281
Se 9.275583 6.187872 9.244457
Se 6.184760 9.278696 9.244457
Se 6.184760 12.369519 -6.209661
Se 6.184760 12.369519 -0.028014
Se 9.275583 12.369519 -3.118837
Se 6.184760 15.460343 -3.118837
Se 9.275583 15.460343 -0.028014
Se 6.184760 12.369519 6.153634
Se 9.275583 12.369519 3.062810
Se 6.184760 15.460343 3.062810
Se 12.366407 -12.357069 -0.028014
Se 12.366407 -9.266245 -3.118837
Se 15.457230 -9.266245 -0.028014
Se 12.366407 -9.266245 3.062810
Se 12.366407 -6.175422 -6.209661
Se 12.366407 -3.084598 -9.300484
Se 15.457230 -3.084598 -6.209661
Se 12.366407 -6.175422 -0.028014
Se 15.457230 -6.175422 -3.118837
Se 12.366407 -3.084598 -3.118837
Se 15.457230 -3.084598 -0.028014
Se 12.366407 -6.175422 6.153634
Se 15.457230 -6.175422 3.062810
Se 12.366407 -3.084598 3.062810
Se 15.457230 -3.084598 6.153634
Se 12.366407 -3.084598 9.244457
Se 12.366407 0.006225 -12.391308
Se 12.366407 0.006225 -6.209661
Se 15.457230 0.006225 -9.300484
Se 12.366407 3.097049 -9.300484
Se 15.457230 3.097049 -6.209661
Se 12.366407 0.006225 -0.028014
Se 15.457230 0.006225 -3.118837
Se 12.366407 3.097049 -3.118837
Se 15.457230 3.097049 -0.028014
Se 12.366407 0.006225 6.153634
Se 15.457230 0.006225 3.062810
Se 12.366407 3.097049 3.062810
Se 15.457230 3.097049 6.153634
Se 12.366407 0.006225 12.335281
Se 15.457230 0.006225 9.244457
Se 12.366407 3.097049 9.244457
Se 12.366407 6.187872 -6.209661
Se 12.366407 6.187872 -0.028014
Se 15.457230 6.187872 -3.118837
Se 12.366407 9.278696 -3.118837
Se 15.457230 9.278696 -0.028014
Se 12.366407 6.187872 6.153634
Se 15.457230 6.187872 3.062810
Se 12.366407 9.278696 3.062810
Se 12.366407 12.369519 -0.028014
Cl -15.451005 -9.266245 -6.209661
Cl 15.457230 9.278696 6.153634
Cl -9.269358 6.187872 15.426104
Cl -6.178534 15.460343 -9.300484
Cl 6.184760 -15.447892 9.244457
Cl 9.275583 -6.175422 -15.482131
Cl -9.269358 -12.357069 9.244457
Cl 9.275583 9.278696 -12.391308
Cl -15.451005 6.187872 -9.300484
Cl -6.178534 -9.266245 -15.482131
Cl -9.269358 15.460343 6.153634
Cl 9.275583 -15.447892 -6.209661
Cl 6.184760 9.278696 15.426104
Cl 15.457230 -6.175422 9.244457
Cl -15.451005 -6.175422 9.244457
Cl 9.275583 15.460343 -6.209661
Cl -15.451005 9.278696 6.153634
Cl -9.269358 6.187872 -15.482131
Cl -9.269358 -15.447892 -6.209661
Cl 6.184760 -9.266245 15.426104
Cl 9.275583 15.460343 6.153634
Cl 15.457230 -9.266245 -6.209661
Cl -9.269358 -6.175422 15.426104
Cl 15.457230 9.278696 -6.209661
Cl -12.360182 -6.175422 -12.391308
Cl -12.360182 12.369519 -6.209661
Cl -6.178534 12.369519 12.335281
Cl 6.184760 -12.357069 -12.391308
Cl 12.366407 -12.357069 6.153634
Cl 12.366407 6.187872 12.335281
Cl -9.269358 -15.447892 6.153634
Cl 9.275583 6.187872 -15.482131
Cl -15.451005 6.187872 9.244457
Cl -6.178534 -15.447892 -9.300484
Cl -6.178534 9.278696 -15.482131
Cl 9.275583 -6.175422 15.426104
Cl 6.184760 15.460343 9.244457
Cl 15.457230 -6.175422 -9.300484
Cl -6.178534 -9.266245 15.426104
Cl 6.184760 15.460343 -9.300484
Cl -15.451005 -9.266245 6.153634
Cl 15.457230 6.187872 -9.300484
Cl -9.269358 -6.175422 -15.482131
Cl -15.451005 9.278696 -6.209661
Cl -6.178534 9.278696 15.426104
Cl 6.184760 -15.447892 -9.300484
Cl 9.275583 -15.447892 6.153634
Cl 9.275583 6.187872 15.426104
Cl -15.451005 -6.175422 -9.300484
Cl -9.269358 15.460343 -6.209661
Cl -6.178534 -15.447892 9.244457
Cl -6.178534 15.460343 9.244457
Cl 6.184760 -9.266245 -15.482131
Cl 6.184760 9.278696 -15.482131
Cl 15.457230 -9.266245 6.153634
Cl 15.457230 6.187872 9.244457
Cl -12.360182 -12.357069 -6.209661
Cl -12.360182 6.187872 -12.391308
Cl -12.360182 12.369519 6.153634
Cl 6.184760 -12.357069 12.335281
Cl 6.184760 12.369519 12.335281
Cl 12.366407 -12.357069 -6.209661
Cl -12.360182 -6.175422 12.335281
Cl 12.366407 12.369519 -6.209661
Cl -12.360182 6.187872 12.335281
Cl -6.178534 -12.357069 -12.391308
Cl -6.178534 12.369519 -12.391308
Cl 12.366407 12.369519 6.153634
Cl 12.366407 -6.175422 -12.391308
Cl 12.366407 -6.175422 12.335281
Cl -12.360182 -12.357069 6.153634
Cl 6.184760 12.369519 -12.391308
Cl -6.178534 -12.357069 12.335281
Cl 12.366407 6.187872 -12.391308
Cl -9.269358 -12.357069 -9.300484
Cl -9.269358 9.278696 -12.391308
Cl -12.360182 9.278696 9.244457
Cl 9.275583 -12.357069 -9.300484
Cl 9.275583 -12.357069 9.244457
Cl 9.275583 9.278696 12.335281
Cl -12.360182 -9.266245 -9.300484
Cl -12.360182 -9.266245 9.244457
Cl -12.360182 9.278696 -9.300484
Cl -9.269358 12.369519 9.244457
Cl 9.275583 -9.266245 -12.391308
Cl 9.275583 -9.266245 12.335281
Cl 9.275583 12.369519 -9.300484
Cl 9.275583 12.369519 9.244457
Cl -12.360182 -3.084598 -15.482131
Cl -12.360182 -3.084598 15.426104
Cl -12.360182 3.097049 15.426104
Cl -12.360182 15.460343 -3.118837
Cl 15.457230 -12.357069 -3.118837
Cl 15.457230 -12.357069 3.062810
Cl 15.457230 3.097049 -12.391308
Cl 15.457230 3.097049 12.335281
Cl -3.087711 -12.357069 -15.482131
Cl -3.087711 -12.357069 15.426104
Cl -3.087711 15.460343 -12.391308
Cl -3.087711 12.369519 15.426104
Cl 15.457230 -3.084598 -12.391308
Cl 15.457230 -3.084598 12.335281
Cl 15.457230 12.369519 3.062810
Cl 15.457230 12.369519 -3.118837
Cl -15.451005 -12.357069 -3.118837
Cl -15.451005 -12.357069 3.062810
Cl -15.451005 12.369519 3.062810
Cl -12.360182 3.097049 -15.482131
Cl 3.093936 -15.447892 12.335281
Cl 3.093936 -12.357069 -15.482131
Cl 3.093936 12.369519 -15.482131
Cl 3.093936 15.460343 12.335281
Cl -15.451005 12.369519 -3.118837
Cl -3.087711 -15.447892 -12.391308
Cl -3.087711 -15.447892 12.335281
Cl -3.087711 15.460343 12.335281
Cl 12.366407 -15.447892 -3.118837
Cl 12.366407 -3.084598 15.426104
Cl 12.366407 15.460343 -3.118837
Cl 12.366407 3.097049 15.426104
Cl -15.451005 -3.084598 -12.391308
Cl -15.451005 -3.084598 12.335281
