643
HgTe-Hg-Hg289Te224Cl130-reconstructed
Hg -9.782970 -9.864836 -6.574852
Hg -9.782970 -13.154820 -3.284868
Hg -13.072954 -9.864836 -3.284868
Hg -9.782970 -9.864836 0.005117
Hg -9.782970 -13.154820 3.295101
Hg -13.072954 -9.864836 3.295101
Hg -9.782970 -3.284868 -13.154820
Hg -13.072954 -3.284868 -9.864836
Hg -13.072954 -6.574852 -6.574852
Hg -9.782970 -3.284868 -6.574852
Hg -9.782970 -6.574852 -3.284868
Hg -13.072954 -3.284868 -3.284868
Hg -13.072954 -6.574852 0.005117
Hg -9.782970 -3.284868 0.005117
Hg -9.782970 -6.574852 3.295101
Hg -13.072954 -3.284868 3.295101
Hg -13.072954 -6.574852 6.585085
Hg -9.782970 -3.284868 6.585085
Hg -9.782970 -6.574852 9.875069
Hg -13.072954 -3.284868 9.875069
Hg -9.782970 -3.284868 13.165053
Hg -9.782970 3.295101 -13.154820
Hg -9.782970 0.005117 -9.864836
Hg -13.072954 3.295101 -9.864836
Hg -13.072954 0.005117 -6.574852
Hg -9.782970 3.295101 -6.574852
Hg -9.782970 0.005117 -3.284868
Hg -13.072954 3.295101 -3.284868
Hg -13.072954 0.005117 0.005117
Hg -9.782970 3.295101 0.005117
Hg -9.782970 0.005117 3.295101
Hg -13.072954 3.295101 3.295101
Hg -13.072954 0.005117 6.585085
Hg -9.782970 3.295101 6.585085
Hg -9.782970 0.005117 9.875069
Hg -13.072954 3.295101 9.875069
Hg -9.782970 3.295101 13.165053
Hg -9.782970 6.585085 -9.864836
Hg -13.072954 6.585085 -6.574852
Hg -9.782970 6.585085 -3.284868
Hg -13.072954 9.875069 -3.284868
Hg -13.072954 6.585085 0.005117
Hg -9.782970 9.875069 0.005117
Hg -9.782970 6.585085 3.295101
Hg -13.072954 9.875069 3.295101
Hg -13.072954 6.585085 6.585085
Hg -9.782970 9.875069 6.585085
Hg -9.782970 13.165053 -3.284868
Hg -9.782970 13.165053 3.295101
Hg -3.203002 -9.864836 -13.154820
Hg -3.203002 -13.154820 -9.864836
Hg -6.492986 -9.864836 -9.864836
Hg -6.492986 -13.154820 -6.574852
Hg -3.203002 -9.864836 -6.574852
Hg -3.203002 -13.154820 -3.284868
Hg -6.492986 -9.864836 -3.284868
Hg -6.492986 -13.154820 0.005117
Hg -3.203002 -9.864836 0.005117
Hg -3.203002 -13.154820 3.295101
Hg -6.492986 -9.864836 3.295101
Hg -6.492986 -13.154820 6.585085
Hg -3.203002 -9.864836 6.585085
Hg -3.203002 -13.154820 9.875069
Hg -6.492986 -9.864836 9.875069
Hg -3.203002 -9.864836 13.165053
Hg -6.492986 -6.574852 -13.154820
Hg -3.203002 -3.284868 -13.154820
Hg -3.203002 -6.574852 -9.864836
Hg -6.492986 -3.284868 -9.864836
Hg -6.492986 -6.574852 -6.574852
Hg -3.203002 -3.284868 -6.574852
Hg -3.203002 -6.574852 -3.284868
Hg -6.492986 -3.284868 -3.284868
Hg -6.492986 -6.574852 0.005117
Hg -3.203002 -3.284868 0.005117
Hg -3.203002 -6.574852 3.295101
Hg -6.492986 -3.284868 3.295101
Hg -6.492986 -6.574852 6.585085
Hg -3.203002 -3.284868 6.585085
Hg -3.203002 -6.574852 9.875069
Hg -6.492986 -3.284868 9.875069
Hg -6.492986 -6.574852 13.165053
Hg -3.203002 -3.284868 13.165053
Hg -6.492986 0.005117 -13.154820
Hg -3.203002 3.295101 -13.154820
Hg -3.203002 0.005117 -9.864836
Hg -6.492986 3.295101 -9.864836
Hg -6.492986 0.005117 -6.574852
Hg -3.203002 3.295101 -6.574852
Hg -3.203002 0.005117 -3.284868
Hg -6.492986 3.295101 -3.284868
Hg -6.492986 0.005117 0.005117
Hg -3.203002 3.295101 0.005117
Hg -3.203002 0.005117 3.295101
Hg -6.492986 3.295101 3.295101
Hg -6.492986 0.005117 6.585085
Hg -3.203002 3.295101 6.585085
Hg -3.203002 0.005117 9.875069
Hg -6.492986 3.295101 9.875069
Hg -6.492986 0.005117 13.165053
Hg -3.203002 3.295101 13.165053
Hg -6.492986 6.585085 -13.154820
Hg -3.203002 9.875069 -13.154820
Hg -3.203002 6.585085 -9.864836
Hg -6.492986 9.875069 -9.864836
Hg -6.492986 6.585085 -6.574852
Hg -3.203002 9.875069 -6.574852
Hg -3.203002 6.585085 -3.284868
Hg -6.492986 9.875069 -3.284868
Hg -6.492986 6.585085 0.005117
Hg -3.203002 9.875069 0.005117
Hg -3.203002 6.585085 3.295101
Hg -6.492986 9.875069 3.295101
Hg -6.492986 6.585085 6.585085
Hg -3.203002 9.875069 6.585085
Hg -3.203002 6.585085 9.875069
Hg -6.492986 9.875069 9.875069
Hg -6.492986 6.585085 13.165053
Hg -3.203002 9.875069 13.165053
Hg -3.203002 13.165053 -9.864836
Hg -6.492986 13.165053 -6.574852
Hg -3.203002 13.165053 -3.284868
Hg -6.492986 13.165053 0.005117
Hg -3.203002 13.165053 3.295101
Hg -6.492986 13.165053 6.585085
Hg -3.203002 13.165053 9.875069
Hg 3.376967 -9.864836 -13.154820
Hg 3.376967 -13.154820 -9.864836
Hg 0.086982 -9.864836 -9.864836
Hg 0.086982 -13.154820 -6.574852
Hg 3.376967 -9.864836 -6.574852
Hg 3.376967 -13.154820 -3.284868
Hg 0.086982 -9.864836 -3.284868
Hg 0.086982 -13.154820 0.005117
Hg 3.376967 -9.864836 0.005117
Hg 3.376967 -13.154820 3.295101
Hg 0.086982 -9.864836 3.295101
Hg 0.086982 -13.154820 6.585085
Hg 3.376967 -9.864836 6.585085
Hg 3.376967 -13.154820 9.875069
Hg 0.086982 -9.864836 9.875069
Hg 3.376967 -9.864836 13.165053
Hg 0.086982 -6.574852 -13.154820
Hg 3.376967 -3.284868 -13.154820
Hg 3.376967 -6.574852 -9.864836
Hg 0.086982 -3.284868 -9.864836
Hg 0.086982 -6.574852 -6.574852
Hg 3.376967 -3.284868 -6.574852
Hg 3.376967 -6.574852 -3.284868
Hg 0.086982 -3.284868 -3.284868
Hg 0.086982 -6.574852 0.005117
Hg 3.376967 -3.284868 0.005117
Hg 3.376967 -6.574852 3.295101
Hg 0.086982 -3.284868 3.295101
Hg 0.086982 -6.574852 6.585085
Hg 3.376967 -3.284868 6.585085
Hg 3.376967 -6.574852 9.875069
Hg 0.086982 -3.284868 9.875069
Hg 0.086982 -6.574852 13.165053
Hg 3.376967 -3.284868 13.165053
Hg 0.086982 0.005117 -13.154820
Hg 3.376967 3.295101 -13.154820
Hg 3.376967 0.005117 -9.864836
Hg 0.086982 3.295101 -9.864836
Hg 0.086982 0.005117 -6.574852
Hg 3.376967 3.295101 -6.574852
Hg 3.376967 0.005117 -3.284868
Hg 0.086982 3.295101 -3.284868
Hg 0.086982 0.005117 0.005117
Hg 3.376967 3.295101 0.005117
Hg 3.376967 0.005117 3.295101
Hg 0.086982 3.295101 3.295101
Hg 0.086982 0.005117 6.585085
Hg 3.376967 3.295101 6.585085
Hg 3.376967 0.005117 9.875069
Hg 0.086982 3.295101 9.875069
Hg 0.086982 0.005117 13.165053
Hg 3.376967 3.295101 13.165053
Hg 0.086982 6.585085 -13.154820
Hg 3.376967 9.875069 -13.154820
Hg 3.376967 6.585085 -9.864836
Hg 0.086982 9.875069 -9.864836
Hg 0.086982 6.585085 -6.574852
Hg 3.376967 9.875069 -6.574852
Hg 3.376967 6.585085 -3.284868
Hg 0.086982 9.875069 -3.284868
Hg 0.086982 6.585085 0.005117
Hg 3.376967 9.875069 0.005117
Hg 3.376967 6.585085 3.295101
Hg 0.086982 9.875069 3.295101
Hg 0.086982 6.585085 6.585085
Hg 3.376967 9.875069 6.585085
Hg 3.376967 6.585085 9.875069
Hg 0.086982 9.875069 9.875069
Hg 0.086982 6.585085 13.165053
Hg 3.376967 9.875069 13.165053
Hg 3.376967 13.165053 -9.864836
Hg 0.086982 13.165053 -6.574852
Hg 3.376967 13.165053 -3.284868
Hg 0.086982 13.165053 0.005117
Hg 3.376967 13.165053 3.295101
Hg 0.086982 13.165053 6.585085
Hg 3.376967 13.165053 9.875069
Hg 6.666951 -9.864836 -9.864836
Hg 6.666951 -13.154820 -6.574852
Hg 9.956935 -13.154820 -3.284868
Hg 6.666951 -9.864836 -3.284868
Hg 6.666951 -13.154820 0.005117
Hg 9.956935 -9.864836 0.005117
Hg 9.956935 -13.154820 3.295101
Hg 6.666951 -9.864836 3.295101
Hg 6.666951 -13.154820 6.585085
Hg 9.956935 -9.864836 6.585085
Hg 6.666951 -9.864836 9.875069
Hg 6.666951 -6.574852 -13.154820
Hg 9.956935 -3.284868 -13.154820
Hg 9.956935 -6.574852 -9.864836
Hg 6.666951 -3.284868 -9.864836
Hg 6.666951 -6.574852 -6.574852
Hg 9.956935 -3.284868 -6.574852
Hg 9.956935 -6.574852 -3.284868
Hg 6.666951 -3.284868 -3.284868
Hg 6.666951 -6.574852 0.005117
Hg 9.956935 -3.284868 0.005117
Hg 9.956935 -6.574852 3.295101
Hg 6.666951 -3.284868 3.295101
Hg 6.666951 -6.574852 6.585085
Hg 9.956935 -3.284868 6.585085
Hg 6.666951 -3.284868 9.875069
Hg 6.666951 -6.574852 13.165053
Hg 9.956935 -3.284868 13.165053
Hg 6.666951 0.005117 -13.154820
Hg 9.956935 3.295101 -13.154820
Hg 9.956935 0.005117 -9.864836
Hg 6.666951 3.295101 -9.864836
Hg 6.666951 0.005117 -6.574852
Hg 9.956935 3.295101 -6.574852
Hg 9.956935 0.005117 -3.284868
Hg 6.666951 3.295101 -3.284868
Hg 6.666951 0.005117 0.005117
Hg 9.956935 3.295101 0.005117
Hg 9.956935 0.005117 3.295101
Hg 6.666951 3.295101 3.295101
Hg 6.666951 0.005117 6.585085
Hg 9.956935 3.295101 6.585085
Hg 9.956935 0.005117 9.875069
Hg 6.666951 3.295101 9.875069
Hg 6.666951 0.005117 13.165053
Hg 9.956935 3.295101 13.165053
Hg 6.666951 6.585085 -13.154820
Hg 6.666951 9.875069 -9.864836
Hg 6.666951 6.585085 -6.574852
Hg 9.956935 9.875069 -6.574852
Hg 9.956935 6.585085 -3.284868
Hg 6.666951 9.875069 -3.284868
Hg 6.666951 6.585085 0.005117
Hg 9.956935 9.875069 0.005117
Hg 9.956935 6.585085 3.295101
Hg 6.666951 9.875069 3.295101
Hg 6.666951 6.585085 6.585085
Hg 9.956935 6.585085 9.875069
Hg 6.666951 9.875069 9.875069
Hg 6.666951 6.585085 13.165053
Hg 6.666951 13.165053 -6.574852
Hg 9.956935 13.165053 -3.284868
Hg 6.666951 13.165053 0.005117
Hg 9.956935 13.165053 3.295101
Hg 6.666951 13.165053 6.585085
Hg 13.246919 -9.864836 -3.284868
Hg 13.246919 -9.864836 3.295101
Hg 13.246919 -3.284868 -9.864836
Hg 13.246919 -6.574852 -6.574852
Hg 13.246919 -3.284868 -3.284868
Hg 13.246919 -6.574852 0.005117
Hg 13.246919 -3.284868 3.295101
Hg 13.246919 -6.574852 6.585085
Hg 13.246919 -3.284868 9.875069
Hg 13.246919 3.295101 -9.864836
Hg 13.246919 0.005117 -6.574852
Hg 13.246919 3.295101 -3.284868
Hg 13.246919 0.005117 0.005117
Hg 13.246919 3.295101 3.295101
Hg 13.246919 0.005117 6.585085
Hg 13.246919 3.295101 9.875069
Hg 13.246919 6.585085 -6.574852
Hg 13.246919 9.875069 -3.284868
Hg 13.246919 6.585085 0.005117
Hg 13.246919 9.875069 3.295101
Hg 13.246919 6.585085 6.585085
Te -11.427962 -11.509828 -4.929860
Te -11.427962 -8.219844 -1.639875
Te -8.137978 -8.219844 -4.929860
Te -8.137978 -11.509828 -1.639875
Te -11.427962 -11.509828 1.650109
Te -11.427962 -8.219844 4.940093
Te -8.137978 -8.219844 1.650109
Te -8.137978 -11.509828 4.940093
Te -8.137978 -8.219844 8.230077
Te -11.427962 -1.639875 -8.219844
Te -8.137978 -1.639875 -11.509828
Te -8.137978 -4.929860 -8.219844
Te -11.427962 -4.929860 -4.929860
Te -11.427962 -1.639875 -1.639875
Te -8.137978 -1.639875 -4.929860
Te -8.137978 -4.929860 -1.639875
Te -11.427962 -4.929860 1.650109
Te -11.427962 -1.639875 4.940093
Te -8.137978 -1.639875 1.650109
Te -8.137978 -4.929860 4.940093
Te -11.427962 -4.929860 8.230077
Te -11.427962 -1.639875 11.520061
Te -8.137978 -1.639875 8.230077
Te -8.137978 -4.929860 11.520061
Te -11.427962 1.650109 -11.509828
Te -11.427962 4.940093 -8.219844
Te -8.137978 4.940093 -11.509828
Te -8.137978 1.650109 -8.219844
Te -11.427962 1.650109 -4.929860
Te -11.427962 4.940093 -1.639875
Te -8.137978 4.940093 -4.929860
Te -8.137978 1.650109 -1.639875
Te -11.427962 1.650109 1.650109
Te -11.427962 4.940093 4.940093
Te -8.137978 4.940093 1.650109
Te -8.137978 1.650109 4.940093
Te -11.427962 1.650109 8.230077
Te -8.137978 4.940093 8.230077
Te -8.137978 1.650109 11.520061
Te -8.137978 8.230077 -8.219844
Te -11.427962 8.230077 -4.929860
Te -11.427962 11.520061 -1.639875
Te -8.137978 11.520061 -4.929860
Te -8.137978 8.230077 -1.639875
Te -11.427962 8.230077 1.650109
Te -11.427962 11.520061 4.940093
Te -8.137978 11.520061 1.650109
Te -8.137978 8.230077 4.940093
Te -4.847994 -11.509828 -11.509828
Te -4.847994 -8.219844 -8.219844
Te -1.558010 -8.219844 -11.509828
Te -1.558010 -11.509828 -8.219844
Te -4.847994 -11.509828 -4.929860
Te -4.847994 -8.219844 -1.639875
Te -1.558010 -8.219844 -4.929860
Te -1.558010 -11.509828 -1.639875
Te -4.847994 -11.509828 1.650109
Te -4.847994 -8.219844 4.940093
Te -1.558010 -8.219844 1.650109
Te -1.558010 -11.509828 4.940093
Te -4.847994 -11.509828 8.230077
Te -4.847994 -8.219844 11.520061
Te -1.558010 -8.219844 8.230077
Te -1.558010 -11.509828 11.520061
Te -4.847994 -4.929860 -11.509828
Te -4.847994 -1.639875 -8.219844
Te -1.558010 -1.639875 -11.509828
Te -1.558010 -4.929860 -8.219844
Te -4.847994 -4.929860 -4.929860
Te -4.847994 -1.639875 -1.639875
Te -1.558010 -1.639875 -4.929860
Te -1.558010 -4.929860 -1.639875
Te -4.847994 -4.929860 1.650109
Te -4.847994 -1.639875 4.940093
Te -1.558010 -1.639875 1.650109
Te -1.558010 -4.929860 4.940093
Te -4.847994 -4.929860 8.230077
Te -4.847994 -1.639875 11.520061
Te -1.558010 -1.639875 8.230077
Te -1.558010 -4.929860 11.520061
Te -4.847994 1.650109 -11.509828
Te -4.847994 4.940093 -8.219844
Te -1.558010 4.940093 -11.509828
Te -1.558010 1.650109 -8.219844
Te -4.847994 1.650109 -4.929860
Te -4.847994 4.940093 -1.639875
Te -1.558010 4.940093 -4.929860
Te -1.558010 1.650109 -1.639875
Te -4.847994 1.650109 1.650109
Te -4.847994 4.940093 4.940093
Te -1.558010 4.940093 1.650109
Te -1.558010 1.650109 4.940093
Te -4.847994 1.650109 8.230077
Te -4.847994 4.940093 11.520061
Te -1.558010 4.940093 8.230077
Te -1.558010 1.650109 11.520061
Te -4.847994 8.230077 -11.509828
Te -4.847994 11.520061 -8.219844
Te -1.558010 11.520061 -11.509828
Te -1.558010 8.230077 -8.219844
Te -4.847994 8.230077 -4.929860
Te -4.847994 11.520061 -1.639875
Te -1.558010 11.520061 -4.929860
Te -1.558010 8.230077 -1.639875
Te -4.847994 8.230077 1.650109
Te -4.847994 11.520061 4.940093
Te -1.558010 11.520061 1.650109
Te -1.558010 8.230077 4.940093
Te -4.847994 8.230077 8.230077
Te -4.847994 11.520061 11.520061
Te -1.558010 11.520061 8.230077
Te -1.558010 8.230077 11.520061
Te 1.731975 -11.509828 -11.509828
Te 1.731975 -8.219844 -8.219844
Te 5.021959 -8.219844 -11.509828
Te 5.021959 -11.509828 -8.219844
Te 1.731975 -11.509828 -4.929860
Te 1.731975 -8.219844 -1.639875
Te 5.021959 -8.219844 -4.929860
Te 5.021959 -11.509828 -1.639875
Te 1.731975 -11.509828 1.650109
Te 1.731975 -8.219844 4.940093
Te 5.021959 -8.219844 1.650109
Te 5.021959 -11.509828 4.940093
Te 1.731975 -11.509828 8.230077
Te 1.731975 -8.219844 11.520061
Te 5.021959 -8.219844 8.230077
Te 5.021959 -11.509828 11.520061
Te 1.731975 -4.929860 -11.509828
Te 1.731975 -1.639875 -8.219844
Te 5.021959 -1.639875 -11.509828
Te 5.021959 -4.929860 -8.219844
Te 1.731975 -4.929860 -4.929860
Te 1.731975 -1.639875 -1.639875
Te 5.021959 -1.639875 -4.929860
Te 5.021959 -4.929860 -1.639875
Te 1.731975 -4.929860 1.650109
Te 1.731975 -1.639875 4.940093
Te 5.021959 -1.639875 1.650109
Te 5.021959 -4.929860 4.940093
Te 1.731975 -4.929860 8.230077
Te 1.731975 -1.639875 11.520061
Te 5.021959 -1.639875 8.230077
Te 5.021959 -4.929860 11.520061
Te 1.731975 1.650109 -11.509828
Te 1.731975 4.940093 -8.219844
Te 5.021959 4.940093 -11.509828
Te 5.021959 1.650109 -8.219844
Te 1.731975 1.650109 -4.929860
Te 1.731975 4.940093 -1.639875
Te 5.021959 4.940093 -4.929860
Te 5.021959 1.650109 -1.639875
Te 1.731975 1.650109 1.650109
Te 1.731975 4.940093 4.940093
Te 5.021959 4.940093 1.650109
Te 5.021959 1.650109 4.940093
Te 1.731975 1.650109 8.230077
Te 1.731975 4.940093 11.520061
Te 5.021959 4.940093 8.230077
Te 5.021959 1.650109 11.520061
Te 1.731975 8.230077 -11.509828
Te 1.731975 11.520061 -8.219844
Te 5.021959 11.520061 -11.509828
Te 5.021959 8.230077 -8.219844
Te 1.731975 8.230077 -4.929860
Te 1.731975 11.520061 -1.639875
Te 5.021959 11.520061 -4.929860
Te 5.021959 8.230077 -1.639875
Te 1.731975 8.230077 1.650109
Te 1.731975 11.520061 4.940093
Te 5.021959 11.520061 1.650109
Te 5.021959 8.230077 4.940093
Te 1.731975 8.230077 8.230077
Te 1.731975 11.520061 11.520061
Te 5.021959 11.520061 8.230077
Te 5.021959 8.230077 11.520061
Te 8.311943 -8.219844 -8.219844
Te 8.311943 -11.509828 -4.929860
Te 8.311943 -8.219844 -1.639875
Te 11.601927 -8.219844 -4.929860
Te 11.601927 -11.509828 -1.639875
Te 8.311943 -11.509828 1.650109
Te 8.311943 -8.219844 4.940093
Te 11.601927 -8.219844 1.650109
Te 11.601927 -11.509828 4.940093
Te 8.311943 -4.929860 -11.509828
Te 8.311943 -1.639875 -8.219844
Te 11.601927 -1.639875 -11.509828
Te 11.601927 -4.929860 -8.219844
Te 8.311943 -4.929860 -4.929860
Te 8.311943 -1.639875 -1.639875
Te 11.601927 -1.639875 -4.929860
Te 11.601927 -4.929860 -1.639875
Te 8.311943 -4.929860 1.650109
Te 8.311943 -1.639875 4.940093
Te 11.601927 -1.639875 1.650109
Te 11.601927 -4.929860 4.940093
Te 8.311943 -4.929860 8.230077
Te 8.311943 -1.639875 11.520061
Te 11.601927 -1.639875 8.230077
Te 8.311943 1.650109 -11.509828
Te 8.311943 4.940093 -8.219844
Te 11.601927 1.650109 -8.219844
Te 8.311943 1.650109 -4.929860
Te 8.311943 4.940093 -1.639875
Te 11.601927 4.940093 -4.929860
Te 11.601927 1.650109 -1.639875
Te 8.311943 1.650109 1.650109
Te 8.311943 4.940093 4.940093
Te 11.601927 4.940093 1.650109
Te 11.601927 1.650109 4.940093
Te 8.311943 1.650109 8.230077
Te 8.311943 4.940093 11.520061
Te 11.601927 4.940093 8.230077
Te 11.601927 1.650109 11.520061
Te 8.311943 8.230077 -4.929860
Te 8.311943 11.520061 -1.639875
Te 11.601927 11.520061 -4.929860
Te 11.601927 8.230077 -1.639875
Te 8.311943 8.230077 1.650109
Te 8.311943 11.520061 4.940093
Te 11.601927 11.520061 1.650109
Te 11.601927 8.230077 4.940093
Te 8.311943 8.230077 8.230077
Cl -14.717946 -8.219844 -4.929860
Cl -14.717946 -8.219844 1.650109
Cl -14.717946 -4.929860 -8.219844
Cl -14.717946 -1.639875 -4.929860
Cl -14.717946 -4.929860 -1.639875
Cl -14.717946 -1.639875 1.650109
Cl -14.717946 -4.929860 4.940093
Cl -14.717946 -1.639875 8.230077
Cl -14.717946 1.650109 -8.219844
Cl -14.717946 4.940093 -4.929860
Cl -14.717946 1.650109 -1.639875
Cl -14.717946 4.940093 1.650109
Cl -14.717946 1.650109 4.940093
Cl -14.717946 4.940093 8.230077
Cl -14.717946 8.230077 -1.639875
Cl -14.717946 8.230077 4.940093
Cl -8.137978 -14.799812 -4.929860
Cl -8.137978 -14.799812 1.650109
Cl -11.427962 -8.219844 -8.219844
Cl -8.137978 -8.219844 -11.509828
Cl -8.137978 -11.509828 -8.219844
Cl -8.137978 -4.929860 -14.799812
Cl -11.427962 -4.929860 -11.509828
Cl -8.137978 -1.639875 14.810046
Cl -8.137978 1.650109 -14.799812
Cl -11.427962 4.940093 11.520061
Cl -8.137978 4.940093 14.810046
Cl -11.427962 8.230077 8.230077
Cl -8.137978 11.520061 8.230077
Cl -8.137978 8.230077 11.520061
Cl -8.137978 14.810046 -1.639875
Cl -8.137978 14.810046 4.940093
Cl -4.847994 -14.799812 -8.219844
Cl -4.847994 -14.799812 -1.639875
Cl -1.558010 -14.799812 -4.929860
Cl -4.847994 -14.799812 4.940093
Cl -1.558010 -14.799812 1.650109
Cl -1.558010 -14.799812 8.230077
Cl -4.847994 -8.219844 -14.799812
Cl -1.558010 -8.219844 14.810046
Cl -4.847994 -1.639875 -14.799812
Cl -1.558010 -4.929860 -14.799812
Cl -4.847994 -4.929860 14.810046
Cl -1.558010 -1.639875 14.810046
Cl -4.847994 4.940093 -14.799812
Cl -1.558010 1.650109 -14.799812
Cl -4.847994 1.650109 14.810046
Cl -1.558010 4.940093 14.810046
Cl -1.558010 8.230077 -14.799812
Cl -4.847994 8.230077 14.810046
Cl -1.558010 14.810046 -8.219844
Cl -4.847994 14.810046 -4.929860
Cl -1.558010 14.810046 -1.639875
Cl -4.847994 14.810046 1.650109
Cl -1.558010 14.810046 4.940093
Cl -4.847994 14.810046 8.230077
Cl 1.731975 -14.799812 -8.219844
Cl 1.731975 -14.799812 -1.639875
Cl 5.021959 -14.799812 -4.929860
Cl 1.731975 -14.799812 4.940093
Cl 5.021959 -14.799812 1.650109
Cl 5.021959 -14.799812 8.230077
Cl 1.731975 -8.219844 -14.799812
Cl 5.021959 -8.219844 14.810046
Cl 1.731975 -1.639875 -14.799812
Cl 5.021959 -4.929860 -14.799812
Cl 1.731975 -4.929860 14.810046
Cl 5.021959 -1.639875 14.810046
Cl 1.731975 4.940093 -14.799812
Cl 5.021959 1.650109 -14.799812
Cl 1.731975 1.650109 14.810046
Cl 5.021959 4.940093 14.810046
Cl 5.021959 8.230077 -14.799812
Cl 1.731975 8.230077 14.810046
Cl 5.021959 14.810046 -8.219844
Cl 1.731975 14.810046 -4.929860
Cl 5.021959 14.810046 -1.639875
Cl 1.731975 14.810046 1.650109
Cl 5.021959 14.810046 4.940093
Cl 1.731975 14.810046 8.230077
Cl 8.311943 -14.799812 -1.639875
Cl 8.311943 -14.799812 4.940093
Cl 8.311943 -11.509828 8.230077
Cl 8.311943 -8.219844 11.520061
Cl 11.601927 -8.219844 8.230077
Cl 8.311943 -1.639875 -14.799812
Cl 11.601927 -4.929860 11.520061
Cl 8.311943 -4.929860 14.810046
Cl 8.311943 4.940093 -14.799812
Cl 11.601927 4.940093 -11.509828
Cl 8.311943 1.650109 14.810046
Cl 8.311943 8.230077 -11.509828
Cl 8.311943 11.520061 -8.219844
Cl 11.601927 8.230077 -8.219844
Cl 8.311943 14.810046 -4.929860
Cl 8.311943 14.810046 1.650109
Cl 14.891911 -8.219844 -1.639875
Cl 14.891911 -8.219844 4.940093
Cl 14.891911 -1.639875 -8.219844
Cl 14.891911 -4.929860 -4.929860
Cl 14.891911 -1.639875 -1.639875
Cl 14.891911 -4.929860 1.650109
Cl 14.891911 -1.639875 4.940093
Cl 14.891911 -4.929860 8.230077
Cl 14.891911 4.940093 -8.219844
Cl 14.891911 1.650109 -4.929860
Cl 14.891911 4.940093 -1.639875
Cl 14.891911 1.650109 1.650109
Cl 14.891911 4.940093 4.940093
Cl 14.891911 1.650109 8.230077
Cl 14.891911 8.230077 -4.929860
Cl 14.891911 8.230077 1.650109
Cl -11.427962 -14.799812 -1.639875
Cl -11.427962 -1.639875 -14.799812
Cl -14.717946 1.650109 11.520061
Cl -14.717946 11.520061 1.650109
Cl -1.558010 -11.509828 -14.799812
Cl -1.558010 11.520061 14.810046
Cl -11.427962 -4.929860 11.520061
Cl -11.427962 4.940093 -11.509828
Cl 5.021959 -11.509828 -11.509828
Cl 5.021959 11.520061 11.520061
Cl -4.847994 -11.509828 11.520061
Cl -4.847994 11.520061 -11.509828
Cl 11.601927 -4.929860 -11.509828
Cl 11.601927 4.940093 11.520061
Cl -11.523992 -11.605858 4.934477
Cl -11.523992 11.616091 -4.924244
Cl 11.697957 -11.605858 -4.924244
Cl 11.697957 11.616091 4.934477
