1017
ZnS-Zn-Zn477S414Cl126-clean
Zn -13.468414 -8.081049 -0.000000
Zn -13.468414 -10.774732 2.693683
Zn -13.468414 -8.081049 5.387366
Zn -13.468414 -2.693683 -5.387366
Zn -13.468414 -5.387366 -2.693683
Zn -13.468414 -2.693683 -0.000000
Zn -13.468414 -5.387366 2.693683
Zn -13.468414 -2.693683 5.387366
Zn -13.468414 -5.387366 8.081049
Zn -13.468414 -2.693683 10.774731
Zn -13.468414 2.693683 -10.774732
Zn -13.468414 -0.000000 -8.081049
Zn -13.468414 2.693683 -5.387366
Zn -13.468414 -0.000000 -2.693683
Zn -13.468414 2.693683 -0.000000
Zn -13.468414 -0.000000 2.693683
Zn -13.468414 2.693683 5.387366
Zn -13.468414 -0.000000 8.081049
Zn -13.468414 5.387366 -8.081049
Zn -13.468414 8.081049 -5.387366
Zn -13.468414 5.387366 -2.693683
Zn -13.468414 8.081049 -0.000000
Zn -13.468414 5.387366 2.693683
Zn -13.468414 10.774731 -2.693683
Zn -8.081049 -13.468414 -0.000000
Zn -10.774732 -13.468414 2.693683
Zn -8.081049 -13.468414 5.387366
Zn -8.081049 -8.081049 -5.387366
Zn -8.081049 -10.774732 -2.693683
Zn -10.774732 -8.081049 -2.693683
Zn -10.774732 -10.774732 -0.000000
Zn -8.081049 -8.081049 -0.000000
Zn -8.081049 -10.774732 2.693683
Zn -10.774732 -8.081049 2.693683
Zn -10.774732 -10.774732 5.387366
Zn -8.081049 -8.081049 5.387366
Zn -8.081049 -10.774732 8.081049
Zn -10.774732 -8.081049 8.081049
Zn -8.081049 -8.081049 10.774731
Zn -8.081049 -2.693683 -10.774732
Zn -8.081049 -5.387366 -8.081049
Zn -10.774732 -2.693683 -8.081049
Zn -10.774732 -5.387366 -5.387366
Zn -8.081049 -2.693683 -5.387366
Zn -8.081049 -5.387366 -2.693683
Zn -10.774732 -2.693683 -2.693683
Zn -10.774732 -5.387366 -0.000000
Zn -8.081049 -2.693683 -0.000000
Zn -8.081049 -5.387366 2.693683
Zn -10.774732 -2.693683 2.693683
Zn -10.774732 -5.387366 5.387366
Zn -8.081049 -2.693683 5.387366
Zn -8.081049 -5.387366 8.081049
Zn -10.774732 -2.693683 8.081049
Zn -10.774732 -5.387366 10.774731
Zn -8.081049 -2.693683 10.774731
Zn -8.081049 -5.387366 13.468414
Zn -10.774732 -2.693683 13.468414
Zn -8.081049 -0.000000 -13.468414
Zn -10.774732 2.693683 -13.468414
Zn -10.774732 -0.000000 -10.774731
Zn -8.081049 2.693683 -10.774731
Zn -8.081049 -0.000000 -8.081049
Zn -10.774732 2.693683 -8.081049
Zn -10.774732 -0.000000 -5.387366
Zn -8.081049 2.693683 -5.387366
Zn -8.081049 -0.000000 -2.693683
Zn -10.774732 2.693683 -2.693683
Zn -10.774732 -0.000000 -0.000000
Zn -8.081049 2.693683 -0.000000
Zn -8.081049 -0.000000 2.693683
Zn -10.774732 2.693683 2.693683
Zn -10.774732 -0.000000 5.387366
Zn -8.081049 2.693683 5.387366
Zn -8.081049 -0.000000 8.081049
Zn -10.774732 2.693683 8.081049
Zn -10.774732 -0.000000 10.774731
Zn -8.081049 2.693683 10.774731
Zn -8.081049 -0.000000 13.468414
Zn -8.081049 5.387366 -13.468414
Zn -10.774732 5.387366 -10.774731
Zn -8.081049 8.081049 -10.774731
Zn -8.081049 5.387366 -8.081049
Zn -10.774732 8.081049 -8.081049
Zn -10.774732 5.387366 -5.387366
Zn -8.081049 8.081049 -5.387366
Zn -8.081049 5.387366 -2.693683
Zn -10.774732 8.081049 -2.693683
Zn -10.774732 5.387366 -0.000000
Zn -8.081049 8.081049 -0.000000
Zn -8.081049 5.387366 2.693683
Zn -10.774732 8.081049 2.693683
Zn -10.774732 5.387366 5.387366
Zn -8.081049 8.081049 5.387366
Zn -8.081049 5.387366 8.081049
Zn -8.081049 10.774731 -8.081049
Zn -10.774732 10.774731 -5.387366
Zn -8.081049 13.468414 -5.387366
Zn -8.081049 10.774731 -2.693683
Zn -10.774732 13.468414 -2.693683
Zn -10.774732 10.774731 -0.000000
Zn -8.081049 13.468414 0.000000
Zn -8.081049 10.774731 2.693683
Zn -2.693683 -13.468414 -5.387366
Zn -5.387366 -13.468414 -2.693683
Zn -2.693683 -13.468414 -0.000000
Zn -5.387366 -13.468414 2.693683
Zn -2.693683 -13.468414 5.387366
Zn -5.387366 -13.468414 8.081049
Zn -2.693683 -13.468414 10.774731
Zn -2.693683 -8.081049 -10.774732
Zn -2.693683 -10.774732 -8.081049
Zn -5.387366 -8.081049 -8.081049
Zn -5.387366 -10.774732 -5.387366
Zn -2.693683 -8.081049 -5.387366
Zn -2.693683 -10.774732 -2.693683
Zn -5.387366 -8.081049 -2.693683
Zn -5.387366 -10.774732 -0.000000
Zn -2.693683 -8.081049 -0.000000
Zn -2.693683 -10.774732 2.693683
Zn -5.387366 -8.081049 2.693683
Zn -5.387366 -10.774732 5.387366
Zn -2.693683 -8.081049 5.387366
Zn -2.693683 -10.774732 8.081049
Zn -5.387366 -8.081049 8.081049
Zn -5.387366 -10.774732 10.774731
Zn -2.693683 -8.081049 10.774731
Zn -2.693683 -10.774732 13.468414
Zn -5.387366 -8.081049 13.468414
Zn -2.693683 -5.387366 -13.468414
Zn -5.387366 -2.693683 -13.468414
Zn -5.387366 -5.387366 -10.774731
Zn -2.693683 -2.693683 -10.774731
Zn -2.693683 -5.387366 -8.081049
Zn -5.387366 -2.693683 -8.081049
Zn -5.387366 -5.387366 -5.387366
Zn -2.693683 -2.693683 -5.387366
Zn -2.693683 -5.387366 -2.693683
Zn -5.387366 -2.693683 -2.693683
Zn -5.387366 -5.387366 -0.000000
Zn -2.693683 -2.693683 -0.000000
Zn -2.693683 -5.387366 2.693683
Zn -5.387366 -2.693683 2.693683
Zn -5.387366 -5.387366 5.387366
Zn -2.693683 -2.693683 5.387366
Zn -2.693683 -5.387366 8.081049
Zn -5.387366 -2.693683 8.081049
Zn -5.387366 -5.387366 10.774731
Zn -2.693683 -2.693683 10.774731
Zn -2.693683 -5.387366 13.468414
Zn -5.387366 -2.693683 13.468414
Zn -2.693683 -0.000000 -13.468414
Zn -5.387366 2.693683 -13.468414
Zn -5.387366 -0.000000 -10.774731
Zn -2.693683 2.693683 -10.774731
Zn -2.693683 -0.000000 -8.081049
Zn -5.387366 2.693683 -8.081049
Zn -5.387366 -0.000000 -5.387366
Zn -2.693683 2.693683 -5.387366
Zn -2.693683 -0.000000 -2.693683
Zn -5.387366 2.693683 -2.693683
Zn -5.387366 -0.000000 -0.000000
Zn -2.693683 2.693683 -0.000000
Zn -2.693683 -0.000000 2.693683
Zn -5.387366 2.693683 2.693683
Zn -5.387366 -0.000000 5.387366
Zn -2.693683 2.693683 5.387366
Zn -2.693683 -0.000000 8.081049
Zn -5.387366 2.693683 8.081049
Zn -5.387366 -0.000000 10.774731
Zn -2.693683 2.693683 10.774731
Zn -2.693683 -0.000000 13.468414
Zn -5.387366 2.693683 13.468414
Zn -2.693683 5.387366 -13.468414
Zn -5.387366 8.081049 -13.468414
Zn -5.387366 5.387366 -10.774731
Zn -2.693683 8.081049 -10.774731
Zn -2.693683 5.387366 -8.081049
Zn -5.387366 8.081049 -8.081049
Zn -5.387366 5.387366 -5.387366
Zn -2.693683 8.081049 -5.387366
Zn -2.693683 5.387366 -2.693683
Zn -5.387366 8.081049 -2.693683
Zn -5.387366 5.387366 -0.000000
Zn -2.693683 8.081049 0.000000
Zn -2.693683 5.387366 2.693683
Zn -5.387366 8.081049 2.693683
Zn -5.387366 5.387366 5.387366
Zn -2.693683 8.081049 5.387366
Zn -2.693683 5.387366 8.081049
Zn -5.387366 8.081049 8.081049
Zn -5.387366 5.387366 10.774731
Zn -2.693683 8.081049 10.774731
Zn -2.693683 5.387366 13.468414
Zn -2.693683 10.774731 -13.468414
Zn -5.387366 10.774731 -10.774731
Zn -2.693683 13.468414 -10.774731
Zn -2.693683 10.774731 -8.081049
Zn -5.387366 13.468414 -8.081049
Zn -5.387366 10.774731 -5.387366
Zn -2.693683 13.468414 -5.387366
Zn -2.693683 10.774731 -2.693683
Zn -5.387366 13.468414 -2.693683
Zn -5.387366 10.774731 0.000000
Zn -2.693683 13.468414 0.000000
Zn -2.693683 10.774731 2.693683
Zn -5.387366 13.468414 2.693683
Zn -5.387366 10.774731 5.387366
Zn -2.693683 13.468414 5.387366
Zn -2.693683 10.774731 8.081049
Zn 2.693683 -13.468414 -10.774732
Zn -0.000000 -13.468414 -8.081049
Zn 2.693683 -13.468414 -5.387366
Zn -0.000000 -13.468414 -2.693683
Zn 2.693683 -13.468414 -0.000000
Zn -0.000000 -13.468414 2.693683
Zn 2.693683 -13.468414 5.387366
Zn -0.000000 -13.468414 8.081049
Zn 2.693683 -10.774732 -13.468414
Zn -0.000000 -8.081049 -13.468414
Zn -0.000000 -10.774732 -10.774731
Zn 2.693683 -8.081049 -10.774731
Zn 2.693683 -10.774732 -8.081049
Zn -0.000000 -8.081049 -8.081049
Zn -0.000000 -10.774732 -5.387366
Zn 2.693683 -8.081049 -5.387366
Zn 2.693683 -10.774732 -2.693683
Zn -0.000000 -8.081049 -2.693683
Zn -0.000000 -10.774732 -0.000000
Zn 2.693683 -8.081049 -0.000000
Zn 2.693683 -10.774732 2.693683
Zn -0.000000 -8.081049 2.693683
Zn -0.000000 -10.774732 5.387366
Zn 2.693683 -8.081049 5.387366
Zn 2.693683 -10.774732 8.081049
Zn -0.000000 -8.081049 8.081049
Zn -0.000000 -10.774732 10.774731
Zn 2.693683 -8.081049 10.774731
Zn -0.000000 -8.081049 13.468414
Zn 2.693683 -5.387366 -13.468414
Zn -0.000000 -2.693683 -13.468414
Zn -0.000000 -5.387366 -10.774731
Zn 2.693683 -2.693683 -10.774731
Zn 2.693683 -5.387366 -8.081049
Zn -0.000000 -2.693683 -8.081049
Zn -0.000000 -5.387366 -5.387366
Zn 2.693683 -2.693683 -5.387366
Zn 2.693683 -5.387366 -2.693683
Zn -0.000000 -2.693683 -2.693683
Zn -0.000000 -5.387366 -0.000000
Zn 2.693683 -2.693683 -0.000000
Zn 2.693683 -5.387366 2.693683
Zn -0.000000 -2.693683 2.693683
Zn -0.000000 -5.387366 5.387366
Zn 2.693683 -2.693683 5.387366
Zn 2.693683 -5.387366 8.081049
Zn -0.000000 -2.693683 8.081049
Zn -0.000000 -5.387366 10.774731
Zn 2.693683 -2.693683 10.774731
Zn 2.693683 -5.387366 13.468414
Zn -0.000000 -2.693683 13.468414
Zn 2.693683 -0.000000 -13.468414
Zn -0.000000 2.693683 -13.468414
Zn -0.000000 -0.000000 -10.774731
Zn 2.693683 2.693683 -10.774731
Zn 2.693683 -0.000000 -8.081049
Zn -0.000000 2.693683 -8.081049
Zn -0.000000 -0.000000 -5.387366
Zn 2.693683 2.693683 -5.387366
Zn 2.693683 -0.000000 -2.693683
Zn -0.000000 2.693683 -2.693683
Zn -0.000000 -0.000000 -0.000000
Zn 2.693683 2.693683 0.000000
Zn 2.693683 -0.000000 2.693683
Zn -0.000000 2.693683 2.693683
Zn -0.000000 -0.000000 5.387366
Zn 2.693683 2.693683 5.387366
Zn 2.693683 -0.000000 8.081049
Zn -0.000000 2.693683 8.081049
Zn -0.000000 -0.000000 10.774731
Zn 2.693683 2.693683 10.774731
Zn 2.693683 -0.000000 13.468414
Zn -0.000000 2.693683 13.468414
Zn 2.693683 5.387366 -13.468414
Zn -0.000000 8.081049 -13.468414
Zn -0.000000 5.387366 -10.774731
Zn 2.693683 8.081049 -10.774731
Zn 2.693683 5.387366 -8.081049
Zn -0.000000 8.081049 -8.081049
Zn -0.000000 5.387366 -5.387366
Zn 2.693683 8.081049 -5.387366
Zn 2.693683 5.387366 -2.693683
Zn -0.000000 8.081049 -2.693683
Zn -0.000000 5.387366 0.000000
Zn 2.693683 8.081049 0.000000
Zn 2.693683 5.387366 2.693683
Zn -0.000000 8.081049 2.693683
Zn -0.000000 5.387366 5.387366
Zn 2.693683 8.081049 5.387366
Zn 2.693683 5.387366 8.081049
Zn -0.000000 8.081049 8.081049
Zn -0.000000 5.387366 10.774731
Zn 2.693683 8.081049 10.774731
Zn 2.693683 5.387366 13.468414
Zn -0.000000 8.081049 13.468414
Zn -0.000000 10.774731 -10.774731
Zn 2.693683 10.774731 -8.081049
Zn -0.000000 13.468414 -8.081049
Zn -0.000000 10.774731 -5.387366
Zn 2.693683 13.468414 -5.387366
Zn 2.693683 10.774731 -2.693683
Zn -0.000000 13.468414 -2.693683
Zn -0.000000 10.774731 0.000000
Zn 2.693683 13.468414 0.000000
Zn 2.693683 10.774731 2.693683
Zn -0.000000 13.468414 2.693683
Zn -0.000000 10.774731 5.387366
Zn 2.693683 13.468414 5.387366
Zn 2.693683 10.774731 8.081049
Zn -0.000000 13.468414 8.081049
Zn -0.000000 10.774731 10.774731
Zn 2.693683 13.468414 10.774731
Zn 2.693683 10.774731 13.468414
Zn 5.387366 -13.468414 -8.081049
Zn 8.081049 -13.468414 -5.387366
Zn 5.387366 -13.468414 -2.693683
Zn 8.081049 -13.468414 -0.000000
Zn 5.387366 -13.468414 2.693683
Zn 5.387366 -8.081049 -13.468414
Zn 5.387366 -10.774732 -10.774731
Zn 8.081049 -8.081049 -10.774731
Zn 8.081049 -10.774732 -8.081049
Zn 5.387366 -8.081049 -8.081049
Zn 5.387366 -10.774732 -5.387366
Zn 8.081049 -8.081049 -5.387366
Zn 8.081049 -10.774732 -2.693683
Zn 5.387366 -8.081049 -2.693683
Zn 5.387366 -10.774732 -0.000000
Zn 8.081049 -8.081049 -0.000000
Zn 8.081049 -10.774732 2.693683
Zn 5.387366 -8.081049 2.693683
Zn 5.387366 -10.774732 5.387366
Zn 8.081049 -8.081049 5.387366
Zn 5.387366 -8.081049 8.081049
Zn 8.081049 -5.387366 -13.468414
Zn 5.387366 -2.693683 -13.468414
Zn 5.387366 -5.387366 -10.774731
Zn 8.081049 -2.693683 -10.774731
Zn 8.081049 -5.387366 -8.081049
Zn 5.387366 -2.693683 -8.081049
Zn 5.387366 -5.387366 -5.387366
Zn 8.081049 -2.693683 -5.387366
Zn 8.081049 -5.387366 -2.693683
Zn 5.387366 -2.693683 -2.693683
Zn 5.387366 -5.387366 -0.000000
Zn 8.081049 -2.693683 0.000000
Zn 8.081049 -5.387366 2.693683
Zn 5.387366 -2.693683 2.693683
Zn 5.387366 -5.387366 5.387366
Zn 8.081049 -2.693683 5.387366
Zn 8.081049 -5.387366 8.081049
Zn 5.387366 -2.693683 8.081049
Zn 5.387366 -5.387366 10.774731
Zn 8.081049 -2.693683 10.774731
Zn 5.387366 -2.693683 13.468414
Zn 8.081049 -0.000000 -13.468414
Zn 5.387366 2.693683 -13.468414
Zn 5.387366 -0.000000 -10.774731
Zn 8.081049 2.693683 -10.774731
Zn 8.081049 -0.000000 -8.081049
Zn 5.387366 2.693683 -8.081049
Zn 5.387366 -0.000000 -5.387366
Zn 8.081049 2.693683 -5.387366
Zn 8.081049 -0.000000 -2.693683
Zn 5.387366 2.693683 -2.693683
Zn 5.387366 -0.000000 0.000000
Zn 8.081049 2.693683 0.000000
Zn 8.081049 -0.000000 2.693683
Zn 5.387366 2.693683 2.693683
Zn 5.387366 -0.000000 5.387366
Zn 8.081049 2.693683 5.387366
Zn 8.081049 -0.000000 8.081049
Zn 5.387366 2.693683 8.081049
Zn 5.387366 -0.000000 10.774731
Zn 8.081049 2.693683 10.774731
Zn 8.081049 -0.000000 13.468414
Zn 5.387366 2.693683 13.468414
Zn 5.387366 5.387366 -10.774731
Zn 8.081049 5.387366 -8.081049
Zn 5.387366 8.081049 -8.081049
Zn 5.387366 5.387366 -5.387366
Zn 8.081049 8.081049 -5.387366
Zn 8.081049 5.387366 -2.693683
Zn 5.387366 8.081049 -2.693683
Zn 5.387366 5.387366 0.000000
Zn 8.081049 8.081049 0.000000
Zn 8.081049 5.387366 2.693683
Zn 5.387366 8.081049 2.693683
Zn 5.387366 5.387366 5.387366
Zn 8.081049 8.081049 5.387366
Zn 8.081049 5.387366 8.081049
Zn 5.387366 8.081049 8.081049
Zn 5.387366 5.387366 10.774731
Zn 8.081049 8.081049 10.774731
Zn 8.081049 5.387366 13.468414
Zn 5.387366 8.081049 13.468414
Zn 5.387366 10.774731 -5.387366
Zn 8.081049 10.774731 -2.693683
Zn 5.387366 13.468414 -2.693683
Zn 5.387366 10.774731 0.000000
Zn 8.081049 13.468414 0.000000
Zn 8.081049 10.774731 2.693683
Zn 5.387366 13.468414 2.693683
Zn 5.387366 10.774731 5.387366
Zn 8.081049 13.468414 5.387366
Zn 8.081049 10.774731 8.081049
Zn 5.387366 13.468414 8.081049
Zn 5.387366 10.774731 10.774732
Zn 10.774731 -13.468414 -2.693683
Zn 10.774731 -8.081049 -8.081049
Zn 10.774731 -10.774732 -5.387366
Zn 13.468414 -8.081049 -5.387366
Zn 13.468414 -10.774732 -2.693683
Zn 10.774731 -8.081049 -2.693683
Zn 10.774731 -10.774732 -0.000000
Zn 13.468414 -8.081049 0.000000
Zn 10.774731 -8.081049 2.693683
Zn 10.774731 -2.693683 -13.468414
Zn 10.774731 -5.387366 -10.774731
Zn 13.468414 -2.693683 -10.774731
Zn 13.468414 -5.387366 -8.081049
Zn 10.774731 -2.693683 -8.081049
Zn 10.774731 -5.387366 -5.387366
Zn 13.468414 -2.693683 -5.387366
Zn 13.468414 -5.387366 -2.693683
Zn 10.774731 -2.693683 -2.693683
Zn 10.774731 -5.387366 0.000000
Zn 13.468414 -2.693683 0.000000
Zn 13.468414 -5.387366 2.693683
Zn 10.774731 -2.693683 2.693683
Zn 10.774731 -5.387366 5.387366
Zn 13.468414 -2.693683 5.387366
Zn 10.774731 -2.693683 8.081049
Zn 10.774731 -0.000000 -10.774731
Zn 13.468414 -0.000000 -8.081049
Zn 10.774731 2.693683 -8.081049
Zn 10.774731 -0.000000 -5.387366
Zn 13.468414 2.693683 -5.387366
Zn 13.468414 -0.000000 -2.693683
Zn 10.774731 2.693683 -2.693683
Zn 10.774731 -0.000000 0.000000
Zn 13.468414 2.693683 0.000000
Zn 13.468414 -0.000000 2.693683
Zn 10.774731 2.693683 2.693683
Zn 10.774731 -0.000000 5.387366
Zn 13.468414 2.693683 5.387366
Zn 13.468414 -0.000000 8.081049
Zn 10.774731 2.693683 8.081049
Zn 10.774731 -0.000000 10.774731
Zn 13.468414 2.693683 10.774731
Zn 10.774731 2.693683 13.468414
Zn 10.774731 5.387366 -5.387366
Zn 13.468414 5.387366 -2.693683
Zn 10.774731 8.081049 -2.693683
Zn 10.774731 5.387366 0.000000
Zn 13.468414 8.081049 0.000000
Zn 13.468414 5.387366 2.693683
Zn 10.774731 8.081049 2.693683
Zn 10.774731 5.387366 5.387366
Zn 13.468414 8.081049 5.387366
Zn 13.468414 5.387366 8.081049
Zn 10.774731 8.081049 8.081049
Zn 10.774731 5.387366 10.774732
Zn 10.774731 10.774731 0.000000
Zn 13.468414 10.774731 2.693683
Zn 10.774731 13.468414 2.693683
Zn 10.774731 10.774731 5.387366
S -12.121573 -12.121573 1.346841
S -12.121573 -6.734207 -4.040524
S -12.121573 -9.427890 -1.346841
S -12.121573 -6.734207 1.346841
S -12.121573 -9.427890 4.040524
S -12.121573 -6.734207 6.734207
S -12.121573 -1.346841 -9.427890
S -12.121573 -4.040524 -6.734207
S -12.121573 -1.346841 -4.040524
S -12.121573 -4.040524 -1.346841
S -12.121573 -1.346841 1.346841
S -12.121573 -4.040524 4.040524
S -12.121573 -1.346841 6.734207
S -12.121573 -4.040524 9.427890
S -12.121573 -1.346841 12.121573
S -12.121573 1.346841 -12.121573
S -12.121573 4.040524 -9.427890
S -12.121573 1.346841 -6.734207
S -12.121573 4.040524 -4.040524
S -12.121573 1.346841 -1.346841
S -12.121573 4.040524 1.346841
S -12.121573 1.346841 4.040524
S -12.121573 4.040524 6.734207
S -12.121573 1.346841 9.427890
S -12.121573 6.734207 -6.734207
S -12.121573 9.427890 -4.040524
S -12.121573 6.734207 -1.346841
S -12.121573 9.427890 1.346841
S -12.121573 6.734207 4.040524
S -9.427890 -12.121573 -1.346841
S -6.734207 -12.121573 -4.040524
S -9.427890 -12.121573 4.040524
S -6.734207 -12.121573 1.346841
S -6.734207 -12.121573 6.734207
S -9.427890 -6.734207 -6.734207
S -6.734207 -6.734207 -9.427890
S -6.734207 -9.427890 -6.734207
S -9.427890 -9.427890 -4.040524
S -9.427890 -6.734207 -1.346841
S -6.734207 -6.734207 -4.040524
S -6.734207 -9.427890 -1.346841
S -9.427890 -9.427890 1.346841
S -9.427890 -6.734207 4.040524
S -6.734207 -6.734207 1.346841
S -6.734207 -9.427890 4.040524
S -9.427890 -9.427890 6.734207
S -9.427890 -6.734207 9.427890
S -6.734207 -6.734207 6.734207
S -6.734207 -9.427890 9.427890
S -6.734207 -6.734207 12.121573
S -9.427890 -1.346841 -12.121573
S -6.734207 -4.040524 -12.121573
S -9.427890 -4.040524 -9.427890
S -9.427890 -1.346841 -6.734207
S -6.734207 -1.346841 -9.427890
S -6.734207 -4.040524 -6.734207
S -9.427890 -4.040524 -4.040524
S -9.427890 -1.346841 -1.346841
S -6.734207 -1.346841 -4.040524
S -6.734207 -4.040524 -1.346841
S -9.427890 -4.040524 1.346841
S -9.427890 -1.346841 4.040524
S -6.734207 -1.346841 1.346841
S -6.734207 -4.040524 4.040524
S -9.427890 -4.040524 6.734207
S -9.427890 -1.346841 9.427890
S -6.734207 -1.346841 6.734207
S -6.734207 -4.040524 9.427890
S -9.427890 -4.040524 12.121573
S -6.734207 -1.346841 12.121573
S -9.427890 4.040524 -12.121573
S -6.734207 1.346841 -12.121573
S -9.427890 1.346841 -9.427890
S -9.427890 4.040524 -6.734207
S -6.734207 4.040524 -9.427890
S -6.734207 1.346841 -6.734207
S -9.427890 1.346841 -4.040524
S -9.427890 4.040524 -1.346841
S -6.734207 4.040524 -4.040524
S -6.734207 1.346841 -1.346841
S -9.427890 1.346841 1.346841
S -9.427890 4.040524 4.040524
S -6.734207 4.040524 1.346841
S -6.734207 1.346841 4.040524
S -9.427890 1.346841 6.734207
S -9.427890 4.040524 9.427890
S -6.734207 4.040524 6.734207
S -6.734207 1.346841 9.427890
S -9.427890 1.346841 12.121573
S -6.734207 4.040524 12.121573
S -6.734207 6.734207 -12.121573
S -9.427890 6.734207 -9.427890
S -9.427890 9.427890 -6.734207
S -6.734207 9.427890 -9.427890
S -6.734207 6.734207 -6.734207
S -9.427890 6.734207 -4.040524
S -9.427890 9.427890 -1.346841
S -6.734207 9.427890 -4.040524
S -6.734207 6.734207 -1.346841
S -9.427890 6.734207 1.346841
S -9.427890 9.427890 4.040524
S -6.734207 9.427890 1.346841
S -6.734207 6.734207 4.040524
S -9.427890 6.734207 6.734207
S -6.734207 9.427890 6.734207
S -6.734207 6.734207 9.427890
S -6.734207 12.121573 -6.734207
S -9.427890 12.121573 -4.040524
S -6.734207 12.121573 -1.346841
S -9.427890 12.121573 1.346841
S -6.734207 12.121573 4.040524
S -4.040524 -12.121573 -6.734207
S -1.346841 -12.121573 -9.427890
S -4.040524 -12.121573 -1.346841
S -1.346841 -12.121573 -4.040524
S -4.040524 -12.121573 4.040524
S -1.346841 -12.121573 1.346841
S -4.040524 -12.121573 9.427890
S -1.346841 -12.121573 6.734207
S -1.346841 -12.121573 12.121573
S -4.040524 -6.734207 -12.121573
S -1.346841 -9.427890 -12.121573
S -4.040524 -9.427890 -9.427890
S -4.040524 -6.734207 -6.734207
S -1.346841 -6.734207 -9.427890
S -1.346841 -9.427890 -6.734207
S -4.040524 -9.427890 -4.040524
S -4.040524 -6.734207 -1.346841
S -1.346841 -6.734207 -4.040524
S -1.346841 -9.427890 -1.346841
S -4.040524 -9.427890 1.346841
S -4.040524 -6.734207 4.040524
S -1.346841 -6.734207 1.346841
S -1.346841 -9.427890 4.040524
S -4.040524 -9.427890 6.734207
S -4.040524 -6.734207 9.427890
S -1.346841 -6.734207 6.734207
S -1.346841 -9.427890 9.427890
S -4.040524 -9.427890 12.121573
S -1.346841 -6.734207 12.121573
S -4.040524 -1.346841 -12.121573
S -1.346841 -4.040524 -12.121573
S -4.040524 -4.040524 -9.427890
S -4.040524 -1.346841 -6.734207
S -1.346841 -1.346841 -9.427890
S -1.346841 -4.040524 -6.734207
S -4.040524 -4.040524 -4.040524
S -4.040524 -1.346841 -1.346841
S -1.346841 -1.346841 -4.040524
S -1.346841 -4.040524 -1.346841
S -4.040524 -4.040524 1.346841
S -4.040524 -1.346841 4.040524
S -1.346841 -1.346841 1.346841
S -1.346841 -4.040524 4.040524
S -4.040524 -4.040524 6.734207
S -4.040524 -1.346841 9.427890
S -1.346841 -1.346841 6.734207
S -1.346841 -4.040524 9.427890
S -4.040524 -4.040524 12.121573
S -1.346841 -1.346841 12.121573
S -4.040524 4.040524 -12.121573
S -1.346841 1.346841 -12.121573
S -4.040524 1.346841 -9.427890
S -4.040524 4.040524 -6.734207
S -1.346841 4.040524 -9.427890
S -1.346841 1.346841 -6.734207
S -4.040524 1.346841 -4.040524
S -4.040524 4.040524 -1.346841
S -1.346841 4.040524 -4.040524
S -1.346841 1.346841 -1.346841
S -4.040524 1.346841 1.346841
S -4.040524 4.040524 4.040524
S -1.346841 4.040524 1.346841
S -1.346841 1.346841 4.040524
S -4.040524 1.346841 6.734207
S -4.040524 4.040524 9.427890
S -1.346841 4.040524 6.734207
S -1.346841 1.346841 9.427890
S -4.040524 1.346841 12.121573
S -1.346841 4.040524 12.121573
S -4.040524 9.427890 -12.121573
S -1.346841 6.734207 -12.121573
S -4.040524 6.734207 -9.427890
S -4.040524 9.427890 -6.734207
S -1.346841 9.427890 -9.427890
S -1.346841 6.734207 -6.734207
S -4.040524 6.734207 -4.040524
S -4.040524 9.427890 -1.346841
S -1.346841 9.427890 -4.040524
S -1.346841 6.734207 -1.346841
S -4.040524 6.734207 1.346841
S -4.040524 9.427890 4.040524
S -1.346841 9.427890 1.346841
S -1.346841 6.734207 4.040524
S -4.040524 6.734207 6.734207
S -4.040524 9.427890 9.427890
S -1.346841 9.427890 6.734207
S -1.346841 6.734207 9.427890
S -4.040524 6.734207 12.121573
S -1.346841 9.427890 12.121573
S -1.346841 12.121573 -12.121573
S -4.040524 12.121573 -9.427890
S -1.346841 12.121573 -6.734207
S -4.040524 12.121573 -4.040524
S -1.346841 12.121573 -1.346841
S -4.040524 12.121573 1.346841
S -1.346841 12.121573 4.040524
S -4.040524 12.121573 6.734207
S -1.346841 12.121573 9.427890
S 1.346841 -12.121573 -6.734207
S 4.040524 -12.121573 -9.427890
S 1.346841 -12.121573 -1.346841
S 4.040524 -12.121573 -4.040524
S 1.346841 -12.121573 4.040524
S 4.040524 -12.121573 1.346841
S 1.346841 -12.121573 9.427890
S 4.040524 -12.121573 6.734207
S 1.346841 -6.734207 -12.121573
S 4.040524 -9.427890 -12.121573
S 1.346841 -9.427890 -9.427890
S 1.346841 -6.734207 -6.734207
S 4.040524 -6.734207 -9.427890
S 4.040524 -9.427890 -6.734207
S 1.346841 -9.427890 -4.040524
S 1.346841 -6.734207 -1.346841
S 4.040524 -6.734207 -4.040524
S 4.040524 -9.427890 -1.346841
S 1.346841 -9.427890 1.346841
S 1.346841 -6.734207 4.040524
S 4.040524 -6.734207 1.346841
S 4.040524 -9.427890 4.040524
S 1.346841 -9.427890 6.734207
S 1.346841 -6.734207 9.427890
S 4.040524 -6.734207 6.734207
S 4.040524 -9.427890 9.427890
S 1.346841 -9.427890 12.121573
S 4.040524 -6.734207 12.121573
S 1.346841 -1.346841 -12.121573
S 4.040524 -4.040524 -12.121573
S 1.346841 -4.040524 -9.427890
S 1.346841 -1.346841 -6.734207
S 4.040524 -1.346841 -9.427890
S 4.040524 -4.040524 -6.734207
S 1.346841 -4.040524 -4.040524
S 1.346841 -1.346841 -1.346841
S 4.040524 -1.346841 -4.040524
S 4.040524 -4.040524 -1.346841
S 1.346841 -4.040524 1.346841
S 1.346841 -1.346841 4.040524
S 4.040524 -1.346841 1.346841
S 4.040524 -4.040524 4.040524
S 1.346841 -4.040524 6.734207
S 1.346841 -1.346841 9.427890
S 4.040524 -1.346841 6.734207
S 4.040524 -4.040524 9.427890
S 1.346841 -4.040524 12.121573
S 4.040524 -1.346841 12.121573
S 1.346841 4.040524 -12.121573
S 4.040524 1.346841 -12.121573
S 1.346841 1.346841 -9.427890
S 1.346841 4.040524 -6.734207
S 4.040524 4.040524 -9.427890
S 4.040524 1.346841 -6.734207
S 1.346841 1.346841 -4.040524
S 1.346841 4.040524 -1.346841
S 4.040524 4.040524 -4.040524
S 4.040524 1.346841 -1.346841
S 1.346841 1.346841 1.346841
S 1.346841 4.040524 4.040524
S 4.040524 4.040524 1.346841
S 4.040524 1.346841 4.040524
S 1.346841 1.346841 6.734207
S 1.346841 4.040524 9.427890
S 4.040524 4.040524 6.734207
S 4.040524 1.346841 9.427890
S 1.346841 1.346841 12.121573
S 4.040524 4.040524 12.121573
S 1.346841 9.427890 -12.121573
S 4.040524 6.734207 -12.121573
S 1.346841 6.734207 -9.427890
S 1.346841 9.427890 -6.734207
S 4.040524 9.427890 -9.427890
S 4.040524 6.734207 -6.734207
S 1.346841 6.734207 -4.040524
S 1.346841 9.427890 -1.346841
S 4.040524 9.427890 -4.040524
S 4.040524 6.734207 -1.346841
S 1.346841 6.734207 1.346841
S 1.346841 9.427890 4.040524
S 4.040524 9.427890 1.346841
S 4.040524 6.734207 4.040524
S 1.346841 6.734207 6.734207
S 1.346841 9.427890 9.427890
S 4.040524 9.427890 6.734207
S 4.040524 6.734207 9.427890
S 1.346841 6.734207 12.121573
S 4.040524 9.427890 12.121573
S 1.346841 12.121573 -9.427890
S 4.040524 12.121573 -6.734207
S 1.346841 12.121573 -4.040524
S 4.040524 12.121573 -1.346841
S 1.346841 12.121573 1.346841
S 4.040524 12.121573 4.040524
S 1.346841 12.121573 6.734207
S 4.040524 12.121573 9.427890
S 6.734207 -12.121573 -6.734207
S 6.734207 -12.121573 -1.346841
S 9.427890 -12.121573 -4.040524
S 6.734207 -12.121573 4.040524
S 9.427890 -12.121573 1.346841
S 6.734207 -6.734207 -12.121573
S 6.734207 -9.427890 -9.427890
S 6.734207 -6.734207 -6.734207
S 9.427890 -6.734207 -9.427890
S 9.427890 -9.427890 -6.734207
S 6.734207 -9.427890 -4.040524
S 6.734207 -6.734207 -1.346841
S 9.427890 -6.734207 -4.040524
S 9.427890 -9.427890 -1.346841
S 6.734207 -9.427890 1.346841
S 6.734207 -6.734207 4.040524
S 9.427890 -6.734207 1.346841
S 9.427890 -9.427890 4.040524
S 6.734207 -9.427890 6.734207
S 6.734207 -6.734207 9.427890
S 9.427890 -6.734207 6.734207
S 6.734207 -1.346841 -12.121573
S 9.427890 -4.040524 -12.121573
S 6.734207 -4.040524 -9.427890
S 6.734207 -1.346841 -6.734207
S 9.427890 -1.346841 -9.427890
S 9.427890 -4.040524 -6.734207
S 6.734207 -4.040524 -4.040524
S 6.734207 -1.346841 -1.346841
S 9.427890 -1.346841 -4.040524
S 9.427890 -4.040524 -1.346841
S 6.734207 -4.040524 1.346841
S 6.734207 -1.346841 4.040524
S 9.427890 -1.346841 1.346841
S 9.427890 -4.040524 4.040524
S 6.734207 -4.040524 6.734207
S 6.734207 -1.346841 9.427890
S 9.427890 -1.346841 6.734207
S 9.427890 -4.040524 9.427890
S 6.734207 -4.040524 12.121573
S 9.427890 -1.346841 12.121573
S 6.734207 4.040524 -12.121573
S 9.427890 1.346841 -12.121573
S 6.734207 1.346841 -9.427890
S 6.734207 4.040524 -6.734207
S 9.427890 4.040524 -9.427890
S 9.427890 1.346841 -6.734207
S 6.734207 1.346841 -4.040524
S 6.734207 4.040524 -1.346841
S 9.427890 4.040524 -4.040524
S 9.427890 1.346841 -1.346841
S 6.734207 1.346841 1.346841
S 6.734207 4.040524 4.040524
S 9.427890 4.040524 1.346841
S 9.427890 1.346841 4.040524
S 6.734207 1.346841 6.734207
S 6.734207 4.040524 9.427890
S 9.427890 4.040524 6.734207
S 9.427890 1.346841 9.427890
S 6.734207 1.346841 12.121573
S 9.427890 4.040524 12.121573
S 6.734207 6.734207 -9.427890
S 6.734207 9.427890 -6.734207
S 9.427890 6.734207 -6.734207
S 6.734207 6.734207 -4.040524
S 6.734207 9.427890 -1.346841
S 9.427890 9.427890 -4.040524
S 9.427890 6.734207 -1.346841
S 6.734207 6.734207 1.346841
S 6.734207 9.427890 4.040524
S 9.427890 9.427890 1.346841
S 9.427890 6.734207 4.040524
S 6.734207 6.734207 6.734207
S 6.734207 9.427890 9.427890
S 9.427890 9.427890 6.734207
S 9.427890 6.734207 9.427890
S 6.734207 6.734207 12.121573
S 6.734207 12.121573 -4.040524
S 9.427890 12.121573 -1.346841
S 6.734207 12.121573 1.346841
S 9.427890 12.121573 4.040524
S 6.734207 12.121573 6.734207
S 12.121573 -6.734207 -6.734207
S 12.121573 -9.427890 -4.040524
S 12.121573 -6.734207 -1.346841
S 12.121573 -9.427890 1.346841
S 12.121573 -6.734207 4.040524
S 12.121573 -4.040524 -9.427890
S 12.121573 -1.346841 -6.734207
S 12.121573 -4.040524 -4.040524
S 12.121573 -1.346841 -1.346841
S 12.121573 -4.040524 1.346841
S 12.121573 -1.346841 4.040524
S 12.121573 -4.040524 6.734207
S 12.121573 -1.346841 9.427890
S 12.121573 1.346841 -9.427890
S 12.121573 4.040524 -6.734207
S 12.121573 1.346841 -4.040524
S 12.121573 4.040524 -1.346841
S 12.121573 1.346841 1.346841
S 12.121573 4.040524 4.040524
S 12.121573 1.346841 6.734207
S 12.121573 4.040524 9.427890
S 12.121573 1.346841 12.121573
S 12.121573 6.734207 -4.040524
S 12.121573 9.427890 -1.346841
S 12.121573 6.734207 1.346841
S 12.121573 9.427890 4.040524
S 12.121573 6.734207 6.734207
Cl -14.815256 -6.734207 -1.346841
Cl -14.815256 -9.427890 1.346841
Cl -14.815256 -6.734207 4.040524
Cl -14.815256 -1.346841 -6.734207
Cl -14.815256 -4.040524 -4.040524
Cl -14.815256 -1.346841 -1.346841
Cl -14.815256 -4.040524 1.346841
Cl -14.815256 -1.346841 4.040524
Cl -14.815256 -4.040524 6.734207
Cl -14.815256 -1.346841 9.427890
Cl -14.815256 1.346841 -9.427890
Cl -14.815256 4.040524 -6.734207
Cl -14.815256 1.346841 -4.040524
Cl -14.815256 4.040524 -1.346841
Cl -14.815256 1.346841 1.346841
Cl -14.815256 4.040524 4.040524
Cl -14.815256 1.346841 6.734207
Cl -14.815256 6.734207 -4.040524
Cl -14.815256 9.427890 -1.346841
Cl -14.815256 6.734207 1.346841
Cl -12.121573 12.121573 -1.346841
Cl -6.734207 -14.815256 -1.346841
Cl -9.427890 -14.815256 1.346841
Cl -6.734207 -14.815256 4.040524
Cl -6.734207 -1.346841 -14.815256
Cl -9.427890 -1.346841 14.815256
Cl -6.734207 -4.040524 14.815256
Cl -9.427890 1.346841 -14.815256
Cl -6.734207 4.040524 -14.815256
Cl -6.734207 1.346841 14.815256
Cl -9.427890 14.815256 -1.346841
Cl -6.734207 14.815256 -4.040524
Cl -6.734207 14.815256 1.346841
Cl -1.346841 -14.815256 -6.734207
Cl -4.040524 -14.815256 -4.040524
Cl -1.346841 -14.815256 -1.346841
Cl -4.040524 -14.815256 1.346841
Cl -1.346841 -14.815256 4.040524
Cl -4.040524 -14.815256 6.734207
Cl -1.346841 -14.815256 9.427890
Cl -1.346841 -6.734207 -14.815256
Cl -4.040524 -6.734207 14.815256
Cl -1.346841 -9.427890 14.815256
Cl -4.040524 -4.040524 -14.815256
Cl -1.346841 -1.346841 -14.815256
Cl -4.040524 -1.346841 14.815256
Cl -1.346841 -4.040524 14.815256
Cl -4.040524 1.346841 -14.815256
Cl -1.346841 4.040524 -14.815256
Cl -4.040524 4.040524 14.815256
Cl -1.346841 1.346841 14.815256
Cl -4.040524 6.734207 -14.815256
Cl -1.346841 9.427890 -14.815256
Cl -1.346841 6.734207 14.815256
Cl -4.040524 14.815256 -6.734207
Cl -1.346841 14.815256 -9.427890
Cl -4.040524 14.815256 -1.346841
Cl -1.346841 14.815256 -4.040524
Cl -4.040524 14.815256 4.040524
Cl -1.346841 14.815256 1.346841
Cl -1.346841 14.815256 6.734207
Cl 1.346841 -12.121573 -12.121573
Cl 1.346841 -14.815256 -9.427890
Cl 4.040524 -14.815256 -6.734207
Cl 1.346841 -14.815256 -4.040524
Cl 4.040524 -14.815256 -1.346841
Cl 1.346841 -14.815256 1.346841
Cl 4.040524 -14.815256 4.040524
Cl 1.346841 -14.815256 6.734207
Cl 1.346841 -9.427890 -14.815256
Cl 4.040524 -6.734207 -14.815256
Cl 1.346841 -6.734207 14.815256
Cl 1.346841 -4.040524 -14.815256
Cl 4.040524 -1.346841 -14.815256
Cl 1.346841 -1.346841 14.815256
Cl 4.040524 -4.040524 14.815256
Cl 1.346841 1.346841 -14.815256
Cl 4.040524 4.040524 -14.815256
Cl 1.346841 4.040524 14.815256
Cl 4.040524 1.346841 14.815256
Cl 1.346841 6.734207 -14.815256
Cl 1.346841 9.427890 14.815256
Cl 4.040524 6.734207 14.815256
Cl 1.346841 14.815256 -6.734207
Cl 1.346841 14.815256 -1.346841
Cl 4.040524 14.815256 -4.040524
Cl 1.346841 14.815256 4.040524
Cl 4.040524 14.815256 1.346841
Cl 1.346841 14.815256 9.427890
Cl 4.040524 14.815256 6.734207
Cl 1.346841 12.121573 12.121573
Cl 6.734207 -14.815256 -4.040524
Cl 9.427890 -14.815256 -1.346841
Cl 6.734207 -14.815256 1.346841
Cl 6.734207 -4.040524 -14.815256
Cl 9.427890 -1.346841 -14.815256
Cl 6.734207 -1.346841 14.815256
Cl 6.734207 1.346841 -14.815256
Cl 6.734207 4.040524 14.815256
Cl 9.427890 1.346841 14.815256
Cl 6.734207 14.815256 -1.346841
Cl 6.734207 14.815256 4.040524
Cl 9.427890 14.815256 1.346841
Cl 12.121573 -12.121573 -1.346841
Cl 14.815256 -6.734207 -4.040524
Cl 14.815256 -9.427890 -1.346841
Cl 14.815256 -6.734207 1.346841
Cl 12.121573 -1.346841 -12.121573
Cl 14.815256 -1.346841 -9.427890
Cl 14.815256 -4.040524 -6.734207
Cl 14.815256 -1.346841 -4.040524
Cl 14.815256 -4.040524 -1.346841
Cl 14.815256 -1.346841 1.346841
Cl 14.815256 -4.040524 4.040524
Cl 14.815256 -1.346841 6.734207
Cl 14.815256 1.346841 -6.734207
Cl 14.815256 4.040524 -4.040524
Cl 14.815256 1.346841 -1.346841
Cl 14.815256 4.040524 1.346841
Cl 14.815256 1.346841 4.040524
Cl 14.815256 4.040524 6.734207
Cl 14.815256 1.346841 9.427890
Cl 14.815256 6.734207 -1.346841
Cl 14.815256 9.427890 1.346841
Cl 14.815256 6.734207 4.040524
Cl 12.121573 12.121573 1.346841
