6780
CdSe-Cd-Cd3228Se2904Cl648-reconstructed
Cd -27.633799 -27.631535 0.003170
Cd -27.633799 -21.490993 -6.137373
Cd -27.633799 -24.561264 -3.067101
Cd -30.704071 -21.490993 -3.067101
Cd -30.704071 -24.561264 0.003170
Cd -27.633799 -21.490993 0.003170
Cd -30.704071 -21.490993 3.073441
Cd -27.633799 -21.490993 6.143712
Cd -27.633799 -15.350450 -12.277915
Cd -30.704071 -15.350450 -9.207644
Cd -30.704071 -18.420722 -6.137373
Cd -27.633799 -15.350450 -6.137373
Cd -27.633799 -18.420722 -3.067101
Cd -30.704071 -15.350450 -3.067101
Cd -30.704071 -18.420722 0.003170
Cd -27.633799 -15.350450 0.003170
Cd -27.633799 -18.420722 3.073441
Cd -30.704071 -15.350450 3.073441
Cd -30.704071 -18.420722 6.143712
Cd -27.633799 -15.350450 6.143712
Cd -27.633799 -18.420722 9.213983
Cd -30.704071 -15.350450 9.213983
Cd -27.633799 -12.280179 -15.348186
Cd -30.704071 -9.209908 -15.348186
Cd -30.704071 -12.280179 -12.277915
Cd -27.633799 -9.209908 -12.277915
Cd -27.633799 -12.280179 -9.207644
Cd -30.704071 -9.209908 -9.207644
Cd -30.704071 -12.280179 -6.137373
Cd -27.633799 -9.209908 -6.137373
Cd -27.633799 -12.280179 -3.067101
Cd -30.704071 -9.209908 -3.067101
Cd -30.704071 -12.280179 0.003170
Cd -27.633799 -9.209908 0.003170
Cd -27.633799 -12.280179 3.073441
Cd -30.704071 -9.209908 3.073441
Cd -30.704071 -12.280179 6.143712
Cd -27.633799 -9.209908 6.143712
Cd -27.633799 -12.280179 9.213983
Cd -30.704071 -9.209908 9.213983
Cd -30.704071 -12.280179 12.284255
Cd -27.633799 -9.209908 12.284255
Cd -27.633799 -12.280179 15.354526
Cd -30.704071 -9.209908 15.354526
Cd -27.633799 -9.209908 18.424797
Cd -27.633799 -3.069366 -24.559000
Cd -27.633799 -6.139637 -21.488729
Cd -30.704071 -3.069366 -21.488729
Cd -30.704071 -6.139637 -18.418457
Cd -27.633799 -3.069366 -18.418457
Cd -27.633799 -6.139637 -15.348186
Cd -30.704071 -3.069366 -15.348186
Cd -30.704071 -6.139637 -12.277915
Cd -27.633799 -3.069366 -12.277915
Cd -27.633799 -6.139637 -9.207644
Cd -30.704071 -3.069366 -9.207644
Cd -30.704071 -6.139637 -6.137373
Cd -27.633799 -3.069366 -6.137373
Cd -27.633799 -6.139637 -3.067101
Cd -30.704071 -3.069366 -3.067101
Cd -30.704071 -6.139637 0.003170
Cd -27.633799 -3.069366 0.003170
Cd -27.633799 -6.139637 3.073441
Cd -30.704071 -3.069366 3.073441
Cd -30.704071 -6.139637 6.143712
Cd -27.633799 -3.069366 6.143712
Cd -27.633799 -6.139637 9.213983
Cd -30.704071 -3.069366 9.213983
Cd -30.704071 -6.139637 12.284255
Cd -27.633799 -3.069366 12.284255
Cd -27.633799 -6.139637 15.354526
Cd -30.704071 -3.069366 15.354526
Cd -30.704071 -6.139637 18.424797
Cd -27.633799 -3.069366 18.424797
Cd -30.704071 -3.069366 21.495068
Cd -27.633799 -3.069366 24.565339
Cd -27.633799 0.000906 -27.629271
Cd -30.704071 0.000906 -24.559000
Cd -27.633799 0.000906 -21.488729
Cd -30.704071 3.071177 -21.488729
Cd -30.704071 0.000906 -18.418457
Cd -27.633799 3.071177 -18.418457
Cd -27.633799 0.000906 -15.348186
Cd -30.704071 3.071177 -15.348186
Cd -30.704071 0.000906 -12.277915
Cd -27.633799 3.071177 -12.277915
Cd -27.633799 0.000906 -9.207644
Cd -30.704071 3.071177 -9.207644
Cd -30.704071 0.000906 -6.137373
Cd -27.633799 3.071177 -6.137373
Cd -27.633799 0.000906 -3.067101
Cd -30.704071 3.071177 -3.067101
Cd -30.704071 0.000906 0.003170
Cd -27.633799 3.071177 0.003170
Cd -27.633799 0.000906 3.073441
Cd -30.704071 3.071177 3.073441
Cd -30.704071 0.000906 6.143712
Cd -27.633799 3.071177 6.143712
Cd -27.633799 0.000906 9.213983
Cd -30.704071 3.071177 9.213983
Cd -30.704071 0.000906 12.284255
Cd -27.633799 3.071177 12.284255
Cd -27.633799 0.000906 15.354526
Cd -30.704071 3.071177 15.354526
Cd -30.704071 0.000906 18.424797
Cd -27.633799 3.071177 18.424797
Cd -27.633799 0.000906 21.495068
Cd -30.704071 3.071177 21.495068
Cd -30.704071 0.000906 24.565339
Cd -27.633799 3.071177 24.565339
Cd -27.633799 0.000906 27.635611
Cd -27.633799 6.141448 -21.488729
Cd -30.704071 6.141448 -18.418457
Cd -27.633799 9.211719 -18.418457
Cd -27.633799 6.141448 -15.348186
Cd -30.704071 9.211719 -15.348186
Cd -30.704071 6.141448 -12.277915
Cd -27.633799 9.211719 -12.277915
Cd -27.633799 6.141448 -9.207644
Cd -30.704071 9.211719 -9.207644
Cd -30.704071 6.141448 -6.137373
Cd -27.633799 9.211719 -6.137373
Cd -27.633799 6.141448 -3.067101
Cd -30.704071 9.211719 -3.067101
Cd -30.704071 6.141448 0.003170
Cd -27.633799 9.211719 0.003170
Cd -27.633799 6.141448 3.073441
Cd -30.704071 9.211719 3.073441
Cd -30.704071 6.141448 6.143712
Cd -27.633799 9.211719 6.143712
Cd -27.633799 6.141448 9.213983
Cd -30.704071 9.211719 9.213983
Cd -30.704071 6.141448 12.284255
Cd -27.633799 9.211719 12.284255
Cd -27.633799 6.141448 15.354526
Cd -30.704071 9.211719 15.354526
Cd -30.704071 6.141448 18.424797
Cd -27.633799 6.141448 21.495068
Cd -30.704071 12.281990 -12.277915
Cd -27.633799 15.352262 -12.277915
Cd -27.633799 12.281990 -9.207644
Cd -30.704071 15.352262 -9.207644
Cd -30.704071 12.281990 -6.137373
Cd -27.633799 15.352262 -6.137373
Cd -27.633799 12.281990 -3.067101
Cd -30.704071 15.352262 -3.067101
Cd -30.704071 12.281990 0.003170
Cd -27.633799 15.352262 0.003170
Cd -27.633799 12.281990 3.073441
Cd -30.704071 15.352262 3.073441
Cd -30.704071 12.281990 6.143712
Cd -27.633799 15.352262 6.143712
Cd -27.633799 12.281990 9.213983
Cd -30.704071 15.352262 9.213983
Cd -30.704071 12.281990 12.284255
Cd -27.633799 15.352262 12.284255
Cd -27.633799 12.281990 15.354526
Cd -27.633799 18.422533 -9.207644
Cd -30.704071 18.422533 -6.137373
Cd -27.633799 18.422533 -3.067101
Cd -30.704071 21.492804 -3.067101
Cd -30.704071 18.422533 0.003170
Cd -27.633799 21.492804 0.003170
Cd -27.633799 18.422533 3.073441
Cd -30.704071 21.492804 3.073441
Cd -30.704071 18.422533 6.143712
Cd -27.633799 21.492804 6.143712
Cd -27.633799 24.563075 -3.067101
Cd -30.704071 24.563075 0.003170
Cd -27.633799 27.633346 0.003170
Cd -27.633799 24.563075 3.073441
Cd -21.493257 -27.631535 -6.137373
Cd -21.493257 -30.701806 -3.067101
Cd -24.563528 -27.631535 -3.067101
Cd -24.563528 -30.701806 0.003170
Cd -21.493257 -27.631535 0.003170
Cd -21.493257 -30.701806 3.073441
Cd -24.563528 -27.631535 3.073441
Cd -21.493257 -24.561264 -9.207644
Cd -24.563528 -21.490993 -9.207644
Cd -21.493257 -21.490993 -6.137373
Cd -21.493257 -24.561264 -3.067101
Cd -24.563528 -21.490993 -3.067101
Cd -24.563528 -24.561264 0.003170
Cd -21.493257 -21.490993 0.003170
Cd -21.493257 -24.561264 3.073441
Cd -24.563528 -21.490993 3.073441
Cd -24.563528 -24.561264 6.143712
Cd -21.493257 -21.490993 6.143712
Cd -21.493257 -24.561264 9.213983
Cd -21.493257 -21.490993 12.284255
Cd -21.493257 -15.350450 -18.418457
Cd -21.493257 -18.420722 -15.348186
Cd -24.563528 -18.420722 -12.277915
Cd -21.493257 -15.350450 -12.277915
Cd -21.493257 -18.420722 -9.207644
Cd -24.563528 -15.350450 -9.207644
Cd -24.563528 -18.420722 -6.137373
Cd -21.493257 -15.350450 -6.137373
Cd -21.493257 -18.420722 -3.067101
Cd -24.563528 -15.350450 -3.067101
Cd -24.563528 -18.420722 0.003170
Cd -21.493257 -15.350450 0.003170
Cd -21.493257 -18.420722 3.073441
Cd -24.563528 -15.350450 3.073441
Cd -24.563528 -18.420722 6.143712
Cd -21.493257 -15.350450 6.143712
Cd -21.493257 -18.420722 9.213983
Cd -24.563528 -15.350450 9.213983
Cd -24.563528 -18.420722 12.284255
Cd -21.493257 -15.350450 12.284255
Cd -24.563528 -15.350450 15.354526
Cd -21.493257 -15.350450 18.424797
Cd -21.493257 -9.209908 -24.559000
Cd -24.563528 -9.209908 -21.488729
Cd -24.563528 -12.280179 -18.418457
Cd -21.493257 -9.209908 -18.418457
Cd -21.493257 -12.280179 -15.348186
Cd -24.563528 -9.209908 -15.348186
Cd -24.563528 -12.280179 -12.277915
Cd -21.493257 -9.209908 -12.277915
Cd -21.493257 -12.280179 -9.207644
Cd -24.563528 -9.209908 -9.207644
Cd -24.563528 -12.280179 -6.137373
Cd -21.493257 -9.209908 -6.137373
Cd -21.493257 -12.280179 -3.067101
Cd -24.563528 -9.209908 -3.067101
Cd -24.563528 -12.280179 0.003170
Cd -21.493257 -9.209908 0.003170
Cd -21.493257 -12.280179 3.073441
Cd -24.563528 -9.209908 3.073441
Cd -24.563528 -12.280179 6.143712
Cd -21.493257 -9.209908 6.143712
Cd -21.493257 -12.280179 9.213983
Cd -24.563528 -9.209908 9.213983
Cd -24.563528 -12.280179 12.284255
Cd -21.493257 -9.209908 12.284255
Cd -21.493257 -12.280179 15.354526
Cd -24.563528 -9.209908 15.354526
Cd -21.493257 -9.209908 18.424797
Cd -21.493257 -12.280179 21.495068
Cd -24.563528 -9.209908 21.495068
Cd -21.493257 -3.069366 -30.699542
Cd -21.493257 -6.139637 -27.629271
Cd -24.563528 -3.069366 -27.629271
Cd -21.493257 -3.069366 -24.559000
Cd -21.493257 -6.139637 -21.488729
Cd -24.563528 -3.069366 -21.488729
Cd -24.563528 -6.139637 -18.418457
Cd -21.493257 -3.069366 -18.418457
Cd -21.493257 -6.139637 -15.348186
Cd -24.563528 -3.069366 -15.348186
Cd -24.563528 -6.139637 -12.277915
Cd -21.493257 -3.069366 -12.277915
Cd -21.493257 -6.139637 -9.207644
Cd -24.563528 -3.069366 -9.207644
Cd -24.563528 -6.139637 -6.137373
Cd -21.493257 -3.069366 -6.137373
Cd -21.493257 -6.139637 -3.067101
Cd -24.563528 -3.069366 -3.067101
Cd -24.563528 -6.139637 0.003170
Cd -21.493257 -3.069366 0.003170
Cd -21.493257 -6.139637 3.073441
Cd -24.563528 -3.069366 3.073441
Cd -24.563528 -6.139637 6.143712
Cd -21.493257 -3.069366 6.143712
Cd -21.493257 -6.139637 9.213983
Cd -24.563528 -3.069366 9.213983
Cd -24.563528 -6.139637 12.284255
Cd -21.493257 -3.069366 12.284255
Cd -21.493257 -6.139637 15.354526
Cd -24.563528 -3.069366 15.354526
Cd -24.563528 -6.139637 18.424797
Cd -21.493257 -3.069366 18.424797
Cd -21.493257 -6.139637 21.495068
Cd -24.563528 -3.069366 21.495068
Cd -24.563528 -6.139637 24.565339
Cd -21.493257 -3.069366 24.565339
Cd -21.493257 -6.139637 27.635611
Cd -21.493257 -3.069366 30.705882
Cd -24.563528 0.000906 -30.699542
Cd -21.493257 3.071177 -30.699542
Cd -21.493257 0.000906 -27.629271
Cd -24.563528 3.071177 -27.629271
Cd -24.563528 0.000906 -24.559000
Cd -21.493257 3.071177 -24.559000
Cd -21.493257 0.000906 -21.488729
Cd -24.563528 3.071177 -21.488729
Cd -24.563528 0.000906 -18.418457
Cd -21.493257 3.071177 -18.418457
Cd -21.493257 0.000906 -15.348186
Cd -24.563528 3.071177 -15.348186
Cd -24.563528 0.000906 -12.277915
Cd -21.493257 3.071177 -12.277915
Cd -21.493257 0.000906 -9.207644
Cd -24.563528 3.071177 -9.207644
Cd -24.563528 0.000906 -6.137373
Cd -21.493257 3.071177 -6.137373
Cd -21.493257 0.000906 -3.067101
Cd -24.563528 3.071177 -3.067101
Cd -24.563528 0.000906 0.003170
Cd -21.493257 3.071177 0.003170
Cd -21.493257 0.000906 3.073441
Cd -24.563528 3.071177 3.073441
Cd -24.563528 0.000906 6.143712
Cd -21.493257 3.071177 6.143712
Cd -21.493257 0.000906 9.213983
Cd -24.563528 3.071177 9.213983
Cd -24.563528 0.000906 12.284255
Cd -21.493257 3.071177 12.284255
Cd -21.493257 0.000906 15.354526
Cd -24.563528 3.071177 15.354526
Cd -24.563528 0.000906 18.424797
Cd -21.493257 3.071177 18.424797
Cd -21.493257 0.000906 21.495068
Cd -24.563528 3.071177 21.495068
Cd -24.563528 0.000906 24.565339
Cd -21.493257 3.071177 24.565339
Cd -21.493257 0.000906 27.635611
Cd -24.563528 3.071177 27.635611
Cd -24.563528 0.000906 30.705882
Cd -21.493257 3.071177 30.705882
Cd -24.563528 6.141448 -24.559000
Cd -21.493257 9.211719 -24.559000
Cd -21.493257 6.141448 -21.488729
Cd -24.563528 6.141448 -18.418457
Cd -21.493257 9.211719 -18.418457
Cd -21.493257 6.141448 -15.348186
Cd -24.563528 9.211719 -15.348186
Cd -24.563528 6.141448 -12.277915
Cd -21.493257 9.211719 -12.277915
Cd -21.493257 6.141448 -9.207644
Cd -24.563528 9.211719 -9.207644
Cd -24.563528 6.141448 -6.137373
Cd -21.493257 9.211719 -6.137373
Cd -21.493257 6.141448 -3.067101
Cd -24.563528 9.211719 -3.067101
Cd -24.563528 6.141448 0.003170
Cd -21.493257 9.211719 0.003170
Cd -21.493257 6.141448 3.073441
Cd -24.563528 9.211719 3.073441
Cd -24.563528 6.141448 6.143712
Cd -21.493257 9.211719 6.143712
Cd -21.493257 6.141448 9.213983
Cd -24.563528 9.211719 9.213983
Cd -24.563528 6.141448 12.284255
Cd -21.493257 9.211719 12.284255
Cd -21.493257 6.141448 15.354526
Cd -24.563528 9.211719 15.354526
Cd -24.563528 6.141448 18.424797
Cd -21.493257 9.211719 18.424797
Cd -21.493257 6.141448 21.495068
Cd -24.563528 9.211719 21.495068
Cd -21.493257 9.211719 24.565339
Cd -21.493257 6.141448 27.635611
Cd -21.493257 12.281990 -21.488729
Cd -24.563528 12.281990 -18.418457
Cd -21.493257 12.281990 -15.348186
Cd -24.563528 15.352262 -15.348186
Cd -24.563528 12.281990 -12.277915
Cd -21.493257 15.352262 -12.277915
Cd -21.493257 12.281990 -9.207644
Cd -24.563528 15.352262 -9.207644
Cd -24.563528 12.281990 -6.137373
Cd -21.493257 15.352262 -6.137373
Cd -21.493257 12.281990 -3.067101
Cd -24.563528 15.352262 -3.067101
Cd -24.563528 12.281990 0.003170
Cd -21.493257 15.352262 0.003170
Cd -21.493257 12.281990 3.073441
Cd -24.563528 15.352262 3.073441
Cd -24.563528 12.281990 6.143712
Cd -21.493257 15.352262 6.143712
Cd -21.493257 12.281990 9.213983
Cd -24.563528 15.352262 9.213983
Cd -24.563528 12.281990 12.284255
Cd -21.493257 15.352262 12.284255
Cd -21.493257 12.281990 15.354526
Cd -24.563528 12.281990 18.424797
Cd -21.493257 15.352262 18.424797
Cd -21.493257 18.422533 -15.348186
Cd -21.493257 21.492804 -12.277915
Cd -21.493257 18.422533 -9.207644
Cd -24.563528 21.492804 -9.207644
Cd -24.563528 18.422533 -6.137373
Cd -21.493257 21.492804 -6.137373
Cd -21.493257 18.422533 -3.067101
Cd -24.563528 21.492804 -3.067101
Cd -24.563528 18.422533 0.003170
Cd -21.493257 21.492804 0.003170
Cd -21.493257 18.422533 3.073441
Cd -24.563528 21.492804 3.073441
Cd -24.563528 18.422533 6.143712
Cd -21.493257 21.492804 6.143712
Cd -21.493257 18.422533 9.213983
Cd -24.563528 21.492804 9.213983
Cd -24.563528 18.422533 12.284255
Cd -21.493257 18.422533 15.354526
Cd -24.563528 24.563075 -6.137373
Cd -21.493257 27.633346 -6.137373
Cd -21.493257 24.563075 -3.067101
Cd -24.563528 24.563075 0.003170
Cd -21.493257 27.633346 0.003170
Cd -21.493257 24.563075 3.073441
Cd -24.563528 27.633346 3.073441
Cd -21.493257 27.633346 6.143712
Cd -21.493257 24.563075 9.213983
Cd -21.493257 30.703618 -3.067101
Cd -24.563528 30.703618 0.003170
Cd -21.493257 30.703618 3.073441
Cd -15.352715 -27.631535 -12.277915
Cd -15.352715 -30.701806 -9.207644
Cd -18.422986 -30.701806 -6.137373
Cd -15.352715 -27.631535 -6.137373
Cd -15.352715 -30.701806 -3.067101
Cd -18.422986 -27.631535 -3.067101
Cd -18.422986 -30.701806 0.003170
Cd -15.352715 -27.631535 0.003170
Cd -15.352715 -30.701806 3.073441
Cd -18.422986 -27.631535 3.073441
Cd -18.422986 -30.701806 6.143712
Cd -15.352715 -27.631535 6.143712
Cd -15.352715 -30.701806 9.213983
Cd -18.422986 -27.631535 9.213983
Cd -15.352715 -27.631535 12.284255
Cd -15.352715 -21.490993 -18.418457
Cd -18.422986 -21.490993 -15.348186
Cd -18.422986 -24.561264 -12.277915
Cd -15.352715 -21.490993 -12.277915
Cd -15.352715 -24.561264 -9.207644
Cd -18.422986 -21.490993 -9.207644
Cd -18.422986 -24.561264 -6.137373
Cd -15.352715 -21.490993 -6.137373
Cd -15.352715 -24.561264 -3.067101
Cd -18.422986 -21.490993 -3.067101
Cd -18.422986 -24.561264 0.003170
Cd -15.352715 -21.490993 0.003170
Cd -15.352715 -24.561264 3.073441
Cd -18.422986 -21.490993 3.073441
Cd -18.422986 -24.561264 6.143712
Cd -15.352715 -21.490993 6.143712
Cd -15.352715 -24.561264 9.213983
Cd -18.422986 -21.490993 9.213983
Cd -15.352715 -21.490993 12.284255
Cd -15.352715 -24.561264 15.354526
Cd -18.422986 -21.490993 15.354526
Cd -15.352715 -15.350450 -24.559000
Cd -15.352715 -18.420722 -21.488729
Cd -18.422986 -15.350450 -21.488729
Cd -18.422986 -18.420722 -18.418457
Cd -15.352715 -15.350450 -18.418457
Cd -15.352715 -18.420722 -15.348186
Cd -18.422986 -15.350450 -15.348186
Cd -18.422986 -18.420722 -12.277915
Cd -15.352715 -15.350450 -12.277915
Cd -15.352715 -18.420722 -9.207644
Cd -18.422986 -15.350450 -9.207644
Cd -18.422986 -18.420722 -6.137373
Cd -15.352715 -15.350450 -6.137373
Cd -15.352715 -18.420722 -3.067101
Cd -18.422986 -15.350450 -3.067101
Cd -18.422986 -18.420722 0.003170
Cd -15.352715 -15.350450 0.003170
Cd -15.352715 -18.420722 3.073441
Cd -18.422986 -15.350450 3.073441
Cd -18.422986 -18.420722 6.143712
Cd -15.352715 -15.350450 6.143712
Cd -15.352715 -18.420722 9.213983
Cd -18.422986 -15.350450 9.213983
Cd -18.422986 -18.420722 12.284255
Cd -15.352715 -15.350450 12.284255
Cd -15.352715 -18.420722 15.354526
Cd -18.422986 -15.350450 15.354526
Cd -18.422986 -18.420722 18.424797
Cd -15.352715 -15.350450 18.424797
Cd -15.352715 -18.420722 21.495068
Cd -15.352715 -15.350450 24.565339
Cd -15.352715 -9.209908 -30.699542
Cd -15.352715 -12.280179 -27.629271
Cd -18.422986 -12.280179 -24.559000
Cd -15.352715 -9.209908 -24.559000
Cd -15.352715 -12.280179 -21.488729
Cd -18.422986 -9.209908 -21.488729
Cd -18.422986 -12.280179 -18.418457
Cd -15.352715 -9.209908 -18.418457
Cd -15.352715 -12.280179 -15.348186
Cd -18.422986 -9.209908 -15.348186
Cd -18.422986 -12.280179 -12.277915
Cd -15.352715 -9.209908 -12.277915
Cd -15.352715 -12.280179 -9.207644
Cd -18.422986 -9.209908 -9.207644
Cd -18.422986 -12.280179 -6.137373
Cd -15.352715 -9.209908 -6.137373
Cd -15.352715 -12.280179 -3.067101
Cd -18.422986 -9.209908 -3.067101
Cd -18.422986 -12.280179 0.003170
Cd -15.352715 -9.209908 0.003170
Cd -15.352715 -12.280179 3.073441
Cd -18.422986 -9.209908 3.073441
Cd -18.422986 -12.280179 6.143712
Cd -15.352715 -9.209908 6.143712
Cd -15.352715 -12.280179 9.213983
Cd -18.422986 -9.209908 9.213983
Cd -18.422986 -12.280179 12.284255
Cd -15.352715 -9.209908 12.284255
Cd -15.352715 -12.280179 15.354526
Cd -18.422986 -9.209908 15.354526
Cd -18.422986 -12.280179 18.424797
Cd -15.352715 -9.209908 18.424797
Cd -15.352715 -12.280179 21.495068
Cd -18.422986 -9.209908 21.495068
Cd -18.422986 -12.280179 24.565339
Cd -15.352715 -9.209908 24.565339
Cd -18.422986 -9.209908 27.635611
Cd -15.352715 -9.209908 30.705882
Cd -18.422986 -6.139637 -30.699542
Cd -15.352715 -3.069366 -30.699542
Cd -15.352715 -6.139637 -27.629271
Cd -18.422986 -3.069366 -27.629271
Cd -18.422986 -6.139637 -24.559000
Cd -15.352715 -3.069366 -24.559000
Cd -15.352715 -6.139637 -21.488729
Cd -18.422986 -3.069366 -21.488729
Cd -18.422986 -6.139637 -18.418457
Cd -15.352715 -3.069366 -18.418457
Cd -15.352715 -6.139637 -15.348186
Cd -18.422986 -3.069366 -15.348186
Cd -18.422986 -6.139637 -12.277915
Cd -15.352715 -3.069366 -12.277915
Cd -15.352715 -6.139637 -9.207644
Cd -18.422986 -3.069366 -9.207644
Cd -18.422986 -6.139637 -6.137373
Cd -15.352715 -3.069366 -6.137373
Cd -15.352715 -6.139637 -3.067101
Cd -18.422986 -3.069366 -3.067101
Cd -18.422986 -6.139637 0.003170
Cd -15.352715 -3.069366 0.003170
Cd -15.352715 -6.139637 3.073441
Cd -18.422986 -3.069366 3.073441
Cd -18.422986 -6.139637 6.143712
Cd -15.352715 -3.069366 6.143712
Cd -15.352715 -6.139637 9.213983
Cd -18.422986 -3.069366 9.213983
Cd -18.422986 -6.139637 12.284255
Cd -15.352715 -3.069366 12.284255
Cd -15.352715 -6.139637 15.354526
Cd -18.422986 -3.069366 15.354526
Cd -18.422986 -6.139637 18.424797
Cd -15.352715 -3.069366 18.424797
Cd -15.352715 -6.139637 21.495068
Cd -18.422986 -3.069366 21.495068
Cd -18.422986 -6.139637 24.565339
Cd -15.352715 -3.069366 24.565339
Cd -15.352715 -6.139637 27.635611
Cd -18.422986 -3.069366 27.635611
Cd -18.422986 -6.139637 30.705882
Cd -15.352715 -3.069366 30.705882
Cd -18.422986 0.000906 -30.699542
Cd -15.352715 3.071177 -30.699542
Cd -15.352715 0.000906 -27.629271
Cd -18.422986 3.071177 -27.629271
Cd -18.422986 0.000906 -24.559000
Cd -15.352715 3.071177 -24.559000
Cd -15.352715 0.000906 -21.488729
Cd -18.422986 3.071177 -21.488729
Cd -18.422986 0.000906 -18.418457
Cd -15.352715 3.071177 -18.418457
Cd -15.352715 0.000906 -15.348186
Cd -18.422986 3.071177 -15.348186
Cd -18.422986 0.000906 -12.277915
Cd -15.352715 3.071177 -12.277915
Cd -15.352715 0.000906 -9.207644
Cd -18.422986 3.071177 -9.207644
Cd -18.422986 0.000906 -6.137373
Cd -15.352715 3.071177 -6.137373
Cd -15.352715 0.000906 -3.067101
Cd -18.422986 3.071177 -3.067101
Cd -18.422986 0.000906 0.003170
Cd -15.352715 3.071177 0.003170
Cd -15.352715 0.000906 3.073441
Cd -18.422986 3.071177 3.073441
Cd -18.422986 0.000906 6.143712
Cd -15.352715 3.071177 6.143712
Cd -15.352715 0.000906 9.213983
Cd -18.422986 3.071177 9.213983
Cd -18.422986 0.000906 12.284255
Cd -15.352715 3.071177 12.284255
Cd -15.352715 0.000906 15.354526
Cd -18.422986 3.071177 15.354526
Cd -18.422986 0.000906 18.424797
Cd -15.352715 3.071177 18.424797
Cd -15.352715 0.000906 21.495068
Cd -18.422986 3.071177 21.495068
Cd -18.422986 0.000906 24.565339
Cd -15.352715 3.071177 24.565339
Cd -15.352715 0.000906 27.635611
Cd -18.422986 3.071177 27.635611
Cd -18.422986 0.000906 30.705882
Cd -15.352715 3.071177 30.705882
Cd -18.422986 6.141448 -30.699542
Cd -15.352715 9.211719 -30.699542
Cd -15.352715 6.141448 -27.629271
Cd -18.422986 9.211719 -27.629271
Cd -18.422986 6.141448 -24.559000
Cd -15.352715 9.211719 -24.559000
Cd -15.352715 6.141448 -21.488729
Cd -18.422986 9.211719 -21.488729
Cd -18.422986 6.141448 -18.418457
Cd -15.352715 9.211719 -18.418457
Cd -15.352715 6.141448 -15.348186
Cd -18.422986 9.211719 -15.348186
Cd -18.422986 6.141448 -12.277915
Cd -15.352715 9.211719 -12.277915
Cd -15.352715 6.141448 -9.207644
Cd -18.422986 9.211719 -9.207644
Cd -18.422986 6.141448 -6.137373
Cd -15.352715 9.211719 -6.137373
Cd -15.352715 6.141448 -3.067101
Cd -18.422986 9.211719 -3.067101
Cd -18.422986 6.141448 0.003170
Cd -15.352715 9.211719 0.003170
Cd -15.352715 6.141448 3.073441
Cd -18.422986 9.211719 3.073441
Cd -18.422986 6.141448 6.143712
Cd -15.352715 9.211719 6.143712
Cd -15.352715 6.141448 9.213983
Cd -18.422986 9.211719 9.213983
Cd -18.422986 6.141448 12.284255
Cd -15.352715 9.211719 12.284255
Cd -15.352715 6.141448 15.354526
Cd -18.422986 9.211719 15.354526
Cd -18.422986 6.141448 18.424797
Cd -15.352715 9.211719 18.424797
Cd -15.352715 6.141448 21.495068
Cd -18.422986 9.211719 21.495068
Cd -18.422986 6.141448 24.565339
Cd -15.352715 9.211719 24.565339
Cd -15.352715 6.141448 27.635611
Cd -18.422986 6.141448 30.705882
Cd -15.352715 9.211719 30.705882
Cd -15.352715 12.281990 -27.629271
Cd -15.352715 15.352262 -24.559000
Cd -15.352715 12.281990 -21.488729
Cd -18.422986 15.352262 -21.488729
Cd -18.422986 12.281990 -18.418457
Cd -15.352715 15.352262 -18.418457
Cd -15.352715 12.281990 -15.348186
Cd -18.422986 15.352262 -15.348186
Cd -18.422986 12.281990 -12.277915
Cd -15.352715 15.352262 -12.277915
Cd -15.352715 12.281990 -9.207644
Cd -18.422986 15.352262 -9.207644
Cd -18.422986 12.281990 -6.137373
Cd -15.352715 15.352262 -6.137373
Cd -15.352715 12.281990 -3.067101
Cd -18.422986 15.352262 -3.067101
Cd -18.422986 12.281990 0.003170
Cd -15.352715 15.352262 0.003170
Cd -15.352715 12.281990 3.073441
Cd -18.422986 15.352262 3.073441
Cd -18.422986 12.281990 6.143712
Cd -15.352715 15.352262 6.143712
Cd -15.352715 12.281990 9.213983
Cd -18.422986 15.352262 9.213983
Cd -18.422986 12.281990 12.284255
Cd -15.352715 15.352262 12.284255
Cd -15.352715 12.281990 15.354526
Cd -18.422986 15.352262 15.354526
Cd -18.422986 12.281990 18.424797
Cd -15.352715 15.352262 18.424797
Cd -15.352715 12.281990 21.495068
Cd -18.422986 15.352262 21.495068
Cd -18.422986 12.281990 24.565339
Cd -15.352715 12.281990 27.635611
Cd -18.422986 18.422533 -18.418457
Cd -15.352715 21.492804 -18.418457
Cd -15.352715 18.422533 -15.348186
Cd -18.422986 18.422533 -12.277915
Cd -15.352715 21.492804 -12.277915
Cd -15.352715 18.422533 -9.207644
Cd -18.422986 21.492804 -9.207644
Cd -18.422986 18.422533 -6.137373
Cd -15.352715 21.492804 -6.137373
Cd -15.352715 18.422533 -3.067101
Cd -18.422986 21.492804 -3.067101
Cd -18.422986 18.422533 0.003170
Cd -15.352715 21.492804 0.003170
Cd -15.352715 18.422533 3.073441
Cd -18.422986 21.492804 3.073441
Cd -18.422986 18.422533 6.143712
Cd -15.352715 21.492804 6.143712
Cd -15.352715 18.422533 9.213983
Cd -18.422986 21.492804 9.213983
Cd -18.422986 18.422533 12.284255
Cd -15.352715 21.492804 12.284255
Cd -15.352715 18.422533 15.354526
Cd -18.422986 21.492804 15.354526
Cd -18.422986 18.422533 18.424797
Cd -15.352715 18.422533 21.495068
Cd -15.352715 24.563075 -15.348186
Cd -18.422986 24.563075 -12.277915
Cd -15.352715 24.563075 -9.207644
Cd -18.422986 27.633346 -9.207644
Cd -18.422986 24.563075 -6.137373
Cd -15.352715 27.633346 -6.137373
Cd -15.352715 24.563075 -3.067101
Cd -18.422986 27.633346 -3.067101
Cd -18.422986 24.563075 0.003170
Cd -15.352715 27.633346 0.003170
Cd -15.352715 24.563075 3.073441
Cd -18.422986 27.633346 3.073441
Cd -18.422986 24.563075 6.143712
Cd -15.352715 27.633346 6.143712
Cd -15.352715 24.563075 9.213983
Cd -18.422986 24.563075 12.284255
Cd -15.352715 27.633346 12.284255
Cd -15.352715 24.563075 15.354526
Cd -15.352715 30.703618 -9.207644
Cd -18.422986 30.703618 -6.137373
Cd -15.352715 30.703618 -3.067101
Cd -18.422986 30.703618 0.003170
Cd -15.352715 30.703618 3.073441
Cd -18.422986 30.703618 6.143712
Cd -15.352715 30.703618 9.213983
Cd -9.212172 -30.701806 -15.348186
Cd -12.282443 -27.631535 -15.348186
Cd -12.282443 -30.701806 -12.277915
Cd -9.212172 -27.631535 -12.277915
Cd -9.212172 -30.701806 -9.207644
Cd -12.282443 -27.631535 -9.207644
Cd -12.282443 -30.701806 -6.137373
Cd -9.212172 -27.631535 -6.137373
Cd -9.212172 -30.701806 -3.067101
Cd -12.282443 -27.631535 -3.067101
Cd -12.282443 -30.701806 0.003170
Cd -9.212172 -27.631535 0.003170
Cd -9.212172 -30.701806 3.073441
Cd -12.282443 -27.631535 3.073441
Cd -12.282443 -30.701806 6.143712
Cd -9.212172 -27.631535 6.143712
Cd -9.212172 -30.701806 9.213983
Cd -12.282443 -27.631535 9.213983
Cd -12.282443 -30.701806 12.284255
Cd -9.212172 -27.631535 12.284255
Cd -9.212172 -30.701806 15.354526
Cd -9.212172 -27.631535 18.424797
Cd -9.212172 -21.490993 -24.559000
Cd -9.212172 -24.561264 -21.488729
Cd -12.282443 -21.490993 -21.488729
Cd -12.282443 -24.561264 -18.418457
Cd -9.212172 -21.490993 -18.418457
Cd -9.212172 -24.561264 -15.348186
Cd -12.282443 -21.490993 -15.348186
Cd -12.282443 -24.561264 -12.277915
Cd -9.212172 -21.490993 -12.277915
Cd -9.212172 -24.561264 -9.207644
Cd -12.282443 -21.490993 -9.207644
Cd -12.282443 -24.561264 -6.137373
Cd -9.212172 -21.490993 -6.137373
Cd -9.212172 -24.561264 -3.067101
Cd -12.282443 -21.490993 -3.067101
Cd -12.282443 -24.561264 0.003170
Cd -9.212172 -21.490993 0.003170
Cd -9.212172 -24.561264 3.073441
Cd -12.282443 -21.490993 3.073441
Cd -12.282443 -24.561264 6.143712
Cd -9.212172 -21.490993 6.143712
Cd -9.212172 -24.561264 9.213983
Cd -12.282443 -21.490993 9.213983
Cd -12.282443 -24.561264 12.284255
Cd -9.212172 -21.490993 12.284255
Cd -9.212172 -24.561264 15.354526
Cd -12.282443 -21.490993 15.354526
Cd -12.282443 -24.561264 18.424797
Cd -9.212172 -21.490993 18.424797
Cd -12.282443 -21.490993 21.495068
Cd -9.212172 -21.490993 24.565339
Cd -9.212172 -15.350450 -30.699542
Cd -12.282443 -15.350450 -27.629271
Cd -12.282443 -18.420722 -24.559000
Cd -9.212172 -15.350450 -24.559000
Cd -9.212172 -18.420722 -21.488729
Cd -12.282443 -15.350450 -21.488729
Cd -12.282443 -18.420722 -18.418457
Cd -9.212172 -15.350450 -18.418457
Cd -9.212172 -18.420722 -15.348186
Cd -12.282443 -15.350450 -15.348186
Cd -12.282443 -18.420722 -12.277915
Cd -9.212172 -15.350450 -12.277915
Cd -9.212172 -18.420722 -9.207644
Cd -12.282443 -15.350450 -9.207644
Cd -12.282443 -18.420722 -6.137373
Cd -9.212172 -15.350450 -6.137373
Cd -9.212172 -18.420722 -3.067101
Cd -12.282443 -15.350450 -3.067101
Cd -12.282443 -18.420722 0.003170
Cd -9.212172 -15.350450 0.003170
Cd -9.212172 -18.420722 3.073441
Cd -12.282443 -15.350450 3.073441
Cd -12.282443 -18.420722 6.143712
Cd -9.212172 -15.350450 6.143712
Cd -9.212172 -18.420722 9.213983
Cd -12.282443 -15.350450 9.213983
Cd -12.282443 -18.420722 12.284255
Cd -9.212172 -15.350450 12.284255
Cd -9.212172 -18.420722 15.354526
Cd -12.282443 -15.350450 15.354526
Cd -12.282443 -18.420722 18.424797
Cd -9.212172 -15.350450 18.424797
Cd -9.212172 -18.420722 21.495068
Cd -12.282443 -15.350450 21.495068
Cd -9.212172 -15.350450 24.565339
Cd -9.212172 -18.420722 27.635611
Cd -12.282443 -15.350450 27.635611
Cd -9.212172 -15.350450 30.705882
Cd -12.282443 -12.280179 -30.699542
Cd -9.212172 -9.209908 -30.699542
Cd -9.212172 -12.280179 -27.629271
Cd -12.282443 -9.209908 -27.629271
Cd -12.282443 -12.280179 -24.559000
Cd -9.212172 -9.209908 -24.559000
Cd -9.212172 -12.280179 -21.488729
Cd -12.282443 -9.209908 -21.488729
Cd -12.282443 -12.280179 -18.418457
Cd -9.212172 -9.209908 -18.418457
Cd -9.212172 -12.280179 -15.348186
Cd -12.282443 -9.209908 -15.348186
Cd -12.282443 -12.280179 -12.277915
Cd -9.212172 -9.209908 -12.277915
Cd -9.212172 -12.280179 -9.207644
Cd -12.282443 -9.209908 -9.207644
Cd -12.282443 -12.280179 -6.137373
Cd -9.212172 -9.209908 -6.137373
Cd -9.212172 -12.280179 -3.067101
Cd -12.282443 -9.209908 -3.067101
Cd -12.282443 -12.280179 0.003170
Cd -9.212172 -9.209908 0.003170
Cd -9.212172 -12.280179 3.073441
Cd -12.282443 -9.209908 3.073441
Cd -12.282443 -12.280179 6.143712
Cd -9.212172 -9.209908 6.143712
Cd -9.212172 -12.280179 9.213983
Cd -12.282443 -9.209908 9.213983
Cd -12.282443 -12.280179 12.284255
Cd -9.212172 -9.209908 12.284255
Cd -9.212172 -12.280179 15.354526
Cd -12.282443 -9.209908 15.354526
Cd -12.282443 -12.280179 18.424797
Cd -9.212172 -9.209908 18.424797
Cd -9.212172 -12.280179 21.495068
Cd -12.282443 -9.209908 21.495068
Cd -12.282443 -12.280179 24.565339
Cd -9.212172 -9.209908 24.565339
Cd -9.212172 -12.280179 27.635611
Cd -12.282443 -9.209908 27.635611
Cd -12.282443 -12.280179 30.705882
Cd -9.212172 -9.209908 30.705882
Cd -12.282443 -6.139637 -30.699542
Cd -9.212172 -3.069366 -30.699542
Cd -9.212172 -6.139637 -27.629271
Cd -12.282443 -3.069366 -27.629271
Cd -12.282443 -6.139637 -24.559000
Cd -9.212172 -3.069366 -24.559000
Cd -9.212172 -6.139637 -21.488729
Cd -12.282443 -3.069366 -21.488729
Cd -12.282443 -6.139637 -18.418457
Cd -9.212172 -3.069366 -18.418457
Cd -9.212172 -6.139637 -15.348186
Cd -12.282443 -3.069366 -15.348186
Cd -12.282443 -6.139637 -12.277915
Cd -9.212172 -3.069366 -12.277915
Cd -9.212172 -6.139637 -9.207644
Cd -12.282443 -3.069366 -9.207644
Cd -12.282443 -6.139637 -6.137373
Cd -9.212172 -3.069366 -6.137373
Cd -9.212172 -6.139637 -3.067101
Cd -12.282443 -3.069366 -3.067101
Cd -12.282443 -6.139637 0.003170
Cd -9.212172 -3.069366 0.003170
Cd -9.212172 -6.139637 3.073441
Cd -12.282443 -3.069366 3.073441
Cd -12.282443 -6.139637 6.143712
Cd -9.212172 -3.069366 6.143712
Cd -9.212172 -6.139637 9.213983
Cd -12.282443 -3.069366 9.213983
Cd -12.282443 -6.139637 12.284255
Cd -9.212172 -3.069366 12.284255
Cd -9.212172 -6.139637 15.354526
Cd -12.282443 -3.069366 15.354526
Cd -12.282443 -6.139637 18.424797
Cd -9.212172 -3.069366 18.424797
Cd -9.212172 -6.139637 21.495068
Cd -12.282443 -3.069366 21.495068
Cd -12.282443 -6.139637 24.565339
Cd -9.212172 -3.069366 24.565339
Cd -9.212172 -6.139637 27.635611
Cd -12.282443 -3.069366 27.635611
Cd -12.282443 -6.139637 30.705882
Cd -9.212172 -3.069366 30.705882
Cd -12.282443 0.000906 -30.699542
Cd -9.212172 3.071177 -30.699542
Cd -9.212172 0.000906 -27.629271
Cd -12.282443 3.071177 -27.629271
Cd -12.282443 0.000906 -24.559000
Cd -9.212172 3.071177 -24.559000
Cd -9.212172 0.000906 -21.488729
Cd -12.282443 3.071177 -21.488729
Cd -12.282443 0.000906 -18.418457
Cd -9.212172 3.071177 -18.418457
Cd -9.212172 0.000906 -15.348186
Cd -12.282443 3.071177 -15.348186
Cd -12.282443 0.000906 -12.277915
Cd -9.212172 3.071177 -12.277915
Cd -9.212172 0.000906 -9.207644
Cd -12.282443 3.071177 -9.207644
Cd -12.282443 0.000906 -6.137373
Cd -9.212172 3.071177 -6.137373
Cd -9.212172 0.000906 -3.067101
Cd -12.282443 3.071177 -3.067101
Cd -12.282443 0.000906 0.003170
Cd -9.212172 3.071177 0.003170
Cd -9.212172 0.000906 3.073441
Cd -12.282443 3.071177 3.073441
Cd -12.282443 0.000906 6.143712
Cd -9.212172 3.071177 6.143712
Cd -9.212172 0.000906 9.213983
Cd -12.282443 3.071177 9.213983
Cd -12.282443 0.000906 12.284255
Cd -9.212172 3.071177 12.284255
Cd -9.212172 0.000906 15.354526
Cd -12.282443 3.071177 15.354526
Cd -12.282443 0.000906 18.424797
Cd -9.212172 3.071177 18.424797
Cd -9.212172 0.000906 21.495068
Cd -12.282443 3.071177 21.495068
Cd -12.282443 0.000906 24.565339
Cd -9.212172 3.071177 24.565339
Cd -9.212172 0.000906 27.635611
Cd -12.282443 3.071177 27.635611
Cd -12.282443 0.000906 30.705882
Cd -9.212172 3.071177 30.705882
Cd -12.282443 6.141448 -30.699542
Cd -9.212172 9.211719 -30.699542
Cd -9.212172 6.141448 -27.629271
Cd -12.282443 9.211719 -27.629271
Cd -12.282443 6.141448 -24.559000
Cd -9.212172 9.211719 -24.559000
Cd -9.212172 6.141448 -21.488729
Cd -12.282443 9.211719 -21.488729
Cd -12.282443 6.141448 -18.418457
Cd -9.212172 9.211719 -18.418457
Cd -9.212172 6.141448 -15.348186
Cd -12.282443 9.211719 -15.348186
Cd -12.282443 6.141448 -12.277915
Cd -9.212172 9.211719 -12.277915
Cd -9.212172 6.141448 -9.207644
Cd -12.282443 9.211719 -9.207644
Cd -12.282443 6.141448 -6.137373
Cd -9.212172 9.211719 -6.137373
Cd -9.212172 6.141448 -3.067101
Cd -12.282443 9.211719 -3.067101
Cd -12.282443 6.141448 0.003170
Cd -9.212172 9.211719 0.003170
Cd -9.212172 6.141448 3.073441
Cd -12.282443 9.211719 3.073441
Cd -12.282443 6.141448 6.143712
Cd -9.212172 9.211719 6.143712
Cd -9.212172 6.141448 9.213983
Cd -12.282443 9.211719 9.213983
Cd -12.282443 6.141448 12.284255
Cd -9.212172 9.211719 12.284255
Cd -9.212172 6.141448 15.354526
Cd -12.282443 9.211719 15.354526
Cd -12.282443 6.141448 18.424797
Cd -9.212172 9.211719 18.424797
Cd -9.212172 6.141448 21.495068
Cd -12.282443 9.211719 21.495068
Cd -12.282443 6.141448 24.565339
Cd -9.212172 9.211719 24.565339
Cd -9.212172 6.141448 27.635611
Cd -12.282443 9.211719 27.635611
Cd -12.282443 6.141448 30.705882
Cd -9.212172 9.211719 30.705882
Cd -12.282443 12.281990 -30.699542
Cd -9.212172 15.352262 -30.699542
Cd -9.212172 12.281990 -27.629271
Cd -12.282443 12.281990 -24.559000
Cd -9.212172 15.352262 -24.559000
Cd -9.212172 12.281990 -21.488729
Cd -12.282443 15.352262 -21.488729
Cd -12.282443 12.281990 -18.418457
Cd -9.212172 15.352262 -18.418457
Cd -9.212172 12.281990 -15.348186
Cd -12.282443 15.352262 -15.348186
Cd -12.282443 12.281990 -12.277915
Cd -9.212172 15.352262 -12.277915
Cd -9.212172 12.281990 -9.207644
Cd -12.282443 15.352262 -9.207644
Cd -12.282443 12.281990 -6.137373
Cd -9.212172 15.352262 -6.137373
Cd -9.212172 12.281990 -3.067101
Cd -12.282443 15.352262 -3.067101
Cd -12.282443 12.281990 0.003170
Cd -9.212172 15.352262 0.003170
Cd -9.212172 12.281990 3.073441
Cd -12.282443 15.352262 3.073441
Cd -12.282443 12.281990 6.143712
Cd -9.212172 15.352262 6.143712
Cd -9.212172 12.281990 9.213983
Cd -12.282443 15.352262 9.213983
Cd -12.282443 12.281990 12.284255
Cd -9.212172 15.352262 12.284255
Cd -9.212172 12.281990 15.354526
Cd -12.282443 15.352262 15.354526
Cd -12.282443 12.281990 18.424797
Cd -9.212172 15.352262 18.424797
Cd -9.212172 12.281990 21.495068
Cd -12.282443 15.352262 21.495068
Cd -12.282443 12.281990 24.565339
Cd -9.212172 15.352262 24.565339
Cd -9.212172 12.281990 27.635611
Cd -12.282443 15.352262 27.635611
Cd -12.282443 12.281990 30.705882
Cd -9.212172 15.352262 30.705882
Cd -9.212172 18.422533 -27.629271
Cd -12.282443 18.422533 -24.559000
Cd -9.212172 18.422533 -21.488729
Cd -12.282443 21.492804 -21.488729
Cd -12.282443 18.422533 -18.418457
Cd -9.212172 21.492804 -18.418457
Cd -9.212172 18.422533 -15.348186
Cd -12.282443 21.492804 -15.348186
Cd -12.282443 18.422533 -12.277915
Cd -9.212172 21.492804 -12.277915
Cd -9.212172 18.422533 -9.207644
Cd -12.282443 21.492804 -9.207644
Cd -12.282443 18.422533 -6.137373
Cd -9.212172 21.492804 -6.137373
Cd -9.212172 18.422533 -3.067101
Cd -12.282443 21.492804 -3.067101
Cd -12.282443 18.422533 0.003170
Cd -9.212172 21.492804 0.003170
Cd -9.212172 18.422533 3.073441
Cd -12.282443 21.492804 3.073441
Cd -12.282443 18.422533 6.143712
Cd -9.212172 21.492804 6.143712
Cd -9.212172 18.422533 9.213983
Cd -12.282443 21.492804 9.213983
Cd -12.282443 18.422533 12.284255
Cd -9.212172 21.492804 12.284255
Cd -9.212172 18.422533 15.354526
Cd -12.282443 21.492804 15.354526
Cd -12.282443 18.422533 18.424797
Cd -9.212172 21.492804 18.424797
Cd -9.212172 18.422533 21.495068
Cd -12.282443 21.492804 21.495068
Cd -12.282443 18.422533 24.565339
Cd -9.212172 21.492804 24.565339
Cd -9.212172 24.563075 -21.488729
Cd -9.212172 27.633346 -18.418457
Cd -9.212172 24.563075 -15.348186
Cd -12.282443 27.633346 -15.348186
Cd -12.282443 24.563075 -12.277915
Cd -9.212172 27.633346 -12.277915
Cd -9.212172 24.563075 -9.207644
Cd -12.282443 27.633346 -9.207644
Cd -12.282443 24.563075 -6.137373
Cd -9.212172 27.633346 -6.137373
Cd -9.212172 24.563075 -3.067101
Cd -12.282443 27.633346 -3.067101
Cd -12.282443 24.563075 0.003170
Cd -9.212172 27.633346 0.003170
Cd -9.212172 24.563075 3.073441
Cd -12.282443 27.633346 3.073441
Cd -12.282443 24.563075 6.143712
Cd -9.212172 27.633346 6.143712
Cd -9.212172 24.563075 9.213983
Cd -12.282443 27.633346 9.213983
Cd -12.282443 24.563075 12.284255
Cd -9.212172 27.633346 12.284255
Cd -9.212172 24.563075 15.354526
Cd -12.282443 27.633346 15.354526
Cd -12.282443 24.563075 18.424797
Cd -9.212172 24.563075 21.495068
Cd -9.212172 30.703618 -15.348186
Cd -12.282443 30.703618 -12.277915
Cd -9.212172 30.703618 -9.207644
Cd -12.282443 30.703618 -6.137373
Cd -9.212172 30.703618 -3.067101
Cd -12.282443 30.703618 0.003170
Cd -9.212172 30.703618 3.073441
Cd -12.282443 30.703618 6.143712
Cd -9.212172 30.703618 9.213983
Cd -12.282443 30.703618 12.284255
Cd -9.212172 30.703618 15.354526
Cd -3.071630 -27.631535 -24.559000
Cd -3.071630 -30.701806 -21.488729
Cd -6.141901 -27.631535 -21.488729
Cd -6.141901 -30.701806 -18.418457
Cd -3.071630 -27.631535 -18.418457
Cd -3.071630 -30.701806 -15.348186
Cd -6.141901 -27.631535 -15.348186
Cd -6.141901 -30.701806 -12.277915
Cd -3.071630 -27.631535 -12.277915
Cd -3.071630 -30.701806 -9.207644
Cd -6.141901 -27.631535 -9.207644
Cd -6.141901 -30.701806 -6.137373
Cd -3.071630 -27.631535 -6.137373
Cd -3.071630 -30.701806 -3.067101
Cd -6.141901 -27.631535 -3.067101
Cd -6.141901 -30.701806 0.003170
Cd -3.071630 -27.631535 0.003170
Cd -3.071630 -30.701806 3.073441
Cd -6.141901 -27.631535 3.073441
Cd -6.141901 -30.701806 6.143712
Cd -3.071630 -27.631535 6.143712
Cd -3.071630 -30.701806 9.213983
Cd -6.141901 -27.631535 9.213983
Cd -6.141901 -30.701806 12.284255
Cd -3.071630 -27.631535 12.284255
Cd -3.071630 -30.701806 15.354526
Cd -6.141901 -27.631535 15.354526
Cd -6.141901 -30.701806 18.424797
Cd -3.071630 -27.631535 18.424797
Cd -3.071630 -30.701806 21.495068
Cd -6.141901 -27.631535 21.495068
Cd -3.071630 -21.490993 -30.699542
Cd -3.071630 -24.561264 -27.629271
Cd -6.141901 -21.490993 -27.629271
Cd -3.071630 -21.490993 -24.559000
Cd -3.071630 -24.561264 -21.488729
Cd -6.141901 -21.490993 -21.488729
Cd -6.141901 -24.561264 -18.418457
Cd -3.071630 -21.490993 -18.418457
Cd -3.071630 -24.561264 -15.348186
Cd -6.141901 -21.490993 -15.348186
Cd -6.141901 -24.561264 -12.277915
Cd -3.071630 -21.490993 -12.277915
Cd -3.071630 -24.561264 -9.207644
Cd -6.141901 -21.490993 -9.207644
Cd -6.141901 -24.561264 -6.137373
Cd -3.071630 -21.490993 -6.137373
Cd -3.071630 -24.561264 -3.067101
Cd -6.141901 -21.490993 -3.067101
Cd -6.141901 -24.561264 0.003170
Cd -3.071630 -21.490993 0.003170
Cd -3.071630 -24.561264 3.073441
Cd -6.141901 -21.490993 3.073441
Cd -6.141901 -24.561264 6.143712
Cd -3.071630 -21.490993 6.143712
Cd -3.071630 -24.561264 9.213983
Cd -6.141901 -21.490993 9.213983
Cd -6.141901 -24.561264 12.284255
Cd -3.071630 -21.490993 12.284255
Cd -3.071630 -24.561264 15.354526
Cd -6.141901 -21.490993 15.354526
Cd -6.141901 -24.561264 18.424797
Cd -3.071630 -21.490993 18.424797
Cd -3.071630 -24.561264 21.495068
Cd -6.141901 -21.490993 21.495068
Cd -6.141901 -24.561264 24.565339
Cd -3.071630 -21.490993 24.565339
Cd -3.071630 -24.561264 27.635611
Cd -3.071630 -21.490993 30.705882
Cd -6.141901 -18.420722 -30.699542
Cd -3.071630 -15.350450 -30.699542
Cd -3.071630 -18.420722 -27.629271
Cd -6.141901 -15.350450 -27.629271
Cd -6.141901 -18.420722 -24.559000
Cd -3.071630 -15.350450 -24.559000
Cd -3.071630 -18.420722 -21.488729
Cd -6.141901 -15.350450 -21.488729
Cd -6.141901 -18.420722 -18.418457
Cd -3.071630 -15.350450 -18.418457
Cd -3.071630 -18.420722 -15.348186
Cd -6.141901 -15.350450 -15.348186
Cd -6.141901 -18.420722 -12.277915
Cd -3.071630 -15.350450 -12.277915
Cd -3.071630 -18.420722 -9.207644
Cd -6.141901 -15.350450 -9.207644
Cd -6.141901 -18.420722 -6.137373
Cd -3.071630 -15.350450 -6.137373
Cd -3.071630 -18.420722 -3.067101
Cd -6.141901 -15.350450 -3.067101
Cd -6.141901 -18.420722 0.003170
Cd -3.071630 -15.350450 0.003170
Cd -3.071630 -18.420722 3.073441
Cd -6.141901 -15.350450 3.073441
Cd -6.141901 -18.420722 6.143712
Cd -3.071630 -15.350450 6.143712
Cd -3.071630 -18.420722 9.213983
Cd -6.141901 -15.350450 9.213983
Cd -6.141901 -18.420722 12.284255
Cd -3.071630 -15.350450 12.284255
Cd -3.071630 -18.420722 15.354526
Cd -6.141901 -15.350450 15.354526
Cd -6.141901 -18.420722 18.424797
Cd -3.071630 -15.350450 18.424797
Cd -3.071630 -18.420722 21.495068
Cd -6.141901 -15.350450 21.495068
Cd -6.141901 -18.420722 24.565339
Cd -3.071630 -15.350450 24.565339
Cd -3.071630 -18.420722 27.635611
Cd -6.141901 -15.350450 27.635611
Cd -6.141901 -18.420722 30.705882
Cd -3.071630 -15.350450 30.705882
Cd -6.141901 -12.280179 -30.699542
Cd -3.071630 -9.209908 -30.699542
Cd -3.071630 -12.280179 -27.629271
Cd -6.141901 -9.209908 -27.629271
Cd -6.141901 -12.280179 -24.559000
Cd -3.071630 -9.209908 -24.559000
Cd -3.071630 -12.280179 -21.488729
Cd -6.141901 -9.209908 -21.488729
Cd -6.141901 -12.280179 -18.418457
Cd -3.071630 -9.209908 -18.418457
Cd -3.071630 -12.280179 -15.348186
Cd -6.141901 -9.209908 -15.348186
Cd -6.141901 -12.280179 -12.277915
Cd -3.071630 -9.209908 -12.277915
Cd -3.071630 -12.280179 -9.207644
Cd -6.141901 -9.209908 -9.207644
Cd -6.141901 -12.280179 -6.137373
Cd -3.071630 -9.209908 -6.137373
Cd -3.071630 -12.280179 -3.067101
Cd -6.141901 -9.209908 -3.067101
Cd -6.141901 -12.280179 0.003170
Cd -3.071630 -9.209908 0.003170
Cd -3.071630 -12.280179 3.073441
Cd -6.141901 -9.209908 3.073441
Cd -6.141901 -12.280179 6.143712
Cd -3.071630 -9.209908 6.143712
Cd -3.071630 -12.280179 9.213983
Cd -6.141901 -9.209908 9.213983
Cd -6.141901 -12.280179 12.284255
Cd -3.071630 -9.209908 12.284255
Cd -3.071630 -12.280179 15.354526
Cd -6.141901 -9.209908 15.354526
Cd -6.141901 -12.280179 18.424797
Cd -3.071630 -9.209908 18.424797
Cd -3.071630 -12.280179 21.495068
Cd -6.141901 -9.209908 21.495068
Cd -6.141901 -12.280179 24.565339
Cd -3.071630 -9.209908 24.565339
Cd -3.071630 -12.280179 27.635611
Cd -6.141901 -9.209908 27.635611
Cd -6.141901 -12.280179 30.705882
Cd -3.071630 -9.209908 30.705882
Cd -6.141901 -6.139637 -30.699542
Cd -3.071630 -3.069366 -30.699542
Cd -3.071630 -6.139637 -27.629271
Cd -6.141901 -3.069366 -27.629271
Cd -6.141901 -6.139637 -24.559000
Cd -3.071630 -3.069366 -24.559000
Cd -3.071630 -6.139637 -21.488729
Cd -6.141901 -3.069366 -21.488729
Cd -6.141901 -6.139637 -18.418457
Cd -3.071630 -3.069366 -18.418457
Cd -3.071630 -6.139637 -15.348186
Cd -6.141901 -3.069366 -15.348186
Cd -6.141901 -6.139637 -12.277915
Cd -3.071630 -3.069366 -12.277915
Cd -3.071630 -6.139637 -9.207644
Cd -6.141901 -3.069366 -9.207644
Cd -6.141901 -6.139637 -6.137373
Cd -3.071630 -3.069366 -6.137373
Cd -3.071630 -6.139637 -3.067101
Cd -6.141901 -3.069366 -3.067101
Cd -6.141901 -6.139637 0.003170
Cd -3.071630 -3.069366 0.003170
Cd -3.071630 -6.139637 3.073441
Cd -6.141901 -3.069366 3.073441
Cd -6.141901 -6.139637 6.143712
Cd -3.071630 -3.069366 6.143712
Cd -3.071630 -6.139637 9.213983
Cd -6.141901 -3.069366 9.213983
Cd -6.141901 -6.139637 12.284255
Cd -3.071630 -3.069366 12.284255
Cd -3.071630 -6.139637 15.354526
Cd -6.141901 -3.069366 15.354526
Cd -6.141901 -6.139637 18.424797
Cd -3.071630 -3.069366 18.424797
Cd -3.071630 -6.139637 21.495068
Cd -6.141901 -3.069366 21.495068
Cd -6.141901 -6.139637 24.565339
Cd -3.071630 -3.069366 24.565339
Cd -3.071630 -6.139637 27.635611
Cd -6.141901 -3.069366 27.635611
Cd -6.141901 -6.139637 30.705882
Cd -3.071630 -3.069366 30.705882
Cd -6.141901 0.000906 -30.699542
Cd -3.071630 3.071177 -30.699542
Cd -3.071630 0.000906 -27.629271
Cd -6.141901 3.071177 -27.629271
Cd -6.141901 0.000906 -24.559000
Cd -3.071630 3.071177 -24.559000
Cd -3.071630 0.000906 -21.488729
Cd -6.141901 3.071177 -21.488729
Cd -6.141901 0.000906 -18.418457
Cd -3.071630 3.071177 -18.418457
Cd -3.071630 0.000906 -15.348186
Cd -6.141901 3.071177 -15.348186
Cd -6.141901 0.000906 -12.277915
Cd -3.071630 3.071177 -12.277915
Cd -3.071630 0.000906 -9.207644
Cd -6.141901 3.071177 -9.207644
Cd -6.141901 0.000906 -6.137373
Cd -3.071630 3.071177 -6.137373
Cd -3.071630 0.000906 -3.067101
Cd -6.141901 3.071177 -3.067101
Cd -6.141901 0.000906 0.003170
Cd -3.071630 3.071177 0.003170
Cd -3.071630 0.000906 3.073441
Cd -6.141901 3.071177 3.073441
Cd -6.141901 0.000906 6.143712
Cd -3.071630 3.071177 6.143712
Cd -3.071630 0.000906 9.213983
Cd -6.141901 3.071177 9.213983
Cd -6.141901 0.000906 12.284255
Cd -3.071630 3.071177 12.284255
Cd -3.071630 0.000906 15.354526
Cd -6.141901 3.071177 15.354526
Cd -6.141901 0.000906 18.424797
Cd -3.071630 3.071177 18.424797
Cd -3.071630 0.000906 21.495068
Cd -6.141901 3.071177 21.495068
Cd -6.141901 0.000906 24.565339
Cd -3.071630 3.071177 24.565339
Cd -3.071630 0.000906 27.635611
Cd -6.141901 3.071177 27.635611
Cd -6.141901 0.000906 30.705882
Cd -3.071630 3.071177 30.705882
Cd -6.141901 6.141448 -30.699542
Cd -3.071630 9.211719 -30.699542
Cd -3.071630 6.141448 -27.629271
Cd -6.141901 9.211719 -27.629271
Cd -6.141901 6.141448 -24.559000
Cd -3.071630 9.211719 -24.559000
Cd -3.071630 6.141448 -21.488729
Cd -6.141901 9.211719 -21.488729
Cd -6.141901 6.141448 -18.418457
Cd -3.071630 9.211719 -18.418457
Cd -3.071630 6.141448 -15.348186
Cd -6.141901 9.211719 -15.348186
Cd -6.141901 6.141448 -12.277915
Cd -3.071630 9.211719 -12.277915
Cd -3.071630 6.141448 -9.207644
Cd -6.141901 9.211719 -9.207644
Cd -6.141901 6.141448 -6.137373
Cd -3.071630 9.211719 -6.137373
Cd -3.071630 6.141448 -3.067101
Cd -6.141901 9.211719 -3.067101
Cd -6.141901 6.141448 0.003170
Cd -3.071630 9.211719 0.003170
Cd -3.071630 6.141448 3.073441
Cd -6.141901 9.211719 3.073441
Cd -6.141901 6.141448 6.143712
Cd -3.071630 9.211719 6.143712
Cd -3.071630 6.141448 9.213983
Cd -6.141901 9.211719 9.213983
Cd -6.141901 6.141448 12.284255
Cd -3.071630 9.211719 12.284255
Cd -3.071630 6.141448 15.354526
Cd -6.141901 9.211719 15.354526
Cd -6.141901 6.141448 18.424797
Cd -3.071630 9.211719 18.424797
Cd -3.071630 6.141448 21.495068
Cd -6.141901 9.211719 21.495068
Cd -6.141901 6.141448 24.565339
Cd -3.071630 9.211719 24.565339
Cd -3.071630 6.141448 27.635611
Cd -6.141901 9.211719 27.635611
Cd -6.141901 6.141448 30.705882
Cd -3.071630 9.211719 30.705882
Cd -6.141901 12.281990 -30.699542
Cd -3.071630 15.352262 -30.699542
Cd -3.071630 12.281990 -27.629271
Cd -6.141901 15.352262 -27.629271
Cd -6.141901 12.281990 -24.559000
Cd -3.071630 15.352262 -24.559000
Cd -3.071630 12.281990 -21.488729
Cd -6.141901 15.352262 -21.488729
Cd -6.141901 12.281990 -18.418457
Cd -3.071630 15.352262 -18.418457
Cd -3.071630 12.281990 -15.348186
Cd -6.141901 15.352262 -15.348186
Cd -6.141901 12.281990 -12.277915
Cd -3.071630 15.352262 -12.277915
Cd -3.071630 12.281990 -9.207644
Cd -6.141901 15.352262 -9.207644
Cd -6.141901 12.281990 -6.137373
Cd -3.071630 15.352262 -6.137373
Cd -3.071630 12.281990 -3.067101
Cd -6.141901 15.352262 -3.067101
Cd -6.141901 12.281990 0.003170
Cd -3.071630 15.352262 0.003170
Cd -3.071630 12.281990 3.073441
Cd -6.141901 15.352262 3.073441
Cd -6.141901 12.281990 6.143712
Cd -3.071630 15.352262 6.143712
Cd -3.071630 12.281990 9.213983
Cd -6.141901 15.352262 9.213983
Cd -6.141901 12.281990 12.284255
Cd -3.071630 15.352262 12.284255
Cd -3.071630 12.281990 15.354526
Cd -6.141901 15.352262 15.354526
Cd -6.141901 12.281990 18.424797
Cd -3.071630 15.352262 18.424797
Cd -3.071630 12.281990 21.495068
Cd -6.141901 15.352262 21.495068
Cd -6.141901 12.281990 24.565339
Cd -3.071630 15.352262 24.565339
Cd -3.071630 12.281990 27.635611
Cd -6.141901 15.352262 27.635611
Cd -6.141901 12.281990 30.705882
Cd -3.071630 15.352262 30.705882
Cd -6.141901 18.422533 -30.699542
Cd -3.071630 21.492804 -30.699542
Cd -3.071630 18.422533 -27.629271
Cd -6.141901 21.492804 -27.629271
Cd -6.141901 18.422533 -24.559000
Cd -3.071630 21.492804 -24.559000
Cd -3.071630 18.422533 -21.488729
Cd -6.141901 21.492804 -21.488729
Cd -6.141901 18.422533 -18.418457
Cd -3.071630 21.492804 -18.418457
Cd -3.071630 18.422533 -15.348186
Cd -6.141901 21.492804 -15.348186
Cd -6.141901 18.422533 -12.277915
Cd -3.071630 21.492804 -12.277915
Cd -3.071630 18.422533 -9.207644
Cd -6.141901 21.492804 -9.207644
Cd -6.141901 18.422533 -6.137373
Cd -3.071630 21.492804 -6.137373
Cd -3.071630 18.422533 -3.067101
Cd -6.141901 21.492804 -3.067101
Cd -6.141901 18.422533 0.003170
Cd -3.071630 21.492804 0.003170
Cd -3.071630 18.422533 3.073441
Cd -6.141901 21.492804 3.073441
Cd -6.141901 18.422533 6.143712
Cd -3.071630 21.492804 6.143712
Cd -3.071630 18.422533 9.213983
Cd -6.141901 21.492804 9.213983
Cd -6.141901 18.422533 12.284255
Cd -3.071630 21.492804 12.284255
Cd -3.071630 18.422533 15.354526
Cd -6.141901 21.492804 15.354526
Cd -6.141901 18.422533 18.424797
Cd -3.071630 21.492804 18.424797
Cd -3.071630 18.422533 21.495068
Cd -6.141901 21.492804 21.495068
Cd -6.141901 18.422533 24.565339
Cd -3.071630 21.492804 24.565339
Cd -3.071630 18.422533 27.635611
Cd -6.141901 21.492804 27.635611
Cd -6.141901 18.422533 30.705882
Cd -3.071630 21.492804 30.705882
Cd -6.141901 24.563075 -24.559000
Cd -3.071630 27.633346 -24.559000
Cd -3.071630 24.563075 -21.488729
Cd -6.141901 24.563075 -18.418457
Cd -3.071630 27.633346 -18.418457
Cd -3.071630 24.563075 -15.348186
Cd -6.141901 27.633346 -15.348186
Cd -6.141901 24.563075 -12.277915
Cd -3.071630 27.633346 -12.277915
Cd -3.071630 24.563075 -9.207644
Cd -6.141901 27.633346 -9.207644
Cd -6.141901 24.563075 -6.137373
Cd -3.071630 27.633346 -6.137373
Cd -3.071630 24.563075 -3.067101
Cd -6.141901 27.633346 -3.067101
Cd -6.141901 24.563075 0.003170
Cd -3.071630 27.633346 0.003170
Cd -3.071630 24.563075 3.073441
Cd -6.141901 27.633346 3.073441
Cd -6.141901 24.563075 6.143712
Cd -3.071630 27.633346 6.143712
Cd -3.071630 24.563075 9.213983
Cd -6.141901 27.633346 9.213983
Cd -6.141901 24.563075 12.284255
Cd -3.071630 27.633346 12.284255
Cd -3.071630 24.563075 15.354526
Cd -6.141901 27.633346 15.354526
Cd -6.141901 24.563075 18.424797
Cd -3.071630 27.633346 18.424797
Cd -3.071630 24.563075 21.495068
Cd -6.141901 27.633346 21.495068
Cd -3.071630 27.633346 24.565339
Cd -3.071630 24.563075 27.635611
Cd -3.071630 30.703618 -21.488729
Cd -6.141901 30.703618 -18.418457
Cd -3.071630 30.703618 -15.348186
Cd -6.141901 30.703618 -12.277915
Cd -3.071630 30.703618 -9.207644
Cd -6.141901 30.703618 -6.137373
Cd -3.071630 30.703618 -3.067101
Cd -6.141901 30.703618 0.003170
Cd -3.071630 30.703618 3.073441
Cd -6.141901 30.703618 6.143712
Cd -3.071630 30.703618 9.213983
Cd -6.141901 30.703618 12.284255
Cd -3.071630 30.703618 15.354526
Cd -6.141901 30.703618 18.424797
Cd -3.071630 30.703618 21.495068
Cd -0.001359 -27.631535 -27.629271
Cd -0.001359 -30.701806 -24.559000
Cd 3.068913 -30.701806 -21.488729
Cd -0.001359 -27.631535 -21.488729
Cd -0.001359 -30.701806 -18.418457
Cd 3.068913 -27.631535 -18.418457
Cd 3.068913 -30.701806 -15.348186
Cd -0.001359 -27.631535 -15.348186
Cd -0.001359 -30.701806 -12.277915
Cd 3.068913 -27.631535 -12.277915
Cd 3.068913 -30.701806 -9.207644
Cd -0.001359 -27.631535 -9.207644
Cd -0.001359 -30.701806 -6.137373
Cd 3.068913 -27.631535 -6.137373
Cd 3.068913 -30.701806 -3.067101
Cd -0.001359 -27.631535 -3.067101
Cd -0.001359 -30.701806 0.003170
Cd 3.068913 -27.631535 0.003170
Cd 3.068913 -30.701806 3.073441
Cd -0.001359 -27.631535 3.073441
Cd -0.001359 -30.701806 6.143712
Cd 3.068913 -27.631535 6.143712
Cd 3.068913 -30.701806 9.213983
Cd -0.001359 -27.631535 9.213983
Cd -0.001359 -30.701806 12.284255
Cd 3.068913 -27.631535 12.284255
Cd 3.068913 -30.701806 15.354526
Cd -0.001359 -27.631535 15.354526
Cd -0.001359 -30.701806 18.424797
Cd 3.068913 -27.631535 18.424797
Cd 3.068913 -30.701806 21.495068
Cd -0.001359 -27.631535 21.495068
Cd -0.001359 -30.701806 24.565339
Cd 3.068913 -27.631535 24.565339
Cd -0.001359 -27.631535 27.635611
Cd -0.001359 -24.561264 -30.699542
Cd 3.068913 -21.490993 -30.699542
Cd 3.068913 -24.561264 -27.629271
Cd -0.001359 -21.490993 -27.629271
Cd -0.001359 -24.561264 -24.559000
Cd 3.068913 -21.490993 -24.559000
Cd 3.068913 -24.561264 -21.488729
Cd -0.001359 -21.490993 -21.488729
Cd -0.001359 -24.561264 -18.418457
Cd 3.068913 -21.490993 -18.418457
Cd 3.068913 -24.561264 -15.348186
Cd -0.001359 -21.490993 -15.348186
Cd -0.001359 -24.561264 -12.277915
Cd 3.068913 -21.490993 -12.277915
Cd 3.068913 -24.561264 -9.207644
Cd -0.001359 -21.490993 -9.207644
Cd -0.001359 -24.561264 -6.137373
Cd 3.068913 -21.490993 -6.137373
Cd 3.068913 -24.561264 -3.067101
Cd -0.001359 -21.490993 -3.067101
Cd -0.001359 -24.561264 0.003170
Cd 3.068913 -21.490993 0.003170
Cd 3.068913 -24.561264 3.073441
Cd -0.001359 -21.490993 3.073441
Cd -0.001359 -24.561264 6.143712
Cd 3.068913 -21.490993 6.143712
Cd 3.068913 -24.561264 9.213983
Cd -0.001359 -21.490993 9.213983
Cd -0.001359 -24.561264 12.284255
Cd 3.068913 -21.490993 12.284255
Cd 3.068913 -24.561264 15.354526
Cd -0.001359 -21.490993 15.354526
Cd -0.001359 -24.561264 18.424797
Cd 3.068913 -21.490993 18.424797
Cd 3.068913 -24.561264 21.495068
Cd -0.001359 -21.490993 21.495068
Cd -0.001359 -24.561264 24.565339
Cd 3.068913 -21.490993 24.565339
Cd 3.068913 -24.561264 27.635611
Cd -0.001359 -21.490993 27.635611
Cd -0.001359 -24.561264 30.705882
Cd 3.068913 -21.490993 30.705882
Cd -0.001359 -18.420722 -30.699542
Cd 3.068913 -15.350450 -30.699542
Cd 3.068913 -18.420722 -27.629271
Cd -0.001359 -15.350450 -27.629271
Cd -0.001359 -18.420722 -24.559000
Cd 3.068913 -15.350450 -24.559000
Cd 3.068913 -18.420722 -21.488729
Cd -0.001359 -15.350450 -21.488729
Cd -0.001359 -18.420722 -18.418457
Cd 3.068913 -15.350450 -18.418457
Cd 3.068913 -18.420722 -15.348186
Cd -0.001359 -15.350450 -15.348186
Cd -0.001359 -18.420722 -12.277915
Cd 3.068913 -15.350450 -12.277915
Cd 3.068913 -18.420722 -9.207644
Cd -0.001359 -15.350450 -9.207644
Cd -0.001359 -18.420722 -6.137373
Cd 3.068913 -15.350450 -6.137373
Cd 3.068913 -18.420722 -3.067101
Cd -0.001359 -15.350450 -3.067101
Cd -0.001359 -18.420722 0.003170
Cd 3.068913 -15.350450 0.003170
Cd 3.068913 -18.420722 3.073441
Cd -0.001359 -15.350450 3.073441
Cd -0.001359 -18.420722 6.143712
Cd 3.068913 -15.350450 6.143712
Cd 3.068913 -18.420722 9.213983
Cd -0.001359 -15.350450 9.213983
Cd -0.001359 -18.420722 12.284255
Cd 3.068913 -15.350450 12.284255
Cd 3.068913 -18.420722 15.354526
Cd -0.001359 -15.350450 15.354526
Cd -0.001359 -18.420722 18.424797
Cd 3.068913 -15.350450 18.424797
Cd 3.068913 -18.420722 21.495068
Cd -0.001359 -15.350450 21.495068
Cd -0.001359 -18.420722 24.565339
Cd 3.068913 -15.350450 24.565339
Cd 3.068913 -18.420722 27.635611
Cd -0.001359 -15.350450 27.635611
Cd -0.001359 -18.420722 30.705882
Cd 3.068913 -15.350450 30.705882
Cd -0.001359 -12.280179 -30.699542
Cd 3.068913 -9.209908 -30.699542
Cd 3.068913 -12.280179 -27.629271
Cd -0.001359 -9.209908 -27.629271
Cd -0.001359 -12.280179 -24.559000
Cd 3.068913 -9.209908 -24.559000
Cd 3.068913 -12.280179 -21.488729
Cd -0.001359 -9.209908 -21.488729
Cd -0.001359 -12.280179 -18.418457
Cd 3.068913 -9.209908 -18.418457
Cd 3.068913 -12.280179 -15.348186
Cd -0.001359 -9.209908 -15.348186
Cd -0.001359 -12.280179 -12.277915
Cd 3.068913 -9.209908 -12.277915
Cd 3.068913 -12.280179 -9.207644
Cd -0.001359 -9.209908 -9.207644
Cd -0.001359 -12.280179 -6.137373
Cd 3.068913 -9.209908 -6.137373
Cd 3.068913 -12.280179 -3.067101
Cd -0.001359 -9.209908 -3.067101
Cd -0.001359 -12.280179 0.003170
Cd 3.068913 -9.209908 0.003170
Cd 3.068913 -12.280179 3.073441
Cd -0.001359 -9.209908 3.073441
Cd -0.001359 -12.280179 6.143712
Cd 3.068913 -9.209908 6.143712
Cd 3.068913 -12.280179 9.213983
Cd -0.001359 -9.209908 9.213983
Cd -0.001359 -12.280179 12.284255
Cd 3.068913 -9.209908 12.284255
Cd 3.068913 -12.280179 15.354526
Cd -0.001359 -9.209908 15.354526
Cd -0.001359 -12.280179 18.424797
Cd 3.068913 -9.209908 18.424797
Cd 3.068913 -12.280179 21.495068
Cd -0.001359 -9.209908 21.495068
Cd -0.001359 -12.280179 24.565339
Cd 3.068913 -9.209908 24.565339
Cd 3.068913 -12.280179 27.635611
Cd -0.001359 -9.209908 27.635611
Cd -0.001359 -12.280179 30.705882
Cd 3.068913 -9.209908 30.705882
Cd -0.001359 -6.139637 -30.699542
Cd 3.068913 -3.069366 -30.699542
Cd 3.068913 -6.139637 -27.629271
Cd -0.001359 -3.069366 -27.629271
Cd -0.001359 -6.139637 -24.559000
Cd 3.068913 -3.069366 -24.559000
Cd 3.068913 -6.139637 -21.488729
Cd -0.001359 -3.069366 -21.488729
Cd -0.001359 -6.139637 -18.418457
Cd 3.068913 -3.069366 -18.418457
Cd 3.068913 -6.139637 -15.348186
Cd -0.001359 -3.069366 -15.348186
Cd -0.001359 -6.139637 -12.277915
Cd 3.068913 -3.069366 -12.277915
Cd 3.068913 -6.139637 -9.207644
Cd -0.001359 -3.069366 -9.207644
Cd -0.001359 -6.139637 -6.137373
Cd 3.068913 -3.069366 -6.137373
Cd 3.068913 -6.139637 -3.067101
Cd -0.001359 -3.069366 -3.067101
Cd -0.001359 -6.139637 0.003170
Cd 3.068913 -3.069366 0.003170
Cd 3.068913 -6.139637 3.073441
Cd -0.001359 -3.069366 3.073441
Cd -0.001359 -6.139637 6.143712
Cd 3.068913 -3.069366 6.143712
Cd 3.068913 -6.139637 9.213983
Cd -0.001359 -3.069366 9.213983
Cd -0.001359 -6.139637 12.284255
Cd 3.068913 -3.069366 12.284255
Cd 3.068913 -6.139637 15.354526
Cd -0.001359 -3.069366 15.354526
Cd -0.001359 -6.139637 18.424797
Cd 3.068913 -3.069366 18.424797
Cd 3.068913 -6.139637 21.495068
Cd -0.001359 -3.069366 21.495068
Cd -0.001359 -6.139637 24.565339
Cd 3.068913 -3.069366 24.565339
Cd 3.068913 -6.139637 27.635611
Cd -0.001359 -3.069366 27.635611
Cd -0.001359 -6.139637 30.705882
Cd 3.068913 -3.069366 30.705882
Cd -0.001359 0.000906 -30.699542
Cd 3.068913 3.071177 -30.699542
Cd 3.068913 0.000906 -27.629271
Cd -0.001359 3.071177 -27.629271
Cd -0.001359 0.000906 -24.559000
Cd 3.068913 3.071177 -24.559000
Cd 3.068913 0.000906 -21.488729
Cd -0.001359 3.071177 -21.488729
Cd -0.001359 0.000906 -18.418457
Cd 3.068913 3.071177 -18.418457
Cd 3.068913 0.000906 -15.348186
Cd -0.001359 3.071177 -15.348186
Cd -0.001359 0.000906 -12.277915
Cd 3.068913 3.071177 -12.277915
Cd 3.068913 0.000906 -9.207644
Cd -0.001359 3.071177 -9.207644
Cd -0.001359 0.000906 -6.137373
Cd 3.068913 3.071177 -6.137373
Cd 3.068913 0.000906 -3.067101
Cd -0.001359 3.071177 -3.067101
Cd -0.001359 0.000906 0.003170
Cd 3.068913 3.071177 0.003170
Cd 3.068913 0.000906 3.073441
Cd -0.001359 3.071177 3.073441
Cd -0.001359 0.000906 6.143712
Cd 3.068913 3.071177 6.143712
Cd 3.068913 0.000906 9.213983
Cd -0.001359 3.071177 9.213983
Cd -0.001359 0.000906 12.284255
Cd 3.068913 3.071177 12.284255
Cd 3.068913 0.000906 15.354526
Cd -0.001359 3.071177 15.354526
Cd -0.001359 0.000906 18.424797
Cd 3.068913 3.071177 18.424797
Cd 3.068913 0.000906 21.495068
Cd -0.001359 3.071177 21.495068
Cd -0.001359 0.000906 24.565339
Cd 3.068913 3.071177 24.565339
Cd 3.068913 0.000906 27.635611
Cd -0.001359 3.071177 27.635611
Cd -0.001359 0.000906 30.705882
Cd 3.068913 3.071177 30.705882
Cd -0.001359 6.141448 -30.699542
Cd 3.068913 9.211719 -30.699542
Cd 3.068913 6.141448 -27.629271
Cd -0.001359 9.211719 -27.629271
Cd -0.001359 6.141448 -24.559000
Cd 3.068913 9.211719 -24.559000
Cd 3.068913 6.141448 -21.488729
Cd -0.001359 9.211719 -21.488729
Cd -0.001359 6.141448 -18.418457
Cd 3.068913 9.211719 -18.418457
Cd 3.068913 6.141448 -15.348186
Cd -0.001359 9.211719 -15.348186
Cd -0.001359 6.141448 -12.277915
Cd 3.068913 9.211719 -12.277915
Cd 3.068913 6.141448 -9.207644
Cd -0.001359 9.211719 -9.207644
Cd -0.001359 6.141448 -6.137373
Cd 3.068913 9.211719 -6.137373
Cd 3.068913 6.141448 -3.067101
Cd -0.001359 9.211719 -3.067101
Cd -0.001359 6.141448 0.003170
Cd 3.068913 9.211719 0.003170
Cd 3.068913 6.141448 3.073441
Cd -0.001359 9.211719 3.073441
Cd -0.001359 6.141448 6.143712
Cd 3.068913 9.211719 6.143712
Cd 3.068913 6.141448 9.213983
Cd -0.001359 9.211719 9.213983
Cd -0.001359 6.141448 12.284255
Cd 3.068913 9.211719 12.284255
Cd 3.068913 6.141448 15.354526
Cd -0.001359 9.211719 15.354526
Cd -0.001359 6.141448 18.424797
Cd 3.068913 9.211719 18.424797
Cd 3.068913 6.141448 21.495068
Cd -0.001359 9.211719 21.495068
Cd -0.001359 6.141448 24.565339
Cd 3.068913 9.211719 24.565339
Cd 3.068913 6.141448 27.635611
Cd -0.001359 9.211719 27.635611
Cd -0.001359 6.141448 30.705882
Cd 3.068913 9.211719 30.705882
Cd -0.001359 12.281990 -30.699542
Cd 3.068913 15.352262 -30.699542
Cd 3.068913 12.281990 -27.629271
Cd -0.001359 15.352262 -27.629271
Cd -0.001359 12.281990 -24.559000
Cd 3.068913 15.352262 -24.559000
Cd 3.068913 12.281990 -21.488729
Cd -0.001359 15.352262 -21.488729
Cd -0.001359 12.281990 -18.418457
Cd 3.068913 15.352262 -18.418457
Cd 3.068913 12.281990 -15.348186
Cd -0.001359 15.352262 -15.348186
Cd -0.001359 12.281990 -12.277915
Cd 3.068913 15.352262 -12.277915
Cd 3.068913 12.281990 -9.207644
Cd -0.001359 15.352262 -9.207644
Cd -0.001359 12.281990 -6.137373
Cd 3.068913 15.352262 -6.137373
Cd 3.068913 12.281990 -3.067101
Cd -0.001359 15.352262 -3.067101
Cd -0.001359 12.281990 0.003170
Cd 3.068913 15.352262 0.003170
Cd 3.068913 12.281990 3.073441
Cd -0.001359 15.352262 3.073441
Cd -0.001359 12.281990 6.143712
Cd 3.068913 15.352262 6.143712
Cd 3.068913 12.281990 9.213983
Cd -0.001359 15.352262 9.213983
Cd -0.001359 12.281990 12.284255
Cd 3.068913 15.352262 12.284255
Cd 3.068913 12.281990 15.354526
Cd -0.001359 15.352262 15.354526
Cd -0.001359 12.281990 18.424797
Cd 3.068913 15.352262 18.424797
Cd 3.068913 12.281990 21.495068
Cd -0.001359 15.352262 21.495068
Cd -0.001359 12.281990 24.565339
Cd 3.068913 15.352262 24.565339
Cd 3.068913 12.281990 27.635611
Cd -0.001359 15.352262 27.635611
Cd -0.001359 12.281990 30.705882
Cd 3.068913 15.352262 30.705882
Cd -0.001359 18.422533 -30.699542
Cd 3.068913 21.492804 -30.699542
Cd 3.068913 18.422533 -27.629271
Cd -0.001359 21.492804 -27.629271
Cd -0.001359 18.422533 -24.559000
Cd 3.068913 21.492804 -24.559000
Cd 3.068913 18.422533 -21.488729
Cd -0.001359 21.492804 -21.488729
Cd -0.001359 18.422533 -18.418457
Cd 3.068913 21.492804 -18.418457
Cd 3.068913 18.422533 -15.348186
Cd -0.001359 21.492804 -15.348186
Cd -0.001359 18.422533 -12.277915
Cd 3.068913 21.492804 -12.277915
Cd 3.068913 18.422533 -9.207644
Cd -0.001359 21.492804 -9.207644
Cd -0.001359 18.422533 -6.137373
Cd 3.068913 21.492804 -6.137373
Cd 3.068913 18.422533 -3.067101
Cd -0.001359 21.492804 -3.067101
Cd -0.001359 18.422533 0.003170
Cd 3.068913 21.492804 0.003170
Cd 3.068913 18.422533 3.073441
Cd -0.001359 21.492804 3.073441
Cd -0.001359 18.422533 6.143712
Cd 3.068913 21.492804 6.143712
Cd 3.068913 18.422533 9.213983
Cd -0.001359 21.492804 9.213983
Cd -0.001359 18.422533 12.284255
Cd 3.068913 21.492804 12.284255
Cd 3.068913 18.422533 15.354526
Cd -0.001359 21.492804 15.354526
Cd -0.001359 18.422533 18.424797
Cd 3.068913 21.492804 18.424797
Cd 3.068913 18.422533 21.495068
Cd -0.001359 21.492804 21.495068
Cd -0.001359 18.422533 24.565339
Cd 3.068913 21.492804 24.565339
Cd 3.068913 18.422533 27.635611
Cd -0.001359 21.492804 27.635611
Cd -0.001359 18.422533 30.705882
Cd 3.068913 21.492804 30.705882
Cd -0.001359 24.563075 -30.699542
Cd 3.068913 24.563075 -27.629271
Cd -0.001359 27.633346 -27.629271
Cd -0.001359 24.563075 -24.559000
Cd 3.068913 27.633346 -24.559000
Cd 3.068913 24.563075 -21.488729
Cd -0.001359 27.633346 -21.488729
Cd -0.001359 24.563075 -18.418457
Cd 3.068913 27.633346 -18.418457
Cd 3.068913 24.563075 -15.348186
Cd -0.001359 27.633346 -15.348186
Cd -0.001359 24.563075 -12.277915
Cd 3.068913 27.633346 -12.277915
Cd 3.068913 24.563075 -9.207644
Cd -0.001359 27.633346 -9.207644
Cd -0.001359 24.563075 -6.137373
Cd 3.068913 27.633346 -6.137373
Cd 3.068913 24.563075 -3.067101
Cd -0.001359 27.633346 -3.067101
Cd -0.001359 24.563075 0.003170
Cd 3.068913 27.633346 0.003170
Cd 3.068913 24.563075 3.073441
Cd -0.001359 27.633346 3.073441
Cd -0.001359 24.563075 6.143712
Cd 3.068913 27.633346 6.143712
Cd 3.068913 24.563075 9.213983
Cd -0.001359 27.633346 9.213983
Cd -0.001359 24.563075 12.284255
Cd 3.068913 27.633346 12.284255
Cd 3.068913 24.563075 15.354526
Cd -0.001359 27.633346 15.354526
Cd -0.001359 24.563075 18.424797
Cd 3.068913 27.633346 18.424797
Cd 3.068913 24.563075 21.495068
Cd -0.001359 27.633346 21.495068
Cd -0.001359 24.563075 24.565339
Cd 3.068913 24.563075 27.635611
Cd -0.001359 27.633346 27.635611
Cd -0.001359 24.563075 30.705882
Cd -0.001359 30.703618 -24.559000
Cd 3.068913 30.703618 -21.488729
Cd -0.001359 30.703618 -18.418457
Cd 3.068913 30.703618 -15.348186
Cd -0.001359 30.703618 -12.277915
Cd 3.068913 30.703618 -9.207644
Cd -0.001359 30.703618 -6.137373
Cd 3.068913 30.703618 -3.067101
Cd -0.001359 30.703618 0.003170
Cd 3.068913 30.703618 3.073441
Cd -0.001359 30.703618 6.143712
Cd 3.068913 30.703618 9.213983
Cd -0.001359 30.703618 12.284255
Cd 3.068913 30.703618 15.354526
Cd -0.001359 30.703618 18.424797
Cd 3.068913 30.703618 21.495068
Cd -0.001359 30.703618 24.565339
Cd 6.139184 -27.631535 -21.488729
Cd 6.139184 -30.701806 -18.418457
Cd 9.209455 -27.631535 -18.418457
Cd 9.209455 -30.701806 -15.348186
Cd 6.139184 -27.631535 -15.348186
Cd 6.139184 -30.701806 -12.277915
Cd 9.209455 -27.631535 -12.277915
Cd 9.209455 -30.701806 -9.207644
Cd 6.139184 -27.631535 -9.207644
Cd 6.139184 -30.701806 -6.137373
Cd 9.209455 -27.631535 -6.137373
Cd 9.209455 -30.701806 -3.067101
Cd 6.139184 -27.631535 -3.067101
Cd 6.139184 -30.701806 0.003170
Cd 9.209455 -27.631535 0.003170
Cd 9.209455 -30.701806 3.073441
Cd 6.139184 -27.631535 3.073441
Cd 6.139184 -30.701806 6.143712
Cd 9.209455 -27.631535 6.143712
Cd 9.209455 -30.701806 9.213983
Cd 6.139184 -27.631535 9.213983
Cd 6.139184 -30.701806 12.284255
Cd 9.209455 -27.631535 12.284255
Cd 9.209455 -30.701806 15.354526
Cd 6.139184 -27.631535 15.354526
Cd 6.139184 -30.701806 18.424797
Cd 6.139184 -27.631535 21.495068
Cd 6.139184 -24.561264 -24.559000
Cd 9.209455 -21.490993 -24.559000
Cd 6.139184 -21.490993 -21.488729
Cd 6.139184 -24.561264 -18.418457
Cd 9.209455 -21.490993 -18.418457
Cd 9.209455 -24.561264 -15.348186
Cd 6.139184 -21.490993 -15.348186
Cd 6.139184 -24.561264 -12.277915
Cd 9.209455 -21.490993 -12.277915
Cd 9.209455 -24.561264 -9.207644
Cd 6.139184 -21.490993 -9.207644
Cd 6.139184 -24.561264 -6.137373
Cd 9.209455 -21.490993 -6.137373
Cd 9.209455 -24.561264 -3.067101
Cd 6.139184 -21.490993 -3.067101
Cd 6.139184 -24.561264 0.003170
Cd 9.209455 -21.490993 0.003170
Cd 9.209455 -24.561264 3.073441
Cd 6.139184 -21.490993 3.073441
Cd 6.139184 -24.561264 6.143712
Cd 9.209455 -21.490993 6.143712
Cd 9.209455 -24.561264 9.213983
Cd 6.139184 -21.490993 9.213983
Cd 6.139184 -24.561264 12.284255
Cd 9.209455 -21.490993 12.284255
Cd 9.209455 -24.561264 15.354526
Cd 6.139184 -21.490993 15.354526
Cd 6.139184 -24.561264 18.424797
Cd 9.209455 -21.490993 18.424797
Cd 9.209455 -24.561264 21.495068
Cd 6.139184 -21.490993 21.495068
Cd 9.209455 -21.490993 24.565339
Cd 6.139184 -21.490993 27.635611
Cd 6.139184 -18.420722 -30.699542
Cd 9.209455 -15.350450 -30.699542
Cd 9.209455 -18.420722 -27.629271
Cd 6.139184 -15.350450 -27.629271
Cd 6.139184 -18.420722 -24.559000
Cd 9.209455 -15.350450 -24.559000
Cd 9.209455 -18.420722 -21.488729
Cd 6.139184 -15.350450 -21.488729
Cd 6.139184 -18.420722 -18.418457
Cd 9.209455 -15.350450 -18.418457
Cd 9.209455 -18.420722 -15.348186
Cd 6.139184 -15.350450 -15.348186
Cd 6.139184 -18.420722 -12.277915
Cd 9.209455 -15.350450 -12.277915
Cd 9.209455 -18.420722 -9.207644
Cd 6.139184 -15.350450 -9.207644
Cd 6.139184 -18.420722 -6.137373
Cd 9.209455 -15.350450 -6.137373
Cd 9.209455 -18.420722 -3.067101
Cd 6.139184 -15.350450 -3.067101
Cd 6.139184 -18.420722 0.003170
Cd 9.209455 -15.350450 0.003170
Cd 9.209455 -18.420722 3.073441
Cd 6.139184 -15.350450 3.073441
Cd 6.139184 -18.420722 6.143712
Cd 9.209455 -15.350450 6.143712
Cd 9.209455 -18.420722 9.213983
Cd 6.139184 -15.350450 9.213983
Cd 6.139184 -18.420722 12.284255
Cd 9.209455 -15.350450 12.284255
Cd 9.209455 -18.420722 15.354526
Cd 6.139184 -15.350450 15.354526
Cd 6.139184 -18.420722 18.424797
Cd 9.209455 -15.350450 18.424797
Cd 9.209455 -18.420722 21.495068
Cd 6.139184 -15.350450 21.495068
Cd 6.139184 -18.420722 24.565339
Cd 9.209455 -15.350450 24.565339
Cd 6.139184 -15.350450 27.635611
Cd 6.139184 -18.420722 30.705882
Cd 9.209455 -15.350450 30.705882
Cd 6.139184 -12.280179 -30.699542
Cd 9.209455 -9.209908 -30.699542
Cd 9.209455 -12.280179 -27.629271
Cd 6.139184 -9.209908 -27.629271
Cd 6.139184 -12.280179 -24.559000
Cd 9.209455 -9.209908 -24.559000
Cd 9.209455 -12.280179 -21.488729
Cd 6.139184 -9.209908 -21.488729
Cd 6.139184 -12.280179 -18.418457
Cd 9.209455 -9.209908 -18.418457
Cd 9.209455 -12.280179 -15.348186
Cd 6.139184 -9.209908 -15.348186
Cd 6.139184 -12.280179 -12.277915
Cd 9.209455 -9.209908 -12.277915
Cd 9.209455 -12.280179 -9.207644
Cd 6.139184 -9.209908 -9.207644
Cd 6.139184 -12.280179 -6.137373
Cd 9.209455 -9.209908 -6.137373
Cd 9.209455 -12.280179 -3.067101
Cd 6.139184 -9.209908 -3.067101
Cd 6.139184 -12.280179 0.003170
Cd 9.209455 -9.209908 0.003170
Cd 9.209455 -12.280179 3.073441
Cd 6.139184 -9.209908 3.073441
Cd 6.139184 -12.280179 6.143712
Cd 9.209455 -9.209908 6.143712
Cd 9.209455 -12.280179 9.213983
Cd 6.139184 -9.209908 9.213983
Cd 6.139184 -12.280179 12.284255
Cd 9.209455 -9.209908 12.284255
Cd 9.209455 -12.280179 15.354526
Cd 6.139184 -9.209908 15.354526
Cd 6.139184 -12.280179 18.424797
Cd 9.209455 -9.209908 18.424797
Cd 9.209455 -12.280179 21.495068
Cd 6.139184 -9.209908 21.495068
Cd 6.139184 -12.280179 24.565339
Cd 9.209455 -9.209908 24.565339
Cd 9.209455 -12.280179 27.635611
Cd 6.139184 -9.209908 27.635611
Cd 6.139184 -12.280179 30.705882
Cd 9.209455 -9.209908 30.705882
Cd 6.139184 -6.139637 -30.699542
Cd 9.209455 -3.069366 -30.699542
Cd 9.209455 -6.139637 -27.629271
Cd 6.139184 -3.069366 -27.629271
Cd 6.139184 -6.139637 -24.559000
Cd 9.209455 -3.069366 -24.559000
Cd 9.209455 -6.139637 -21.488729
Cd 6.139184 -3.069366 -21.488729
Cd 6.139184 -6.139637 -18.418457
Cd 9.209455 -3.069366 -18.418457
Cd 9.209455 -6.139637 -15.348186
Cd 6.139184 -3.069366 -15.348186
Cd 6.139184 -6.139637 -12.277915
Cd 9.209455 -3.069366 -12.277915
Cd 9.209455 -6.139637 -9.207644
Cd 6.139184 -3.069366 -9.207644
Cd 6.139184 -6.139637 -6.137373
Cd 9.209455 -3.069366 -6.137373
Cd 9.209455 -6.139637 -3.067101
Cd 6.139184 -3.069366 -3.067101
Cd 6.139184 -6.139637 0.003170
Cd 9.209455 -3.069366 0.003170
Cd 9.209455 -6.139637 3.073441
Cd 6.139184 -3.069366 3.073441
Cd 6.139184 -6.139637 6.143712
Cd 9.209455 -3.069366 6.143712
Cd 9.209455 -6.139637 9.213983
Cd 6.139184 -3.069366 9.213983
Cd 6.139184 -6.139637 12.284255
Cd 9.209455 -3.069366 12.284255
Cd 9.209455 -6.139637 15.354526
Cd 6.139184 -3.069366 15.354526
Cd 6.139184 -6.139637 18.424797
Cd 9.209455 -3.069366 18.424797
Cd 9.209455 -6.139637 21.495068
Cd 6.139184 -3.069366 21.495068
Cd 6.139184 -6.139637 24.565339
Cd 9.209455 -3.069366 24.565339
Cd 9.209455 -6.139637 27.635611
Cd 6.139184 -3.069366 27.635611
Cd 6.139184 -6.139637 30.705882
Cd 9.209455 -3.069366 30.705882
Cd 6.139184 0.000906 -30.699542
Cd 9.209455 3.071177 -30.699542
Cd 9.209455 0.000906 -27.629271
Cd 6.139184 3.071177 -27.629271
Cd 6.139184 0.000906 -24.559000
Cd 9.209455 3.071177 -24.559000
Cd 9.209455 0.000906 -21.488729
Cd 6.139184 3.071177 -21.488729
Cd 6.139184 0.000906 -18.418457
Cd 9.209455 3.071177 -18.418457
Cd 9.209455 0.000906 -15.348186
Cd 6.139184 3.071177 -15.348186
Cd 6.139184 0.000906 -12.277915
Cd 9.209455 3.071177 -12.277915
Cd 9.209455 0.000906 -9.207644
Cd 6.139184 3.071177 -9.207644
Cd 6.139184 0.000906 -6.137373
Cd 9.209455 3.071177 -6.137373
Cd 9.209455 0.000906 -3.067101
Cd 6.139184 3.071177 -3.067101
Cd 6.139184 0.000906 0.003170
Cd 9.209455 3.071177 0.003170
Cd 9.209455 0.000906 3.073441
Cd 6.139184 3.071177 3.073441
Cd 6.139184 0.000906 6.143712
Cd 9.209455 3.071177 6.143712
Cd 9.209455 0.000906 9.213983
Cd 6.139184 3.071177 9.213983
Cd 6.139184 0.000906 12.284255
Cd 9.209455 3.071177 12.284255
Cd 9.209455 0.000906 15.354526
Cd 6.139184 3.071177 15.354526
Cd 6.139184 0.000906 18.424797
Cd 9.209455 3.071177 18.424797
Cd 9.209455 0.000906 21.495068
Cd 6.139184 3.071177 21.495068
Cd 6.139184 0.000906 24.565339
Cd 9.209455 3.071177 24.565339
Cd 9.209455 0.000906 27.635611
Cd 6.139184 3.071177 27.635611
Cd 6.139184 0.000906 30.705882
Cd 9.209455 3.071177 30.705882
Cd 6.139184 6.141448 -30.699542
Cd 9.209455 9.211719 -30.699542
Cd 9.209455 6.141448 -27.629271
Cd 6.139184 9.211719 -27.629271
Cd 6.139184 6.141448 -24.559000
Cd 9.209455 9.211719 -24.559000
Cd 9.209455 6.141448 -21.488729
Cd 6.139184 9.211719 -21.488729
Cd 6.139184 6.141448 -18.418457
Cd 9.209455 9.211719 -18.418457
Cd 9.209455 6.141448 -15.348186
Cd 6.139184 9.211719 -15.348186
Cd 6.139184 6.141448 -12.277915
Cd 9.209455 9.211719 -12.277915
Cd 9.209455 6.141448 -9.207644
Cd 6.139184 9.211719 -9.207644
Cd 6.139184 6.141448 -6.137373
Cd 9.209455 9.211719 -6.137373
Cd 9.209455 6.141448 -3.067101
Cd 6.139184 9.211719 -3.067101
Cd 6.139184 6.141448 0.003170
Cd 9.209455 9.211719 0.003170
Cd 9.209455 6.141448 3.073441
Cd 6.139184 9.211719 3.073441
Cd 6.139184 6.141448 6.143712
Cd 9.209455 9.211719 6.143712
Cd 9.209455 6.141448 9.213983
Cd 6.139184 9.211719 9.213983
Cd 6.139184 6.141448 12.284255
Cd 9.209455 9.211719 12.284255
Cd 9.209455 6.141448 15.354526
Cd 6.139184 9.211719 15.354526
Cd 6.139184 6.141448 18.424797
Cd 9.209455 9.211719 18.424797
Cd 9.209455 6.141448 21.495068
Cd 6.139184 9.211719 21.495068
Cd 6.139184 6.141448 24.565339
Cd 9.209455 9.211719 24.565339
Cd 9.209455 6.141448 27.635611
Cd 6.139184 9.211719 27.635611
Cd 6.139184 6.141448 30.705882
Cd 9.209455 9.211719 30.705882
Cd 6.139184 12.281990 -30.699542
Cd 9.209455 15.352262 -30.699542
Cd 9.209455 12.281990 -27.629271
Cd 6.139184 15.352262 -27.629271
Cd 6.139184 12.281990 -24.559000
Cd 9.209455 15.352262 -24.559000
Cd 9.209455 12.281990 -21.488729
Cd 6.139184 15.352262 -21.488729
Cd 6.139184 12.281990 -18.418457
Cd 9.209455 15.352262 -18.418457
Cd 9.209455 12.281990 -15.348186
Cd 6.139184 15.352262 -15.348186
Cd 6.139184 12.281990 -12.277915
Cd 9.209455 15.352262 -12.277915
Cd 9.209455 12.281990 -9.207644
Cd 6.139184 15.352262 -9.207644
Cd 6.139184 12.281990 -6.137373
Cd 9.209455 15.352262 -6.137373
Cd 9.209455 12.281990 -3.067101
Cd 6.139184 15.352262 -3.067101
Cd 6.139184 12.281990 0.003170
Cd 9.209455 15.352262 0.003170
Cd 9.209455 12.281990 3.073441
Cd 6.139184 15.352262 3.073441
Cd 6.139184 12.281990 6.143712
Cd 9.209455 15.352262 6.143712
Cd 9.209455 12.281990 9.213983
Cd 6.139184 15.352262 9.213983
Cd 6.139184 12.281990 12.284255
Cd 9.209455 15.352262 12.284255
Cd 9.209455 12.281990 15.354526
Cd 6.139184 15.352262 15.354526
Cd 6.139184 12.281990 18.424797
Cd 9.209455 15.352262 18.424797
Cd 9.209455 12.281990 21.495068
Cd 6.139184 15.352262 21.495068
Cd 6.139184 12.281990 24.565339
Cd 9.209455 15.352262 24.565339
Cd 9.209455 12.281990 27.635611
Cd 6.139184 15.352262 27.635611
Cd 6.139184 12.281990 30.705882
Cd 9.209455 15.352262 30.705882
Cd 6.139184 18.422533 -30.699542
Cd 6.139184 21.492804 -27.629271
Cd 6.139184 18.422533 -24.559000
Cd 9.209455 21.492804 -24.559000
Cd 9.209455 18.422533 -21.488729
Cd 6.139184 21.492804 -21.488729
Cd 6.139184 18.422533 -18.418457
Cd 9.209455 21.492804 -18.418457
Cd 9.209455 18.422533 -15.348186
Cd 6.139184 21.492804 -15.348186
Cd 6.139184 18.422533 -12.277915
Cd 9.209455 21.492804 -12.277915
Cd 9.209455 18.422533 -9.207644
Cd 6.139184 21.492804 -9.207644
Cd 6.139184 18.422533 -6.137373
Cd 9.209455 21.492804 -6.137373
Cd 9.209455 18.422533 -3.067101
Cd 6.139184 21.492804 -3.067101
Cd 6.139184 18.422533 0.003170
Cd 9.209455 21.492804 0.003170
Cd 9.209455 18.422533 3.073441
Cd 6.139184 21.492804 3.073441
Cd 6.139184 18.422533 6.143712
Cd 9.209455 21.492804 6.143712
Cd 9.209455 18.422533 9.213983
Cd 6.139184 21.492804 9.213983
Cd 6.139184 18.422533 12.284255
Cd 9.209455 21.492804 12.284255
Cd 9.209455 18.422533 15.354526
Cd 6.139184 21.492804 15.354526
Cd 6.139184 18.422533 18.424797
Cd 9.209455 21.492804 18.424797
Cd 9.209455 18.422533 21.495068
Cd 6.139184 21.492804 21.495068
Cd 6.139184 18.422533 24.565339
Cd 9.209455 21.492804 24.565339
Cd 9.209455 18.422533 27.635611
Cd 6.139184 18.422533 30.705882
Cd 9.209455 24.563075 -21.488729
Cd 6.139184 27.633346 -21.488729
Cd 6.139184 24.563075 -18.418457
Cd 9.209455 24.563075 -15.348186
Cd 6.139184 27.633346 -15.348186
Cd 6.139184 24.563075 -12.277915
Cd 9.209455 27.633346 -12.277915
Cd 9.209455 24.563075 -9.207644
Cd 6.139184 27.633346 -9.207644
Cd 6.139184 24.563075 -6.137373
Cd 9.209455 27.633346 -6.137373
Cd 9.209455 24.563075 -3.067101
Cd 6.139184 27.633346 -3.067101
Cd 6.139184 24.563075 0.003170
Cd 9.209455 27.633346 0.003170
Cd 9.209455 24.563075 3.073441
Cd 6.139184 27.633346 3.073441
Cd 6.139184 24.563075 6.143712
Cd 9.209455 27.633346 6.143712
Cd 9.209455 24.563075 9.213983
Cd 6.139184 27.633346 9.213983
Cd 6.139184 24.563075 12.284255
Cd 9.209455 27.633346 12.284255
Cd 9.209455 24.563075 15.354526
Cd 6.139184 27.633346 15.354526
Cd 6.139184 24.563075 18.424797
Cd 9.209455 27.633346 18.424797
Cd 6.139184 27.633346 21.495068
Cd 6.139184 24.563075 24.565339
Cd 6.139184 30.703618 -18.418457
Cd 9.209455 30.703618 -15.348186
Cd 6.139184 30.703618 -12.277915
Cd 9.209455 30.703618 -9.207644
Cd 6.139184 30.703618 -6.137373
Cd 9.209455 30.703618 -3.067101
Cd 6.139184 30.703618 0.003170
Cd 9.209455 30.703618 3.073441
Cd 6.139184 30.703618 6.143712
Cd 9.209455 30.703618 9.213983
Cd 6.139184 30.703618 12.284255
Cd 9.209455 30.703618 15.354526
Cd 6.139184 30.703618 18.424797
Cd 12.279726 -30.701806 -12.277915
Cd 15.349997 -27.631535 -12.277915
Cd 15.349997 -30.701806 -9.207644
Cd 12.279726 -27.631535 -9.207644
Cd 12.279726 -30.701806 -6.137373
Cd 15.349997 -27.631535 -6.137373
Cd 15.349997 -30.701806 -3.067101
Cd 12.279726 -27.631535 -3.067101
Cd 12.279726 -30.701806 0.003170
Cd 15.349997 -27.631535 0.003170
Cd 15.349997 -30.701806 3.073441
Cd 12.279726 -27.631535 3.073441
Cd 12.279726 -30.701806 6.143712
Cd 15.349997 -27.631535 6.143712
Cd 15.349997 -30.701806 9.213983
Cd 12.279726 -27.631535 9.213983
Cd 12.279726 -30.701806 12.284255
Cd 15.349997 -27.631535 12.284255
Cd 12.279726 -27.631535 15.354526
Cd 12.279726 -21.490993 -21.488729
Cd 12.279726 -24.561264 -18.418457
Cd 15.349997 -24.561264 -15.348186
Cd 12.279726 -21.490993 -15.348186
Cd 12.279726 -24.561264 -12.277915
Cd 15.349997 -21.490993 -12.277915
Cd 15.349997 -24.561264 -9.207644
Cd 12.279726 -21.490993 -9.207644
Cd 12.279726 -24.561264 -6.137373
Cd 15.349997 -21.490993 -6.137373
Cd 15.349997 -24.561264 -3.067101
Cd 12.279726 -21.490993 -3.067101
Cd 12.279726 -24.561264 0.003170
Cd 15.349997 -21.490993 0.003170
Cd 15.349997 -24.561264 3.073441
Cd 12.279726 -21.490993 3.073441
Cd 12.279726 -24.561264 6.143712
Cd 15.349997 -21.490993 6.143712
Cd 15.349997 -24.561264 9.213983
Cd 12.279726 -21.490993 9.213983
Cd 12.279726 -24.561264 12.284255
Cd 15.349997 -21.490993 12.284255
Cd 12.279726 -21.490993 15.354526
Cd 12.279726 -24.561264 18.424797
Cd 15.349997 -21.490993 18.424797
Cd 12.279726 -15.350450 -27.629271
Cd 15.349997 -15.350450 -24.559000
Cd 15.349997 -18.420722 -21.488729
Cd 12.279726 -15.350450 -21.488729
Cd 12.279726 -18.420722 -18.418457
Cd 15.349997 -15.350450 -18.418457
Cd 15.349997 -18.420722 -15.348186
Cd 12.279726 -15.350450 -15.348186
Cd 12.279726 -18.420722 -12.277915
Cd 15.349997 -15.350450 -12.277915
Cd 15.349997 -18.420722 -9.207644
Cd 12.279726 -15.350450 -9.207644
Cd 12.279726 -18.420722 -6.137373
Cd 15.349997 -15.350450 -6.137373
Cd 15.349997 -18.420722 -3.067101
Cd 12.279726 -15.350450 -3.067101
Cd 12.279726 -18.420722 0.003170
Cd 15.349997 -15.350450 0.003170
Cd 15.349997 -18.420722 3.073441
Cd 12.279726 -15.350450 3.073441
Cd 12.279726 -18.420722 6.143712
Cd 15.349997 -15.350450 6.143712
Cd 15.349997 -18.420722 9.213983
Cd 12.279726 -15.350450 9.213983
Cd 12.279726 -18.420722 12.284255
Cd 15.349997 -15.350450 12.284255
Cd 15.349997 -18.420722 15.354526
Cd 12.279726 -15.350450 15.354526
Cd 12.279726 -18.420722 18.424797
Cd 15.349997 -15.350450 18.424797
Cd 15.349997 -18.420722 21.495068
Cd 12.279726 -15.350450 21.495068
Cd 12.279726 -18.420722 24.565339
Cd 12.279726 -15.350450 27.635611
Cd 12.279726 -12.280179 -30.699542
Cd 15.349997 -9.209908 -30.699542
Cd 12.279726 -9.209908 -27.629271
Cd 12.279726 -12.280179 -24.559000
Cd 15.349997 -9.209908 -24.559000
Cd 15.349997 -12.280179 -21.488729
Cd 12.279726 -9.209908 -21.488729
Cd 12.279726 -12.280179 -18.418457
Cd 15.349997 -9.209908 -18.418457
Cd 15.349997 -12.280179 -15.348186
Cd 12.279726 -9.209908 -15.348186
Cd 12.279726 -12.280179 -12.277915
Cd 15.349997 -9.209908 -12.277915
Cd 15.349997 -12.280179 -9.207644
Cd 12.279726 -9.209908 -9.207644
Cd 12.279726 -12.280179 -6.137373
Cd 15.349997 -9.209908 -6.137373
Cd 15.349997 -12.280179 -3.067101
Cd 12.279726 -9.209908 -3.067101
Cd 12.279726 -12.280179 0.003170
Cd 15.349997 -9.209908 0.003170
Cd 15.349997 -12.280179 3.073441
Cd 12.279726 -9.209908 3.073441
Cd 12.279726 -12.280179 6.143712
Cd 15.349997 -9.209908 6.143712
Cd 15.349997 -12.280179 9.213983
Cd 12.279726 -9.209908 9.213983
Cd 12.279726 -12.280179 12.284255
Cd 15.349997 -9.209908 12.284255
Cd 15.349997 -12.280179 15.354526
Cd 12.279726 -9.209908 15.354526
Cd 12.279726 -12.280179 18.424797
Cd 15.349997 -9.209908 18.424797
Cd 15.349997 -12.280179 21.495068
Cd 12.279726 -9.209908 21.495068
Cd 12.279726 -12.280179 24.565339
Cd 15.349997 -9.209908 24.565339
Cd 15.349997 -12.280179 27.635611
Cd 12.279726 -9.209908 27.635611
Cd 12.279726 -12.280179 30.705882
Cd 15.349997 -9.209908 30.705882
Cd 12.279726 -6.139637 -30.699542
Cd 15.349997 -3.069366 -30.699542
Cd 15.349997 -6.139637 -27.629271
Cd 12.279726 -3.069366 -27.629271
Cd 12.279726 -6.139637 -24.559000
Cd 15.349997 -3.069366 -24.559000
Cd 15.349997 -6.139637 -21.488729
Cd 12.279726 -3.069366 -21.488729
Cd 12.279726 -6.139637 -18.418457
Cd 15.349997 -3.069366 -18.418457
Cd 15.349997 -6.139637 -15.348186
Cd 12.279726 -3.069366 -15.348186
Cd 12.279726 -6.139637 -12.277915
Cd 15.349997 -3.069366 -12.277915
Cd 15.349997 -6.139637 -9.207644
Cd 12.279726 -3.069366 -9.207644
Cd 12.279726 -6.139637 -6.137373
Cd 15.349997 -3.069366 -6.137373
Cd 15.349997 -6.139637 -3.067101
Cd 12.279726 -3.069366 -3.067101
Cd 12.279726 -6.139637 0.003170
Cd 15.349997 -3.069366 0.003170
Cd 15.349997 -6.139637 3.073441
Cd 12.279726 -3.069366 3.073441
Cd 12.279726 -6.139637 6.143712
Cd 15.349997 -3.069366 6.143712
Cd 15.349997 -6.139637 9.213983
Cd 12.279726 -3.069366 9.213983
Cd 12.279726 -6.139637 12.284255
Cd 15.349997 -3.069366 12.284255
Cd 15.349997 -6.139637 15.354526
Cd 12.279726 -3.069366 15.354526
Cd 12.279726 -6.139637 18.424797
Cd 15.349997 -3.069366 18.424797
Cd 15.349997 -6.139637 21.495068
Cd 12.279726 -3.069366 21.495068
Cd 12.279726 -6.139637 24.565339
Cd 15.349997 -3.069366 24.565339
Cd 15.349997 -6.139637 27.635611
Cd 12.279726 -3.069366 27.635611
Cd 12.279726 -6.139637 30.705882
Cd 15.349997 -3.069366 30.705882
Cd 12.279726 0.000906 -30.699542
Cd 15.349997 3.071177 -30.699542
Cd 15.349997 0.000906 -27.629271
Cd 12.279726 3.071177 -27.629271
Cd 12.279726 0.000906 -24.559000
Cd 15.349997 3.071177 -24.559000
Cd 15.349997 0.000906 -21.488729
Cd 12.279726 3.071177 -21.488729
Cd 12.279726 0.000906 -18.418457
Cd 15.349997 3.071177 -18.418457
Cd 15.349997 0.000906 -15.348186
Cd 12.279726 3.071177 -15.348186
Cd 12.279726 0.000906 -12.277915
Cd 15.349997 3.071177 -12.277915
Cd 15.349997 0.000906 -9.207644
Cd 12.279726 3.071177 -9.207644
Cd 12.279726 0.000906 -6.137373
Cd 15.349997 3.071177 -6.137373
Cd 15.349997 0.000906 -3.067101
Cd 12.279726 3.071177 -3.067101
Cd 12.279726 0.000906 0.003170
Cd 15.349997 3.071177 0.003170
Cd 15.349997 0.000906 3.073441
Cd 12.279726 3.071177 3.073441
Cd 12.279726 0.000906 6.143712
Cd 15.349997 3.071177 6.143712
Cd 15.349997 0.000906 9.213983
Cd 12.279726 3.071177 9.213983
Cd 12.279726 0.000906 12.284255
Cd 15.349997 3.071177 12.284255
Cd 15.349997 0.000906 15.354526
Cd 12.279726 3.071177 15.354526
Cd 12.279726 0.000906 18.424797
Cd 15.349997 3.071177 18.424797
Cd 15.349997 0.000906 21.495068
Cd 12.279726 3.071177 21.495068
Cd 12.279726 0.000906 24.565339
Cd 15.349997 3.071177 24.565339
Cd 15.349997 0.000906 27.635611
Cd 12.279726 3.071177 27.635611
Cd 12.279726 0.000906 30.705882
Cd 15.349997 3.071177 30.705882
Cd 12.279726 6.141448 -30.699542
Cd 15.349997 9.211719 -30.699542
Cd 15.349997 6.141448 -27.629271
Cd 12.279726 9.211719 -27.629271
Cd 12.279726 6.141448 -24.559000
Cd 15.349997 9.211719 -24.559000
Cd 15.349997 6.141448 -21.488729
Cd 12.279726 9.211719 -21.488729
Cd 12.279726 6.141448 -18.418457
Cd 15.349997 9.211719 -18.418457
Cd 15.349997 6.141448 -15.348186
Cd 12.279726 9.211719 -15.348186
Cd 12.279726 6.141448 -12.277915
Cd 15.349997 9.211719 -12.277915
Cd 15.349997 6.141448 -9.207644
Cd 12.279726 9.211719 -9.207644
Cd 12.279726 6.141448 -6.137373
Cd 15.349997 9.211719 -6.137373
Cd 15.349997 6.141448 -3.067101
Cd 12.279726 9.211719 -3.067101
Cd 12.279726 6.141448 0.003170
Cd 15.349997 9.211719 0.003170
Cd 15.349997 6.141448 3.073441
Cd 12.279726 9.211719 3.073441
Cd 12.279726 6.141448 6.143712
Cd 15.349997 9.211719 6.143712
Cd 15.349997 6.141448 9.213983
Cd 12.279726 9.211719 9.213983
Cd 12.279726 6.141448 12.284255
Cd 15.349997 9.211719 12.284255
Cd 15.349997 6.141448 15.354526
Cd 12.279726 9.211719 15.354526
Cd 12.279726 6.141448 18.424797
Cd 15.349997 9.211719 18.424797
Cd 15.349997 6.141448 21.495068
Cd 12.279726 9.211719 21.495068
Cd 12.279726 6.141448 24.565339
Cd 15.349997 9.211719 24.565339
Cd 15.349997 6.141448 27.635611
Cd 12.279726 9.211719 27.635611
Cd 12.279726 6.141448 30.705882
Cd 15.349997 9.211719 30.705882
Cd 12.279726 12.281990 -30.699542
Cd 15.349997 12.281990 -27.629271
Cd 12.279726 15.352262 -27.629271
Cd 12.279726 12.281990 -24.559000
Cd 15.349997 12.281990 -21.488729
Cd 12.279726 15.352262 -21.488729
Cd 12.279726 12.281990 -18.418457
Cd 15.349997 15.352262 -18.418457
Cd 15.349997 12.281990 -15.348186
Cd 12.279726 15.352262 -15.348186
Cd 12.279726 12.281990 -12.277915
Cd 15.349997 15.352262 -12.277915
Cd 15.349997 12.281990 -9.207644
Cd 12.279726 15.352262 -9.207644
Cd 12.279726 12.281990 -6.137373
Cd 15.349997 15.352262 -6.137373
Cd 15.349997 12.281990 -3.067101
Cd 12.279726 15.352262 -3.067101
Cd 12.279726 12.281990 0.003170
Cd 15.349997 15.352262 0.003170
Cd 15.349997 12.281990 3.073441
Cd 12.279726 15.352262 3.073441
Cd 12.279726 12.281990 6.143712
Cd 15.349997 15.352262 6.143712
Cd 15.349997 12.281990 9.213983
Cd 12.279726 15.352262 9.213983
Cd 12.279726 12.281990 12.284255
Cd 15.349997 15.352262 12.284255
Cd 15.349997 12.281990 15.354526
Cd 12.279726 15.352262 15.354526
Cd 12.279726 12.281990 18.424797
Cd 15.349997 15.352262 18.424797
Cd 15.349997 12.281990 21.495068
Cd 12.279726 15.352262 21.495068
Cd 12.279726 12.281990 24.565339
Cd 15.349997 15.352262 24.565339
Cd 12.279726 15.352262 27.635611
Cd 12.279726 12.281990 30.705882
Cd 12.279726 18.422533 -24.559000
Cd 15.349997 18.422533 -21.488729
Cd 12.279726 18.422533 -18.418457
Cd 15.349997 21.492804 -18.418457
Cd 15.349997 18.422533 -15.348186
Cd 12.279726 21.492804 -15.348186
Cd 12.279726 18.422533 -12.277915
Cd 15.349997 21.492804 -12.277915
Cd 15.349997 18.422533 -9.207644
Cd 12.279726 21.492804 -9.207644
Cd 12.279726 18.422533 -6.137373
Cd 15.349997 21.492804 -6.137373
Cd 15.349997 18.422533 -3.067101
Cd 12.279726 21.492804 -3.067101
Cd 12.279726 18.422533 0.003170
Cd 15.349997 21.492804 0.003170
Cd 15.349997 18.422533 3.073441
Cd 12.279726 21.492804 3.073441
Cd 12.279726 18.422533 6.143712
Cd 15.349997 21.492804 6.143712
Cd 15.349997 18.422533 9.213983
Cd 12.279726 21.492804 9.213983
Cd 12.279726 18.422533 12.284255
Cd 15.349997 21.492804 12.284255
Cd 15.349997 18.422533 15.354526
Cd 12.279726 21.492804 15.354526
Cd 12.279726 18.422533 18.424797
Cd 15.349997 18.422533 21.495068
Cd 12.279726 21.492804 21.495068
Cd 12.279726 24.563075 -18.418457
Cd 12.279726 27.633346 -15.348186
Cd 12.279726 24.563075 -12.277915
Cd 15.349997 27.633346 -12.277915
Cd 15.349997 24.563075 -9.207644
Cd 12.279726 27.633346 -9.207644
Cd 12.279726 24.563075 -6.137373
Cd 15.349997 27.633346 -6.137373
Cd 15.349997 24.563075 -3.067101
Cd 12.279726 27.633346 -3.067101
Cd 12.279726 24.563075 0.003170
Cd 15.349997 27.633346 0.003170
Cd 15.349997 24.563075 3.073441
Cd 12.279726 27.633346 3.073441
Cd 12.279726 24.563075 6.143712
Cd 15.349997 27.633346 6.143712
Cd 15.349997 24.563075 9.213983
Cd 12.279726 27.633346 9.213983
Cd 12.279726 24.563075 12.284255
Cd 15.349997 27.633346 12.284255
Cd 15.349997 24.563075 15.354526
Cd 12.279726 24.563075 18.424797
Cd 12.279726 30.703618 -12.277915
Cd 15.349997 30.703618 -9.207644
Cd 12.279726 30.703618 -6.137373
Cd 15.349997 30.703618 -3.067101
Cd 12.279726 30.703618 0.003170
Cd 15.349997 30.703618 3.073441
Cd 12.279726 30.703618 6.143712
Cd 15.349997 30.703618 9.213983
Cd 12.279726 30.703618 12.284255
Cd 18.420269 -27.631535 -9.207644
Cd 18.420269 -30.701806 -6.137373
Cd 21.490540 -30.701806 -3.067101
Cd 18.420269 -27.631535 -3.067101
Cd 18.420269 -30.701806 0.003170
Cd 21.490540 -27.631535 0.003170
Cd 21.490540 -30.701806 3.073441
Cd 18.420269 -27.631535 3.073441
Cd 18.420269 -30.701806 6.143712
Cd 21.490540 -27.631535 6.143712
Cd 18.420269 -21.490993 -15.348186
Cd 21.490540 -21.490993 -12.277915
Cd 21.490540 -24.561264 -9.207644
Cd 18.420269 -21.490993 -9.207644
Cd 18.420269 -24.561264 -6.137373
Cd 21.490540 -21.490993 -6.137373
Cd 21.490540 -24.561264 -3.067101
Cd 18.420269 -21.490993 -3.067101
Cd 18.420269 -24.561264 0.003170
Cd 21.490540 -21.490993 0.003170
Cd 21.490540 -24.561264 3.073441
Cd 18.420269 -21.490993 3.073441
Cd 18.420269 -24.561264 6.143712
Cd 21.490540 -21.490993 6.143712
Cd 21.490540 -24.561264 9.213983
Cd 18.420269 -21.490993 9.213983
Cd 18.420269 -24.561264 12.284255
Cd 18.420269 -21.490993 15.354526
Cd 18.420269 -18.420722 -18.418457
Cd 21.490540 -15.350450 -18.418457
Cd 18.420269 -15.350450 -15.348186
Cd 18.420269 -18.420722 -12.277915
Cd 21.490540 -15.350450 -12.277915
Cd 21.490540 -18.420722 -9.207644
Cd 18.420269 -15.350450 -9.207644
Cd 18.420269 -18.420722 -6.137373
Cd 21.490540 -15.350450 -6.137373
Cd 21.490540 -18.420722 -3.067101
Cd 18.420269 -15.350450 -3.067101
Cd 18.420269 -18.420722 0.003170
Cd 21.490540 -15.350450 0.003170
Cd 21.490540 -18.420722 3.073441
Cd 18.420269 -15.350450 3.073441
Cd 18.420269 -18.420722 6.143712
Cd 21.490540 -15.350450 6.143712
Cd 21.490540 -18.420722 9.213983
Cd 18.420269 -15.350450 9.213983
Cd 18.420269 -18.420722 12.284255
Cd 21.490540 -15.350450 12.284255
Cd 21.490540 -18.420722 15.354526
Cd 18.420269 -15.350450 15.354526
Cd 18.420269 -18.420722 18.424797
Cd 18.420269 -15.350450 21.495068
Cd 18.420269 -9.209908 -27.629271
Cd 18.420269 -12.280179 -24.559000
Cd 21.490540 -12.280179 -21.488729
Cd 18.420269 -9.209908 -21.488729
Cd 18.420269 -12.280179 -18.418457
Cd 21.490540 -9.209908 -18.418457
Cd 21.490540 -12.280179 -15.348186
Cd 18.420269 -9.209908 -15.348186
Cd 18.420269 -12.280179 -12.277915
Cd 21.490540 -9.209908 -12.277915
Cd 21.490540 -12.280179 -9.207644
Cd 18.420269 -9.209908 -9.207644
Cd 18.420269 -12.280179 -6.137373
Cd 21.490540 -9.209908 -6.137373
Cd 21.490540 -12.280179 -3.067101
Cd 18.420269 -9.209908 -3.067101
Cd 18.420269 -12.280179 0.003170
Cd 21.490540 -9.209908 0.003170
Cd 21.490540 -12.280179 3.073441
Cd 18.420269 -9.209908 3.073441
Cd 18.420269 -12.280179 6.143712
Cd 21.490540 -9.209908 6.143712
Cd 21.490540 -12.280179 9.213983
Cd 18.420269 -9.209908 9.213983
Cd 18.420269 -12.280179 12.284255
Cd 21.490540 -9.209908 12.284255
Cd 21.490540 -12.280179 15.354526
Cd 18.420269 -9.209908 15.354526
Cd 18.420269 -12.280179 18.424797
Cd 21.490540 -9.209908 18.424797
Cd 21.490540 -12.280179 21.495068
Cd 18.420269 -9.209908 21.495068
Cd 18.420269 -12.280179 24.565339
Cd 21.490540 -9.209908 24.565339
Cd 18.420269 -6.139637 -30.699542
Cd 21.490540 -3.069366 -30.699542
Cd 21.490540 -6.139637 -27.629271
Cd 18.420269 -3.069366 -27.629271
Cd 18.420269 -6.139637 -24.559000
Cd 21.490540 -3.069366 -24.559000
Cd 21.490540 -6.139637 -21.488729
Cd 18.420269 -3.069366 -21.488729
Cd 18.420269 -6.139637 -18.418457
Cd 21.490540 -3.069366 -18.418457
Cd 21.490540 -6.139637 -15.348186
Cd 18.420269 -3.069366 -15.348186
Cd 18.420269 -6.139637 -12.277915
Cd 21.490540 -3.069366 -12.277915
Cd 21.490540 -6.139637 -9.207644
Cd 18.420269 -3.069366 -9.207644
Cd 18.420269 -6.139637 -6.137373
Cd 21.490540 -3.069366 -6.137373
Cd 21.490540 -6.139637 -3.067101
Cd 18.420269 -3.069366 -3.067101
Cd 18.420269 -6.139637 0.003170
Cd 21.490540 -3.069366 0.003170
Cd 21.490540 -6.139637 3.073441
Cd 18.420269 -3.069366 3.073441
Cd 18.420269 -6.139637 6.143712
Cd 21.490540 -3.069366 6.143712
Cd 21.490540 -6.139637 9.213983
Cd 18.420269 -3.069366 9.213983
Cd 18.420269 -6.139637 12.284255
Cd 21.490540 -3.069366 12.284255
Cd 21.490540 -6.139637 15.354526
Cd 18.420269 -3.069366 15.354526
Cd 18.420269 -6.139637 18.424797
Cd 21.490540 -3.069366 18.424797
Cd 21.490540 -6.139637 21.495068
Cd 18.420269 -3.069366 21.495068
Cd 18.420269 -6.139637 24.565339
Cd 21.490540 -3.069366 24.565339
Cd 21.490540 -6.139637 27.635611
Cd 18.420269 -3.069366 27.635611
Cd 18.420269 -6.139637 30.705882
Cd 21.490540 -3.069366 30.705882
Cd 18.420269 0.000906 -30.699542
Cd 21.490540 3.071177 -30.699542
Cd 21.490540 0.000906 -27.629271
Cd 18.420269 3.071177 -27.629271
Cd 18.420269 0.000906 -24.559000
Cd 21.490540 3.071177 -24.559000
Cd 21.490540 0.000906 -21.488729
Cd 18.420269 3.071177 -21.488729
Cd 18.420269 0.000906 -18.418457
Cd 21.490540 3.071177 -18.418457
Cd 21.490540 0.000906 -15.348186
Cd 18.420269 3.071177 -15.348186
Cd 18.420269 0.000906 -12.277915
Cd 21.490540 3.071177 -12.277915
Cd 21.490540 0.000906 -9.207644
Cd 18.420269 3.071177 -9.207644
Cd 18.420269 0.000906 -6.137373
Cd 21.490540 3.071177 -6.137373
Cd 21.490540 0.000906 -3.067101
Cd 18.420269 3.071177 -3.067101
Cd 18.420269 0.000906 0.003170
Cd 21.490540 3.071177 0.003170
Cd 21.490540 0.000906 3.073441
Cd 18.420269 3.071177 3.073441
Cd 18.420269 0.000906 6.143712
Cd 21.490540 3.071177 6.143712
Cd 21.490540 0.000906 9.213983
Cd 18.420269 3.071177 9.213983
Cd 18.420269 0.000906 12.284255
Cd 21.490540 3.071177 12.284255
Cd 21.490540 0.000906 15.354526
Cd 18.420269 3.071177 15.354526
Cd 18.420269 0.000906 18.424797
Cd 21.490540 3.071177 18.424797
Cd 21.490540 0.000906 21.495068
Cd 18.420269 3.071177 21.495068
Cd 18.420269 0.000906 24.565339
Cd 21.490540 3.071177 24.565339
Cd 21.490540 0.000906 27.635611
Cd 18.420269 3.071177 27.635611
Cd 18.420269 0.000906 30.705882
Cd 21.490540 3.071177 30.705882
Cd 18.420269 6.141448 -30.699542
Cd 21.490540 6.141448 -27.629271
Cd 18.420269 6.141448 -24.559000
Cd 21.490540 9.211719 -24.559000
Cd 21.490540 6.141448 -21.488729
Cd 18.420269 9.211719 -21.488729
Cd 18.420269 6.141448 -18.418457
Cd 21.490540 9.211719 -18.418457
Cd 21.490540 6.141448 -15.348186
Cd 18.420269 9.211719 -15.348186
Cd 18.420269 6.141448 -12.277915
Cd 21.490540 9.211719 -12.277915
Cd 21.490540 6.141448 -9.207644
Cd 18.420269 9.211719 -9.207644
Cd 18.420269 6.141448 -6.137373
Cd 21.490540 9.211719 -6.137373
Cd 21.490540 6.141448 -3.067101
Cd 18.420269 9.211719 -3.067101
Cd 18.420269 6.141448 0.003170
Cd 21.490540 9.211719 0.003170
Cd 21.490540 6.141448 3.073441
Cd 18.420269 9.211719 3.073441
Cd 18.420269 6.141448 6.143712
Cd 21.490540 9.211719 6.143712
Cd 21.490540 6.141448 9.213983
Cd 18.420269 9.211719 9.213983
Cd 18.420269 6.141448 12.284255
Cd 21.490540 9.211719 12.284255
Cd 21.490540 6.141448 15.354526
Cd 18.420269 9.211719 15.354526
Cd 18.420269 6.141448 18.424797
Cd 21.490540 9.211719 18.424797
Cd 21.490540 6.141448 21.495068
Cd 18.420269 9.211719 21.495068
Cd 18.420269 6.141448 24.565339
Cd 21.490540 6.141448 27.635611
Cd 18.420269 9.211719 27.635611
Cd 18.420269 6.141448 30.705882
Cd 18.420269 12.281990 -24.559000
Cd 18.420269 15.352262 -21.488729
Cd 18.420269 12.281990 -18.418457
Cd 21.490540 15.352262 -18.418457
Cd 21.490540 12.281990 -15.348186
Cd 18.420269 15.352262 -15.348186
Cd 18.420269 12.281990 -12.277915
Cd 21.490540 15.352262 -12.277915
Cd 21.490540 12.281990 -9.207644
Cd 18.420269 15.352262 -9.207644
Cd 18.420269 12.281990 -6.137373
Cd 21.490540 15.352262 -6.137373
Cd 21.490540 12.281990 -3.067101
Cd 18.420269 15.352262 -3.067101
Cd 18.420269 12.281990 0.003170
Cd 21.490540 15.352262 0.003170
Cd 21.490540 12.281990 3.073441
Cd 18.420269 15.352262 3.073441
Cd 18.420269 12.281990 6.143712
Cd 21.490540 15.352262 6.143712
Cd 21.490540 12.281990 9.213983
Cd 18.420269 15.352262 9.213983
Cd 18.420269 12.281990 12.284255
Cd 21.490540 15.352262 12.284255
Cd 21.490540 12.281990 15.354526
Cd 18.420269 15.352262 15.354526
Cd 18.420269 12.281990 18.424797
Cd 21.490540 15.352262 18.424797
Cd 21.490540 12.281990 21.495068
Cd 18.420269 12.281990 24.565339
Cd 18.420269 18.422533 -18.418457
Cd 18.420269 21.492804 -15.348186
Cd 18.420269 18.422533 -12.277915
Cd 21.490540 21.492804 -12.277915
Cd 21.490540 18.422533 -9.207644
Cd 18.420269 21.492804 -9.207644
Cd 18.420269 18.422533 -6.137373
Cd 21.490540 21.492804 -6.137373
Cd 21.490540 18.422533 -3.067101
Cd 18.420269 21.492804 -3.067101
Cd 18.420269 18.422533 0.003170
Cd 21.490540 21.492804 0.003170
Cd 21.490540 18.422533 3.073441
Cd 18.420269 21.492804 3.073441
Cd 18.420269 18.422533 6.143712
Cd 21.490540 21.492804 6.143712
Cd 21.490540 18.422533 9.213983
Cd 18.420269 21.492804 9.213983
Cd 18.420269 18.422533 12.284255
Cd 21.490540 21.492804 12.284255
Cd 18.420269 21.492804 15.354526
Cd 18.420269 18.422533 18.424797
Cd 18.420269 24.563075 -12.277915
Cd 21.490540 24.563075 -9.207644
Cd 18.420269 24.563075 -6.137373
Cd 21.490540 27.633346 -6.137373
Cd 21.490540 24.563075 -3.067101
Cd 18.420269 27.633346 -3.067101
Cd 18.420269 24.563075 0.003170
Cd 21.490540 27.633346 0.003170
Cd 21.490540 24.563075 3.073441
Cd 18.420269 27.633346 3.073441
Cd 18.420269 24.563075 6.143712
Cd 21.490540 24.563075 9.213983
Cd 18.420269 27.633346 9.213983
Cd 18.420269 30.703618 -6.137373
Cd 21.490540 30.703618 -3.067101
Cd 18.420269 30.703618 0.003170
Cd 21.490540 30.703618 3.073441
Cd 18.420269 30.703618 6.143712
Cd 24.560811 -27.631535 -3.067101
Cd 24.560811 -30.701806 0.003170
Cd 27.631082 -27.631535 0.003170
Cd 24.560811 -27.631535 3.073441
Cd 24.560811 -24.561264 -6.137373
Cd 27.631082 -21.490993 -6.137373
Cd 24.560811 -21.490993 -3.067101
Cd 24.560811 -24.561264 0.003170
Cd 27.631082 -21.490993 0.003170
Cd 27.631082 -24.561264 3.073441
Cd 24.560811 -21.490993 3.073441
Cd 27.631082 -21.490993 6.143712
Cd 24.560811 -21.490993 9.213983
Cd 24.560811 -15.350450 -15.348186
Cd 24.560811 -18.420722 -12.277915
Cd 27.631082 -18.420722 -9.207644
Cd 24.560811 -15.350450 -9.207644
Cd 24.560811 -18.420722 -6.137373
Cd 27.631082 -15.350450 -6.137373
Cd 27.631082 -18.420722 -3.067101
Cd 24.560811 -15.350450 -3.067101
Cd 24.560811 -18.420722 0.003170
Cd 27.631082 -15.350450 0.003170
Cd 27.631082 -18.420722 3.073441
Cd 24.560811 -15.350450 3.073441
Cd 24.560811 -18.420722 6.143712
Cd 27.631082 -15.350450 6.143712
Cd 24.560811 -15.350450 9.213983
Cd 24.560811 -18.420722 12.284255
Cd 27.631082 -15.350450 12.284255
Cd 24.560811 -15.350450 15.354526
Cd 24.560811 -9.209908 -21.488729
Cd 27.631082 -9.209908 -18.418457
Cd 27.631082 -12.280179 -15.348186
Cd 24.560811 -9.209908 -15.348186
Cd 24.560811 -12.280179 -12.277915
Cd 27.631082 -9.209908 -12.277915
Cd 27.631082 -12.280179 -9.207644
Cd 24.560811 -9.209908 -9.207644
Cd 24.560811 -12.280179 -6.137373
Cd 27.631082 -9.209908 -6.137373
Cd 27.631082 -12.280179 -3.067101
Cd 24.560811 -9.209908 -3.067101
Cd 24.560811 -12.280179 0.003170
Cd 27.631082 -9.209908 0.003170
Cd 27.631082 -12.280179 3.073441
Cd 24.560811 -9.209908 3.073441
Cd 24.560811 -12.280179 6.143712
Cd 27.631082 -9.209908 6.143712
Cd 27.631082 -12.280179 9.213983
Cd 24.560811 -9.209908 9.213983
Cd 24.560811 -12.280179 12.284255
Cd 27.631082 -9.209908 12.284255
Cd 27.631082 -12.280179 15.354526
Cd 24.560811 -9.209908 15.354526
Cd 24.560811 -12.280179 18.424797
Cd 24.560811 -9.209908 21.495068
Cd 24.560811 -6.139637 -24.559000
Cd 27.631082 -3.069366 -24.559000
Cd 24.560811 -3.069366 -21.488729
Cd 24.560811 -6.139637 -18.418457
Cd 27.631082 -3.069366 -18.418457
Cd 27.631082 -6.139637 -15.348186
Cd 24.560811 -3.069366 -15.348186
Cd 24.560811 -6.139637 -12.277915
Cd 27.631082 -3.069366 -12.277915
Cd 27.631082 -6.139637 -9.207644
Cd 24.560811 -3.069366 -9.207644
Cd 24.560811 -6.139637 -6.137373
Cd 27.631082 -3.069366 -6.137373
Cd 27.631082 -6.139637 -3.067101
Cd 24.560811 -3.069366 -3.067101
Cd 24.560811 -6.139637 0.003170
Cd 27.631082 -3.069366 0.003170
Cd 27.631082 -6.139637 3.073441
Cd 24.560811 -3.069366 3.073441
Cd 24.560811 -6.139637 6.143712
Cd 27.631082 -3.069366 6.143712
Cd 27.631082 -6.139637 9.213983
Cd 24.560811 -3.069366 9.213983
Cd 24.560811 -6.139637 12.284255
Cd 27.631082 -3.069366 12.284255
Cd 27.631082 -6.139637 15.354526
Cd 24.560811 -3.069366 15.354526
Cd 24.560811 -6.139637 18.424797
Cd 27.631082 -3.069366 18.424797
Cd 27.631082 -6.139637 21.495068
Cd 24.560811 -3.069366 21.495068
Cd 27.631082 -3.069366 24.565339
Cd 24.560811 -3.069366 27.635611
Cd 24.560811 0.000906 -30.699542
Cd 27.631082 0.000906 -27.629271
Cd 24.560811 3.071177 -27.629271
Cd 24.560811 0.000906 -24.559000
Cd 27.631082 3.071177 -24.559000
Cd 27.631082 0.000906 -21.488729
Cd 24.560811 3.071177 -21.488729
Cd 24.560811 0.000906 -18.418457
Cd 27.631082 3.071177 -18.418457
Cd 27.631082 0.000906 -15.348186
Cd 24.560811 3.071177 -15.348186
Cd 24.560811 0.000906 -12.277915
Cd 27.631082 3.071177 -12.277915
Cd 27.631082 0.000906 -9.207644
Cd 24.560811 3.071177 -9.207644
Cd 24.560811 0.000906 -6.137373
Cd 27.631082 3.071177 -6.137373
Cd 27.631082 0.000906 -3.067101
Cd 24.560811 3.071177 -3.067101
Cd 24.560811 0.000906 0.003170
Cd 27.631082 3.071177 0.003170
Cd 27.631082 0.000906 3.073441
Cd 24.560811 3.071177 3.073441
Cd 24.560811 0.000906 6.143712
Cd 27.631082 3.071177 6.143712
Cd 27.631082 0.000906 9.213983
Cd 24.560811 3.071177 9.213983
Cd 24.560811 0.000906 12.284255
Cd 27.631082 3.071177 12.284255
Cd 27.631082 0.000906 15.354526
Cd 24.560811 3.071177 15.354526
Cd 24.560811 0.000906 18.424797
Cd 27.631082 3.071177 18.424797
Cd 27.631082 0.000906 21.495068
Cd 24.560811 3.071177 21.495068
Cd 24.560811 0.000906 24.565339
Cd 27.631082 3.071177 24.565339
Cd 27.631082 0.000906 27.635611
Cd 24.560811 0.000906 30.705882
Cd 27.631082 6.141448 -21.488729
Cd 24.560811 9.211719 -21.488729
Cd 24.560811 6.141448 -18.418457
Cd 27.631082 6.141448 -15.348186
Cd 24.560811 9.211719 -15.348186
Cd 24.560811 6.141448 -12.277915
Cd 27.631082 9.211719 -12.277915
Cd 27.631082 6.141448 -9.207644
Cd 24.560811 9.211719 -9.207644
Cd 24.560811 6.141448 -6.137373
Cd 27.631082 9.211719 -6.137373
Cd 27.631082 6.141448 -3.067101
Cd 24.560811 9.211719 -3.067101
Cd 24.560811 6.141448 0.003170
Cd 27.631082 9.211719 0.003170
Cd 27.631082 6.141448 3.073441
Cd 24.560811 9.211719 3.073441
Cd 24.560811 6.141448 6.143712
Cd 27.631082 9.211719 6.143712
Cd 27.631082 6.141448 9.213983
Cd 24.560811 9.211719 9.213983
Cd 24.560811 6.141448 12.284255
Cd 27.631082 9.211719 12.284255
Cd 27.631082 6.141448 15.354526
Cd 24.560811 9.211719 15.354526
Cd 24.560811 6.141448 18.424797
Cd 27.631082 9.211719 18.424797
Cd 24.560811 9.211719 21.495068
Cd 24.560811 6.141448 24.565339
Cd 24.560811 12.281990 -18.418457
Cd 27.631082 12.281990 -15.348186
Cd 24.560811 15.352262 -15.348186
Cd 24.560811 12.281990 -12.277915
Cd 27.631082 15.352262 -12.277915
Cd 27.631082 12.281990 -9.207644
Cd 24.560811 15.352262 -9.207644
Cd 24.560811 12.281990 -6.137373
Cd 27.631082 15.352262 -6.137373
Cd 27.631082 12.281990 -3.067101
Cd 24.560811 15.352262 -3.067101
Cd 24.560811 12.281990 0.003170
Cd 27.631082 15.352262 0.003170
Cd 27.631082 12.281990 3.073441
Cd 24.560811 15.352262 3.073441
Cd 24.560811 12.281990 6.143712
Cd 27.631082 15.352262 6.143712
Cd 27.631082 12.281990 9.213983
Cd 24.560811 15.352262 9.213983
Cd 24.560811 12.281990 12.284255
Cd 27.631082 12.281990 15.354526
Cd 24.560811 15.352262 15.354526
Cd 24.560811 18.422533 -12.277915
Cd 24.560811 21.492804 -9.207644
Cd 24.560811 18.422533 -6.137373
Cd 27.631082 21.492804 -6.137373
Cd 27.631082 18.422533 -3.067101
Cd 24.560811 21.492804 -3.067101
Cd 24.560811 18.422533 0.003170
Cd 27.631082 21.492804 0.003170
Cd 27.631082 18.422533 3.073441
Cd 24.560811 21.492804 3.073441
Cd 24.560811 18.422533 6.143712
Cd 27.631082 21.492804 6.143712
Cd 27.631082 18.422533 9.213983
Cd 24.560811 18.422533 12.284255
Cd 27.631082 24.563075 -3.067101
Cd 24.560811 27.633346 -3.067101
Cd 24.560811 24.563075 0.003170
Cd 27.631082 27.633346 0.003170
Cd 24.560811 27.633346 3.073441
Cd 24.560811 24.563075 6.143712
Cd 24.560811 30.703618 0.003170
Cd 30.701353 -21.490993 -3.067101
Cd 30.701353 -24.561264 0.003170
Cd 30.701353 -21.490993 3.073441
Cd 30.701353 -15.350450 -9.207644
Cd 30.701353 -18.420722 -6.137373
Cd 30.701353 -15.350450 -3.067101
Cd 30.701353 -18.420722 0.003170
Cd 30.701353 -15.350450 3.073441
Cd 30.701353 -18.420722 6.143712
Cd 30.701353 -15.350450 9.213983
Cd 30.701353 -9.209908 -15.348186
Cd 30.701353 -12.280179 -12.277915
Cd 30.701353 -9.209908 -9.207644
Cd 30.701353 -12.280179 -6.137373
Cd 30.701353 -9.209908 -3.067101
Cd 30.701353 -12.280179 0.003170
Cd 30.701353 -9.209908 3.073441
Cd 30.701353 -12.280179 6.143712
Cd 30.701353 -9.209908 9.213983
Cd 30.701353 -12.280179 12.284255
Cd 30.701353 -9.209908 15.354526
Cd 30.701353 -3.069366 -21.488729
Cd 30.701353 -6.139637 -18.418457
Cd 30.701353 -3.069366 -15.348186
Cd 30.701353 -6.139637 -12.277915
Cd 30.701353 -3.069366 -9.207644
Cd 30.701353 -6.139637 -6.137373
Cd 30.701353 -3.069366 -3.067101
Cd 30.701353 -6.139637 0.003170
Cd 30.701353 -3.069366 3.073441
Cd 30.701353 -6.139637 6.143712
Cd 30.701353 -3.069366 9.213983
Cd 30.701353 -6.139637 12.284255
Cd 30.701353 -3.069366 15.354526
Cd 30.701353 -6.139637 18.424797
Cd 30.701353 -3.069366 21.495068
Cd 30.701353 0.000906 -24.559000
Cd 30.701353 3.071177 -21.488729
Cd 30.701353 0.000906 -18.418457
Cd 30.701353 3.071177 -15.348186
Cd 30.701353 0.000906 -12.277915
Cd 30.701353 3.071177 -9.207644
Cd 30.701353 0.000906 -6.137373
Cd 30.701353 3.071177 -3.067101
Cd 30.701353 0.000906 0.003170
Cd 30.701353 3.071177 3.073441
Cd 30.701353 0.000906 6.143712
Cd 30.701353 3.071177 9.213983
Cd 30.701353 0.000906 12.284255
Cd 30.701353 3.071177 15.354526
Cd 30.701353 0.000906 18.424797
Cd 30.701353 3.071177 21.495068
Cd 30.701353 0.000906 24.565339
Cd 30.701353 6.141448 -18.418457
Cd 30.701353 9.211719 -15.348186
Cd 30.701353 6.141448 -12.277915
Cd 30.701353 9.211719 -9.207644
Cd 30.701353 6.141448 -6.137373
Cd 30.701353 9.211719 -3.067101
Cd 30.701353 6.141448 0.003170
Cd 30.701353 9.211719 3.073441
Cd 30.701353 6.141448 6.143712
Cd 30.701353 9.211719 9.213983
Cd 30.701353 6.141448 12.284255
Cd 30.701353 9.211719 15.354526
Cd 30.701353 6.141448 18.424797
Cd 30.701353 12.281990 -12.277915
Cd 30.701353 15.352262 -9.207644
Cd 30.701353 12.281990 -6.137373
Cd 30.701353 15.352262 -3.067101
Cd 30.701353 12.281990 0.003170
Cd 30.701353 15.352262 3.073441
Cd 30.701353 12.281990 6.143712
Cd 30.701353 15.352262 9.213983
Cd 30.701353 12.281990 12.284255
Cd 30.701353 18.422533 -6.137373
Cd 30.701353 21.492804 -3.067101
Cd 30.701353 18.422533 0.003170
Cd 30.701353 21.492804 3.073441
Cd 30.701353 18.422533 6.143712
Cd 30.701353 24.563075 0.003170
Se -26.098664 -26.096400 -1.531966
Se -26.098664 -29.166671 1.538305
Se -26.098664 -19.955857 -7.672508
Se -29.168935 -23.026128 -1.531966
Se -29.168935 -19.955857 -4.602237
Se -26.098664 -19.955857 -1.531966
Se -26.098664 -23.026128 -4.602237
Se -29.168935 -19.955857 1.538305
Se -26.098664 -19.955857 4.608577
Se -26.098664 -23.026128 1.538305
Se -29.168935 -19.955857 7.678848
Se -26.098664 -13.815315 -13.813051
Se -29.168935 -16.885586 -7.672508
Se -29.168935 -13.815315 -10.742779
Se -26.098664 -13.815315 -7.672508
Se -26.098664 -16.885586 -10.742779
Se -29.168935 -16.885586 -1.531966
Se -29.168935 -13.815315 -4.602237
Se -26.098664 -13.815315 -1.531966
Se -26.098664 -16.885586 -4.602237
Se -29.168935 -16.885586 4.608577
Se -29.168935 -13.815315 1.538305
Se -26.098664 -13.815315 4.608577
Se -26.098664 -16.885586 1.538305
Se -29.168935 -13.815315 7.678848
Se -26.098664 -13.815315 10.749119
Se -26.098664 -16.885586 7.678848
Se -26.098664 -7.674772 -19.953593
Se -29.168935 -10.745044 -13.813051
Se -29.168935 -7.674772 -16.883322
Se -26.098664 -7.674772 -13.813051
Se -26.098664 -10.745044 -16.883322
Se -29.168935 -10.745044 -7.672508
Se -29.168935 -7.674772 -10.742779
Se -26.098664 -7.674772 -7.672508
Se -26.098664 -10.745044 -10.742779
Se -29.168935 -10.745044 -1.531966
Se -29.168935 -7.674772 -4.602237
Se -26.098664 -7.674772 -1.531966
Se -26.098664 -10.745044 -4.602237
Se -29.168935 -10.745044 4.608577
Se -29.168935 -7.674772 1.538305
Se -26.098664 -7.674772 4.608577
Se -26.098664 -10.745044 1.538305
Se -29.168935 -10.745044 10.749119
Se -29.168935 -7.674772 7.678848
Se -26.098664 -7.674772 10.749119
Se -26.098664 -10.745044 7.678848
Se -29.168935 -10.745044 16.889661
Se -29.168935 -7.674772 13.819390
Se -26.098664 -7.674772 16.889661
Se -26.098664 -10.745044 13.819390
Se -26.098664 -1.534230 -26.094135
Se -29.168935 -4.604501 -19.953593
Se -29.168935 -1.534230 -23.023864
Se -26.098664 -1.534230 -19.953593
Se -26.098664 -4.604501 -23.023864
Se -29.168935 -4.604501 -13.813051
Se -29.168935 -1.534230 -16.883322
Se -26.098664 -1.534230 -13.813051
Se -26.098664 -4.604501 -16.883322
Se -29.168935 -4.604501 -7.672508
Se -29.168935 -1.534230 -10.742779
Se -26.098664 -1.534230 -7.672508
Se -26.098664 -4.604501 -10.742779
Se -29.168935 -4.604501 -1.531966
Se -29.168935 -1.534230 -4.602237
Se -26.098664 -1.534230 -1.531966
Se -26.098664 -4.604501 -4.602237
Se -29.168935 -4.604501 4.608577
Se -29.168935 -1.534230 1.538305
Se -26.098664 -1.534230 4.608577
Se -26.098664 -4.604501 1.538305
Se -29.168935 -4.604501 10.749119
Se -29.168935 -1.534230 7.678848
Se -26.098664 -1.534230 10.749119
Se -26.098664 -4.604501 7.678848
Se -29.168935 -4.604501 16.889661
Se -29.168935 -1.534230 13.819390
Se -26.098664 -1.534230 16.889661
Se -26.098664 -4.604501 13.819390
Se -29.168935 -1.534230 19.959933
Se -26.098664 -1.534230 23.030204
Se -26.098664 -4.604501 19.959933
Se -29.168935 -1.534230 26.100475
Se -26.098664 1.536041 -29.164407
Se -29.168935 1.536041 -19.953593
Se -26.098664 4.606312 -19.953593
Se -26.098664 1.536041 -23.023864
Se -29.168935 1.536041 -13.813051
Se -29.168935 4.606312 -16.883322
Se -26.098664 4.606312 -13.813051
Se -26.098664 1.536041 -16.883322
Se -29.168935 1.536041 -7.672508
Se -29.168935 4.606312 -10.742779
Se -26.098664 4.606312 -7.672508
Se -26.098664 1.536041 -10.742779
Se -29.168935 1.536041 -1.531966
Se -29.168935 4.606312 -4.602237
Se -26.098664 4.606312 -1.531966
Se -26.098664 1.536041 -4.602237
Se -29.168935 1.536041 4.608577
Se -29.168935 4.606312 1.538305
Se -26.098664 4.606312 4.608577
Se -26.098664 1.536041 1.538305
Se -29.168935 1.536041 10.749119
Se -29.168935 4.606312 7.678848
Se -26.098664 4.606312 10.749119
Se -26.098664 1.536041 7.678848
Se -29.168935 1.536041 16.889661
Se -29.168935 4.606312 13.819390
Se -26.098664 4.606312 16.889661
Se -26.098664 1.536041 13.819390
Se -29.168935 1.536041 23.030204
Se -29.168935 4.606312 19.959933
Se -26.098664 4.606312 23.030204
Se -26.098664 1.536041 19.959933
Se -26.098664 1.536041 26.100475
Se -29.168935 7.676584 -19.953593
Se -29.168935 7.676584 -13.813051
Se -26.098664 10.746855 -13.813051
Se -26.098664 7.676584 -16.883322
Se -29.168935 7.676584 -7.672508
Se -29.168935 10.746855 -10.742779
Se -26.098664 10.746855 -7.672508
Se -26.098664 7.676584 -10.742779
Se -29.168935 7.676584 -1.531966
Se -29.168935 10.746855 -4.602237
Se -26.098664 10.746855 -1.531966
Se -26.098664 7.676584 -4.602237
Se -29.168935 7.676584 4.608577
Se -29.168935 10.746855 1.538305
Se -26.098664 10.746855 4.608577
Se -26.098664 7.676584 1.538305
Se -29.168935 7.676584 10.749119
Se -29.168935 10.746855 7.678848
Se -26.098664 10.746855 10.749119
Se -26.098664 7.676584 7.678848
Se -29.168935 7.676584 16.889661
Se -29.168935 10.746855 13.819390
Se -26.098664 10.746855 16.889661
Se -26.098664 7.676584 13.819390
Se -26.098664 7.676584 19.959933
Se -29.168935 13.817126 -7.672508
Se -29.168935 16.887397 -10.742779
Se -26.098664 16.887397 -7.672508
Se -26.098664 13.817126 -10.742779
Se -29.168935 13.817126 -1.531966
Se -29.168935 16.887397 -4.602237
Se -26.098664 16.887397 -1.531966
Se -26.098664 13.817126 -4.602237
Se -29.168935 13.817126 4.608577
Se -29.168935 16.887397 1.538305
Se -26.098664 16.887397 4.608577
Se -26.098664 13.817126 1.538305
Se -29.168935 13.817126 10.749119
Se -29.168935 16.887397 7.678848
Se -26.098664 16.887397 10.749119
Se -26.098664 13.817126 7.678848
Se -26.098664 13.817126 13.819390
Se -29.168935 19.957668 -1.531966
Se -26.098664 23.027940 -1.531966
Se -26.098664 19.957668 -4.602237
Se -29.168935 19.957668 4.608577
Se -29.168935 23.027940 1.538305
Se -26.098664 23.027940 4.608577
Se -26.098664 19.957668 1.538305
Se -26.098664 19.957668 7.678848
Se -29.168935 26.098211 -1.531966
Se -26.098664 26.098211 1.538305
Se -19.958121 -26.096400 -7.672508
Se -23.028393 -29.166671 -1.531966
Se -23.028393 -26.096400 -4.602237
Se -19.958121 -26.096400 -1.531966
Se -19.958121 -29.166671 -4.602237
Se -23.028393 -26.096400 1.538305
Se -19.958121 -26.096400 4.608577
Se -19.958121 -29.166671 1.538305
Se -19.958121 -19.955857 -13.813051
Se -23.028393 -23.026128 -7.672508
Se -23.028393 -19.955857 -10.742779
Se -19.958121 -19.955857 -7.672508
Se -19.958121 -23.026128 -10.742779
Se -23.028393 -23.026128 -1.531966
Se -23.028393 -19.955857 -4.602237
Se -19.958121 -19.955857 -1.531966
Se -19.958121 -23.026128 -4.602237
Se -23.028393 -23.026128 4.608577
Se -23.028393 -19.955857 1.538305
Se -19.958121 -19.955857 4.608577
Se -19.958121 -23.026128 1.538305
Se -23.028393 -19.955857 7.678848
Se -19.958121 -19.955857 10.749119
Se -19.958121 -23.026128 7.678848
Se -19.958121 -13.815315 -19.953593
Se -23.028393 -16.885586 -13.813051
Se -23.028393 -13.815315 -16.883322
Se -19.958121 -13.815315 -13.813051
Se -19.958121 -16.885586 -16.883322
Se -23.028393 -16.885586 -7.672508
Se -23.028393 -13.815315 -10.742779
Se -19.958121 -13.815315 -7.672508
Se -19.958121 -16.885586 -10.742779
Se -23.028393 -16.885586 -1.531966
Se -23.028393 -13.815315 -4.602237
Se -19.958121 -13.815315 -1.531966
Se -19.958121 -16.885586 -4.602237
Se -23.028393 -16.885586 4.608577
Se -23.028393 -13.815315 1.538305
Se -19.958121 -13.815315 4.608577
Se -19.958121 -16.885586 1.538305
Se -23.028393 -16.885586 10.749119
Se -23.028393 -13.815315 7.678848
Se -19.958121 -13.815315 10.749119
Se -19.958121 -16.885586 7.678848
Se -23.028393 -13.815315 13.819390
Se -19.958121 -13.815315 16.889661
Se -19.958121 -16.885586 13.819390
Se -19.958121 -7.674772 -26.094135
Se -23.028393 -10.745044 -19.953593
Se -23.028393 -7.674772 -23.023864
Se -19.958121 -7.674772 -19.953593
Se -19.958121 -10.745044 -23.023864
Se -23.028393 -10.745044 -13.813051
Se -23.028393 -7.674772 -16.883322
Se -19.958121 -7.674772 -13.813051
Se -19.958121 -10.745044 -16.883322
Se -23.028393 -10.745044 -7.672508
Se -23.028393 -7.674772 -10.742779
Se -19.958121 -7.674772 -7.672508
Se -19.958121 -10.745044 -10.742779
Se -23.028393 -10.745044 -1.531966
Se -23.028393 -7.674772 -4.602237
Se -19.958121 -7.674772 -1.531966
Se -19.958121 -10.745044 -4.602237
Se -23.028393 -10.745044 4.608577
Se -23.028393 -7.674772 1.538305
Se -19.958121 -7.674772 4.608577
Se -19.958121 -10.745044 1.538305
Se -23.028393 -10.745044 10.749119
Se -23.028393 -7.674772 7.678848
Se -19.958121 -7.674772 10.749119
Se -19.958121 -10.745044 7.678848
Se -23.028393 -10.745044 16.889661
Se -23.028393 -7.674772 13.819390
Se -19.958121 -7.674772 16.889661
Se -19.958121 -10.745044 13.819390
Se -23.028393 -7.674772 19.959933
Se -19.958121 -7.674772 23.030204
Se -19.958121 -10.745044 19.959933
Se -19.958121 -7.674772 29.170746
Se -23.028393 -4.604501 -26.094135
Se -23.028393 -1.534230 -29.164407
Se -19.958121 -1.534230 -26.094135
Se -19.958121 -4.604501 -29.164407
Se -23.028393 -4.604501 -19.953593
Se -23.028393 -1.534230 -23.023864
Se -19.958121 -1.534230 -19.953593
Se -19.958121 -4.604501 -23.023864
Se -23.028393 -4.604501 -13.813051
Se -23.028393 -1.534230 -16.883322
Se -19.958121 -1.534230 -13.813051
Se -19.958121 -4.604501 -16.883322
Se -23.028393 -4.604501 -7.672508
Se -23.028393 -1.534230 -10.742779
Se -19.958121 -1.534230 -7.672508
Se -19.958121 -4.604501 -10.742779
Se -23.028393 -4.604501 -1.531966
Se -23.028393 -1.534230 -4.602237
Se -19.958121 -1.534230 -1.531966
Se -19.958121 -4.604501 -4.602237
Se -23.028393 -4.604501 4.608577
Se -23.028393 -1.534230 1.538305
Se -19.958121 -1.534230 4.608577
Se -19.958121 -4.604501 1.538305
Se -23.028393 -4.604501 10.749119
Se -23.028393 -1.534230 7.678848
Se -19.958121 -1.534230 10.749119
Se -19.958121 -4.604501 7.678848
Se -23.028393 -4.604501 16.889661
Se -23.028393 -1.534230 13.819390
Se -19.958121 -1.534230 16.889661
Se -19.958121 -4.604501 13.819390
Se -23.028393 -4.604501 23.030204
Se -23.028393 -1.534230 19.959933
Se -19.958121 -1.534230 23.030204
Se -19.958121 -4.604501 19.959933
Se -23.028393 -1.534230 26.100475
Se -19.958121 -1.534230 29.170746
Se -19.958121 -4.604501 26.100475
Se -23.028393 1.536041 -26.094135
Se -19.958121 4.606312 -26.094135
Se -19.958121 1.536041 -29.164407
Se -23.028393 1.536041 -19.953593
Se -23.028393 4.606312 -23.023864
Se -19.958121 4.606312 -19.953593
Se -19.958121 1.536041 -23.023864
Se -23.028393 1.536041 -13.813051
Se -23.028393 4.606312 -16.883322
Se -19.958121 4.606312 -13.813051
Se -19.958121 1.536041 -16.883322
Se -23.028393 1.536041 -7.672508
Se -23.028393 4.606312 -10.742779
Se -19.958121 4.606312 -7.672508
Se -19.958121 1.536041 -10.742779
Se -23.028393 1.536041 -1.531966
Se -23.028393 4.606312 -4.602237
Se -19.958121 4.606312 -1.531966
Se -19.958121 1.536041 -4.602237
Se -23.028393 1.536041 4.608577
Se -23.028393 4.606312 1.538305
Se -19.958121 4.606312 4.608577
Se -19.958121 1.536041 1.538305
Se -23.028393 1.536041 10.749119
Se -23.028393 4.606312 7.678848
Se -19.958121 4.606312 10.749119
Se -19.958121 1.536041 7.678848
Se -23.028393 1.536041 16.889661
Se -23.028393 4.606312 13.819390
Se -19.958121 4.606312 16.889661
Se -19.958121 1.536041 13.819390
Se -23.028393 1.536041 23.030204
Se -23.028393 4.606312 19.959933
Se -19.958121 4.606312 23.030204
Se -19.958121 1.536041 19.959933
Se -23.028393 1.536041 29.170746
Se -23.028393 4.606312 26.100475
Se -19.958121 4.606312 29.170746
Se -19.958121 1.536041 26.100475
Se -23.028393 7.676584 -19.953593
Se -19.958121 10.746855 -19.953593
Se -19.958121 7.676584 -23.023864
Se -23.028393 7.676584 -13.813051
Se -23.028393 10.746855 -16.883322
Se -19.958121 10.746855 -13.813051
Se -19.958121 7.676584 -16.883322
Se -23.028393 7.676584 -7.672508
Se -23.028393 10.746855 -10.742779
Se -19.958121 10.746855 -7.672508
Se -19.958121 7.676584 -10.742779
Se -23.028393 7.676584 -1.531966
Se -23.028393 10.746855 -4.602237
Se -19.958121 10.746855 -1.531966
Se -19.958121 7.676584 -4.602237
Se -23.028393 7.676584 4.608577
Se -23.028393 10.746855 1.538305
Se -19.958121 10.746855 4.608577
Se -19.958121 7.676584 1.538305
Se -23.028393 7.676584 10.749119
Se -23.028393 10.746855 7.678848
Se -19.958121 10.746855 10.749119
Se -19.958121 7.676584 7.678848
Se -23.028393 7.676584 16.889661
Se -23.028393 10.746855 13.819390
Se -19.958121 10.746855 16.889661
Se -19.958121 7.676584 13.819390
Se -23.028393 7.676584 23.030204
Se -23.028393 10.746855 19.959933
Se -19.958121 10.746855 23.030204
Se -19.958121 7.676584 19.959933
Se -19.958121 7.676584 26.100475
Se -23.028393 13.817126 -13.813051
Se -19.958121 16.887397 -13.813051
Se -19.958121 13.817126 -16.883322
Se -23.028393 13.817126 -7.672508
Se -23.028393 16.887397 -10.742779
Se -19.958121 16.887397 -7.672508
Se -19.958121 13.817126 -10.742779
Se -23.028393 13.817126 -1.531966
Se -23.028393 16.887397 -4.602237
Se -19.958121 16.887397 -1.531966
Se -19.958121 13.817126 -4.602237
Se -23.028393 13.817126 4.608577
Se -23.028393 16.887397 1.538305
Se -19.958121 16.887397 4.608577
Se -19.958121 13.817126 1.538305
Se -23.028393 13.817126 10.749119
Se -23.028393 16.887397 7.678848
Se -19.958121 16.887397 10.749119
Se -19.958121 13.817126 7.678848
Se -23.028393 13.817126 16.889661
Se -23.028393 16.887397 13.819390
Se -19.958121 16.887397 16.889661
Se -19.958121 13.817126 13.819390
Se -19.958121 13.817126 19.959933
Se -23.028393 19.957668 -7.672508
Se -19.958121 23.027940 -7.672508
Se -19.958121 19.957668 -10.742779
Se -23.028393 19.957668 -1.531966
Se -23.028393 23.027940 -4.602237
Se -19.958121 23.027940 -1.531966
Se -19.958121 19.957668 -4.602237
Se -23.028393 19.957668 4.608577
Se -23.028393 23.027940 1.538305
Se -19.958121 23.027940 4.608577
Se -19.958121 19.957668 1.538305
Se -23.028393 19.957668 10.749119
Se -23.028393 23.027940 7.678848
Se -19.958121 23.027940 10.749119
Se -19.958121 19.957668 7.678848
Se -19.958121 19.957668 13.819390
Se -19.958121 29.168482 -7.672508
Se -23.028393 26.098211 -1.531966
Se -19.958121 29.168482 -1.531966
Se -19.958121 26.098211 -4.602237
Se -23.028393 26.098211 4.608577
Se -23.028393 29.168482 1.538305
Se -19.958121 29.168482 4.608577
Se -19.958121 26.098211 1.538305
Se -19.958121 26.098211 7.678848
Se -13.817579 -26.096400 -13.813051
Se -16.887850 -29.166671 -7.672508
Se -16.887850 -26.096400 -10.742779
Se -13.817579 -26.096400 -7.672508
Se -13.817579 -29.166671 -10.742779
Se -16.887850 -29.166671 -1.531966
Se -16.887850 -26.096400 -4.602237
Se -13.817579 -26.096400 -1.531966
Se -13.817579 -29.166671 -4.602237
Se -16.887850 -29.166671 4.608577
Se -16.887850 -26.096400 1.538305
Se -13.817579 -26.096400 4.608577
Se -13.817579 -29.166671 1.538305
Se -16.887850 -29.166671 10.749119
Se -16.887850 -26.096400 7.678848
Se -13.817579 -26.096400 10.749119
Se -13.817579 -29.166671 7.678848
Se -13.817579 -19.955857 -19.953593
Se -16.887850 -23.026128 -13.813051
Se -16.887850 -19.955857 -16.883322
Se -13.817579 -19.955857 -13.813051
Se -13.817579 -23.026128 -16.883322
Se -16.887850 -23.026128 -7.672508
Se -16.887850 -19.955857 -10.742779
Se -13.817579 -19.955857 -7.672508
Se -13.817579 -23.026128 -10.742779
Se -16.887850 -23.026128 -1.531966
Se -16.887850 -19.955857 -4.602237
Se -13.817579 -19.955857 -1.531966
Se -13.817579 -23.026128 -4.602237
Se -16.887850 -23.026128 4.608577
Se -16.887850 -19.955857 1.538305
Se -13.817579 -19.955857 4.608577
Se -13.817579 -23.026128 1.538305
Se -16.887850 -23.026128 10.749119
Se -16.887850 -19.955857 7.678848
Se -13.817579 -19.955857 10.749119
Se -13.817579 -23.026128 7.678848
Se -16.887850 -19.955857 13.819390
Se -13.817579 -19.955857 16.889661
Se -13.817579 -23.026128 13.819390
Se -13.817579 -13.815315 -26.094135
Se -16.887850 -16.885586 -19.953593
Se -16.887850 -13.815315 -23.023864
Se -13.817579 -13.815315 -19.953593
Se -13.817579 -16.885586 -23.023864
Se -16.887850 -16.885586 -13.813051
Se -16.887850 -13.815315 -16.883322
Se -13.817579 -13.815315 -13.813051
Se -13.817579 -16.885586 -16.883322
Se -16.887850 -16.885586 -7.672508
Se -16.887850 -13.815315 -10.742779
Se -13.817579 -13.815315 -7.672508
Se -13.817579 -16.885586 -10.742779
Se -16.887850 -16.885586 -1.531966
Se -16.887850 -13.815315 -4.602237
Se -13.817579 -13.815315 -1.531966
Se -13.817579 -16.885586 -4.602237
Se -16.887850 -16.885586 4.608577
Se -16.887850 -13.815315 1.538305
Se -13.817579 -13.815315 4.608577
Se -13.817579 -16.885586 1.538305
Se -16.887850 -16.885586 10.749119
Se -16.887850 -13.815315 7.678848
Se -13.817579 -13.815315 10.749119
Se -13.817579 -16.885586 7.678848
Se -16.887850 -16.885586 16.889661
Se -16.887850 -13.815315 13.819390
Se -13.817579 -13.815315 16.889661
Se -13.817579 -16.885586 13.819390
Se -16.887850 -13.815315 19.959933
Se -13.817579 -13.815315 23.030204
Se -13.817579 -16.885586 19.959933
Se -16.887850 -10.745044 -26.094135
Se -16.887850 -7.674772 -29.164407
Se -13.817579 -7.674772 -26.094135
Se -13.817579 -10.745044 -29.164407
Se -16.887850 -10.745044 -19.953593
Se -16.887850 -7.674772 -23.023864
Se -13.817579 -7.674772 -19.953593
Se -13.817579 -10.745044 -23.023864
Se -16.887850 -10.745044 -13.813051
Se -16.887850 -7.674772 -16.883322
Se -13.817579 -7.674772 -13.813051
Se -13.817579 -10.745044 -16.883322
Se -16.887850 -10.745044 -7.672508
Se -16.887850 -7.674772 -10.742779
Se -13.817579 -7.674772 -7.672508
Se -13.817579 -10.745044 -10.742779
Se -16.887850 -10.745044 -1.531966
Se -16.887850 -7.674772 -4.602237
Se -13.817579 -7.674772 -1.531966
Se -13.817579 -10.745044 -4.602237
Se -16.887850 -10.745044 4.608577
Se -16.887850 -7.674772 1.538305
Se -13.817579 -7.674772 4.608577
Se -13.817579 -10.745044 1.538305
Se -16.887850 -10.745044 10.749119
Se -16.887850 -7.674772 7.678848
Se -13.817579 -7.674772 10.749119
Se -13.817579 -10.745044 7.678848
Se -16.887850 -10.745044 16.889661
Se -16.887850 -7.674772 13.819390
Se -13.817579 -7.674772 16.889661
Se -13.817579 -10.745044 13.819390
Se -16.887850 -10.745044 23.030204
Se -16.887850 -7.674772 19.959933
Se -13.817579 -7.674772 23.030204
Se -13.817579 -10.745044 19.959933
Se -16.887850 -7.674772 26.100475
Se -13.817579 -7.674772 29.170746
Se -13.817579 -10.745044 26.100475
Se -16.887850 -4.604501 -26.094135
Se -16.887850 -1.534230 -29.164407
Se -13.817579 -1.534230 -26.094135
Se -13.817579 -4.604501 -29.164407
Se -16.887850 -4.604501 -19.953593
Se -16.887850 -1.534230 -23.023864
Se -13.817579 -1.534230 -19.953593
Se -13.817579 -4.604501 -23.023864
Se -16.887850 -4.604501 -13.813051
Se -16.887850 -1.534230 -16.883322
Se -13.817579 -1.534230 -13.813051
Se -13.817579 -4.604501 -16.883322
Se -16.887850 -4.604501 -7.672508
Se -16.887850 -1.534230 -10.742779
Se -13.817579 -1.534230 -7.672508
Se -13.817579 -4.604501 -10.742779
Se -16.887850 -4.604501 -1.531966
Se -16.887850 -1.534230 -4.602237
Se -13.817579 -1.534230 -1.531966
Se -13.817579 -4.604501 -4.602237
Se -16.887850 -4.604501 4.608577
Se -16.887850 -1.534230 1.538305
Se -13.817579 -1.534230 4.608577
Se -13.817579 -4.604501 1.538305
Se -16.887850 -4.604501 10.749119
Se -16.887850 -1.534230 7.678848
Se -13.817579 -1.534230 10.749119
Se -13.817579 -4.604501 7.678848
Se -16.887850 -4.604501 16.889661
Se -16.887850 -1.534230 13.819390
Se -13.817579 -1.534230 16.889661
Se -13.817579 -4.604501 13.819390
Se -16.887850 -4.604501 23.030204
Se -16.887850 -1.534230 19.959933
Se -13.817579 -1.534230 23.030204
Se -13.817579 -4.604501 19.959933
Se -16.887850 -4.604501 29.170746
Se -16.887850 -1.534230 26.100475
Se -13.817579 -1.534230 29.170746
Se -13.817579 -4.604501 26.100475
Se -16.887850 1.536041 -26.094135
Se -16.887850 4.606312 -29.164407
Se -13.817579 4.606312 -26.094135
Se -13.817579 1.536041 -29.164407
Se -16.887850 1.536041 -19.953593
Se -16.887850 4.606312 -23.023864
Se -13.817579 4.606312 -19.953593
Se -13.817579 1.536041 -23.023864
Se -16.887850 1.536041 -13.813051
Se -16.887850 4.606312 -16.883322
Se -13.817579 4.606312 -13.813051
Se -13.817579 1.536041 -16.883322
Se -16.887850 1.536041 -7.672508
Se -16.887850 4.606312 -10.742779
Se -13.817579 4.606312 -7.672508
Se -13.817579 1.536041 -10.742779
Se -16.887850 1.536041 -1.531966
Se -16.887850 4.606312 -4.602237
Se -13.817579 4.606312 -1.531966
Se -13.817579 1.536041 -4.602237
Se -16.887850 1.536041 4.608577
Se -16.887850 4.606312 1.538305
Se -13.817579 4.606312 4.608577
Se -13.817579 1.536041 1.538305
Se -16.887850 1.536041 10.749119
Se -16.887850 4.606312 7.678848
Se -13.817579 4.606312 10.749119
Se -13.817579 1.536041 7.678848
Se -16.887850 1.536041 16.889661
Se -16.887850 4.606312 13.819390
Se -13.817579 4.606312 16.889661
Se -13.817579 1.536041 13.819390
Se -16.887850 1.536041 23.030204
Se -16.887850 4.606312 19.959933
Se -13.817579 4.606312 23.030204
Se -13.817579 1.536041 19.959933
Se -16.887850 1.536041 29.170746
Se -16.887850 4.606312 26.100475
Se -13.817579 4.606312 29.170746
Se -13.817579 1.536041 26.100475
Se -16.887850 7.676584 -26.094135
Se -16.887850 10.746855 -29.164407
Se -13.817579 10.746855 -26.094135
Se -13.817579 7.676584 -29.164407
Se -16.887850 7.676584 -19.953593
Se -16.887850 10.746855 -23.023864
Se -13.817579 10.746855 -19.953593
Se -13.817579 7.676584 -23.023864
Se -16.887850 7.676584 -13.813051
Se -16.887850 10.746855 -16.883322
Se -13.817579 10.746855 -13.813051
Se -13.817579 7.676584 -16.883322
Se -16.887850 7.676584 -7.672508
Se -16.887850 10.746855 -10.742779
Se -13.817579 10.746855 -7.672508
Se -13.817579 7.676584 -10.742779
Se -16.887850 7.676584 -1.531966
Se -16.887850 10.746855 -4.602237
Se -13.817579 10.746855 -1.531966
Se -13.817579 7.676584 -4.602237
Se -16.887850 7.676584 4.608577
Se -16.887850 10.746855 1.538305
Se -13.817579 10.746855 4.608577
Se -13.817579 7.676584 1.538305
Se -16.887850 7.676584 10.749119
Se -16.887850 10.746855 7.678848
Se -13.817579 10.746855 10.749119
Se -13.817579 7.676584 7.678848
Se -16.887850 7.676584 16.889661
Se -16.887850 10.746855 13.819390
Se -13.817579 10.746855 16.889661
Se -13.817579 7.676584 13.819390
Se -16.887850 7.676584 23.030204
Se -16.887850 10.746855 19.959933
Se -13.817579 10.746855 23.030204
Se -13.817579 7.676584 19.959933
Se -16.887850 7.676584 29.170746
Se -16.887850 10.746855 26.100475
Se -13.817579 10.746855 29.170746
Se -13.817579 7.676584 26.100475
Se -16.887850 13.817126 -19.953593
Se -13.817579 16.887397 -19.953593
Se -13.817579 13.817126 -23.023864
Se -16.887850 13.817126 -13.813051
Se -16.887850 16.887397 -16.883322
Se -13.817579 16.887397 -13.813051
Se -13.817579 13.817126 -16.883322
Se -16.887850 13.817126 -7.672508
Se -16.887850 16.887397 -10.742779
Se -13.817579 16.887397 -7.672508
Se -13.817579 13.817126 -10.742779
Se -16.887850 13.817126 -1.531966
Se -16.887850 16.887397 -4.602237
Se -13.817579 16.887397 -1.531966
Se -13.817579 13.817126 -4.602237
Se -16.887850 13.817126 4.608577
Se -16.887850 16.887397 1.538305
Se -13.817579 16.887397 4.608577
Se -13.817579 13.817126 1.538305
Se -16.887850 13.817126 10.749119
Se -16.887850 16.887397 7.678848
Se -13.817579 16.887397 10.749119
Se -13.817579 13.817126 7.678848
Se -16.887850 13.817126 16.889661
Se -16.887850 16.887397 13.819390
Se -13.817579 16.887397 16.889661
Se -13.817579 13.817126 13.819390
Se -16.887850 13.817126 23.030204
Se -16.887850 16.887397 19.959933
Se -13.817579 16.887397 23.030204
Se -13.817579 13.817126 19.959933
Se -13.817579 13.817126 26.100475
Se -16.887850 19.957668 -13.813051
Se -13.817579 23.027940 -13.813051
Se -13.817579 19.957668 -16.883322
Se -16.887850 19.957668 -7.672508
Se -16.887850 23.027940 -10.742779
Se -13.817579 23.027940 -7.672508
Se -13.817579 19.957668 -10.742779
Se -16.887850 19.957668 -1.531966
Se -16.887850 23.027940 -4.602237
Se -13.817579 23.027940 -1.531966
Se -13.817579 19.957668 -4.602237
Se -16.887850 19.957668 4.608577
Se -16.887850 23.027940 1.538305
Se -13.817579 23.027940 4.608577
Se -13.817579 19.957668 1.538305
Se -16.887850 19.957668 10.749119
Se -16.887850 23.027940 7.678848
Se -13.817579 23.027940 10.749119
Se -13.817579 19.957668 7.678848
Se -16.887850 19.957668 16.889661
Se -16.887850 23.027940 13.819390
Se -13.817579 23.027940 16.889661
Se -13.817579 19.957668 13.819390
Se -13.817579 19.957668 19.959933
Se -16.887850 26.098211 -7.672508
Se -13.817579 29.168482 -7.672508
Se -13.817579 26.098211 -10.742779
Se -16.887850 26.098211 -1.531966
Se -16.887850 29.168482 -4.602237
Se -13.817579 29.168482 -1.531966
Se -13.817579 26.098211 -4.602237
Se -16.887850 26.098211 4.608577
Se -16.887850 29.168482 1.538305
Se -13.817579 29.168482 4.608577
Se -13.817579 26.098211 1.538305
Se -16.887850 26.098211 10.749119
Se -16.887850 29.168482 7.678848
Se -13.817579 29.168482 10.749119
Se -13.817579 26.098211 7.678848
Se -13.817579 26.098211 13.819390
Se -7.677037 -26.096400 -19.953593
Se -10.747308 -29.166671 -13.813051
Se -10.747308 -26.096400 -16.883322
Se -7.677037 -26.096400 -13.813051
Se -7.677037 -29.166671 -16.883322
Se -10.747308 -29.166671 -7.672508
Se -10.747308 -26.096400 -10.742779
Se -7.677037 -26.096400 -7.672508
Se -7.677037 -29.166671 -10.742779
Se -10.747308 -29.166671 -1.531966
Se -10.747308 -26.096400 -4.602237
Se -7.677037 -26.096400 -1.531966
Se -7.677037 -29.166671 -4.602237
Se -10.747308 -29.166671 4.608577
Se -10.747308 -26.096400 1.538305
Se -7.677037 -26.096400 4.608577
Se -7.677037 -29.166671 1.538305
Se -10.747308 -29.166671 10.749119
Se -10.747308 -26.096400 7.678848
Se -7.677037 -26.096400 10.749119
Se -7.677037 -29.166671 7.678848
Se -10.747308 -26.096400 13.819390
Se -7.677037 -26.096400 16.889661
Se -7.677037 -29.166671 13.819390
Se -7.677037 -29.166671 19.959933
Se -7.677037 -19.955857 -26.094135
Se -10.747308 -23.026128 -19.953593
Se -10.747308 -19.955857 -23.023864
Se -7.677037 -19.955857 -19.953593
Se -7.677037 -23.026128 -23.023864
Se -10.747308 -23.026128 -13.813051
Se -10.747308 -19.955857 -16.883322
Se -7.677037 -19.955857 -13.813051
Se -7.677037 -23.026128 -16.883322
Se -10.747308 -23.026128 -7.672508
Se -10.747308 -19.955857 -10.742779
Se -7.677037 -19.955857 -7.672508
Se -7.677037 -23.026128 -10.742779
Se -10.747308 -23.026128 -1.531966
Se -10.747308 -19.955857 -4.602237
Se -7.677037 -19.955857 -1.531966
Se -7.677037 -23.026128 -4.602237
Se -10.747308 -23.026128 4.608577
Se -10.747308 -19.955857 1.538305
Se -7.677037 -19.955857 4.608577
Se -7.677037 -23.026128 1.538305
Se -10.747308 -23.026128 10.749119
Se -10.747308 -19.955857 7.678848
Se -7.677037 -19.955857 10.749119
Se -7.677037 -23.026128 7.678848
Se -10.747308 -23.026128 16.889661
Se -10.747308 -19.955857 13.819390
Se -7.677037 -19.955857 16.889661
Se -7.677037 -23.026128 13.819390
Se -10.747308 -19.955857 19.959933
Se -7.677037 -19.955857 23.030204
Se -7.677037 -23.026128 19.959933
Se -10.747308 -16.885586 -26.094135
Se -10.747308 -13.815315 -29.164407
Se -7.677037 -13.815315 -26.094135
Se -7.677037 -16.885586 -29.164407
Se -10.747308 -16.885586 -19.953593
Se -10.747308 -13.815315 -23.023864
Se -7.677037 -13.815315 -19.953593
Se -7.677037 -16.885586 -23.023864
Se -10.747308 -16.885586 -13.813051
Se -10.747308 -13.815315 -16.883322
Se -7.677037 -13.815315 -13.813051
Se -7.677037 -16.885586 -16.883322
Se -10.747308 -16.885586 -7.672508
Se -10.747308 -13.815315 -10.742779
Se -7.677037 -13.815315 -7.672508
Se -7.677037 -16.885586 -10.742779
Se -10.747308 -16.885586 -1.531966
Se -10.747308 -13.815315 -4.602237
Se -7.677037 -13.815315 -1.531966
Se -7.677037 -16.885586 -4.602237
Se -10.747308 -16.885586 4.608577
Se -10.747308 -13.815315 1.538305
Se -7.677037 -13.815315 4.608577
Se -7.677037 -16.885586 1.538305
Se -10.747308 -16.885586 10.749119
Se -10.747308 -13.815315 7.678848
Se -7.677037 -13.815315 10.749119
Se -7.677037 -16.885586 7.678848
Se -10.747308 -16.885586 16.889661
Se -10.747308 -13.815315 13.819390
Se -7.677037 -13.815315 16.889661
Se -7.677037 -16.885586 13.819390
Se -10.747308 -16.885586 23.030204
Se -10.747308 -13.815315 19.959933
Se -7.677037 -13.815315 23.030204
Se -7.677037 -16.885586 19.959933
Se -10.747308 -16.885586 29.170746
Se -10.747308 -13.815315 26.100475
Se -7.677037 -13.815315 29.170746
Se -7.677037 -16.885586 26.100475
Se -10.747308 -10.745044 -26.094135
Se -10.747308 -7.674772 -29.164407
Se -7.677037 -7.674772 -26.094135
Se -7.677037 -10.745044 -29.164407
Se -10.747308 -10.745044 -19.953593
Se -10.747308 -7.674772 -23.023864
Se -7.677037 -7.674772 -19.953593
Se -7.677037 -10.745044 -23.023864
Se -10.747308 -10.745044 -13.813051
Se -10.747308 -7.674772 -16.883322
Se -7.677037 -7.674772 -13.813051
Se -7.677037 -10.745044 -16.883322
Se -10.747308 -10.745044 -7.672508
Se -10.747308 -7.674772 -10.742779
Se -7.677037 -7.674772 -7.672508
Se -7.677037 -10.745044 -10.742779
Se -10.747308 -10.745044 -1.531966
Se -10.747308 -7.674772 -4.602237
Se -7.677037 -7.674772 -1.531966
Se -7.677037 -10.745044 -4.602237
Se -10.747308 -10.745044 4.608577
Se -10.747308 -7.674772 1.538305
Se -7.677037 -7.674772 4.608577
Se -7.677037 -10.745044 1.538305
Se -10.747308 -10.745044 10.749119
Se -10.747308 -7.674772 7.678848
Se -7.677037 -7.674772 10.749119
Se -7.677037 -10.745044 7.678848
Se -10.747308 -10.745044 16.889661
Se -10.747308 -7.674772 13.819390
Se -7.677037 -7.674772 16.889661
Se -7.677037 -10.745044 13.819390
Se -10.747308 -10.745044 23.030204
Se -10.747308 -7.674772 19.959933
Se -7.677037 -7.674772 23.030204
Se -7.677037 -10.745044 19.959933
Se -10.747308 -10.745044 29.170746
Se -10.747308 -7.674772 26.100475
Se -7.677037 -7.674772 29.170746
Se -7.677037 -10.745044 26.100475
Se -10.747308 -4.604501 -26.094135
Se -10.747308 -1.534230 -29.164407
Se -7.677037 -1.534230 -26.094135
Se -7.677037 -4.604501 -29.164407
Se -10.747308 -4.604501 -19.953593
Se -10.747308 -1.534230 -23.023864
Se -7.677037 -1.534230 -19.953593
Se -7.677037 -4.604501 -23.023864
Se -10.747308 -4.604501 -13.813051
Se -10.747308 -1.534230 -16.883322
Se -7.677037 -1.534230 -13.813051
Se -7.677037 -4.604501 -16.883322
Se -10.747308 -4.604501 -7.672508
Se -10.747308 -1.534230 -10.742779
Se -7.677037 -1.534230 -7.672508
Se -7.677037 -4.604501 -10.742779
Se -10.747308 -4.604501 -1.531966
Se -10.747308 -1.534230 -4.602237
Se -7.677037 -1.534230 -1.531966
Se -7.677037 -4.604501 -4.602237
Se -10.747308 -4.604501 4.608577
Se -10.747308 -1.534230 1.538305
Se -7.677037 -1.534230 4.608577
Se -7.677037 -4.604501 1.538305
Se -10.747308 -4.604501 10.749119
Se -10.747308 -1.534230 7.678848
Se -7.677037 -1.534230 10.749119
Se -7.677037 -4.604501 7.678848
Se -10.747308 -4.604501 16.889661
Se -10.747308 -1.534230 13.819390
Se -7.677037 -1.534230 16.889661
Se -7.677037 -4.604501 13.819390
Se -10.747308 -4.604501 23.030204
Se -10.747308 -1.534230 19.959933
Se -7.677037 -1.534230 23.030204
Se -7.677037 -4.604501 19.959933
Se -10.747308 -4.604501 29.170746
Se -10.747308 -1.534230 26.100475
Se -7.677037 -1.534230 29.170746
Se -7.677037 -4.604501 26.100475
Se -10.747308 1.536041 -26.094135
Se -10.747308 4.606312 -29.164407
Se -7.677037 4.606312 -26.094135
Se -7.677037 1.536041 -29.164407
Se -10.747308 1.536041 -19.953593
Se -10.747308 4.606312 -23.023864
Se -7.677037 4.606312 -19.953593
Se -7.677037 1.536041 -23.023864
Se -10.747308 1.536041 -13.813051
Se -10.747308 4.606312 -16.883322
Se -7.677037 4.606312 -13.813051
Se -7.677037 1.536041 -16.883322
Se -10.747308 1.536041 -7.672508
Se -10.747308 4.606312 -10.742779
Se -7.677037 4.606312 -7.672508
Se -7.677037 1.536041 -10.742779
Se -10.747308 1.536041 -1.531966
Se -10.747308 4.606312 -4.602237
Se -7.677037 4.606312 -1.531966
Se -7.677037 1.536041 -4.602237
Se -10.747308 1.536041 4.608577
Se -10.747308 4.606312 1.538305
Se -7.677037 4.606312 4.608577
Se -7.677037 1.536041 1.538305
Se -10.747308 1.536041 10.749119
Se -10.747308 4.606312 7.678848
Se -7.677037 4.606312 10.749119
Se -7.677037 1.536041 7.678848
Se -10.747308 1.536041 16.889661
Se -10.747308 4.606312 13.819390
Se -7.677037 4.606312 16.889661
Se -7.677037 1.536041 13.819390
Se -10.747308 1.536041 23.030204
Se -10.747308 4.606312 19.959933
Se -7.677037 4.606312 23.030204
Se -7.677037 1.536041 19.959933
Se -10.747308 1.536041 29.170746
Se -10.747308 4.606312 26.100475
Se -7.677037 4.606312 29.170746
Se -7.677037 1.536041 26.100475
Se -10.747308 7.676584 -26.094135
Se -10.747308 10.746855 -29.164407
Se -7.677037 10.746855 -26.094135
Se -7.677037 7.676584 -29.164407
Se -10.747308 7.676584 -19.953593
Se -10.747308 10.746855 -23.023864
Se -7.677037 10.746855 -19.953593
Se -7.677037 7.676584 -23.023864
Se -10.747308 7.676584 -13.813051
Se -10.747308 10.746855 -16.883322
Se -7.677037 10.746855 -13.813051
Se -7.677037 7.676584 -16.883322
Se -10.747308 7.676584 -7.672508
Se -10.747308 10.746855 -10.742779
Se -7.677037 10.746855 -7.672508
Se -7.677037 7.676584 -10.742779
Se -10.747308 7.676584 -1.531966
Se -10.747308 10.746855 -4.602237
Se -7.677037 10.746855 -1.531966
Se -7.677037 7.676584 -4.602237
Se -10.747308 7.676584 4.608577
Se -10.747308 10.746855 1.538305
Se -7.677037 10.746855 4.608577
Se -7.677037 7.676584 1.538305
Se -10.747308 7.676584 10.749119
Se -10.747308 10.746855 7.678848
Se -7.677037 10.746855 10.749119
Se -7.677037 7.676584 7.678848
Se -10.747308 7.676584 16.889661
Se -10.747308 10.746855 13.819390
Se -7.677037 10.746855 16.889661
Se -7.677037 7.676584 13.819390
Se -10.747308 7.676584 23.030204
Se -10.747308 10.746855 19.959933
Se -7.677037 10.746855 23.030204
Se -7.677037 7.676584 19.959933
Se -10.747308 7.676584 29.170746
Se -10.747308 10.746855 26.100475
Se -7.677037 10.746855 29.170746
Se -7.677037 7.676584 26.100475
Se -10.747308 13.817126 -26.094135
Se -7.677037 16.887397 -26.094135
Se -7.677037 13.817126 -29.164407
Se -10.747308 13.817126 -19.953593
Se -10.747308 16.887397 -23.023864
Se -7.677037 16.887397 -19.953593
Se -7.677037 13.817126 -23.023864
Se -10.747308 13.817126 -13.813051
Se -10.747308 16.887397 -16.883322
Se -7.677037 16.887397 -13.813051
Se -7.677037 13.817126 -16.883322
Se -10.747308 13.817126 -7.672508
Se -10.747308 16.887397 -10.742779
Se -7.677037 16.887397 -7.672508
Se -7.677037 13.817126 -10.742779
Se -10.747308 13.817126 -1.531966
Se -10.747308 16.887397 -4.602237
Se -7.677037 16.887397 -1.531966
Se -7.677037 13.817126 -4.602237
Se -10.747308 13.817126 4.608577
Se -10.747308 16.887397 1.538305
Se -7.677037 16.887397 4.608577
Se -7.677037 13.817126 1.538305
Se -10.747308 13.817126 10.749119
Se -10.747308 16.887397 7.678848
Se -7.677037 16.887397 10.749119
Se -7.677037 13.817126 7.678848
Se -10.747308 13.817126 16.889661
Se -10.747308 16.887397 13.819390
Se -7.677037 16.887397 16.889661
Se -7.677037 13.817126 13.819390
Se -10.747308 13.817126 23.030204
Se -10.747308 16.887397 19.959933
Se -7.677037 16.887397 23.030204
Se -7.677037 13.817126 19.959933
Se -10.747308 13.817126 29.170746
Se -10.747308 16.887397 26.100475
Se -7.677037 16.887397 29.170746
Se -7.677037 13.817126 26.100475
Se -7.677037 19.957668 -29.164407
Se -10.747308 19.957668 -19.953593
Se -7.677037 23.027940 -19.953593
Se -7.677037 19.957668 -23.023864
Se -10.747308 19.957668 -13.813051
Se -10.747308 23.027940 -16.883322
Se -7.677037 23.027940 -13.813051
Se -7.677037 19.957668 -16.883322
Se -10.747308 19.957668 -7.672508
Se -10.747308 23.027940 -10.742779
Se -7.677037 23.027940 -7.672508
Se -7.677037 19.957668 -10.742779
Se -10.747308 19.957668 -1.531966
Se -10.747308 23.027940 -4.602237
Se -7.677037 23.027940 -1.531966
Se -7.677037 19.957668 -4.602237
Se -10.747308 19.957668 4.608577
Se -10.747308 23.027940 1.538305
Se -7.677037 23.027940 4.608577
Se -7.677037 19.957668 1.538305
Se -10.747308 19.957668 10.749119
Se -10.747308 23.027940 7.678848
Se -7.677037 23.027940 10.749119
Se -7.677037 19.957668 7.678848
Se -10.747308 19.957668 16.889661
Se -10.747308 23.027940 13.819390
Se -7.677037 23.027940 16.889661
Se -7.677037 19.957668 13.819390
Se -10.747308 19.957668 23.030204
Se -10.747308 23.027940 19.959933
Se -7.677037 23.027940 23.030204
Se -7.677037 19.957668 19.959933
Se -7.677037 19.957668 26.100475
Se -10.747308 26.098211 -13.813051
Se -10.747308 29.168482 -16.883322
Se -7.677037 29.168482 -13.813051
Se -7.677037 26.098211 -16.883322
Se -10.747308 26.098211 -7.672508
Se -10.747308 29.168482 -10.742779
Se -7.677037 29.168482 -7.672508
Se -7.677037 26.098211 -10.742779
Se -10.747308 26.098211 -1.531966
Se -10.747308 29.168482 -4.602237
Se -7.677037 29.168482 -1.531966
Se -7.677037 26.098211 -4.602237
Se -10.747308 26.098211 4.608577
Se -10.747308 29.168482 1.538305
Se -7.677037 29.168482 4.608577
Se -7.677037 26.098211 1.538305
Se -10.747308 26.098211 10.749119
Se -10.747308 29.168482 7.678848
Se -7.677037 29.168482 10.749119
Se -7.677037 26.098211 7.678848
Se -10.747308 26.098211 16.889661
Se -10.747308 29.168482 13.819390
Se -7.677037 29.168482 16.889661
Se -7.677037 26.098211 13.819390
Se -7.677037 26.098211 19.959933
Se -1.536494 -26.096400 -26.094135
Se -4.606765 -29.166671 -19.953593
Se -4.606765 -26.096400 -23.023864
Se -1.536494 -26.096400 -19.953593
Se -1.536494 -29.166671 -23.023864
Se -4.606765 -29.166671 -13.813051
Se -4.606765 -26.096400 -16.883322
Se -1.536494 -26.096400 -13.813051
Se -1.536494 -29.166671 -16.883322
Se -4.606765 -29.166671 -7.672508
Se -4.606765 -26.096400 -10.742779
Se -1.536494 -26.096400 -7.672508
Se -1.536494 -29.166671 -10.742779
Se -4.606765 -29.166671 -1.531966
Se -4.606765 -26.096400 -4.602237
Se -1.536494 -26.096400 -1.531966
Se -1.536494 -29.166671 -4.602237
Se -4.606765 -29.166671 4.608577
Se -4.606765 -26.096400 1.538305
Se -1.536494 -26.096400 4.608577
Se -1.536494 -29.166671 1.538305
Se -4.606765 -29.166671 10.749119
Se -4.606765 -26.096400 7.678848
Se -1.536494 -26.096400 10.749119
Se -1.536494 -29.166671 7.678848
Se -4.606765 -29.166671 16.889661
Se -4.606765 -26.096400 13.819390
Se -1.536494 -26.096400 16.889661
Se -1.536494 -29.166671 13.819390
Se -4.606765 -26.096400 19.959933
Se -1.536494 -26.096400 23.030204
Se -1.536494 -29.166671 19.959933
Se -1.536494 -26.096400 29.170746
Se -4.606765 -23.026128 -26.094135
Se -4.606765 -19.955857 -29.164407
Se -1.536494 -19.955857 -26.094135
Se -1.536494 -23.026128 -29.164407
Se -4.606765 -23.026128 -19.953593
Se -4.606765 -19.955857 -23.023864
Se -1.536494 -19.955857 -19.953593
Se -1.536494 -23.026128 -23.023864
Se -4.606765 -23.026128 -13.813051
Se -4.606765 -19.955857 -16.883322
Se -1.536494 -19.955857 -13.813051
Se -1.536494 -23.026128 -16.883322
Se -4.606765 -23.026128 -7.672508
Se -4.606765 -19.955857 -10.742779
Se -1.536494 -19.955857 -7.672508
Se -1.536494 -23.026128 -10.742779
Se -4.606765 -23.026128 -1.531966
Se -4.606765 -19.955857 -4.602237
Se -1.536494 -19.955857 -1.531966
Se -1.536494 -23.026128 -4.602237
Se -4.606765 -23.026128 4.608577
Se -4.606765 -19.955857 1.538305
Se -1.536494 -19.955857 4.608577
Se -1.536494 -23.026128 1.538305
Se -4.606765 -23.026128 10.749119
Se -4.606765 -19.955857 7.678848
Se -1.536494 -19.955857 10.749119
Se -1.536494 -23.026128 7.678848
Se -4.606765 -23.026128 16.889661
Se -4.606765 -19.955857 13.819390
Se -1.536494 -19.955857 16.889661
Se -1.536494 -23.026128 13.819390
Se -4.606765 -23.026128 23.030204
Se -4.606765 -19.955857 19.959933
Se -1.536494 -19.955857 23.030204
Se -1.536494 -23.026128 19.959933
Se -4.606765 -19.955857 26.100475
Se -1.536494 -19.955857 29.170746
Se -1.536494 -23.026128 26.100475
Se -4.606765 -16.885586 -26.094135
Se -4.606765 -13.815315 -29.164407
Se -1.536494 -13.815315 -26.094135
Se -1.536494 -16.885586 -29.164407
Se -4.606765 -16.885586 -19.953593
Se -4.606765 -13.815315 -23.023864
Se -1.536494 -13.815315 -19.953593
Se -1.536494 -16.885586 -23.023864
Se -4.606765 -16.885586 -13.813051
Se -4.606765 -13.815315 -16.883322
Se -1.536494 -13.815315 -13.813051
Se -1.536494 -16.885586 -16.883322
Se -4.606765 -16.885586 -7.672508
Se -4.606765 -13.815315 -10.742779
Se -1.536494 -13.815315 -7.672508
Se -1.536494 -16.885586 -10.742779
Se -4.606765 -16.885586 -1.531966
Se -4.606765 -13.815315 -4.602237
Se -1.536494 -13.815315 -1.531966
Se -1.536494 -16.885586 -4.602237
Se -4.606765 -16.885586 4.608577
Se -4.606765 -13.815315 1.538305
Se -1.536494 -13.815315 4.608577
Se -1.536494 -16.885586 1.538305
Se -4.606765 -16.885586 10.749119
Se -4.606765 -13.815315 7.678848
Se -1.536494 -13.815315 10.749119
Se -1.536494 -16.885586 7.678848
Se -4.606765 -16.885586 16.889661
Se -4.606765 -13.815315 13.819390
Se -1.536494 -13.815315 16.889661
Se -1.536494 -16.885586 13.819390
Se -4.606765 -16.885586 23.030204
Se -4.606765 -13.815315 19.959933
Se -1.536494 -13.815315 23.030204
Se -1.536494 -16.885586 19.959933
Se -4.606765 -16.885586 29.170746
Se -4.606765 -13.815315 26.100475
Se -1.536494 -13.815315 29.170746
Se -1.536494 -16.885586 26.100475
Se -4.606765 -10.745044 -26.094135
Se -4.606765 -7.674772 -29.164407
Se -1.536494 -7.674772 -26.094135
Se -1.536494 -10.745044 -29.164407
Se -4.606765 -10.745044 -19.953593
Se -4.606765 -7.674772 -23.023864
Se -1.536494 -7.674772 -19.953593
Se -1.536494 -10.745044 -23.023864
Se -4.606765 -10.745044 -13.813051
Se -4.606765 -7.674772 -16.883322
Se -1.536494 -7.674772 -13.813051
Se -1.536494 -10.745044 -16.883322
Se -4.606765 -10.745044 -7.672508
Se -4.606765 -7.674772 -10.742779
Se -1.536494 -7.674772 -7.672508
Se -1.536494 -10.745044 -10.742779
Se -4.606765 -10.745044 -1.531966
Se -4.606765 -7.674772 -4.602237
Se -1.536494 -7.674772 -1.531966
Se -1.536494 -10.745044 -4.602237
Se -4.606765 -10.745044 4.608577
Se -4.606765 -7.674772 1.538305
Se -1.536494 -7.674772 4.608577
Se -1.536494 -10.745044 1.538305
Se -4.606765 -10.745044 10.749119
Se -4.606765 -7.674772 7.678848
Se -1.536494 -7.674772 10.749119
Se -1.536494 -10.745044 7.678848
Se -4.606765 -10.745044 16.889661
Se -4.606765 -7.674772 13.819390
Se -1.536494 -7.674772 16.889661
Se -1.536494 -10.745044 13.819390
Se -4.606765 -10.745044 23.030204
Se -4.606765 -7.674772 19.959933
Se -1.536494 -7.674772 23.030204
Se -1.536494 -10.745044 19.959933
Se -4.606765 -10.745044 29.170746
Se -4.606765 -7.674772 26.100475
Se -1.536494 -7.674772 29.170746
Se -1.536494 -10.745044 26.100475
Se -4.606765 -4.604501 -26.094135
Se -4.606765 -1.534230 -29.164407
Se -1.536494 -1.534230 -26.094135
Se -1.536494 -4.604501 -29.164407
Se -4.606765 -4.604501 -19.953593
Se -4.606765 -1.534230 -23.023864
Se -1.536494 -1.534230 -19.953593
Se -1.536494 -4.604501 -23.023864
Se -4.606765 -4.604501 -13.813051
Se -4.606765 -1.534230 -16.883322
Se -1.536494 -1.534230 -13.813051
Se -1.536494 -4.604501 -16.883322
Se -4.606765 -4.604501 -7.672508
Se -4.606765 -1.534230 -10.742779
Se -1.536494 -1.534230 -7.672508
Se -1.536494 -4.604501 -10.742779
Se -4.606765 -4.604501 -1.531966
Se -4.606765 -1.534230 -4.602237
Se -1.536494 -1.534230 -1.531966
Se -1.536494 -4.604501 -4.602237
Se -4.606765 -4.604501 4.608577
Se -4.606765 -1.534230 1.538305
Se -1.536494 -1.534230 4.608577
Se -1.536494 -4.604501 1.538305
Se -4.606765 -4.604501 10.749119
Se -4.606765 -1.534230 7.678848
Se -1.536494 -1.534230 10.749119
Se -1.536494 -4.604501 7.678848
Se -4.606765 -4.604501 16.889661
Se -4.606765 -1.534230 13.819390
Se -1.536494 -1.534230 16.889661
Se -1.536494 -4.604501 13.819390
Se -4.606765 -4.604501 23.030204
Se -4.606765 -1.534230 19.959933
Se -1.536494 -1.534230 23.030204
Se -1.536494 -4.604501 19.959933
Se -4.606765 -4.604501 29.170746
Se -4.606765 -1.534230 26.100475
Se -1.536494 -1.534230 29.170746
Se -1.536494 -4.604501 26.100475
Se -4.606765 1.536041 -26.094135
Se -4.606765 4.606312 -29.164407
Se -1.536494 4.606312 -26.094135
Se -1.536494 1.536041 -29.164407
Se -4.606765 1.536041 -19.953593
Se -4.606765 4.606312 -23.023864
Se -1.536494 4.606312 -19.953593
Se -1.536494 1.536041 -23.023864
Se -4.606765 1.536041 -13.813051
Se -4.606765 4.606312 -16.883322
Se -1.536494 4.606312 -13.813051
Se -1.536494 1.536041 -16.883322
Se -4.606765 1.536041 -7.672508
Se -4.606765 4.606312 -10.742779
Se -1.536494 4.606312 -7.672508
Se -1.536494 1.536041 -10.742779
Se -4.606765 1.536041 -1.531966
Se -4.606765 4.606312 -4.602237
Se -1.536494 4.606312 -1.531966
Se -1.536494 1.536041 -4.602237
Se -4.606765 1.536041 4.608577
Se -4.606765 4.606312 1.538305
Se -1.536494 4.606312 4.608577
Se -1.536494 1.536041 1.538305
Se -4.606765 1.536041 10.749119
Se -4.606765 4.606312 7.678848
Se -1.536494 4.606312 10.749119
Se -1.536494 1.536041 7.678848
Se -4.606765 1.536041 16.889661
Se -4.606765 4.606312 13.819390
Se -1.536494 4.606312 16.889661
Se -1.536494 1.536041 13.819390
Se -4.606765 1.536041 23.030204
Se -4.606765 4.606312 19.959933
Se -1.536494 4.606312 23.030204
Se -1.536494 1.536041 19.959933
Se -4.606765 1.536041 29.170746
Se -4.606765 4.606312 26.100475
Se -1.536494 4.606312 29.170746
Se -1.536494 1.536041 26.100475
Se -4.606765 7.676584 -26.094135
Se -4.606765 10.746855 -29.164407
Se -1.536494 10.746855 -26.094135
Se -1.536494 7.676584 -29.164407
Se -4.606765 7.676584 -19.953593
Se -4.606765 10.746855 -23.023864
Se -1.536494 10.746855 -19.953593
Se -1.536494 7.676584 -23.023864
Se -4.606765 7.676584 -13.813051
Se -4.606765 10.746855 -16.883322
Se -1.536494 10.746855 -13.813051
Se -1.536494 7.676584 -16.883322
Se -4.606765 7.676584 -7.672508
Se -4.606765 10.746855 -10.742779
Se -1.536494 10.746855 -7.672508
Se -1.536494 7.676584 -10.742779
Se -4.606765 7.676584 -1.531966
Se -4.606765 10.746855 -4.602237
Se -1.536494 10.746855 -1.531966
Se -1.536494 7.676584 -4.602237
Se -4.606765 7.676584 4.608577
Se -4.606765 10.746855 1.538305
Se -1.536494 10.746855 4.608577
Se -1.536494 7.676584 1.538305
Se -4.606765 7.676584 10.749119
Se -4.606765 10.746855 7.678848
Se -1.536494 10.746855 10.749119
Se -1.536494 7.676584 7.678848
Se -4.606765 7.676584 16.889661
Se -4.606765 10.746855 13.819390
Se -1.536494 10.746855 16.889661
Se -1.536494 7.676584 13.819390
Se -4.606765 7.676584 23.030204
Se -4.606765 10.746855 19.959933
Se -1.536494 10.746855 23.030204
Se -1.536494 7.676584 19.959933
Se -4.606765 7.676584 29.170746
Se -4.606765 10.746855 26.100475
Se -1.536494 10.746855 29.170746
Se -1.536494 7.676584 26.100475
Se -4.606765 13.817126 -26.094135
Se -4.606765 16.887397 -29.164407
Se -1.536494 16.887397 -26.094135
Se -1.536494 13.817126 -29.164407
Se -4.606765 13.817126 -19.953593
Se -4.606765 16.887397 -23.023864
Se -1.536494 16.887397 -19.953593
Se -1.536494 13.817126 -23.023864
Se -4.606765 13.817126 -13.813051
Se -4.606765 16.887397 -16.883322
Se -1.536494 16.887397 -13.813051
Se -1.536494 13.817126 -16.883322
Se -4.606765 13.817126 -7.672508
Se -4.606765 16.887397 -10.742779
Se -1.536494 16.887397 -7.672508
Se -1.536494 13.817126 -10.742779
Se -4.606765 13.817126 -1.531966
Se -4.606765 16.887397 -4.602237
Se -1.536494 16.887397 -1.531966
Se -1.536494 13.817126 -4.602237
Se -4.606765 13.817126 4.608577
Se -4.606765 16.887397 1.538305
Se -1.536494 16.887397 4.608577
Se -1.536494 13.817126 1.538305
Se -4.606765 13.817126 10.749119
Se -4.606765 16.887397 7.678848
Se -1.536494 16.887397 10.749119
Se -1.536494 13.817126 7.678848
Se -4.606765 13.817126 16.889661
Se -4.606765 16.887397 13.819390
Se -1.536494 16.887397 16.889661
Se -1.536494 13.817126 13.819390
Se -4.606765 13.817126 23.030204
Se -4.606765 16.887397 19.959933
Se -1.536494 16.887397 23.030204
Se -1.536494 13.817126 19.959933
Se -4.606765 13.817126 29.170746
Se -4.606765 16.887397 26.100475
Se -1.536494 16.887397 29.170746
Se -1.536494 13.817126 26.100475
Se -4.606765 19.957668 -26.094135
Se -1.536494 23.027940 -26.094135
Se -1.536494 19.957668 -29.164407
Se -4.606765 19.957668 -19.953593
Se -4.606765 23.027940 -23.023864
Se -1.536494 23.027940 -19.953593
Se -1.536494 19.957668 -23.023864
Se -4.606765 19.957668 -13.813051
Se -4.606765 23.027940 -16.883322
Se -1.536494 23.027940 -13.813051
Se -1.536494 19.957668 -16.883322
Se -4.606765 19.957668 -7.672508
Se -4.606765 23.027940 -10.742779
Se -1.536494 23.027940 -7.672508
Se -1.536494 19.957668 -10.742779
Se -4.606765 19.957668 -1.531966
Se -4.606765 23.027940 -4.602237
Se -1.536494 23.027940 -1.531966
Se -1.536494 19.957668 -4.602237
Se -4.606765 19.957668 4.608577
Se -4.606765 23.027940 1.538305
Se -1.536494 23.027940 4.608577
Se -1.536494 19.957668 1.538305
Se -4.606765 19.957668 10.749119
Se -4.606765 23.027940 7.678848
Se -1.536494 23.027940 10.749119
Se -1.536494 19.957668 7.678848
Se -4.606765 19.957668 16.889661
Se -4.606765 23.027940 13.819390
Se -1.536494 23.027940 16.889661
Se -1.536494 19.957668 13.819390
Se -4.606765 19.957668 23.030204
Se -4.606765 23.027940 19.959933
Se -1.536494 23.027940 23.030204
Se -1.536494 19.957668 19.959933
Se -4.606765 19.957668 29.170746
Se -4.606765 23.027940 26.100475
Se -1.536494 23.027940 29.170746
Se -1.536494 19.957668 26.100475
Se -1.536494 29.168482 -26.094135
Se -4.606765 26.098211 -19.953593
Se -1.536494 29.168482 -19.953593
Se -1.536494 26.098211 -23.023864
Se -4.606765 26.098211 -13.813051
Se -4.606765 29.168482 -16.883322
Se -1.536494 29.168482 -13.813051
Se -1.536494 26.098211 -16.883322
Se -4.606765 26.098211 -7.672508
Se -4.606765 29.168482 -10.742779
Se -1.536494 29.168482 -7.672508
Se -1.536494 26.098211 -10.742779
Se -4.606765 26.098211 -1.531966
Se -4.606765 29.168482 -4.602237
Se -1.536494 29.168482 -1.531966
Se -1.536494 26.098211 -4.602237
Se -4.606765 26.098211 4.608577
Se -4.606765 29.168482 1.538305
Se -1.536494 29.168482 4.608577
Se -1.536494 26.098211 1.538305
Se -4.606765 26.098211 10.749119
Se -4.606765 29.168482 7.678848
Se -1.536494 29.168482 10.749119
Se -1.536494 26.098211 7.678848
Se -4.606765 26.098211 16.889661
Se -4.606765 29.168482 13.819390
Se -1.536494 29.168482 16.889661
Se -1.536494 26.098211 13.819390
Se -4.606765 26.098211 23.030204
Se -4.606765 29.168482 19.959933
Se -1.536494 29.168482 23.030204
Se -1.536494 26.098211 19.959933
Se -1.536494 26.098211 26.100475
Se 1.533777 -26.096400 -29.164407
Se 1.533777 -29.166671 -19.953593
Se 1.533777 -26.096400 -23.023864
Se 4.604048 -26.096400 -19.953593
Se 1.533777 -29.166671 -13.813051
Se 1.533777 -26.096400 -16.883322
Se 4.604048 -26.096400 -13.813051
Se 4.604048 -29.166671 -16.883322
Se 1.533777 -29.166671 -7.672508
Se 1.533777 -26.096400 -10.742779
Se 4.604048 -26.096400 -7.672508
Se 4.604048 -29.166671 -10.742779
Se 1.533777 -29.166671 -1.531966
Se 1.533777 -26.096400 -4.602237
Se 4.604048 -26.096400 -1.531966
Se 4.604048 -29.166671 -4.602237
Se 1.533777 -29.166671 4.608577
Se 1.533777 -26.096400 1.538305
Se 4.604048 -26.096400 4.608577
Se 4.604048 -29.166671 1.538305
Se 1.533777 -29.166671 10.749119
Se 1.533777 -26.096400 7.678848
Se 4.604048 -26.096400 10.749119
Se 4.604048 -29.166671 7.678848
Se 1.533777 -29.166671 16.889661
Se 1.533777 -26.096400 13.819390
Se 4.604048 -26.096400 16.889661
Se 4.604048 -29.166671 13.819390
Se 1.533777 -29.166671 23.030204
Se 1.533777 -26.096400 19.959933
Se 4.604048 -26.096400 23.030204
Se 4.604048 -29.166671 19.959933
Se 1.533777 -26.096400 26.100475
Se 1.533777 -23.026128 -26.094135
Se 1.533777 -19.955857 -29.164407
Se 4.604048 -19.955857 -26.094135
Se 1.533777 -23.026128 -19.953593
Se 1.533777 -19.955857 -23.023864
Se 4.604048 -19.955857 -19.953593
Se 4.604048 -23.026128 -23.023864
Se 1.533777 -23.026128 -13.813051
Se 1.533777 -19.955857 -16.883322
Se 4.604048 -19.955857 -13.813051
Se 4.604048 -23.026128 -16.883322
Se 1.533777 -23.026128 -7.672508
Se 1.533777 -19.955857 -10.742779
Se 4.604048 -19.955857 -7.672508
Se 4.604048 -23.026128 -10.742779
Se 1.533777 -23.026128 -1.531966
Se 1.533777 -19.955857 -4.602237
Se 4.604048 -19.955857 -1.531966
Se 4.604048 -23.026128 -4.602237
Se 1.533777 -23.026128 4.608577
Se 1.533777 -19.955857 1.538305
Se 4.604048 -19.955857 4.608577
Se 4.604048 -23.026128 1.538305
Se 1.533777 -23.026128 10.749119
Se 1.533777 -19.955857 7.678848
Se 4.604048 -19.955857 10.749119
Se 4.604048 -23.026128 7.678848
Se 1.533777 -23.026128 16.889661
Se 1.533777 -19.955857 13.819390
Se 4.604048 -19.955857 16.889661
Se 4.604048 -23.026128 13.819390
Se 1.533777 -23.026128 23.030204
Se 1.533777 -19.955857 19.959933
Se 4.604048 -19.955857 23.030204
Se 4.604048 -23.026128 19.959933
Se 1.533777 -23.026128 29.170746
Se 1.533777 -19.955857 26.100475
Se 4.604048 -19.955857 29.170746
Se 4.604048 -23.026128 26.100475
Se 1.533777 -16.885586 -26.094135
Se 1.533777 -13.815315 -29.164407
Se 4.604048 -13.815315 -26.094135
Se 4.604048 -16.885586 -29.164407
Se 1.533777 -16.885586 -19.953593
Se 1.533777 -13.815315 -23.023864
Se 4.604048 -13.815315 -19.953593
Se 4.604048 -16.885586 -23.023864
Se 1.533777 -16.885586 -13.813051
Se 1.533777 -13.815315 -16.883322
Se 4.604048 -13.815315 -13.813051
Se 4.604048 -16.885586 -16.883322
Se 1.533777 -16.885586 -7.672508
Se 1.533777 -13.815315 -10.742779
Se 4.604048 -13.815315 -7.672508
Se 4.604048 -16.885586 -10.742779
Se 1.533777 -16.885586 -1.531966
Se 1.533777 -13.815315 -4.602237
Se 4.604048 -13.815315 -1.531966
Se 4.604048 -16.885586 -4.602237
Se 1.533777 -16.885586 4.608577
Se 1.533777 -13.815315 1.538305
Se 4.604048 -13.815315 4.608577
Se 4.604048 -16.885586 1.538305
Se 1.533777 -16.885586 10.749119
Se 1.533777 -13.815315 7.678848
Se 4.604048 -13.815315 10.749119
Se 4.604048 -16.885586 7.678848
Se 1.533777 -16.885586 16.889661
Se 1.533777 -13.815315 13.819390
Se 4.604048 -13.815315 16.889661
Se 4.604048 -16.885586 13.819390
Se 1.533777 -16.885586 23.030204
Se 1.533777 -13.815315 19.959933
Se 4.604048 -13.815315 23.030204
Se 4.604048 -16.885586 19.959933
Se 1.533777 -16.885586 29.170746
Se 1.533777 -13.815315 26.100475
Se 4.604048 -13.815315 29.170746
Se 4.604048 -16.885586 26.100475
Se 1.533777 -10.745044 -26.094135
Se 1.533777 -7.674772 -29.164407
Se 4.604048 -7.674772 -26.094135
Se 4.604048 -10.745044 -29.164407
Se 1.533777 -10.745044 -19.953593
Se 1.533777 -7.674772 -23.023864
Se 4.604048 -7.674772 -19.953593
Se 4.604048 -10.745044 -23.023864
Se 1.533777 -10.745044 -13.813051
Se 1.533777 -7.674772 -16.883322
Se 4.604048 -7.674772 -13.813051
Se 4.604048 -10.745044 -16.883322
Se 1.533777 -10.745044 -7.672508
Se 1.533777 -7.674772 -10.742779
Se 4.604048 -7.674772 -7.672508
Se 4.604048 -10.745044 -10.742779
Se 1.533777 -10.745044 -1.531966
Se 1.533777 -7.674772 -4.602237
Se 4.604048 -7.674772 -1.531966
Se 4.604048 -10.745044 -4.602237
Se 1.533777 -10.745044 4.608577
Se 1.533777 -7.674772 1.538305
Se 4.604048 -7.674772 4.608577
Se 4.604048 -10.745044 1.538305
Se 1.533777 -10.745044 10.749119
Se 1.533777 -7.674772 7.678848
Se 4.604048 -7.674772 10.749119
Se 4.604048 -10.745044 7.678848
Se 1.533777 -10.745044 16.889661
Se 1.533777 -7.674772 13.819390
Se 4.604048 -7.674772 16.889661
Se 4.604048 -10.745044 13.819390
Se 1.533777 -10.745044 23.030204
Se 1.533777 -7.674772 19.959933
Se 4.604048 -7.674772 23.030204
Se 4.604048 -10.745044 19.959933
Se 1.533777 -10.745044 29.170746
Se 1.533777 -7.674772 26.100475
Se 4.604048 -7.674772 29.170746
Se 4.604048 -10.745044 26.100475
Se 1.533777 -4.604501 -26.094135
Se 1.533777 -1.534230 -29.164407
Se 4.604048 -1.534230 -26.094135
Se 4.604048 -4.604501 -29.164407
Se 1.533777 -4.604501 -19.953593
Se 1.533777 -1.534230 -23.023864
Se 4.604048 -1.534230 -19.953593
Se 4.604048 -4.604501 -23.023864
Se 1.533777 -4.604501 -13.813051
Se 1.533777 -1.534230 -16.883322
Se 4.604048 -1.534230 -13.813051
Se 4.604048 -4.604501 -16.883322
Se 1.533777 -4.604501 -7.672508
Se 1.533777 -1.534230 -10.742779
Se 4.604048 -1.534230 -7.672508
Se 4.604048 -4.604501 -10.742779
Se 1.533777 -4.604501 -1.531966
Se 1.533777 -1.534230 -4.602237
Se 4.604048 -1.534230 -1.531966
Se 4.604048 -4.604501 -4.602237
Se 1.533777 -4.604501 4.608577
Se 1.533777 -1.534230 1.538305
Se 4.604048 -1.534230 4.608577
Se 4.604048 -4.604501 1.538305
Se 1.533777 -4.604501 10.749119
Se 1.533777 -1.534230 7.678848
Se 4.604048 -1.534230 10.749119
Se 4.604048 -4.604501 7.678848
Se 1.533777 -4.604501 16.889661
Se 1.533777 -1.534230 13.819390
Se 4.604048 -1.534230 16.889661
Se 4.604048 -4.604501 13.819390
Se 1.533777 -4.604501 23.030204
Se 1.533777 -1.534230 19.959933
Se 4.604048 -1.534230 23.030204
Se 4.604048 -4.604501 19.959933
Se 1.533777 -4.604501 29.170746
Se 1.533777 -1.534230 26.100475
Se 4.604048 -1.534230 29.170746
Se 4.604048 -4.604501 26.100475
Se 1.533777 1.536041 -26.094135
Se 1.533777 4.606312 -29.164407
Se 4.604048 4.606312 -26.094135
Se 4.604048 1.536041 -29.164407
Se 1.533777 1.536041 -19.953593
Se 1.533777 4.606312 -23.023864
Se 4.604048 4.606312 -19.953593
Se 4.604048 1.536041 -23.023864
Se 1.533777 1.536041 -13.813051
Se 1.533777 4.606312 -16.883322
Se 4.604048 4.606312 -13.813051
Se 4.604048 1.536041 -16.883322
Se 1.533777 1.536041 -7.672508
Se 1.533777 4.606312 -10.742779
Se 4.604048 4.606312 -7.672508
Se 4.604048 1.536041 -10.742779
Se 1.533777 1.536041 -1.531966
Se 1.533777 4.606312 -4.602237
Se 4.604048 4.606312 -1.531966
Se 4.604048 1.536041 -4.602237
Se 1.533777 1.536041 4.608577
Se 1.533777 4.606312 1.538305
Se 4.604048 4.606312 4.608577
Se 4.604048 1.536041 1.538305
Se 1.533777 1.536041 10.749119
Se 1.533777 4.606312 7.678848
Se 4.604048 4.606312 10.749119
Se 4.604048 1.536041 7.678848
Se 1.533777 1.536041 16.889661
Se 1.533777 4.606312 13.819390
Se 4.604048 4.606312 16.889661
Se 4.604048 1.536041 13.819390
Se 1.533777 1.536041 23.030204
Se 1.533777 4.606312 19.959933
Se 4.604048 4.606312 23.030204
Se 4.604048 1.536041 19.959933
Se 1.533777 1.536041 29.170746
Se 1.533777 4.606312 26.100475
Se 4.604048 4.606312 29.170746
Se 4.604048 1.536041 26.100475
Se 1.533777 7.676584 -26.094135
Se 1.533777 10.746855 -29.164407
Se 4.604048 10.746855 -26.094135
Se 4.604048 7.676584 -29.164407
Se 1.533777 7.676584 -19.953593
Se 1.533777 10.746855 -23.023864
Se 4.604048 10.746855 -19.953593
Se 4.604048 7.676584 -23.023864
Se 1.533777 7.676584 -13.813051
Se 1.533777 10.746855 -16.883322
Se 4.604048 10.746855 -13.813051
Se 4.604048 7.676584 -16.883322
Se 1.533777 7.676584 -7.672508
Se 1.533777 10.746855 -10.742779
Se 4.604048 10.746855 -7.672508
Se 4.604048 7.676584 -10.742779
Se 1.533777 7.676584 -1.531966
Se 1.533777 10.746855 -4.602237
Se 4.604048 10.746855 -1.531966
Se 4.604048 7.676584 -4.602237
Se 1.533777 7.676584 4.608577
Se 1.533777 10.746855 1.538305
Se 4.604048 10.746855 4.608577
Se 4.604048 7.676584 1.538305
Se 1.533777 7.676584 10.749119
Se 1.533777 10.746855 7.678848
Se 4.604048 10.746855 10.749119
Se 4.604048 7.676584 7.678848
Se 1.533777 7.676584 16.889661
Se 1.533777 10.746855 13.819390
Se 4.604048 10.746855 16.889661
Se 4.604048 7.676584 13.819390
Se 1.533777 7.676584 23.030204
Se 1.533777 10.746855 19.959933
Se 4.604048 10.746855 23.030204
Se 4.604048 7.676584 19.959933
Se 1.533777 7.676584 29.170746
Se 1.533777 10.746855 26.100475
Se 4.604048 10.746855 29.170746
Se 4.604048 7.676584 26.100475
Se 1.533777 13.817126 -26.094135
Se 1.533777 16.887397 -29.164407
Se 4.604048 16.887397 -26.094135
Se 4.604048 13.817126 -29.164407
Se 1.533777 13.817126 -19.953593
Se 1.533777 16.887397 -23.023864
Se 4.604048 16.887397 -19.953593
Se 4.604048 13.817126 -23.023864
Se 1.533777 13.817126 -13.813051
Se 1.533777 16.887397 -16.883322
Se 4.604048 16.887397 -13.813051
Se 4.604048 13.817126 -16.883322
Se 1.533777 13.817126 -7.672508
Se 1.533777 16.887397 -10.742779
Se 4.604048 16.887397 -7.672508
Se 4.604048 13.817126 -10.742779
Se 1.533777 13.817126 -1.531966
Se 1.533777 16.887397 -4.602237
Se 4.604048 16.887397 -1.531966
Se 4.604048 13.817126 -4.602237
Se 1.533777 13.817126 4.608577
Se 1.533777 16.887397 1.538305
Se 4.604048 16.887397 4.608577
Se 4.604048 13.817126 1.538305
Se 1.533777 13.817126 10.749119
Se 1.533777 16.887397 7.678848
Se 4.604048 16.887397 10.749119
Se 4.604048 13.817126 7.678848
Se 1.533777 13.817126 16.889661
Se 1.533777 16.887397 13.819390
Se 4.604048 16.887397 16.889661
Se 4.604048 13.817126 13.819390
Se 1.533777 13.817126 23.030204
Se 1.533777 16.887397 19.959933
Se 4.604048 16.887397 23.030204
Se 4.604048 13.817126 19.959933
Se 1.533777 13.817126 29.170746
Se 1.533777 16.887397 26.100475
Se 4.604048 16.887397 29.170746
Se 4.604048 13.817126 26.100475
Se 1.533777 19.957668 -26.094135
Se 1.533777 23.027940 -29.164407
Se 4.604048 23.027940 -26.094135
Se 4.604048 19.957668 -29.164407
Se 1.533777 19.957668 -19.953593
Se 1.533777 23.027940 -23.023864
Se 4.604048 23.027940 -19.953593
Se 4.604048 19.957668 -23.023864
Se 1.533777 19.957668 -13.813051
Se 1.533777 23.027940 -16.883322
Se 4.604048 23.027940 -13.813051
Se 4.604048 19.957668 -16.883322
Se 1.533777 19.957668 -7.672508
Se 1.533777 23.027940 -10.742779
Se 4.604048 23.027940 -7.672508
Se 4.604048 19.957668 -10.742779
Se 1.533777 19.957668 -1.531966
Se 1.533777 23.027940 -4.602237
Se 4.604048 23.027940 -1.531966
Se 4.604048 19.957668 -4.602237
Se 1.533777 19.957668 4.608577
Se 1.533777 23.027940 1.538305
Se 4.604048 23.027940 4.608577
Se 4.604048 19.957668 1.538305
Se 1.533777 19.957668 10.749119
Se 1.533777 23.027940 7.678848
Se 4.604048 23.027940 10.749119
Se 4.604048 19.957668 7.678848
Se 1.533777 19.957668 16.889661
Se 1.533777 23.027940 13.819390
Se 4.604048 23.027940 16.889661
Se 4.604048 19.957668 13.819390
Se 1.533777 19.957668 23.030204
Se 1.533777 23.027940 19.959933
Se 4.604048 23.027940 23.030204
Se 4.604048 19.957668 19.959933
Se 1.533777 19.957668 29.170746
Se 1.533777 23.027940 26.100475
Se 4.604048 19.957668 26.100475
Se 1.533777 26.098211 -26.094135
Se 1.533777 26.098211 -19.953593
Se 1.533777 29.168482 -23.023864
Se 4.604048 29.168482 -19.953593
Se 4.604048 26.098211 -23.023864
Se 1.533777 26.098211 -13.813051
Se 1.533777 29.168482 -16.883322
Se 4.604048 29.168482 -13.813051
Se 4.604048 26.098211 -16.883322
Se 1.533777 26.098211 -7.672508
Se 1.533777 29.168482 -10.742779
Se 4.604048 29.168482 -7.672508
Se 4.604048 26.098211 -10.742779
Se 1.533777 26.098211 -1.531966
Se 1.533777 29.168482 -4.602237
Se 4.604048 29.168482 -1.531966
Se 4.604048 26.098211 -4.602237
Se 1.533777 26.098211 4.608577
Se 1.533777 29.168482 1.538305
Se 4.604048 29.168482 4.608577
Se 4.604048 26.098211 1.538305
Se 1.533777 26.098211 10.749119
Se 1.533777 29.168482 7.678848
Se 4.604048 29.168482 10.749119
Se 4.604048 26.098211 7.678848
Se 1.533777 26.098211 16.889661
Se 1.533777 29.168482 13.819390
Se 4.604048 29.168482 16.889661
Se 4.604048 26.098211 13.819390
Se 1.533777 26.098211 23.030204
Se 1.533777 29.168482 19.959933
Se 4.604048 26.098211 19.959933
Se 1.533777 26.098211 29.170746
Se 7.674319 -29.166671 -19.953593
Se 7.674319 -29.166671 -13.813051
Se 7.674319 -26.096400 -16.883322
Se 10.744591 -26.096400 -13.813051
Se 7.674319 -29.166671 -7.672508
Se 7.674319 -26.096400 -10.742779
Se 10.744591 -26.096400 -7.672508
Se 10.744591 -29.166671 -10.742779
Se 7.674319 -29.166671 -1.531966
Se 7.674319 -26.096400 -4.602237
Se 10.744591 -26.096400 -1.531966
Se 10.744591 -29.166671 -4.602237
Se 7.674319 -29.166671 4.608577
Se 7.674319 -26.096400 1.538305
Se 10.744591 -26.096400 4.608577
Se 10.744591 -29.166671 1.538305
Se 7.674319 -29.166671 10.749119
Se 7.674319 -26.096400 7.678848
Se 10.744591 -26.096400 10.749119
Se 10.744591 -29.166671 7.678848
Se 7.674319 -29.166671 16.889661
Se 7.674319 -26.096400 13.819390
Se 10.744591 -26.096400 16.889661
Se 10.744591 -29.166671 13.819390
Se 7.674319 -26.096400 19.959933
Se 7.674319 -23.026128 -19.953593
Se 7.674319 -19.955857 -23.023864
Se 10.744591 -19.955857 -19.953593
Se 7.674319 -23.026128 -13.813051
Se 7.674319 -19.955857 -16.883322
Se 10.744591 -19.955857 -13.813051
Se 10.744591 -23.026128 -16.883322
Se 7.674319 -23.026128 -7.672508
Se 7.674319 -19.955857 -10.742779
Se 10.744591 -19.955857 -7.672508
Se 10.744591 -23.026128 -10.742779
Se 7.674319 -23.026128 -1.531966
Se 7.674319 -19.955857 -4.602237
Se 10.744591 -19.955857 -1.531966
Se 10.744591 -23.026128 -4.602237
Se 7.674319 -23.026128 4.608577
Se 7.674319 -19.955857 1.538305
Se 10.744591 -19.955857 4.608577
Se 10.744591 -23.026128 1.538305
Se 7.674319 -23.026128 10.749119
Se 7.674319 -19.955857 7.678848
Se 10.744591 -19.955857 10.749119
Se 10.744591 -23.026128 7.678848
Se 7.674319 -23.026128 16.889661
Se 7.674319 -19.955857 13.819390
Se 10.744591 -19.955857 16.889661
Se 10.744591 -23.026128 13.819390
Se 7.674319 -23.026128 23.030204
Se 7.674319 -19.955857 19.959933
Se 10.744591 -19.955857 23.030204
Se 10.744591 -23.026128 19.959933
Se 7.674319 -19.955857 26.100475
Se 7.674319 -16.885586 -26.094135
Se 7.674319 -13.815315 -29.164407
Se 10.744591 -13.815315 -26.094135
Se 10.744591 -16.885586 -29.164407
Se 7.674319 -16.885586 -19.953593
Se 7.674319 -13.815315 -23.023864
Se 10.744591 -13.815315 -19.953593
Se 10.744591 -16.885586 -23.023864
Se 7.674319 -16.885586 -13.813051
Se 7.674319 -13.815315 -16.883322
Se 10.744591 -13.815315 -13.813051
Se 10.744591 -16.885586 -16.883322
Se 7.674319 -16.885586 -7.672508
Se 7.674319 -13.815315 -10.742779
Se 10.744591 -13.815315 -7.672508
Se 10.744591 -16.885586 -10.742779
Se 7.674319 -16.885586 -1.531966
Se 7.674319 -13.815315 -4.602237
Se 10.744591 -13.815315 -1.531966
Se 10.744591 -16.885586 -4.602237
Se 7.674319 -16.885586 4.608577
Se 7.674319 -13.815315 1.538305
Se 10.744591 -13.815315 4.608577
Se 10.744591 -16.885586 1.538305
Se 7.674319 -16.885586 10.749119
Se 7.674319 -13.815315 7.678848
Se 10.744591 -13.815315 10.749119
Se 10.744591 -16.885586 7.678848
Se 7.674319 -16.885586 16.889661
Se 7.674319 -13.815315 13.819390
Se 10.744591 -13.815315 16.889661
Se 10.744591 -16.885586 13.819390
Se 7.674319 -16.885586 23.030204
Se 7.674319 -13.815315 19.959933
Se 10.744591 -13.815315 23.030204
Se 10.744591 -16.885586 19.959933
Se 7.674319 -16.885586 29.170746
Se 7.674319 -13.815315 26.100475
Se 10.744591 -13.815315 29.170746
Se 10.744591 -16.885586 26.100475
Se 7.674319 -10.745044 -26.094135
Se 7.674319 -7.674772 -29.164407
Se 10.744591 -7.674772 -26.094135
Se 10.744591 -10.745044 -29.164407
Se 7.674319 -10.745044 -19.953593
Se 7.674319 -7.674772 -23.023864
Se 10.744591 -7.674772 -19.953593
Se 10.744591 -10.745044 -23.023864
Se 7.674319 -10.745044 -13.813051
Se 7.674319 -7.674772 -16.883322
Se 10.744591 -7.674772 -13.813051
Se 10.744591 -10.745044 -16.883322
Se 7.674319 -10.745044 -7.672508
Se 7.674319 -7.674772 -10.742779
Se 10.744591 -7.674772 -7.672508
Se 10.744591 -10.745044 -10.742779
Se 7.674319 -10.745044 -1.531966
Se 7.674319 -7.674772 -4.602237
Se 10.744591 -7.674772 -1.531966
Se 10.744591 -10.745044 -4.602237
Se 7.674319 -10.745044 4.608577
Se 7.674319 -7.674772 1.538305
Se 10.744591 -7.674772 4.608577
Se 10.744591 -10.745044 1.538305
Se 7.674319 -10.745044 10.749119
Se 7.674319 -7.674772 7.678848
Se 10.744591 -7.674772 10.749119
Se 10.744591 -10.745044 7.678848
Se 7.674319 -10.745044 16.889661
Se 7.674319 -7.674772 13.819390
Se 10.744591 -7.674772 16.889661
Se 10.744591 -10.745044 13.819390
Se 7.674319 -10.745044 23.030204
Se 7.674319 -7.674772 19.959933
Se 10.744591 -7.674772 23.030204
Se 10.744591 -10.745044 19.959933
Se 7.674319 -10.745044 29.170746
Se 7.674319 -7.674772 26.100475
Se 10.744591 -7.674772 29.170746
Se 10.744591 -10.745044 26.100475
Se 7.674319 -4.604501 -26.094135
Se 7.674319 -1.534230 -29.164407
Se 10.744591 -1.534230 -26.094135
Se 10.744591 -4.604501 -29.164407
Se 7.674319 -4.604501 -19.953593
Se 7.674319 -1.534230 -23.023864
Se 10.744591 -1.534230 -19.953593
Se 10.744591 -4.604501 -23.023864
Se 7.674319 -4.604501 -13.813051
Se 7.674319 -1.534230 -16.883322
Se 10.744591 -1.534230 -13.813051
Se 10.744591 -4.604501 -16.883322
Se 7.674319 -4.604501 -7.672508
Se 7.674319 -1.534230 -10.742779
Se 10.744591 -1.534230 -7.672508
Se 10.744591 -4.604501 -10.742779
Se 7.674319 -4.604501 -1.531966
Se 7.674319 -1.534230 -4.602237
Se 10.744591 -1.534230 -1.531966
Se 10.744591 -4.604501 -4.602237
Se 7.674319 -4.604501 4.608577
Se 7.674319 -1.534230 1.538305
Se 10.744591 -1.534230 4.608577
Se 10.744591 -4.604501 1.538305
Se 7.674319 -4.604501 10.749119
Se 7.674319 -1.534230 7.678848
Se 10.744591 -1.534230 10.749119
Se 10.744591 -4.604501 7.678848
Se 7.674319 -4.604501 16.889661
Se 7.674319 -1.534230 13.819390
Se 10.744591 -1.534230 16.889661
Se 10.744591 -4.604501 13.819390
Se 7.674319 -4.604501 23.030204
Se 7.674319 -1.534230 19.959933
Se 10.744591 -1.534230 23.030204
Se 10.744591 -4.604501 19.959933
Se 7.674319 -4.604501 29.170746
Se 7.674319 -1.534230 26.100475
Se 10.744591 -1.534230 29.170746
Se 10.744591 -4.604501 26.100475
Se 7.674319 1.536041 -26.094135
Se 7.674319 4.606312 -29.164407
Se 10.744591 4.606312 -26.094135
Se 10.744591 1.536041 -29.164407
Se 7.674319 1.536041 -19.953593
Se 7.674319 4.606312 -23.023864
Se 10.744591 4.606312 -19.953593
Se 10.744591 1.536041 -23.023864
Se 7.674319 1.536041 -13.813051
Se 7.674319 4.606312 -16.883322
Se 10.744591 4.606312 -13.813051
Se 10.744591 1.536041 -16.883322
Se 7.674319 1.536041 -7.672508
Se 7.674319 4.606312 -10.742779
Se 10.744591 4.606312 -7.672508
Se 10.744591 1.536041 -10.742779
Se 7.674319 1.536041 -1.531966
Se 7.674319 4.606312 -4.602237
Se 10.744591 4.606312 -1.531966
Se 10.744591 1.536041 -4.602237
Se 7.674319 1.536041 4.608577
Se 7.674319 4.606312 1.538305
Se 10.744591 4.606312 4.608577
Se 10.744591 1.536041 1.538305
Se 7.674319 1.536041 10.749119
Se 7.674319 4.606312 7.678848
Se 10.744591 4.606312 10.749119
Se 10.744591 1.536041 7.678848
Se 7.674319 1.536041 16.889661
Se 7.674319 4.606312 13.819390
Se 10.744591 4.606312 16.889661
Se 10.744591 1.536041 13.819390
Se 7.674319 1.536041 23.030204
Se 7.674319 4.606312 19.959933
Se 10.744591 4.606312 23.030204
Se 10.744591 1.536041 19.959933
Se 7.674319 1.536041 29.170746
Se 7.674319 4.606312 26.100475
Se 10.744591 4.606312 29.170746
Se 10.744591 1.536041 26.100475
Se 7.674319 7.676584 -26.094135
Se 7.674319 10.746855 -29.164407
Se 10.744591 10.746855 -26.094135
Se 10.744591 7.676584 -29.164407
Se 7.674319 7.676584 -19.953593
Se 7.674319 10.746855 -23.023864
Se 10.744591 10.746855 -19.953593
Se 10.744591 7.676584 -23.023864
Se 7.674319 7.676584 -13.813051
Se 7.674319 10.746855 -16.883322
Se 10.744591 10.746855 -13.813051
Se 10.744591 7.676584 -16.883322
Se 7.674319 7.676584 -7.672508
Se 7.674319 10.746855 -10.742779
Se 10.744591 10.746855 -7.672508
Se 10.744591 7.676584 -10.742779
Se 7.674319 7.676584 -1.531966
Se 7.674319 10.746855 -4.602237
Se 10.744591 10.746855 -1.531966
Se 10.744591 7.676584 -4.602237
Se 7.674319 7.676584 4.608577
Se 7.674319 10.746855 1.538305
Se 10.744591 10.746855 4.608577
Se 10.744591 7.676584 1.538305
Se 7.674319 7.676584 10.749119
Se 7.674319 10.746855 7.678848
Se 10.744591 10.746855 10.749119
Se 10.744591 7.676584 7.678848
Se 7.674319 7.676584 16.889661
Se 7.674319 10.746855 13.819390
Se 10.744591 10.746855 16.889661
Se 10.744591 7.676584 13.819390
Se 7.674319 7.676584 23.030204
Se 7.674319 10.746855 19.959933
Se 10.744591 10.746855 23.030204
Se 10.744591 7.676584 19.959933
Se 7.674319 7.676584 29.170746
Se 7.674319 10.746855 26.100475
Se 10.744591 10.746855 29.170746
Se 10.744591 7.676584 26.100475
Se 7.674319 13.817126 -26.094135
Se 7.674319 16.887397 -29.164407
Se 10.744591 16.887397 -26.094135
Se 10.744591 13.817126 -29.164407
Se 7.674319 13.817126 -19.953593
Se 7.674319 16.887397 -23.023864
Se 10.744591 16.887397 -19.953593
Se 10.744591 13.817126 -23.023864
Se 7.674319 13.817126 -13.813051
Se 7.674319 16.887397 -16.883322
Se 10.744591 16.887397 -13.813051
Se 10.744591 13.817126 -16.883322
Se 7.674319 13.817126 -7.672508
Se 7.674319 16.887397 -10.742779
Se 10.744591 16.887397 -7.672508
Se 10.744591 13.817126 -10.742779
Se 7.674319 13.817126 -1.531966
Se 7.674319 16.887397 -4.602237
Se 10.744591 16.887397 -1.531966
Se 10.744591 13.817126 -4.602237
Se 7.674319 13.817126 4.608577
Se 7.674319 16.887397 1.538305
Se 10.744591 16.887397 4.608577
Se 10.744591 13.817126 1.538305
Se 7.674319 13.817126 10.749119
Se 7.674319 16.887397 7.678848
Se 10.744591 16.887397 10.749119
Se 10.744591 13.817126 7.678848
Se 7.674319 13.817126 16.889661
Se 7.674319 16.887397 13.819390
Se 10.744591 16.887397 16.889661
Se 10.744591 13.817126 13.819390
Se 7.674319 13.817126 23.030204
Se 7.674319 16.887397 19.959933
Se 10.744591 16.887397 23.030204
Se 10.744591 13.817126 19.959933
Se 7.674319 13.817126 29.170746
Se 7.674319 16.887397 26.100475
Se 10.744591 16.887397 29.170746
Se 10.744591 13.817126 26.100475
Se 7.674319 19.957668 -26.094135
Se 7.674319 19.957668 -19.953593
Se 7.674319 23.027940 -23.023864
Se 10.744591 23.027940 -19.953593
Se 10.744591 19.957668 -23.023864
Se 7.674319 19.957668 -13.813051
Se 7.674319 23.027940 -16.883322
Se 10.744591 23.027940 -13.813051
Se 10.744591 19.957668 -16.883322
Se 7.674319 19.957668 -7.672508
Se 7.674319 23.027940 -10.742779
Se 10.744591 23.027940 -7.672508
Se 10.744591 19.957668 -10.742779
Se 7.674319 19.957668 -1.531966
Se 7.674319 23.027940 -4.602237
Se 10.744591 23.027940 -1.531966
Se 10.744591 19.957668 -4.602237
Se 7.674319 19.957668 4.608577
Se 7.674319 23.027940 1.538305
Se 10.744591 23.027940 4.608577
Se 10.744591 19.957668 1.538305
Se 7.674319 19.957668 10.749119
Se 7.674319 23.027940 7.678848
Se 10.744591 23.027940 10.749119
Se 10.744591 19.957668 7.678848
Se 7.674319 19.957668 16.889661
Se 7.674319 23.027940 13.819390
Se 10.744591 23.027940 16.889661
Se 10.744591 19.957668 13.819390
Se 7.674319 19.957668 23.030204
Se 7.674319 23.027940 19.959933
Se 10.744591 19.957668 19.959933
Se 7.674319 26.098211 -19.953593
Se 7.674319 26.098211 -13.813051
Se 7.674319 29.168482 -16.883322
Se 10.744591 29.168482 -13.813051
Se 10.744591 26.098211 -16.883322
Se 7.674319 26.098211 -7.672508
Se 7.674319 29.168482 -10.742779
Se 10.744591 29.168482 -7.672508
Se 10.744591 26.098211 -10.742779
Se 7.674319 26.098211 -1.531966
Se 7.674319 29.168482 -4.602237
Se 10.744591 29.168482 -1.531966
Se 10.744591 26.098211 -4.602237
Se 7.674319 26.098211 4.608577
Se 7.674319 29.168482 1.538305
Se 10.744591 29.168482 4.608577
Se 10.744591 26.098211 1.538305
Se 7.674319 26.098211 10.749119
Se 7.674319 29.168482 7.678848
Se 10.744591 29.168482 10.749119
Se 10.744591 26.098211 7.678848
Se 7.674319 26.098211 16.889661
Se 7.674319 29.168482 13.819390
Se 10.744591 26.098211 13.819390
Se 7.674319 29.168482 19.959933
Se 13.814862 -29.166671 -7.672508
Se 13.814862 -26.096400 -10.742779
Se 16.885133 -26.096400 -7.672508
Se 16.885133 -29.166671 -10.742779
Se 13.814862 -29.166671 -1.531966
Se 13.814862 -26.096400 -4.602237
Se 16.885133 -26.096400 -1.531966
Se 16.885133 -29.166671 -4.602237
Se 13.814862 -29.166671 4.608577
Se 13.814862 -26.096400 1.538305
Se 16.885133 -26.096400 4.608577
Se 16.885133 -29.166671 1.538305
Se 13.814862 -29.166671 10.749119
Se 13.814862 -26.096400 7.678848
Se 16.885133 -26.096400 10.749119
Se 16.885133 -29.166671 7.678848
Se 13.814862 -26.096400 13.819390
Se 13.814862 -23.026128 -13.813051
Se 13.814862 -19.955857 -16.883322
Se 16.885133 -19.955857 -13.813051
Se 13.814862 -23.026128 -7.672508
Se 13.814862 -19.955857 -10.742779
Se 16.885133 -19.955857 -7.672508
Se 16.885133 -23.026128 -10.742779
Se 13.814862 -23.026128 -1.531966
Se 13.814862 -19.955857 -4.602237
Se 16.885133 -19.955857 -1.531966
Se 16.885133 -23.026128 -4.602237
Se 13.814862 -23.026128 4.608577
Se 13.814862 -19.955857 1.538305
Se 16.885133 -19.955857 4.608577
Se 16.885133 -23.026128 1.538305
Se 13.814862 -23.026128 10.749119
Se 13.814862 -19.955857 7.678848
Se 16.885133 -19.955857 10.749119
Se 16.885133 -23.026128 7.678848
Se 13.814862 -23.026128 16.889661
Se 13.814862 -19.955857 13.819390
Se 16.885133 -19.955857 16.889661
Se 16.885133 -23.026128 13.819390
Se 13.814862 -19.955857 19.959933
Se 13.814862 -16.885586 -19.953593
Se 13.814862 -13.815315 -23.023864
Se 16.885133 -13.815315 -19.953593
Se 13.814862 -16.885586 -13.813051
Se 13.814862 -13.815315 -16.883322
Se 16.885133 -13.815315 -13.813051
Se 16.885133 -16.885586 -16.883322
Se 13.814862 -16.885586 -7.672508
Se 13.814862 -13.815315 -10.742779
Se 16.885133 -13.815315 -7.672508
Se 16.885133 -16.885586 -10.742779
Se 13.814862 -16.885586 -1.531966
Se 13.814862 -13.815315 -4.602237
Se 16.885133 -13.815315 -1.531966
Se 16.885133 -16.885586 -4.602237
Se 13.814862 -16.885586 4.608577
Se 13.814862 -13.815315 1.538305
Se 16.885133 -13.815315 4.608577
Se 16.885133 -16.885586 1.538305
Se 13.814862 -16.885586 10.749119
Se 13.814862 -13.815315 7.678848
Se 16.885133 -13.815315 10.749119
Se 16.885133 -16.885586 7.678848
Se 13.814862 -16.885586 16.889661
Se 13.814862 -13.815315 13.819390
Se 16.885133 -13.815315 16.889661
Se 16.885133 -16.885586 13.819390
Se 13.814862 -16.885586 23.030204
Se 13.814862 -13.815315 19.959933
Se 16.885133 -13.815315 23.030204
Se 16.885133 -16.885586 19.959933
Se 13.814862 -13.815315 26.100475
Se 13.814862 -10.745044 -26.094135
Se 13.814862 -7.674772 -29.164407
Se 16.885133 -7.674772 -26.094135
Se 13.814862 -10.745044 -19.953593
Se 13.814862 -7.674772 -23.023864
Se 16.885133 -7.674772 -19.953593
Se 16.885133 -10.745044 -23.023864
Se 13.814862 -10.745044 -13.813051
Se 13.814862 -7.674772 -16.883322
Se 16.885133 -7.674772 -13.813051
Se 16.885133 -10.745044 -16.883322
Se 13.814862 -10.745044 -7.672508
Se 13.814862 -7.674772 -10.742779
Se 16.885133 -7.674772 -7.672508
Se 16.885133 -10.745044 -10.742779
Se 13.814862 -10.745044 -1.531966
Se 13.814862 -7.674772 -4.602237
Se 16.885133 -7.674772 -1.531966
Se 16.885133 -10.745044 -4.602237
Se 13.814862 -10.745044 4.608577
Se 13.814862 -7.674772 1.538305
Se 16.885133 -7.674772 4.608577
Se 16.885133 -10.745044 1.538305
Se 13.814862 -10.745044 10.749119
Se 13.814862 -7.674772 7.678848
Se 16.885133 -7.674772 10.749119
Se 16.885133 -10.745044 7.678848
Se 13.814862 -10.745044 16.889661
Se 13.814862 -7.674772 13.819390
Se 16.885133 -7.674772 16.889661
Se 16.885133 -10.745044 13.819390
Se 13.814862 -10.745044 23.030204
Se 13.814862 -7.674772 19.959933
Se 16.885133 -7.674772 23.030204
Se 16.885133 -10.745044 19.959933
Se 13.814862 -10.745044 29.170746
Se 13.814862 -7.674772 26.100475
Se 16.885133 -7.674772 29.170746
Se 16.885133 -10.745044 26.100475
Se 13.814862 -4.604501 -26.094135
Se 13.814862 -1.534230 -29.164407
Se 16.885133 -1.534230 -26.094135
Se 16.885133 -4.604501 -29.164407
Se 13.814862 -4.604501 -19.953593
Se 13.814862 -1.534230 -23.023864
Se 16.885133 -1.534230 -19.953593
Se 16.885133 -4.604501 -23.023864
Se 13.814862 -4.604501 -13.813051
Se 13.814862 -1.534230 -16.883322
Se 16.885133 -1.534230 -13.813051
Se 16.885133 -4.604501 -16.883322
Se 13.814862 -4.604501 -7.672508
Se 13.814862 -1.534230 -10.742779
Se 16.885133 -1.534230 -7.672508
Se 16.885133 -4.604501 -10.742779
Se 13.814862 -4.604501 -1.531966
Se 13.814862 -1.534230 -4.602237
Se 16.885133 -1.534230 -1.531966
Se 16.885133 -4.604501 -4.602237
Se 13.814862 -4.604501 4.608577
Se 13.814862 -1.534230 1.538305
Se 16.885133 -1.534230 4.608577
Se 16.885133 -4.604501 1.538305
Se 13.814862 -4.604501 10.749119
Se 13.814862 -1.534230 7.678848
Se 16.885133 -1.534230 10.749119
Se 16.885133 -4.604501 7.678848
Se 13.814862 -4.604501 16.889661
Se 13.814862 -1.534230 13.819390
Se 16.885133 -1.534230 16.889661
Se 16.885133 -4.604501 13.819390
Se 13.814862 -4.604501 23.030204
Se 13.814862 -1.534230 19.959933
Se 16.885133 -1.534230 23.030204
Se 16.885133 -4.604501 19.959933
Se 13.814862 -4.604501 29.170746
Se 13.814862 -1.534230 26.100475
Se 16.885133 -1.534230 29.170746
Se 16.885133 -4.604501 26.100475
Se 13.814862 1.536041 -26.094135
Se 13.814862 4.606312 -29.164407
Se 16.885133 4.606312 -26.094135
Se 16.885133 1.536041 -29.164407
Se 13.814862 1.536041 -19.953593
Se 13.814862 4.606312 -23.023864
Se 16.885133 4.606312 -19.953593
Se 16.885133 1.536041 -23.023864
Se 13.814862 1.536041 -13.813051
Se 13.814862 4.606312 -16.883322
Se 16.885133 4.606312 -13.813051
Se 16.885133 1.536041 -16.883322
Se 13.814862 1.536041 -7.672508
Se 13.814862 4.606312 -10.742779
Se 16.885133 4.606312 -7.672508
Se 16.885133 1.536041 -10.742779
Se 13.814862 1.536041 -1.531966
Se 13.814862 4.606312 -4.602237
Se 16.885133 4.606312 -1.531966
Se 16.885133 1.536041 -4.602237
Se 13.814862 1.536041 4.608577
Se 13.814862 4.606312 1.538305
Se 16.885133 4.606312 4.608577
Se 16.885133 1.536041 1.538305
Se 13.814862 1.536041 10.749119
Se 13.814862 4.606312 7.678848
Se 16.885133 4.606312 10.749119
Se 16.885133 1.536041 7.678848
Se 13.814862 1.536041 16.889661
Se 13.814862 4.606312 13.819390
Se 16.885133 4.606312 16.889661
Se 16.885133 1.536041 13.819390
Se 13.814862 1.536041 23.030204
Se 13.814862 4.606312 19.959933
Se 16.885133 4.606312 23.030204
Se 16.885133 1.536041 19.959933
Se 13.814862 1.536041 29.170746
Se 13.814862 4.606312 26.100475
Se 16.885133 4.606312 29.170746
Se 16.885133 1.536041 26.100475
Se 13.814862 7.676584 -26.094135
Se 13.814862 10.746855 -29.164407
Se 16.885133 10.746855 -26.094135
Se 16.885133 7.676584 -29.164407
Se 13.814862 7.676584 -19.953593
Se 13.814862 10.746855 -23.023864
Se 16.885133 10.746855 -19.953593
Se 16.885133 7.676584 -23.023864
Se 13.814862 7.676584 -13.813051
Se 13.814862 10.746855 -16.883322
Se 16.885133 10.746855 -13.813051
Se 16.885133 7.676584 -16.883322
Se 13.814862 7.676584 -7.672508
Se 13.814862 10.746855 -10.742779
Se 16.885133 10.746855 -7.672508
Se 16.885133 7.676584 -10.742779
Se 13.814862 7.676584 -1.531966
Se 13.814862 10.746855 -4.602237
Se 16.885133 10.746855 -1.531966
Se 16.885133 7.676584 -4.602237
Se 13.814862 7.676584 4.608577
Se 13.814862 10.746855 1.538305
Se 16.885133 10.746855 4.608577
Se 16.885133 7.676584 1.538305
Se 13.814862 7.676584 10.749119
Se 13.814862 10.746855 7.678848
Se 16.885133 10.746855 10.749119
Se 16.885133 7.676584 7.678848
Se 13.814862 7.676584 16.889661
Se 13.814862 10.746855 13.819390
Se 16.885133 10.746855 16.889661
Se 16.885133 7.676584 13.819390
Se 13.814862 7.676584 23.030204
Se 13.814862 10.746855 19.959933
Se 16.885133 10.746855 23.030204
Se 16.885133 7.676584 19.959933
Se 13.814862 7.676584 29.170746
Se 13.814862 10.746855 26.100475
Se 16.885133 7.676584 26.100475
Se 13.814862 13.817126 -26.094135
Se 13.814862 13.817126 -19.953593
Se 13.814862 16.887397 -23.023864
Se 16.885133 16.887397 -19.953593
Se 16.885133 13.817126 -23.023864
Se 13.814862 13.817126 -13.813051
Se 13.814862 16.887397 -16.883322
Se 16.885133 16.887397 -13.813051
Se 16.885133 13.817126 -16.883322
Se 13.814862 13.817126 -7.672508
Se 13.814862 16.887397 -10.742779
Se 16.885133 16.887397 -7.672508
Se 16.885133 13.817126 -10.742779
Se 13.814862 13.817126 -1.531966
Se 13.814862 16.887397 -4.602237
Se 16.885133 16.887397 -1.531966
Se 16.885133 13.817126 -4.602237
Se 13.814862 13.817126 4.608577
Se 13.814862 16.887397 1.538305
Se 16.885133 16.887397 4.608577
Se 16.885133 13.817126 1.538305
Se 13.814862 13.817126 10.749119
Se 13.814862 16.887397 7.678848
Se 16.885133 16.887397 10.749119
Se 16.885133 13.817126 7.678848
Se 13.814862 13.817126 16.889661
Se 13.814862 16.887397 13.819390
Se 16.885133 16.887397 16.889661
Se 16.885133 13.817126 13.819390
Se 13.814862 13.817126 23.030204
Se 13.814862 16.887397 19.959933
Se 16.885133 13.817126 19.959933
Se 13.814862 19.957668 -19.953593
Se 13.814862 19.957668 -13.813051
Se 13.814862 23.027940 -16.883322
Se 16.885133 23.027940 -13.813051
Se 16.885133 19.957668 -16.883322
Se 13.814862 19.957668 -7.672508
Se 13.814862 23.027940 -10.742779
Se 16.885133 23.027940 -7.672508
Se 16.885133 19.957668 -10.742779
Se 13.814862 19.957668 -1.531966
Se 13.814862 23.027940 -4.602237
Se 16.885133 23.027940 -1.531966
Se 16.885133 19.957668 -4.602237
Se 13.814862 19.957668 4.608577
Se 13.814862 23.027940 1.538305
Se 16.885133 23.027940 4.608577
Se 16.885133 19.957668 1.538305
Se 13.814862 19.957668 10.749119
Se 13.814862 23.027940 7.678848
Se 16.885133 23.027940 10.749119
Se 16.885133 19.957668 7.678848
Se 13.814862 19.957668 16.889661
Se 13.814862 23.027940 13.819390
Se 16.885133 19.957668 13.819390
Se 13.814862 26.098211 -13.813051
Se 13.814862 26.098211 -7.672508
Se 13.814862 29.168482 -10.742779
Se 16.885133 29.168482 -7.672508
Se 16.885133 26.098211 -10.742779
Se 13.814862 26.098211 -1.531966
Se 13.814862 29.168482 -4.602237
Se 16.885133 29.168482 -1.531966
Se 16.885133 26.098211 -4.602237
Se 13.814862 26.098211 4.608577
Se 13.814862 29.168482 1.538305
Se 16.885133 29.168482 4.608577
Se 16.885133 26.098211 1.538305
Se 13.814862 26.098211 10.749119
Se 13.814862 29.168482 7.678848
Se 16.885133 29.168482 10.749119
Se 16.885133 26.098211 7.678848
Se 19.955404 -29.166671 -1.531966
Se 19.955404 -26.096400 -4.602237
Se 23.025675 -26.096400 -1.531966
Se 19.955404 -29.166671 4.608577
Se 19.955404 -26.096400 1.538305
Se 23.025675 -26.096400 4.608577
Se 23.025675 -29.166671 1.538305
Se 19.955404 -26.096400 7.678848
Se 19.955404 -23.026128 -7.672508
Se 19.955404 -19.955857 -10.742779
Se 23.025675 -19.955857 -7.672508
Se 19.955404 -23.026128 -1.531966
Se 19.955404 -19.955857 -4.602237
Se 23.025675 -19.955857 -1.531966
Se 23.025675 -23.026128 -4.602237
Se 19.955404 -23.026128 4.608577
Se 19.955404 -19.955857 1.538305
Se 23.025675 -19.955857 4.608577
Se 23.025675 -23.026128 1.538305
Se 19.955404 -23.026128 10.749119
Se 19.955404 -19.955857 7.678848
Se 23.025675 -19.955857 10.749119
Se 23.025675 -23.026128 7.678848
Se 19.955404 -19.955857 13.819390
Se 19.955404 -16.885586 -13.813051
Se 19.955404 -13.815315 -16.883322
Se 23.025675 -13.815315 -13.813051
Se 19.955404 -16.885586 -7.672508
Se 19.955404 -13.815315 -10.742779
Se 23.025675 -13.815315 -7.672508
Se 23.025675 -16.885586 -10.742779
Se 19.955404 -16.885586 -1.531966
Se 19.955404 -13.815315 -4.602237
Se 23.025675 -13.815315 -1.531966
Se 23.025675 -16.885586 -4.602237
Se 19.955404 -16.885586 4.608577
Se 19.955404 -13.815315 1.538305
Se 23.025675 -13.815315 4.608577
Se 23.025675 -16.885586 1.538305
Se 19.955404 -16.885586 10.749119
Se 19.955404 -13.815315 7.678848
Se 23.025675 -13.815315 10.749119
Se 23.025675 -16.885586 7.678848
Se 19.955404 -16.885586 16.889661
Se 19.955404 -13.815315 13.819390
Se 23.025675 -13.815315 16.889661
Se 23.025675 -16.885586 13.819390
Se 19.955404 -13.815315 19.959933
Se 19.955404 -7.674772 -29.164407
Se 19.955404 -10.745044 -19.953593
Se 19.955404 -7.674772 -23.023864
Se 23.025675 -7.674772 -19.953593
Se 19.955404 -10.745044 -13.813051
Se 19.955404 -7.674772 -16.883322
Se 23.025675 -7.674772 -13.813051
Se 23.025675 -10.745044 -16.883322
Se 19.955404 -10.745044 -7.672508
Se 19.955404 -7.674772 -10.742779
Se 23.025675 -7.674772 -7.672508
Se 23.025675 -10.745044 -10.742779
Se 19.955404 -10.745044 -1.531966
Se 19.955404 -7.674772 -4.602237
Se 23.025675 -7.674772 -1.531966
Se 23.025675 -10.745044 -4.602237
Se 19.955404 -10.745044 4.608577
Se 19.955404 -7.674772 1.538305
Se 23.025675 -7.674772 4.608577
Se 23.025675 -10.745044 1.538305
Se 19.955404 -10.745044 10.749119
Se 19.955404 -7.674772 7.678848
Se 23.025675 -7.674772 10.749119
Se 23.025675 -10.745044 7.678848
Se 19.955404 -10.745044 16.889661
Se 19.955404 -7.674772 13.819390
Se 23.025675 -7.674772 16.889661
Se 23.025675 -10.745044 13.819390
Se 19.955404 -10.745044 23.030204
Se 19.955404 -7.674772 19.959933
Se 23.025675 -7.674772 23.030204
Se 23.025675 -10.745044 19.959933
Se 19.955404 -7.674772 26.100475
Se 19.955404 -4.604501 -26.094135
Se 19.955404 -1.534230 -29.164407
Se 23.025675 -1.534230 -26.094135
Se 19.955404 -4.604501 -19.953593
Se 19.955404 -1.534230 -23.023864
Se 23.025675 -1.534230 -19.953593
Se 23.025675 -4.604501 -23.023864
Se 19.955404 -4.604501 -13.813051
Se 19.955404 -1.534230 -16.883322
Se 23.025675 -1.534230 -13.813051
Se 23.025675 -4.604501 -16.883322
Se 19.955404 -4.604501 -7.672508
Se 19.955404 -1.534230 -10.742779
Se 23.025675 -1.534230 -7.672508
Se 23.025675 -4.604501 -10.742779
Se 19.955404 -4.604501 -1.531966
Se 19.955404 -1.534230 -4.602237
Se 23.025675 -1.534230 -1.531966
Se 23.025675 -4.604501 -4.602237
Se 19.955404 -4.604501 4.608577
Se 19.955404 -1.534230 1.538305
Se 23.025675 -1.534230 4.608577
Se 23.025675 -4.604501 1.538305
Se 19.955404 -4.604501 10.749119
Se 19.955404 -1.534230 7.678848
Se 23.025675 -1.534230 10.749119
Se 23.025675 -4.604501 7.678848
Se 19.955404 -4.604501 16.889661
Se 19.955404 -1.534230 13.819390
Se 23.025675 -1.534230 16.889661
Se 23.025675 -4.604501 13.819390
Se 19.955404 -4.604501 23.030204
Se 19.955404 -1.534230 19.959933
Se 23.025675 -1.534230 23.030204
Se 23.025675 -4.604501 19.959933
Se 19.955404 -4.604501 29.170746
Se 19.955404 -1.534230 26.100475
Se 23.025675 -1.534230 29.170746
Se 23.025675 -4.604501 26.100475
Se 19.955404 1.536041 -26.094135
Se 19.955404 4.606312 -29.164407
Se 23.025675 4.606312 -26.094135
Se 23.025675 1.536041 -29.164407
Se 19.955404 1.536041 -19.953593
Se 19.955404 4.606312 -23.023864
Se 23.025675 4.606312 -19.953593
Se 23.025675 1.536041 -23.023864
Se 19.955404 1.536041 -13.813051
Se 19.955404 4.606312 -16.883322
Se 23.025675 4.606312 -13.813051
Se 23.025675 1.536041 -16.883322
Se 19.955404 1.536041 -7.672508
Se 19.955404 4.606312 -10.742779
Se 23.025675 4.606312 -7.672508
Se 23.025675 1.536041 -10.742779
Se 19.955404 1.536041 -1.531966
Se 19.955404 4.606312 -4.602237
Se 23.025675 4.606312 -1.531966
Se 23.025675 1.536041 -4.602237
Se 19.955404 1.536041 4.608577
Se 19.955404 4.606312 1.538305
Se 23.025675 4.606312 4.608577
Se 23.025675 1.536041 1.538305
Se 19.955404 1.536041 10.749119
Se 19.955404 4.606312 7.678848
Se 23.025675 4.606312 10.749119
Se 23.025675 1.536041 7.678848
Se 19.955404 1.536041 16.889661
Se 19.955404 4.606312 13.819390
Se 23.025675 4.606312 16.889661
Se 23.025675 1.536041 13.819390
Se 19.955404 1.536041 23.030204
Se 19.955404 4.606312 19.959933
Se 23.025675 4.606312 23.030204
Se 23.025675 1.536041 19.959933
Se 19.955404 1.536041 29.170746
Se 19.955404 4.606312 26.100475
Se 23.025675 1.536041 26.100475
Se 19.955404 7.676584 -26.094135
Se 19.955404 7.676584 -19.953593
Se 19.955404 10.746855 -23.023864
Se 23.025675 10.746855 -19.953593
Se 23.025675 7.676584 -23.023864
Se 19.955404 7.676584 -13.813051
Se 19.955404 10.746855 -16.883322
Se 23.025675 10.746855 -13.813051
Se 23.025675 7.676584 -16.883322
Se 19.955404 7.676584 -7.672508
Se 19.955404 10.746855 -10.742779
Se 23.025675 10.746855 -7.672508
Se 23.025675 7.676584 -10.742779
Se 19.955404 7.676584 -1.531966
Se 19.955404 10.746855 -4.602237
Se 23.025675 10.746855 -1.531966
Se 23.025675 7.676584 -4.602237
Se 19.955404 7.676584 4.608577
Se 19.955404 10.746855 1.538305
Se 23.025675 10.746855 4.608577
Se 23.025675 7.676584 1.538305
Se 19.955404 7.676584 10.749119
Se 19.955404 10.746855 7.678848
Se 23.025675 10.746855 10.749119
Se 23.025675 7.676584 7.678848
Se 19.955404 7.676584 16.889661
Se 19.955404 10.746855 13.819390
Se 23.025675 10.746855 16.889661
Se 23.025675 7.676584 13.819390
Se 19.955404 7.676584 23.030204
Se 19.955404 10.746855 19.959933
Se 23.025675 7.676584 19.959933
Se 19.955404 7.676584 29.170746
Se 19.955404 13.817126 -19.953593
Se 19.955404 13.817126 -13.813051
Se 19.955404 16.887397 -16.883322
Se 23.025675 16.887397 -13.813051
Se 23.025675 13.817126 -16.883322
Se 19.955404 13.817126 -7.672508
Se 19.955404 16.887397 -10.742779
Se 23.025675 16.887397 -7.672508
Se 23.025675 13.817126 -10.742779
Se 19.955404 13.817126 -1.531966
Se 19.955404 16.887397 -4.602237
Se 23.025675 16.887397 -1.531966
Se 23.025675 13.817126 -4.602237
Se 19.955404 13.817126 4.608577
Se 19.955404 16.887397 1.538305
Se 23.025675 16.887397 4.608577
Se 23.025675 13.817126 1.538305
Se 19.955404 13.817126 10.749119
Se 19.955404 16.887397 7.678848
Se 23.025675 16.887397 10.749119
Se 23.025675 13.817126 7.678848
Se 19.955404 13.817126 16.889661
Se 19.955404 16.887397 13.819390
Se 23.025675 13.817126 13.819390
Se 19.955404 19.957668 -13.813051
Se 19.955404 19.957668 -7.672508
Se 19.955404 23.027940 -10.742779
Se 23.025675 23.027940 -7.672508
Se 23.025675 19.957668 -10.742779
Se 19.955404 19.957668 -1.531966
Se 19.955404 23.027940 -4.602237
Se 23.025675 23.027940 -1.531966
Se 23.025675 19.957668 -4.602237
Se 19.955404 19.957668 4.608577
Se 19.955404 23.027940 1.538305
Se 23.025675 23.027940 4.608577
Se 23.025675 19.957668 1.538305
Se 19.955404 19.957668 10.749119
Se 19.955404 23.027940 7.678848
Se 23.025675 19.957668 7.678848
Se 19.955404 26.098211 -7.672508
Se 19.955404 26.098211 -1.531966
Se 19.955404 29.168482 -4.602237
Se 23.025675 29.168482 -1.531966
Se 23.025675 26.098211 -4.602237
Se 19.955404 26.098211 4.608577
Se 19.955404 29.168482 1.538305
Se 23.025675 26.098211 1.538305
Se 26.095947 -29.166671 -1.531966
Se 26.095947 -26.096400 1.538305
Se 29.166218 -19.955857 -7.672508
Se 26.095947 -23.026128 -1.531966
Se 26.095947 -19.955857 -4.602237
Se 29.166218 -19.955857 -1.531966
Se 26.095947 -23.026128 4.608577
Se 26.095947 -19.955857 1.538305
Se 29.166218 -19.955857 4.608577
Se 29.166218 -23.026128 1.538305
Se 26.095947 -19.955857 7.678848
Se 26.095947 -16.885586 -7.672508
Se 26.095947 -13.815315 -10.742779
Se 29.166218 -13.815315 -7.672508
Se 26.095947 -16.885586 -1.531966
Se 26.095947 -13.815315 -4.602237
Se 29.166218 -13.815315 -1.531966
Se 29.166218 -16.885586 -4.602237
Se 26.095947 -16.885586 4.608577
Se 26.095947 -13.815315 1.538305
Se 29.166218 -13.815315 4.608577
Se 29.166218 -16.885586 1.538305
Se 26.095947 -16.885586 10.749119
Se 26.095947 -13.815315 7.678848
Se 29.166218 -13.815315 10.749119
Se 29.166218 -16.885586 7.678848
Se 26.095947 -13.815315 13.819390
Se 26.095947 -10.745044 -13.813051
Se 26.095947 -7.674772 -16.883322
Se 29.166218 -7.674772 -13.813051
Se 29.166218 -10.745044 -16.883322
Se 26.095947 -10.745044 -7.672508
Se 26.095947 -7.674772 -10.742779
Se 29.166218 -7.674772 -7.672508
Se 29.166218 -10.745044 -10.742779
Se 26.095947 -10.745044 -1.531966
Se 26.095947 -7.674772 -4.602237
Se 29.166218 -7.674772 -1.531966
Se 29.166218 -10.745044 -4.602237
Se 26.095947 -10.745044 4.608577
Se 26.095947 -7.674772 1.538305
Se 29.166218 -7.674772 4.608577
Se 29.166218 -10.745044 1.538305
Se 26.095947 -10.745044 10.749119
Se 26.095947 -7.674772 7.678848
Se 29.166218 -7.674772 10.749119
Se 29.166218 -10.745044 7.678848
Se 26.095947 -10.745044 16.889661
Se 26.095947 -7.674772 13.819390
Se 29.166218 -7.674772 16.889661
Se 29.166218 -10.745044 13.819390
Se 26.095947 -7.674772 19.959933
Se 29.166218 -1.534230 -26.094135
Se 26.095947 -4.604501 -19.953593
Se 26.095947 -1.534230 -23.023864
Se 29.166218 -1.534230 -19.953593
Se 26.095947 -4.604501 -13.813051
Se 26.095947 -1.534230 -16.883322
Se 29.166218 -1.534230 -13.813051
Se 29.166218 -4.604501 -16.883322
Se 26.095947 -4.604501 -7.672508
Se 26.095947 -1.534230 -10.742779
Se 29.166218 -1.534230 -7.672508
Se 29.166218 -4.604501 -10.742779
Se 26.095947 -4.604501 -1.531966
Se 26.095947 -1.534230 -4.602237
Se 29.166218 -1.534230 -1.531966
Se 29.166218 -4.604501 -4.602237
Se 26.095947 -4.604501 4.608577
Se 26.095947 -1.534230 1.538305
Se 29.166218 -1.534230 4.608577
Se 29.166218 -4.604501 1.538305
Se 26.095947 -4.604501 10.749119
Se 26.095947 -1.534230 7.678848
Se 29.166218 -1.534230 10.749119
Se 29.166218 -4.604501 7.678848
Se 26.095947 -4.604501 16.889661
Se 26.095947 -1.534230 13.819390
Se 29.166218 -1.534230 16.889661
Se 29.166218 -4.604501 13.819390
Se 26.095947 -4.604501 23.030204
Se 26.095947 -1.534230 19.959933
Se 29.166218 -1.534230 23.030204
Se 29.166218 -4.604501 19.959933
Se 26.095947 -1.534230 26.100475
Se 26.095947 1.536041 -26.094135
Se 26.095947 1.536041 -19.953593
Se 26.095947 4.606312 -23.023864
Se 29.166218 4.606312 -19.953593
Se 29.166218 1.536041 -23.023864
Se 26.095947 1.536041 -13.813051
Se 26.095947 4.606312 -16.883322
Se 29.166218 4.606312 -13.813051
Se 29.166218 1.536041 -16.883322
Se 26.095947 1.536041 -7.672508
Se 26.095947 4.606312 -10.742779
Se 29.166218 4.606312 -7.672508
Se 29.166218 1.536041 -10.742779
Se 26.095947 1.536041 -1.531966
Se 26.095947 4.606312 -4.602237
Se 29.166218 4.606312 -1.531966
Se 29.166218 1.536041 -4.602237
Se 26.095947 1.536041 4.608577
Se 26.095947 4.606312 1.538305
Se 29.166218 4.606312 4.608577
Se 29.166218 1.536041 1.538305
Se 26.095947 1.536041 10.749119
Se 26.095947 4.606312 7.678848
Se 29.166218 4.606312 10.749119
Se 29.166218 1.536041 7.678848
Se 26.095947 1.536041 16.889661
Se 26.095947 4.606312 13.819390
Se 29.166218 4.606312 16.889661
Se 29.166218 1.536041 13.819390
Se 26.095947 1.536041 23.030204
Se 26.095947 4.606312 19.959933
Se 29.166218 1.536041 19.959933
Se 29.166218 1.536041 26.100475
Se 26.095947 7.676584 -19.953593
Se 26.095947 7.676584 -13.813051
Se 26.095947 10.746855 -16.883322
Se 29.166218 10.746855 -13.813051
Se 29.166218 7.676584 -16.883322
Se 26.095947 7.676584 -7.672508
Se 26.095947 10.746855 -10.742779
Se 29.166218 10.746855 -7.672508
Se 29.166218 7.676584 -10.742779
Se 26.095947 7.676584 -1.531966
Se 26.095947 10.746855 -4.602237
Se 29.166218 10.746855 -1.531966
Se 29.166218 7.676584 -4.602237
Se 26.095947 7.676584 4.608577
Se 26.095947 10.746855 1.538305
Se 29.166218 10.746855 4.608577
Se 29.166218 7.676584 1.538305
Se 26.095947 7.676584 10.749119
Se 26.095947 10.746855 7.678848
Se 29.166218 10.746855 10.749119
Se 29.166218 7.676584 7.678848
Se 26.095947 7.676584 16.889661
Se 26.095947 10.746855 13.819390
Se 29.166218 10.746855 16.889661
Se 29.166218 7.676584 13.819390
Se 26.095947 13.817126 -13.813051
Se 26.095947 13.817126 -7.672508
Se 26.095947 16.887397 -10.742779
Se 29.166218 16.887397 -7.672508
Se 29.166218 13.817126 -10.742779
Se 26.095947 13.817126 -1.531966
Se 26.095947 16.887397 -4.602237
Se 29.166218 16.887397 -1.531966
Se 29.166218 13.817126 -4.602237
Se 26.095947 13.817126 4.608577
Se 26.095947 16.887397 1.538305
Se 29.166218 16.887397 4.608577
Se 29.166218 13.817126 1.538305
Se 26.095947 13.817126 10.749119
Se 26.095947 16.887397 7.678848
Se 29.166218 13.817126 7.678848
Se 26.095947 19.957668 -7.672508
Se 26.095947 19.957668 -1.531966
Se 26.095947 23.027940 -4.602237
Se 29.166218 23.027940 -1.531966
Se 29.166218 19.957668 -4.602237
Se 26.095947 19.957668 4.608577
Se 26.095947 23.027940 1.538305
Se 29.166218 19.957668 1.538305
Se 29.166218 19.957668 7.678848
Se 26.095947 26.098211 -1.531966
Se 26.095947 29.168482 1.538305
Cl -32.239206 -19.955857 -1.531966
Cl -32.239206 -19.955857 4.608577
Cl -32.239206 -23.026128 1.538305
Cl -32.239206 -13.815315 -7.672508
Cl -32.239206 -13.815315 -1.531966
Cl -32.239206 -16.885586 -4.602237
Cl -32.239206 -13.815315 4.608577
Cl -32.239206 -16.885586 1.538305
Cl -32.239206 -13.815315 10.749119
Cl -32.239206 -16.885586 7.678848
Cl -32.239206 -7.674772 -13.813051
Cl -32.239206 -7.674772 -7.672508
Cl -32.239206 -10.745044 -10.742779
Cl -32.239206 -7.674772 -1.531966
Cl -32.239206 -10.745044 -4.602237
Cl -32.239206 -7.674772 4.608577
Cl -32.239206 -10.745044 1.538305
Cl -32.239206 -7.674772 10.749119
Cl -32.239206 -10.745044 7.678848
Cl -32.239206 -7.674772 16.889661
Cl -32.239206 -10.745044 13.819390
Cl -32.239206 -1.534230 -19.953593
Cl -32.239206 -1.534230 -13.813051
Cl -32.239206 -4.604501 -16.883322
Cl -32.239206 -1.534230 -7.672508
Cl -32.239206 -4.604501 -10.742779
Cl -32.239206 -1.534230 -1.531966
Cl -32.239206 -4.604501 -4.602237
Cl -32.239206 -1.534230 4.608577
Cl -32.239206 -4.604501 1.538305
Cl -32.239206 -1.534230 10.749119
Cl -32.239206 -4.604501 7.678848
Cl -32.239206 -1.534230 16.889661
Cl -32.239206 -4.604501 13.819390
Cl -32.239206 -1.534230 23.030204
Cl -32.239206 -4.604501 19.959933
Cl -32.239206 4.606312 -19.953593
Cl -32.239206 1.536041 -23.023864
Cl -32.239206 4.606312 -13.813051
Cl -32.239206 1.536041 -16.883322
Cl -32.239206 4.606312 -7.672508
Cl -32.239206 1.536041 -10.742779
Cl -32.239206 4.606312 -1.531966
Cl -32.239206 1.536041 -4.602237
Cl -32.239206 4.606312 4.608577
Cl -32.239206 1.536041 1.538305
Cl -32.239206 4.606312 10.749119
Cl -32.239206 1.536041 7.678848
Cl -32.239206 4.606312 16.889661
Cl -32.239206 1.536041 13.819390
Cl -32.239206 1.536041 19.959933
Cl -32.239206 10.746855 -13.813051
Cl -32.239206 7.676584 -16.883322
Cl -32.239206 10.746855 -7.672508
Cl -32.239206 7.676584 -10.742779
Cl -32.239206 10.746855 -1.531966
Cl -32.239206 7.676584 -4.602237
Cl -32.239206 10.746855 4.608577
Cl -32.239206 7.676584 1.538305
Cl -32.239206 10.746855 10.749119
Cl -32.239206 7.676584 7.678848
Cl -32.239206 7.676584 13.819390
Cl -32.239206 16.887397 -7.672508
Cl -32.239206 13.817126 -10.742779
Cl -32.239206 16.887397 -1.531966
Cl -32.239206 13.817126 -4.602237
Cl -32.239206 16.887397 4.608577
Cl -32.239206 13.817126 1.538305
Cl -32.239206 13.817126 7.678848
Cl -32.239206 23.027940 -1.531966
Cl -32.239206 19.957668 -4.602237
Cl -32.239206 19.957668 1.538305
Cl -29.168935 -26.096400 1.538305
Cl -26.098664 -26.096400 4.608577
Cl -29.168935 -23.026128 4.608577
Cl -26.098664 -19.955857 10.749119
Cl -26.098664 -23.026128 7.678848
Cl -29.168935 -16.885586 10.749119
Cl -29.168935 -13.815315 13.819390
Cl -26.098664 -13.815315 16.889661
Cl -26.098664 -16.885586 13.819390
Cl -29.168935 -7.674772 19.959933
Cl -26.098664 -7.674772 23.030204
Cl -26.098664 -10.745044 19.959933
Cl -29.168935 -4.604501 23.030204
Cl -26.098664 -1.534230 29.170746
Cl -26.098664 -4.604501 26.100475
Cl -29.168935 1.536041 -26.094135
Cl -26.098664 4.606312 -26.094135
Cl -29.168935 4.606312 -23.023864
Cl -26.098664 10.746855 -19.953593
Cl -26.098664 7.676584 -23.023864
Cl -29.168935 10.746855 -16.883322
Cl -29.168935 13.817126 -13.813051
Cl -26.098664 16.887397 -13.813051
Cl -26.098664 13.817126 -16.883322
Cl -29.168935 19.957668 -7.672508
Cl -26.098664 23.027940 -7.672508
Cl -26.098664 19.957668 -10.742779
Cl -29.168935 23.027940 -4.602237
Cl -26.098664 29.168482 -1.531966
Cl -26.098664 26.098211 -4.602237
Cl -19.958121 -32.236942 -1.531966
Cl -23.028393 -32.236942 1.538305
Cl -19.958121 -32.236942 4.608577
Cl -23.028393 -29.166671 4.608577
Cl -23.028393 -26.096400 7.678848
Cl -19.958121 -26.096400 10.749119
Cl -19.958121 -29.166671 7.678848
Cl -23.028393 -23.026128 10.749119
Cl -23.028393 -19.955857 13.819390
Cl -19.958121 -19.955857 16.889661
Cl -19.958121 -23.026128 13.819390
Cl -23.028393 -16.885586 16.889661
Cl -23.028393 -13.815315 19.959933
Cl -19.958121 -13.815315 23.030204
Cl -19.958121 -16.885586 19.959933
Cl -23.028393 -10.745044 23.030204
Cl -23.028393 -7.674772 26.100475
Cl -19.958121 -10.745044 26.100475
Cl -19.958121 -1.534230 -32.234678
Cl -23.028393 -4.604501 29.170746
Cl -23.028393 -1.534230 32.241017
Cl -19.958121 -4.604501 32.241017
Cl -23.028393 1.536041 -32.234678
Cl -19.958121 4.606312 -32.234678
Cl -23.028393 4.606312 -29.164407
Cl -19.958121 1.536041 32.241017
Cl -23.028393 7.676584 -26.094135
Cl -19.958121 10.746855 -26.094135
Cl -19.958121 7.676584 -29.164407
Cl -23.028393 10.746855 -23.023864
Cl -23.028393 13.817126 -19.953593
Cl -19.958121 16.887397 -19.953593
Cl -19.958121 13.817126 -23.023864
Cl -23.028393 16.887397 -16.883322
Cl -23.028393 19.957668 -13.813051
Cl -19.958121 23.027940 -13.813051
Cl -19.958121 19.957668 -16.883322
Cl -23.028393 23.027940 -10.742779
Cl -23.028393 26.098211 -7.672508
Cl -19.958121 26.098211 -10.742779
Cl -23.028393 29.168482 -4.602237
Cl -23.028393 32.238753 -1.531966
Cl -19.958121 32.238753 -4.602237
Cl -19.958121 32.238753 1.538305
Cl -13.817579 -32.236942 -7.672508
Cl -16.887850 -32.236942 -4.602237
Cl -13.817579 -32.236942 -1.531966
Cl -16.887850 -32.236942 1.538305
Cl -13.817579 -32.236942 4.608577
Cl -16.887850 -32.236942 7.678848
Cl -13.817579 -32.236942 10.749119
Cl -16.887850 -26.096400 13.819390
Cl -13.817579 -26.096400 16.889661
Cl -13.817579 -29.166671 13.819390
Cl -16.887850 -23.026128 16.889661
Cl -16.887850 -19.955857 19.959933
Cl -13.817579 -19.955857 23.030204
Cl -13.817579 -23.026128 19.959933
Cl -16.887850 -16.885586 23.030204
Cl -16.887850 -13.815315 26.100475
Cl -13.817579 -13.815315 29.170746
Cl -13.817579 -16.885586 26.100475
Cl -13.817579 -7.674772 -32.234678
Cl -16.887850 -10.745044 29.170746
Cl -16.887850 -7.674772 32.241017
Cl -13.817579 -10.745044 32.241017
Cl -16.887850 -4.604501 -32.234678
Cl -13.817579 -1.534230 -32.234678
Cl -16.887850 -1.534230 32.241017
Cl -13.817579 -4.604501 32.241017
Cl -16.887850 1.536041 -32.234678
Cl -13.817579 4.606312 -32.234678
Cl -16.887850 4.606312 32.241017
Cl -13.817579 1.536041 32.241017
Cl -16.887850 7.676584 -32.234678
Cl -13.817579 10.746855 -32.234678
Cl -13.817579 7.676584 32.241017
Cl -16.887850 13.817126 -26.094135
Cl -13.817579 16.887397 -26.094135
Cl -13.817579 13.817126 -29.164407
Cl -16.887850 16.887397 -23.023864
Cl -16.887850 19.957668 -19.953593
Cl -13.817579 23.027940 -19.953593
Cl -13.817579 19.957668 -23.023864
Cl -16.887850 23.027940 -16.883322
Cl -16.887850 26.098211 -13.813051
Cl -13.817579 29.168482 -13.813051
Cl -13.817579 26.098211 -16.883322
Cl -16.887850 29.168482 -10.742779
Cl -16.887850 32.238753 -7.672508
Cl -13.817579 32.238753 -10.742779
Cl -16.887850 32.238753 -1.531966
Cl -13.817579 32.238753 -4.602237
Cl -16.887850 32.238753 4.608577
Cl -13.817579 32.238753 1.538305
Cl -13.817579 32.238753 7.678848
Cl -7.677037 -32.236942 -13.813051
Cl -10.747308 -32.236942 -10.742779
Cl -7.677037 -32.236942 -7.672508
Cl -10.747308 -32.236942 -4.602237
Cl -7.677037 -32.236942 -1.531966
Cl -10.747308 -32.236942 1.538305
Cl -7.677037 -32.236942 4.608577
Cl -10.747308 -32.236942 7.678848
Cl -7.677037 -32.236942 10.749119
Cl -10.747308 -32.236942 13.819390
Cl -7.677037 -32.236942 16.889661
Cl -10.747308 -29.166671 16.889661
Cl -10.747308 -26.096400 19.959933
Cl -7.677037 -26.096400 23.030204
Cl -10.747308 -23.026128 23.030204
Cl -10.747308 -19.955857 26.100475
Cl -7.677037 -19.955857 29.170746
Cl -7.677037 -23.026128 26.100475
Cl -7.677037 -13.815315 -32.234678
Cl -10.747308 -13.815315 32.241017
Cl -7.677037 -16.885586 32.241017
Cl -10.747308 -10.745044 -32.234678
Cl -7.677037 -7.674772 -32.234678
Cl -10.747308 -7.674772 32.241017
Cl -7.677037 -10.745044 32.241017
Cl -10.747308 -4.604501 -32.234678
Cl -7.677037 -1.534230 -32.234678
Cl -10.747308 -1.534230 32.241017
Cl -7.677037 -4.604501 32.241017
Cl -10.747308 1.536041 -32.234678
Cl -7.677037 4.606312 -32.234678
Cl -10.747308 4.606312 32.241017
Cl -7.677037 1.536041 32.241017
Cl -10.747308 7.676584 -32.234678
Cl -7.677037 10.746855 -32.234678
Cl -10.747308 10.746855 32.241017
Cl -7.677037 7.676584 32.241017
Cl -10.747308 13.817126 -32.234678
Cl -7.677037 16.887397 -32.234678
Cl -10.747308 16.887397 -29.164407
Cl -7.677037 13.817126 32.241017
Cl -10.747308 19.957668 -26.094135
Cl -7.677037 23.027940 -26.094135
Cl -10.747308 23.027940 -23.023864
Cl -10.747308 26.098211 -19.953593
Cl -7.677037 29.168482 -19.953593
Cl -7.677037 26.098211 -23.023864
Cl -10.747308 32.238753 -13.813051
Cl -7.677037 32.238753 -16.883322
Cl -10.747308 32.238753 -7.672508
Cl -7.677037 32.238753 -10.742779
Cl -10.747308 32.238753 -1.531966
Cl -7.677037 32.238753 -4.602237
Cl -10.747308 32.238753 4.608577
Cl -7.677037 32.238753 1.538305
Cl -10.747308 32.238753 10.749119
Cl -7.677037 32.238753 7.678848
Cl -7.677037 32.238753 13.819390
Cl -1.536494 -32.236942 -19.953593
Cl -4.606765 -32.236942 -16.883322
Cl -1.536494 -32.236942 -13.813051
Cl -4.606765 -32.236942 -10.742779
Cl -1.536494 -32.236942 -7.672508
Cl -4.606765 -32.236942 -4.602237
Cl -1.536494 -32.236942 -1.531966
Cl -4.606765 -32.236942 1.538305
Cl -1.536494 -32.236942 4.608577
Cl -4.606765 -32.236942 7.678848
Cl -1.536494 -32.236942 10.749119
Cl -4.606765 -32.236942 13.819390
Cl -1.536494 -32.236942 16.889661
Cl -4.606765 -32.236942 19.959933
Cl -1.536494 -32.236942 23.030204
Cl -4.606765 -29.166671 23.030204
Cl -4.606765 -26.096400 26.100475
Cl -1.536494 -29.166671 26.100475
Cl -1.536494 -19.955857 -32.234678
Cl -4.606765 -23.026128 29.170746
Cl -4.606765 -19.955857 32.241017
Cl -1.536494 -23.026128 32.241017
Cl -4.606765 -16.885586 -32.234678
Cl -1.536494 -13.815315 -32.234678
Cl -4.606765 -13.815315 32.241017
Cl -1.536494 -16.885586 32.241017
Cl -4.606765 -10.745044 -32.234678
Cl -1.536494 -7.674772 -32.234678
Cl -4.606765 -7.674772 32.241017
Cl -1.536494 -10.745044 32.241017
Cl -4.606765 -4.604501 -32.234678
Cl -1.536494 -1.534230 -32.234678
Cl -4.606765 -1.534230 32.241017
Cl -1.536494 -4.604501 32.241017
Cl -4.606765 1.536041 -32.234678
Cl -1.536494 4.606312 -32.234678
Cl -4.606765 4.606312 32.241017
Cl -1.536494 1.536041 32.241017
Cl -4.606765 7.676584 -32.234678
Cl -1.536494 10.746855 -32.234678
Cl -4.606765 10.746855 32.241017
Cl -1.536494 7.676584 32.241017
Cl -4.606765 13.817126 -32.234678
Cl -1.536494 16.887397 -32.234678
Cl -4.606765 16.887397 32.241017
Cl -1.536494 13.817126 32.241017
Cl -4.606765 19.957668 -32.234678
Cl -1.536494 23.027940 -32.234678
Cl -4.606765 23.027940 -29.164407
Cl -1.536494 19.957668 32.241017
Cl -4.606765 26.098211 -26.094135
Cl -1.536494 26.098211 -29.164407
Cl -4.606765 29.168482 -23.023864
Cl -4.606765 32.238753 -19.953593
Cl -1.536494 32.238753 -23.023864
Cl -4.606765 32.238753 -13.813051
Cl -1.536494 32.238753 -16.883322
Cl -4.606765 32.238753 -7.672508
Cl -1.536494 32.238753 -10.742779
Cl -4.606765 32.238753 -1.531966
Cl -1.536494 32.238753 -4.602237
Cl -4.606765 32.238753 4.608577
Cl -1.536494 32.238753 1.538305
Cl -4.606765 32.238753 10.749119
Cl -1.536494 32.238753 7.678848
Cl -4.606765 32.238753 16.889661
Cl -1.536494 32.238753 13.819390
Cl -1.536494 32.238753 19.959933
Cl 1.533777 -32.236942 -23.023864
Cl 4.604048 -32.236942 -19.953593
Cl 1.533777 -32.236942 -16.883322
Cl 4.604048 -32.236942 -13.813051
Cl 1.533777 -32.236942 -10.742779
Cl 4.604048 -32.236942 -7.672508
Cl 1.533777 -32.236942 -4.602237
Cl 4.604048 -32.236942 -1.531966
Cl 1.533777 -32.236942 1.538305
Cl 4.604048 -32.236942 4.608577
Cl 1.533777 -32.236942 7.678848
Cl 4.604048 -32.236942 10.749119
Cl 1.533777 -32.236942 13.819390
Cl 4.604048 -32.236942 16.889661
Cl 1.533777 -32.236942 19.959933
Cl 1.533777 -29.166671 -26.094135
Cl 4.604048 -26.096400 -26.094135
Cl 4.604048 -29.166671 -23.023864
Cl 1.533777 -23.026128 -32.234678
Cl 4.604048 -19.955857 -32.234678
Cl 4.604048 -23.026128 -29.164407
Cl 1.533777 -19.955857 32.241017
Cl 1.533777 -16.885586 -32.234678
Cl 4.604048 -13.815315 -32.234678
Cl 1.533777 -13.815315 32.241017
Cl 4.604048 -16.885586 32.241017
Cl 1.533777 -10.745044 -32.234678
Cl 4.604048 -7.674772 -32.234678
Cl 1.533777 -7.674772 32.241017
Cl 4.604048 -10.745044 32.241017
Cl 1.533777 -4.604501 -32.234678
Cl 4.604048 -1.534230 -32.234678
Cl 1.533777 -1.534230 32.241017
Cl 4.604048 -4.604501 32.241017
Cl 1.533777 1.536041 -32.234678
Cl 4.604048 4.606312 -32.234678
Cl 1.533777 4.606312 32.241017
Cl 4.604048 1.536041 32.241017
Cl 1.533777 7.676584 -32.234678
Cl 4.604048 10.746855 -32.234678
Cl 1.533777 10.746855 32.241017
Cl 4.604048 7.676584 32.241017
Cl 1.533777 13.817126 -32.234678
Cl 4.604048 16.887397 -32.234678
Cl 1.533777 16.887397 32.241017
Cl 4.604048 13.817126 32.241017
Cl 1.533777 19.957668 -32.234678
Cl 4.604048 23.027940 29.170746
Cl 1.533777 23.027940 32.241017
Cl 4.604048 19.957668 32.241017
Cl 4.604048 29.168482 23.030204
Cl 1.533777 29.168482 26.100475
Cl 4.604048 26.098211 26.100475
Cl 1.533777 32.238753 -19.953593
Cl 1.533777 32.238753 -13.813051
Cl 4.604048 32.238753 -16.883322
Cl 1.533777 32.238753 -7.672508
Cl 4.604048 32.238753 -10.742779
Cl 1.533777 32.238753 -1.531966
Cl 4.604048 32.238753 -4.602237
Cl 1.533777 32.238753 4.608577
Cl 4.604048 32.238753 1.538305
Cl 1.533777 32.238753 10.749119
Cl 4.604048 32.238753 7.678848
Cl 1.533777 32.238753 16.889661
Cl 4.604048 32.238753 13.819390
Cl 1.533777 32.238753 23.030204
Cl 4.604048 32.238753 19.959933
Cl 7.674319 -32.236942 -16.883322
Cl 10.744591 -32.236942 -13.813051
Cl 7.674319 -32.236942 -10.742779
Cl 10.744591 -32.236942 -7.672508
Cl 7.674319 -32.236942 -4.602237
Cl 10.744591 -32.236942 -1.531966
Cl 7.674319 -32.236942 1.538305
Cl 10.744591 -32.236942 4.608577
Cl 7.674319 -32.236942 7.678848
Cl 10.744591 -32.236942 10.749119
Cl 7.674319 -32.236942 13.819390
Cl 7.674319 -26.096400 -23.023864
Cl 10.744591 -26.096400 -19.953593
Cl 10.744591 -29.166671 -16.883322
Cl 7.674319 -23.026128 -26.094135
Cl 7.674319 -19.955857 -29.164407
Cl 10.744591 -19.955857 -26.094135
Cl 10.744591 -23.026128 -23.023864
Cl 7.674319 -16.885586 -32.234678
Cl 10.744591 -13.815315 -32.234678
Cl 7.674319 -13.815315 32.241017
Cl 7.674319 -10.745044 -32.234678
Cl 10.744591 -7.674772 -32.234678
Cl 7.674319 -7.674772 32.241017
Cl 10.744591 -10.745044 32.241017
Cl 7.674319 -4.604501 -32.234678
Cl 10.744591 -1.534230 -32.234678
Cl 7.674319 -1.534230 32.241017
Cl 10.744591 -4.604501 32.241017
Cl 7.674319 1.536041 -32.234678
Cl 10.744591 4.606312 -32.234678
Cl 7.674319 4.606312 32.241017
Cl 10.744591 1.536041 32.241017
Cl 7.674319 7.676584 -32.234678
Cl 10.744591 10.746855 -32.234678
Cl 7.674319 10.746855 32.241017
Cl 10.744591 7.676584 32.241017
Cl 7.674319 13.817126 -32.234678
Cl 7.674319 16.887397 32.241017
Cl 10.744591 13.817126 32.241017
Cl 10.744591 23.027940 23.030204
Cl 7.674319 19.957668 29.170746
Cl 7.674319 23.027940 26.100475
Cl 10.744591 19.957668 26.100475
Cl 10.744591 29.168482 16.889661
Cl 7.674319 26.098211 23.030204
Cl 10.744591 26.098211 19.959933
Cl 7.674319 32.238753 -13.813051
Cl 7.674319 32.238753 -7.672508
Cl 10.744591 32.238753 -10.742779
Cl 7.674319 32.238753 -1.531966
Cl 10.744591 32.238753 -4.602237
Cl 7.674319 32.238753 4.608577
Cl 10.744591 32.238753 1.538305
Cl 7.674319 32.238753 10.749119
Cl 10.744591 32.238753 7.678848
Cl 7.674319 32.238753 16.889661
Cl 10.744591 32.238753 13.819390
Cl 13.814862 -32.236942 -10.742779
Cl 16.885133 -32.236942 -7.672508
Cl 13.814862 -32.236942 -4.602237
Cl 16.885133 -32.236942 -1.531966
Cl 13.814862 -32.236942 1.538305
Cl 16.885133 -32.236942 4.608577
Cl 13.814862 -32.236942 7.678848
Cl 13.814862 -29.166671 -13.813051
Cl 13.814862 -26.096400 -16.883322
Cl 16.885133 -26.096400 -13.813051
Cl 13.814862 -23.026128 -19.953593
Cl 13.814862 -19.955857 -23.023864
Cl 16.885133 -19.955857 -19.953593
Cl 16.885133 -23.026128 -16.883322
Cl 13.814862 -16.885586 -26.094135
Cl 13.814862 -13.815315 -29.164407
Cl 16.885133 -13.815315 -26.094135
Cl 16.885133 -16.885586 -23.023864
Cl 13.814862 -10.745044 -32.234678
Cl 16.885133 -7.674772 -32.234678
Cl 16.885133 -10.745044 -29.164407
Cl 13.814862 -7.674772 32.241017
Cl 13.814862 -4.604501 -32.234678
Cl 16.885133 -1.534230 -32.234678
Cl 13.814862 -1.534230 32.241017
Cl 16.885133 -4.604501 32.241017
Cl 13.814862 1.536041 -32.234678
Cl 16.885133 4.606312 -32.234678
Cl 13.814862 4.606312 32.241017
Cl 16.885133 1.536041 32.241017
Cl 13.814862 7.676584 -32.234678
Cl 16.885133 10.746855 29.170746
Cl 13.814862 10.746855 32.241017
Cl 16.885133 7.676584 32.241017
Cl 16.885133 16.887397 23.030204
Cl 13.814862 13.817126 29.170746
Cl 13.814862 16.887397 26.100475
Cl 16.885133 13.817126 26.100475
Cl 16.885133 23.027940 16.889661
Cl 13.814862 19.957668 23.030204
Cl 13.814862 23.027940 19.959933
Cl 16.885133 19.957668 19.959933
Cl 13.814862 26.098211 16.889661
Cl 13.814862 29.168482 13.819390
Cl 16.885133 26.098211 13.819390
Cl 13.814862 32.238753 -7.672508
Cl 13.814862 32.238753 -1.531966
Cl 16.885133 32.238753 -4.602237
Cl 13.814862 32.238753 4.608577
Cl 16.885133 32.238753 1.538305
Cl 13.814862 32.238753 10.749119
Cl 16.885133 32.238753 7.678848
Cl 19.955404 -32.236942 -4.602237
Cl 23.025675 -32.236942 -1.531966
Cl 19.955404 -32.236942 1.538305
Cl 19.955404 -29.166671 -7.672508
Cl 19.955404 -26.096400 -10.742779
Cl 23.025675 -26.096400 -7.672508
Cl 23.025675 -29.166671 -4.602237
Cl 19.955404 -23.026128 -13.813051
Cl 19.955404 -19.955857 -16.883322
Cl 23.025675 -19.955857 -13.813051
Cl 23.025675 -23.026128 -10.742779
Cl 19.955404 -16.885586 -19.953593
Cl 19.955404 -13.815315 -23.023864
Cl 23.025675 -13.815315 -19.953593
Cl 23.025675 -16.885586 -16.883322
Cl 19.955404 -10.745044 -26.094135
Cl 23.025675 -7.674772 -26.094135
Cl 23.025675 -10.745044 -23.023864
Cl 19.955404 -4.604501 -32.234678
Cl 23.025675 -1.534230 -32.234678
Cl 23.025675 -4.604501 -29.164407
Cl 19.955404 -1.534230 32.241017
Cl 19.955404 1.536041 -32.234678
Cl 23.025675 4.606312 29.170746
Cl 19.955404 4.606312 32.241017
Cl 23.025675 1.536041 32.241017
Cl 23.025675 10.746855 23.030204
Cl 19.955404 10.746855 26.100475
Cl 23.025675 7.676584 26.100475
Cl 23.025675 16.887397 16.889661
Cl 19.955404 13.817126 23.030204
Cl 19.955404 16.887397 19.959933
Cl 23.025675 13.817126 19.959933
Cl 23.025675 23.027940 10.749119
Cl 19.955404 19.957668 16.889661
Cl 19.955404 23.027940 13.819390
Cl 23.025675 19.957668 13.819390
Cl 23.025675 29.168482 4.608577
Cl 19.955404 26.098211 10.749119
Cl 19.955404 29.168482 7.678848
Cl 23.025675 26.098211 7.678848
Cl 19.955404 32.238753 -1.531966
Cl 19.955404 32.238753 4.608577
Cl 23.025675 32.238753 1.538305
Cl 26.095947 -26.096400 -4.602237
Cl 29.166218 -26.096400 -1.531966
Cl 26.095947 -23.026128 -7.672508
Cl 26.095947 -19.955857 -10.742779
Cl 29.166218 -23.026128 -4.602237
Cl 26.095947 -16.885586 -13.813051
Cl 26.095947 -13.815315 -16.883322
Cl 29.166218 -13.815315 -13.813051
Cl 29.166218 -16.885586 -10.742779
Cl 26.095947 -10.745044 -19.953593
Cl 26.095947 -7.674772 -23.023864
Cl 29.166218 -7.674772 -19.953593
Cl 26.095947 -4.604501 -26.094135
Cl 26.095947 -1.534230 -29.164407
Cl 29.166218 -4.604501 -23.023864
Cl 29.166218 4.606312 23.030204
Cl 26.095947 1.536041 29.170746
Cl 26.095947 4.606312 26.100475
Cl 26.095947 7.676584 23.030204
Cl 26.095947 10.746855 19.959933
Cl 29.166218 7.676584 19.959933
Cl 29.166218 16.887397 10.749119
Cl 26.095947 13.817126 16.889661
Cl 26.095947 16.887397 13.819390
Cl 29.166218 13.817126 13.819390
Cl 29.166218 23.027940 4.608577
Cl 26.095947 19.957668 10.749119
Cl 26.095947 23.027940 7.678848
Cl 26.095947 26.098211 4.608577
Cl 29.166218 26.098211 1.538305
Cl 32.236489 -23.026128 -1.531966
Cl 32.236489 -19.955857 -4.602237
Cl 32.236489 -19.955857 1.538305
Cl 32.236489 -16.885586 -7.672508
Cl 32.236489 -13.815315 -10.742779
Cl 32.236489 -16.885586 -1.531966
Cl 32.236489 -13.815315 -4.602237
Cl 32.236489 -16.885586 4.608577
Cl 32.236489 -13.815315 1.538305
Cl 32.236489 -13.815315 7.678848
Cl 32.236489 -10.745044 -13.813051
Cl 32.236489 -7.674772 -16.883322
Cl 32.236489 -10.745044 -7.672508
Cl 32.236489 -7.674772 -10.742779
Cl 32.236489 -10.745044 -1.531966
Cl 32.236489 -7.674772 -4.602237
Cl 32.236489 -10.745044 4.608577
Cl 32.236489 -7.674772 1.538305
Cl 32.236489 -10.745044 10.749119
Cl 32.236489 -7.674772 7.678848
Cl 32.236489 -7.674772 13.819390
Cl 32.236489 -4.604501 -19.953593
Cl 32.236489 -1.534230 -23.023864
Cl 32.236489 -4.604501 -13.813051
Cl 32.236489 -1.534230 -16.883322
Cl 32.236489 -4.604501 -7.672508
Cl 32.236489 -1.534230 -10.742779
Cl 32.236489 -4.604501 -1.531966
Cl 32.236489 -1.534230 -4.602237
Cl 32.236489 -4.604501 4.608577
Cl 32.236489 -1.534230 1.538305
Cl 32.236489 -4.604501 10.749119
Cl 32.236489 -1.534230 7.678848
Cl 32.236489 -4.604501 16.889661
Cl 32.236489 -1.534230 13.819390
Cl 32.236489 -1.534230 19.959933
Cl 32.236489 1.536041 -19.953593
Cl 32.236489 1.536041 -13.813051
Cl 32.236489 4.606312 -16.883322
Cl 32.236489 1.536041 -7.672508
Cl 32.236489 4.606312 -10.742779
Cl 32.236489 1.536041 -1.531966
Cl 32.236489 4.606312 -4.602237
Cl 32.236489 1.536041 4.608577
Cl 32.236489 4.606312 1.538305
Cl 32.236489 1.536041 10.749119
Cl 32.236489 4.606312 7.678848
Cl 32.236489 1.536041 16.889661
Cl 32.236489 4.606312 13.819390
Cl 32.236489 1.536041 23.030204
Cl 32.236489 4.606312 19.959933
Cl 32.236489 7.676584 -13.813051
Cl 32.236489 7.676584 -7.672508
Cl 32.236489 10.746855 -10.742779
Cl 32.236489 7.676584 -1.531966
Cl 32.236489 10.746855 -4.602237
Cl 32.236489 7.676584 4.608577
Cl 32.236489 10.746855 1.538305
Cl 32.236489 7.676584 10.749119
Cl 32.236489 10.746855 7.678848
Cl 32.236489 7.676584 16.889661
Cl 32.236489 10.746855 13.819390
Cl 32.236489 13.817126 -7.672508
Cl 32.236489 13.817126 -1.531966
Cl 32.236489 16.887397 -4.602237
Cl 32.236489 13.817126 4.608577
Cl 32.236489 16.887397 1.538305
Cl 32.236489 13.817126 10.749119
Cl 32.236489 16.887397 7.678848
Cl 32.236489 19.957668 -1.531966
Cl 32.236489 19.957668 4.608577
Cl 32.236489 23.027940 1.538305
