316
GaSb-Ga-Ga119Sb80Cl117-clean
Ga -9.162114 -9.162114 6.180907
Ga -9.162114 -3.024906 0.043698
Ga -9.162114 -6.093510 3.112303
Ga -9.162114 -3.024906 6.180907
Ga -9.162114 -6.093510 9.249511
Ga -9.162114 3.112303 -6.093510
Ga -9.162114 0.043698 -3.024906
Ga -9.162114 3.112303 0.043698
Ga -9.162114 0.043698 3.112303
Ga -9.162114 6.180907 -9.162114
Ga -9.162114 9.249511 -6.093510
Ga -9.162114 6.180907 -3.024906
Ga -3.024906 -9.162114 0.043698
Ga -6.093510 -9.162114 3.112303
Ga -3.024906 -9.162114 6.180907
Ga -6.093510 -9.162114 9.249511
Ga -3.024906 -3.024906 -6.093510
Ga -3.024906 -6.093510 -3.024906
Ga -6.093510 -3.024906 -3.024906
Ga -6.093510 -6.093510 0.043698
Ga -3.024906 -3.024906 0.043698
Ga -3.024906 -6.093510 3.112303
Ga -6.093510 -3.024906 3.112303
Ga -6.093510 -6.093510 6.180907
Ga -3.024906 -3.024906 6.180907
Ga -3.024906 -6.093510 9.249511
Ga -6.093510 -3.024906 9.249511
Ga -3.024906 0.043698 -9.162114
Ga -6.093510 3.112303 -9.162114
Ga -6.093510 0.043698 -6.093510
Ga -3.024906 3.112303 -6.093510
Ga -3.024906 0.043698 -3.024906
Ga -6.093510 3.112303 -3.024906
Ga -6.093510 0.043698 0.043698
Ga -3.024906 3.112303 0.043698
Ga -3.024906 0.043698 3.112303
Ga -6.093510 3.112303 3.112303
Ga -6.093510 0.043698 6.180907
Ga -3.024906 3.112303 6.180907
Ga -3.024906 0.043698 9.249511
Ga -3.024906 6.180907 -9.162114
Ga -6.093510 9.249511 -9.162114
Ga -6.093510 6.180907 -6.093510
Ga -3.024906 9.249511 -6.093510
Ga -3.024906 6.180907 -3.024906
Ga -6.093510 9.249511 -3.024906
Ga -6.093510 6.180907 0.043698
Ga -3.024906 9.249511 0.043698
Ga -3.024906 6.180907 3.112303
Ga 3.112303 -9.162114 -6.093510
Ga 0.043698 -9.162114 -3.024906
Ga 3.112303 -9.162114 0.043698
Ga 0.043698 -9.162114 3.112303
Ga 3.112303 -6.093510 -9.162114
Ga 0.043698 -3.024906 -9.162114
Ga 0.043698 -6.093510 -6.093510
Ga 3.112303 -3.024906 -6.093510
Ga 3.112303 -6.093510 -3.024906
Ga 0.043698 -3.024906 -3.024906
Ga 0.043698 -6.093510 0.043698
Ga 3.112303 -3.024906 0.043698
Ga 3.112303 -6.093510 3.112303
Ga 0.043698 -3.024906 3.112303
Ga 0.043698 -6.093510 6.180907
Ga 3.112303 -3.024906 6.180907
Ga 0.043698 -3.024906 9.249511
Ga 3.112303 0.043698 -9.162114
Ga 0.043698 3.112303 -9.162114
Ga 0.043698 0.043698 -6.093510
Ga 3.112303 3.112303 -6.093510
Ga 3.112303 0.043698 -3.024906
Ga 0.043698 3.112303 -3.024906
Ga 0.043698 0.043698 0.043698
Ga 3.112303 3.112303 0.043698
Ga 3.112303 0.043698 3.112303
Ga 0.043698 3.112303 3.112303
Ga 0.043698 0.043698 6.180907
Ga 3.112303 3.112303 6.180907
Ga 3.112303 0.043698 9.249511
Ga 0.043698 3.112303 9.249511
Ga 0.043698 6.180907 -6.093510
Ga 3.112303 6.180907 -3.024906
Ga 0.043698 9.249511 -3.024906
Ga 0.043698 6.180907 0.043698
Ga 3.112303 9.249511 0.043698
Ga 3.112303 6.180907 3.112303
Ga 0.043698 9.249511 3.112303
Ga 0.043698 6.180907 6.180907
Ga 3.112303 9.249511 6.180907
Ga 3.112303 6.180907 9.249511
Ga 6.180907 -9.162114 -9.162114
Ga 9.249511 -9.162114 -6.093510
Ga 6.180907 -9.162114 -3.024906
Ga 9.249511 -6.093510 -9.162114
Ga 6.180907 -3.024906 -9.162114
Ga 6.180907 -6.093510 -6.093510
Ga 9.249511 -3.024906 -6.093510
Ga 9.249511 -6.093510 -3.024906
Ga 6.180907 -3.024906 -3.024906
Ga 6.180907 -6.093510 0.043698
Ga 9.249511 -3.024906 0.043698
Ga 6.180907 -3.024906 3.112303
Ga 6.180907 0.043698 -6.093510
Ga 9.249511 0.043698 -3.024906
Ga 6.180907 3.112303 -3.024906
Ga 6.180907 0.043698 0.043698
Ga 9.249511 3.112303 0.043698
Ga 9.249511 0.043698 3.112303
Ga 6.180907 3.112303 3.112303
Ga 6.180907 0.043698 6.180907
Ga 9.249511 3.112303 6.180907
Ga 6.180907 3.112303 9.249511
Ga 6.180907 6.180907 0.043698
Ga 9.249511 6.180907 3.112303
Ga 6.180907 9.249511 3.112303
Ga 6.180907 6.180907 6.180907
Ga 9.249511 9.249511 6.180907
Ga 9.249511 6.180907 9.249511
Ga 6.180907 9.249511 9.249511
Sb -7.627812 -7.627812 4.646605
Sb -7.627812 -1.490604 -1.490604
Sb -7.627812 -1.490604 4.646605
Sb -7.627812 -4.559208 1.578001
Sb -7.627812 -4.559208 7.715209
Sb -7.627812 4.646605 -7.627812
Sb -7.627812 4.646605 -1.490604
Sb -7.627812 1.578001 -4.559208
Sb -7.627812 1.578001 1.578001
Sb -7.627812 7.715209 -4.559208
Sb -1.490604 -7.627812 -1.490604
Sb -4.559208 -7.627812 1.578001
Sb -1.490604 -7.627812 4.646605
Sb -4.559208 -7.627812 7.715209
Sb -1.490604 -1.490604 -7.627812
Sb -4.559208 -4.559208 -1.490604
Sb -4.559208 -1.490604 -4.559208
Sb -1.490604 -1.490604 -1.490604
Sb -1.490604 -4.559208 -4.559208
Sb -4.559208 -4.559208 4.646605
Sb -4.559208 -1.490604 1.578001
Sb -1.490604 -1.490604 4.646605
Sb -1.490604 -4.559208 1.578001
Sb -4.559208 -1.490604 7.715209
Sb -1.490604 -4.559208 7.715209
Sb -4.559208 1.578001 -7.627812
Sb -1.490604 4.646605 -7.627812
Sb -4.559208 1.578001 -1.490604
Sb -4.559208 4.646605 -4.559208
Sb -1.490604 4.646605 -1.490604
Sb -1.490604 1.578001 -4.559208
Sb -4.559208 1.578001 4.646605
Sb -4.559208 4.646605 1.578001
Sb -1.490604 4.646605 4.646605
Sb -1.490604 1.578001 1.578001
Sb -1.490604 1.578001 7.715209
Sb -4.559208 7.715209 -7.627812
Sb -4.559208 7.715209 -1.490604
Sb -1.490604 7.715209 -4.559208
Sb -1.490604 7.715209 1.578001
Sb 4.646605 -7.627812 -7.627812
Sb 1.578001 -7.627812 -4.559208
Sb 4.646605 -7.627812 -1.490604
Sb 1.578001 -7.627812 1.578001
Sb 1.578001 -4.559208 -7.627812
Sb 4.646605 -1.490604 -7.627812
Sb 1.578001 -4.559208 -1.490604
Sb 1.578001 -1.490604 -4.559208
Sb 4.646605 -1.490604 -1.490604
Sb 4.646605 -4.559208 -4.559208
Sb 1.578001 -4.559208 4.646605
Sb 1.578001 -1.490604 1.578001
Sb 4.646605 -1.490604 4.646605
Sb 4.646605 -4.559208 1.578001
Sb 1.578001 -1.490604 7.715209
Sb 1.578001 1.578001 -7.627812
Sb 1.578001 1.578001 -1.490604
Sb 1.578001 4.646605 -4.559208
Sb 4.646605 4.646605 -1.490604
Sb 4.646605 1.578001 -4.559208
Sb 1.578001 1.578001 4.646605
Sb 1.578001 4.646605 1.578001
Sb 4.646605 4.646605 4.646605
Sb 4.646605 1.578001 1.578001
Sb 1.578001 4.646605 7.715209
Sb 4.646605 1.578001 7.715209
Sb 1.578001 7.715209 -1.490604
Sb 1.578001 7.715209 4.646605
Sb 4.646605 7.715209 1.578001
Sb 4.646605 7.715209 7.715209
Sb 7.715209 -7.627812 -4.559208
Sb 7.715209 -4.559208 -7.627812
Sb 7.715209 -4.559208 -1.490604
Sb 7.715209 -1.490604 -4.559208
Sb 7.715209 -1.490604 1.578001
Sb 7.715209 1.578001 -1.490604
Sb 7.715209 1.578001 4.646605
Sb 7.715209 4.646605 1.578001
Sb 7.715209 4.646605 7.715209
Sb 7.715209 7.715209 4.646605
Cl -10.696417 -7.627812 7.715209
Cl -7.627812 -7.627812 10.783814
Cl -7.627812 -10.696417 7.715209
Cl -10.696417 -4.559208 4.646605
Cl -10.696417 -1.490604 1.578001
Cl -10.696417 1.578001 -1.490604
Cl -10.696417 4.646605 -4.559208
Cl -10.696417 7.715209 -7.627812
Cl -7.627812 10.783814 -7.627812
Cl -7.627812 7.715209 -10.696417
Cl -4.559208 -10.696417 4.646605
Cl -1.490604 -10.696417 1.578001
Cl -4.559208 -4.559208 10.783814
Cl -1.490604 -1.490604 10.783814
Cl -4.559208 4.646605 -10.696417
Cl -1.490604 1.578001 -10.696417
Cl -4.559208 10.783814 -4.559208
Cl -1.490604 10.783814 -1.490604
Cl 1.578001 -10.696417 -1.490604
Cl 4.646605 -10.696417 -4.559208
Cl 1.578001 -1.490604 -10.696417
Cl 4.646605 -4.559208 -10.696417
Cl 1.578001 1.578001 10.783814
Cl 4.646605 4.646605 10.783814
Cl 1.578001 10.783814 1.578001
Cl 4.646605 10.783814 4.646605
Cl 7.715209 -10.696417 -7.627812
Cl 7.715209 -7.627812 -10.696417
Cl 10.783814 -7.627812 -7.627812
Cl 10.783814 -1.490604 -1.490604
Cl 10.783814 -4.559208 -4.559208
Cl 10.783814 4.646605 4.646605
Cl 10.783814 1.578001 1.578001
Cl 7.715209 7.715209 10.783814
Cl 7.715209 10.783814 7.715209
Cl 10.783814 7.715209 7.715209
Cl -4.559208 -4.559208 -7.627812
Cl -7.627812 4.646605 4.646605
Cl 4.646605 -7.627812 4.646605
Cl 4.646605 4.646605 -7.627812
Cl -10.696417 -10.696417 4.646605
Cl 10.783814 10.783814 4.646605
Cl 10.783814 4.646605 10.783814
Cl 4.646605 10.783814 10.783814
Cl -10.696417 -4.559208 10.783814
Cl -10.696417 4.646605 -10.696417
Cl -4.559208 -10.696417 10.783814
Cl -4.559208 10.783814 -10.696417
Cl -10.696417 10.783814 -4.559208
Cl 4.646605 -10.696417 -10.696417
Cl 10.783814 -10.696417 -4.559208
Cl 10.783814 -4.559208 -10.696417
Cl -10.696417 -4.559208 -1.490604
Cl 4.646605 -1.490604 10.783814
Cl -1.490604 4.646605 10.783814
Cl 4.646605 10.783814 -1.490604
Cl -4.559208 -10.696417 -1.490604
Cl -1.490604 10.783814 4.646605
Cl 10.783814 4.646605 -1.490604
Cl 10.783814 -1.490604 4.646605
Cl -10.696417 4.646605 1.578001
Cl -4.559208 -1.490604 -10.696417
Cl 4.646605 -10.696417 1.578001
Cl 4.646605 1.578001 -10.696417
Cl -1.490604 -7.627812 10.783814
Cl -7.627812 -1.490604 10.783814
Cl -1.490604 10.783814 -7.627812
Cl 1.578001 -10.696417 -7.627812
Cl -10.696417 1.578001 -7.627812
Cl -7.627812 10.783814 -1.490604
Cl 10.783814 -1.490604 -7.627812
Cl 10.783814 -7.627812 -1.490604
Cl -7.627812 -10.696417 1.578001
Cl 1.578001 7.715209 10.783814
Cl 7.715209 1.578001 10.783814
Cl 7.715209 10.783814 1.578001
Cl -10.696417 -1.490604 7.715209
Cl -1.490604 -10.696417 7.715209
Cl -1.490604 7.715209 -10.696417
Cl 1.578001 -7.627812 -10.696417
Cl -10.696417 -1.490604 -4.559208
Cl -4.559208 10.783814 1.578001
Cl 10.783814 -4.559208 1.578001
Cl 10.783814 1.578001 -4.559208
Cl -4.559208 1.578001 10.783814
Cl -1.490604 -10.696417 -4.559208
Cl 1.578001 -4.559208 10.783814
Cl 1.578001 10.783814 -4.559208
Cl -10.696417 -7.627812 1.578001
Cl 1.578001 10.783814 7.715209
Cl 10.783814 1.578001 7.715209
Cl 10.783814 7.715209 1.578001
Cl -10.696417 7.715209 -1.490604
Cl -7.627812 1.578001 -10.696417
Cl 7.715209 -10.696417 -1.490604
Cl 7.715209 -1.490604 -10.696417
Cl -10.696417 1.578001 4.646605
Cl 1.578001 -10.696417 4.646605
Cl -1.490604 -4.559208 -10.696417
Cl 1.578001 4.646605 -10.696417
Cl -4.559208 -7.627812 -4.559208
Cl -4.559208 4.646605 7.715209
Cl 4.646605 -4.559208 7.715209
Cl 4.646605 7.715209 -4.559208
Cl -7.627812 -4.559208 -4.559208
Cl -4.559208 7.715209 4.646605
Cl 7.715209 -4.559208 4.646605
Cl 7.715209 4.646605 -4.559208
Cl -7.627812 -7.627812 -1.490604
Cl -7.627812 1.578001 7.715209
Cl 1.578001 -7.627812 7.715209
Cl 1.578001 7.715209 -7.627812
Cl -7.627812 -1.490604 -7.627812
Cl -7.627812 7.715209 1.578001
Cl 7.715209 -7.627812 1.578001
Cl 7.715209 1.578001 -7.627812
Cl -1.490604 -7.627812 -7.627812
