2509
CdS-S-Cd1216S1139Cl154-clean
Cd -22.067459 -10.297991 -1.469131
Cd -22.067459 -13.240945 1.473823
Cd -22.067459 -10.297991 4.416776
Cd -22.067459 -4.412084 -7.355038
Cd -22.067459 -7.355038 -4.412084
Cd -22.067459 -4.412084 -1.469131
Cd -22.067459 -7.355038 1.473823
Cd -22.067459 -4.412084 4.416776
Cd -22.067459 -7.355038 7.359730
Cd -22.067459 -4.412084 10.302683
Cd -22.067459 1.473823 -13.240945
Cd -22.067459 -1.469131 -10.297991
Cd -22.067459 1.473823 -7.355038
Cd -22.067459 -1.469131 -4.412084
Cd -22.067459 1.473823 -1.469131
Cd -22.067459 -1.469131 1.473823
Cd -22.067459 1.473823 4.416776
Cd -22.067459 -1.469131 7.359730
Cd -22.067459 1.473823 10.302683
Cd -22.067459 -1.469131 13.245637
Cd -22.067459 4.416776 -10.297991
Cd -22.067459 7.359730 -7.355038
Cd -22.067459 4.416776 -4.412084
Cd -22.067459 7.359730 -1.469131
Cd -22.067459 4.416776 1.473823
Cd -22.067459 7.359730 4.416776
Cd -22.067459 4.416776 7.359730
Cd -22.067459 10.302683 -4.412084
Cd -22.067459 13.245637 -1.469131
Cd -22.067459 10.302683 1.473823
Cd -16.181552 -16.183898 -1.469131
Cd -16.181552 -19.126852 1.473823
Cd -19.124506 -16.183898 1.473823
Cd -16.181552 -16.183898 4.416776
Cd -16.181552 -10.297991 -7.355038
Cd -16.181552 -13.240945 -4.412084
Cd -19.124506 -10.297991 -4.412084
Cd -19.124506 -13.240945 -1.469131
Cd -16.181552 -10.297991 -1.469131
Cd -16.181552 -13.240945 1.473823
Cd -19.124506 -10.297991 1.473823
Cd -19.124506 -13.240945 4.416776
Cd -16.181552 -10.297991 4.416776
Cd -16.181552 -13.240945 7.359730
Cd -19.124506 -10.297991 7.359730
Cd -16.181552 -10.297991 10.302683
Cd -16.181552 -4.412084 -13.240945
Cd -16.181552 -7.355038 -10.297991
Cd -19.124506 -4.412084 -10.297991
Cd -19.124506 -7.355038 -7.355038
Cd -16.181552 -4.412084 -7.355038
Cd -16.181552 -7.355038 -4.412084
Cd -19.124506 -4.412084 -4.412084
Cd -19.124506 -7.355038 -1.469131
Cd -16.181552 -4.412084 -1.469131
Cd -16.181552 -7.355038 1.473823
Cd -19.124506 -4.412084 1.473823
Cd -19.124506 -7.355038 4.416776
Cd -16.181552 -4.412084 4.416776
Cd -16.181552 -7.355038 7.359730
Cd -19.124506 -4.412084 7.359730
Cd -19.124506 -7.355038 10.302683
Cd -16.181552 -4.412084 10.302683
Cd -16.181552 -7.355038 13.245637
Cd -19.124506 -4.412084 13.245637
Cd -16.181552 -4.412084 16.188590
Cd -16.181552 1.473823 -19.126852
Cd -16.181552 -1.469131 -16.183898
Cd -19.124506 1.473823 -16.183898
Cd -19.124506 -1.469131 -13.240945
Cd -16.181552 1.473823 -13.240945
Cd -16.181552 -1.469131 -10.297991
Cd -19.124506 1.473823 -10.297991
Cd -19.124506 -1.469131 -7.355038
Cd -16.181552 1.473823 -7.355038
Cd -16.181552 -1.469131 -4.412084
Cd -19.124506 1.473823 -4.412084
Cd -19.124506 -1.469131 -1.469131
Cd -16.181552 1.473823 -1.469131
Cd -16.181552 -1.469131 1.473823
Cd -19.124506 1.473823 1.473823
Cd -19.124506 -1.469131 4.416776
Cd -16.181552 1.473823 4.416776
Cd -16.181552 -1.469131 7.359730
Cd -19.124506 1.473823 7.359730
Cd -19.124506 -1.469131 10.302683
Cd -16.181552 1.473823 10.302683
Cd -16.181552 -1.469131 13.245637
Cd -19.124506 1.473823 13.245637
Cd -19.124506 -1.469131 16.188590
Cd -16.181552 1.473823 16.188590
Cd -16.181552 -1.469131 19.131543
Cd -16.181552 4.416776 -16.183898
Cd -19.124506 4.416776 -13.240945
Cd -16.181552 7.359730 -13.240945
Cd -16.181552 4.416776 -10.297991
Cd -19.124506 7.359730 -10.297991
Cd -19.124506 4.416776 -7.355038
Cd -16.181552 7.359730 -7.355038
Cd -16.181552 4.416776 -4.412084
Cd -19.124506 7.359730 -4.412084
Cd -19.124506 4.416776 -1.469131
Cd -16.181552 7.359730 -1.469131
Cd -16.181552 4.416776 1.473823
Cd -19.124506 7.359730 1.473823
Cd -19.124506 4.416776 4.416776
Cd -16.181552 7.359730 4.416776
Cd -16.181552 4.416776 7.359730
Cd -19.124506 7.359730 7.359730
Cd -19.124506 4.416776 10.302683
Cd -16.181552 7.359730 10.302683
Cd -16.181552 4.416776 13.245637
Cd -16.181552 10.302683 -10.297991
Cd -19.124506 10.302683 -7.355038
Cd -16.181552 13.245637 -7.355038
Cd -16.181552 10.302683 -4.412084
Cd -19.124506 13.245637 -4.412084
Cd -19.124506 10.302683 -1.469131
Cd -16.181552 13.245637 -1.469131
Cd -16.181552 10.302683 1.473823
Cd -19.124506 13.245637 1.473823
Cd -19.124506 10.302683 4.416776
Cd -16.181552 13.245637 4.416776
Cd -16.181552 10.302683 7.359730
Cd -16.181552 16.188590 -4.412084
Cd -19.124506 16.188590 -1.469131
Cd -16.181552 19.131543 -1.469131
Cd -16.181552 16.188590 1.473823
Cd -10.295645 -22.069805 -1.469131
Cd -13.238599 -22.069805 1.473823
Cd -10.295645 -22.069805 4.416776
Cd -10.295645 -16.183898 -7.355038
Cd -10.295645 -19.126852 -4.412084
Cd -13.238599 -16.183898 -4.412084
Cd -13.238599 -19.126852 -1.469131
Cd -10.295645 -16.183898 -1.469131
Cd -10.295645 -19.126852 1.473823
Cd -13.238599 -16.183898 1.473823
Cd -13.238599 -19.126852 4.416776
Cd -10.295645 -16.183898 4.416776
Cd -10.295645 -19.126852 7.359730
Cd -13.238599 -16.183898 7.359730
Cd -10.295645 -16.183898 10.302683
Cd -10.295645 -10.297991 -13.240945
Cd -10.295645 -13.240945 -10.297991
Cd -13.238599 -10.297991 -10.297991
Cd -13.238599 -13.240945 -7.355038
Cd -10.295645 -10.297991 -7.355038
Cd -10.295645 -13.240945 -4.412084
Cd -13.238599 -10.297991 -4.412084
Cd -13.238599 -13.240945 -1.469131
Cd -10.295645 -10.297991 -1.469131
Cd -10.295645 -13.240945 1.473823
Cd -13.238599 -10.297991 1.473823
Cd -13.238599 -13.240945 4.416776
Cd -10.295645 -10.297991 4.416776
Cd -10.295645 -13.240945 7.359730
Cd -13.238599 -10.297991 7.359730
Cd -13.238599 -13.240945 10.302683
Cd -10.295645 -10.297991 10.302683
Cd -10.295645 -13.240945 13.245637
Cd -13.238599 -10.297991 13.245637
Cd -10.295645 -10.297991 16.188590
Cd -10.295645 -4.412084 -19.126852
Cd -10.295645 -7.355038 -16.183898
Cd -13.238599 -4.412084 -16.183898
Cd -13.238599 -7.355038 -13.240945
Cd -10.295645 -4.412084 -13.240945
Cd -10.295645 -7.355038 -10.297991
Cd -13.238599 -4.412084 -10.297991
Cd -13.238599 -7.355038 -7.355038
Cd -10.295645 -4.412084 -7.355038
Cd -10.295645 -7.355038 -4.412084
Cd -13.238599 -4.412084 -4.412084
Cd -13.238599 -7.355038 -1.469131
Cd -10.295645 -4.412084 -1.469131
Cd -10.295645 -7.355038 1.473823
Cd -13.238599 -4.412084 1.473823
Cd -13.238599 -7.355038 4.416776
Cd -10.295645 -4.412084 4.416776
Cd -10.295645 -7.355038 7.359730
Cd -13.238599 -4.412084 7.359730
Cd -13.238599 -7.355038 10.302683
Cd -10.295645 -4.412084 10.302683
Cd -10.295645 -7.355038 13.245637
Cd -13.238599 -4.412084 13.245637
Cd -13.238599 -7.355038 16.188590
Cd -10.295645 -4.412084 16.188590
Cd -10.295645 -7.355038 19.131543
Cd -13.238599 -4.412084 19.131543
Cd -10.295645 -4.412084 22.074497
Cd -10.295645 -1.469131 -22.069805
Cd -13.238599 1.473823 -22.069805
Cd -13.238599 -1.469131 -19.126852
Cd -10.295645 1.473823 -19.126852
Cd -10.295645 -1.469131 -16.183898
Cd -13.238599 1.473823 -16.183898
Cd -13.238599 -1.469131 -13.240945
Cd -10.295645 1.473823 -13.240945
Cd -10.295645 -1.469131 -10.297991
Cd -13.238599 1.473823 -10.297991
Cd -13.238599 -1.469131 -7.355038
Cd -10.295645 1.473823 -7.355038
Cd -10.295645 -1.469131 -4.412084
Cd -13.238599 1.473823 -4.412084
Cd -13.238599 -1.469131 -1.469131
Cd -10.295645 1.473823 -1.469131
Cd -10.295645 -1.469131 1.473823
Cd -13.238599 1.473823 1.473823
Cd -13.238599 -1.469131 4.416776
Cd -10.295645 1.473823 4.416776
Cd -10.295645 -1.469131 7.359730
Cd -13.238599 1.473823 7.359730
Cd -13.238599 -1.469131 10.302683
Cd -10.295645 1.473823 10.302683
Cd -10.295645 -1.469131 13.245637
Cd -13.238599 1.473823 13.245637
Cd -13.238599 -1.469131 16.188590
Cd -10.295645 1.473823 16.188590
Cd -10.295645 -1.469131 19.131543
Cd -13.238599 1.473823 19.131543
Cd -13.238599 -1.469131 22.074497
Cd -10.295645 1.473823 22.074497
Cd -10.295645 4.416776 -22.069805
Cd -13.238599 4.416776 -19.126852
Cd -10.295645 7.359730 -19.126852
Cd -10.295645 4.416776 -16.183898
Cd -13.238599 7.359730 -16.183898
Cd -13.238599 4.416776 -13.240945
Cd -10.295645 7.359730 -13.240945
Cd -10.295645 4.416776 -10.297991
Cd -13.238599 7.359730 -10.297991
Cd -13.238599 4.416776 -7.355038
Cd -10.295645 7.359730 -7.355038
Cd -10.295645 4.416776 -4.412084
Cd -13.238599 7.359730 -4.412084
Cd -13.238599 4.416776 -1.469131
Cd -10.295645 7.359730 -1.469131
Cd -10.295645 4.416776 1.473823
Cd -13.238599 7.359730 1.473823
Cd -13.238599 4.416776 4.416776
Cd -10.295645 7.359730 4.416776
Cd -10.295645 4.416776 7.359730
Cd -13.238599 7.359730 7.359730
Cd -13.238599 4.416776 10.302683
Cd -10.295645 7.359730 10.302683
Cd -10.295645 4.416776 13.245637
Cd -13.238599 7.359730 13.245637
Cd -13.238599 4.416776 16.188590
Cd -10.295645 7.359730 16.188590
Cd -10.295645 4.416776 19.131543
Cd -10.295645 10.302683 -16.183898
Cd -13.238599 10.302683 -13.240945
Cd -10.295645 13.245637 -13.240945
Cd -10.295645 10.302683 -10.297991
Cd -13.238599 13.245637 -10.297991
Cd -13.238599 10.302683 -7.355038
Cd -10.295645 13.245637 -7.355038
Cd -10.295645 10.302683 -4.412084
Cd -13.238599 13.245637 -4.412084
Cd -13.238599 10.302683 -1.469131
Cd -10.295645 13.245637 -1.469131
Cd -10.295645 10.302683 1.473823
Cd -13.238599 13.245637 1.473823
Cd -13.238599 10.302683 4.416776
Cd -10.295645 13.245637 4.416776
Cd -10.295645 10.302683 7.359730
Cd -13.238599 13.245637 7.359730
Cd -13.238599 10.302683 10.302683
Cd -10.295645 13.245637 10.302683
Cd -10.295645 10.302683 13.245637
Cd -10.295645 16.188590 -10.297991
Cd -13.238599 16.188590 -7.355038
Cd -10.295645 19.131543 -7.355038
Cd -10.295645 16.188590 -4.412084
Cd -13.238599 19.131543 -4.412084
Cd -13.238599 16.188590 -1.469131
Cd -10.295645 19.131543 -1.469131
Cd -10.295645 16.188590 1.473823
Cd -13.238599 19.131543 1.473823
Cd -13.238599 16.188590 4.416776
Cd -10.295645 19.131543 4.416776
Cd -10.295645 16.188590 7.359730
Cd -10.295645 22.074497 -4.412084
Cd -13.238599 22.074497 -1.469131
Cd -10.295645 22.074497 1.473823
Cd -4.409738 -22.069805 -7.355038
Cd -7.352692 -22.069805 -4.412084
Cd -4.409738 -22.069805 -1.469131
Cd -7.352692 -22.069805 1.473823
Cd -4.409738 -22.069805 4.416776
Cd -7.352692 -22.069805 7.359730
Cd -4.409738 -22.069805 10.302683
Cd -4.409738 -16.183898 -13.240945
Cd -4.409738 -19.126852 -10.297991
Cd -7.352692 -16.183898 -10.297991
Cd -7.352692 -19.126852 -7.355038
Cd -4.409738 -16.183898 -7.355038
Cd -4.409738 -19.126852 -4.412084
Cd -7.352692 -16.183898 -4.412084
Cd -7.352692 -19.126852 -1.469131
Cd -4.409738 -16.183898 -1.469131
Cd -4.409738 -19.126852 1.473823
Cd -7.352692 -16.183898 1.473823
Cd -7.352692 -19.126852 4.416776
Cd -4.409738 -16.183898 4.416776
Cd -4.409738 -19.126852 7.359730
Cd -7.352692 -16.183898 7.359730
Cd -7.352692 -19.126852 10.302683
Cd -4.409738 -16.183898 10.302683
Cd -4.409738 -19.126852 13.245637
Cd -7.352692 -16.183898 13.245637
Cd -4.409738 -16.183898 16.188590
Cd -4.409738 -10.297991 -19.126852
Cd -4.409738 -13.240945 -16.183898
Cd -7.352692 -10.297991 -16.183898
Cd -7.352692 -13.240945 -13.240945
Cd -4.409738 -10.297991 -13.240945
Cd -4.409738 -13.240945 -10.297991
Cd -7.352692 -10.297991 -10.297991
Cd -7.352692 -13.240945 -7.355038
Cd -4.409738 -10.297991 -7.355038
Cd -4.409738 -13.240945 -4.412084
Cd -7.352692 -10.297991 -4.412084
Cd -7.352692 -13.240945 -1.469131
Cd -4.409738 -10.297991 -1.469131
Cd -4.409738 -13.240945 1.473823
Cd -7.352692 -10.297991 1.473823
Cd -7.352692 -13.240945 4.416776
Cd -4.409738 -10.297991 4.416776
Cd -4.409738 -13.240945 7.359730
Cd -7.352692 -10.297991 7.359730
Cd -7.352692 -13.240945 10.302683
Cd -4.409738 -10.297991 10.302683
Cd -4.409738 -13.240945 13.245637
Cd -7.352692 -10.297991 13.245637
Cd -7.352692 -13.240945 16.188590
Cd -4.409738 -10.297991 16.188590
Cd -4.409738 -13.240945 19.131543
Cd -7.352692 -10.297991 19.131543
Cd -4.409738 -10.297991 22.074497
Cd -4.409738 -7.355038 -22.069805
Cd -7.352692 -4.412084 -22.069805
Cd -7.352692 -7.355038 -19.126852
Cd -4.409738 -4.412084 -19.126852
Cd -4.409738 -7.355038 -16.183898
Cd -7.352692 -4.412084 -16.183898
Cd -7.352692 -7.355038 -13.240945
Cd -4.409738 -4.412084 -13.240945
Cd -4.409738 -7.355038 -10.297991
Cd -7.352692 -4.412084 -10.297991
Cd -7.352692 -7.355038 -7.355038
Cd -4.409738 -4.412084 -7.355038
Cd -4.409738 -7.355038 -4.412084
Cd -7.352692 -4.412084 -4.412084
Cd -7.352692 -7.355038 -1.469131
Cd -4.409738 -4.412084 -1.469131
Cd -4.409738 -7.355038 1.473823
Cd -7.352692 -4.412084 1.473823
Cd -7.352692 -7.355038 4.416776
Cd -4.409738 -4.412084 4.416776
Cd -4.409738 -7.355038 7.359730
Cd -7.352692 -4.412084 7.359730
Cd -7.352692 -7.355038 10.302683
Cd -4.409738 -4.412084 10.302683
Cd -4.409738 -7.355038 13.245637
Cd -7.352692 -4.412084 13.245637
Cd -7.352692 -7.355038 16.188590
Cd -4.409738 -4.412084 16.188590
Cd -4.409738 -7.355038 19.131543
Cd -7.352692 -4.412084 19.131543
Cd -7.352692 -7.355038 22.074497
Cd -4.409738 -4.412084 22.074497
Cd -4.409738 -1.469131 -22.069805
Cd -7.352692 1.473823 -22.069805
Cd -7.352692 -1.469131 -19.126852
Cd -4.409738 1.473823 -19.126852
Cd -4.409738 -1.469131 -16.183898
Cd -7.352692 1.473823 -16.183898
Cd -7.352692 -1.469131 -13.240945
Cd -4.409738 1.473823 -13.240945
Cd -4.409738 -1.469131 -10.297991
Cd -7.352692 1.473823 -10.297991
Cd -7.352692 -1.469131 -7.355038
Cd -4.409738 1.473823 -7.355038
Cd -4.409738 -1.469131 -4.412084
Cd -7.352692 1.473823 -4.412084
Cd -7.352692 -1.469131 -1.469131
Cd -4.409738 1.473823 -1.469131
Cd -4.409738 -1.469131 1.473823
Cd -7.352692 1.473823 1.473823
Cd -7.352692 -1.469131 4.416776
Cd -4.409738 1.473823 4.416776
Cd -4.409738 -1.469131 7.359730
Cd -7.352692 1.473823 7.359730
Cd -7.352692 -1.469131 10.302683
Cd -4.409738 1.473823 10.302683
Cd -4.409738 -1.469131 13.245637
Cd -7.352692 1.473823 13.245637
Cd -7.352692 -1.469131 16.188590
Cd -4.409738 1.473823 16.188590
Cd -4.409738 -1.469131 19.131543
Cd -7.352692 1.473823 19.131543
Cd -7.352692 -1.469131 22.074497
Cd -4.409738 1.473823 22.074497
Cd -4.409738 4.416776 -22.069805
Cd -7.352692 7.359730 -22.069805
Cd -7.352692 4.416776 -19.126852
Cd -4.409738 7.359730 -19.126852
Cd -4.409738 4.416776 -16.183898
Cd -7.352692 7.359730 -16.183898
Cd -7.352692 4.416776 -13.240945
Cd -4.409738 7.359730 -13.240945
Cd -4.409738 4.416776 -10.297991
Cd -7.352692 7.359730 -10.297991
Cd -7.352692 4.416776 -7.355038
Cd -4.409738 7.359730 -7.355038
Cd -4.409738 4.416776 -4.412084
Cd -7.352692 7.359730 -4.412084
Cd -7.352692 4.416776 -1.469131
Cd -4.409738 7.359730 -1.469131
Cd -4.409738 4.416776 1.473823
Cd -7.352692 7.359730 1.473823
Cd -7.352692 4.416776 4.416776
Cd -4.409738 7.359730 4.416776
Cd -4.409738 4.416776 7.359730
Cd -7.352692 7.359730 7.359730
Cd -7.352692 4.416776 10.302683
Cd -4.409738 7.359730 10.302683
Cd -4.409738 4.416776 13.245637
Cd -7.352692 7.359730 13.245637
Cd -7.352692 4.416776 16.188590
Cd -4.409738 7.359730 16.188590
Cd -4.409738 4.416776 19.131543
Cd -7.352692 7.359730 19.131543
Cd -7.352692 4.416776 22.074497
Cd -4.409738 7.359730 22.074497
Cd -4.409738 10.302683 -22.069805
Cd -7.352692 10.302683 -19.126852
Cd -4.409738 13.245637 -19.126852
Cd -4.409738 10.302683 -16.183898
Cd -7.352692 13.245637 -16.183898
Cd -7.352692 10.302683 -13.240945
Cd -4.409738 13.245637 -13.240945
Cd -4.409738 10.302683 -10.297991
Cd -7.352692 13.245637 -10.297991
Cd -7.352692 10.302683 -7.355038
Cd -4.409738 13.245637 -7.355038
Cd -4.409738 10.302683 -4.412084
Cd -7.352692 13.245637 -4.412084
Cd -7.352692 10.302683 -1.469131
Cd -4.409738 13.245637 -1.469131
Cd -4.409738 10.302683 1.473823
Cd -7.352692 13.245637 1.473823
Cd -7.352692 10.302683 4.416776
Cd -4.409738 13.245637 4.416776
Cd -4.409738 10.302683 7.359730
Cd -7.352692 13.245637 7.359730
Cd -7.352692 10.302683 10.302683
Cd -4.409738 13.245637 10.302683
Cd -4.409738 10.302683 13.245637
Cd -7.352692 13.245637 13.245637
Cd -7.352692 10.302683 16.188590
Cd -4.409738 13.245637 16.188590
Cd -4.409738 10.302683 19.131543
Cd -4.409738 16.188590 -16.183898
Cd -7.352692 16.188590 -13.240945
Cd -4.409738 19.131543 -13.240945
Cd -4.409738 16.188590 -10.297991
Cd -7.352692 19.131543 -10.297991
Cd -7.352692 16.188590 -7.355038
Cd -4.409738 19.131543 -7.355038
Cd -4.409738 16.188590 -4.412084
Cd -7.352692 19.131543 -4.412084
Cd -7.352692 16.188590 -1.469131
Cd -4.409738 19.131543 -1.469131
Cd -4.409738 16.188590 1.473823
Cd -7.352692 19.131543 1.473823
Cd -7.352692 16.188590 4.416776
Cd -4.409738 19.131543 4.416776
Cd -4.409738 16.188590 7.359730
Cd -7.352692 19.131543 7.359730
Cd -7.352692 16.188590 10.302683
Cd -4.409738 19.131543 10.302683
Cd -4.409738 16.188590 13.245637
Cd -4.409738 22.074497 -10.297991
Cd -7.352692 22.074497 -7.355038
Cd -4.409738 22.074497 -4.412084
Cd -7.352692 22.074497 -1.469131
Cd -4.409738 22.074497 1.473823
Cd -7.352692 22.074497 4.416776
Cd -4.409738 22.074497 7.359730
Cd 1.476169 -22.069805 -13.240945
Cd -1.466785 -22.069805 -10.297991
Cd 1.476169 -22.069805 -7.355038
Cd -1.466785 -22.069805 -4.412084
Cd 1.476169 -22.069805 -1.469131
Cd -1.466785 -22.069805 1.473823
Cd 1.476169 -22.069805 4.416776
Cd -1.466785 -22.069805 7.359730
Cd 1.476169 -22.069805 10.302683
Cd -1.466785 -22.069805 13.245637
Cd 1.476169 -16.183898 -19.126852
Cd 1.476169 -19.126852 -16.183898
Cd -1.466785 -16.183898 -16.183898
Cd -1.466785 -19.126852 -13.240945
Cd 1.476169 -16.183898 -13.240945
Cd 1.476169 -19.126852 -10.297991
Cd -1.466785 -16.183898 -10.297991
Cd -1.466785 -19.126852 -7.355038
Cd 1.476169 -16.183898 -7.355038
Cd 1.476169 -19.126852 -4.412084
Cd -1.466785 -16.183898 -4.412084
Cd -1.466785 -19.126852 -1.469131
Cd 1.476169 -16.183898 -1.469131
Cd 1.476169 -19.126852 1.473823
Cd -1.466785 -16.183898 1.473823
Cd -1.466785 -19.126852 4.416776
Cd 1.476169 -16.183898 4.416776
Cd 1.476169 -19.126852 7.359730
Cd -1.466785 -16.183898 7.359730
Cd -1.466785 -19.126852 10.302683
Cd 1.476169 -16.183898 10.302683
Cd 1.476169 -19.126852 13.245637
Cd -1.466785 -16.183898 13.245637
Cd -1.466785 -19.126852 16.188590
Cd 1.476169 -16.183898 16.188590
Cd -1.466785 -16.183898 19.131543
Cd 1.476169 -13.240945 -22.069805
Cd -1.466785 -10.297991 -22.069805
Cd -1.466785 -13.240945 -19.126852
Cd 1.476169 -10.297991 -19.126852
Cd 1.476169 -13.240945 -16.183898
Cd -1.466785 -10.297991 -16.183898
Cd -1.466785 -13.240945 -13.240945
Cd 1.476169 -10.297991 -13.240945
Cd 1.476169 -13.240945 -10.297991
Cd -1.466785 -10.297991 -10.297991
Cd -1.466785 -13.240945 -7.355038
Cd 1.476169 -10.297991 -7.355038
Cd 1.476169 -13.240945 -4.412084
Cd -1.466785 -10.297991 -4.412084
Cd -1.466785 -13.240945 -1.469131
Cd 1.476169 -10.297991 -1.469131
Cd 1.476169 -13.240945 1.473823
Cd -1.466785 -10.297991 1.473823
Cd -1.466785 -13.240945 4.416776
Cd 1.476169 -10.297991 4.416776
Cd 1.476169 -13.240945 7.359730
Cd -1.466785 -10.297991 7.359730
Cd -1.466785 -13.240945 10.302683
Cd 1.476169 -10.297991 10.302683
Cd 1.476169 -13.240945 13.245637
Cd -1.466785 -10.297991 13.245637
Cd -1.466785 -13.240945 16.188590
Cd 1.476169 -10.297991 16.188590
Cd 1.476169 -13.240945 19.131543
Cd -1.466785 -10.297991 19.131543
Cd -1.466785 -13.240945 22.074497
Cd 1.476169 -10.297991 22.074497
Cd 1.476169 -7.355038 -22.069805
Cd -1.466785 -4.412084 -22.069805
Cd -1.466785 -7.355038 -19.126852
Cd 1.476169 -4.412084 -19.126852
Cd 1.476169 -7.355038 -16.183898
Cd -1.466785 -4.412084 -16.183898
Cd -1.466785 -7.355038 -13.240945
Cd 1.476169 -4.412084 -13.240945
Cd 1.476169 -7.355038 -10.297991
Cd -1.466785 -4.412084 -10.297991
Cd -1.466785 -7.355038 -7.355038
Cd 1.476169 -4.412084 -7.355038
Cd 1.476169 -7.355038 -4.412084
Cd -1.466785 -4.412084 -4.412084
Cd -1.466785 -7.355038 -1.469131
Cd 1.476169 -4.412084 -1.469131
Cd 1.476169 -7.355038 1.473823
Cd -1.466785 -4.412084 1.473823
Cd -1.466785 -7.355038 4.416776
Cd 1.476169 -4.412084 4.416776
Cd 1.476169 -7.355038 7.359730
Cd -1.466785 -4.412084 7.359730
Cd -1.466785 -7.355038 10.302683
Cd 1.476169 -4.412084 10.302683
Cd 1.476169 -7.355038 13.245637
Cd -1.466785 -4.412084 13.245637
Cd -1.466785 -7.355038 16.188590
Cd 1.476169 -4.412084 16.188590
Cd 1.476169 -7.355038 19.131543
Cd -1.466785 -4.412084 19.131543
Cd -1.466785 -7.355038 22.074497
Cd 1.476169 -4.412084 22.074497
Cd 1.476169 -1.469131 -22.069805
Cd -1.466785 1.473823 -22.069805
Cd -1.466785 -1.469131 -19.126852
Cd 1.476169 1.473823 -19.126852
Cd 1.476169 -1.469131 -16.183898
Cd -1.466785 1.473823 -16.183898
Cd -1.466785 -1.469131 -13.240945
Cd 1.476169 1.473823 -13.240945
Cd 1.476169 -1.469131 -10.297991
Cd -1.466785 1.473823 -10.297991
Cd -1.466785 -1.469131 -7.355038
Cd 1.476169 1.473823 -7.355038
Cd 1.476169 -1.469131 -4.412084
Cd -1.466785 1.473823 -4.412084
Cd -1.466785 -1.469131 -1.469131
Cd 1.476169 1.473823 -1.469131
Cd 1.476169 -1.469131 1.473823
Cd -1.466785 1.473823 1.473823
Cd -1.466785 -1.469131 4.416776
Cd 1.476169 1.473823 4.416776
Cd 1.476169 -1.469131 7.359730
Cd -1.466785 1.473823 7.359730
Cd -1.466785 -1.469131 10.302683
Cd 1.476169 1.473823 10.302683
Cd 1.476169 -1.469131 13.245637
Cd -1.466785 1.473823 13.245637
Cd -1.466785 -1.469131 16.188590
Cd 1.476169 1.473823 16.188590
Cd 1.476169 -1.469131 19.131543
Cd -1.466785 1.473823 19.131543
Cd -1.466785 -1.469131 22.074497
Cd 1.476169 1.473823 22.074497
Cd 1.476169 4.416776 -22.069805
Cd -1.466785 7.359730 -22.069805
Cd -1.466785 4.416776 -19.126852
Cd 1.476169 7.359730 -19.126852
Cd 1.476169 4.416776 -16.183898
Cd -1.466785 7.359730 -16.183898
Cd -1.466785 4.416776 -13.240945
Cd 1.476169 7.359730 -13.240945
Cd 1.476169 4.416776 -10.297991
Cd -1.466785 7.359730 -10.297991
Cd -1.466785 4.416776 -7.355038
Cd 1.476169 7.359730 -7.355038
Cd 1.476169 4.416776 -4.412084
Cd -1.466785 7.359730 -4.412084
Cd -1.466785 4.416776 -1.469131
Cd 1.476169 7.359730 -1.469131
Cd 1.476169 4.416776 1.473823
Cd -1.466785 7.359730 1.473823
Cd -1.466785 4.416776 4.416776
Cd 1.476169 7.359730 4.416776
Cd 1.476169 4.416776 7.359730
Cd -1.466785 7.359730 7.359730
Cd -1.466785 4.416776 10.302683
Cd 1.476169 7.359730 10.302683
Cd 1.476169 4.416776 13.245637
Cd -1.466785 7.359730 13.245637
Cd -1.466785 4.416776 16.188590
Cd 1.476169 7.359730 16.188590
Cd 1.476169 4.416776 19.131543
Cd -1.466785 7.359730 19.131543
Cd -1.466785 4.416776 22.074497
Cd 1.476169 7.359730 22.074497
Cd 1.476169 10.302683 -22.069805
Cd -1.466785 13.245637 -22.069805
Cd -1.466785 10.302683 -19.126852
Cd 1.476169 13.245637 -19.126852
Cd 1.476169 10.302683 -16.183898
Cd -1.466785 13.245637 -16.183898
Cd -1.466785 10.302683 -13.240945
Cd 1.476169 13.245637 -13.240945
Cd 1.476169 10.302683 -10.297991
Cd -1.466785 13.245637 -10.297991
Cd -1.466785 10.302683 -7.355038
Cd 1.476169 13.245637 -7.355038
Cd 1.476169 10.302683 -4.412084
Cd -1.466785 13.245637 -4.412084
Cd -1.466785 10.302683 -1.469131
Cd 1.476169 13.245637 -1.469131
Cd 1.476169 10.302683 1.473823
Cd -1.466785 13.245637 1.473823
Cd -1.466785 10.302683 4.416776
Cd 1.476169 13.245637 4.416776
Cd 1.476169 10.302683 7.359730
Cd -1.466785 13.245637 7.359730
Cd -1.466785 10.302683 10.302683
Cd 1.476169 13.245637 10.302683
Cd 1.476169 10.302683 13.245637
Cd -1.466785 13.245637 13.245637
Cd -1.466785 10.302683 16.188590
Cd 1.476169 13.245637 16.188590
Cd 1.476169 10.302683 19.131543
Cd -1.466785 13.245637 19.131543
Cd -1.466785 10.302683 22.074497
Cd 1.476169 13.245637 22.074497
Cd -1.466785 16.188590 -19.126852
Cd 1.476169 16.188590 -16.183898
Cd -1.466785 19.131543 -16.183898
Cd -1.466785 16.188590 -13.240945
Cd 1.476169 19.131543 -13.240945
Cd 1.476169 16.188590 -10.297991
Cd -1.466785 19.131543 -10.297991
Cd -1.466785 16.188590 -7.355038
Cd 1.476169 19.131543 -7.355038
Cd 1.476169 16.188590 -4.412084
Cd -1.466785 19.131543 -4.412084
Cd -1.466785 16.188590 -1.469131
Cd 1.476169 19.131543 -1.469131
Cd 1.476169 16.188590 1.473823
Cd -1.466785 19.131543 1.473823
Cd -1.466785 16.188590 4.416776
Cd 1.476169 19.131543 4.416776
Cd 1.476169 16.188590 7.359730
Cd -1.466785 19.131543 7.359730
Cd -1.466785 16.188590 10.302683
Cd 1.476169 19.131543 10.302683
Cd 1.476169 16.188590 13.245637
Cd -1.466785 19.131543 13.245637
Cd -1.466785 16.188590 16.188590
Cd 1.476169 19.131543 16.188590
Cd 1.476169 16.188590 19.131543
Cd -1.466785 22.074497 -13.240945
Cd 1.476169 22.074497 -10.297991
Cd -1.466785 22.074497 -7.355038
Cd 1.476169 22.074497 -4.412084
Cd -1.466785 22.074497 -1.469131
Cd 1.476169 22.074497 1.473823
Cd -1.466785 22.074497 4.416776
Cd 1.476169 22.074497 7.359730
Cd -1.466785 22.074497 10.302683
Cd 1.476169 22.074497 13.245637
Cd 4.419122 -22.069805 -10.297991
Cd 7.362075 -22.069805 -7.355038
Cd 4.419122 -22.069805 -4.412084
Cd 7.362075 -22.069805 -1.469131
Cd 4.419122 -22.069805 1.473823
Cd 7.362075 -22.069805 4.416776
Cd 4.419122 -22.069805 7.359730
Cd 4.419122 -16.183898 -16.183898
Cd 4.419122 -19.126852 -13.240945
Cd 7.362075 -16.183898 -13.240945
Cd 7.362075 -19.126852 -10.297991
Cd 4.419122 -16.183898 -10.297991
Cd 4.419122 -19.126852 -7.355038
Cd 7.362075 -16.183898 -7.355038
Cd 7.362075 -19.126852 -4.412084
Cd 4.419122 -16.183898 -4.412084
Cd 4.419122 -19.126852 -1.469131
Cd 7.362075 -16.183898 -1.469131
Cd 7.362075 -19.126852 1.473823
Cd 4.419122 -16.183898 1.473823
Cd 4.419122 -19.126852 4.416776
Cd 7.362075 -16.183898 4.416776
Cd 7.362075 -19.126852 7.359730
Cd 4.419122 -16.183898 7.359730
Cd 4.419122 -19.126852 10.302683
Cd 7.362075 -16.183898 10.302683
Cd 4.419122 -16.183898 13.245637
Cd 4.419122 -10.297991 -22.069805
Cd 4.419122 -13.240945 -19.126852
Cd 7.362075 -10.297991 -19.126852
Cd 7.362075 -13.240945 -16.183898
Cd 4.419122 -10.297991 -16.183898
Cd 4.419122 -13.240945 -13.240945
Cd 7.362075 -10.297991 -13.240945
Cd 7.362075 -13.240945 -10.297991
Cd 4.419122 -10.297991 -10.297991
Cd 4.419122 -13.240945 -7.355038
Cd 7.362075 -10.297991 -7.355038
Cd 7.362075 -13.240945 -4.412084
Cd 4.419122 -10.297991 -4.412084
Cd 4.419122 -13.240945 -1.469131
Cd 7.362075 -10.297991 -1.469131
Cd 7.362075 -13.240945 1.473823
Cd 4.419122 -10.297991 1.473823
Cd 4.419122 -13.240945 4.416776
Cd 7.362075 -10.297991 4.416776
Cd 7.362075 -13.240945 7.359730
Cd 4.419122 -10.297991 7.359730
Cd 4.419122 -13.240945 10.302683
Cd 7.362075 -10.297991 10.302683
Cd 7.362075 -13.240945 13.245637
Cd 4.419122 -10.297991 13.245637
Cd 4.419122 -13.240945 16.188590
Cd 7.362075 -10.297991 16.188590
Cd 4.419122 -10.297991 19.131543
Cd 7.362075 -7.355038 -22.069805
Cd 4.419122 -4.412084 -22.069805
Cd 4.419122 -7.355038 -19.126852
Cd 7.362075 -4.412084 -19.126852
Cd 7.362075 -7.355038 -16.183898
Cd 4.419122 -4.412084 -16.183898
Cd 4.419122 -7.355038 -13.240945
Cd 7.362075 -4.412084 -13.240945
Cd 7.362075 -7.355038 -10.297991
Cd 4.419122 -4.412084 -10.297991
Cd 4.419122 -7.355038 -7.355038
Cd 7.362075 -4.412084 -7.355038
Cd 7.362075 -7.355038 -4.412084
Cd 4.419122 -4.412084 -4.412084
Cd 4.419122 -7.355038 -1.469131
Cd 7.362075 -4.412084 -1.469131
Cd 7.362075 -7.355038 1.473823
Cd 4.419122 -4.412084 1.473823
Cd 4.419122 -7.355038 4.416776
Cd 7.362075 -4.412084 4.416776
Cd 7.362075 -7.355038 7.359730
Cd 4.419122 -4.412084 7.359730
Cd 4.419122 -7.355038 10.302683
Cd 7.362075 -4.412084 10.302683
Cd 7.362075 -7.355038 13.245637
Cd 4.419122 -4.412084 13.245637
Cd 4.419122 -7.355038 16.188590
Cd 7.362075 -4.412084 16.188590
Cd 7.362075 -7.355038 19.131543
Cd 4.419122 -4.412084 19.131543
Cd 4.419122 -7.355038 22.074497
Cd 7.362075 -4.412084 22.074497
Cd 7.362075 -1.469131 -22.069805
Cd 4.419122 1.473823 -22.069805
Cd 4.419122 -1.469131 -19.126852
Cd 7.362075 1.473823 -19.126852
Cd 7.362075 -1.469131 -16.183898
Cd 4.419122 1.473823 -16.183898
Cd 4.419122 -1.469131 -13.240945
Cd 7.362075 1.473823 -13.240945
Cd 7.362075 -1.469131 -10.297991
Cd 4.419122 1.473823 -10.297991
Cd 4.419122 -1.469131 -7.355038
Cd 7.362075 1.473823 -7.355038
Cd 7.362075 -1.469131 -4.412084
Cd 4.419122 1.473823 -4.412084
Cd 4.419122 -1.469131 -1.469131
Cd 7.362075 1.473823 -1.469131
Cd 7.362075 -1.469131 1.473823
Cd 4.419122 1.473823 1.473823
Cd 4.419122 -1.469131 4.416776
Cd 7.362075 1.473823 4.416776
Cd 7.362075 -1.469131 7.359730
Cd 4.419122 1.473823 7.359730
Cd 4.419122 -1.469131 10.302683
Cd 7.362075 1.473823 10.302683
Cd 7.362075 -1.469131 13.245637
Cd 4.419122 1.473823 13.245637
Cd 4.419122 -1.469131 16.188590
Cd 7.362075 1.473823 16.188590
Cd 7.362075 -1.469131 19.131543
Cd 4.419122 1.473823 19.131543
Cd 4.419122 -1.469131 22.074497
Cd 7.362075 1.473823 22.074497
Cd 7.362075 4.416776 -22.069805
Cd 4.419122 7.359730 -22.069805
Cd 4.419122 4.416776 -19.126852
Cd 7.362075 7.359730 -19.126852
Cd 7.362075 4.416776 -16.183898
Cd 4.419122 7.359730 -16.183898
Cd 4.419122 4.416776 -13.240945
Cd 7.362075 7.359730 -13.240945
Cd 7.362075 4.416776 -10.297991
Cd 4.419122 7.359730 -10.297991
Cd 4.419122 4.416776 -7.355038
Cd 7.362075 7.359730 -7.355038
Cd 7.362075 4.416776 -4.412084
Cd 4.419122 7.359730 -4.412084
Cd 4.419122 4.416776 -1.469131
Cd 7.362075 7.359730 -1.469131
Cd 7.362075 4.416776 1.473823
Cd 4.419122 7.359730 1.473823
Cd 4.419122 4.416776 4.416776
Cd 7.362075 7.359730 4.416776
Cd 7.362075 4.416776 7.359730
Cd 4.419122 7.359730 7.359730
Cd 4.419122 4.416776 10.302683
Cd 7.362075 7.359730 10.302683
Cd 7.362075 4.416776 13.245637
Cd 4.419122 7.359730 13.245637
Cd 4.419122 4.416776 16.188590
Cd 7.362075 7.359730 16.188590
Cd 7.362075 4.416776 19.131543
Cd 4.419122 7.359730 19.131543
Cd 4.419122 4.416776 22.074497
Cd 7.362075 7.359730 22.074497
Cd 4.419122 10.302683 -19.126852
Cd 7.362075 10.302683 -16.183898
Cd 4.419122 13.245637 -16.183898
Cd 4.419122 10.302683 -13.240945
Cd 7.362075 13.245637 -13.240945
Cd 7.362075 10.302683 -10.297991
Cd 4.419122 13.245637 -10.297991
Cd 4.419122 10.302683 -7.355038
Cd 7.362075 13.245637 -7.355038
Cd 7.362075 10.302683 -4.412084
Cd 4.419122 13.245637 -4.412084
Cd 4.419122 10.302683 -1.469131
Cd 7.362075 13.245637 -1.469131
Cd 7.362075 10.302683 1.473823
Cd 4.419122 13.245637 1.473823
Cd 4.419122 10.302683 4.416776
Cd 7.362075 13.245637 4.416776
Cd 7.362075 10.302683 7.359730
Cd 4.419122 13.245637 7.359730
Cd 4.419122 10.302683 10.302683
Cd 7.362075 13.245637 10.302683
Cd 7.362075 10.302683 13.245637
Cd 4.419122 13.245637 13.245637
Cd 4.419122 10.302683 16.188590
Cd 7.362075 13.245637 16.188590
Cd 7.362075 10.302683 19.131543
Cd 4.419122 13.245637 19.131543
Cd 4.419122 10.302683 22.074497
Cd 4.419122 16.188590 -13.240945
Cd 7.362075 16.188590 -10.297991
Cd 4.419122 19.131543 -10.297991
Cd 4.419122 16.188590 -7.355038
Cd 7.362075 19.131543 -7.355038
Cd 7.362075 16.188590 -4.412084
Cd 4.419122 19.131543 -4.412084
Cd 4.419122 16.188590 -1.469131
Cd 7.362075 19.131543 -1.469131
Cd 7.362075 16.188590 1.473823
Cd 4.419122 19.131543 1.473823
Cd 4.419122 16.188590 4.416776
Cd 7.362075 19.131543 4.416776
Cd 7.362075 16.188590 7.359730
Cd 4.419122 19.131543 7.359730
Cd 4.419122 16.188590 10.302683
Cd 7.362075 19.131543 10.302683
Cd 7.362075 16.188590 13.245637
Cd 4.419122 19.131543 13.245637
Cd 4.419122 16.188590 16.188590
Cd 4.419122 22.074497 -7.355038
Cd 7.362075 22.074497 -4.412084
Cd 4.419122 22.074497 -1.469131
Cd 7.362075 22.074497 1.473823
Cd 4.419122 22.074497 4.416776
Cd 7.362075 22.074497 7.359730
Cd 4.419122 22.074497 10.302683
Cd 10.305029 -22.069805 -4.412084
Cd 13.247982 -22.069805 -1.469131
Cd 10.305029 -22.069805 1.473823
Cd 10.305029 -16.183898 -10.297991
Cd 10.305029 -19.126852 -7.355038
Cd 13.247982 -16.183898 -7.355038
Cd 13.247982 -19.126852 -4.412084
Cd 10.305029 -16.183898 -4.412084
Cd 10.305029 -19.126852 -1.469131
Cd 13.247982 -16.183898 -1.469131
Cd 13.247982 -19.126852 1.473823
Cd 10.305029 -16.183898 1.473823
Cd 10.305029 -19.126852 4.416776
Cd 13.247982 -16.183898 4.416776
Cd 10.305029 -16.183898 7.359730
Cd 10.305029 -10.297991 -16.183898
Cd 10.305029 -13.240945 -13.240945
Cd 13.247982 -10.297991 -13.240945
Cd 13.247982 -13.240945 -10.297991
Cd 10.305029 -10.297991 -10.297991
Cd 10.305029 -13.240945 -7.355038
Cd 13.247982 -10.297991 -7.355038
Cd 13.247982 -13.240945 -4.412084
Cd 10.305029 -10.297991 -4.412084
Cd 10.305029 -13.240945 -1.469131
Cd 13.247982 -10.297991 -1.469131
Cd 13.247982 -13.240945 1.473823
Cd 10.305029 -10.297991 1.473823
Cd 10.305029 -13.240945 4.416776
Cd 13.247982 -10.297991 4.416776
Cd 13.247982 -13.240945 7.359730
Cd 10.305029 -10.297991 7.359730
Cd 10.305029 -13.240945 10.302683
Cd 13.247982 -10.297991 10.302683
Cd 10.305029 -10.297991 13.245637
Cd 10.305029 -4.412084 -22.069805
Cd 10.305029 -7.355038 -19.126852
Cd 13.247982 -4.412084 -19.126852
Cd 13.247982 -7.355038 -16.183898
Cd 10.305029 -4.412084 -16.183898
Cd 10.305029 -7.355038 -13.240945
Cd 13.247982 -4.412084 -13.240945
Cd 13.247982 -7.355038 -10.297991
Cd 10.305029 -4.412084 -10.297991
Cd 10.305029 -7.355038 -7.355038
Cd 13.247982 -4.412084 -7.355038
Cd 13.247982 -7.355038 -4.412084
Cd 10.305029 -4.412084 -4.412084
Cd 10.305029 -7.355038 -1.469131
Cd 13.247982 -4.412084 -1.469131
Cd 13.247982 -7.355038 1.473823
Cd 10.305029 -4.412084 1.473823
Cd 10.305029 -7.355038 4.416776
Cd 13.247982 -4.412084 4.416776
Cd 13.247982 -7.355038 7.359730
Cd 10.305029 -4.412084 7.359730
Cd 10.305029 -7.355038 10.302683
Cd 13.247982 -4.412084 10.302683
Cd 13.247982 -7.355038 13.245637
Cd 10.305029 -4.412084 13.245637
Cd 10.305029 -7.355038 16.188590
Cd 13.247982 -4.412084 16.188590
Cd 10.305029 -4.412084 19.131543
Cd 13.247982 -1.469131 -22.069805
Cd 10.305029 1.473823 -22.069805
Cd 10.305029 -1.469131 -19.126852
Cd 13.247982 1.473823 -19.126852
Cd 13.247982 -1.469131 -16.183898
Cd 10.305029 1.473823 -16.183898
Cd 10.305029 -1.469131 -13.240945
Cd 13.247982 1.473823 -13.240945
Cd 13.247982 -1.469131 -10.297991
Cd 10.305029 1.473823 -10.297991
Cd 10.305029 -1.469131 -7.355038
Cd 13.247982 1.473823 -7.355038
Cd 13.247982 -1.469131 -4.412084
Cd 10.305029 1.473823 -4.412084
Cd 10.305029 -1.469131 -1.469131
Cd 13.247982 1.473823 -1.469131
Cd 13.247982 -1.469131 1.473823
Cd 10.305029 1.473823 1.473823
Cd 10.305029 -1.469131 4.416776
Cd 13.247982 1.473823 4.416776
Cd 13.247982 -1.469131 7.359730
Cd 10.305029 1.473823 7.359730
Cd 10.305029 -1.469131 10.302683
Cd 13.247982 1.473823 10.302683
Cd 13.247982 -1.469131 13.245637
Cd 10.305029 1.473823 13.245637
Cd 10.305029 -1.469131 16.188590
Cd 13.247982 1.473823 16.188590
Cd 13.247982 -1.469131 19.131543
Cd 10.305029 1.473823 19.131543
Cd 10.305029 -1.469131 22.074497
Cd 13.247982 1.473823 22.074497
Cd 10.305029 4.416776 -19.126852
Cd 13.247982 4.416776 -16.183898
Cd 10.305029 7.359730 -16.183898
Cd 10.305029 4.416776 -13.240945
Cd 13.247982 7.359730 -13.240945
Cd 13.247982 4.416776 -10.297991
Cd 10.305029 7.359730 -10.297991
Cd 10.305029 4.416776 -7.355038
Cd 13.247982 7.359730 -7.355038
Cd 13.247982 4.416776 -4.412084
Cd 10.305029 7.359730 -4.412084
Cd 10.305029 4.416776 -1.469131
Cd 13.247982 7.359730 -1.469131
Cd 13.247982 4.416776 1.473823
Cd 10.305029 7.359730 1.473823
Cd 10.305029 4.416776 4.416776
Cd 13.247982 7.359730 4.416776
Cd 13.247982 4.416776 7.359730
Cd 10.305029 7.359730 7.359730
Cd 10.305029 4.416776 10.302683
Cd 13.247982 7.359730 10.302683
Cd 13.247982 4.416776 13.245637
Cd 10.305029 7.359730 13.245637
Cd 10.305029 4.416776 16.188590
Cd 13.247982 7.359730 16.188590
Cd 13.247982 4.416776 19.131543
Cd 10.305029 7.359730 19.131543
Cd 10.305029 4.416776 22.074497
Cd 10.305029 10.302683 -13.240945
Cd 13.247982 10.302683 -10.297991
Cd 10.305029 13.245637 -10.297991
Cd 10.305029 10.302683 -7.355038
Cd 13.247982 13.245637 -7.355038
Cd 13.247982 10.302683 -4.412084
Cd 10.305029 13.245637 -4.412084
Cd 10.305029 10.302683 -1.469131
Cd 13.247982 13.245637 -1.469131
Cd 13.247982 10.302683 1.473823
Cd 10.305029 13.245637 1.473823
Cd 10.305029 10.302683 4.416776
Cd 13.247982 13.245637 4.416776
Cd 13.247982 10.302683 7.359730
Cd 10.305029 13.245637 7.359730
Cd 10.305029 10.302683 10.302683
Cd 13.247982 13.245637 10.302683
Cd 13.247982 10.302683 13.245637
Cd 10.305029 13.245637 13.245637
Cd 10.305029 10.302683 16.188590
Cd 10.305029 16.188590 -7.355038
Cd 13.247982 16.188590 -4.412084
Cd 10.305029 19.131543 -4.412084
Cd 10.305029 16.188590 -1.469131
Cd 13.247982 19.131543 -1.469131
Cd 13.247982 16.188590 1.473823
Cd 10.305029 19.131543 1.473823
Cd 10.305029 16.188590 4.416776
Cd 13.247982 19.131543 4.416776
Cd 13.247982 16.188590 7.359730
Cd 10.305029 19.131543 7.359730
Cd 10.305029 16.188590 10.302683
Cd 10.305029 22.074497 -1.469131
Cd 13.247982 22.074497 1.473823
Cd 10.305029 22.074497 4.416776
Cd 16.190936 -16.183898 -4.412084
Cd 16.190936 -19.126852 -1.469131
Cd 19.133889 -16.183898 -1.469131
Cd 16.190936 -16.183898 1.473823
Cd 16.190936 -10.297991 -10.297991
Cd 16.190936 -13.240945 -7.355038
Cd 19.133889 -10.297991 -7.355038
Cd 19.133889 -13.240945 -4.412084
Cd 16.190936 -10.297991 -4.412084
Cd 16.190936 -13.240945 -1.469131
Cd 19.133889 -10.297991 -1.469131
Cd 19.133889 -13.240945 1.473823
Cd 16.190936 -10.297991 1.473823
Cd 16.190936 -13.240945 4.416776
Cd 19.133889 -10.297991 4.416776
Cd 16.190936 -10.297991 7.359730
Cd 16.190936 -4.412084 -16.183898
Cd 16.190936 -7.355038 -13.240945
Cd 19.133889 -4.412084 -13.240945
Cd 19.133889 -7.355038 -10.297991
Cd 16.190936 -4.412084 -10.297991
Cd 16.190936 -7.355038 -7.355038
Cd 19.133889 -4.412084 -7.355038
Cd 19.133889 -7.355038 -4.412084
Cd 16.190936 -4.412084 -4.412084
Cd 16.190936 -7.355038 -1.469131
Cd 19.133889 -4.412084 -1.469131
Cd 19.133889 -7.355038 1.473823
Cd 16.190936 -4.412084 1.473823
Cd 16.190936 -7.355038 4.416776
Cd 19.133889 -4.412084 4.416776
Cd 19.133889 -7.355038 7.359730
Cd 16.190936 -4.412084 7.359730
Cd 16.190936 -7.355038 10.302683
Cd 19.133889 -4.412084 10.302683
Cd 16.190936 -4.412084 13.245637
Cd 16.190936 -1.469131 -19.126852
Cd 19.133889 -1.469131 -16.183898
Cd 16.190936 1.473823 -16.183898
Cd 16.190936 -1.469131 -13.240945
Cd 19.133889 1.473823 -13.240945
Cd 19.133889 -1.469131 -10.297991
Cd 16.190936 1.473823 -10.297991
Cd 16.190936 -1.469131 -7.355038
Cd 19.133889 1.473823 -7.355038
Cd 19.133889 -1.469131 -4.412084
Cd 16.190936 1.473823 -4.412084
Cd 16.190936 -1.469131 -1.469131
Cd 19.133889 1.473823 -1.469131
Cd 19.133889 -1.469131 1.473823
Cd 16.190936 1.473823 1.473823
Cd 16.190936 -1.469131 4.416776
Cd 19.133889 1.473823 4.416776
Cd 19.133889 -1.469131 7.359730
Cd 16.190936 1.473823 7.359730
Cd 16.190936 -1.469131 10.302683
Cd 19.133889 1.473823 10.302683
Cd 19.133889 -1.469131 13.245637
Cd 16.190936 1.473823 13.245637
Cd 16.190936 -1.469131 16.188590
Cd 19.133889 1.473823 16.188590
Cd 16.190936 1.473823 19.131543
Cd 16.190936 4.416776 -13.240945
Cd 19.133889 4.416776 -10.297991
Cd 16.190936 7.359730 -10.297991
Cd 16.190936 4.416776 -7.355038
Cd 19.133889 7.359730 -7.355038
Cd 19.133889 4.416776 -4.412084
Cd 16.190936 7.359730 -4.412084
Cd 16.190936 4.416776 -1.469131
Cd 19.133889 7.359730 -1.469131
Cd 19.133889 4.416776 1.473823
Cd 16.190936 7.359730 1.473823
Cd 16.190936 4.416776 4.416776
Cd 19.133889 7.359730 4.416776
Cd 19.133889 4.416776 7.359730
Cd 16.190936 7.359730 7.359730
Cd 16.190936 4.416776 10.302683
Cd 19.133889 7.359730 10.302683
Cd 19.133889 4.416776 13.245637
Cd 16.190936 7.359730 13.245637
Cd 16.190936 4.416776 16.188590
Cd 16.190936 10.302683 -7.355038
Cd 19.133889 10.302683 -4.412084
Cd 16.190936 13.245637 -4.412084
Cd 16.190936 10.302683 -1.469131
Cd 19.133889 13.245637 -1.469131
Cd 19.133889 10.302683 1.473823
Cd 16.190936 13.245637 1.473823
Cd 16.190936 10.302683 4.416776
Cd 19.133889 13.245637 4.416776
Cd 19.133889 10.302683 7.359730
Cd 16.190936 13.245637 7.359730
Cd 16.190936 10.302683 10.302683
Cd 16.190936 16.188590 -1.469131
Cd 19.133889 16.188590 1.473823
Cd 16.190936 19.131543 1.473823
Cd 16.190936 16.188590 4.416776
Cd 22.076843 -10.297991 -4.412084
Cd 22.076843 -13.240945 -1.469131
Cd 22.076843 -10.297991 1.473823
Cd 22.076843 -4.412084 -10.297991
Cd 22.076843 -7.355038 -7.355038
Cd 22.076843 -4.412084 -4.412084
Cd 22.076843 -7.355038 -1.469131
Cd 22.076843 -4.412084 1.473823
Cd 22.076843 -7.355038 4.416776
Cd 22.076843 -4.412084 7.359730
Cd 22.076843 -1.469131 -13.240945
Cd 22.076843 1.473823 -10.297991
Cd 22.076843 -1.469131 -7.355038
Cd 22.076843 1.473823 -4.412084
Cd 22.076843 -1.469131 -1.469131
Cd 22.076843 1.473823 1.473823
Cd 22.076843 -1.469131 4.416776
Cd 22.076843 1.473823 7.359730
Cd 22.076843 -1.469131 10.302683
Cd 22.076843 1.473823 13.245637
Cd 22.076843 4.416776 -7.355038
Cd 22.076843 7.359730 -4.412084
Cd 22.076843 4.416776 -1.469131
Cd 22.076843 7.359730 1.473823
Cd 22.076843 4.416776 4.416776
Cd 22.076843 7.359730 7.359730
Cd 22.076843 4.416776 10.302683
Cd 22.076843 10.302683 -1.469131
Cd 22.076843 13.245637 1.473823
Cd 22.076843 10.302683 4.416776
S -20.595982 -14.712421 0.002346
S -20.595982 -8.826514 -5.883561
S -20.595982 -11.769468 -2.940608
S -20.595982 -8.826514 0.002346
S -20.595982 -11.769468 2.945299
S -20.595982 -8.826514 5.888253
S -20.595982 -2.940608 -11.769468
S -20.595982 -5.883561 -8.826514
S -20.595982 -2.940608 -5.883561
S -20.595982 -5.883561 -2.940608
S -20.595982 -2.940608 0.002346
S -20.595982 -5.883561 2.945299
S -20.595982 -2.940608 5.888253
S -20.595982 -5.883561 8.831206
S -20.595982 -2.940608 11.774160
S -20.595982 0.002346 -14.712421
S -20.595982 2.945299 -11.769468
S -20.595982 0.002346 -8.826514
S -20.595982 2.945299 -5.883561
S -20.595982 0.002346 -2.940608
S -20.595982 2.945299 0.002346
S -20.595982 0.002346 2.945299
S -20.595982 2.945299 5.888253
S -20.595982 0.002346 8.831206
S -20.595982 2.945299 11.774160
S -20.595982 0.002346 14.717113
S -20.595982 5.888253 -8.826514
S -20.595982 8.831206 -5.883561
S -20.595982 5.888253 -2.940608
S -20.595982 8.831206 0.002346
S -20.595982 5.888253 2.945299
S -20.595982 8.831206 5.888253
S -20.595982 5.888253 8.831206
S -20.595982 11.774160 -2.940608
S -20.595982 14.717113 0.002346
S -20.595982 11.774160 2.945299
S -14.710075 -20.598328 0.002346
S -17.653029 -14.712421 -2.940608
S -14.710075 -14.712421 -5.883561
S -14.710075 -17.655375 -2.940608
S -17.653029 -17.655375 0.002346
S -17.653029 -14.712421 2.945299
S -14.710075 -14.712421 0.002346
S -14.710075 -17.655375 2.945299
S -14.710075 -14.712421 5.888253
S -17.653029 -8.826514 -8.826514
S -14.710075 -8.826514 -11.769468
S -14.710075 -11.769468 -8.826514
S -17.653029 -11.769468 -5.883561
S -17.653029 -8.826514 -2.940608
S -14.710075 -8.826514 -5.883561
S -14.710075 -11.769468 -2.940608
S -17.653029 -11.769468 0.002346
S -17.653029 -8.826514 2.945299
S -14.710075 -8.826514 0.002346
S -14.710075 -11.769468 2.945299
S -17.653029 -11.769468 5.888253
S -17.653029 -8.826514 8.831206
S -14.710075 -8.826514 5.888253
S -14.710075 -11.769468 8.831206
S -14.710075 -8.826514 11.774160
S -17.653029 -2.940608 -14.712421
S -14.710075 -2.940608 -17.655375
S -14.710075 -5.883561 -14.712421
S -17.653029 -5.883561 -11.769468
S -17.653029 -2.940608 -8.826514
S -14.710075 -2.940608 -11.769468
S -14.710075 -5.883561 -8.826514
S -17.653029 -5.883561 -5.883561
S -17.653029 -2.940608 -2.940608
S -14.710075 -2.940608 -5.883561
S -14.710075 -5.883561 -2.940608
S -17.653029 -5.883561 0.002346
S -17.653029 -2.940608 2.945299
S -14.710075 -2.940608 0.002346
S -14.710075 -5.883561 2.945299
S -17.653029 -5.883561 5.888253
S -17.653029 -2.940608 8.831206
S -14.710075 -2.940608 5.888253
S -14.710075 -5.883561 8.831206
S -17.653029 -5.883561 11.774160
S -17.653029 -2.940608 14.717113
S -14.710075 -2.940608 11.774160
S -14.710075 -5.883561 14.717113
S -14.710075 -2.940608 17.660067
S -14.710075 0.002346 -20.598328
S -17.653029 0.002346 -17.655375
S -17.653029 2.945299 -14.712421
S -14.710075 2.945299 -17.655375
S -14.710075 0.002346 -14.712421
S -17.653029 0.002346 -11.769468
S -17.653029 2.945299 -8.826514
S -14.710075 2.945299 -11.769468
S -14.710075 0.002346 -8.826514
S -17.653029 0.002346 -5.883561
S -17.653029 2.945299 -2.940608
S -14.710075 2.945299 -5.883561
S -14.710075 0.002346 -2.940608
S -17.653029 0.002346 0.002346
S -17.653029 2.945299 2.945299
S -14.710075 2.945299 0.002346
S -14.710075 0.002346 2.945299
S -17.653029 0.002346 5.888253
S -17.653029 2.945299 8.831206
S -14.710075 2.945299 5.888253
S -14.710075 0.002346 8.831206
S -17.653029 0.002346 11.774160
S -17.653029 2.945299 14.717113
S -14.710075 2.945299 11.774160
S -14.710075 0.002346 14.717113
S -17.653029 0.002346 17.660067
S -14.710075 2.945299 17.660067
S -14.710075 0.002346 20.603020
S -14.710075 5.888253 -14.712421
S -17.653029 5.888253 -11.769468
S -17.653029 8.831206 -8.826514
S -14.710075 8.831206 -11.769468
S -14.710075 5.888253 -8.826514
S -17.653029 5.888253 -5.883561
S -17.653029 8.831206 -2.940608
S -14.710075 8.831206 -5.883561
S -14.710075 5.888253 -2.940608
S -17.653029 5.888253 0.002346
S -17.653029 8.831206 2.945299
S -14.710075 8.831206 0.002346
S -14.710075 5.888253 2.945299
S -17.653029 5.888253 5.888253
S -17.653029 8.831206 8.831206
S -14.710075 8.831206 5.888253
S -14.710075 5.888253 8.831206
S -17.653029 5.888253 11.774160
S -14.710075 8.831206 11.774160
S -14.710075 5.888253 14.717113
S -14.710075 11.774160 -8.826514
S -17.653029 11.774160 -5.883561
S -17.653029 14.717113 -2.940608
S -14.710075 14.717113 -5.883561
S -14.710075 11.774160 -2.940608
S -17.653029 11.774160 0.002346
S -17.653029 14.717113 2.945299
S -14.710075 14.717113 0.002346
S -14.710075 11.774160 2.945299
S -17.653029 11.774160 5.888253
S -14.710075 14.717113 5.888253
S -14.710075 11.774160 8.831206
S -14.710075 17.660067 -2.940608
S -17.653029 17.660067 0.002346
S -14.710075 20.603020 0.002346
S -14.710075 17.660067 2.945299
S -11.767122 -20.598328 -2.940608
S -8.824169 -20.598328 -5.883561
S -11.767122 -20.598328 2.945299
S -8.824169 -20.598328 0.002346
S -8.824169 -20.598328 5.888253
S -11.767122 -14.712421 -8.826514
S -8.824169 -14.712421 -11.769468
S -8.824169 -17.655375 -8.826514
S -11.767122 -17.655375 -5.883561
S -11.767122 -14.712421 -2.940608
S -8.824169 -14.712421 -5.883561
S -8.824169 -17.655375 -2.940608
S -11.767122 -17.655375 0.002346
S -11.767122 -14.712421 2.945299
S -8.824169 -14.712421 0.002346
S -8.824169 -17.655375 2.945299
S -11.767122 -17.655375 5.888253
S -11.767122 -14.712421 8.831206
S -8.824169 -14.712421 5.888253
S -8.824169 -17.655375 8.831206
S -8.824169 -14.712421 11.774160
S -11.767122 -8.826514 -14.712421
S -8.824169 -8.826514 -17.655375
S -8.824169 -11.769468 -14.712421
S -11.767122 -11.769468 -11.769468
S -11.767122 -8.826514 -8.826514
S -8.824169 -8.826514 -11.769468
S -8.824169 -11.769468 -8.826514
S -11.767122 -11.769468 -5.883561
S -11.767122 -8.826514 -2.940608
S -8.824169 -8.826514 -5.883561
S -8.824169 -11.769468 -2.940608
S -11.767122 -11.769468 0.002346
S -11.767122 -8.826514 2.945299
S -8.824169 -8.826514 0.002346
S -8.824169 -11.769468 2.945299
S -11.767122 -11.769468 5.888253
S -11.767122 -8.826514 8.831206
S -8.824169 -8.826514 5.888253
S -8.824169 -11.769468 8.831206
S -11.767122 -11.769468 11.774160
S -11.767122 -8.826514 14.717113
S -8.824169 -8.826514 11.774160
S -8.824169 -11.769468 14.717113
S -8.824169 -8.826514 17.660067
S -11.767122 -2.940608 -20.598328
S -8.824169 -5.883561 -20.598328
S -11.767122 -5.883561 -17.655375
S -11.767122 -2.940608 -14.712421
S -8.824169 -2.940608 -17.655375
S -8.824169 -5.883561 -14.712421
S -11.767122 -5.883561 -11.769468
S -11.767122 -2.940608 -8.826514
S -8.824169 -2.940608 -11.769468
S -8.824169 -5.883561 -8.826514
S -11.767122 -5.883561 -5.883561
S -11.767122 -2.940608 -2.940608
S -8.824169 -2.940608 -5.883561
S -8.824169 -5.883561 -2.940608
S -11.767122 -5.883561 0.002346
S -11.767122 -2.940608 2.945299
S -8.824169 -2.940608 0.002346
S -8.824169 -5.883561 2.945299
S -11.767122 -5.883561 5.888253
S -11.767122 -2.940608 8.831206
S -8.824169 -2.940608 5.888253
S -8.824169 -5.883561 8.831206
S -11.767122 -5.883561 11.774160
S -11.767122 -2.940608 14.717113
S -8.824169 -2.940608 11.774160
S -8.824169 -5.883561 14.717113
S -11.767122 -5.883561 17.660067
S -11.767122 -2.940608 20.603020
S -8.824169 -2.940608 17.660067
S -8.824169 -5.883561 20.603020
S -11.767122 2.945299 -20.598328
S -8.824169 0.002346 -20.598328
S -11.767122 0.002346 -17.655375
S -11.767122 2.945299 -14.712421
S -8.824169 2.945299 -17.655375
S -8.824169 0.002346 -14.712421
S -11.767122 0.002346 -11.769468
S -11.767122 2.945299 -8.826514
S -8.824169 2.945299 -11.769468
S -8.824169 0.002346 -8.826514
S -11.767122 0.002346 -5.883561
S -11.767122 2.945299 -2.940608
S -8.824169 2.945299 -5.883561
S -8.824169 0.002346 -2.940608
S -11.767122 0.002346 0.002346
S -11.767122 2.945299 2.945299
S -8.824169 2.945299 0.002346
S -8.824169 0.002346 2.945299
S -11.767122 0.002346 5.888253
S -11.767122 2.945299 8.831206
S -8.824169 2.945299 5.888253
S -8.824169 0.002346 8.831206
S -11.767122 0.002346 11.774160
S -11.767122 2.945299 14.717113
S -8.824169 2.945299 11.774160
S -8.824169 0.002346 14.717113
S -11.767122 0.002346 17.660067
S -11.767122 2.945299 20.603020
S -8.824169 2.945299 17.660067
S -8.824169 0.002346 20.603020
S -8.824169 5.888253 -20.598328
S -11.767122 5.888253 -17.655375
S -11.767122 8.831206 -14.712421
S -8.824169 8.831206 -17.655375
S -8.824169 5.888253 -14.712421
S -11.767122 5.888253 -11.769468
S -11.767122 8.831206 -8.826514
S -8.824169 8.831206 -11.769468
S -8.824169 5.888253 -8.826514
S -11.767122 5.888253 -5.883561
S -11.767122 8.831206 -2.940608
S -8.824169 8.831206 -5.883561
S -8.824169 5.888253 -2.940608
S -11.767122 5.888253 0.002346
S -11.767122 8.831206 2.945299
S -8.824169 8.831206 0.002346
S -8.824169 5.888253 2.945299
S -11.767122 5.888253 5.888253
S -11.767122 8.831206 8.831206
S -8.824169 8.831206 5.888253
S -8.824169 5.888253 8.831206
S -11.767122 5.888253 11.774160
S -11.767122 8.831206 14.717113
S -8.824169 8.831206 11.774160
S -8.824169 5.888253 14.717113
S -11.767122 5.888253 17.660067
S -8.824169 8.831206 17.660067
S -8.824169 5.888253 20.603020
S -8.824169 11.774160 -14.712421
S -11.767122 11.774160 -11.769468
S -11.767122 14.717113 -8.826514
S -8.824169 14.717113 -11.769468
S -8.824169 11.774160 -8.826514
S -11.767122 11.774160 -5.883561
S -11.767122 14.717113 -2.940608
S -8.824169 14.717113 -5.883561
S -8.824169 11.774160 -2.940608
S -11.767122 11.774160 0.002346
S -11.767122 14.717113 2.945299
S -8.824169 14.717113 0.002346
S -8.824169 11.774160 2.945299
S -11.767122 11.774160 5.888253
S -11.767122 14.717113 8.831206
S -8.824169 14.717113 5.888253
S -8.824169 11.774160 8.831206
S -11.767122 11.774160 11.774160
S -8.824169 14.717113 11.774160
S -8.824169 11.774160 14.717113
S -8.824169 17.660067 -8.826514
S -11.767122 17.660067 -5.883561
S -11.767122 20.603020 -2.940608
S -8.824169 20.603020 -5.883561
S -8.824169 17.660067 -2.940608
S -11.767122 17.660067 0.002346
S -11.767122 20.603020 2.945299
S -8.824169 20.603020 0.002346
S -8.824169 17.660067 2.945299
S -11.767122 17.660067 5.888253
S -8.824169 20.603020 5.888253
S -8.824169 17.660067 8.831206
S -5.881215 -20.598328 -8.826514
S -2.938262 -20.598328 -11.769468
S -5.881215 -20.598328 -2.940608
S -2.938262 -20.598328 -5.883561
S -5.881215 -20.598328 2.945299
S -2.938262 -20.598328 0.002346
S -5.881215 -20.598328 8.831206
S -2.938262 -20.598328 5.888253
S -2.938262 -20.598328 11.774160
S -5.881215 -14.712421 -14.712421
S -2.938262 -14.712421 -17.655375
S -2.938262 -17.655375 -14.712421
S -5.881215 -17.655375 -11.769468
S -5.881215 -14.712421 -8.826514
S -2.938262 -14.712421 -11.769468
S -2.938262 -17.655375 -8.826514
S -5.881215 -17.655375 -5.883561
S -5.881215 -14.712421 -2.940608
S -2.938262 -14.712421 -5.883561
S -2.938262 -17.655375 -2.940608
S -5.881215 -17.655375 0.002346
S -5.881215 -14.712421 2.945299
S -2.938262 -14.712421 0.002346
S -2.938262 -17.655375 2.945299
S -5.881215 -17.655375 5.888253
S -5.881215 -14.712421 8.831206
S -2.938262 -14.712421 5.888253
S -2.938262 -17.655375 8.831206
S -5.881215 -17.655375 11.774160
S -5.881215 -14.712421 14.717113
S -2.938262 -14.712421 11.774160
S -2.938262 -17.655375 14.717113
S -2.938262 -14.712421 17.660067
S -5.881215 -8.826514 -20.598328
S -2.938262 -11.769468 -20.598328
S -5.881215 -11.769468 -17.655375
S -5.881215 -8.826514 -14.712421
S -2.938262 -8.826514 -17.655375
S -2.938262 -11.769468 -14.712421
S -5.881215 -11.769468 -11.769468
S -5.881215 -8.826514 -8.826514
S -2.938262 -8.826514 -11.769468
S -2.938262 -11.769468 -8.826514
S -5.881215 -11.769468 -5.883561
S -5.881215 -8.826514 -2.940608
S -2.938262 -8.826514 -5.883561
S -2.938262 -11.769468 -2.940608
S -5.881215 -11.769468 0.002346
S -5.881215 -8.826514 2.945299
S -2.938262 -8.826514 0.002346
S -2.938262 -11.769468 2.945299
S -5.881215 -11.769468 5.888253
S -5.881215 -8.826514 8.831206
S -2.938262 -8.826514 5.888253
S -2.938262 -11.769468 8.831206
S -5.881215 -11.769468 11.774160
S -5.881215 -8.826514 14.717113
S -2.938262 -8.826514 11.774160
S -2.938262 -11.769468 14.717113
S -5.881215 -11.769468 17.660067
S -5.881215 -8.826514 20.603020
S -2.938262 -8.826514 17.660067
S -2.938262 -11.769468 20.603020
S -5.881215 -2.940608 -20.598328
S -2.938262 -5.883561 -20.598328
S -5.881215 -5.883561 -17.655375
S -5.881215 -2.940608 -14.712421
S -2.938262 -2.940608 -17.655375
S -2.938262 -5.883561 -14.712421
S -5.881215 -5.883561 -11.769468
S -5.881215 -2.940608 -8.826514
S -2.938262 -2.940608 -11.769468
S -2.938262 -5.883561 -8.826514
S -5.881215 -5.883561 -5.883561
S -5.881215 -2.940608 -2.940608
S -2.938262 -2.940608 -5.883561
S -2.938262 -5.883561 -2.940608
S -5.881215 -5.883561 0.002346
S -5.881215 -2.940608 2.945299
S -2.938262 -2.940608 0.002346
S -2.938262 -5.883561 2.945299
S -5.881215 -5.883561 5.888253
S -5.881215 -2.940608 8.831206
S -2.938262 -2.940608 5.888253
S -2.938262 -5.883561 8.831206
S -5.881215 -5.883561 11.774160
S -5.881215 -2.940608 14.717113
S -2.938262 -2.940608 11.774160
S -2.938262 -5.883561 14.717113
S -5.881215 -5.883561 17.660067
S -5.881215 -2.940608 20.603020
S -2.938262 -2.940608 17.660067
S -2.938262 -5.883561 20.603020
S -5.881215 2.945299 -20.598328
S -2.938262 0.002346 -20.598328
S -5.881215 0.002346 -17.655375
S -5.881215 2.945299 -14.712421
S -2.938262 2.945299 -17.655375
S -2.938262 0.002346 -14.712421
S -5.881215 0.002346 -11.769468
S -5.881215 2.945299 -8.826514
S -2.938262 2.945299 -11.769468
S -2.938262 0.002346 -8.826514
S -5.881215 0.002346 -5.883561
S -5.881215 2.945299 -2.940608
S -2.938262 2.945299 -5.883561
S -2.938262 0.002346 -2.940608
S -5.881215 0.002346 0.002346
S -5.881215 2.945299 2.945299
S -2.938262 2.945299 0.002346
S -2.938262 0.002346 2.945299
S -5.881215 0.002346 5.888253
S -5.881215 2.945299 8.831206
S -2.938262 2.945299 5.888253
S -2.938262 0.002346 8.831206
S -5.881215 0.002346 11.774160
S -5.881215 2.945299 14.717113
S -2.938262 2.945299 11.774160
S -2.938262 0.002346 14.717113
S -5.881215 0.002346 17.660067
S -5.881215 2.945299 20.603020
S -2.938262 2.945299 17.660067
S -2.938262 0.002346 20.603020
S -5.881215 8.831206 -20.598328
S -2.938262 5.888253 -20.598328
S -5.881215 5.888253 -17.655375
S -5.881215 8.831206 -14.712421
S -2.938262 8.831206 -17.655375
S -2.938262 5.888253 -14.712421
S -5.881215 5.888253 -11.769468
S -5.881215 8.831206 -8.826514
S -2.938262 8.831206 -11.769468
S -2.938262 5.888253 -8.826514
S -5.881215 5.888253 -5.883561
S -5.881215 8.831206 -2.940608
S -2.938262 8.831206 -5.883561
S -2.938262 5.888253 -2.940608
S -5.881215 5.888253 0.002346
S -5.881215 8.831206 2.945299
S -2.938262 8.831206 0.002346
S -2.938262 5.888253 2.945299
S -5.881215 5.888253 5.888253
S -5.881215 8.831206 8.831206
S -2.938262 8.831206 5.888253
S -2.938262 5.888253 8.831206
S -5.881215 5.888253 11.774160
S -5.881215 8.831206 14.717113
S -2.938262 8.831206 11.774160
S -2.938262 5.888253 14.717113
S -5.881215 5.888253 17.660067
S -5.881215 8.831206 20.603020
S -2.938262 8.831206 17.660067
S -2.938262 5.888253 20.603020
S -2.938262 11.774160 -20.598328
S -5.881215 11.774160 -17.655375
S -5.881215 14.717113 -14.712421
S -2.938262 14.717113 -17.655375
S -2.938262 11.774160 -14.712421
S -5.881215 11.774160 -11.769468
S -5.881215 14.717113 -8.826514
S -2.938262 14.717113 -11.769468
S -2.938262 11.774160 -8.826514
S -5.881215 11.774160 -5.883561
S -5.881215 14.717113 -2.940608
S -2.938262 14.717113 -5.883561
S -2.938262 11.774160 -2.940608
S -5.881215 11.774160 0.002346
S -5.881215 14.717113 2.945299
S -2.938262 14.717113 0.002346
S -2.938262 11.774160 2.945299
S -5.881215 11.774160 5.888253
S -5.881215 14.717113 8.831206
S -2.938262 14.717113 5.888253
S -2.938262 11.774160 8.831206
S -5.881215 11.774160 11.774160
S -5.881215 14.717113 14.717113
S -2.938262 14.717113 11.774160
S -2.938262 11.774160 14.717113
S -5.881215 11.774160 17.660067
S -2.938262 14.717113 17.660067
S -2.938262 11.774160 20.603020
S -2.938262 17.660067 -14.712421
S -5.881215 17.660067 -11.769468
S -5.881215 20.603020 -8.826514
S -2.938262 20.603020 -11.769468
S -2.938262 17.660067 -8.826514
S -5.881215 17.660067 -5.883561
S -5.881215 20.603020 -2.940608
S -2.938262 20.603020 -5.883561
S -2.938262 17.660067 -2.940608
S -5.881215 17.660067 0.002346
S -5.881215 20.603020 2.945299
S -2.938262 20.603020 0.002346
S -2.938262 17.660067 2.945299
S -5.881215 17.660067 5.888253
S -5.881215 20.603020 8.831206
S -2.938262 20.603020 5.888253
S -2.938262 17.660067 8.831206
S -5.881215 17.660067 11.774160
S -2.938262 20.603020 11.774160
S -2.938262 17.660067 14.717113
S 0.004692 -20.598328 -14.712421
S 0.004692 -20.598328 -8.826514
S 2.947645 -20.598328 -11.769468
S 0.004692 -20.598328 -2.940608
S 2.947645 -20.598328 -5.883561
S 0.004692 -20.598328 2.945299
S 2.947645 -20.598328 0.002346
S 0.004692 -20.598328 8.831206
S 2.947645 -20.598328 5.888253
S 0.004692 -20.598328 14.717113
S 2.947645 -20.598328 11.774160
S 0.004692 -14.712421 -20.598328
S 0.004692 -17.655375 -17.655375
S 0.004692 -14.712421 -14.712421
S 2.947645 -14.712421 -17.655375
S 2.947645 -17.655375 -14.712421
S 0.004692 -17.655375 -11.769468
S 0.004692 -14.712421 -8.826514
S 2.947645 -14.712421 -11.769468
S 2.947645 -17.655375 -8.826514
S 0.004692 -17.655375 -5.883561
S 0.004692 -14.712421 -2.940608
S 2.947645 -14.712421 -5.883561
S 2.947645 -17.655375 -2.940608
S 0.004692 -17.655375 0.002346
S 0.004692 -14.712421 2.945299
S 2.947645 -14.712421 0.002346
S 2.947645 -17.655375 2.945299
S 0.004692 -17.655375 5.888253
S 0.004692 -14.712421 8.831206
S 2.947645 -14.712421 5.888253
S 2.947645 -17.655375 8.831206
S 0.004692 -17.655375 11.774160
S 0.004692 -14.712421 14.717113
S 2.947645 -14.712421 11.774160
S 2.947645 -17.655375 14.717113
S 0.004692 -17.655375 17.660067
S 0.004692 -14.712421 20.603020
S 2.947645 -14.712421 17.660067
S 0.004692 -8.826514 -20.598328
S 2.947645 -11.769468 -20.598328
S 0.004692 -11.769468 -17.655375
S 0.004692 -8.826514 -14.712421
S 2.947645 -8.826514 -17.655375
S 2.947645 -11.769468 -14.712421
S 0.004692 -11.769468 -11.769468
S 0.004692 -8.826514 -8.826514
S 2.947645 -8.826514 -11.769468
S 2.947645 -11.769468 -8.826514
S 0.004692 -11.769468 -5.883561
S 0.004692 -8.826514 -2.940608
S 2.947645 -8.826514 -5.883561
S 2.947645 -11.769468 -2.940608
S 0.004692 -11.769468 0.002346
S 0.004692 -8.826514 2.945299
S 2.947645 -8.826514 0.002346
S 2.947645 -11.769468 2.945299
S 0.004692 -11.769468 5.888253
S 0.004692 -8.826514 8.831206
S 2.947645 -8.826514 5.888253
S 2.947645 -11.769468 8.831206
S 0.004692 -11.769468 11.774160
S 0.004692 -8.826514 14.717113
S 2.947645 -8.826514 11.774160
S 2.947645 -11.769468 14.717113
S 0.004692 -11.769468 17.660067
S 0.004692 -8.826514 20.603020
S 2.947645 -8.826514 17.660067
S 2.947645 -11.769468 20.603020
S 0.004692 -2.940608 -20.598328
S 2.947645 -5.883561 -20.598328
S 0.004692 -5.883561 -17.655375
S 0.004692 -2.940608 -14.712421
S 2.947645 -2.940608 -17.655375
S 2.947645 -5.883561 -14.712421
S 0.004692 -5.883561 -11.769468
S 0.004692 -2.940608 -8.826514
S 2.947645 -2.940608 -11.769468
S 2.947645 -5.883561 -8.826514
S 0.004692 -5.883561 -5.883561
S 0.004692 -2.940608 -2.940608
S 2.947645 -2.940608 -5.883561
S 2.947645 -5.883561 -2.940608
S 0.004692 -5.883561 0.002346
S 0.004692 -2.940608 2.945299
S 2.947645 -2.940608 0.002346
S 2.947645 -5.883561 2.945299
S 0.004692 -5.883561 5.888253
S 0.004692 -2.940608 8.831206
S 2.947645 -2.940608 5.888253
S 2.947645 -5.883561 8.831206
S 0.004692 -5.883561 11.774160
S 0.004692 -2.940608 14.717113
S 2.947645 -2.940608 11.774160
S 2.947645 -5.883561 14.717113
S 0.004692 -5.883561 17.660067
S 0.004692 -2.940608 20.603020
S 2.947645 -2.940608 17.660067
S 2.947645 -5.883561 20.603020
S 0.004692 2.945299 -20.598328
S 2.947645 0.002346 -20.598328
S 0.004692 0.002346 -17.655375
S 0.004692 2.945299 -14.712421
S 2.947645 2.945299 -17.655375
S 2.947645 0.002346 -14.712421
S 0.004692 0.002346 -11.769468
S 0.004692 2.945299 -8.826514
S 2.947645 2.945299 -11.769468
S 2.947645 0.002346 -8.826514
S 0.004692 0.002346 -5.883561
S 0.004692 2.945299 -2.940608
S 2.947645 2.945299 -5.883561
S 2.947645 0.002346 -2.940608
S 0.004692 0.002346 0.002346
S 0.004692 2.945299 2.945299
S 2.947645 2.945299 0.002346
S 2.947645 0.002346 2.945299
S 0.004692 0.002346 5.888253
S 0.004692 2.945299 8.831206
S 2.947645 2.945299 5.888253
S 2.947645 0.002346 8.831206
S 0.004692 0.002346 11.774160
S 0.004692 2.945299 14.717113
S 2.947645 2.945299 11.774160
S 2.947645 0.002346 14.717113
S 0.004692 0.002346 17.660067
S 0.004692 2.945299 20.603020
S 2.947645 2.945299 17.660067
S 2.947645 0.002346 20.603020
S 0.004692 8.831206 -20.598328
S 2.947645 5.888253 -20.598328
S 0.004692 5.888253 -17.655375
S 0.004692 8.831206 -14.712421
S 2.947645 8.831206 -17.655375
S 2.947645 5.888253 -14.712421
S 0.004692 5.888253 -11.769468
S 0.004692 8.831206 -8.826514
S 2.947645 8.831206 -11.769468
S 2.947645 5.888253 -8.826514
S 0.004692 5.888253 -5.883561
S 0.004692 8.831206 -2.940608
S 2.947645 8.831206 -5.883561
S 2.947645 5.888253 -2.940608
S 0.004692 5.888253 0.002346
S 0.004692 8.831206 2.945299
S 2.947645 8.831206 0.002346
S 2.947645 5.888253 2.945299
S 0.004692 5.888253 5.888253
S 0.004692 8.831206 8.831206
S 2.947645 8.831206 5.888253
S 2.947645 5.888253 8.831206
S 0.004692 5.888253 11.774160
S 0.004692 8.831206 14.717113
S 2.947645 8.831206 11.774160
S 2.947645 5.888253 14.717113
S 0.004692 5.888253 17.660067
S 0.004692 8.831206 20.603020
S 2.947645 8.831206 17.660067
S 2.947645 5.888253 20.603020
S 0.004692 14.717113 -20.598328
S 2.947645 11.774160 -20.598328
S 0.004692 11.774160 -17.655375
S 0.004692 14.717113 -14.712421
S 2.947645 14.717113 -17.655375
S 2.947645 11.774160 -14.712421
S 0.004692 11.774160 -11.769468
S 0.004692 14.717113 -8.826514
S 2.947645 14.717113 -11.769468
S 2.947645 11.774160 -8.826514
S 0.004692 11.774160 -5.883561
S 0.004692 14.717113 -2.940608
S 2.947645 14.717113 -5.883561
S 2.947645 11.774160 -2.940608
S 0.004692 11.774160 0.002346
S 0.004692 14.717113 2.945299
S 2.947645 14.717113 0.002346
S 2.947645 11.774160 2.945299
S 0.004692 11.774160 5.888253
S 0.004692 14.717113 8.831206
S 2.947645 14.717113 5.888253
S 2.947645 11.774160 8.831206
S 0.004692 11.774160 11.774160
S 0.004692 14.717113 14.717113
S 2.947645 14.717113 11.774160
S 2.947645 11.774160 14.717113
S 0.004692 11.774160 17.660067
S 0.004692 14.717113 20.603020
S 2.947645 14.717113 17.660067
S 2.947645 11.774160 20.603020
S 0.004692 17.660067 -17.655375
S 0.004692 20.603020 -14.712421
S 2.947645 17.660067 -14.712421
S 0.004692 17.660067 -11.769468
S 0.004692 20.603020 -8.826514
S 2.947645 20.603020 -11.769468
S 2.947645 17.660067 -8.826514
S 0.004692 17.660067 -5.883561
S 0.004692 20.603020 -2.940608
S 2.947645 20.603020 -5.883561
S 2.947645 17.660067 -2.940608
S 0.004692 17.660067 0.002346
S 0.004692 20.603020 2.945299
S 2.947645 20.603020 0.002346
S 2.947645 17.660067 2.945299
S 0.004692 17.660067 5.888253
S 0.004692 20.603020 8.831206
S 2.947645 20.603020 5.888253
S 2.947645 17.660067 8.831206
S 0.004692 17.660067 11.774160
S 0.004692 20.603020 14.717113
S 2.947645 20.603020 11.774160
S 2.947645 17.660067 14.717113
S 0.004692 17.660067 17.660067
S 5.890599 -20.598328 -8.826514
S 5.890599 -20.598328 -2.940608
S 8.833552 -20.598328 -5.883561
S 5.890599 -20.598328 2.945299
S 8.833552 -20.598328 0.002346
S 5.890599 -20.598328 8.831206
S 8.833552 -20.598328 5.888253
S 5.890599 -14.712421 -14.712421
S 5.890599 -17.655375 -11.769468
S 5.890599 -14.712421 -8.826514
S 8.833552 -14.712421 -11.769468
S 8.833552 -17.655375 -8.826514
S 5.890599 -17.655375 -5.883561
S 5.890599 -14.712421 -2.940608
S 8.833552 -14.712421 -5.883561
S 8.833552 -17.655375 -2.940608
S 5.890599 -17.655375 0.002346
S 5.890599 -14.712421 2.945299
S 8.833552 -14.712421 0.002346
S 8.833552 -17.655375 2.945299
S 5.890599 -17.655375 5.888253
S 5.890599 -14.712421 8.831206
S 8.833552 -14.712421 5.888253
S 8.833552 -17.655375 8.831206
S 5.890599 -17.655375 11.774160
S 5.890599 -14.712421 14.717113
S 8.833552 -14.712421 11.774160
S 5.890599 -8.826514 -20.598328
S 5.890599 -11.769468 -17.655375
S 5.890599 -8.826514 -14.712421
S 8.833552 -8.826514 -17.655375
S 8.833552 -11.769468 -14.712421
S 5.890599 -11.769468 -11.769468
S 5.890599 -8.826514 -8.826514
S 8.833552 -8.826514 -11.769468
S 8.833552 -11.769468 -8.826514
S 5.890599 -11.769468 -5.883561
S 5.890599 -8.826514 -2.940608
S 8.833552 -8.826514 -5.883561
S 8.833552 -11.769468 -2.940608
S 5.890599 -11.769468 0.002346
S 5.890599 -8.826514 2.945299
S 8.833552 -8.826514 0.002346
S 8.833552 -11.769468 2.945299
S 5.890599 -11.769468 5.888253
S 5.890599 -8.826514 8.831206
S 8.833552 -8.826514 5.888253
S 8.833552 -11.769468 8.831206
S 5.890599 -11.769468 11.774160
S 5.890599 -8.826514 14.717113
S 8.833552 -8.826514 11.774160
S 8.833552 -11.769468 14.717113
S 5.890599 -11.769468 17.660067
S 5.890599 -8.826514 20.603020
S 8.833552 -8.826514 17.660067
S 5.890599 -2.940608 -20.598328
S 8.833552 -5.883561 -20.598328
S 5.890599 -5.883561 -17.655375
S 5.890599 -2.940608 -14.712421
S 8.833552 -2.940608 -17.655375
S 8.833552 -5.883561 -14.712421
S 5.890599 -5.883561 -11.769468
S 5.890599 -2.940608 -8.826514
S 8.833552 -2.940608 -11.769468
S 8.833552 -5.883561 -8.826514
S 5.890599 -5.883561 -5.883561
S 5.890599 -2.940608 -2.940608
S 8.833552 -2.940608 -5.883561
S 8.833552 -5.883561 -2.940608
S 5.890599 -5.883561 0.002346
S 5.890599 -2.940608 2.945299
S 8.833552 -2.940608 0.002346
S 8.833552 -5.883561 2.945299
S 5.890599 -5.883561 5.888253
S 5.890599 -2.940608 8.831206
S 8.833552 -2.940608 5.888253
S 8.833552 -5.883561 8.831206
S 5.890599 -5.883561 11.774160
S 5.890599 -2.940608 14.717113
S 8.833552 -2.940608 11.774160
S 8.833552 -5.883561 14.717113
S 5.890599 -5.883561 17.660067
S 5.890599 -2.940608 20.603020
S 8.833552 -2.940608 17.660067
S 8.833552 -5.883561 20.603020
S 5.890599 2.945299 -20.598328
S 8.833552 0.002346 -20.598328
S 5.890599 0.002346 -17.655375
S 5.890599 2.945299 -14.712421
S 8.833552 2.945299 -17.655375
S 8.833552 0.002346 -14.712421
S 5.890599 0.002346 -11.769468
S 5.890599 2.945299 -8.826514
S 8.833552 2.945299 -11.769468
S 8.833552 0.002346 -8.826514
S 5.890599 0.002346 -5.883561
S 5.890599 2.945299 -2.940608
S 8.833552 2.945299 -5.883561
S 8.833552 0.002346 -2.940608
S 5.890599 0.002346 0.002346
S 5.890599 2.945299 2.945299
S 8.833552 2.945299 0.002346
S 8.833552 0.002346 2.945299
S 5.890599 0.002346 5.888253
S 5.890599 2.945299 8.831206
S 8.833552 2.945299 5.888253
S 8.833552 0.002346 8.831206
S 5.890599 0.002346 11.774160
S 5.890599 2.945299 14.717113
S 8.833552 2.945299 11.774160
S 8.833552 0.002346 14.717113
S 5.890599 0.002346 17.660067
S 5.890599 2.945299 20.603020
S 8.833552 2.945299 17.660067
S 8.833552 0.002346 20.603020
S 5.890599 8.831206 -20.598328
S 8.833552 5.888253 -20.598328
S 5.890599 5.888253 -17.655375
S 5.890599 8.831206 -14.712421
S 8.833552 8.831206 -17.655375
S 8.833552 5.888253 -14.712421
S 5.890599 5.888253 -11.769468
S 5.890599 8.831206 -8.826514
S 8.833552 8.831206 -11.769468
S 8.833552 5.888253 -8.826514
S 5.890599 5.888253 -5.883561
S 5.890599 8.831206 -2.940608
S 8.833552 8.831206 -5.883561
S 8.833552 5.888253 -2.940608
S 5.890599 5.888253 0.002346
S 5.890599 8.831206 2.945299
S 8.833552 8.831206 0.002346
S 8.833552 5.888253 2.945299
S 5.890599 5.888253 5.888253
S 5.890599 8.831206 8.831206
S 8.833552 8.831206 5.888253
S 8.833552 5.888253 8.831206
S 5.890599 5.888253 11.774160
S 5.890599 8.831206 14.717113
S 8.833552 8.831206 11.774160
S 8.833552 5.888253 14.717113
S 5.890599 5.888253 17.660067
S 5.890599 8.831206 20.603020
S 8.833552 8.831206 17.660067
S 8.833552 5.888253 20.603020
S 5.890599 11.774160 -17.655375
S 5.890599 14.717113 -14.712421
S 8.833552 11.774160 -14.712421
S 5.890599 11.774160 -11.769468
S 5.890599 14.717113 -8.826514
S 8.833552 14.717113 -11.769468
S 8.833552 11.774160 -8.826514
S 5.890599 11.774160 -5.883561
S 5.890599 14.717113 -2.940608
S 8.833552 14.717113 -5.883561
S 8.833552 11.774160 -2.940608
S 5.890599 11.774160 0.002346
S 5.890599 14.717113 2.945299
S 8.833552 14.717113 0.002346
S 8.833552 11.774160 2.945299
S 5.890599 11.774160 5.888253
S 5.890599 14.717113 8.831206
S 8.833552 14.717113 5.888253
S 8.833552 11.774160 8.831206
S 5.890599 11.774160 11.774160
S 5.890599 14.717113 14.717113
S 8.833552 14.717113 11.774160
S 8.833552 11.774160 14.717113
S 5.890599 11.774160 17.660067
S 5.890599 17.660067 -11.769468
S 5.890599 20.603020 -8.826514
S 8.833552 17.660067 -8.826514
S 5.890599 17.660067 -5.883561
S 5.890599 20.603020 -2.940608
S 8.833552 20.603020 -5.883561
S 8.833552 17.660067 -2.940608
S 5.890599 17.660067 0.002346
S 5.890599 20.603020 2.945299
S 8.833552 20.603020 0.002346
S 8.833552 17.660067 2.945299
S 5.890599 17.660067 5.888253
S 5.890599 20.603020 8.831206
S 8.833552 20.603020 5.888253
S 8.833552 17.660067 8.831206
S 5.890599 17.660067 11.774160
S 11.776506 -20.598328 -2.940608
S 11.776506 -20.598328 2.945299
S 14.719459 -20.598328 0.002346
S 11.776506 -14.712421 -8.826514
S 11.776506 -17.655375 -5.883561
S 11.776506 -14.712421 -2.940608
S 14.719459 -14.712421 -5.883561
S 14.719459 -17.655375 -2.940608
S 11.776506 -17.655375 0.002346
S 11.776506 -14.712421 2.945299
S 14.719459 -14.712421 0.002346
S 14.719459 -17.655375 2.945299
S 11.776506 -17.655375 5.888253
S 11.776506 -14.712421 8.831206
S 14.719459 -14.712421 5.888253
S 11.776506 -8.826514 -14.712421
S 11.776506 -11.769468 -11.769468
S 11.776506 -8.826514 -8.826514
S 14.719459 -8.826514 -11.769468
S 14.719459 -11.769468 -8.826514
S 11.776506 -11.769468 -5.883561
S 11.776506 -8.826514 -2.940608
S 14.719459 -8.826514 -5.883561
S 14.719459 -11.769468 -2.940608
S 11.776506 -11.769468 0.002346
S 11.776506 -8.826514 2.945299
S 14.719459 -8.826514 0.002346
S 14.719459 -11.769468 2.945299
S 11.776506 -11.769468 5.888253
S 11.776506 -8.826514 8.831206
S 14.719459 -8.826514 5.888253
S 14.719459 -11.769468 8.831206
S 11.776506 -11.769468 11.774160
S 11.776506 -8.826514 14.717113
S 14.719459 -8.826514 11.774160
S 11.776506 -2.940608 -20.598328
S 11.776506 -5.883561 -17.655375
S 11.776506 -2.940608 -14.712421
S 14.719459 -2.940608 -17.655375
S 14.719459 -5.883561 -14.712421
S 11.776506 -5.883561 -11.769468
S 11.776506 -2.940608 -8.826514
S 14.719459 -2.940608 -11.769468
S 14.719459 -5.883561 -8.826514
S 11.776506 -5.883561 -5.883561
S 11.776506 -2.940608 -2.940608
S 14.719459 -2.940608 -5.883561
S 14.719459 -5.883561 -2.940608
S 11.776506 -5.883561 0.002346
S 11.776506 -2.940608 2.945299
S 14.719459 -2.940608 0.002346
S 14.719459 -5.883561 2.945299
S 11.776506 -5.883561 5.888253
S 11.776506 -2.940608 8.831206
S 14.719459 -2.940608 5.888253
S 14.719459 -5.883561 8.831206
S 11.776506 -5.883561 11.774160
S 11.776506 -2.940608 14.717113
S 14.719459 -2.940608 11.774160
S 14.719459 -5.883561 14.717113
S 11.776506 -5.883561 17.660067
S 11.776506 -2.940608 20.603020
S 14.719459 -2.940608 17.660067
S 11.776506 2.945299 -20.598328
S 14.719459 0.002346 -20.598328
S 11.776506 0.002346 -17.655375
S 11.776506 2.945299 -14.712421
S 14.719459 2.945299 -17.655375
S 14.719459 0.002346 -14.712421
S 11.776506 0.002346 -11.769468
S 11.776506 2.945299 -8.826514
S 14.719459 2.945299 -11.769468
S 14.719459 0.002346 -8.826514
S 11.776506 0.002346 -5.883561
S 11.776506 2.945299 -2.940608
S 14.719459 2.945299 -5.883561
S 14.719459 0.002346 -2.940608
S 11.776506 0.002346 0.002346
S 11.776506 2.945299 2.945299
S 14.719459 2.945299 0.002346
S 14.719459 0.002346 2.945299
S 11.776506 0.002346 5.888253
S 11.776506 2.945299 8.831206
S 14.719459 2.945299 5.888253
S 14.719459 0.002346 8.831206
S 11.776506 0.002346 11.774160
S 11.776506 2.945299 14.717113
S 14.719459 2.945299 11.774160
S 14.719459 0.002346 14.717113
S 11.776506 0.002346 17.660067
S 11.776506 2.945299 20.603020
S 14.719459 2.945299 17.660067
S 14.719459 0.002346 20.603020
S 11.776506 5.888253 -17.655375
S 11.776506 8.831206 -14.712421
S 14.719459 5.888253 -14.712421
S 11.776506 5.888253 -11.769468
S 11.776506 8.831206 -8.826514
S 14.719459 8.831206 -11.769468
S 14.719459 5.888253 -8.826514
S 11.776506 5.888253 -5.883561
S 11.776506 8.831206 -2.940608
S 14.719459 8.831206 -5.883561
S 14.719459 5.888253 -2.940608
S 11.776506 5.888253 0.002346
S 11.776506 8.831206 2.945299
S 14.719459 8.831206 0.002346
S 14.719459 5.888253 2.945299
S 11.776506 5.888253 5.888253
S 11.776506 8.831206 8.831206
S 14.719459 8.831206 5.888253
S 14.719459 5.888253 8.831206
S 11.776506 5.888253 11.774160
S 11.776506 8.831206 14.717113
S 14.719459 8.831206 11.774160
S 14.719459 5.888253 14.717113
S 11.776506 5.888253 17.660067
S 11.776506 11.774160 -11.769468
S 11.776506 14.717113 -8.826514
S 14.719459 11.774160 -8.826514
S 11.776506 11.774160 -5.883561
S 11.776506 14.717113 -2.940608
S 14.719459 14.717113 -5.883561
S 14.719459 11.774160 -2.940608
S 11.776506 11.774160 0.002346
S 11.776506 14.717113 2.945299
S 14.719459 14.717113 0.002346
S 14.719459 11.774160 2.945299
S 11.776506 11.774160 5.888253
S 11.776506 14.717113 8.831206
S 14.719459 14.717113 5.888253
S 14.719459 11.774160 8.831206
S 11.776506 11.774160 11.774160
S 11.776506 17.660067 -5.883561
S 11.776506 20.603020 -2.940608
S 14.719459 17.660067 -2.940608
S 11.776506 17.660067 0.002346
S 11.776506 20.603020 2.945299
S 14.719459 20.603020 0.002346
S 14.719459 17.660067 2.945299
S 11.776506 17.660067 5.888253
S 17.662413 -14.712421 -2.940608
S 17.662413 -17.655375 0.002346
S 17.662413 -14.712421 2.945299
S 20.605366 -14.712421 0.002346
S 17.662413 -8.826514 -8.826514
S 17.662413 -11.769468 -5.883561
S 17.662413 -8.826514 -2.940608
S 20.605366 -8.826514 -5.883561
S 20.605366 -11.769468 -2.940608
S 17.662413 -11.769468 0.002346
S 17.662413 -8.826514 2.945299
S 20.605366 -8.826514 0.002346
S 20.605366 -11.769468 2.945299
S 17.662413 -11.769468 5.888253
S 17.662413 -8.826514 8.831206
S 20.605366 -8.826514 5.888253
S 17.662413 -2.940608 -14.712421
S 17.662413 -5.883561 -11.769468
S 17.662413 -2.940608 -8.826514
S 20.605366 -2.940608 -11.769468
S 20.605366 -5.883561 -8.826514
S 17.662413 -5.883561 -5.883561
S 17.662413 -2.940608 -2.940608
S 20.605366 -2.940608 -5.883561
S 20.605366 -5.883561 -2.940608
S 17.662413 -5.883561 0.002346
S 17.662413 -2.940608 2.945299
S 20.605366 -2.940608 0.002346
S 20.605366 -5.883561 2.945299
S 17.662413 -5.883561 5.888253
S 17.662413 -2.940608 8.831206
S 20.605366 -2.940608 5.888253
S 20.605366 -5.883561 8.831206
S 17.662413 -5.883561 11.774160
S 17.662413 -2.940608 14.717113
S 20.605366 -2.940608 11.774160
S 17.662413 0.002346 -17.655375
S 17.662413 2.945299 -14.712421
S 20.605366 0.002346 -14.712421
S 17.662413 0.002346 -11.769468
S 17.662413 2.945299 -8.826514
S 20.605366 2.945299 -11.769468
S 20.605366 0.002346 -8.826514
S 17.662413 0.002346 -5.883561
S 17.662413 2.945299 -2.940608
S 20.605366 2.945299 -5.883561
S 20.605366 0.002346 -2.940608
S 17.662413 0.002346 0.002346
S 17.662413 2.945299 2.945299
S 20.605366 2.945299 0.002346
S 20.605366 0.002346 2.945299
S 17.662413 0.002346 5.888253
S 17.662413 2.945299 8.831206
S 20.605366 2.945299 5.888253
S 20.605366 0.002346 8.831206
S 17.662413 0.002346 11.774160
S 17.662413 2.945299 14.717113
S 20.605366 2.945299 11.774160
S 20.605366 0.002346 14.717113
S 17.662413 0.002346 17.660067
S 17.662413 5.888253 -11.769468
S 17.662413 8.831206 -8.826514
S 20.605366 5.888253 -8.826514
S 17.662413 5.888253 -5.883561
S 17.662413 8.831206 -2.940608
S 20.605366 8.831206 -5.883561
S 20.605366 5.888253 -2.940608
S 17.662413 5.888253 0.002346
S 17.662413 8.831206 2.945299
S 20.605366 8.831206 0.002346
S 20.605366 5.888253 2.945299
S 17.662413 5.888253 5.888253
S 17.662413 8.831206 8.831206
S 20.605366 8.831206 5.888253
S 20.605366 5.888253 8.831206
S 17.662413 5.888253 11.774160
S 17.662413 11.774160 -5.883561
S 17.662413 14.717113 -2.940608
S 20.605366 11.774160 -2.940608
S 17.662413 11.774160 0.002346
S 17.662413 14.717113 2.945299
S 20.605366 14.717113 0.002346
S 20.605366 11.774160 2.945299
S 17.662413 11.774160 5.888253
S 17.662413 17.660067 0.002346
Cl -23.538936 -8.826514 -2.940608
Cl -23.538936 -11.769468 0.002346
Cl -23.538936 -8.826514 2.945299
Cl -23.538936 -2.940608 -8.826514
Cl -23.538936 -5.883561 -5.883561
Cl -23.538936 -2.940608 -2.940608
Cl -23.538936 -5.883561 0.002346
Cl -23.538936 -2.940608 2.945299
Cl -23.538936 -5.883561 5.888253
Cl -23.538936 -2.940608 8.831206
Cl -23.538936 0.002346 -11.769468
Cl -23.538936 2.945299 -8.826514
Cl -23.538936 0.002346 -5.883561
Cl -23.538936 2.945299 -2.940608
Cl -23.538936 0.002346 0.002346
Cl -23.538936 2.945299 2.945299
Cl -23.538936 0.002346 5.888253
Cl -23.538936 2.945299 8.831206
Cl -23.538936 0.002346 11.774160
Cl -23.538936 5.888253 -5.883561
Cl -23.538936 8.831206 -2.940608
Cl -23.538936 5.888253 0.002346
Cl -23.538936 8.831206 2.945299
Cl -23.538936 5.888253 5.888253
Cl -23.538936 11.774160 0.002346
Cl -8.824169 -23.541282 -2.940608
Cl -11.767122 -23.541282 0.002346
Cl -8.824169 -23.541282 2.945299
Cl -8.824169 -2.940608 -23.541282
Cl -8.824169 -2.940608 23.545974
Cl -11.767122 0.002346 -23.541282
Cl -8.824169 2.945299 -23.541282
Cl -11.767122 0.002346 23.545974
Cl -8.824169 2.945299 23.545974
Cl -8.824169 23.545974 -2.940608
Cl -11.767122 23.545974 0.002346
Cl -8.824169 23.545974 2.945299
Cl -2.938262 -23.541282 -8.826514
Cl -5.881215 -23.541282 -5.883561
Cl -2.938262 -23.541282 -2.940608
Cl -5.881215 -23.541282 0.002346
Cl -2.938262 -23.541282 2.945299
Cl -5.881215 -23.541282 5.888253
Cl -2.938262 -23.541282 8.831206
Cl -2.938262 -8.826514 -23.541282
Cl -2.938262 -8.826514 23.545974
Cl -5.881215 -5.883561 -23.541282
Cl -2.938262 -2.940608 -23.541282
Cl -5.881215 -5.883561 23.545974
Cl -2.938262 -2.940608 23.545974
Cl -5.881215 0.002346 -23.541282
Cl -2.938262 2.945299 -23.541282
Cl -5.881215 0.002346 23.545974
Cl -2.938262 2.945299 23.545974
Cl -5.881215 5.888253 -23.541282
Cl -2.938262 8.831206 -23.541282
Cl -5.881215 5.888253 23.545974
Cl -2.938262 8.831206 23.545974
Cl -2.938262 23.545974 -8.826514
Cl -5.881215 23.545974 -5.883561
Cl -2.938262 23.545974 -2.940608
Cl -5.881215 23.545974 0.002346
Cl -2.938262 23.545974 2.945299
Cl -5.881215 23.545974 5.888253
Cl -2.938262 23.545974 8.831206
Cl 0.004692 -23.541282 -11.769468
Cl 2.947645 -23.541282 -8.826514
Cl 0.004692 -23.541282 -5.883561
Cl 2.947645 -23.541282 -2.940608
Cl 0.004692 -23.541282 0.002346
Cl 2.947645 -23.541282 2.945299
Cl 0.004692 -23.541282 5.888253
Cl 2.947645 -23.541282 8.831206
Cl 0.004692 -23.541282 11.774160
Cl 0.004692 -11.769468 -23.541282
Cl 2.947645 -8.826514 -23.541282
Cl 0.004692 -11.769468 23.545974
Cl 2.947645 -8.826514 23.545974
Cl 0.004692 -5.883561 -23.541282
Cl 2.947645 -2.940608 -23.541282
Cl 0.004692 -5.883561 23.545974
Cl 2.947645 -2.940608 23.545974
Cl 0.004692 0.002346 -23.541282
Cl 2.947645 2.945299 -23.541282
Cl 0.004692 0.002346 23.545974
Cl 2.947645 2.945299 23.545974
Cl 0.004692 5.888253 -23.541282
Cl 2.947645 8.831206 -23.541282
Cl 0.004692 5.888253 23.545974
Cl 2.947645 8.831206 23.545974
Cl 0.004692 11.774160 -23.541282
Cl 0.004692 11.774160 23.545974
Cl 0.004692 23.545974 -11.769468
Cl 2.947645 23.545974 -8.826514
Cl 0.004692 23.545974 -5.883561
Cl 2.947645 23.545974 -2.940608
Cl 0.004692 23.545974 0.002346
Cl 2.947645 23.545974 2.945299
Cl 0.004692 23.545974 5.888253
Cl 2.947645 23.545974 8.831206
Cl 0.004692 23.545974 11.774160
Cl 5.890599 -23.541282 -5.883561
Cl 8.833552 -23.541282 -2.940608
Cl 5.890599 -23.541282 0.002346
Cl 8.833552 -23.541282 2.945299
Cl 5.890599 -23.541282 5.888253
Cl 5.890599 -5.883561 -23.541282
Cl 8.833552 -2.940608 -23.541282
Cl 5.890599 -5.883561 23.545974
Cl 8.833552 -2.940608 23.545974
Cl 5.890599 0.002346 -23.541282
Cl 8.833552 2.945299 -23.541282
Cl 5.890599 0.002346 23.545974
Cl 8.833552 2.945299 23.545974
Cl 5.890599 5.888253 -23.541282
Cl 5.890599 5.888253 23.545974
Cl 5.890599 23.545974 -5.883561
Cl 8.833552 23.545974 -2.940608
Cl 5.890599 23.545974 0.002346
Cl 8.833552 23.545974 2.945299
Cl 5.890599 23.545974 5.888253
Cl 11.776506 -23.541282 0.002346
Cl 11.776506 0.002346 -23.541282
Cl 11.776506 0.002346 23.545974
Cl 11.776506 23.545974 0.002346
Cl 23.548320 -8.826514 -2.940608
Cl 23.548320 -11.769468 0.002346
Cl 23.548320 -8.826514 2.945299
Cl 23.548320 -2.940608 -8.826514
Cl 23.548320 -5.883561 -5.883561
Cl 23.548320 -2.940608 -2.940608
Cl 23.548320 -5.883561 0.002346
Cl 23.548320 -2.940608 2.945299
Cl 23.548320 -5.883561 5.888253
Cl 23.548320 -2.940608 8.831206
Cl 23.548320 0.002346 -11.769468
Cl 23.548320 2.945299 -8.826514
Cl 23.548320 0.002346 -5.883561
Cl 23.548320 2.945299 -2.940608
Cl 23.548320 0.002346 0.002346
Cl 23.548320 2.945299 2.945299
Cl 23.548320 0.002346 5.888253
Cl 23.548320 2.945299 8.831206
Cl 23.548320 0.002346 11.774160
Cl 23.548320 5.888253 -5.883561
Cl 23.548320 8.831206 -2.940608
Cl 23.548320 5.888253 0.002346
Cl 23.548320 8.831206 2.945299
Cl 23.548320 5.888253 5.888253
Cl 23.548320 11.774160 0.002346
Cl -14.710075 -14.712421 8.831206
Cl -14.710075 8.831206 -14.712421
Cl 8.833552 -14.712421 -14.712421
Cl 8.833552 14.717113 14.717113
