800
GaP-P-Ga360P320Cl120-clean
Ga -14.971525 -9.523307 9.523307
Ga -14.971525 -12.249120 12.249120
Ga -14.971525 -4.071682 4.071682
Ga -14.971525 -6.797495 6.797495
Ga -14.971525 1.379943 -1.379943
Ga -14.971525 -1.345870 1.345870
Ga -14.971525 6.831568 -6.831568
Ga -14.971525 4.105755 -4.105755
Ga -14.971525 12.283193 -12.283193
Ga -14.971525 9.557380 -9.557380
Ga -9.519900 -14.974932 9.523307
Ga -12.245713 -14.974932 12.249120
Ga -9.519900 -9.523307 4.071682
Ga -9.519900 -12.249120 6.797495
Ga -12.245713 -9.523307 6.797495
Ga -12.245713 -12.249120 9.523307
Ga -9.519900 -9.523307 9.523307
Ga -9.519900 -12.249120 12.249120
Ga -12.245713 -9.523307 12.249120
Ga -12.245713 -12.249120 14.974932
Ga -9.519900 -9.523307 14.974932
Ga -9.519900 -4.071682 -1.379943
Ga -9.519900 -6.797495 1.345870
Ga -12.245713 -4.071682 1.345870
Ga -12.245713 -6.797495 4.071682
Ga -9.519900 -4.071682 4.071682
Ga -9.519900 -6.797495 6.797495
Ga -12.245713 -4.071682 6.797495
Ga -12.245713 -6.797495 9.523307
Ga -9.519900 -4.071682 9.523307
Ga -9.519900 -6.797495 12.249120
Ga -9.519900 1.379943 -6.831568
Ga -9.519900 -1.345870 -4.105755
Ga -12.245713 1.379943 -4.105755
Ga -12.245713 -1.345870 -1.379943
Ga -9.519900 1.379943 -1.379943
Ga -9.519900 -1.345870 1.345870
Ga -12.245713 1.379943 1.345870
Ga -12.245713 -1.345870 4.071682
Ga -9.519900 1.379943 4.071682
Ga -9.519900 -1.345870 6.797495
Ga -9.519900 6.831568 -12.283193
Ga -9.519900 4.105755 -9.557380
Ga -12.245713 6.831568 -9.557380
Ga -12.245713 4.105755 -6.831568
Ga -9.519900 6.831568 -6.831568
Ga -9.519900 4.105755 -4.105755
Ga -12.245713 6.831568 -4.105755
Ga -12.245713 4.105755 -1.379943
Ga -9.519900 6.831568 -1.379943
Ga -9.519900 4.105755 1.345870
Ga -9.519900 9.557380 -15.009005
Ga -12.245713 12.283193 -15.009005
Ga -12.245713 9.557380 -12.283193
Ga -9.519900 12.283193 -12.283193
Ga -9.519900 9.557380 -9.557380
Ga -12.245713 12.283193 -9.557380
Ga -12.245713 9.557380 -6.831568
Ga -9.519900 12.283193 -6.831568
Ga -9.519900 9.557380 -4.105755
Ga -12.245713 15.009005 -12.283193
Ga -9.519900 15.009005 -9.557380
Ga -4.068275 -14.974932 4.071682
Ga -6.794088 -14.974932 6.797495
Ga -4.068275 -9.523307 -1.379943
Ga -4.068275 -12.249120 1.345870
Ga -6.794088 -9.523307 1.345870
Ga -6.794088 -12.249120 4.071682
Ga -4.068275 -9.523307 4.071682
Ga -4.068275 -12.249120 6.797495
Ga -6.794088 -9.523307 6.797495
Ga -6.794088 -12.249120 9.523307
Ga -4.068275 -9.523307 9.523307
Ga -6.794088 -9.523307 12.249120
Ga -4.068275 -4.071682 -6.831568
Ga -4.068275 -6.797495 -4.105755
Ga -6.794088 -4.071682 -4.105755
Ga -6.794088 -6.797495 -1.379943
Ga -4.068275 -4.071682 -1.379943
Ga -4.068275 -6.797495 1.345870
Ga -6.794088 -4.071682 1.345870
Ga -6.794088 -6.797495 4.071682
Ga -4.068275 -4.071682 4.071682
Ga -4.068275 -6.797495 6.797495
Ga -6.794088 -4.071682 6.797495
Ga -6.794088 -6.797495 9.523307
Ga -4.068275 -4.071682 9.523307
Ga -4.068275 -6.797495 12.249120
Ga -6.794088 -4.071682 12.249120
Ga -6.794088 -6.797495 14.974932
Ga -4.068275 -4.071682 14.974932
Ga -4.068275 1.379943 -12.283193
Ga -4.068275 -1.345870 -9.557380
Ga -6.794088 1.379943 -9.557380
Ga -6.794088 -1.345870 -6.831568
Ga -4.068275 1.379943 -6.831568
Ga -4.068275 -1.345870 -4.105755
Ga -6.794088 1.379943 -4.105755
Ga -6.794088 -1.345870 -1.379943
Ga -4.068275 1.379943 -1.379943
Ga -4.068275 -1.345870 1.345870
Ga -6.794088 1.379943 1.345870
Ga -6.794088 -1.345870 4.071682
Ga -4.068275 1.379943 4.071682
Ga -4.068275 -1.345870 6.797495
Ga -6.794088 1.379943 6.797495
Ga -6.794088 -1.345870 9.523307
Ga -4.068275 1.379943 9.523307
Ga -4.068275 -1.345870 12.249120
Ga -4.068275 4.105755 -15.009005
Ga -6.794088 6.831568 -15.009005
Ga -6.794088 4.105755 -12.283193
Ga -4.068275 6.831568 -12.283193
Ga -4.068275 4.105755 -9.557380
Ga -6.794088 6.831568 -9.557380
Ga -6.794088 4.105755 -6.831568
Ga -4.068275 6.831568 -6.831568
Ga -4.068275 4.105755 -4.105755
Ga -6.794088 6.831568 -4.105755
Ga -6.794088 4.105755 -1.379943
Ga -4.068275 6.831568 -1.379943
Ga -4.068275 4.105755 1.345870
Ga -6.794088 6.831568 1.345870
Ga -6.794088 4.105755 4.071682
Ga -4.068275 6.831568 4.071682
Ga -4.068275 4.105755 6.797495
Ga -6.794088 9.557380 -12.283193
Ga -4.068275 9.557380 -9.557380
Ga -6.794088 12.283193 -9.557380
Ga -6.794088 9.557380 -6.831568
Ga -4.068275 12.283193 -6.831568
Ga -4.068275 9.557380 -4.105755
Ga -6.794088 12.283193 -4.105755
Ga -6.794088 9.557380 -1.379943
Ga -4.068275 12.283193 -1.379943
Ga -4.068275 9.557380 1.345870
Ga -6.794088 15.009005 -6.831568
Ga -4.068275 15.009005 -4.105755
Ga 1.383350 -14.974932 -1.379943
Ga -1.342463 -14.974932 1.345870
Ga 1.383350 -9.523307 -6.831568
Ga 1.383350 -12.249120 -4.105755
Ga -1.342463 -9.523307 -4.105755
Ga -1.342463 -12.249120 -1.379943
Ga 1.383350 -9.523307 -1.379943
Ga 1.383350 -12.249120 1.345870
Ga -1.342463 -9.523307 1.345870
Ga -1.342463 -12.249120 4.071682
Ga 1.383350 -9.523307 4.071682
Ga -1.342463 -9.523307 6.797495
Ga 1.383350 -4.071682 -12.283193
Ga 1.383350 -6.797495 -9.557380
Ga -1.342463 -4.071682 -9.557380
Ga -1.342463 -6.797495 -6.831568
Ga 1.383350 -4.071682 -6.831568
Ga 1.383350 -6.797495 -4.105755
Ga -1.342463 -4.071682 -4.105755
Ga -1.342463 -6.797495 -1.379943
Ga 1.383350 -4.071682 -1.379943
Ga 1.383350 -6.797495 1.345870
Ga -1.342463 -4.071682 1.345870
Ga -1.342463 -6.797495 4.071682
Ga 1.383350 -4.071682 4.071682
Ga 1.383350 -6.797495 6.797495
Ga -1.342463 -4.071682 6.797495
Ga -1.342463 -6.797495 9.523307
Ga 1.383350 -4.071682 9.523307
Ga -1.342463 -4.071682 12.249120
Ga 1.383350 -1.345870 -15.009005
Ga -1.342463 1.379943 -15.009005
Ga -1.342463 -1.345870 -12.283193
Ga 1.383350 1.379943 -12.283193
Ga 1.383350 -1.345870 -9.557380
Ga -1.342463 1.379943 -9.557380
Ga -1.342463 -1.345870 -6.831568
Ga 1.383350 1.379943 -6.831568
Ga 1.383350 -1.345870 -4.105755
Ga -1.342463 1.379943 -4.105755
Ga -1.342463 -1.345870 -1.379943
Ga 1.383350 1.379943 -1.379943
Ga 1.383350 -1.345870 1.345870
Ga -1.342463 1.379943 1.345870
Ga -1.342463 -1.345870 4.071682
Ga 1.383350 1.379943 4.071682
Ga 1.383350 -1.345870 6.797495
Ga -1.342463 1.379943 6.797495
Ga -1.342463 -1.345870 9.523307
Ga 1.383350 1.379943 9.523307
Ga 1.383350 -1.345870 12.249120
Ga -1.342463 1.379943 12.249120
Ga -1.342463 -1.345870 14.974932
Ga 1.383350 1.379943 14.974932
Ga -1.342463 4.105755 -12.283193
Ga 1.383350 4.105755 -9.557380
Ga -1.342463 6.831568 -9.557380
Ga -1.342463 4.105755 -6.831568
Ga 1.383350 6.831568 -6.831568
Ga 1.383350 4.105755 -4.105755
Ga -1.342463 6.831568 -4.105755
Ga -1.342463 4.105755 -1.379943
Ga 1.383350 6.831568 -1.379943
Ga 1.383350 4.105755 1.345870
Ga -1.342463 6.831568 1.345870
Ga -1.342463 4.105755 4.071682
Ga 1.383350 6.831568 4.071682
Ga 1.383350 4.105755 6.797495
Ga -1.342463 6.831568 6.797495
Ga -1.342463 4.105755 9.523307
Ga 1.383350 6.831568 9.523307
Ga 1.383350 4.105755 12.249120
Ga -1.342463 9.557380 -6.831568
Ga 1.383350 9.557380 -4.105755
Ga -1.342463 12.283193 -4.105755
Ga -1.342463 9.557380 -1.379943
Ga 1.383350 12.283193 -1.379943
Ga 1.383350 9.557380 1.345870
Ga -1.342463 12.283193 1.345870
Ga -1.342463 9.557380 4.071682
Ga 1.383350 12.283193 4.071682
Ga 1.383350 9.557380 6.797495
Ga -1.342463 15.009005 -1.379943
Ga 1.383350 15.009005 1.345870
Ga 6.834975 -14.974932 -6.831568
Ga 4.109162 -14.974932 -4.105755
Ga 6.834975 -9.523307 -12.283193
Ga 6.834975 -12.249120 -9.557380
Ga 4.109162 -9.523307 -9.557380
Ga 4.109162 -12.249120 -6.831568
Ga 6.834975 -9.523307 -6.831568
Ga 6.834975 -12.249120 -4.105755
Ga 4.109162 -9.523307 -4.105755
Ga 4.109162 -12.249120 -1.379943
Ga 6.834975 -9.523307 -1.379943
Ga 4.109162 -9.523307 1.345870
Ga 6.834975 -6.797495 -15.009005
Ga 4.109162 -4.071682 -15.009005
Ga 4.109162 -6.797495 -12.283193
Ga 6.834975 -4.071682 -12.283193
Ga 6.834975 -6.797495 -9.557380
Ga 4.109162 -4.071682 -9.557380
Ga 4.109162 -6.797495 -6.831568
Ga 6.834975 -4.071682 -6.831568
Ga 6.834975 -6.797495 -4.105755
Ga 4.109162 -4.071682 -4.105755
Ga 4.109162 -6.797495 -1.379943
Ga 6.834975 -4.071682 -1.379943
Ga 6.834975 -6.797495 1.345870
Ga 4.109162 -4.071682 1.345870
Ga 4.109162 -6.797495 4.071682
Ga 6.834975 -4.071682 4.071682
Ga 4.109162 -4.071682 6.797495
Ga 4.109162 -1.345870 -12.283193
Ga 6.834975 -1.345870 -9.557380
Ga 4.109162 1.379943 -9.557380
Ga 4.109162 -1.345870 -6.831568
Ga 6.834975 1.379943 -6.831568
Ga 6.834975 -1.345870 -4.105755
Ga 4.109162 1.379943 -4.105755
Ga 4.109162 -1.345870 -1.379943
Ga 6.834975 1.379943 -1.379943
Ga 6.834975 -1.345870 1.345870
Ga 4.109162 1.379943 1.345870
Ga 4.109162 -1.345870 4.071682
Ga 6.834975 1.379943 4.071682
Ga 6.834975 -1.345870 6.797495
Ga 4.109162 1.379943 6.797495
Ga 4.109162 -1.345870 9.523307
Ga 6.834975 1.379943 9.523307
Ga 4.109162 1.379943 12.249120
Ga 4.109162 4.105755 -6.831568
Ga 6.834975 4.105755 -4.105755
Ga 4.109162 6.831568 -4.105755
Ga 4.109162 4.105755 -1.379943
Ga 6.834975 6.831568 -1.379943
Ga 6.834975 4.105755 1.345870
Ga 4.109162 6.831568 1.345870
Ga 4.109162 4.105755 4.071682
Ga 6.834975 6.831568 4.071682
Ga 6.834975 4.105755 6.797495
Ga 4.109162 6.831568 6.797495
Ga 4.109162 4.105755 9.523307
Ga 6.834975 6.831568 9.523307
Ga 6.834975 4.105755 12.249120
Ga 4.109162 6.831568 12.249120
Ga 4.109162 4.105755 14.974932
Ga 6.834975 6.831568 14.974932
Ga 4.109162 9.557380 -1.379943
Ga 6.834975 9.557380 1.345870
Ga 4.109162 12.283193 1.345870
Ga 4.109162 9.557380 4.071682
Ga 6.834975 12.283193 4.071682
Ga 6.834975 9.557380 6.797495
Ga 4.109162 12.283193 6.797495
Ga 4.109162 9.557380 9.523307
Ga 6.834975 12.283193 9.523307
Ga 6.834975 9.557380 12.249120
Ga 4.109162 15.009005 4.071682
Ga 6.834975 15.009005 6.797495
Ga 12.286600 -14.974932 -12.283193
Ga 9.560787 -14.974932 -9.557380
Ga 12.286600 -12.249120 -15.009005
Ga 9.560787 -9.523307 -15.009005
Ga 9.560787 -12.249120 -12.283193
Ga 12.286600 -9.523307 -12.283193
Ga 12.286600 -12.249120 -9.557380
Ga 9.560787 -9.523307 -9.557380
Ga 9.560787 -12.249120 -6.831568
Ga 12.286600 -9.523307 -6.831568
Ga 9.560787 -9.523307 -4.105755
Ga 9.560787 -6.797495 -12.283193
Ga 12.286600 -6.797495 -9.557380
Ga 9.560787 -4.071682 -9.557380
Ga 9.560787 -6.797495 -6.831568
Ga 12.286600 -4.071682 -6.831568
Ga 12.286600 -6.797495 -4.105755
Ga 9.560787 -4.071682 -4.105755
Ga 9.560787 -6.797495 -1.379943
Ga 12.286600 -4.071682 -1.379943
Ga 9.560787 -4.071682 1.345870
Ga 9.560787 -1.345870 -6.831568
Ga 12.286600 -1.345870 -4.105755
Ga 9.560787 1.379943 -4.105755
Ga 9.560787 -1.345870 -1.379943
Ga 12.286600 1.379943 -1.379943
Ga 12.286600 -1.345870 1.345870
Ga 9.560787 1.379943 1.345870
Ga 9.560787 -1.345870 4.071682
Ga 12.286600 1.379943 4.071682
Ga 9.560787 1.379943 6.797495
Ga 9.560787 4.105755 -1.379943
Ga 12.286600 4.105755 1.345870
Ga 9.560787 6.831568 1.345870
Ga 9.560787 4.105755 4.071682
Ga 12.286600 6.831568 4.071682
Ga 12.286600 4.105755 6.797495
Ga 9.560787 6.831568 6.797495
Ga 9.560787 4.105755 9.523307
Ga 12.286600 6.831568 9.523307
Ga 9.560787 6.831568 12.249120
Ga 9.560787 9.557380 4.071682
Ga 12.286600 9.557380 6.797495
Ga 9.560787 12.283193 6.797495
Ga 9.560787 9.557380 9.523307
Ga 12.286600 12.283193 9.523307
Ga 12.286600 9.557380 12.249120
Ga 9.560787 12.283193 12.249120
Ga 9.560787 9.557380 14.974932
Ga 12.286600 12.283193 14.974932
Ga 9.560787 15.009005 9.523307
Ga 12.286600 15.009005 12.249120
Ga 15.012412 -12.249120 -12.283193
Ga 15.012412 -9.523307 -9.557380
Ga 15.012412 -6.797495 -6.831568
Ga 15.012412 -4.071682 -4.105755
Ga 15.012412 -1.345870 -1.379943
Ga 15.012412 1.379943 1.345870
Ga 15.012412 4.105755 4.071682
Ga 15.012412 6.831568 6.797495
Ga 15.012412 9.557380 9.523307
Ga 15.012412 12.283193 12.249120
P -13.608619 -8.160401 10.886214
P -13.608619 -2.708776 -0.017036
P -13.608619 -5.434589 2.708776
P -13.608619 -2.708776 5.434589
P -13.608619 -5.434589 8.160401
P -13.608619 2.742849 -0.017036
P -13.608619 0.017036 2.708776
P -13.608619 5.468661 -8.194474
P -13.608619 5.468661 -2.742849
P -13.608619 10.920286 -8.194474
P -10.882806 -13.612026 8.160401
P -8.156994 -13.612026 5.434589
P -8.156994 -8.160401 -0.017036
P -10.882806 -10.886214 5.434589
P -10.882806 -8.160401 8.160401
P -8.156994 -8.160401 5.434589
P -8.156994 -10.886214 8.160401
P -10.882806 -10.886214 10.886214
P -8.156994 -8.160401 10.886214
P -10.882806 -2.708776 -2.742849
P -8.156994 -2.708776 -5.468661
P -8.156994 -5.434589 -2.742849
P -10.882806 -5.434589 -0.017036
P -10.882806 -2.708776 2.708776
P -8.156994 -2.708776 -0.017036
P -8.156994 -5.434589 2.708776
P -10.882806 -5.434589 5.434589
P -10.882806 -2.708776 8.160401
P -8.156994 -2.708776 5.434589
P -8.156994 -5.434589 8.160401
P -10.882806 -5.434589 10.886214
P -8.156994 -2.708776 10.886214
P -10.882806 2.742849 -8.194474
P -10.882806 0.017036 -5.468661
P -10.882806 2.742849 -2.742849
P -8.156994 2.742849 -5.468661
P -8.156994 0.017036 -2.742849
P -10.882806 0.017036 -0.017036
P -10.882806 2.742849 2.708776
P -8.156994 2.742849 -0.017036
P -8.156994 0.017036 2.708776
P -10.882806 0.017036 5.434589
P -8.156994 2.742849 5.434589
P -8.156994 0.017036 8.160401
P -10.882806 5.468661 -10.920286
P -10.882806 8.194474 -8.194474
P -8.156994 8.194474 -10.920286
P -8.156994 5.468661 -8.194474
P -10.882806 5.468661 -5.468661
P -10.882806 8.194474 -2.742849
P -8.156994 8.194474 -5.468661
P -8.156994 5.468661 -2.742849
P -10.882806 5.468661 -0.017036
P -8.156994 8.194474 -0.017036
P -8.156994 5.468661 2.708776
P -8.156994 10.920286 -13.646099
P -10.882806 10.920286 -10.920286
P -8.156994 10.920286 -8.194474
P -10.882806 10.920286 -5.468661
P -2.705369 -13.612026 -0.017036
P -5.431181 -13.612026 8.160401
P -2.705369 -13.612026 5.434589
P -5.431181 -8.160401 -2.742849
P -2.705369 -10.886214 -2.742849
P -5.431181 -10.886214 -0.017036
P -5.431181 -8.160401 2.708776
P -2.705369 -8.160401 -0.017036
P -2.705369 -10.886214 2.708776
P -5.431181 -10.886214 5.434589
P -5.431181 -8.160401 8.160401
P -2.705369 -8.160401 5.434589
P -2.705369 -10.886214 8.160401
P -5.431181 -10.886214 10.886214
P -5.431181 -2.708776 -8.194474
P -2.705369 -2.708776 -10.920286
P -2.705369 -5.434589 -8.194474
P -5.431181 -5.434589 -5.468661
P -5.431181 -2.708776 -2.742849
P -2.705369 -2.708776 -5.468661
P -2.705369 -5.434589 -2.742849
P -5.431181 -5.434589 -0.017036
P -5.431181 -2.708776 2.708776
P -2.705369 -2.708776 -0.017036
P -2.705369 -5.434589 2.708776
P -5.431181 -5.434589 5.434589
P -5.431181 -2.708776 8.160401
P -2.705369 -2.708776 5.434589
P -2.705369 -5.434589 8.160401
P -5.431181 -5.434589 10.886214
P -5.431181 -2.708776 13.612026
P -2.705369 -2.708776 10.886214
P -2.705369 -5.434589 13.612026
P -5.431181 2.742849 -13.646099
P -2.705369 0.017036 -13.646099
P -5.431181 0.017036 -10.920286
P -5.431181 2.742849 -8.194474
P -2.705369 2.742849 -10.920286
P -2.705369 0.017036 -8.194474
P -5.431181 0.017036 -5.468661
P -5.431181 2.742849 -2.742849
P -2.705369 2.742849 -5.468661
P -2.705369 0.017036 -2.742849
P -5.431181 0.017036 -0.017036
P -5.431181 2.742849 2.708776
P -2.705369 2.742849 -0.017036
P -2.705369 0.017036 2.708776
P -5.431181 0.017036 5.434589
P -5.431181 2.742849 8.160401
P -2.705369 2.742849 5.434589
P -2.705369 0.017036 8.160401
P -5.431181 0.017036 10.886214
P -2.705369 2.742849 10.886214
P -2.705369 0.017036 13.612026
P -5.431181 8.194474 -13.646099
P -2.705369 5.468661 -13.646099
P -5.431181 5.468661 -10.920286
P -5.431181 8.194474 -8.194474
P -2.705369 8.194474 -10.920286
P -2.705369 5.468661 -8.194474
P -5.431181 5.468661 -5.468661
P -5.431181 8.194474 -2.742849
P -2.705369 8.194474 -5.468661
P -2.705369 5.468661 -2.742849
P -5.431181 5.468661 -0.017036
P -5.431181 8.194474 2.708776
P -2.705369 8.194474 -0.017036
P -2.705369 5.468661 2.708776
P -5.431181 5.468661 5.434589
P -2.705369 8.194474 5.434589
P -2.705369 5.468661 8.160401
P -2.705369 10.920286 -8.194474
P -5.431181 10.920286 -5.468661
P -5.431181 13.646099 -2.742849
P -2.705369 10.920286 -2.742849
P -5.431181 10.920286 -0.017036
P -2.705369 10.920286 2.708776
P 0.020444 -13.612026 -2.742849
P 0.020444 -13.612026 2.708776
P 2.746256 -8.160401 -10.920286
P 0.020444 -10.886214 -5.468661
P 0.020444 -8.160401 -2.742849
P 2.746256 -8.160401 -5.468661
P 2.746256 -10.886214 -2.742849
P 0.020444 -10.886214 -0.017036
P 0.020444 -8.160401 2.708776
P 2.746256 -8.160401 -0.017036
P 2.746256 -10.886214 2.708776
P 0.020444 -10.886214 5.434589
P 0.020444 -8.160401 8.160401
P 2.746256 -8.160401 5.434589
P 0.020444 -2.708776 -13.646099
P 0.020444 -5.434589 -10.920286
P 0.020444 -2.708776 -8.194474
P 2.746256 -2.708776 -10.920286
P 2.746256 -5.434589 -8.194474
P 0.020444 -5.434589 -5.468661
P 0.020444 -2.708776 -2.742849
P 2.746256 -2.708776 -5.468661
P 2.746256 -5.434589 -2.742849
P 0.020444 -5.434589 -0.017036
P 0.020444 -2.708776 2.708776
P 2.746256 -2.708776 -0.017036
P 2.746256 -5.434589 2.708776
P 0.020444 -5.434589 5.434589
P 0.020444 -2.708776 8.160401
P 2.746256 -2.708776 5.434589
P 2.746256 -5.434589 8.160401
P 0.020444 -5.434589 10.886214
P 0.020444 -2.708776 13.612026
P 2.746256 -2.708776 10.886214
P 0.020444 2.742849 -13.646099
P 2.746256 0.017036 -13.646099
P 0.020444 0.017036 -10.920286
P 0.020444 2.742849 -8.194474
P 2.746256 2.742849 -10.920286
P 2.746256 0.017036 -8.194474
P 0.020444 0.017036 -5.468661
P 0.020444 2.742849 -2.742849
P 2.746256 2.742849 -5.468661
P 2.746256 0.017036 -2.742849
P 0.020444 0.017036 -0.017036
P 0.020444 2.742849 2.708776
P 2.746256 2.742849 -0.017036
P 2.746256 0.017036 2.708776
P 0.020444 0.017036 5.434589
P 0.020444 2.742849 8.160401
P 2.746256 2.742849 5.434589
P 2.746256 0.017036 8.160401
P 0.020444 0.017036 10.886214
P 0.020444 2.742849 13.612026
P 2.746256 2.742849 10.886214
P 2.746256 0.017036 13.612026
P 0.020444 5.468661 -10.920286
P 0.020444 8.194474 -8.194474
P 2.746256 5.468661 -8.194474
P 0.020444 5.468661 -5.468661
P 0.020444 8.194474 -2.742849
P 2.746256 8.194474 -5.468661
P 2.746256 5.468661 -2.742849
P 0.020444 5.468661 -0.017036
P 0.020444 8.194474 2.708776
P 2.746256 8.194474 -0.017036
P 2.746256 5.468661 2.708776
P 0.020444 5.468661 5.434589
P 0.020444 8.194474 8.160401
P 2.746256 8.194474 5.434589
P 2.746256 5.468661 8.160401
P 0.020444 5.468661 10.886214
P 2.746256 8.194474 10.886214
P 2.746256 5.468661 13.612026
P 0.020444 10.920286 -5.468661
P 0.020444 13.646099 -2.742849
P 2.746256 10.920286 -2.742849
P 0.020444 10.920286 -0.017036
P 0.020444 13.646099 2.708776
P 2.746256 13.646099 -0.017036
P 2.746256 10.920286 2.708776
P 2.746256 10.920286 8.160401
P 8.197881 -13.612026 -10.920286
P 8.197881 -10.886214 -13.646099
P 5.472069 -8.160401 -8.194474
P 8.197881 -8.160401 -10.920286
P 8.197881 -10.886214 -8.194474
P 5.472069 -10.886214 -5.468661
P 5.472069 -8.160401 -2.742849
P 8.197881 -8.160401 -5.468661
P 8.197881 -10.886214 -2.742849
P 5.472069 -10.886214 -0.017036
P 5.472069 -8.160401 2.708776
P 5.472069 -5.434589 -10.920286
P 5.472069 -2.708776 -8.194474
P 8.197881 -5.434589 -8.194474
P 5.472069 -5.434589 -5.468661
P 5.472069 -2.708776 -2.742849
P 8.197881 -2.708776 -5.468661
P 8.197881 -5.434589 -2.742849
P 5.472069 -5.434589 -0.017036
P 5.472069 -2.708776 2.708776
P 8.197881 -2.708776 -0.017036
P 8.197881 -5.434589 2.708776
P 5.472069 -5.434589 5.434589
P 5.472069 -2.708776 8.160401
P 8.197881 -2.708776 5.434589
P 5.472069 0.017036 -10.920286
P 5.472069 2.742849 -8.194474
P 8.197881 0.017036 -8.194474
P 5.472069 0.017036 -5.468661
P 5.472069 2.742849 -2.742849
P 8.197881 2.742849 -5.468661
P 8.197881 0.017036 -2.742849
P 5.472069 0.017036 -0.017036
P 5.472069 2.742849 2.708776
P 8.197881 2.742849 -0.017036
P 8.197881 0.017036 2.708776
P 5.472069 0.017036 5.434589
P 5.472069 2.742849 8.160401
P 8.197881 2.742849 5.434589
P 8.197881 0.017036 8.160401
P 5.472069 0.017036 10.886214
P 5.472069 2.742849 13.612026
P 5.472069 5.468661 -5.468661
P 5.472069 8.194474 -2.742849
P 8.197881 5.468661 -2.742849
P 5.472069 5.468661 -0.017036
P 5.472069 8.194474 2.708776
P 8.197881 8.194474 -0.017036
P 8.197881 5.468661 2.708776
P 5.472069 5.468661 5.434589
P 5.472069 8.194474 8.160401
P 8.197881 8.194474 5.434589
P 8.197881 5.468661 8.160401
P 5.472069 5.468661 10.886214
P 5.472069 8.194474 13.612026
P 8.197881 8.194474 10.886214
P 8.197881 5.468661 13.612026
P 5.472069 10.920286 -0.017036
P 5.472069 13.646099 2.708776
P 8.197881 10.920286 2.708776
P 5.472069 10.920286 5.434589
P 8.197881 13.646099 5.434589
P 8.197881 10.920286 8.160401
P 5.472069 10.920286 10.886214
P 8.197881 13.646099 10.886214
P 8.197881 10.920286 13.612026
P 10.923694 -13.612026 -8.194474
P 10.923694 -8.160401 -13.646099
P 10.923694 -10.886214 -10.920286
P 10.923694 -8.160401 -8.194474
P 13.649506 -10.886214 -8.194474
P 10.923694 -10.886214 -5.468661
P 10.923694 -8.160401 -2.742849
P 13.649506 -8.160401 -5.468661
P 10.923694 -2.708776 -8.194474
P 10.923694 -5.434589 -5.468661
P 10.923694 -2.708776 -2.742849
P 13.649506 -2.708776 -5.468661
P 13.649506 -5.434589 -2.742849
P 10.923694 -5.434589 -0.017036
P 10.923694 -2.708776 2.708776
P 13.649506 -2.708776 -0.017036
P 10.923694 0.017036 -5.468661
P 10.923694 2.742849 -2.742849
P 13.649506 0.017036 -2.742849
P 10.923694 0.017036 -0.017036
P 10.923694 2.742849 2.708776
P 13.649506 2.742849 -0.017036
P 10.923694 0.017036 5.434589
P 13.649506 2.742849 5.434589
P 10.923694 5.468661 -0.017036
P 10.923694 8.194474 2.708776
P 13.649506 5.468661 2.708776
P 10.923694 5.468661 5.434589
P 10.923694 8.194474 8.160401
P 13.649506 5.468661 8.160401
P 10.923694 5.468661 10.886214
P 13.649506 8.194474 10.886214
P 10.923694 10.920286 5.434589
P 10.923694 13.646099 8.160401
P 13.649506 10.920286 8.160401
P 10.923694 10.920286 10.886214
Cl -13.608619 -13.612026 10.886214
Cl -16.334431 -8.160401 8.160401
Cl -13.608619 -8.160401 5.434589
Cl -13.608619 -10.886214 8.160401
Cl -16.334431 -10.886214 10.886214
Cl -13.608619 -10.886214 13.612026
Cl -16.334431 -2.708776 2.708776
Cl -16.334431 -5.434589 5.434589
Cl -16.334431 2.742849 -2.742849
Cl -13.608619 2.742849 -5.468661
Cl -13.608619 0.017036 -2.742849
Cl -16.334431 0.017036 -0.017036
Cl -16.334431 8.194474 -8.194474
Cl -13.608619 8.194474 -10.920286
Cl -16.334431 5.468661 -5.468661
Cl -13.608619 8.194474 -5.468661
Cl -13.608619 10.920286 -13.646099
Cl -16.334431 10.920286 -10.920286
Cl -13.608619 13.646099 -10.920286
Cl -8.156994 -16.337839 8.160401
Cl -10.882806 -16.337839 10.886214
Cl -10.882806 -13.612026 13.612026
Cl -8.156994 -13.612026 10.886214
Cl -10.882806 -8.160401 2.708776
Cl -8.156994 -10.886214 2.708776
Cl -10.882806 -8.160401 13.612026
Cl -8.156994 -10.886214 13.612026
Cl -10.882806 -10.886214 16.337839
Cl -8.156994 -8.160401 16.337839
Cl -8.156994 -5.434589 13.612026
Cl -8.156994 2.742849 -10.920286
Cl -8.156994 0.017036 -8.194474
Cl -10.882806 8.194474 -13.646099
Cl -8.156994 8.194474 -16.371911
Cl -8.156994 5.468661 -13.646099
Cl -10.882806 10.920286 -16.371911
Cl -10.882806 13.646099 -13.646099
Cl -10.882806 13.646099 -8.194474
Cl -8.156994 13.646099 -10.920286
Cl -8.156994 13.646099 -5.468661
Cl -8.156994 10.920286 -2.742849
Cl -10.882806 16.371911 -10.920286
Cl -8.156994 16.371911 -8.194474
Cl -5.431181 -13.612026 2.708776
Cl -2.705369 -16.337839 2.708776
Cl -5.431181 -16.337839 5.434589
Cl -2.705369 -8.160401 -5.468661
Cl -5.431181 -8.160401 13.612026
Cl -2.705369 -8.160401 10.886214
Cl -5.431181 -5.434589 16.337839
Cl -2.705369 -2.708776 16.337839
Cl -2.705369 2.742849 -16.371911
Cl -5.431181 5.468661 -16.371911
Cl -5.431181 10.920286 -10.920286
Cl -5.431181 13.646099 -8.194474
Cl -2.705369 13.646099 -5.468661
Cl -2.705369 13.646099 -0.017036
Cl -5.431181 16.371911 -5.468661
Cl -2.705369 16.371911 -2.742849
Cl 2.746256 -13.612026 -5.468661
Cl 2.746256 -16.337839 -2.742849
Cl 0.020444 -16.337839 -0.017036
Cl 2.746256 -13.612026 -0.017036
Cl 0.020444 -8.160401 -8.194474
Cl 2.746256 -10.886214 -8.194474
Cl 2.746256 -2.708776 -16.371911
Cl 2.746256 -5.434589 -13.646099
Cl 0.020444 0.017036 -16.371911
Cl 0.020444 0.017036 16.337839
Cl 2.746256 2.742849 16.337839
Cl 0.020444 10.920286 5.434589
Cl 2.746256 13.646099 5.434589
Cl 0.020444 16.371911 -0.017036
Cl 2.746256 16.371911 2.708776
Cl 5.472069 -13.612026 -8.194474
Cl 8.197881 -16.337839 -8.194474
Cl 5.472069 -16.337839 -5.468661
Cl 5.472069 -13.612026 -2.742849
Cl 8.197881 -13.612026 -5.468661
Cl 5.472069 -8.160401 -13.646099
Cl 8.197881 -8.160401 -16.371911
Cl 5.472069 -10.886214 -10.920286
Cl 8.197881 -8.160401 -0.017036
Cl 5.472069 -5.434589 -16.371911
Cl 5.472069 -2.708776 -13.646099
Cl 8.197881 -5.434589 -13.646099
Cl 8.197881 -2.708776 -10.920286
Cl 8.197881 2.742849 10.886214
Cl 5.472069 5.468661 16.337839
Cl 8.197881 8.194474 16.337839
Cl 5.472069 13.646099 8.160401
Cl 5.472069 16.371911 5.434589
Cl 8.197881 16.371911 8.160401
Cl 10.923694 -13.612026 -13.646099
Cl 10.923694 -16.337839 -10.920286
Cl 13.649506 -13.612026 -10.920286
Cl 10.923694 -10.886214 -16.371911
Cl 13.649506 -10.886214 -13.646099
Cl 13.649506 -8.160401 -10.920286
Cl 10.923694 -5.434589 -10.920286
Cl 13.649506 -5.434589 -8.194474
Cl 13.649506 0.017036 2.708776
Cl 10.923694 2.742849 8.160401
Cl 13.649506 8.194474 5.434589
Cl 10.923694 8.194474 13.612026
Cl 10.923694 13.646099 13.612026
Cl 13.649506 13.646099 10.886214
Cl 13.649506 10.920286 13.612026
Cl 10.923694 10.920286 16.337839
Cl 10.923694 16.371911 10.886214
Cl 16.375319 -10.886214 -10.920286
Cl 16.375319 -8.160401 -8.194474
Cl 16.375319 -5.434589 -5.468661
Cl 16.375319 -2.708776 -2.742849
Cl 16.375319 0.017036 -0.017036
Cl 16.375319 2.742849 2.708776
Cl 16.375319 5.468661 5.434589
Cl 16.375319 8.194474 8.160401
Cl 16.375319 10.920286 10.886214
Cl -16.334431 -13.612026 13.612026
