84
AlAs-Al-Al31As20Cl33-clean
Al -2.755476 -2.755476 -5.764524
Al -2.755476 -5.595476 -2.924524
Al -5.595476 -2.755476 -2.924524
Al -2.755476 -2.755476 -0.084524
Al -2.755476 0.084524 -2.924524
Al -5.595476 0.084524 -0.084524
Al -2.755476 2.924524 -0.084524
Al -2.755476 0.084524 2.755476
Al -5.595476 2.924524 2.755476
Al -2.755476 2.924524 5.595476
Al -2.755476 5.764524 2.755476
Al 0.084524 -2.755476 -2.924524
Al 0.084524 -5.595476 -0.084524
Al 2.924524 -2.755476 -0.084524
Al 2.924524 -5.595476 2.755476
Al 0.084524 -2.755476 2.755476
Al 2.924524 -2.755476 5.595476
Al 0.084524 0.084524 -5.764524
Al 2.924524 2.924524 -5.764524
Al 2.924524 0.084524 -2.924524
Al 0.084524 2.924524 -2.924524
Al 0.084524 0.084524 -0.084524
Al 2.924524 2.924524 -0.084524
Al 2.924524 0.084524 2.755476
Al 0.084524 2.924524 2.755476
Al 0.084524 0.084524 5.595476
Al 2.924524 5.764524 -2.924524
Al 0.084524 5.764524 -0.084524
Al 5.764524 -2.755476 2.755476
Al 5.764524 2.924524 -2.924524
Al 5.764524 0.084524 -0.084524
As -4.175476 -4.175476 -4.344524
As -4.175476 -1.335476 -1.504524
As -1.335476 -1.335476 -4.344524
As -1.335476 -4.175476 -1.504524
As -1.335476 -1.335476 1.335476
As -1.335476 1.504524 -1.504524
As -4.175476 1.504524 1.335476
As -4.175476 4.344524 4.175476
As -1.335476 4.344524 1.335476
As -1.335476 1.504524 4.175476
As 1.504524 -1.335476 -1.504524
As 1.504524 -4.175476 1.335476
As 1.504524 -1.335476 4.175476
As 4.344524 -1.335476 1.335476
As 4.344524 -4.175476 4.175476
As 1.504524 1.504524 -4.344524
As 1.504524 4.344524 -1.504524
As 4.344524 4.344524 -4.344524
As 4.344524 1.504524 -1.504524
As 1.504524 1.504524 1.335476
Cl -4.175476 -1.335476 -7.184524
Cl 4.344524 -1.335476 7.015476
Cl -7.015476 1.504524 4.175476
Cl 7.184524 1.504524 -4.344524
Cl -1.335476 -7.015476 -4.344524
Cl -4.175476 7.184524 1.335476
Cl 1.504524 -7.015476 4.175476
Cl 4.344524 7.184524 -1.504524
Cl -7.015476 -4.175476 -1.504524
Cl -1.335476 4.344524 7.015476
Cl 1.504524 4.344524 -7.184524
Cl 7.184524 -4.175476 1.335476
Cl -7.015476 1.504524 -1.504524
Cl 1.504524 -1.335476 -7.184524
Cl -1.335476 -1.335476 7.015476
Cl 7.184524 1.504524 1.335476
Cl -1.335476 -7.015476 1.335476
Cl -1.335476 7.184524 -1.504524
Cl -1.335476 7.184524 4.175476
Cl 4.344524 -7.015476 1.335476
Cl -1.335476 -4.175476 -7.184524
Cl 7.184524 -1.335476 4.175476
Cl -7.015476 -1.335476 -4.344524
Cl -4.175476 1.504524 7.015476
Cl -4.175476 -7.015476 -1.504524
Cl 4.344524 1.504524 -7.184524
Cl 1.504524 7.184524 -4.344524
Cl 7.184524 4.344524 -1.504524
Cl -7.015476 4.344524 1.335476
Cl 1.504524 -4.175476 7.015476
Cl 1.504524 -7.015476 -1.504524
Cl 1.504524 1.504524 7.015476
Cl -7.015476 -1.335476 1.335476
