3604
GaP-Ga-Ga1631P1460Cl513-clean
Ga -24.529665 -13.630953 -16.370380
Ga -24.529665 -16.356766 -13.644567
Ga -27.255478 -13.630953 -13.644567
Ga -24.529665 -13.630953 -10.918755
Ga -24.529665 -10.905141 -13.644567
Ga -27.255478 -10.905141 -10.918755
Ga -24.529665 -8.179328 -10.918755
Ga -24.529665 -10.905141 -8.192942
Ga -27.255478 -8.179328 -8.192942
Ga -24.529665 -8.179328 -5.467130
Ga -24.529665 -5.453516 -8.192942
Ga -27.255478 -5.453516 -5.467130
Ga -24.529665 -2.727703 -5.467130
Ga -24.529665 -5.453516 -2.741317
Ga -27.255478 -2.727703 -2.741317
Ga -24.529665 -2.727703 -0.015505
Ga -24.529665 -0.001891 -2.741317
Ga -27.255478 -0.001891 -0.015505
Ga -24.529665 2.723922 -0.015505
Ga -24.529665 -0.001891 2.710308
Ga -27.255478 2.723922 2.710308
Ga -24.529665 2.723922 5.436120
Ga -24.529665 5.449734 2.710308
Ga -27.255478 5.449734 5.436120
Ga -24.529665 8.175547 5.436120
Ga -24.529665 5.449734 8.161933
Ga -27.255478 8.175547 8.161933
Ga -24.529665 8.175547 10.887745
Ga -24.529665 10.901359 8.161933
Ga -27.255478 10.901359 10.887745
Ga -24.529665 13.627172 10.887745
Ga -24.529665 10.901359 13.613558
Ga -27.255478 13.627172 13.613558
Ga -24.529665 13.627172 16.339370
Ga -24.529665 16.352984 13.613558
Ga -19.078040 -19.082578 -16.370380
Ga -19.078040 -21.808391 -13.644567
Ga -21.803853 -19.082578 -13.644567
Ga -19.078040 -19.082578 -10.918755
Ga -19.078040 -13.630953 -21.822005
Ga -19.078040 -16.356766 -19.096192
Ga -21.803853 -13.630953 -19.096192
Ga -21.803853 -16.356766 -16.370380
Ga -19.078040 -13.630953 -16.370380
Ga -19.078040 -16.356766 -13.644567
Ga -21.803853 -13.630953 -13.644567
Ga -21.803853 -16.356766 -10.918755
Ga -19.078040 -13.630953 -10.918755
Ga -19.078040 -16.356766 -8.192942
Ga -21.803853 -13.630953 -8.192942
Ga -19.078040 -13.630953 -5.467130
Ga -19.078040 -10.905141 -19.096192
Ga -21.803853 -10.905141 -16.370380
Ga -19.078040 -8.179328 -16.370380
Ga -19.078040 -10.905141 -13.644567
Ga -21.803853 -8.179328 -13.644567
Ga -21.803853 -10.905141 -10.918755
Ga -19.078040 -8.179328 -10.918755
Ga -19.078040 -10.905141 -8.192942
Ga -21.803853 -8.179328 -8.192942
Ga -21.803853 -10.905141 -5.467130
Ga -19.078040 -8.179328 -5.467130
Ga -19.078040 -10.905141 -2.741317
Ga -21.803853 -8.179328 -2.741317
Ga -19.078040 -8.179328 -0.015505
Ga -19.078040 -5.453516 -13.644567
Ga -21.803853 -5.453516 -10.918755
Ga -19.078040 -2.727703 -10.918755
Ga -19.078040 -5.453516 -8.192942
Ga -21.803853 -2.727703 -8.192942
Ga -21.803853 -5.453516 -5.467130
Ga -19.078040 -2.727703 -5.467130
Ga -19.078040 -5.453516 -2.741317
Ga -21.803853 -2.727703 -2.741317
Ga -21.803853 -5.453516 -0.015505
Ga -19.078040 -2.727703 -0.015505
Ga -19.078040 -5.453516 2.710308
Ga -21.803853 -2.727703 2.710308
Ga -19.078040 -2.727703 5.436120
Ga -19.078040 -0.001891 -8.192942
Ga -21.803853 -0.001891 -5.467130
Ga -19.078040 2.723922 -5.467130
Ga -19.078040 -0.001891 -2.741317
Ga -21.803853 2.723922 -2.741317
Ga -21.803853 -0.001891 -0.015505
Ga -19.078040 2.723922 -0.015505
Ga -19.078040 -0.001891 2.710308
Ga -21.803853 2.723922 2.710308
Ga -21.803853 -0.001891 5.436120
Ga -19.078040 2.723922 5.436120
Ga -19.078040 -0.001891 8.161933
Ga -21.803853 2.723922 8.161933
Ga -19.078040 2.723922 10.887745
Ga -19.078040 5.449734 -2.741317
Ga -21.803853 5.449734 -0.015505
Ga -19.078040 8.175547 -0.015505
Ga -19.078040 5.449734 2.710308
Ga -21.803853 8.175547 2.710308
Ga -21.803853 5.449734 5.436120
Ga -19.078040 8.175547 5.436120
Ga -19.078040 5.449734 8.161933
Ga -21.803853 8.175547 8.161933
Ga -21.803853 5.449734 10.887745
Ga -19.078040 8.175547 10.887745
Ga -19.078040 5.449734 13.613558
Ga -21.803853 8.175547 13.613558
Ga -19.078040 8.175547 16.339370
Ga -19.078040 10.901359 2.710308
Ga -21.803853 10.901359 5.436120
Ga -19.078040 13.627172 5.436120
Ga -19.078040 10.901359 8.161933
Ga -21.803853 13.627172 8.161933
Ga -21.803853 10.901359 10.887745
Ga -19.078040 13.627172 10.887745
Ga -19.078040 10.901359 13.613558
Ga -21.803853 13.627172 13.613558
Ga -21.803853 10.901359 16.339370
Ga -19.078040 13.627172 16.339370
Ga -19.078040 10.901359 19.065183
Ga -21.803853 13.627172 19.065183
Ga -19.078040 13.627172 21.790995
Ga -19.078040 16.352984 8.161933
Ga -21.803853 16.352984 10.887745
Ga -19.078040 19.078797 10.887745
Ga -19.078040 16.352984 13.613558
Ga -21.803853 19.078797 13.613558
Ga -21.803853 16.352984 16.339370
Ga -19.078040 19.078797 16.339370
Ga -19.078040 16.352984 19.065183
Ga -19.078040 21.804609 13.613558
Ga -13.626415 -24.534203 -16.370380
Ga -13.626415 -27.260016 -13.644567
Ga -16.352228 -24.534203 -13.644567
Ga -13.626415 -24.534203 -10.918755
Ga -13.626415 -19.082578 -21.822005
Ga -13.626415 -21.808391 -19.096192
Ga -16.352228 -19.082578 -19.096192
Ga -16.352228 -21.808391 -16.370380
Ga -13.626415 -19.082578 -16.370380
Ga -13.626415 -21.808391 -13.644567
Ga -16.352228 -19.082578 -13.644567
Ga -16.352228 -21.808391 -10.918755
Ga -13.626415 -19.082578 -10.918755
Ga -13.626415 -21.808391 -8.192942
Ga -16.352228 -19.082578 -8.192942
Ga -13.626415 -19.082578 -5.467130
Ga -13.626415 -13.630953 -27.273630
Ga -13.626415 -16.356766 -24.547817
Ga -16.352228 -13.630953 -24.547817
Ga -16.352228 -16.356766 -21.822005
Ga -13.626415 -13.630953 -21.822005
Ga -13.626415 -16.356766 -19.096192
Ga -16.352228 -13.630953 -19.096192
Ga -16.352228 -16.356766 -16.370380
Ga -13.626415 -13.630953 -16.370380
Ga -13.626415 -16.356766 -13.644567
Ga -16.352228 -13.630953 -13.644567
Ga -16.352228 -16.356766 -10.918755
Ga -13.626415 -13.630953 -10.918755
Ga -13.626415 -16.356766 -8.192942
Ga -16.352228 -13.630953 -8.192942
Ga -16.352228 -16.356766 -5.467130
Ga -13.626415 -13.630953 -5.467130
Ga -13.626415 -16.356766 -2.741317
Ga -16.352228 -13.630953 -2.741317
Ga -13.626415 -13.630953 -0.015505
Ga -13.626415 -10.905141 -24.547817
Ga -16.352228 -10.905141 -21.822005
Ga -13.626415 -8.179328 -21.822005
Ga -13.626415 -10.905141 -19.096192
Ga -16.352228 -8.179328 -19.096192
Ga -16.352228 -10.905141 -16.370380
Ga -13.626415 -8.179328 -16.370380
Ga -13.626415 -10.905141 -13.644567
Ga -16.352228 -8.179328 -13.644567
Ga -16.352228 -10.905141 -10.918755
Ga -13.626415 -8.179328 -10.918755
Ga -13.626415 -10.905141 -8.192942
Ga -16.352228 -8.179328 -8.192942
Ga -16.352228 -10.905141 -5.467130
Ga -13.626415 -8.179328 -5.467130
Ga -13.626415 -10.905141 -2.741317
Ga -16.352228 -8.179328 -2.741317
Ga -16.352228 -10.905141 -0.015505
Ga -13.626415 -8.179328 -0.015505
Ga -13.626415 -10.905141 2.710308
Ga -16.352228 -8.179328 2.710308
Ga -13.626415 -8.179328 5.436120
Ga -13.626415 -5.453516 -19.096192
Ga -16.352228 -5.453516 -16.370380
Ga -13.626415 -2.727703 -16.370380
Ga -13.626415 -5.453516 -13.644567
Ga -16.352228 -2.727703 -13.644567
Ga -16.352228 -5.453516 -10.918755
Ga -13.626415 -2.727703 -10.918755
Ga -13.626415 -5.453516 -8.192942
Ga -16.352228 -2.727703 -8.192942
Ga -16.352228 -5.453516 -5.467130
Ga -13.626415 -2.727703 -5.467130
Ga -13.626415 -5.453516 -2.741317
Ga -16.352228 -2.727703 -2.741317
Ga -16.352228 -5.453516 -0.015505
Ga -13.626415 -2.727703 -0.015505
Ga -13.626415 -5.453516 2.710308
Ga -16.352228 -2.727703 2.710308
Ga -16.352228 -5.453516 5.436120
Ga -13.626415 -2.727703 5.436120
Ga -13.626415 -5.453516 8.161933
Ga -16.352228 -2.727703 8.161933
Ga -13.626415 -2.727703 10.887745
Ga -13.626415 -0.001891 -13.644567
Ga -16.352228 -0.001891 -10.918755
Ga -13.626415 2.723922 -10.918755
Ga -13.626415 -0.001891 -8.192942
Ga -16.352228 2.723922 -8.192942
Ga -16.352228 -0.001891 -5.467130
Ga -13.626415 2.723922 -5.467130
Ga -13.626415 -0.001891 -2.741317
Ga -16.352228 2.723922 -2.741317
Ga -16.352228 -0.001891 -0.015505
Ga -13.626415 2.723922 -0.015505
Ga -13.626415 -0.001891 2.710308
Ga -16.352228 2.723922 2.710308
Ga -16.352228 -0.001891 5.436120
Ga -13.626415 2.723922 5.436120
Ga -13.626415 -0.001891 8.161933
Ga -16.352228 2.723922 8.161933
Ga -16.352228 -0.001891 10.887745
Ga -13.626415 2.723922 10.887745
Ga -13.626415 -0.001891 13.613558
Ga -16.352228 2.723922 13.613558
Ga -13.626415 2.723922 16.339370
Ga -13.626415 5.449734 -8.192942
Ga -16.352228 5.449734 -5.467130
Ga -13.626415 8.175547 -5.467130
Ga -13.626415 5.449734 -2.741317
Ga -16.352228 8.175547 -2.741317
Ga -16.352228 5.449734 -0.015505
Ga -13.626415 8.175547 -0.015505
Ga -13.626415 5.449734 2.710308
Ga -16.352228 8.175547 2.710308
Ga -16.352228 5.449734 5.436120
Ga -13.626415 8.175547 5.436120
Ga -13.626415 5.449734 8.161933
Ga -16.352228 8.175547 8.161933
Ga -16.352228 5.449734 10.887745
Ga -13.626415 8.175547 10.887745
Ga -13.626415 5.449734 13.613558
Ga -16.352228 8.175547 13.613558
Ga -16.352228 5.449734 16.339370
Ga -13.626415 8.175547 16.339370
Ga -13.626415 5.449734 19.065183
Ga -16.352228 8.175547 19.065183
Ga -13.626415 8.175547 21.790995
Ga -13.626415 10.901359 -2.741317
Ga -16.352228 10.901359 -0.015505
Ga -13.626415 13.627172 -0.015505
Ga -13.626415 10.901359 2.710308
Ga -16.352228 13.627172 2.710308
Ga -16.352228 10.901359 5.436120
Ga -13.626415 13.627172 5.436120
Ga -13.626415 10.901359 8.161933
Ga -16.352228 13.627172 8.161933
Ga -16.352228 10.901359 10.887745
Ga -13.626415 13.627172 10.887745
Ga -13.626415 10.901359 13.613558
Ga -16.352228 13.627172 13.613558
Ga -16.352228 10.901359 16.339370
Ga -13.626415 13.627172 16.339370
Ga -13.626415 10.901359 19.065183
Ga -16.352228 13.627172 19.065183
Ga -16.352228 10.901359 21.790995
Ga -13.626415 13.627172 21.790995
Ga -13.626415 10.901359 24.516808
Ga -16.352228 13.627172 24.516808
Ga -13.626415 13.627172 27.242620
Ga -13.626415 16.352984 2.710308
Ga -16.352228 16.352984 5.436120
Ga -13.626415 19.078797 5.436120
Ga -13.626415 16.352984 8.161933
Ga -16.352228 19.078797 8.161933
Ga -16.352228 16.352984 10.887745
Ga -13.626415 19.078797 10.887745
Ga -13.626415 16.352984 13.613558
Ga -16.352228 19.078797 13.613558
Ga -16.352228 16.352984 16.339370
Ga -13.626415 19.078797 16.339370
Ga -13.626415 16.352984 19.065183
Ga -16.352228 19.078797 19.065183
Ga -16.352228 16.352984 21.790995
Ga -13.626415 19.078797 21.790995
Ga -13.626415 16.352984 24.516808
Ga -13.626415 21.804609 8.161933
Ga -16.352228 21.804609 10.887745
Ga -13.626415 24.530422 10.887745
Ga -13.626415 21.804609 13.613558
Ga -16.352228 24.530422 13.613558
Ga -16.352228 21.804609 16.339370
Ga -13.626415 24.530422 16.339370
Ga -13.626415 21.804609 19.065183
Ga -13.626415 27.256234 13.613558
Ga -10.900603 -24.534203 -13.644567
Ga -10.900603 -27.260016 -10.918755
Ga -8.174790 -24.534203 -10.918755
Ga -8.174790 -27.260016 -8.192942
Ga -10.900603 -24.534203 -8.192942
Ga -8.174790 -24.534203 -5.467130
Ga -10.900603 -19.082578 -19.096192
Ga -10.900603 -21.808391 -16.370380
Ga -8.174790 -19.082578 -16.370380
Ga -8.174790 -21.808391 -13.644567
Ga -10.900603 -19.082578 -13.644567
Ga -10.900603 -21.808391 -10.918755
Ga -8.174790 -19.082578 -10.918755
Ga -8.174790 -21.808391 -8.192942
Ga -10.900603 -19.082578 -8.192942
Ga -10.900603 -21.808391 -5.467130
Ga -8.174790 -19.082578 -5.467130
Ga -8.174790 -21.808391 -2.741317
Ga -10.900603 -19.082578 -2.741317
Ga -8.174790 -19.082578 -0.015505
Ga -10.900603 -13.630953 -24.547817
Ga -10.900603 -16.356766 -21.822005
Ga -8.174790 -13.630953 -21.822005
Ga -8.174790 -16.356766 -19.096192
Ga -10.900603 -13.630953 -19.096192
Ga -10.900603 -16.356766 -16.370380
Ga -8.174790 -13.630953 -16.370380
Ga -8.174790 -16.356766 -13.644567
Ga -10.900603 -13.630953 -13.644567
Ga -10.900603 -16.356766 -10.918755
Ga -8.174790 -13.630953 -10.918755
Ga -8.174790 -16.356766 -8.192942
Ga -10.900603 -13.630953 -8.192942
Ga -10.900603 -16.356766 -5.467130
Ga -8.174790 -13.630953 -5.467130
Ga -8.174790 -16.356766 -2.741317
Ga -10.900603 -13.630953 -2.741317
Ga -10.900603 -16.356766 -0.015505
Ga -8.174790 -13.630953 -0.015505
Ga -8.174790 -16.356766 2.710308
Ga -10.900603 -13.630953 2.710308
Ga -8.174790 -13.630953 5.436120
Ga -10.900603 -10.905141 -27.273630
Ga -8.174790 -8.179328 -27.273630
Ga -8.174790 -10.905141 -24.547817
Ga -10.900603 -8.179328 -24.547817
Ga -10.900603 -10.905141 -21.822005
Ga -8.174790 -8.179328 -21.822005
Ga -8.174790 -10.905141 -19.096192
Ga -10.900603 -8.179328 -19.096192
Ga -10.900603 -10.905141 -16.370380
Ga -8.174790 -8.179328 -16.370380
Ga -8.174790 -10.905141 -13.644567
Ga -10.900603 -8.179328 -13.644567
Ga -10.900603 -10.905141 -10.918755
Ga -8.174790 -8.179328 -10.918755
Ga -8.174790 -10.905141 -8.192942
Ga -10.900603 -8.179328 -8.192942
Ga -10.900603 -10.905141 -5.467130
Ga -8.174790 -8.179328 -5.467130
Ga -8.174790 -10.905141 -2.741317
Ga -10.900603 -8.179328 -2.741317
Ga -10.900603 -10.905141 -0.015505
Ga -8.174790 -8.179328 -0.015505
Ga -8.174790 -10.905141 2.710308
Ga -10.900603 -8.179328 2.710308
Ga -10.900603 -10.905141 5.436120
Ga -8.174790 -8.179328 5.436120
Ga -8.174790 -10.905141 8.161933
Ga -10.900603 -8.179328 8.161933
Ga -8.174790 -8.179328 10.887745
Ga -8.174790 -5.453516 -24.547817
Ga -10.900603 -5.453516 -21.822005
Ga -8.174790 -2.727703 -21.822005
Ga -8.174790 -5.453516 -19.096192
Ga -10.900603 -2.727703 -19.096192
Ga -10.900603 -5.453516 -16.370380
Ga -8.174790 -2.727703 -16.370380
Ga -8.174790 -5.453516 -13.644567
Ga -10.900603 -2.727703 -13.644567
Ga -10.900603 -5.453516 -10.918755
Ga -8.174790 -2.727703 -10.918755
Ga -8.174790 -5.453516 -8.192942
Ga -10.900603 -2.727703 -8.192942
Ga -10.900603 -5.453516 -5.467130
Ga -8.174790 -2.727703 -5.467130
Ga -8.174790 -5.453516 -2.741317
Ga -10.900603 -2.727703 -2.741317
Ga -10.900603 -5.453516 -0.015505
Ga -8.174790 -2.727703 -0.015505
Ga -8.174790 -5.453516 2.710308
Ga -10.900603 -2.727703 2.710308
Ga -10.900603 -5.453516 5.436120
Ga -8.174790 -2.727703 5.436120
Ga -8.174790 -5.453516 8.161933
Ga -10.900603 -2.727703 8.161933
Ga -10.900603 -5.453516 10.887745
Ga -8.174790 -2.727703 10.887745
Ga -8.174790 -5.453516 13.613558
Ga -10.900603 -2.727703 13.613558
Ga -8.174790 -2.727703 16.339370
Ga -8.174790 -0.001891 -19.096192
Ga -10.900603 -0.001891 -16.370380
Ga -8.174790 2.723922 -16.370380
Ga -8.174790 -0.001891 -13.644567
Ga -10.900603 2.723922 -13.644567
Ga -10.900603 -0.001891 -10.918755
Ga -8.174790 2.723922 -10.918755
Ga -8.174790 -0.001891 -8.192942
Ga -10.900603 2.723922 -8.192942
Ga -10.900603 -0.001891 -5.467130
Ga -8.174790 2.723922 -5.467130
Ga -8.174790 -0.001891 -2.741317
Ga -10.900603 2.723922 -2.741317
Ga -10.900603 -0.001891 -0.015505
Ga -8.174790 2.723922 -0.015505
Ga -8.174790 -0.001891 2.710308
Ga -10.900603 2.723922 2.710308
Ga -10.900603 -0.001891 5.436120
Ga -8.174790 2.723922 5.436120
Ga -8.174790 -0.001891 8.161933
Ga -10.900603 2.723922 8.161933
Ga -10.900603 -0.001891 10.887745
Ga -8.174790 2.723922 10.887745
Ga -8.174790 -0.001891 13.613558
Ga -10.900603 2.723922 13.613558
Ga -10.900603 -0.001891 16.339370
Ga -8.174790 2.723922 16.339370
Ga -8.174790 -0.001891 19.065183
Ga -10.900603 2.723922 19.065183
Ga -8.174790 2.723922 21.790995
Ga -8.174790 5.449734 -13.644567
Ga -10.900603 5.449734 -10.918755
Ga -8.174790 8.175547 -10.918755
Ga -8.174790 5.449734 -8.192942
Ga -10.900603 8.175547 -8.192942
Ga -10.900603 5.449734 -5.467130
Ga -8.174790 8.175547 -5.467130
Ga -8.174790 5.449734 -2.741317
Ga -10.900603 8.175547 -2.741317
Ga -10.900603 5.449734 -0.015505
Ga -8.174790 8.175547 -0.015505
Ga -8.174790 5.449734 2.710308
Ga -10.900603 8.175547 2.710308
Ga -10.900603 5.449734 5.436120
Ga -8.174790 8.175547 5.436120
Ga -8.174790 5.449734 8.161933
Ga -10.900603 8.175547 8.161933
Ga -10.900603 5.449734 10.887745
Ga -8.174790 8.175547 10.887745
Ga -8.174790 5.449734 13.613558
Ga -10.900603 8.175547 13.613558
Ga -10.900603 5.449734 16.339370
Ga -8.174790 8.175547 16.339370
Ga -8.174790 5.449734 19.065183
Ga -10.900603 8.175547 19.065183
Ga -10.900603 5.449734 21.790995
Ga -8.174790 8.175547 21.790995
Ga -8.174790 5.449734 24.516808
Ga -10.900603 8.175547 24.516808
Ga -8.174790 8.175547 27.242620
Ga -8.174790 10.901359 -8.192942
Ga -10.900603 10.901359 -5.467130
Ga -8.174790 13.627172 -5.467130
Ga -8.174790 10.901359 -2.741317
Ga -10.900603 13.627172 -2.741317
Ga -10.900603 10.901359 -0.015505
Ga -8.174790 13.627172 -0.015505
Ga -8.174790 10.901359 2.710308
Ga -10.900603 13.627172 2.710308
Ga -10.900603 10.901359 5.436120
Ga -8.174790 13.627172 5.436120
Ga -8.174790 10.901359 8.161933
Ga -10.900603 13.627172 8.161933
Ga -10.900603 10.901359 10.887745
Ga -8.174790 13.627172 10.887745
Ga -8.174790 10.901359 13.613558
Ga -10.900603 13.627172 13.613558
Ga -10.900603 10.901359 16.339370
Ga -8.174790 13.627172 16.339370
Ga -8.174790 10.901359 19.065183
Ga -10.900603 13.627172 19.065183
Ga -10.900603 10.901359 21.790995
Ga -8.174790 13.627172 21.790995
Ga -8.174790 10.901359 24.516808
Ga -10.900603 13.627172 24.516808
Ga -10.900603 10.901359 27.242620
Ga -8.174790 16.352984 -2.741317
Ga -10.900603 16.352984 -0.015505
Ga -8.174790 19.078797 -0.015505
Ga -8.174790 16.352984 2.710308
Ga -10.900603 19.078797 2.710308
Ga -10.900603 16.352984 5.436120
Ga -8.174790 19.078797 5.436120
Ga -8.174790 16.352984 8.161933
Ga -10.900603 19.078797 8.161933
Ga -10.900603 16.352984 10.887745
Ga -8.174790 19.078797 10.887745
Ga -8.174790 16.352984 13.613558
Ga -10.900603 19.078797 13.613558
Ga -10.900603 16.352984 16.339370
Ga -8.174790 19.078797 16.339370
Ga -8.174790 16.352984 19.065183
Ga -10.900603 19.078797 19.065183
Ga -10.900603 16.352984 21.790995
Ga -8.174790 21.804609 2.710308
Ga -10.900603 21.804609 5.436120
Ga -8.174790 24.530422 5.436120
Ga -8.174790 21.804609 8.161933
Ga -10.900603 24.530422 8.161933
Ga -10.900603 21.804609 10.887745
Ga -8.174790 24.530422 10.887745
Ga -8.174790 21.804609 13.613558
Ga -10.900603 24.530422 13.613558
Ga -10.900603 21.804609 16.339370
Ga -8.174790 27.256234 8.161933
Ga -10.900603 27.256234 10.887745
Ga -5.448978 -24.534203 -8.192942
Ga -5.448978 -27.260016 -5.467130
Ga -2.723165 -24.534203 -5.467130
Ga -2.723165 -27.260016 -2.741317
Ga -5.448978 -24.534203 -2.741317
Ga -2.723165 -24.534203 -0.015505
Ga -5.448978 -19.082578 -13.644567
Ga -5.448978 -21.808391 -10.918755
Ga -2.723165 -19.082578 -10.918755
Ga -2.723165 -21.808391 -8.192942
Ga -5.448978 -19.082578 -8.192942
Ga -5.448978 -21.808391 -5.467130
Ga -2.723165 -19.082578 -5.467130
Ga -2.723165 -21.808391 -2.741317
Ga -5.448978 -19.082578 -2.741317
Ga -5.448978 -21.808391 -0.015505
Ga -2.723165 -19.082578 -0.015505
Ga -2.723165 -21.808391 2.710308
Ga -5.448978 -19.082578 2.710308
Ga -2.723165 -19.082578 5.436120
Ga -5.448978 -13.630953 -19.096192
Ga -5.448978 -16.356766 -16.370380
Ga -2.723165 -13.630953 -16.370380
Ga -2.723165 -16.356766 -13.644567
Ga -5.448978 -13.630953 -13.644567
Ga -5.448978 -16.356766 -10.918755
Ga -2.723165 -13.630953 -10.918755
Ga -2.723165 -16.356766 -8.192942
Ga -5.448978 -13.630953 -8.192942
Ga -5.448978 -16.356766 -5.467130
Ga -2.723165 -13.630953 -5.467130
Ga -2.723165 -16.356766 -2.741317
Ga -5.448978 -13.630953 -2.741317
Ga -5.448978 -16.356766 -0.015505
Ga -2.723165 -13.630953 -0.015505
Ga -2.723165 -16.356766 2.710308
Ga -5.448978 -13.630953 2.710308
Ga -5.448978 -16.356766 5.436120
Ga -2.723165 -13.630953 5.436120
Ga -2.723165 -16.356766 8.161933
Ga -5.448978 -13.630953 8.161933
Ga -2.723165 -13.630953 10.887745
Ga -5.448978 -8.179328 -24.547817
Ga -5.448978 -10.905141 -21.822005
Ga -2.723165 -8.179328 -21.822005
Ga -2.723165 -10.905141 -19.096192
Ga -5.448978 -8.179328 -19.096192
Ga -5.448978 -10.905141 -16.370380
Ga -2.723165 -8.179328 -16.370380
Ga -2.723165 -10.905141 -13.644567
Ga -5.448978 -8.179328 -13.644567
Ga -5.448978 -10.905141 -10.918755
Ga -2.723165 -8.179328 -10.918755
Ga -2.723165 -10.905141 -8.192942
Ga -5.448978 -8.179328 -8.192942
Ga -5.448978 -10.905141 -5.467130
Ga -2.723165 -8.179328 -5.467130
Ga -2.723165 -10.905141 -2.741317
Ga -5.448978 -8.179328 -2.741317
Ga -5.448978 -10.905141 -0.015505
Ga -2.723165 -8.179328 -0.015505
Ga -2.723165 -10.905141 2.710308
Ga -5.448978 -8.179328 2.710308
Ga -5.448978 -10.905141 5.436120
Ga -2.723165 -8.179328 5.436120
Ga -2.723165 -10.905141 8.161933
Ga -5.448978 -8.179328 8.161933
Ga -5.448978 -10.905141 10.887745
Ga -2.723165 -8.179328 10.887745
Ga -2.723165 -10.905141 13.613558
Ga -5.448978 -8.179328 13.613558
Ga -2.723165 -8.179328 16.339370
Ga -5.448978 -5.453516 -27.273630
Ga -2.723165 -2.727703 -27.273630
Ga -2.723165 -5.453516 -24.547817
Ga -5.448978 -2.727703 -24.547817
Ga -5.448978 -5.453516 -21.822005
Ga -2.723165 -2.727703 -21.822005
Ga -2.723165 -5.453516 -19.096192
Ga -5.448978 -2.727703 -19.096192
Ga -5.448978 -5.453516 -16.370380
Ga -2.723165 -2.727703 -16.370380
Ga -2.723165 -5.453516 -13.644567
Ga -5.448978 -2.727703 -13.644567
Ga -5.448978 -5.453516 -10.918755
Ga -2.723165 -2.727703 -10.918755
Ga -2.723165 -5.453516 -8.192942
Ga -5.448978 -2.727703 -8.192942
Ga -5.448978 -5.453516 -5.467130
Ga -2.723165 -2.727703 -5.467130
Ga -2.723165 -5.453516 -2.741317
Ga -5.448978 -2.727703 -2.741317
Ga -5.448978 -5.453516 -0.015505
Ga -2.723165 -2.727703 -0.015505
Ga -2.723165 -5.453516 2.710308
Ga -5.448978 -2.727703 2.710308
Ga -5.448978 -5.453516 5.436120
Ga -2.723165 -2.727703 5.436120
Ga -2.723165 -5.453516 8.161933
Ga -5.448978 -2.727703 8.161933
Ga -5.448978 -5.453516 10.887745
Ga -2.723165 -2.727703 10.887745
Ga -2.723165 -5.453516 13.613558
Ga -5.448978 -2.727703 13.613558
Ga -5.448978 -5.453516 16.339370
Ga -2.723165 -2.727703 16.339370
Ga -2.723165 -5.453516 19.065183
Ga -5.448978 -2.727703 19.065183
Ga -2.723165 -2.727703 21.790995
Ga -2.723165 -0.001891 -24.547817
Ga -5.448978 -0.001891 -21.822005
Ga -2.723165 2.723922 -21.822005
Ga -2.723165 -0.001891 -19.096192
Ga -5.448978 2.723922 -19.096192
Ga -5.448978 -0.001891 -16.370380
Ga -2.723165 2.723922 -16.370380
Ga -2.723165 -0.001891 -13.644567
Ga -5.448978 2.723922 -13.644567
Ga -5.448978 -0.001891 -10.918755
Ga -2.723165 2.723922 -10.918755
Ga -2.723165 -0.001891 -8.192942
Ga -5.448978 2.723922 -8.192942
Ga -5.448978 -0.001891 -5.467130
Ga -2.723165 2.723922 -5.467130
Ga -2.723165 -0.001891 -2.741317
Ga -5.448978 2.723922 -2.741317
Ga -5.448978 -0.001891 -0.015505
Ga -2.723165 2.723922 -0.015505
Ga -2.723165 -0.001891 2.710308
Ga -5.448978 2.723922 2.710308
Ga -5.448978 -0.001891 5.436120
Ga -2.723165 2.723922 5.436120
Ga -2.723165 -0.001891 8.161933
Ga -5.448978 2.723922 8.161933
Ga -5.448978 -0.001891 10.887745
Ga -2.723165 2.723922 10.887745
Ga -2.723165 -0.001891 13.613558
Ga -5.448978 2.723922 13.613558
Ga -5.448978 -0.001891 16.339370
Ga -2.723165 2.723922 16.339370
Ga -2.723165 -0.001891 19.065183
Ga -5.448978 2.723922 19.065183
Ga -5.448978 -0.001891 21.790995
Ga -2.723165 2.723922 21.790995
Ga -2.723165 -0.001891 24.516808
Ga -5.448978 2.723922 24.516808
Ga -2.723165 2.723922 27.242620
Ga -2.723165 5.449734 -19.096192
Ga -5.448978 5.449734 -16.370380
Ga -2.723165 8.175547 -16.370380
Ga -2.723165 5.449734 -13.644567
Ga -5.448978 8.175547 -13.644567
Ga -5.448978 5.449734 -10.918755
Ga -2.723165 8.175547 -10.918755
Ga -2.723165 5.449734 -8.192942
Ga -5.448978 8.175547 -8.192942
Ga -5.448978 5.449734 -5.467130
Ga -2.723165 8.175547 -5.467130
Ga -2.723165 5.449734 -2.741317
Ga -5.448978 8.175547 -2.741317
Ga -5.448978 5.449734 -0.015505
Ga -2.723165 8.175547 -0.015505
Ga -2.723165 5.449734 2.710308
Ga -5.448978 8.175547 2.710308
Ga -5.448978 5.449734 5.436120
Ga -2.723165 8.175547 5.436120
Ga -2.723165 5.449734 8.161933
Ga -5.448978 8.175547 8.161933
Ga -5.448978 5.449734 10.887745
Ga -2.723165 8.175547 10.887745
Ga -2.723165 5.449734 13.613558
Ga -5.448978 8.175547 13.613558
Ga -5.448978 5.449734 16.339370
Ga -2.723165 8.175547 16.339370
Ga -2.723165 5.449734 19.065183
Ga -5.448978 8.175547 19.065183
Ga -5.448978 5.449734 21.790995
Ga -2.723165 8.175547 21.790995
Ga -2.723165 5.449734 24.516808
Ga -5.448978 8.175547 24.516808
Ga -5.448978 5.449734 27.242620
Ga -2.723165 10.901359 -13.644567
Ga -5.448978 10.901359 -10.918755
Ga -2.723165 13.627172 -10.918755
Ga -2.723165 10.901359 -8.192942
Ga -5.448978 13.627172 -8.192942
Ga -5.448978 10.901359 -5.467130
Ga -2.723165 13.627172 -5.467130
Ga -2.723165 10.901359 -2.741317
Ga -5.448978 13.627172 -2.741317
Ga -5.448978 10.901359 -0.015505
Ga -2.723165 13.627172 -0.015505
Ga -2.723165 10.901359 2.710308
Ga -5.448978 13.627172 2.710308
Ga -5.448978 10.901359 5.436120
Ga -2.723165 13.627172 5.436120
Ga -2.723165 10.901359 8.161933
Ga -5.448978 13.627172 8.161933
Ga -5.448978 10.901359 10.887745
Ga -2.723165 13.627172 10.887745
Ga -2.723165 10.901359 13.613558
Ga -5.448978 13.627172 13.613558
Ga -5.448978 10.901359 16.339370
Ga -2.723165 13.627172 16.339370
Ga -2.723165 10.901359 19.065183
Ga -5.448978 13.627172 19.065183
Ga -5.448978 10.901359 21.790995
Ga -2.723165 16.352984 -8.192942
Ga -5.448978 16.352984 -5.467130
Ga -2.723165 19.078797 -5.467130
Ga -2.723165 16.352984 -2.741317
Ga -5.448978 19.078797 -2.741317
Ga -5.448978 16.352984 -0.015505
Ga -2.723165 19.078797 -0.015505
Ga -2.723165 16.352984 2.710308
Ga -5.448978 19.078797 2.710308
Ga -5.448978 16.352984 5.436120
Ga -2.723165 19.078797 5.436120
Ga -2.723165 16.352984 8.161933
Ga -5.448978 19.078797 8.161933
Ga -5.448978 16.352984 10.887745
Ga -2.723165 19.078797 10.887745
Ga -2.723165 16.352984 13.613558
Ga -5.448978 19.078797 13.613558
Ga -5.448978 16.352984 16.339370
Ga -2.723165 21.804609 -2.741317
Ga -5.448978 21.804609 -0.015505
Ga -2.723165 24.530422 -0.015505
Ga -2.723165 21.804609 2.710308
Ga -5.448978 24.530422 2.710308
Ga -5.448978 21.804609 5.436120
Ga -2.723165 24.530422 5.436120
Ga -2.723165 21.804609 8.161933
Ga -5.448978 24.530422 8.161933
Ga -5.448978 21.804609 10.887745
Ga -2.723165 27.256234 2.710308
Ga -5.448978 27.256234 5.436120
Ga 0.002647 -24.534203 -2.741317
Ga 0.002647 -27.260016 -0.015505
Ga 2.728460 -24.534203 -0.015505
Ga 2.728460 -27.260016 2.710308
Ga 0.002647 -24.534203 2.710308
Ga 2.728460 -24.534203 5.436120
Ga 0.002647 -19.082578 -8.192942
Ga 0.002647 -21.808391 -5.467130
Ga 2.728460 -19.082578 -5.467130
Ga 2.728460 -21.808391 -2.741317
Ga 0.002647 -19.082578 -2.741317
Ga 0.002647 -21.808391 -0.015505
Ga 2.728460 -19.082578 -0.015505
Ga 2.728460 -21.808391 2.710308
Ga 0.002647 -19.082578 2.710308
Ga 0.002647 -21.808391 5.436120
Ga 2.728460 -19.082578 5.436120
Ga 2.728460 -21.808391 8.161933
Ga 0.002647 -19.082578 8.161933
Ga 2.728460 -19.082578 10.887745
Ga 0.002647 -13.630953 -13.644567
Ga 0.002647 -16.356766 -10.918755
Ga 2.728460 -13.630953 -10.918755
Ga 2.728460 -16.356766 -8.192942
Ga 0.002647 -13.630953 -8.192942
Ga 0.002647 -16.356766 -5.467130
Ga 2.728460 -13.630953 -5.467130
Ga 2.728460 -16.356766 -2.741317
Ga 0.002647 -13.630953 -2.741317
Ga 0.002647 -16.356766 -0.015505
Ga 2.728460 -13.630953 -0.015505
Ga 2.728460 -16.356766 2.710308
Ga 0.002647 -13.630953 2.710308
Ga 0.002647 -16.356766 5.436120
Ga 2.728460 -13.630953 5.436120
Ga 2.728460 -16.356766 8.161933
Ga 0.002647 -13.630953 8.161933
Ga 0.002647 -16.356766 10.887745
Ga 2.728460 -13.630953 10.887745
Ga 2.728460 -16.356766 13.613558
Ga 0.002647 -13.630953 13.613558
Ga 2.728460 -13.630953 16.339370
Ga 0.002647 -8.179328 -19.096192
Ga 0.002647 -10.905141 -16.370380
Ga 2.728460 -8.179328 -16.370380
Ga 2.728460 -10.905141 -13.644567
Ga 0.002647 -8.179328 -13.644567
Ga 0.002647 -10.905141 -10.918755
Ga 2.728460 -8.179328 -10.918755
Ga 2.728460 -10.905141 -8.192942
Ga 0.002647 -8.179328 -8.192942
Ga 0.002647 -10.905141 -5.467130
Ga 2.728460 -8.179328 -5.467130
Ga 2.728460 -10.905141 -2.741317
Ga 0.002647 -8.179328 -2.741317
Ga 0.002647 -10.905141 -0.015505
Ga 2.728460 -8.179328 -0.015505
Ga 2.728460 -10.905141 2.710308
Ga 0.002647 -8.179328 2.710308
Ga 0.002647 -10.905141 5.436120
Ga 2.728460 -8.179328 5.436120
Ga 2.728460 -10.905141 8.161933
Ga 0.002647 -8.179328 8.161933
Ga 0.002647 -10.905141 10.887745
Ga 2.728460 -8.179328 10.887745
Ga 2.728460 -10.905141 13.613558
Ga 0.002647 -8.179328 13.613558
Ga 0.002647 -10.905141 16.339370
Ga 2.728460 -8.179328 16.339370
Ga 2.728460 -10.905141 19.065183
Ga 0.002647 -8.179328 19.065183
Ga 2.728460 -8.179328 21.790995
Ga 0.002647 -2.727703 -24.547817
Ga 0.002647 -5.453516 -21.822005
Ga 2.728460 -2.727703 -21.822005
Ga 2.728460 -5.453516 -19.096192
Ga 0.002647 -2.727703 -19.096192
Ga 0.002647 -5.453516 -16.370380
Ga 2.728460 -2.727703 -16.370380
Ga 2.728460 -5.453516 -13.644567
Ga 0.002647 -2.727703 -13.644567
Ga 0.002647 -5.453516 -10.918755
Ga 2.728460 -2.727703 -10.918755
Ga 2.728460 -5.453516 -8.192942
Ga 0.002647 -2.727703 -8.192942
Ga 0.002647 -5.453516 -5.467130
Ga 2.728460 -2.727703 -5.467130
Ga 2.728460 -5.453516 -2.741317
Ga 0.002647 -2.727703 -2.741317
Ga 0.002647 -5.453516 -0.015505
Ga 2.728460 -2.727703 -0.015505
Ga 2.728460 -5.453516 2.710308
Ga 0.002647 -2.727703 2.710308
Ga 0.002647 -5.453516 5.436120
Ga 2.728460 -2.727703 5.436120
Ga 2.728460 -5.453516 8.161933
Ga 0.002647 -2.727703 8.161933
Ga 0.002647 -5.453516 10.887745
Ga 2.728460 -2.727703 10.887745
Ga 2.728460 -5.453516 13.613558
Ga 0.002647 -2.727703 13.613558
Ga 0.002647 -5.453516 16.339370
Ga 2.728460 -2.727703 16.339370
Ga 2.728460 -5.453516 19.065183
Ga 0.002647 -2.727703 19.065183
Ga 0.002647 -5.453516 21.790995
Ga 2.728460 -2.727703 21.790995
Ga 2.728460 -5.453516 24.516808
Ga 0.002647 -2.727703 24.516808
Ga 2.728460 -2.727703 27.242620
Ga 0.002647 -0.001891 -27.273630
Ga 2.728460 2.723922 -27.273630
Ga 2.728460 -0.001891 -24.547817
Ga 0.002647 2.723922 -24.547817
Ga 0.002647 -0.001891 -21.822005
Ga 2.728460 2.723922 -21.822005
Ga 2.728460 -0.001891 -19.096192
Ga 0.002647 2.723922 -19.096192
Ga 0.002647 -0.001891 -16.370380
Ga 2.728460 2.723922 -16.370380
Ga 2.728460 -0.001891 -13.644567
Ga 0.002647 2.723922 -13.644567
Ga 0.002647 -0.001891 -10.918755
Ga 2.728460 2.723922 -10.918755
Ga 2.728460 -0.001891 -8.192942
Ga 0.002647 2.723922 -8.192942
Ga 0.002647 -0.001891 -5.467130
Ga 2.728460 2.723922 -5.467130
Ga 2.728460 -0.001891 -2.741317
Ga 0.002647 2.723922 -2.741317
Ga 0.002647 -0.001891 -0.015505
Ga 2.728460 2.723922 -0.015505
Ga 2.728460 -0.001891 2.710308
Ga 0.002647 2.723922 2.710308
Ga 0.002647 -0.001891 5.436120
Ga 2.728460 2.723922 5.436120
Ga 2.728460 -0.001891 8.161933
Ga 0.002647 2.723922 8.161933
Ga 0.002647 -0.001891 10.887745
Ga 2.728460 2.723922 10.887745
Ga 2.728460 -0.001891 13.613558
Ga 0.002647 2.723922 13.613558
Ga 0.002647 -0.001891 16.339370
Ga 2.728460 2.723922 16.339370
Ga 2.728460 -0.001891 19.065183
Ga 0.002647 2.723922 19.065183
Ga 0.002647 -0.001891 21.790995
Ga 2.728460 2.723922 21.790995
Ga 2.728460 -0.001891 24.516808
Ga 0.002647 2.723922 24.516808
Ga 0.002647 -0.001891 27.242620
Ga 2.728460 5.449734 -24.547817
Ga 0.002647 5.449734 -21.822005
Ga 2.728460 8.175547 -21.822005
Ga 2.728460 5.449734 -19.096192
Ga 0.002647 8.175547 -19.096192
Ga 0.002647 5.449734 -16.370380
Ga 2.728460 8.175547 -16.370380
Ga 2.728460 5.449734 -13.644567
Ga 0.002647 8.175547 -13.644567
Ga 0.002647 5.449734 -10.918755
Ga 2.728460 8.175547 -10.918755
Ga 2.728460 5.449734 -8.192942
Ga 0.002647 8.175547 -8.192942
Ga 0.002647 5.449734 -5.467130
Ga 2.728460 8.175547 -5.467130
Ga 2.728460 5.449734 -2.741317
Ga 0.002647 8.175547 -2.741317
Ga 0.002647 5.449734 -0.015505
Ga 2.728460 8.175547 -0.015505
Ga 2.728460 5.449734 2.710308
Ga 0.002647 8.175547 2.710308
Ga 0.002647 5.449734 5.436120
Ga 2.728460 8.175547 5.436120
Ga 2.728460 5.449734 8.161933
Ga 0.002647 8.175547 8.161933
Ga 0.002647 5.449734 10.887745
Ga 2.728460 8.175547 10.887745
Ga 2.728460 5.449734 13.613558
Ga 0.002647 8.175547 13.613558
Ga 0.002647 5.449734 16.339370
Ga 2.728460 8.175547 16.339370
Ga 2.728460 5.449734 19.065183
Ga 0.002647 8.175547 19.065183
Ga 0.002647 5.449734 21.790995
Ga 2.728460 10.901359 -19.096192
Ga 0.002647 10.901359 -16.370380
Ga 2.728460 13.627172 -16.370380
Ga 2.728460 10.901359 -13.644567
Ga 0.002647 13.627172 -13.644567
Ga 0.002647 10.901359 -10.918755
Ga 2.728460 13.627172 -10.918755
Ga 2.728460 10.901359 -8.192942
Ga 0.002647 13.627172 -8.192942
Ga 0.002647 10.901359 -5.467130
Ga 2.728460 13.627172 -5.467130
Ga 2.728460 10.901359 -2.741317
Ga 0.002647 13.627172 -2.741317
Ga 0.002647 10.901359 -0.015505
Ga 2.728460 13.627172 -0.015505
Ga 2.728460 10.901359 2.710308
Ga 0.002647 13.627172 2.710308
Ga 0.002647 10.901359 5.436120
Ga 2.728460 13.627172 5.436120
Ga 2.728460 10.901359 8.161933
Ga 0.002647 13.627172 8.161933
Ga 0.002647 10.901359 10.887745
Ga 2.728460 13.627172 10.887745
Ga 2.728460 10.901359 13.613558
Ga 0.002647 13.627172 13.613558
Ga 0.002647 10.901359 16.339370
Ga 2.728460 16.352984 -13.644567
Ga 0.002647 16.352984 -10.918755
Ga 2.728460 19.078797 -10.918755
Ga 2.728460 16.352984 -8.192942
Ga 0.002647 19.078797 -8.192942
Ga 0.002647 16.352984 -5.467130
Ga 2.728460 19.078797 -5.467130
Ga 2.728460 16.352984 -2.741317
Ga 0.002647 19.078797 -2.741317
Ga 0.002647 16.352984 -0.015505
Ga 2.728460 19.078797 -0.015505
Ga 2.728460 16.352984 2.710308
Ga 0.002647 19.078797 2.710308
Ga 0.002647 16.352984 5.436120
Ga 2.728460 19.078797 5.436120
Ga 2.728460 16.352984 8.161933
Ga 0.002647 19.078797 8.161933
Ga 0.002647 16.352984 10.887745
Ga 2.728460 21.804609 -8.192942
Ga 0.002647 21.804609 -5.467130
Ga 2.728460 24.530422 -5.467130
Ga 2.728460 21.804609 -2.741317
Ga 0.002647 24.530422 -2.741317
Ga 0.002647 21.804609 -0.015505
Ga 2.728460 24.530422 -0.015505
Ga 2.728460 21.804609 2.710308
Ga 0.002647 24.530422 2.710308
Ga 0.002647 21.804609 5.436120
Ga 2.728460 27.256234 -2.741317
Ga 0.002647 27.256234 -0.015505
Ga 5.454272 -24.534203 2.710308
Ga 5.454272 -27.260016 5.436120
Ga 8.180085 -24.534203 5.436120
Ga 8.180085 -27.260016 8.161933
Ga 5.454272 -24.534203 8.161933
Ga 8.180085 -24.534203 10.887745
Ga 5.454272 -19.082578 -2.741317
Ga 5.454272 -21.808391 -0.015505
Ga 8.180085 -19.082578 -0.015505
Ga 8.180085 -21.808391 2.710308
Ga 5.454272 -19.082578 2.710308
Ga 5.454272 -21.808391 5.436120
Ga 8.180085 -19.082578 5.436120
Ga 8.180085 -21.808391 8.161933
Ga 5.454272 -19.082578 8.161933
Ga 5.454272 -21.808391 10.887745
Ga 8.180085 -19.082578 10.887745
Ga 8.180085 -21.808391 13.613558
Ga 5.454272 -19.082578 13.613558
Ga 8.180085 -19.082578 16.339370
Ga 5.454272 -13.630953 -8.192942
Ga 5.454272 -16.356766 -5.467130
Ga 8.180085 -13.630953 -5.467130
Ga 8.180085 -16.356766 -2.741317
Ga 5.454272 -13.630953 -2.741317
Ga 5.454272 -16.356766 -0.015505
Ga 8.180085 -13.630953 -0.015505
Ga 8.180085 -16.356766 2.710308
Ga 5.454272 -13.630953 2.710308
Ga 5.454272 -16.356766 5.436120
Ga 8.180085 -13.630953 5.436120
Ga 8.180085 -16.356766 8.161933
Ga 5.454272 -13.630953 8.161933
Ga 5.454272 -16.356766 10.887745
Ga 8.180085 -13.630953 10.887745
Ga 8.180085 -16.356766 13.613558
Ga 5.454272 -13.630953 13.613558
Ga 5.454272 -16.356766 16.339370
Ga 8.180085 -13.630953 16.339370
Ga 8.180085 -16.356766 19.065183
Ga 5.454272 -13.630953 19.065183
Ga 8.180085 -13.630953 21.790995
Ga 5.454272 -8.179328 -13.644567
Ga 5.454272 -10.905141 -10.918755
Ga 8.180085 -8.179328 -10.918755
Ga 8.180085 -10.905141 -8.192942
Ga 5.454272 -8.179328 -8.192942
Ga 5.454272 -10.905141 -5.467130
Ga 8.180085 -8.179328 -5.467130
Ga 8.180085 -10.905141 -2.741317
Ga 5.454272 -8.179328 -2.741317
Ga 5.454272 -10.905141 -0.015505
Ga 8.180085 -8.179328 -0.015505
Ga 8.180085 -10.905141 2.710308
Ga 5.454272 -8.179328 2.710308
Ga 5.454272 -10.905141 5.436120
Ga 8.180085 -8.179328 5.436120
Ga 8.180085 -10.905141 8.161933
Ga 5.454272 -8.179328 8.161933
Ga 5.454272 -10.905141 10.887745
Ga 8.180085 -8.179328 10.887745
Ga 8.180085 -10.905141 13.613558
Ga 5.454272 -8.179328 13.613558
Ga 5.454272 -10.905141 16.339370
Ga 8.180085 -8.179328 16.339370
Ga 8.180085 -10.905141 19.065183
Ga 5.454272 -8.179328 19.065183
Ga 5.454272 -10.905141 21.790995
Ga 8.180085 -8.179328 21.790995
Ga 8.180085 -10.905141 24.516808
Ga 5.454272 -8.179328 24.516808
Ga 8.180085 -8.179328 27.242620
Ga 5.454272 -2.727703 -19.096192
Ga 5.454272 -5.453516 -16.370380
Ga 8.180085 -2.727703 -16.370380
Ga 8.180085 -5.453516 -13.644567
Ga 5.454272 -2.727703 -13.644567
Ga 5.454272 -5.453516 -10.918755
Ga 8.180085 -2.727703 -10.918755
Ga 8.180085 -5.453516 -8.192942
Ga 5.454272 -2.727703 -8.192942
Ga 5.454272 -5.453516 -5.467130
Ga 8.180085 -2.727703 -5.467130
Ga 8.180085 -5.453516 -2.741317
Ga 5.454272 -2.727703 -2.741317
Ga 5.454272 -5.453516 -0.015505
Ga 8.180085 -2.727703 -0.015505
Ga 8.180085 -5.453516 2.710308
Ga 5.454272 -2.727703 2.710308
Ga 5.454272 -5.453516 5.436120
Ga 8.180085 -2.727703 5.436120
Ga 8.180085 -5.453516 8.161933
Ga 5.454272 -2.727703 8.161933
Ga 5.454272 -5.453516 10.887745
Ga 8.180085 -2.727703 10.887745
Ga 8.180085 -5.453516 13.613558
Ga 5.454272 -2.727703 13.613558
Ga 5.454272 -5.453516 16.339370
Ga 8.180085 -2.727703 16.339370
Ga 8.180085 -5.453516 19.065183
Ga 5.454272 -2.727703 19.065183
Ga 5.454272 -5.453516 21.790995
Ga 8.180085 -2.727703 21.790995
Ga 8.180085 -5.453516 24.516808
Ga 5.454272 -2.727703 24.516808
Ga 5.454272 -5.453516 27.242620
Ga 5.454272 2.723922 -24.547817
Ga 5.454272 -0.001891 -21.822005
Ga 8.180085 2.723922 -21.822005
Ga 8.180085 -0.001891 -19.096192
Ga 5.454272 2.723922 -19.096192
Ga 5.454272 -0.001891 -16.370380
Ga 8.180085 2.723922 -16.370380
Ga 8.180085 -0.001891 -13.644567
Ga 5.454272 2.723922 -13.644567
Ga 5.454272 -0.001891 -10.918755
Ga 8.180085 2.723922 -10.918755
Ga 8.180085 -0.001891 -8.192942
Ga 5.454272 2.723922 -8.192942
Ga 5.454272 -0.001891 -5.467130
Ga 8.180085 2.723922 -5.467130
Ga 8.180085 -0.001891 -2.741317
Ga 5.454272 2.723922 -2.741317
Ga 5.454272 -0.001891 -0.015505
Ga 8.180085 2.723922 -0.015505
Ga 8.180085 -0.001891 2.710308
Ga 5.454272 2.723922 2.710308
Ga 5.454272 -0.001891 5.436120
Ga 8.180085 2.723922 5.436120
Ga 8.180085 -0.001891 8.161933
Ga 5.454272 2.723922 8.161933
Ga 5.454272 -0.001891 10.887745
Ga 8.180085 2.723922 10.887745
Ga 8.180085 -0.001891 13.613558
Ga 5.454272 2.723922 13.613558
Ga 5.454272 -0.001891 16.339370
Ga 8.180085 2.723922 16.339370
Ga 8.180085 -0.001891 19.065183
Ga 5.454272 2.723922 19.065183
Ga 5.454272 -0.001891 21.790995
Ga 5.454272 5.449734 -27.273630
Ga 8.180085 8.175547 -27.273630
Ga 8.180085 5.449734 -24.547817
Ga 5.454272 8.175547 -24.547817
Ga 5.454272 5.449734 -21.822005
Ga 8.180085 8.175547 -21.822005
Ga 8.180085 5.449734 -19.096192
Ga 5.454272 8.175547 -19.096192
Ga 5.454272 5.449734 -16.370380
Ga 8.180085 8.175547 -16.370380
Ga 8.180085 5.449734 -13.644567
Ga 5.454272 8.175547 -13.644567
Ga 5.454272 5.449734 -10.918755
Ga 8.180085 8.175547 -10.918755
Ga 8.180085 5.449734 -8.192942
Ga 5.454272 8.175547 -8.192942
Ga 5.454272 5.449734 -5.467130
Ga 8.180085 8.175547 -5.467130
Ga 8.180085 5.449734 -2.741317
Ga 5.454272 8.175547 -2.741317
Ga 5.454272 5.449734 -0.015505
Ga 8.180085 8.175547 -0.015505
Ga 8.180085 5.449734 2.710308
Ga 5.454272 8.175547 2.710308
Ga 5.454272 5.449734 5.436120
Ga 8.180085 8.175547 5.436120
Ga 8.180085 5.449734 8.161933
Ga 5.454272 8.175547 8.161933
Ga 5.454272 5.449734 10.887745
Ga 8.180085 8.175547 10.887745
Ga 8.180085 5.449734 13.613558
Ga 5.454272 8.175547 13.613558
Ga 5.454272 5.449734 16.339370
Ga 8.180085 10.901359 -24.547817
Ga 5.454272 10.901359 -21.822005
Ga 8.180085 13.627172 -21.822005
Ga 8.180085 10.901359 -19.096192
Ga 5.454272 13.627172 -19.096192
Ga 5.454272 10.901359 -16.370380
Ga 8.180085 13.627172 -16.370380
Ga 8.180085 10.901359 -13.644567
Ga 5.454272 13.627172 -13.644567
Ga 5.454272 10.901359 -10.918755
Ga 8.180085 13.627172 -10.918755
Ga 8.180085 10.901359 -8.192942
Ga 5.454272 13.627172 -8.192942
Ga 5.454272 10.901359 -5.467130
Ga 8.180085 13.627172 -5.467130
Ga 8.180085 10.901359 -2.741317
Ga 5.454272 13.627172 -2.741317
Ga 5.454272 10.901359 -0.015505
Ga 8.180085 13.627172 -0.015505
Ga 8.180085 10.901359 2.710308
Ga 5.454272 13.627172 2.710308
Ga 5.454272 10.901359 5.436120
Ga 8.180085 13.627172 5.436120
Ga 8.180085 10.901359 8.161933
Ga 5.454272 13.627172 8.161933
Ga 5.454272 10.901359 10.887745
Ga 8.180085 16.352984 -19.096192
Ga 5.454272 16.352984 -16.370380
Ga 8.180085 19.078797 -16.370380
Ga 8.180085 16.352984 -13.644567
Ga 5.454272 19.078797 -13.644567
Ga 5.454272 16.352984 -10.918755
Ga 8.180085 19.078797 -10.918755
Ga 8.180085 16.352984 -8.192942
Ga 5.454272 19.078797 -8.192942
Ga 5.454272 16.352984 -5.467130
Ga 8.180085 19.078797 -5.467130
Ga 8.180085 16.352984 -2.741317
Ga 5.454272 19.078797 -2.741317
Ga 5.454272 16.352984 -0.015505
Ga 8.180085 19.078797 -0.015505
Ga 8.180085 16.352984 2.710308
Ga 5.454272 19.078797 2.710308
Ga 5.454272 16.352984 5.436120
Ga 8.180085 21.804609 -13.644567
Ga 5.454272 21.804609 -10.918755
Ga 8.180085 24.530422 -10.918755
Ga 8.180085 21.804609 -8.192942
Ga 5.454272 24.530422 -8.192942
Ga 5.454272 21.804609 -5.467130
Ga 8.180085 24.530422 -5.467130
Ga 8.180085 21.804609 -2.741317
Ga 5.454272 24.530422 -2.741317
Ga 5.454272 21.804609 -0.015505
Ga 8.180085 27.256234 -8.192942
Ga 5.454272 27.256234 -5.467130
Ga 10.905897 -24.534203 8.161933
Ga 10.905897 -27.260016 10.887745
Ga 13.631710 -24.534203 10.887745
Ga 13.631710 -27.260016 13.613558
Ga 10.905897 -24.534203 13.613558
Ga 13.631710 -24.534203 16.339370
Ga 10.905897 -19.082578 2.710308
Ga 10.905897 -21.808391 5.436120
Ga 13.631710 -19.082578 5.436120
Ga 13.631710 -21.808391 8.161933
Ga 10.905897 -19.082578 8.161933
Ga 10.905897 -21.808391 10.887745
Ga 13.631710 -19.082578 10.887745
Ga 13.631710 -21.808391 13.613558
Ga 10.905897 -19.082578 13.613558
Ga 10.905897 -21.808391 16.339370
Ga 13.631710 -19.082578 16.339370
Ga 13.631710 -21.808391 19.065183
Ga 10.905897 -19.082578 19.065183
Ga 13.631710 -19.082578 21.790995
Ga 10.905897 -13.630953 -2.741317
Ga 10.905897 -16.356766 -0.015505
Ga 13.631710 -13.630953 -0.015505
Ga 13.631710 -16.356766 2.710308
Ga 10.905897 -13.630953 2.710308
Ga 10.905897 -16.356766 5.436120
Ga 13.631710 -13.630953 5.436120
Ga 13.631710 -16.356766 8.161933
Ga 10.905897 -13.630953 8.161933
Ga 10.905897 -16.356766 10.887745
Ga 13.631710 -13.630953 10.887745
Ga 13.631710 -16.356766 13.613558
Ga 10.905897 -13.630953 13.613558
Ga 10.905897 -16.356766 16.339370
Ga 13.631710 -13.630953 16.339370
Ga 13.631710 -16.356766 19.065183
Ga 10.905897 -13.630953 19.065183
Ga 10.905897 -16.356766 21.790995
Ga 13.631710 -13.630953 21.790995
Ga 13.631710 -16.356766 24.516808
Ga 10.905897 -13.630953 24.516808
Ga 13.631710 -13.630953 27.242620
Ga 10.905897 -8.179328 -8.192942
Ga 10.905897 -10.905141 -5.467130
Ga 13.631710 -8.179328 -5.467130
Ga 13.631710 -10.905141 -2.741317
Ga 10.905897 -8.179328 -2.741317
Ga 10.905897 -10.905141 -0.015505
Ga 13.631710 -8.179328 -0.015505
Ga 13.631710 -10.905141 2.710308
Ga 10.905897 -8.179328 2.710308
Ga 10.905897 -10.905141 5.436120
Ga 13.631710 -8.179328 5.436120
Ga 13.631710 -10.905141 8.161933
Ga 10.905897 -8.179328 8.161933
Ga 10.905897 -10.905141 10.887745
Ga 13.631710 -8.179328 10.887745
Ga 13.631710 -10.905141 13.613558
Ga 10.905897 -8.179328 13.613558
Ga 10.905897 -10.905141 16.339370
Ga 13.631710 -8.179328 16.339370
Ga 13.631710 -10.905141 19.065183
Ga 10.905897 -8.179328 19.065183
Ga 10.905897 -10.905141 21.790995
Ga 13.631710 -8.179328 21.790995
Ga 13.631710 -10.905141 24.516808
Ga 10.905897 -8.179328 24.516808
Ga 10.905897 -10.905141 27.242620
Ga 10.905897 -2.727703 -13.644567
Ga 10.905897 -5.453516 -10.918755
Ga 13.631710 -2.727703 -10.918755
Ga 13.631710 -5.453516 -8.192942
Ga 10.905897 -2.727703 -8.192942
Ga 10.905897 -5.453516 -5.467130
Ga 13.631710 -2.727703 -5.467130
Ga 13.631710 -5.453516 -2.741317
Ga 10.905897 -2.727703 -2.741317
Ga 10.905897 -5.453516 -0.015505
Ga 13.631710 -2.727703 -0.015505
Ga 13.631710 -5.453516 2.710308
Ga 10.905897 -2.727703 2.710308
Ga 10.905897 -5.453516 5.436120
Ga 13.631710 -2.727703 5.436120
Ga 13.631710 -5.453516 8.161933
Ga 10.905897 -2.727703 8.161933
Ga 10.905897 -5.453516 10.887745
Ga 13.631710 -2.727703 10.887745
Ga 13.631710 -5.453516 13.613558
Ga 10.905897 -2.727703 13.613558
Ga 10.905897 -5.453516 16.339370
Ga 13.631710 -2.727703 16.339370
Ga 13.631710 -5.453516 19.065183
Ga 10.905897 -2.727703 19.065183
Ga 10.905897 -5.453516 21.790995
Ga 10.905897 2.723922 -19.096192
Ga 10.905897 -0.001891 -16.370380
Ga 13.631710 2.723922 -16.370380
Ga 13.631710 -0.001891 -13.644567
Ga 10.905897 2.723922 -13.644567
Ga 10.905897 -0.001891 -10.918755
Ga 13.631710 2.723922 -10.918755
Ga 13.631710 -0.001891 -8.192942
Ga 10.905897 2.723922 -8.192942
Ga 10.905897 -0.001891 -5.467130
Ga 13.631710 2.723922 -5.467130
Ga 13.631710 -0.001891 -2.741317
Ga 10.905897 2.723922 -2.741317
Ga 10.905897 -0.001891 -0.015505
Ga 13.631710 2.723922 -0.015505
Ga 13.631710 -0.001891 2.710308
Ga 10.905897 2.723922 2.710308
Ga 10.905897 -0.001891 5.436120
Ga 13.631710 2.723922 5.436120
Ga 13.631710 -0.001891 8.161933
Ga 10.905897 2.723922 8.161933
Ga 10.905897 -0.001891 10.887745
Ga 13.631710 2.723922 10.887745
Ga 13.631710 -0.001891 13.613558
Ga 10.905897 2.723922 13.613558
Ga 10.905897 -0.001891 16.339370
Ga 10.905897 8.175547 -24.547817
Ga 10.905897 5.449734 -21.822005
Ga 13.631710 8.175547 -21.822005
Ga 13.631710 5.449734 -19.096192
Ga 10.905897 8.175547 -19.096192
Ga 10.905897 5.449734 -16.370380
Ga 13.631710 8.175547 -16.370380
Ga 13.631710 5.449734 -13.644567
Ga 10.905897 8.175547 -13.644567
Ga 10.905897 5.449734 -10.918755
Ga 13.631710 8.175547 -10.918755
Ga 13.631710 5.449734 -8.192942
Ga 10.905897 8.175547 -8.192942
Ga 10.905897 5.449734 -5.467130
Ga 13.631710 8.175547 -5.467130
Ga 13.631710 5.449734 -2.741317
Ga 10.905897 8.175547 -2.741317
Ga 10.905897 5.449734 -0.015505
Ga 13.631710 8.175547 -0.015505
Ga 13.631710 5.449734 2.710308
Ga 10.905897 8.175547 2.710308
Ga 10.905897 5.449734 5.436120
Ga 13.631710 8.175547 5.436120
Ga 13.631710 5.449734 8.161933
Ga 10.905897 8.175547 8.161933
Ga 10.905897 5.449734 10.887745
Ga 10.905897 10.901359 -27.273630
Ga 13.631710 13.627172 -27.273630
Ga 13.631710 10.901359 -24.547817
Ga 10.905897 13.627172 -24.547817
Ga 10.905897 10.901359 -21.822005
Ga 13.631710 13.627172 -21.822005
Ga 13.631710 10.901359 -19.096192
Ga 10.905897 13.627172 -19.096192
Ga 10.905897 10.901359 -16.370380
Ga 13.631710 13.627172 -16.370380
Ga 13.631710 10.901359 -13.644567
Ga 10.905897 13.627172 -13.644567
Ga 10.905897 10.901359 -10.918755
Ga 13.631710 13.627172 -10.918755
Ga 13.631710 10.901359 -8.192942
Ga 10.905897 13.627172 -8.192942
Ga 10.905897 10.901359 -5.467130
Ga 13.631710 13.627172 -5.467130
Ga 13.631710 10.901359 -2.741317
Ga 10.905897 13.627172 -2.741317
Ga 10.905897 10.901359 -0.015505
Ga 13.631710 13.627172 -0.015505
Ga 13.631710 10.901359 2.710308
Ga 10.905897 13.627172 2.710308
Ga 10.905897 10.901359 5.436120
Ga 13.631710 16.352984 -24.547817
Ga 10.905897 16.352984 -21.822005
Ga 13.631710 19.078797 -21.822005
Ga 13.631710 16.352984 -19.096192
Ga 10.905897 19.078797 -19.096192
Ga 10.905897 16.352984 -16.370380
Ga 13.631710 19.078797 -16.370380
Ga 13.631710 16.352984 -13.644567
Ga 10.905897 19.078797 -13.644567
Ga 10.905897 16.352984 -10.918755
Ga 13.631710 19.078797 -10.918755
Ga 13.631710 16.352984 -8.192942
Ga 10.905897 19.078797 -8.192942
Ga 10.905897 16.352984 -5.467130
Ga 13.631710 19.078797 -5.467130
Ga 13.631710 16.352984 -2.741317
Ga 10.905897 19.078797 -2.741317
Ga 10.905897 16.352984 -0.015505
Ga 13.631710 21.804609 -19.096192
Ga 10.905897 21.804609 -16.370380
Ga 13.631710 24.530422 -16.370380
Ga 13.631710 21.804609 -13.644567
Ga 10.905897 24.530422 -13.644567
Ga 10.905897 21.804609 -10.918755
Ga 13.631710 24.530422 -10.918755
Ga 13.631710 21.804609 -8.192942
Ga 10.905897 24.530422 -8.192942
Ga 10.905897 21.804609 -5.467130
Ga 13.631710 27.256234 -13.644567
Ga 10.905897 27.256234 -10.918755
Ga 16.357522 -24.534203 13.613558
Ga 16.357522 -19.082578 8.161933
Ga 16.357522 -21.808391 10.887745
Ga 19.083335 -19.082578 10.887745
Ga 19.083335 -21.808391 13.613558
Ga 16.357522 -19.082578 13.613558
Ga 16.357522 -21.808391 16.339370
Ga 19.083335 -19.082578 16.339370
Ga 16.357522 -19.082578 19.065183
Ga 16.357522 -13.630953 2.710308
Ga 16.357522 -16.356766 5.436120
Ga 19.083335 -13.630953 5.436120
Ga 19.083335 -16.356766 8.161933
Ga 16.357522 -13.630953 8.161933
Ga 16.357522 -16.356766 10.887745
Ga 19.083335 -13.630953 10.887745
Ga 19.083335 -16.356766 13.613558
Ga 16.357522 -13.630953 13.613558
Ga 16.357522 -16.356766 16.339370
Ga 19.083335 -13.630953 16.339370
Ga 19.083335 -16.356766 19.065183
Ga 16.357522 -13.630953 19.065183
Ga 16.357522 -16.356766 21.790995
Ga 19.083335 -13.630953 21.790995
Ga 16.357522 -13.630953 24.516808
Ga 16.357522 -8.179328 -2.741317
Ga 16.357522 -10.905141 -0.015505
Ga 19.083335 -8.179328 -0.015505
Ga 19.083335 -10.905141 2.710308
Ga 16.357522 -8.179328 2.710308
Ga 16.357522 -10.905141 5.436120
Ga 19.083335 -8.179328 5.436120
Ga 19.083335 -10.905141 8.161933
Ga 16.357522 -8.179328 8.161933
Ga 16.357522 -10.905141 10.887745
Ga 19.083335 -8.179328 10.887745
Ga 19.083335 -10.905141 13.613558
Ga 16.357522 -8.179328 13.613558
Ga 16.357522 -10.905141 16.339370
Ga 19.083335 -8.179328 16.339370
Ga 19.083335 -10.905141 19.065183
Ga 16.357522 -8.179328 19.065183
Ga 16.357522 -10.905141 21.790995
Ga 16.357522 -2.727703 -8.192942
Ga 16.357522 -5.453516 -5.467130
Ga 19.083335 -2.727703 -5.467130
Ga 19.083335 -5.453516 -2.741317
Ga 16.357522 -2.727703 -2.741317
Ga 16.357522 -5.453516 -0.015505
Ga 19.083335 -2.727703 -0.015505
Ga 19.083335 -5.453516 2.710308
Ga 16.357522 -2.727703 2.710308
Ga 16.357522 -5.453516 5.436120
Ga 19.083335 -2.727703 5.436120
Ga 19.083335 -5.453516 8.161933
Ga 16.357522 -2.727703 8.161933
Ga 16.357522 -5.453516 10.887745
Ga 19.083335 -2.727703 10.887745
Ga 19.083335 -5.453516 13.613558
Ga 16.357522 -2.727703 13.613558
Ga 16.357522 -5.453516 16.339370
Ga 16.357522 2.723922 -13.644567
Ga 16.357522 -0.001891 -10.918755
Ga 19.083335 2.723922 -10.918755
Ga 19.083335 -0.001891 -8.192942
Ga 16.357522 2.723922 -8.192942
Ga 16.357522 -0.001891 -5.467130
Ga 19.083335 2.723922 -5.467130
Ga 19.083335 -0.001891 -2.741317
Ga 16.357522 2.723922 -2.741317
Ga 16.357522 -0.001891 -0.015505
Ga 19.083335 2.723922 -0.015505
Ga 19.083335 -0.001891 2.710308
Ga 16.357522 2.723922 2.710308
Ga 16.357522 -0.001891 5.436120
Ga 19.083335 2.723922 5.436120
Ga 19.083335 -0.001891 8.161933
Ga 16.357522 2.723922 8.161933
Ga 16.357522 -0.001891 10.887745
Ga 16.357522 8.175547 -19.096192
Ga 16.357522 5.449734 -16.370380
Ga 19.083335 8.175547 -16.370380
Ga 19.083335 5.449734 -13.644567
Ga 16.357522 8.175547 -13.644567
Ga 16.357522 5.449734 -10.918755
Ga 19.083335 8.175547 -10.918755
Ga 19.083335 5.449734 -8.192942
Ga 16.357522 8.175547 -8.192942
Ga 16.357522 5.449734 -5.467130
Ga 19.083335 8.175547 -5.467130
Ga 19.083335 5.449734 -2.741317
Ga 16.357522 8.175547 -2.741317
Ga 16.357522 5.449734 -0.015505
Ga 19.083335 8.175547 -0.015505
Ga 19.083335 5.449734 2.710308
Ga 16.357522 8.175547 2.710308
Ga 16.357522 5.449734 5.436120
Ga 16.357522 13.627172 -24.547817
Ga 16.357522 10.901359 -21.822005
Ga 19.083335 13.627172 -21.822005
Ga 19.083335 10.901359 -19.096192
Ga 16.357522 13.627172 -19.096192
Ga 16.357522 10.901359 -16.370380
Ga 19.083335 13.627172 -16.370380
Ga 19.083335 10.901359 -13.644567
Ga 16.357522 13.627172 -13.644567
Ga 16.357522 10.901359 -10.918755
Ga 19.083335 13.627172 -10.918755
Ga 19.083335 10.901359 -8.192942
Ga 16.357522 13.627172 -8.192942
Ga 16.357522 10.901359 -5.467130
Ga 19.083335 13.627172 -5.467130
Ga 19.083335 10.901359 -2.741317
Ga 16.357522 13.627172 -2.741317
Ga 16.357522 10.901359 -0.015505
Ga 16.357522 16.352984 -21.822005
Ga 19.083335 16.352984 -19.096192
Ga 16.357522 19.078797 -19.096192
Ga 16.357522 16.352984 -16.370380
Ga 19.083335 19.078797 -16.370380
Ga 19.083335 16.352984 -13.644567
Ga 16.357522 19.078797 -13.644567
Ga 16.357522 16.352984 -10.918755
Ga 19.083335 19.078797 -10.918755
Ga 19.083335 16.352984 -8.192942
Ga 16.357522 19.078797 -8.192942
Ga 16.357522 16.352984 -5.467130
Ga 16.357522 21.804609 -16.370380
Ga 19.083335 21.804609 -13.644567
Ga 16.357522 24.530422 -13.644567
Ga 16.357522 21.804609 -10.918755
Ga 21.809147 -19.082578 13.613558
Ga 21.809147 -13.630953 8.161933
Ga 21.809147 -16.356766 10.887745
Ga 24.534960 -13.630953 10.887745
Ga 24.534960 -16.356766 13.613558
Ga 21.809147 -13.630953 13.613558
Ga 21.809147 -16.356766 16.339370
Ga 24.534960 -13.630953 16.339370
Ga 21.809147 -13.630953 19.065183
Ga 21.809147 -8.179328 2.710308
Ga 21.809147 -10.905141 5.436120
Ga 24.534960 -8.179328 5.436120
Ga 24.534960 -10.905141 8.161933
Ga 21.809147 -8.179328 8.161933
Ga 21.809147 -10.905141 10.887745
Ga 24.534960 -8.179328 10.887745
Ga 24.534960 -10.905141 13.613558
Ga 21.809147 -8.179328 13.613558
Ga 21.809147 -10.905141 16.339370
Ga 21.809147 -2.727703 -2.741317
Ga 21.809147 -5.453516 -0.015505
Ga 24.534960 -2.727703 -0.015505
Ga 24.534960 -5.453516 2.710308
Ga 21.809147 -2.727703 2.710308
Ga 21.809147 -5.453516 5.436120
Ga 24.534960 -2.727703 5.436120
Ga 24.534960 -5.453516 8.161933
Ga 21.809147 -2.727703 8.161933
Ga 21.809147 -5.453516 10.887745
Ga 21.809147 2.723922 -8.192942
Ga 21.809147 -0.001891 -5.467130
Ga 24.534960 2.723922 -5.467130
Ga 24.534960 -0.001891 -2.741317
Ga 21.809147 2.723922 -2.741317
Ga 21.809147 -0.001891 -0.015505
Ga 24.534960 2.723922 -0.015505
Ga 24.534960 -0.001891 2.710308
Ga 21.809147 2.723922 2.710308
Ga 21.809147 -0.001891 5.436120
Ga 21.809147 8.175547 -13.644567
Ga 21.809147 5.449734 -10.918755
Ga 24.534960 8.175547 -10.918755
Ga 24.534960 5.449734 -8.192942
Ga 21.809147 8.175547 -8.192942
Ga 21.809147 5.449734 -5.467130
Ga 24.534960 8.175547 -5.467130
Ga 24.534960 5.449734 -2.741317
Ga 21.809147 8.175547 -2.741317
Ga 21.809147 5.449734 -0.015505
Ga 21.809147 13.627172 -19.096192
Ga 21.809147 10.901359 -16.370380
Ga 24.534960 13.627172 -16.370380
Ga 24.534960 10.901359 -13.644567
Ga 21.809147 13.627172 -13.644567
Ga 21.809147 10.901359 -10.918755
Ga 24.534960 13.627172 -10.918755
Ga 24.534960 10.901359 -8.192942
Ga 21.809147 13.627172 -8.192942
Ga 21.809147 10.901359 -5.467130
Ga 21.809147 16.352984 -16.370380
Ga 24.534960 16.352984 -13.644567
Ga 21.809147 19.078797 -13.644567
Ga 21.809147 16.352984 -10.918755
Ga 27.260772 -13.630953 13.613558
Ga 27.260772 -8.179328 8.161933
Ga 27.260772 -10.905141 10.887745
Ga 27.260772 -2.727703 2.710308
Ga 27.260772 -5.453516 5.436120
Ga 27.260772 2.723922 -2.741317
Ga 27.260772 -0.001891 -0.015505
Ga 27.260772 8.175547 -8.192942
Ga 27.260772 5.449734 -5.467130
Ga 27.260772 13.627172 -13.644567
Ga 27.260772 10.901359 -10.918755
P -23.166759 -17.719672 -15.007473
P -23.166759 -14.993860 -17.733286
P -25.892572 -14.993860 -15.007473
P -25.892572 -12.268047 -12.281661
P -23.166759 -12.268047 -15.007473
P -23.166759 -14.993860 -12.281661
P -23.166759 -12.268047 -9.555848
P -23.166759 -9.542235 -12.281661
P -25.892572 -9.542235 -9.555848
P -25.892572 -6.816422 -6.830036
P -23.166759 -6.816422 -9.555848
P -23.166759 -9.542235 -6.830036
P -23.166759 -6.816422 -4.104224
P -23.166759 -4.090610 -6.830036
P -25.892572 -4.090610 -4.104224
P -25.892572 -1.364797 -1.378411
P -23.166759 -1.364797 -4.104224
P -23.166759 -4.090610 -1.378411
P -23.166759 -1.364797 1.347401
P -23.166759 1.361015 -1.378411
P -25.892572 1.361015 1.347401
P -25.892572 4.086828 4.073214
P -23.166759 4.086828 1.347401
P -23.166759 1.361015 4.073214
P -23.166759 4.086828 6.799026
P -23.166759 6.812640 4.073214
P -25.892572 6.812640 6.799026
P -25.892572 9.538453 9.524839
P -23.166759 9.538453 6.799026
P -23.166759 6.812640 9.524839
P -23.166759 9.538453 12.250651
P -23.166759 12.264265 9.524839
P -25.892572 12.264265 12.250651
P -25.892572 14.990078 14.976464
P -23.166759 14.990078 12.250651
P -23.166759 12.264265 14.976464
P -23.166759 14.990078 17.702276
P -23.166759 17.715890 14.976464
P -17.715134 -23.171297 -15.007473
P -20.440947 -17.719672 -17.733286
P -17.715134 -17.719672 -20.459098
P -17.715134 -20.445485 -17.733286
P -20.440947 -20.445485 -15.007473
P -20.440947 -17.719672 -12.281661
P -17.715134 -17.719672 -15.007473
P -17.715134 -20.445485 -12.281661
P -17.715134 -17.719672 -9.555848
P -17.715134 -14.993860 -23.184911
P -20.440947 -14.993860 -20.459098
P -20.440947 -12.268047 -17.733286
P -17.715134 -12.268047 -20.459098
P -17.715134 -14.993860 -17.733286
P -20.440947 -14.993860 -15.007473
P -20.440947 -12.268047 -12.281661
P -17.715134 -12.268047 -15.007473
P -17.715134 -14.993860 -12.281661
P -20.440947 -14.993860 -9.555848
P -20.440947 -12.268047 -6.830036
P -17.715134 -12.268047 -9.555848
P -17.715134 -14.993860 -6.830036
P -17.715134 -12.268047 -4.104224
P -17.715134 -9.542235 -17.733286
P -20.440947 -9.542235 -15.007473
P -20.440947 -6.816422 -12.281661
P -17.715134 -6.816422 -15.007473
P -17.715134 -9.542235 -12.281661
P -20.440947 -9.542235 -9.555848
P -20.440947 -6.816422 -6.830036
P -17.715134 -6.816422 -9.555848
P -17.715134 -9.542235 -6.830036
P -20.440947 -9.542235 -4.104224
P -20.440947 -6.816422 -1.378411
P -17.715134 -6.816422 -4.104224
P -17.715134 -9.542235 -1.378411
P -17.715134 -6.816422 1.347401
P -17.715134 -4.090610 -12.281661
P -20.440947 -4.090610 -9.555848
P -20.440947 -1.364797 -6.830036
P -17.715134 -1.364797 -9.555848
P -17.715134 -4.090610 -6.830036
P -20.440947 -4.090610 -4.104224
P -20.440947 -1.364797 -1.378411
P -17.715134 -1.364797 -4.104224
P -17.715134 -4.090610 -1.378411
P -20.440947 -4.090610 1.347401
P -20.440947 -1.364797 4.073214
P -17.715134 -1.364797 1.347401
P -17.715134 -4.090610 4.073214
P -17.715134 -1.364797 6.799026
P -17.715134 1.361015 -6.830036
P -20.440947 1.361015 -4.104224
P -20.440947 4.086828 -1.378411
P -17.715134 4.086828 -4.104224
P -17.715134 1.361015 -1.378411
P -20.440947 1.361015 1.347401
P -20.440947 4.086828 4.073214
P -17.715134 4.086828 1.347401
P -17.715134 1.361015 4.073214
P -20.440947 1.361015 6.799026
P -20.440947 4.086828 9.524839
P -17.715134 4.086828 6.799026
P -17.715134 1.361015 9.524839
P -17.715134 4.086828 12.250651
P -17.715134 6.812640 -1.378411
P -20.440947 6.812640 1.347401
P -20.440947 9.538453 4.073214
P -17.715134 9.538453 1.347401
P -17.715134 6.812640 4.073214
P -20.440947 6.812640 6.799026
P -20.440947 9.538453 9.524839
P -17.715134 9.538453 6.799026
P -17.715134 6.812640 9.524839
P -20.440947 6.812640 12.250651
P -20.440947 9.538453 14.976464
P -17.715134 9.538453 12.250651
P -17.715134 6.812640 14.976464
P -17.715134 9.538453 17.702276
P -17.715134 12.264265 4.073214
P -20.440947 12.264265 6.799026
P -20.440947 14.990078 9.524839
P -17.715134 14.990078 6.799026
P -17.715134 12.264265 9.524839
P -20.440947 12.264265 12.250651
P -20.440947 14.990078 14.976464
P -17.715134 14.990078 12.250651
P -17.715134 12.264265 14.976464
P -20.440947 12.264265 17.702276
P -20.440947 14.990078 20.428089
P -17.715134 14.990078 17.702276
P -17.715134 12.264265 20.428089
P -17.715134 14.990078 23.153901
P -17.715134 17.715890 9.524839
P -20.440947 17.715890 12.250651
P -20.440947 20.441703 14.976464
P -17.715134 20.441703 12.250651
P -17.715134 17.715890 14.976464
P -20.440947 17.715890 17.702276
P -17.715134 20.441703 17.702276
P -17.715134 17.715890 20.428089
P -17.715134 23.167515 14.976464
P -14.989322 -23.171297 -17.733286
P -14.989322 -25.897110 -15.007473
P -14.989322 -23.171297 -12.281661
P -12.263509 -23.171297 -15.007473
P -12.263509 -25.897110 -12.281661
P -12.263509 -23.171297 -9.555848
P -14.989322 -17.719672 -23.184911
P -14.989322 -20.445485 -20.459098
P -14.989322 -17.719672 -17.733286
P -12.263509 -17.719672 -20.459098
P -12.263509 -20.445485 -17.733286
P -14.989322 -20.445485 -15.007473
P -14.989322 -17.719672 -12.281661
P -12.263509 -17.719672 -15.007473
P -12.263509 -20.445485 -12.281661
P -14.989322 -20.445485 -9.555848
P -14.989322 -17.719672 -6.830036
P -12.263509 -17.719672 -9.555848
P -12.263509 -20.445485 -6.830036
P -12.263509 -17.719672 -4.104224
P -14.989322 -14.993860 -25.910723
P -14.989322 -12.268047 -23.184911
P -12.263509 -12.268047 -25.910723
P -12.263509 -14.993860 -23.184911
P -14.989322 -14.993860 -20.459098
P -14.989322 -12.268047 -17.733286
P -12.263509 -12.268047 -20.459098
P -12.263509 -14.993860 -17.733286
P -14.989322 -14.993860 -15.007473
P -14.989322 -12.268047 -12.281661
P -12.263509 -12.268047 -15.007473
P -12.263509 -14.993860 -12.281661
P -14.989322 -14.993860 -9.555848
P -14.989322 -12.268047 -6.830036
P -12.263509 -12.268047 -9.555848
P -12.263509 -14.993860 -6.830036
P -14.989322 -14.993860 -4.104224
P -14.989322 -12.268047 -1.378411
P -12.263509 -12.268047 -4.104224
P -12.263509 -14.993860 -1.378411
P -12.263509 -12.268047 1.347401
P -12.263509 -9.542235 -23.184911
P -14.989322 -9.542235 -20.459098
P -14.989322 -6.816422 -17.733286
P -12.263509 -6.816422 -20.459098
P -12.263509 -9.542235 -17.733286
P -14.989322 -9.542235 -15.007473
P -14.989322 -6.816422 -12.281661
P -12.263509 -6.816422 -15.007473
P -12.263509 -9.542235 -12.281661
P -14.989322 -9.542235 -9.555848
P -14.989322 -6.816422 -6.830036
P -12.263509 -6.816422 -9.555848
P -12.263509 -9.542235 -6.830036
P -14.989322 -9.542235 -4.104224
P -14.989322 -6.816422 -1.378411
P -12.263509 -6.816422 -4.104224
P -12.263509 -9.542235 -1.378411
P -14.989322 -9.542235 1.347401
P -14.989322 -6.816422 4.073214
P -12.263509 -6.816422 1.347401
P -12.263509 -9.542235 4.073214
P -12.263509 -6.816422 6.799026
P -12.263509 -4.090610 -17.733286
P -14.989322 -4.090610 -15.007473
P -14.989322 -1.364797 -12.281661
P -12.263509 -1.364797 -15.007473
P -12.263509 -4.090610 -12.281661
P -14.989322 -4.090610 -9.555848
P -14.989322 -1.364797 -6.830036
P -12.263509 -1.364797 -9.555848
P -12.263509 -4.090610 -6.830036
P -14.989322 -4.090610 -4.104224
P -14.989322 -1.364797 -1.378411
P -12.263509 -1.364797 -4.104224
P -12.263509 -4.090610 -1.378411
P -14.989322 -4.090610 1.347401
P -14.989322 -1.364797 4.073214
P -12.263509 -1.364797 1.347401
P -12.263509 -4.090610 4.073214
P -14.989322 -4.090610 6.799026
P -14.989322 -1.364797 9.524839
P -12.263509 -1.364797 6.799026
P -12.263509 -4.090610 9.524839
P -12.263509 -1.364797 12.250651
P -12.263509 1.361015 -12.281661
P -14.989322 1.361015 -9.555848
P -14.989322 4.086828 -6.830036
P -12.263509 4.086828 -9.555848
P -12.263509 1.361015 -6.830036
P -14.989322 1.361015 -4.104224
P -14.989322 4.086828 -1.378411
P -12.263509 4.086828 -4.104224
P -12.263509 1.361015 -1.378411
P -14.989322 1.361015 1.347401
P -14.989322 4.086828 4.073214
P -12.263509 4.086828 1.347401
P -12.263509 1.361015 4.073214
P -14.989322 1.361015 6.799026
P -14.989322 4.086828 9.524839
P -12.263509 4.086828 6.799026
P -12.263509 1.361015 9.524839
P -14.989322 1.361015 12.250651
P -14.989322 4.086828 14.976464
P -12.263509 4.086828 12.250651
P -12.263509 1.361015 14.976464
P -12.263509 4.086828 17.702276
P -12.263509 6.812640 -6.830036
P -14.989322 6.812640 -4.104224
P -14.989322 9.538453 -1.378411
P -12.263509 9.538453 -4.104224
P -12.263509 6.812640 -1.378411
P -14.989322 6.812640 1.347401
P -14.989322 9.538453 4.073214
P -12.263509 9.538453 1.347401
P -12.263509 6.812640 4.073214
P -14.989322 6.812640 6.799026
P -14.989322 9.538453 9.524839
P -12.263509 9.538453 6.799026
P -12.263509 6.812640 9.524839
P -14.989322 6.812640 12.250651
P -14.989322 9.538453 14.976464
P -12.263509 9.538453 12.250651
P -12.263509 6.812640 14.976464
P -14.989322 6.812640 17.702276
P -14.989322 9.538453 20.428089
P -12.263509 9.538453 17.702276
P -12.263509 6.812640 20.428089
P -12.263509 9.538453 23.153901
P -12.263509 12.264265 -1.378411
P -14.989322 12.264265 1.347401
P -14.989322 14.990078 4.073214
P -12.263509 14.990078 1.347401
P -12.263509 12.264265 4.073214
P -14.989322 12.264265 6.799026
P -14.989322 14.990078 9.524839
P -12.263509 14.990078 6.799026
P -12.263509 12.264265 9.524839
P -14.989322 12.264265 12.250651
P -14.989322 14.990078 14.976464
P -12.263509 14.990078 12.250651
P -12.263509 12.264265 14.976464
P -14.989322 12.264265 17.702276
P -14.989322 14.990078 20.428089
P -12.263509 14.990078 17.702276
P -12.263509 12.264265 20.428089
P -14.989322 12.264265 23.153901
P -14.989322 14.990078 25.879714
P -12.263509 14.990078 23.153901
P -12.263509 12.264265 25.879714
P -12.263509 17.715890 4.073214
P -14.989322 17.715890 6.799026
P -14.989322 20.441703 9.524839
P -12.263509 20.441703 6.799026
P -12.263509 17.715890 9.524839
P -14.989322 17.715890 12.250651
P -14.989322 20.441703 14.976464
P -12.263509 20.441703 12.250651
P -12.263509 17.715890 14.976464
P -14.989322 17.715890 17.702276
P -14.989322 20.441703 20.428089
P -12.263509 20.441703 17.702276
P -12.263509 17.715890 20.428089
P -14.989322 17.715890 23.153901
P -12.263509 23.167515 9.524839
P -14.989322 23.167515 12.250651
P -14.989322 25.893328 14.976464
P -12.263509 25.893328 12.250651
P -12.263509 23.167515 14.976464
P -14.989322 23.167515 17.702276
P -9.537697 -23.171297 -12.281661
P -9.537697 -25.897110 -9.555848
P -9.537697 -23.171297 -6.830036
P -6.811884 -23.171297 -9.555848
P -6.811884 -25.897110 -6.830036
P -6.811884 -23.171297 -4.104224
P -9.537697 -17.719672 -17.733286
P -9.537697 -20.445485 -15.007473
P -9.537697 -17.719672 -12.281661
P -6.811884 -17.719672 -15.007473
P -6.811884 -20.445485 -12.281661
P -9.537697 -20.445485 -9.555848
P -9.537697 -17.719672 -6.830036
P -6.811884 -17.719672 -9.555848
P -6.811884 -20.445485 -6.830036
P -9.537697 -20.445485 -4.104224
P -9.537697 -17.719672 -1.378411
P -6.811884 -17.719672 -4.104224
P -6.811884 -20.445485 -1.378411
P -6.811884 -17.719672 1.347401
P -9.537697 -12.268047 -23.184911
P -9.537697 -14.993860 -20.459098
P -9.537697 -12.268047 -17.733286
P -6.811884 -12.268047 -20.459098
P -6.811884 -14.993860 -17.733286
P -9.537697 -14.993860 -15.007473
P -9.537697 -12.268047 -12.281661
P -6.811884 -12.268047 -15.007473
P -6.811884 -14.993860 -12.281661
P -9.537697 -14.993860 -9.555848
P -9.537697 -12.268047 -6.830036
P -6.811884 -12.268047 -9.555848
P -6.811884 -14.993860 -6.830036
P -9.537697 -14.993860 -4.104224
P -9.537697 -12.268047 -1.378411
P -6.811884 -12.268047 -4.104224
P -6.811884 -14.993860 -1.378411
P -9.537697 -14.993860 1.347401
P -9.537697 -12.268047 4.073214
P -6.811884 -12.268047 1.347401
P -6.811884 -14.993860 4.073214
P -6.811884 -12.268047 6.799026
P -9.537697 -9.542235 -25.910723
P -9.537697 -6.816422 -23.184911
P -6.811884 -6.816422 -25.910723
P -6.811884 -9.542235 -23.184911
P -9.537697 -9.542235 -20.459098
P -9.537697 -6.816422 -17.733286
P -6.811884 -6.816422 -20.459098
P -6.811884 -9.542235 -17.733286
P -9.537697 -9.542235 -15.007473
P -9.537697 -6.816422 -12.281661
P -6.811884 -6.816422 -15.007473
P -6.811884 -9.542235 -12.281661
P -9.537697 -9.542235 -9.555848
P -9.537697 -6.816422 -6.830036
P -6.811884 -6.816422 -9.555848
P -6.811884 -9.542235 -6.830036
P -9.537697 -9.542235 -4.104224
P -9.537697 -6.816422 -1.378411
P -6.811884 -6.816422 -4.104224
P -6.811884 -9.542235 -1.378411
P -9.537697 -9.542235 1.347401
P -9.537697 -6.816422 4.073214
P -6.811884 -6.816422 1.347401
P -6.811884 -9.542235 4.073214
P -9.537697 -9.542235 6.799026
P -9.537697 -6.816422 9.524839
P -6.811884 -6.816422 6.799026
P -6.811884 -9.542235 9.524839
P -6.811884 -6.816422 12.250651
P -6.811884 -4.090610 -23.184911
P -9.537697 -4.090610 -20.459098
P -9.537697 -1.364797 -17.733286
P -6.811884 -1.364797 -20.459098
P -6.811884 -4.090610 -17.733286
P -9.537697 -4.090610 -15.007473
P -9.537697 -1.364797 -12.281661
P -6.811884 -1.364797 -15.007473
P -6.811884 -4.090610 -12.281661
P -9.537697 -4.090610 -9.555848
P -9.537697 -1.364797 -6.830036
P -6.811884 -1.364797 -9.555848
P -6.811884 -4.090610 -6.830036
P -9.537697 -4.090610 -4.104224
P -9.537697 -1.364797 -1.378411
P -6.811884 -1.364797 -4.104224
P -6.811884 -4.090610 -1.378411
P -9.537697 -4.090610 1.347401
P -9.537697 -1.364797 4.073214
P -6.811884 -1.364797 1.347401
P -6.811884 -4.090610 4.073214
P -9.537697 -4.090610 6.799026
P -9.537697 -1.364797 9.524839
P -6.811884 -1.364797 6.799026
P -6.811884 -4.090610 9.524839
P -9.537697 -4.090610 12.250651
P -9.537697 -1.364797 14.976464
P -6.811884 -1.364797 12.250651
P -6.811884 -4.090610 14.976464
P -6.811884 -1.364797 17.702276
P -6.811884 1.361015 -17.733286
P -9.537697 1.361015 -15.007473
P -9.537697 4.086828 -12.281661
P -6.811884 4.086828 -15.007473
P -6.811884 1.361015 -12.281661
P -9.537697 1.361015 -9.555848
P -9.537697 4.086828 -6.830036
P -6.811884 4.086828 -9.555848
P -6.811884 1.361015 -6.830036
P -9.537697 1.361015 -4.104224
P -9.537697 4.086828 -1.378411
P -6.811884 4.086828 -4.104224
P -6.811884 1.361015 -1.378411
P -9.537697 1.361015 1.347401
P -9.537697 4.086828 4.073214
P -6.811884 4.086828 1.347401
P -6.811884 1.361015 4.073214
P -9.537697 1.361015 6.799026
P -9.537697 4.086828 9.524839
P -6.811884 4.086828 6.799026
P -6.811884 1.361015 9.524839
P -9.537697 1.361015 12.250651
P -9.537697 4.086828 14.976464
P -6.811884 4.086828 12.250651
P -6.811884 1.361015 14.976464
P -9.537697 1.361015 17.702276
P -9.537697 4.086828 20.428089
P -6.811884 4.086828 17.702276
P -6.811884 1.361015 20.428089
P -6.811884 4.086828 23.153901
P -6.811884 6.812640 -12.281661
P -9.537697 6.812640 -9.555848
P -9.537697 9.538453 -6.830036
P -6.811884 9.538453 -9.555848
P -6.811884 6.812640 -6.830036
P -9.537697 6.812640 -4.104224
P -9.537697 9.538453 -1.378411
P -6.811884 9.538453 -4.104224
P -6.811884 6.812640 -1.378411
P -9.537697 6.812640 1.347401
P -9.537697 9.538453 4.073214
P -6.811884 9.538453 1.347401
P -6.811884 6.812640 4.073214
P -9.537697 6.812640 6.799026
P -9.537697 9.538453 9.524839
P -6.811884 9.538453 6.799026
P -6.811884 6.812640 9.524839
P -9.537697 6.812640 12.250651
P -9.537697 9.538453 14.976464
P -6.811884 9.538453 12.250651
P -6.811884 6.812640 14.976464
P -9.537697 6.812640 17.702276
P -9.537697 9.538453 20.428089
P -6.811884 9.538453 17.702276
P -6.811884 6.812640 20.428089
P -9.537697 6.812640 23.153901
P -9.537697 9.538453 25.879714
P -6.811884 9.538453 23.153901
P -6.811884 6.812640 25.879714
P -6.811884 12.264265 -6.830036
P -9.537697 12.264265 -4.104224
P -9.537697 14.990078 -1.378411
P -6.811884 14.990078 -4.104224
P -6.811884 12.264265 -1.378411
P -9.537697 12.264265 1.347401
P -9.537697 14.990078 4.073214
P -6.811884 14.990078 1.347401
P -6.811884 12.264265 4.073214
P -9.537697 12.264265 6.799026
P -9.537697 14.990078 9.524839
P -6.811884 14.990078 6.799026
P -6.811884 12.264265 9.524839
P -9.537697 12.264265 12.250651
P -9.537697 14.990078 14.976464
P -6.811884 14.990078 12.250651
P -6.811884 12.264265 14.976464
P -9.537697 12.264265 17.702276
P -9.537697 14.990078 20.428089
P -6.811884 14.990078 17.702276
P -6.811884 12.264265 20.428089
P -9.537697 12.264265 23.153901
P -6.811884 17.715890 -1.378411
P -9.537697 17.715890 1.347401
P -9.537697 20.441703 4.073214
P -6.811884 20.441703 1.347401
P -6.811884 17.715890 4.073214
P -9.537697 17.715890 6.799026
P -9.537697 20.441703 9.524839
P -6.811884 20.441703 6.799026
P -6.811884 17.715890 9.524839
P -9.537697 17.715890 12.250651
P -9.537697 20.441703 14.976464
P -6.811884 20.441703 12.250651
P -6.811884 17.715890 14.976464
P -9.537697 17.715890 17.702276
P -6.811884 23.167515 4.073214
P -9.537697 23.167515 6.799026
P -9.537697 25.893328 9.524839
P -6.811884 25.893328 6.799026
P -6.811884 23.167515 9.524839
P -9.537697 23.167515 12.250651
P -4.086072 -23.171297 -6.830036
P -4.086072 -25.897110 -4.104224
P -4.086072 -23.171297 -1.378411
P -1.360259 -23.171297 -4.104224
P -1.360259 -25.897110 -1.378411
P -1.360259 -23.171297 1.347401
P -4.086072 -17.719672 -12.281661
P -4.086072 -20.445485 -9.555848
P -4.086072 -17.719672 -6.830036
P -1.360259 -17.719672 -9.555848
P -1.360259 -20.445485 -6.830036
P -4.086072 -20.445485 -4.104224
P -4.086072 -17.719672 -1.378411
P -1.360259 -17.719672 -4.104224
P -1.360259 -20.445485 -1.378411
P -4.086072 -20.445485 1.347401
P -4.086072 -17.719672 4.073214
P -1.360259 -17.719672 1.347401
P -1.360259 -20.445485 4.073214
P -1.360259 -17.719672 6.799026
P -4.086072 -12.268047 -17.733286
P -4.086072 -14.993860 -15.007473
P -4.086072 -12.268047 -12.281661
P -1.360259 -12.268047 -15.007473
P -1.360259 -14.993860 -12.281661
P -4.086072 -14.993860 -9.555848
P -4.086072 -12.268047 -6.830036
P -1.360259 -12.268047 -9.555848
P -1.360259 -14.993860 -6.830036
P -4.086072 -14.993860 -4.104224
P -4.086072 -12.268047 -1.378411
P -1.360259 -12.268047 -4.104224
P -1.360259 -14.993860 -1.378411
P -4.086072 -14.993860 1.347401
P -4.086072 -12.268047 4.073214
P -1.360259 -12.268047 1.347401
P -1.360259 -14.993860 4.073214
P -4.086072 -14.993860 6.799026
P -4.086072 -12.268047 9.524839
P -1.360259 -12.268047 6.799026
P -1.360259 -14.993860 9.524839
P -1.360259 -12.268047 12.250651
P -4.086072 -6.816422 -23.184911
P -4.086072 -9.542235 -20.459098
P -4.086072 -6.816422 -17.733286
P -1.360259 -6.816422 -20.459098
P -1.360259 -9.542235 -17.733286
P -4.086072 -9.542235 -15.007473
P -4.086072 -6.816422 -12.281661
P -1.360259 -6.816422 -15.007473
P -1.360259 -9.542235 -12.281661
P -4.086072 -9.542235 -9.555848
P -4.086072 -6.816422 -6.830036
P -1.360259 -6.816422 -9.555848
P -1.360259 -9.542235 -6.830036
P -4.086072 -9.542235 -4.104224
P -4.086072 -6.816422 -1.378411
P -1.360259 -6.816422 -4.104224
P -1.360259 -9.542235 -1.378411
P -4.086072 -9.542235 1.347401
P -4.086072 -6.816422 4.073214
P -1.360259 -6.816422 1.347401
P -1.360259 -9.542235 4.073214
P -4.086072 -9.542235 6.799026
P -4.086072 -6.816422 9.524839
P -1.360259 -6.816422 6.799026
P -1.360259 -9.542235 9.524839
P -4.086072 -9.542235 12.250651
P -4.086072 -6.816422 14.976464
P -1.360259 -6.816422 12.250651
P -1.360259 -9.542235 14.976464
P -1.360259 -6.816422 17.702276
P -4.086072 -4.090610 -25.910723
P -4.086072 -1.364797 -23.184911
P -1.360259 -1.364797 -25.910723
P -1.360259 -4.090610 -23.184911
P -4.086072 -4.090610 -20.459098
P -4.086072 -1.364797 -17.733286
P -1.360259 -1.364797 -20.459098
P -1.360259 -4.090610 -17.733286
P -4.086072 -4.090610 -15.007473
P -4.086072 -1.364797 -12.281661
P -1.360259 -1.364797 -15.007473
P -1.360259 -4.090610 -12.281661
P -4.086072 -4.090610 -9.555848
P -4.086072 -1.364797 -6.830036
P -1.360259 -1.364797 -9.555848
P -1.360259 -4.090610 -6.830036
P -4.086072 -4.090610 -4.104224
P -4.086072 -1.364797 -1.378411
P -1.360259 -1.364797 -4.104224
P -1.360259 -4.090610 -1.378411
P -4.086072 -4.090610 1.347401
P -4.086072 -1.364797 4.073214
P -1.360259 -1.364797 1.347401
P -1.360259 -4.090610 4.073214
P -4.086072 -4.090610 6.799026
P -4.086072 -1.364797 9.524839
P -1.360259 -1.364797 6.799026
P -1.360259 -4.090610 9.524839
P -4.086072 -4.090610 12.250651
P -4.086072 -1.364797 14.976464
P -1.360259 -1.364797 12.250651
P -1.360259 -4.090610 14.976464
P -4.086072 -4.090610 17.702276
P -4.086072 -1.364797 20.428089
P -1.360259 -1.364797 17.702276
P -1.360259 -4.090610 20.428089
P -1.360259 -1.364797 23.153901
P -1.360259 1.361015 -23.184911
P -4.086072 1.361015 -20.459098
P -4.086072 4.086828 -17.733286
P -1.360259 4.086828 -20.459098
P -1.360259 1.361015 -17.733286
P -4.086072 1.361015 -15.007473
P -4.086072 4.086828 -12.281661
P -1.360259 4.086828 -15.007473
P -1.360259 1.361015 -12.281661
P -4.086072 1.361015 -9.555848
P -4.086072 4.086828 -6.830036
P -1.360259 4.086828 -9.555848
P -1.360259 1.361015 -6.830036
P -4.086072 1.361015 -4.104224
P -4.086072 4.086828 -1.378411
P -1.360259 4.086828 -4.104224
P -1.360259 1.361015 -1.378411
P -4.086072 1.361015 1.347401
P -4.086072 4.086828 4.073214
P -1.360259 4.086828 1.347401
P -1.360259 1.361015 4.073214
P -4.086072 1.361015 6.799026
P -4.086072 4.086828 9.524839
P -1.360259 4.086828 6.799026
P -1.360259 1.361015 9.524839
P -4.086072 1.361015 12.250651
P -4.086072 4.086828 14.976464
P -1.360259 4.086828 12.250651
P -1.360259 1.361015 14.976464
P -4.086072 1.361015 17.702276
P -4.086072 4.086828 20.428089
P -1.360259 4.086828 17.702276
P -1.360259 1.361015 20.428089
P -4.086072 1.361015 23.153901
P -4.086072 4.086828 25.879714
P -1.360259 4.086828 23.153901
P -1.360259 1.361015 25.879714
P -1.360259 6.812640 -17.733286
P -4.086072 6.812640 -15.007473
P -4.086072 9.538453 -12.281661
P -1.360259 9.538453 -15.007473
P -1.360259 6.812640 -12.281661
P -4.086072 6.812640 -9.555848
P -4.086072 9.538453 -6.830036
P -1.360259 9.538453 -9.555848
P -1.360259 6.812640 -6.830036
P -4.086072 6.812640 -4.104224
P -4.086072 9.538453 -1.378411
P -1.360259 9.538453 -4.104224
P -1.360259 6.812640 -1.378411
P -4.086072 6.812640 1.347401
P -4.086072 9.538453 4.073214
P -1.360259 9.538453 1.347401
P -1.360259 6.812640 4.073214
P -4.086072 6.812640 6.799026
P -4.086072 9.538453 9.524839
P -1.360259 9.538453 6.799026
P -1.360259 6.812640 9.524839
P -4.086072 6.812640 12.250651
P -4.086072 9.538453 14.976464
P -1.360259 9.538453 12.250651
P -1.360259 6.812640 14.976464
P -4.086072 6.812640 17.702276
P -4.086072 9.538453 20.428089
P -1.360259 9.538453 17.702276
P -1.360259 6.812640 20.428089
P -4.086072 6.812640 23.153901
P -1.360259 12.264265 -12.281661
P -4.086072 12.264265 -9.555848
P -4.086072 14.990078 -6.830036
P -1.360259 14.990078 -9.555848
P -1.360259 12.264265 -6.830036
P -4.086072 12.264265 -4.104224
P -4.086072 14.990078 -1.378411
P -1.360259 14.990078 -4.104224
P -1.360259 12.264265 -1.378411
P -4.086072 12.264265 1.347401
P -4.086072 14.990078 4.073214
P -1.360259 14.990078 1.347401
P -1.360259 12.264265 4.073214
P -4.086072 12.264265 6.799026
P -4.086072 14.990078 9.524839
P -1.360259 14.990078 6.799026
P -1.360259 12.264265 9.524839
P -4.086072 12.264265 12.250651
P -4.086072 14.990078 14.976464
P -1.360259 14.990078 12.250651
P -1.360259 12.264265 14.976464
P -4.086072 12.264265 17.702276
P -1.360259 17.715890 -6.830036
P -4.086072 17.715890 -4.104224
P -4.086072 20.441703 -1.378411
P -1.360259 20.441703 -4.104224
P -1.360259 17.715890 -1.378411
P -4.086072 17.715890 1.347401
P -4.086072 20.441703 4.073214
P -1.360259 20.441703 1.347401
P -1.360259 17.715890 4.073214
P -4.086072 17.715890 6.799026
P -4.086072 20.441703 9.524839
P -1.360259 20.441703 6.799026
P -1.360259 17.715890 9.524839
P -4.086072 17.715890 12.250651
P -1.360259 23.167515 -1.378411
P -4.086072 23.167515 1.347401
P -4.086072 25.893328 4.073214
P -1.360259 25.893328 1.347401
P -1.360259 23.167515 4.073214
P -4.086072 23.167515 6.799026
P 1.365553 -23.171297 -1.378411
P 1.365553 -25.897110 1.347401
P 1.365553 -23.171297 4.073214
P 4.091366 -23.171297 1.347401
P 4.091366 -25.897110 4.073214
P 4.091366 -23.171297 6.799026
P 1.365553 -17.719672 -6.830036
P 1.365553 -20.445485 -4.104224
P 1.365553 -17.719672 -1.378411
P 4.091366 -17.719672 -4.104224
P 4.091366 -20.445485 -1.378411
P 1.365553 -20.445485 1.347401
P 1.365553 -17.719672 4.073214
P 4.091366 -17.719672 1.347401
P 4.091366 -20.445485 4.073214
P 1.365553 -20.445485 6.799026
P 1.365553 -17.719672 9.524839
P 4.091366 -17.719672 6.799026
P 4.091366 -20.445485 9.524839
P 4.091366 -17.719672 12.250651
P 1.365553 -12.268047 -12.281661
P 1.365553 -14.993860 -9.555848
P 1.365553 -12.268047 -6.830036
P 4.091366 -12.268047 -9.555848
P 4.091366 -14.993860 -6.830036
P 1.365553 -14.993860 -4.104224
P 1.365553 -12.268047 -1.378411
P 4.091366 -12.268047 -4.104224
P 4.091366 -14.993860 -1.378411
P 1.365553 -14.993860 1.347401
P 1.365553 -12.268047 4.073214
P 4.091366 -12.268047 1.347401
P 4.091366 -14.993860 4.073214
P 1.365553 -14.993860 6.799026
P 1.365553 -12.268047 9.524839
P 4.091366 -12.268047 6.799026
P 4.091366 -14.993860 9.524839
P 1.365553 -14.993860 12.250651
P 1.365553 -12.268047 14.976464
P 4.091366 -12.268047 12.250651
P 4.091366 -14.993860 14.976464
P 4.091366 -12.268047 17.702276
P 1.365553 -6.816422 -17.733286
P 1.365553 -9.542235 -15.007473
P 1.365553 -6.816422 -12.281661
P 4.091366 -6.816422 -15.007473
P 4.091366 -9.542235 -12.281661
P 1.365553 -9.542235 -9.555848
P 1.365553 -6.816422 -6.830036
P 4.091366 -6.816422 -9.555848
P 4.091366 -9.542235 -6.830036
P 1.365553 -9.542235 -4.104224
P 1.365553 -6.816422 -1.378411
P 4.091366 -6.816422 -4.104224
P 4.091366 -9.542235 -1.378411
P 1.365553 -9.542235 1.347401
P 1.365553 -6.816422 4.073214
P 4.091366 -6.816422 1.347401
P 4.091366 -9.542235 4.073214
P 1.365553 -9.542235 6.799026
P 1.365553 -6.816422 9.524839
P 4.091366 -6.816422 6.799026
P 4.091366 -9.542235 9.524839
P 1.365553 -9.542235 12.250651
P 1.365553 -6.816422 14.976464
P 4.091366 -6.816422 12.250651
P 4.091366 -9.542235 14.976464
P 1.365553 -9.542235 17.702276
P 1.365553 -6.816422 20.428089
P 4.091366 -6.816422 17.702276
P 4.091366 -9.542235 20.428089
P 4.091366 -6.816422 23.153901
P 1.365553 -1.364797 -23.184911
P 1.365553 -4.090610 -20.459098
P 1.365553 -1.364797 -17.733286
P 4.091366 -1.364797 -20.459098
P 4.091366 -4.090610 -17.733286
P 1.365553 -4.090610 -15.007473
P 1.365553 -1.364797 -12.281661
P 4.091366 -1.364797 -15.007473
P 4.091366 -4.090610 -12.281661
P 1.365553 -4.090610 -9.555848
P 1.365553 -1.364797 -6.830036
P 4.091366 -1.364797 -9.555848
P 4.091366 -4.090610 -6.830036
P 1.365553 -4.090610 -4.104224
P 1.365553 -1.364797 -1.378411
P 4.091366 -1.364797 -4.104224
P 4.091366 -4.090610 -1.378411
P 1.365553 -4.090610 1.347401
P 1.365553 -1.364797 4.073214
P 4.091366 -1.364797 1.347401
P 4.091366 -4.090610 4.073214
P 1.365553 -4.090610 6.799026
P 1.365553 -1.364797 9.524839
P 4.091366 -1.364797 6.799026
P 4.091366 -4.090610 9.524839
P 1.365553 -4.090610 12.250651
P 1.365553 -1.364797 14.976464
P 4.091366 -1.364797 12.250651
P 4.091366 -4.090610 14.976464
P 1.365553 -4.090610 17.702276
P 1.365553 -1.364797 20.428089
P 4.091366 -1.364797 17.702276
P 4.091366 -4.090610 20.428089
P 1.365553 -4.090610 23.153901
P 1.365553 -1.364797 25.879714
P 4.091366 -1.364797 23.153901
P 4.091366 -4.090610 25.879714
P 1.365553 1.361015 -25.910723
P 1.365553 4.086828 -23.184911
P 4.091366 4.086828 -25.910723
P 4.091366 1.361015 -23.184911
P 1.365553 1.361015 -20.459098
P 1.365553 4.086828 -17.733286
P 4.091366 4.086828 -20.459098
P 4.091366 1.361015 -17.733286
P 1.365553 1.361015 -15.007473
P 1.365553 4.086828 -12.281661
P 4.091366 4.086828 -15.007473
P 4.091366 1.361015 -12.281661
P 1.365553 1.361015 -9.555848
P 1.365553 4.086828 -6.830036
P 4.091366 4.086828 -9.555848
P 4.091366 1.361015 -6.830036
P 1.365553 1.361015 -4.104224
P 1.365553 4.086828 -1.378411
P 4.091366 4.086828 -4.104224
P 4.091366 1.361015 -1.378411
P 1.365553 1.361015 1.347401
P 1.365553 4.086828 4.073214
P 4.091366 4.086828 1.347401
P 4.091366 1.361015 4.073214
P 1.365553 1.361015 6.799026
P 1.365553 4.086828 9.524839
P 4.091366 4.086828 6.799026
P 4.091366 1.361015 9.524839
P 1.365553 1.361015 12.250651
P 1.365553 4.086828 14.976464
P 4.091366 4.086828 12.250651
P 4.091366 1.361015 14.976464
P 1.365553 1.361015 17.702276
P 1.365553 4.086828 20.428089
P 4.091366 4.086828 17.702276
P 4.091366 1.361015 20.428089
P 1.365553 1.361015 23.153901
P 4.091366 6.812640 -23.184911
P 1.365553 6.812640 -20.459098
P 1.365553 9.538453 -17.733286
P 4.091366 9.538453 -20.459098
P 4.091366 6.812640 -17.733286
P 1.365553 6.812640 -15.007473
P 1.365553 9.538453 -12.281661
P 4.091366 9.538453 -15.007473
P 4.091366 6.812640 -12.281661
P 1.365553 6.812640 -9.555848
P 1.365553 9.538453 -6.830036
P 4.091366 9.538453 -9.555848
P 4.091366 6.812640 -6.830036
P 1.365553 6.812640 -4.104224
P 1.365553 9.538453 -1.378411
P 4.091366 9.538453 -4.104224
P 4.091366 6.812640 -1.378411
P 1.365553 6.812640 1.347401
P 1.365553 9.538453 4.073214
P 4.091366 9.538453 1.347401
P 4.091366 6.812640 4.073214
P 1.365553 6.812640 6.799026
P 1.365553 9.538453 9.524839
P 4.091366 9.538453 6.799026
P 4.091366 6.812640 9.524839
P 1.365553 6.812640 12.250651
P 1.365553 9.538453 14.976464
P 4.091366 9.538453 12.250651
P 4.091366 6.812640 14.976464
P 1.365553 6.812640 17.702276
P 4.091366 12.264265 -17.733286
P 1.365553 12.264265 -15.007473
P 1.365553 14.990078 -12.281661
P 4.091366 14.990078 -15.007473
P 4.091366 12.264265 -12.281661
P 1.365553 12.264265 -9.555848
P 1.365553 14.990078 -6.830036
P 4.091366 14.990078 -9.555848
P 4.091366 12.264265 -6.830036
P 1.365553 12.264265 -4.104224
P 1.365553 14.990078 -1.378411
P 4.091366 14.990078 -4.104224
P 4.091366 12.264265 -1.378411
P 1.365553 12.264265 1.347401
P 1.365553 14.990078 4.073214
P 4.091366 14.990078 1.347401
P 4.091366 12.264265 4.073214
P 1.365553 12.264265 6.799026
P 1.365553 14.990078 9.524839
P 4.091366 14.990078 6.799026
P 4.091366 12.264265 9.524839
P 1.365553 12.264265 12.250651
P 4.091366 17.715890 -12.281661
P 1.365553 17.715890 -9.555848
P 1.365553 20.441703 -6.830036
P 4.091366 20.441703 -9.555848
P 4.091366 17.715890 -6.830036
P 1.365553 17.715890 -4.104224
P 1.365553 20.441703 -1.378411
P 4.091366 20.441703 -4.104224
P 4.091366 17.715890 -1.378411
P 1.365553 17.715890 1.347401
P 1.365553 20.441703 4.073214
P 4.091366 20.441703 1.347401
P 4.091366 17.715890 4.073214
P 1.365553 17.715890 6.799026
P 4.091366 23.167515 -6.830036
P 1.365553 23.167515 -4.104224
P 1.365553 25.893328 -1.378411
P 4.091366 25.893328 -4.104224
P 4.091366 23.167515 -1.378411
P 1.365553 23.167515 1.347401
P 6.817178 -23.171297 4.073214
P 6.817178 -25.897110 6.799026
P 6.817178 -23.171297 9.524839
P 9.542991 -23.171297 6.799026
P 9.542991 -25.897110 9.524839
P 9.542991 -23.171297 12.250651
P 6.817178 -17.719672 -1.378411
P 6.817178 -20.445485 1.347401
P 6.817178 -17.719672 4.073214
P 9.542991 -17.719672 1.347401
P 9.542991 -20.445485 4.073214
P 6.817178 -20.445485 6.799026
P 6.817178 -17.719672 9.524839
P 9.542991 -17.719672 6.799026
P 9.542991 -20.445485 9.524839
P 6.817178 -20.445485 12.250651
P 6.817178 -17.719672 14.976464
P 9.542991 -17.719672 12.250651
P 9.542991 -20.445485 14.976464
P 9.542991 -17.719672 17.702276
P 6.817178 -12.268047 -6.830036
P 6.817178 -14.993860 -4.104224
P 6.817178 -12.268047 -1.378411
P 9.542991 -12.268047 -4.104224
P 9.542991 -14.993860 -1.378411
P 6.817178 -14.993860 1.347401
P 6.817178 -12.268047 4.073214
P 9.542991 -12.268047 1.347401
P 9.542991 -14.993860 4.073214
P 6.817178 -14.993860 6.799026
P 6.817178 -12.268047 9.524839
P 9.542991 -12.268047 6.799026
P 9.542991 -14.993860 9.524839
P 6.817178 -14.993860 12.250651
P 6.817178 -12.268047 14.976464
P 9.542991 -12.268047 12.250651
P 9.542991 -14.993860 14.976464
P 6.817178 -14.993860 17.702276
P 6.817178 -12.268047 20.428089
P 9.542991 -12.268047 17.702276
P 9.542991 -14.993860 20.428089
P 9.542991 -12.268047 23.153901
P 6.817178 -6.816422 -12.281661
P 6.817178 -9.542235 -9.555848
P 6.817178 -6.816422 -6.830036
P 9.542991 -6.816422 -9.555848
P 9.542991 -9.542235 -6.830036
P 6.817178 -9.542235 -4.104224
P 6.817178 -6.816422 -1.378411
P 9.542991 -6.816422 -4.104224
P 9.542991 -9.542235 -1.378411
P 6.817178 -9.542235 1.347401
P 6.817178 -6.816422 4.073214
P 9.542991 -6.816422 1.347401
P 9.542991 -9.542235 4.073214
P 6.817178 -9.542235 6.799026
P 6.817178 -6.816422 9.524839
P 9.542991 -6.816422 6.799026
P 9.542991 -9.542235 9.524839
P 6.817178 -9.542235 12.250651
P 6.817178 -6.816422 14.976464
P 9.542991 -6.816422 12.250651
P 9.542991 -9.542235 14.976464
P 6.817178 -9.542235 17.702276
P 6.817178 -6.816422 20.428089
P 9.542991 -6.816422 17.702276
P 9.542991 -9.542235 20.428089
P 6.817178 -9.542235 23.153901
P 6.817178 -6.816422 25.879714
P 9.542991 -6.816422 23.153901
P 9.542991 -9.542235 25.879714
P 6.817178 -1.364797 -17.733286
P 6.817178 -4.090610 -15.007473
P 6.817178 -1.364797 -12.281661
P 9.542991 -1.364797 -15.007473
P 9.542991 -4.090610 -12.281661
P 6.817178 -4.090610 -9.555848
P 6.817178 -1.364797 -6.830036
P 9.542991 -1.364797 -9.555848
P 9.542991 -4.090610 -6.830036
P 6.817178 -4.090610 -4.104224
P 6.817178 -1.364797 -1.378411
P 9.542991 -1.364797 -4.104224
P 9.542991 -4.090610 -1.378411
P 6.817178 -4.090610 1.347401
P 6.817178 -1.364797 4.073214
P 9.542991 -1.364797 1.347401
P 9.542991 -4.090610 4.073214
P 6.817178 -4.090610 6.799026
P 6.817178 -1.364797 9.524839
P 9.542991 -1.364797 6.799026
P 9.542991 -4.090610 9.524839
P 6.817178 -4.090610 12.250651
P 6.817178 -1.364797 14.976464
P 9.542991 -1.364797 12.250651
P 9.542991 -4.090610 14.976464
P 6.817178 -4.090610 17.702276
P 6.817178 -1.364797 20.428089
P 9.542991 -1.364797 17.702276
P 9.542991 -4.090610 20.428089
P 6.817178 -4.090610 23.153901
P 6.817178 4.086828 -23.184911
P 6.817178 1.361015 -20.459098
P 6.817178 4.086828 -17.733286
P 9.542991 4.086828 -20.459098
P 9.542991 1.361015 -17.733286
P 6.817178 1.361015 -15.007473
P 6.817178 4.086828 -12.281661
P 9.542991 4.086828 -15.007473
P 9.542991 1.361015 -12.281661
P 6.817178 1.361015 -9.555848
P 6.817178 4.086828 -6.830036
P 9.542991 4.086828 -9.555848
P 9.542991 1.361015 -6.830036
P 6.817178 1.361015 -4.104224
P 6.817178 4.086828 -1.378411
P 9.542991 4.086828 -4.104224
P 9.542991 1.361015 -1.378411
P 6.817178 1.361015 1.347401
P 6.817178 4.086828 4.073214
P 9.542991 4.086828 1.347401
P 9.542991 1.361015 4.073214
P 6.817178 1.361015 6.799026
P 6.817178 4.086828 9.524839
P 9.542991 4.086828 6.799026
P 9.542991 1.361015 9.524839
P 6.817178 1.361015 12.250651
P 6.817178 4.086828 14.976464
P 9.542991 4.086828 12.250651
P 9.542991 1.361015 14.976464
P 6.817178 1.361015 17.702276
P 6.817178 6.812640 -25.910723
P 6.817178 9.538453 -23.184911
P 9.542991 9.538453 -25.910723
P 9.542991 6.812640 -23.184911
P 6.817178 6.812640 -20.459098
P 6.817178 9.538453 -17.733286
P 9.542991 9.538453 -20.459098
P 9.542991 6.812640 -17.733286
P 6.817178 6.812640 -15.007473
P 6.817178 9.538453 -12.281661
P 9.542991 9.538453 -15.007473
P 9.542991 6.812640 -12.281661
P 6.817178 6.812640 -9.555848
P 6.817178 9.538453 -6.830036
P 9.542991 9.538453 -9.555848
P 9.542991 6.812640 -6.830036
P 6.817178 6.812640 -4.104224
P 6.817178 9.538453 -1.378411
P 9.542991 9.538453 -4.104224
P 9.542991 6.812640 -1.378411
P 6.817178 6.812640 1.347401
P 6.817178 9.538453 4.073214
P 9.542991 9.538453 1.347401
P 9.542991 6.812640 4.073214
P 6.817178 6.812640 6.799026
P 6.817178 9.538453 9.524839
P 9.542991 9.538453 6.799026
P 9.542991 6.812640 9.524839
P 6.817178 6.812640 12.250651
P 9.542991 12.264265 -23.184911
P 6.817178 12.264265 -20.459098
P 6.817178 14.990078 -17.733286
P 9.542991 14.990078 -20.459098
P 9.542991 12.264265 -17.733286
P 6.817178 12.264265 -15.007473
P 6.817178 14.990078 -12.281661
P 9.542991 14.990078 -15.007473
P 9.542991 12.264265 -12.281661
P 6.817178 12.264265 -9.555848
P 6.817178 14.990078 -6.830036
P 9.542991 14.990078 -9.555848
P 9.542991 12.264265 -6.830036
P 6.817178 12.264265 -4.104224
P 6.817178 14.990078 -1.378411
P 9.542991 14.990078 -4.104224
P 9.542991 12.264265 -1.378411
P 6.817178 12.264265 1.347401
P 6.817178 14.990078 4.073214
P 9.542991 14.990078 1.347401
P 9.542991 12.264265 4.073214
P 6.817178 12.264265 6.799026
P 9.542991 17.715890 -17.733286
P 6.817178 17.715890 -15.007473
P 6.817178 20.441703 -12.281661
P 9.542991 20.441703 -15.007473
P 9.542991 17.715890 -12.281661
P 6.817178 17.715890 -9.555848
P 6.817178 20.441703 -6.830036
P 9.542991 20.441703 -9.555848
P 9.542991 17.715890 -6.830036
P 6.817178 17.715890 -4.104224
P 6.817178 20.441703 -1.378411
P 9.542991 20.441703 -4.104224
P 9.542991 17.715890 -1.378411
P 6.817178 17.715890 1.347401
P 9.542991 23.167515 -12.281661
P 6.817178 23.167515 -9.555848
P 6.817178 25.893328 -6.830036
P 9.542991 25.893328 -9.555848
P 9.542991 23.167515 -6.830036
P 6.817178 23.167515 -4.104224
P 12.268803 -23.171297 9.524839
P 12.268803 -25.897110 12.250651
P 12.268803 -23.171297 14.976464
P 14.994616 -23.171297 12.250651
P 14.994616 -25.897110 14.976464
P 14.994616 -23.171297 17.702276
P 12.268803 -17.719672 4.073214
P 12.268803 -20.445485 6.799026
P 12.268803 -17.719672 9.524839
P 14.994616 -17.719672 6.799026
P 14.994616 -20.445485 9.524839
P 12.268803 -20.445485 12.250651
P 12.268803 -17.719672 14.976464
P 14.994616 -17.719672 12.250651
P 14.994616 -20.445485 14.976464
P 12.268803 -20.445485 17.702276
P 12.268803 -17.719672 20.428089
P 14.994616 -17.719672 17.702276
P 14.994616 -20.445485 20.428089
P 14.994616 -17.719672 23.153901
P 12.268803 -12.268047 -1.378411
P 12.268803 -14.993860 1.347401
P 12.268803 -12.268047 4.073214
P 14.994616 -12.268047 1.347401
P 14.994616 -14.993860 4.073214
P 12.268803 -14.993860 6.799026
P 12.268803 -12.268047 9.524839
P 14.994616 -12.268047 6.799026
P 14.994616 -14.993860 9.524839
P 12.268803 -14.993860 12.250651
P 12.268803 -12.268047 14.976464
P 14.994616 -12.268047 12.250651
P 14.994616 -14.993860 14.976464
P 12.268803 -14.993860 17.702276
P 12.268803 -12.268047 20.428089
P 14.994616 -12.268047 17.702276
P 14.994616 -14.993860 20.428089
P 12.268803 -14.993860 23.153901
P 12.268803 -12.268047 25.879714
P 14.994616 -12.268047 23.153901
P 14.994616 -14.993860 25.879714
P 12.268803 -6.816422 -6.830036
P 12.268803 -9.542235 -4.104224
P 12.268803 -6.816422 -1.378411
P 14.994616 -6.816422 -4.104224
P 14.994616 -9.542235 -1.378411
P 12.268803 -9.542235 1.347401
P 12.268803 -6.816422 4.073214
P 14.994616 -6.816422 1.347401
P 14.994616 -9.542235 4.073214
P 12.268803 -9.542235 6.799026
P 12.268803 -6.816422 9.524839
P 14.994616 -6.816422 6.799026
P 14.994616 -9.542235 9.524839
P 12.268803 -9.542235 12.250651
P 12.268803 -6.816422 14.976464
P 14.994616 -6.816422 12.250651
P 14.994616 -9.542235 14.976464
P 12.268803 -9.542235 17.702276
P 12.268803 -6.816422 20.428089
P 14.994616 -6.816422 17.702276
P 14.994616 -9.542235 20.428089
P 12.268803 -9.542235 23.153901
P 12.268803 -1.364797 -12.281661
P 12.268803 -4.090610 -9.555848
P 12.268803 -1.364797 -6.830036
P 14.994616 -1.364797 -9.555848
P 14.994616 -4.090610 -6.830036
P 12.268803 -4.090610 -4.104224
P 12.268803 -1.364797 -1.378411
P 14.994616 -1.364797 -4.104224
P 14.994616 -4.090610 -1.378411
P 12.268803 -4.090610 1.347401
P 12.268803 -1.364797 4.073214
P 14.994616 -1.364797 1.347401
P 14.994616 -4.090610 4.073214
P 12.268803 -4.090610 6.799026
P 12.268803 -1.364797 9.524839
P 14.994616 -1.364797 6.799026
P 14.994616 -4.090610 9.524839
P 12.268803 -4.090610 12.250651
P 12.268803 -1.364797 14.976464
P 14.994616 -1.364797 12.250651
P 14.994616 -4.090610 14.976464
P 12.268803 -4.090610 17.702276
P 12.268803 4.086828 -17.733286
P 12.268803 1.361015 -15.007473
P 12.268803 4.086828 -12.281661
P 14.994616 4.086828 -15.007473
P 14.994616 1.361015 -12.281661
P 12.268803 1.361015 -9.555848
P 12.268803 4.086828 -6.830036
P 14.994616 4.086828 -9.555848
P 14.994616 1.361015 -6.830036
P 12.268803 1.361015 -4.104224
P 12.268803 4.086828 -1.378411
P 14.994616 4.086828 -4.104224
P 14.994616 1.361015 -1.378411
P 12.268803 1.361015 1.347401
P 12.268803 4.086828 4.073214
P 14.994616 4.086828 1.347401
P 14.994616 1.361015 4.073214
P 12.268803 1.361015 6.799026
P 12.268803 4.086828 9.524839
P 14.994616 4.086828 6.799026
P 14.994616 1.361015 9.524839
P 12.268803 1.361015 12.250651
P 12.268803 9.538453 -23.184911
P 12.268803 6.812640 -20.459098
P 12.268803 9.538453 -17.733286
P 14.994616 9.538453 -20.459098
P 14.994616 6.812640 -17.733286
P 12.268803 6.812640 -15.007473
P 12.268803 9.538453 -12.281661
P 14.994616 9.538453 -15.007473
P 14.994616 6.812640 -12.281661
P 12.268803 6.812640 -9.555848
P 12.268803 9.538453 -6.830036
P 14.994616 9.538453 -9.555848
P 14.994616 6.812640 -6.830036
P 12.268803 6.812640 -4.104224
P 12.268803 9.538453 -1.378411
P 14.994616 9.538453 -4.104224
P 14.994616 6.812640 -1.378411
P 12.268803 6.812640 1.347401
P 12.268803 9.538453 4.073214
P 14.994616 9.538453 1.347401
P 14.994616 6.812640 4.073214
P 12.268803 6.812640 6.799026
P 12.268803 12.264265 -25.910723
P 12.268803 14.990078 -23.184911
P 14.994616 14.990078 -25.910723
P 14.994616 12.264265 -23.184911
P 12.268803 12.264265 -20.459098
P 12.268803 14.990078 -17.733286
P 14.994616 14.990078 -20.459098
P 14.994616 12.264265 -17.733286
P 12.268803 12.264265 -15.007473
P 12.268803 14.990078 -12.281661
P 14.994616 14.990078 -15.007473
P 14.994616 12.264265 -12.281661
P 12.268803 12.264265 -9.555848
P 12.268803 14.990078 -6.830036
P 14.994616 14.990078 -9.555848
P 14.994616 12.264265 -6.830036
P 12.268803 12.264265 -4.104224
P 12.268803 14.990078 -1.378411
P 14.994616 14.990078 -4.104224
P 14.994616 12.264265 -1.378411
P 12.268803 12.264265 1.347401
P 14.994616 17.715890 -23.184911
P 12.268803 17.715890 -20.459098
P 12.268803 20.441703 -17.733286
P 14.994616 20.441703 -20.459098
P 14.994616 17.715890 -17.733286
P 12.268803 17.715890 -15.007473
P 12.268803 20.441703 -12.281661
P 14.994616 20.441703 -15.007473
P 14.994616 17.715890 -12.281661
P 12.268803 17.715890 -9.555848
P 12.268803 20.441703 -6.830036
P 14.994616 20.441703 -9.555848
P 14.994616 17.715890 -6.830036
P 12.268803 17.715890 -4.104224
P 14.994616 23.167515 -17.733286
P 12.268803 23.167515 -15.007473
P 12.268803 25.893328 -12.281661
P 14.994616 25.893328 -15.007473
P 14.994616 23.167515 -12.281661
P 12.268803 23.167515 -9.555848
P 17.720428 -23.171297 14.976464
P 17.720428 -17.719672 9.524839
P 17.720428 -20.445485 12.250651
P 17.720428 -17.719672 14.976464
P 20.446241 -17.719672 12.250651
P 20.446241 -20.445485 14.976464
P 17.720428 -20.445485 17.702276
P 17.720428 -17.719672 20.428089
P 20.446241 -17.719672 17.702276
P 17.720428 -12.268047 4.073214
P 17.720428 -14.993860 6.799026
P 17.720428 -12.268047 9.524839
P 20.446241 -12.268047 6.799026
P 20.446241 -14.993860 9.524839
P 17.720428 -14.993860 12.250651
P 17.720428 -12.268047 14.976464
P 20.446241 -12.268047 12.250651
P 20.446241 -14.993860 14.976464
P 17.720428 -14.993860 17.702276
P 17.720428 -12.268047 20.428089
P 20.446241 -12.268047 17.702276
P 20.446241 -14.993860 20.428089
P 17.720428 -14.993860 23.153901
P 17.720428 -6.816422 -1.378411
P 17.720428 -9.542235 1.347401
P 17.720428 -6.816422 4.073214
P 20.446241 -6.816422 1.347401
P 20.446241 -9.542235 4.073214
P 17.720428 -9.542235 6.799026
P 17.720428 -6.816422 9.524839
P 20.446241 -6.816422 6.799026
P 20.446241 -9.542235 9.524839
P 17.720428 -9.542235 12.250651
P 17.720428 -6.816422 14.976464
P 20.446241 -6.816422 12.250651
P 20.446241 -9.542235 14.976464
P 17.720428 -9.542235 17.702276
P 17.720428 -1.364797 -6.830036
P 17.720428 -4.090610 -4.104224
P 17.720428 -1.364797 -1.378411
P 20.446241 -1.364797 -4.104224
P 20.446241 -4.090610 -1.378411
P 17.720428 -4.090610 1.347401
P 17.720428 -1.364797 4.073214
P 20.446241 -1.364797 1.347401
P 20.446241 -4.090610 4.073214
P 17.720428 -4.090610 6.799026
P 17.720428 -1.364797 9.524839
P 20.446241 -1.364797 6.799026
P 20.446241 -4.090610 9.524839
P 17.720428 -4.090610 12.250651
P 17.720428 4.086828 -12.281661
P 17.720428 1.361015 -9.555848
P 17.720428 4.086828 -6.830036
P 20.446241 4.086828 -9.555848
P 20.446241 1.361015 -6.830036
P 17.720428 1.361015 -4.104224
P 17.720428 4.086828 -1.378411
P 20.446241 4.086828 -4.104224
P 20.446241 1.361015 -1.378411
P 17.720428 1.361015 1.347401
P 17.720428 4.086828 4.073214
P 20.446241 4.086828 1.347401
P 20.446241 1.361015 4.073214
P 17.720428 1.361015 6.799026
P 17.720428 9.538453 -17.733286
P 17.720428 6.812640 -15.007473
P 17.720428 9.538453 -12.281661
P 20.446241 9.538453 -15.007473
P 20.446241 6.812640 -12.281661
P 17.720428 6.812640 -9.555848
P 17.720428 9.538453 -6.830036
P 20.446241 9.538453 -9.555848
P 20.446241 6.812640 -6.830036
P 17.720428 6.812640 -4.104224
P 17.720428 9.538453 -1.378411
P 20.446241 9.538453 -4.104224
P 20.446241 6.812640 -1.378411
P 17.720428 6.812640 1.347401
P 17.720428 14.990078 -23.184911
P 17.720428 12.264265 -20.459098
P 17.720428 14.990078 -17.733286
P 20.446241 14.990078 -20.459098
P 20.446241 12.264265 -17.733286
P 17.720428 12.264265 -15.007473
P 17.720428 14.990078 -12.281661
P 20.446241 14.990078 -15.007473
P 20.446241 12.264265 -12.281661
P 17.720428 12.264265 -9.555848
P 17.720428 14.990078 -6.830036
P 20.446241 14.990078 -9.555848
P 20.446241 12.264265 -6.830036
P 17.720428 12.264265 -4.104224
P 17.720428 17.715890 -20.459098
P 17.720428 20.441703 -17.733286
P 20.446241 17.715890 -17.733286
P 17.720428 17.715890 -15.007473
P 17.720428 20.441703 -12.281661
P 20.446241 20.441703 -15.007473
P 20.446241 17.715890 -12.281661
P 17.720428 17.715890 -9.555848
P 17.720428 23.167515 -15.007473
P 23.172053 -17.719672 14.976464
P 23.172053 -12.268047 9.524839
P 23.172053 -14.993860 12.250651
P 23.172053 -12.268047 14.976464
P 25.897866 -12.268047 12.250651
P 25.897866 -14.993860 14.976464
P 23.172053 -14.993860 17.702276
P 23.172053 -6.816422 4.073214
P 23.172053 -9.542235 6.799026
P 23.172053 -6.816422 9.524839
P 25.897866 -6.816422 6.799026
P 25.897866 -9.542235 9.524839
P 23.172053 -9.542235 12.250651
P 23.172053 -1.364797 -1.378411
P 23.172053 -4.090610 1.347401
P 23.172053 -1.364797 4.073214
P 25.897866 -1.364797 1.347401
P 25.897866 -4.090610 4.073214
P 23.172053 -4.090610 6.799026
P 23.172053 4.086828 -6.830036
P 23.172053 1.361015 -4.104224
P 23.172053 4.086828 -1.378411
P 25.897866 4.086828 -4.104224
P 25.897866 1.361015 -1.378411
P 23.172053 1.361015 1.347401
P 23.172053 9.538453 -12.281661
P 23.172053 6.812640 -9.555848
P 23.172053 9.538453 -6.830036
P 25.897866 9.538453 -9.555848
P 25.897866 6.812640 -6.830036
P 23.172053 6.812640 -4.104224
P 23.172053 14.990078 -17.733286
P 23.172053 12.264265 -15.007473
P 23.172053 14.990078 -12.281661
P 25.897866 14.990078 -15.007473
P 25.897866 12.264265 -12.281661
P 23.172053 12.264265 -9.555848
P 23.172053 17.715890 -15.007473
Cl -28.618384 -14.993860 -12.281661
Cl 28.623678 14.990078 -12.281661
Cl -14.989322 28.619140 12.250651
Cl 14.994616 -28.622922 12.250651
Cl -14.989322 -12.268047 -28.636536
Cl -12.263509 14.990078 28.605526
Cl 12.268803 -14.993860 28.605526
Cl 14.994616 12.264265 -28.636536
Cl -28.618384 12.264265 14.976464
Cl -12.263509 -28.622922 -15.007473
Cl 12.268803 28.619140 -15.007473
Cl 28.623678 -12.268047 14.976464
Cl -28.618384 1.361015 -1.378411
Cl -1.360259 -28.622922 1.347401
Cl 1.365553 28.619140 1.347401
Cl 28.623678 -1.364797 -1.378411
Cl -4.086072 -6.816422 -28.636536
Cl -6.811884 4.086828 28.605526
Cl 6.817178 -4.090610 28.605526
Cl 4.091366 6.812640 -28.636536
Cl -28.618384 -4.090610 -1.378411
Cl -28.618384 12.264265 9.524839
Cl 4.091366 -28.622922 1.347401
Cl 12.268803 28.619140 -9.555848
Cl 9.542991 -28.622922 12.250651
Cl 28.623678 9.538453 -12.281661
Cl 1.365553 28.619140 -4.104224
Cl 28.623678 -1.364797 4.073214
Cl -28.618384 -9.542235 -12.281661
Cl -9.537697 28.619140 12.250651
Cl -12.263509 -28.622922 -9.555848
Cl 28.623678 -12.268047 9.524839
Cl 1.365553 -4.090610 28.605526
Cl 4.091366 1.361015 -28.636536
Cl -4.086072 -1.364797 -28.636536
Cl -1.360259 4.086828 28.605526
Cl -28.618384 4.086828 6.799026
Cl -4.086072 -28.622922 -6.830036
Cl -6.811884 28.619140 4.073214
Cl 28.623678 6.812640 -4.104224
Cl 12.268803 -9.542235 28.605526
Cl 9.542991 12.264265 -28.636536
Cl -9.537697 -12.268047 -28.636536
Cl -12.263509 9.538453 28.605526
Cl 4.091366 -28.622922 6.799026
Cl 28.623678 -6.816422 4.073214
Cl -28.618384 -4.090610 -6.830036
Cl 6.817178 28.619140 -4.104224
Cl -28.618384 -9.542235 -6.830036
Cl -6.811884 9.538453 28.605526
Cl 9.542991 6.812640 -28.636536
Cl 6.817178 28.619140 -9.555848
Cl 28.623678 -6.816422 9.524839
Cl 9.542991 -28.622922 6.799026
Cl 6.817178 -9.542235 28.605526
Cl -9.537697 -6.816422 -28.636536
Cl -28.618384 9.538453 6.799026
Cl -6.811884 28.619140 9.524839
Cl -9.537697 -28.622922 -6.830036
Cl 28.623678 6.812640 -9.555848
Cl -1.360259 -28.622922 -4.104224
Cl -28.618384 1.361015 4.073214
Cl 28.623678 4.086828 -1.378411
Cl -4.086072 28.619140 1.347401
Cl -1.360259 -1.364797 28.605526
Cl -1.360259 1.361015 -28.636536
Cl 9.542991 -9.542235 -12.281661
Cl 9.542991 9.538453 12.250651
Cl -12.263509 -9.542235 9.524839
Cl -9.537697 12.264265 -9.555848
Cl 14.994616 17.715890 -1.378411
Cl 17.720428 -14.993860 1.347401
Cl -17.715134 -1.364797 -15.007473
Cl 1.365553 -17.719672 14.976464
Cl -1.360259 -17.719672 -15.007473
Cl 14.994616 -1.364797 17.702276
Cl -14.989322 1.361015 17.702276
Cl 1.365553 14.990078 -17.733286
Cl 17.720428 1.361015 -15.007473
Cl -1.360259 17.715890 14.976464
Cl -17.715134 14.990078 1.347401
Cl -14.989322 -17.719672 -1.378411
Cl -12.263509 -20.445485 -23.184911
Cl 20.446241 23.167515 -12.281661
Cl -20.440947 12.264265 23.153901
Cl 20.446241 -12.268047 23.153901
Cl 23.172053 -20.445485 12.250651
Cl -23.166759 -12.268047 -20.459098
Cl 12.268803 -23.171297 20.428089
Cl 12.268803 20.441703 -23.184911
Cl 23.172053 12.264265 -20.459098
Cl -12.263509 23.167515 20.428089
Cl -23.166759 20.441703 12.250651
Cl -20.440947 -23.171297 -12.281661
Cl 17.720428 6.812640 6.799026
Cl 9.542991 -17.719672 -4.104224
Cl -4.086072 -9.542235 17.702276
Cl -9.537697 4.086828 -17.733286
Cl 4.091366 -6.816422 -20.459098
Cl 6.817178 17.715890 6.799026
Cl -17.715134 6.812640 -6.830036
Cl -6.811884 -17.719672 6.799026
Cl 17.720428 -6.816422 -6.830036
Cl 4.091366 6.812640 20.428089
Cl -4.086072 20.441703 -6.830036
Cl -20.440947 -6.816422 4.073214
Cl 12.268803 1.361015 -20.459098
Cl 23.172053 14.990078 -6.830036
Cl -23.166759 6.812640 14.976464
Cl -14.989322 23.167515 6.799026
Cl 20.446241 -1.364797 12.250651
Cl -6.811884 -23.171297 -15.007473
Cl 6.817178 20.441703 -17.733286
Cl -6.811884 17.715890 20.428089
Cl 17.720428 -20.445485 6.799026
Cl 6.817178 -17.719672 20.428089
Cl -17.715134 -6.816422 -20.459098
Cl -20.440947 -17.719672 -6.830036
Cl -1.360259 -12.268047 -20.459098
Cl 1.365553 23.167515 6.799026
Cl -9.537697 -4.090610 17.702276
Cl -4.086072 9.538453 -17.733286
Cl 23.172053 -1.364797 -6.830036
Cl 20.446241 -6.816422 17.702276
Cl -9.537697 20.441703 -1.378411
Cl -6.811884 -23.171297 1.347401
Cl 4.091366 -17.719672 -9.555848
Cl -1.360259 12.264265 20.428089
Cl -23.166759 6.812640 -1.378411
Cl -20.440947 -1.364797 9.524839
Cl 17.720428 6.812640 -20.459098
Cl 6.817178 23.167515 1.347401
Cl 9.542991 -23.171297 1.347401
Cl -20.440947 -12.268047 -1.378411
Cl 1.365553 20.441703 -12.281661
Cl 20.446241 9.538453 1.347401
Cl 1.365553 -9.542235 23.153901
Cl -9.537697 -1.364797 -23.184911
Cl 23.172053 -6.816422 -1.378411
Cl 9.542991 -1.364797 23.153901
Cl -23.166759 1.361015 -6.830036
Cl -1.360259 -23.171297 6.799026
Cl 4.091366 -23.171297 -4.104224
Cl 14.994616 23.167515 -6.830036
Cl -14.989322 6.812640 23.153901
Cl 4.091366 12.264265 -23.184911
Cl 12.268803 -4.090610 -15.007473
Cl 12.268803 12.264265 6.799026
Cl -23.166759 14.990078 6.799026
Cl -6.811884 -14.993860 -23.184911
Cl 6.817178 -23.171297 14.976464
Cl 12.268803 4.086828 14.976464
Cl -23.166759 -6.816422 -15.007473
Cl 23.172053 -14.993860 6.799026
Cl -6.811884 -1.364797 23.153901
Cl -6.811884 23.167515 14.976464
Cl 1.365553 -4.090610 -25.910723
Cl -12.263509 14.990078 -4.104224
Cl -14.989322 -12.268047 4.073214
Cl 23.172053 1.361015 6.799026
Cl 23.172053 6.812640 -15.007473
Cl -14.989322 -23.171297 -6.830036
Cl 14.994616 -6.816422 23.153901
Cl -14.989322 4.086828 -12.281661
Cl -4.086072 -14.993860 12.250651
Cl 14.994616 -12.268047 -4.104224
Cl 4.091366 12.264265 14.976464
Cl -1.360259 6.812640 -23.184911
Cl 4.091366 1.361015 25.879714
Cl -14.989322 -4.090610 12.250651
Cl 4.091366 -12.268047 -15.007473
Cl -4.086072 14.990078 -12.281661
Cl -1.360259 -23.171297 -9.555848
Cl 12.268803 14.990078 -28.636536
Cl 14.994616 28.619140 -12.281661
Cl -14.989322 12.264265 28.605526
Cl 6.817178 -1.364797 -23.184911
Cl -28.618384 -12.268047 -15.007473
Cl 12.268803 -28.622922 14.976464
Cl 14.994616 -12.268047 28.605526
Cl 28.623678 -14.993860 12.250651
Cl -20.440947 23.167515 12.250651
Cl -25.892572 -17.719672 -12.281661
Cl -12.263509 17.715890 25.879714
Cl -12.263509 -14.993860 -28.636536
Cl 12.268803 25.893328 -17.733286
Cl 12.268803 -17.719672 25.879714
Cl 23.172053 20.441703 -12.281661
Cl 17.720428 12.264265 -25.910723
Cl -17.715134 -12.268047 -25.910723
Cl 25.897866 -12.268047 17.702276
Cl -23.166759 12.264265 20.428089
Cl 17.720428 -25.897110 12.250651
Cl -14.989322 -28.622922 -12.281661
Cl -12.263509 28.619140 14.976464
Cl -28.618384 14.990078 12.250651
Cl -12.263509 -23.171297 -20.459098
Cl 28.623678 12.264265 -9.555848
Cl -12.263509 28.619140 9.524839
Cl -28.618384 9.538453 12.250651
Cl 28.623678 12.264265 -15.007473
Cl -1.360259 28.619140 4.073214
Cl -28.618384 4.086828 1.347401
Cl -4.086072 -28.622922 -1.378411
Cl -9.537697 -28.622922 -12.281661
Cl 1.365553 25.893328 -6.830036
Cl -25.892572 -6.816422 -1.378411
Cl 17.720428 14.990078 -1.378411
Cl 28.623678 1.361015 -4.104224
Cl -4.086072 9.538453 25.879714
Cl -14.989322 20.441703 4.073214
Cl -20.440947 4.086828 14.976464
Cl 25.897866 -6.816422 12.250651
Cl 12.268803 6.812640 -25.910723
Cl 1.365553 -12.268047 20.428089
Cl -12.263509 -4.090610 -23.184911
Cl 12.268803 -23.171297 4.073214
Cl 9.542991 23.167515 -1.378411
Cl -23.166759 -1.364797 -9.555848
Cl 1.365553 -23.171297 9.524839
Cl 23.172053 -9.542235 1.347401
Cl 9.542991 17.715890 -23.184911
Cl -12.263509 -17.719672 1.347401
Cl 1.365553 17.715890 12.250651
Cl 17.720428 -1.364797 -12.281661
Cl -17.715134 12.264265 -1.378411
Cl -25.892572 -12.268047 -6.830036
Cl 23.172053 6.812640 1.347401
Cl -9.537697 1.361015 23.153901
Cl 6.817178 25.893328 -12.281661
Cl 9.542991 -12.268047 -9.555848
Cl 9.542991 4.086828 17.702276
Cl -9.537697 9.538453 -12.281661
Cl -9.537697 -9.542235 12.250651
Cl -4.086072 -9.542235 -25.910723
Cl 12.268803 14.990078 4.073214
Cl 6.817178 -12.268047 25.879714
Cl -6.811884 23.167515 -1.378411
Cl -6.811884 -20.445485 -17.733286
Cl 17.720428 4.086828 9.524839
Cl -23.166759 -1.364797 6.799026
Cl -4.086072 4.086828 -23.184911
Cl 23.172053 1.361015 -9.555848
Cl -1.360259 23.167515 9.524839
Cl -23.166759 9.538453 1.347401
Cl -9.537697 -23.171297 -1.378411
Cl 20.446241 17.715890 -6.830036
Cl 14.994616 -17.719672 1.347401
Cl -6.811884 14.990078 23.153901
Cl -14.989322 -1.364797 -17.733286
Cl -4.086072 -4.090610 23.153901
Cl 9.542991 -4.090610 -17.733286
Cl -17.715134 6.812640 20.428089
Cl 1.365553 6.812640 23.153901
Cl -20.440947 17.715890 6.799026
Cl 14.994616 -6.816422 -9.555848
Cl 25.897866 9.538453 -4.104224
Cl -25.892572 4.086828 9.524839
Cl -9.537697 25.893328 4.073214
Cl 12.268803 -28.622922 9.524839
Cl -9.537697 -14.993860 6.799026
Cl -14.989322 9.538453 -6.830036
Cl 6.817178 14.990078 9.524839
Cl 1.365553 -1.364797 -28.636536
Cl -6.811884 17.715890 -6.830036
Cl -17.715134 -6.816422 6.799026
Cl 4.091366 -1.364797 28.605526
Cl 20.446241 12.264265 -23.184911
Cl -12.263509 -9.542235 -28.636536
Cl 23.172053 -12.268047 20.428089
Cl 12.268803 -20.445485 23.153901
Cl 25.897866 -17.719672 12.250651
Cl -23.166759 -20.445485 -12.281661
Cl -25.892572 -12.268047 -17.733286
Cl 9.542991 28.619140 -6.830036
Cl 1.365553 -28.622922 -1.378411
Cl 6.817178 9.538453 -28.636536
Cl 6.817178 -28.622922 9.524839
Cl 28.623678 -4.090610 6.799026
Cl 28.623678 -9.542235 6.799026
Cl -9.537697 6.812640 28.605526
Cl -12.263509 25.893328 17.702276
Cl -28.618384 -6.816422 -9.555848
Cl -6.811884 -28.622922 -9.555848
Cl 9.542991 -6.816422 28.605526
Cl -12.263509 -17.719672 -25.910723
Cl 12.268803 23.167515 -20.459098
Cl -17.715134 -25.897110 -12.281661
Cl 6.817178 4.086828 -28.636536
Cl -20.440947 -12.268047 -23.184911
Cl 17.720428 25.893328 -12.281661
Cl 12.268803 -25.897110 17.702276
Cl 20.446241 -23.171297 12.250651
Cl -25.892572 12.264265 17.702276
Cl 17.720428 -12.268047 25.879714
Cl -17.715134 25.893328 12.250651
Cl 25.897866 12.264265 -17.733286
Cl -1.360259 28.619140 -1.378411
Cl -28.618384 -1.364797 1.347401
Cl 28.623678 1.361015 1.347401
Cl -12.263509 20.441703 23.153901
Cl 4.091366 -6.816422 28.605526
Cl 1.365553 4.086828 -28.636536
Cl 28.623678 4.086828 -6.830036
Cl -6.811884 -28.622922 -4.104224
Cl 25.897866 17.715890 -12.281661
Cl -28.618384 6.812640 4.073214
Cl -12.263509 -25.897110 -17.733286
Cl -4.086072 28.619140 6.799026
Cl 6.817178 -28.622922 4.073214
Cl -17.715134 12.264265 25.879714
Cl -6.811884 -4.090610 -28.636536
Cl -9.537697 12.264265 28.605526
Cl 1.365553 -28.622922 4.073214
Cl 28.623678 -4.090610 1.347401
Cl -25.892572 17.715890 12.250651
Cl -28.618384 -1.364797 -4.104224
Cl 4.091366 28.619140 -1.378411
Cl -4.086072 1.361015 28.605526
Cl -1.360259 -14.993860 -17.733286
Cl 4.091366 17.715890 -17.733286
Cl 17.720428 -1.364797 14.976464
Cl 4.091366 -17.719672 17.702276
Cl 4.091366 -20.445485 -6.830036
Cl -20.440947 -14.993860 -4.104224
Cl 14.994616 4.086828 -20.459098
Cl -1.360259 12.264265 -17.733286
Cl 12.268803 -4.090610 23.153901
Cl -4.086072 -12.268047 14.976464
Cl -12.263509 4.086828 -15.007473
Cl 12.268803 -14.993860 -4.104224
Cl 12.268803 20.441703 -1.378411
Cl -14.989322 -1.364797 14.976464
Cl 1.365553 23.167515 -9.555848
Cl 4.091366 -9.542235 -17.733286
Cl 4.091366 9.538453 17.702276
Cl -20.440947 -4.090610 -15.007473
Cl 20.446241 -14.993860 4.073214
Cl 23.172053 -6.816422 14.976464
Cl -4.086072 -20.445485 6.799026
Cl -4.086072 20.441703 14.976464
Cl -23.166759 -6.816422 1.347401
Cl -20.440947 4.086828 -6.830036
Cl 20.446241 -6.816422 -4.104224
Cl 14.994616 9.538453 6.799026
Cl -1.360259 -20.445485 -12.281661
Cl -14.989322 -20.445485 -4.104224
Cl 6.817178 14.990078 -23.184911
Cl 20.446241 4.086828 -15.007473
Cl -12.263509 17.715890 -1.378411
Cl 4.091366 -23.171297 12.250651
Cl 23.172053 12.264265 -4.104224
Cl -6.811884 4.086828 -20.459098
Cl -1.360259 -9.542235 -23.184911
Cl -6.811884 -6.816422 17.702276
Cl 6.817178 20.441703 4.073214
Cl 14.994616 -23.171297 6.799026
Cl -14.989322 -6.816422 -23.184911
Cl 6.817178 -14.993860 23.153901
Cl 23.172053 -1.364797 9.524839
Cl 6.817178 23.167515 -15.007473
Cl 9.542991 1.361015 -23.184911
Cl 6.817178 1.361015 23.153901
Cl -12.263509 4.086828 23.153901
Cl 17.720428 20.441703 -6.830036
Cl -6.811884 -17.719672 -20.459098
Cl -23.166759 12.264265 4.073214
Cl -28.618384 -12.268047 -9.555848
Cl 6.817178 -23.171297 -1.378411
Cl 12.268803 6.812640 12.250651
Cl -20.440947 1.361015 12.250651
Cl -1.360259 17.715890 -12.281661
Cl 17.720428 -6.816422 20.428089
Cl -17.715134 -12.268047 1.347401
Cl 1.365553 9.538453 -23.184911
Cl 4.091366 -14.993860 -12.281661
Cl -1.360259 14.990078 17.702276
Cl -1.360259 -6.816422 23.153901
Cl 12.268803 9.538453 -28.636536
Cl -4.086072 23.167515 -4.104224
Cl 23.172053 4.086828 4.073214
Cl -1.360259 -17.719672 12.250651
Cl -9.537697 28.619140 6.799026
Cl -6.811884 -9.542235 -28.636536
Cl -4.086072 6.812640 28.605526
Cl -28.618384 6.812640 9.524839
Cl 9.542991 28.619140 -12.281661
Cl 17.720428 -12.268047 -1.378411
Cl -6.811884 9.538453 -15.007473
Cl 17.720428 12.264265 1.347401
Cl 9.542991 -12.268047 28.605526
Cl -1.360259 -4.090610 -28.636536
Cl -17.715134 1.361015 -12.281661
Cl 28.623678 -9.542235 12.250651
Cl -28.618384 -6.816422 -4.104224
Cl 20.446241 9.538453 -20.459098
Cl 12.268803 17.715890 -25.910723
Cl 1.365553 1.361015 28.605526
Cl -20.440947 -20.445485 -9.555848
Cl 23.172053 -17.719672 9.524839
Cl 28.623678 9.538453 -6.830036
Cl 4.091366 28.619140 -6.830036
Cl -6.811884 -25.897110 -12.281661
Cl -23.166759 9.538453 17.702276
Cl -17.715134 20.441703 6.799026
Cl -9.537697 23.167515 17.702276
Cl 25.897866 6.812640 -12.281661
Cl 9.542991 -23.171297 17.702276
Cl -23.166759 -9.542235 -17.733286
Cl -12.263509 -25.897110 -6.830036
Cl 12.268803 25.893328 -6.830036
Cl 25.897866 -1.364797 -4.104224
Cl -4.086072 25.893328 9.524839
Cl -25.892572 4.086828 -1.378411
Cl -4.086072 -25.897110 1.347401
Cl 9.542991 -6.816422 -15.007473
Cl -6.811884 -1.364797 -25.910723
Cl 25.897866 -9.542235 4.073214
Cl -12.263509 -12.268047 6.799026
Cl 1.365553 25.893328 4.073214
Cl -25.892572 -4.090610 -9.555848
Cl -1.360259 -25.897110 -6.830036
Cl 6.817178 12.264265 12.250651
Cl -25.892572 -1.364797 4.073214
Cl -12.263509 12.264265 -6.830036
Cl -12.263509 -1.364797 17.702276
Cl 12.268803 1.361015 17.702276
Cl 4.091366 -4.090610 -23.184911
Cl -4.086072 12.264265 23.153901
Cl 17.720428 -4.090610 -9.555848
Cl -12.263509 23.167515 4.073214
Cl -9.537697 -20.445485 1.347401
Cl 9.542991 -14.993860 -6.830036
Cl -23.166759 -14.993860 -6.830036
Cl -12.263509 -1.364797 -20.459098
Cl 1.365553 20.441703 9.524839
Cl 12.268803 -20.445485 1.347401
Cl -12.263509 -6.816422 12.250651
Cl -20.440947 9.538453 -1.378411
Cl 12.268803 17.715890 1.347401
Cl 14.994616 6.812640 -23.184911
Cl 1.365553 -14.993860 17.702276
Cl 17.720428 1.361015 12.250651
Cl -6.811884 14.990078 -9.555848
Cl -17.715134 4.086828 17.702276
Cl 14.994616 -1.364797 -15.007473
Cl 6.817178 4.086828 20.428089
Cl -14.989322 17.715890 1.347401
Cl -23.166759 -9.542235 -1.378411
Cl -12.263509 6.812640 -12.281661
Cl 12.268803 -9.542235 -9.555848
Cl 14.994616 -9.542235 25.879714
Cl -6.811884 -12.268047 12.250651
Cl -9.537697 -14.993860 -25.910723
Cl -25.892572 14.990078 9.524839
Cl 25.897866 14.990078 -9.555848
Cl -17.715134 -4.090610 9.524839
Cl 14.994616 -25.897110 9.524839
Cl -14.989322 -9.542235 -25.910723
Cl -9.537697 14.990078 25.879714
Cl -14.989322 9.538453 25.879714
Cl 4.091366 9.538453 -25.910723
Cl -9.537697 -23.171297 -17.733286
Cl 23.172053 -9.542235 17.702276
Cl -14.989322 25.893328 9.524839
Cl 6.817178 -25.897110 12.250651
Cl 17.720428 23.167515 -9.555848
Cl 4.091366 -25.897110 -1.378411
Cl 9.542991 23.167515 -17.733286
Cl 1.365553 -6.816422 25.879714
Cl 25.897866 4.086828 1.347401
Cl 20.446241 -20.445485 9.524839
Cl 9.542991 -17.719672 23.153901
Cl 6.817178 25.893328 -1.378411
Cl -4.086072 25.893328 -1.378411
Cl 6.817178 1.361015 -25.910723
Cl -6.811884 1.361015 25.879714
Cl -20.440947 -9.542235 -20.459098
Cl -9.537697 20.441703 20.428089
Cl 25.897866 4.086828 -9.555848
Cl -25.892572 6.812640 12.250651
Cl -1.360259 4.086828 -25.910723
Cl 25.897866 -1.364797 6.799026
Cl 25.897866 -12.268047 6.799026
Cl 1.365553 -25.897110 6.799026
Cl -1.360259 6.812640 25.879714
Cl -25.892572 -6.816422 -12.281661
Cl 23.172053 9.538453 -17.733286
Cl -17.715134 -23.171297 -9.555848
Cl 9.542991 -4.090610 25.879714
Cl -25.892572 9.538453 4.073214
Cl -4.086072 -14.993860 -20.459098
Cl -6.811884 25.893328 12.250651
Cl -9.537697 -25.897110 -4.104224
Cl -20.440947 20.441703 9.524839
Cl 25.897866 -4.090610 -1.378411
Cl -25.892572 1.361015 -4.104224
Cl -20.440947 9.538453 20.428089
Cl 9.542991 -25.897110 4.073214
Cl 20.446241 12.264265 -1.378411
Cl 1.365553 17.715890 -15.007473
Cl 1.365553 -20.445485 -9.555848
Cl 12.268803 9.538453 9.524839
Cl -14.989322 -14.993860 1.347401
Cl 1.365553 12.264265 17.702276
Cl 1.365553 -9.542235 -20.459098
Cl -4.086072 -6.816422 20.428089
Cl 6.817178 17.715890 -20.459098
Cl 17.720428 -4.090610 17.702276
Cl -6.811884 6.812640 -17.733286
Cl 20.446241 -9.542235 -1.378411
Cl -4.086072 -17.719672 9.524839
Cl -1.360259 23.167515 -6.830036
