1990
GaP-Ga-Ga929P863Cl198-clean
Ga -19.071784 -13.620159 10.894347
Ga -19.071784 -16.345972 13.620159
Ga -21.797597 -13.620159 13.620159
Ga -19.071784 -13.620159 16.345972
Ga -19.071784 -8.168534 5.442722
Ga -19.071784 -10.894347 8.168534
Ga -21.797597 -8.168534 8.168534
Ga -21.797597 -10.894347 10.894347
Ga -19.071784 -8.168534 10.894347
Ga -19.071784 -10.894347 13.620159
Ga -19.071784 -2.716909 -0.008903
Ga -19.071784 -5.442722 2.716909
Ga -21.797597 -2.716909 2.716909
Ga -21.797597 -5.442722 5.442722
Ga -19.071784 -2.716909 5.442722
Ga -19.071784 -5.442722 8.168534
Ga -19.071784 2.734716 -5.460528
Ga -19.071784 0.008903 -2.734716
Ga -21.797597 2.734716 -2.734716
Ga -21.797597 0.008903 -0.008903
Ga -19.071784 2.734716 -0.008903
Ga -19.071784 0.008903 2.716909
Ga -19.071784 8.186341 -10.912153
Ga -19.071784 5.460528 -8.186341
Ga -21.797597 8.186341 -8.186341
Ga -21.797597 5.460528 -5.460528
Ga -19.071784 8.186341 -5.460528
Ga -19.071784 5.460528 -2.734716
Ga -19.071784 13.637966 -16.363778
Ga -19.071784 10.912153 -13.637966
Ga -21.797597 13.637966 -13.637966
Ga -21.797597 10.912153 -10.912153
Ga -19.071784 13.637966 -10.912153
Ga -19.071784 10.912153 -8.186341
Ga -19.071784 16.363778 -13.637966
Ga -13.620159 -19.071784 10.894347
Ga -13.620159 -21.797597 13.620159
Ga -16.345972 -19.071784 13.620159
Ga -13.620159 -19.071784 16.345972
Ga -13.620159 -13.620159 5.442722
Ga -13.620159 -16.345972 8.168534
Ga -16.345972 -13.620159 8.168534
Ga -16.345972 -16.345972 10.894347
Ga -13.620159 -13.620159 10.894347
Ga -13.620159 -16.345972 13.620159
Ga -16.345972 -13.620159 13.620159
Ga -16.345972 -16.345972 16.345972
Ga -13.620159 -13.620159 16.345972
Ga -13.620159 -16.345972 19.071784
Ga -16.345972 -13.620159 19.071784
Ga -13.620159 -13.620159 21.797597
Ga -13.620159 -8.168534 -0.008903
Ga -13.620159 -10.894347 2.716909
Ga -16.345972 -8.168534 2.716909
Ga -16.345972 -10.894347 5.442722
Ga -13.620159 -8.168534 5.442722
Ga -13.620159 -10.894347 8.168534
Ga -16.345972 -8.168534 8.168534
Ga -16.345972 -10.894347 10.894347
Ga -13.620159 -8.168534 10.894347
Ga -13.620159 -10.894347 13.620159
Ga -16.345972 -8.168534 13.620159
Ga -16.345972 -10.894347 16.345972
Ga -13.620159 -8.168534 16.345972
Ga -13.620159 -10.894347 19.071784
Ga -13.620159 -2.716909 -5.460528
Ga -13.620159 -5.442722 -2.734716
Ga -16.345972 -2.716909 -2.734716
Ga -16.345972 -5.442722 -0.008903
Ga -13.620159 -2.716909 -0.008903
Ga -13.620159 -5.442722 2.716909
Ga -16.345972 -2.716909 2.716909
Ga -16.345972 -5.442722 5.442722
Ga -13.620159 -2.716909 5.442722
Ga -13.620159 -5.442722 8.168534
Ga -16.345972 -2.716909 8.168534
Ga -16.345972 -5.442722 10.894347
Ga -13.620159 -2.716909 10.894347
Ga -13.620159 -5.442722 13.620159
Ga -13.620159 2.734716 -10.912153
Ga -13.620159 0.008903 -8.186341
Ga -16.345972 2.734716 -8.186341
Ga -16.345972 0.008903 -5.460528
Ga -13.620159 2.734716 -5.460528
Ga -13.620159 0.008903 -2.734716
Ga -16.345972 2.734716 -2.734716
Ga -16.345972 0.008903 -0.008903
Ga -13.620159 2.734716 -0.008903
Ga -13.620159 0.008903 2.716909
Ga -16.345972 2.734716 2.716909
Ga -16.345972 0.008903 5.442722
Ga -13.620159 2.734716 5.442722
Ga -13.620159 0.008903 8.168534
Ga -13.620159 8.186341 -16.363778
Ga -13.620159 5.460528 -13.637966
Ga -16.345972 8.186341 -13.637966
Ga -16.345972 5.460528 -10.912153
Ga -13.620159 8.186341 -10.912153
Ga -13.620159 5.460528 -8.186341
Ga -16.345972 8.186341 -8.186341
Ga -16.345972 5.460528 -5.460528
Ga -13.620159 8.186341 -5.460528
Ga -13.620159 5.460528 -2.734716
Ga -16.345972 8.186341 -2.734716
Ga -16.345972 5.460528 -0.008903
Ga -13.620159 8.186341 -0.008903
Ga -13.620159 5.460528 2.716909
Ga -13.620159 13.637966 -21.815403
Ga -13.620159 10.912153 -19.089591
Ga -16.345972 13.637966 -19.089591
Ga -16.345972 10.912153 -16.363778
Ga -13.620159 13.637966 -16.363778
Ga -13.620159 10.912153 -13.637966
Ga -16.345972 13.637966 -13.637966
Ga -16.345972 10.912153 -10.912153
Ga -13.620159 13.637966 -10.912153
Ga -13.620159 10.912153 -8.186341
Ga -16.345972 13.637966 -8.186341
Ga -16.345972 10.912153 -5.460528
Ga -13.620159 13.637966 -5.460528
Ga -13.620159 10.912153 -2.734716
Ga -13.620159 16.363778 -19.089591
Ga -16.345972 16.363778 -16.363778
Ga -13.620159 19.089591 -16.363778
Ga -13.620159 16.363778 -13.637966
Ga -16.345972 19.089591 -13.637966
Ga -16.345972 16.363778 -10.912153
Ga -13.620159 19.089591 -10.912153
Ga -13.620159 16.363778 -8.186341
Ga -13.620159 21.815403 -13.637966
Ga -8.168534 -19.071784 5.442722
Ga -8.168534 -21.797597 8.168534
Ga -10.894347 -19.071784 8.168534
Ga -10.894347 -21.797597 10.894347
Ga -8.168534 -19.071784 10.894347
Ga -10.894347 -19.071784 13.620159
Ga -8.168534 -13.620159 -0.008903
Ga -8.168534 -16.345972 2.716909
Ga -10.894347 -13.620159 2.716909
Ga -10.894347 -16.345972 5.442722
Ga -8.168534 -13.620159 5.442722
Ga -8.168534 -16.345972 8.168534
Ga -10.894347 -13.620159 8.168534
Ga -10.894347 -16.345972 10.894347
Ga -8.168534 -13.620159 10.894347
Ga -8.168534 -16.345972 13.620159
Ga -10.894347 -13.620159 13.620159
Ga -10.894347 -16.345972 16.345972
Ga -8.168534 -13.620159 16.345972
Ga -10.894347 -13.620159 19.071784
Ga -8.168534 -8.168534 -5.460528
Ga -8.168534 -10.894347 -2.734716
Ga -10.894347 -8.168534 -2.734716
Ga -10.894347 -10.894347 -0.008903
Ga -8.168534 -8.168534 -0.008903
Ga -8.168534 -10.894347 2.716909
Ga -10.894347 -8.168534 2.716909
Ga -10.894347 -10.894347 5.442722
Ga -8.168534 -8.168534 5.442722
Ga -8.168534 -10.894347 8.168534
Ga -10.894347 -8.168534 8.168534
Ga -10.894347 -10.894347 10.894347
Ga -8.168534 -8.168534 10.894347
Ga -8.168534 -10.894347 13.620159
Ga -10.894347 -8.168534 13.620159
Ga -10.894347 -10.894347 16.345972
Ga -8.168534 -8.168534 16.345972
Ga -8.168534 -10.894347 19.071784
Ga -10.894347 -8.168534 19.071784
Ga -10.894347 -10.894347 21.797597
Ga -8.168534 -8.168534 21.797597
Ga -8.168534 -2.716909 -10.912153
Ga -8.168534 -5.442722 -8.186341
Ga -10.894347 -2.716909 -8.186341
Ga -10.894347 -5.442722 -5.460528
Ga -8.168534 -2.716909 -5.460528
Ga -8.168534 -5.442722 -2.734716
Ga -10.894347 -2.716909 -2.734716
Ga -10.894347 -5.442722 -0.008903
Ga -8.168534 -2.716909 -0.008903
Ga -8.168534 -5.442722 2.716909
Ga -10.894347 -2.716909 2.716909
Ga -10.894347 -5.442722 5.442722
Ga -8.168534 -2.716909 5.442722
Ga -8.168534 -5.442722 8.168534
Ga -10.894347 -2.716909 8.168534
Ga -10.894347 -5.442722 10.894347
Ga -8.168534 -2.716909 10.894347
Ga -8.168534 -5.442722 13.620159
Ga -10.894347 -2.716909 13.620159
Ga -10.894347 -5.442722 16.345972
Ga -8.168534 -2.716909 16.345972
Ga -8.168534 -5.442722 19.071784
Ga -8.168534 2.734716 -16.363778
Ga -8.168534 0.008903 -13.637966
Ga -10.894347 2.734716 -13.637966
Ga -10.894347 0.008903 -10.912153
Ga -8.168534 2.734716 -10.912153
Ga -8.168534 0.008903 -8.186341
Ga -10.894347 2.734716 -8.186341
Ga -10.894347 0.008903 -5.460528
Ga -8.168534 2.734716 -5.460528
Ga -8.168534 0.008903 -2.734716
Ga -10.894347 2.734716 -2.734716
Ga -10.894347 0.008903 -0.008903
Ga -8.168534 2.734716 -0.008903
Ga -8.168534 0.008903 2.716909
Ga -10.894347 2.734716 2.716909
Ga -10.894347 0.008903 5.442722
Ga -8.168534 2.734716 5.442722
Ga -8.168534 0.008903 8.168534
Ga -10.894347 2.734716 8.168534
Ga -10.894347 0.008903 10.894347
Ga -8.168534 2.734716 10.894347
Ga -8.168534 0.008903 13.620159
Ga -8.168534 8.186341 -21.815403
Ga -8.168534 5.460528 -19.089591
Ga -10.894347 8.186341 -19.089591
Ga -10.894347 5.460528 -16.363778
Ga -8.168534 8.186341 -16.363778
Ga -8.168534 5.460528 -13.637966
Ga -10.894347 8.186341 -13.637966
Ga -10.894347 5.460528 -10.912153
Ga -8.168534 8.186341 -10.912153
Ga -8.168534 5.460528 -8.186341
Ga -10.894347 8.186341 -8.186341
Ga -10.894347 5.460528 -5.460528
Ga -8.168534 8.186341 -5.460528
Ga -8.168534 5.460528 -2.734716
Ga -10.894347 8.186341 -2.734716
Ga -10.894347 5.460528 -0.008903
Ga -8.168534 8.186341 -0.008903
Ga -8.168534 5.460528 2.716909
Ga -10.894347 8.186341 2.716909
Ga -10.894347 5.460528 5.442722
Ga -8.168534 8.186341 5.442722
Ga -8.168534 5.460528 8.168534
Ga -10.894347 10.912153 -21.815403
Ga -8.168534 10.912153 -19.089591
Ga -10.894347 13.637966 -19.089591
Ga -10.894347 10.912153 -16.363778
Ga -8.168534 13.637966 -16.363778
Ga -8.168534 10.912153 -13.637966
Ga -10.894347 13.637966 -13.637966
Ga -10.894347 10.912153 -10.912153
Ga -8.168534 13.637966 -10.912153
Ga -8.168534 10.912153 -8.186341
Ga -10.894347 13.637966 -8.186341
Ga -10.894347 10.912153 -5.460528
Ga -8.168534 13.637966 -5.460528
Ga -8.168534 10.912153 -2.734716
Ga -10.894347 13.637966 -2.734716
Ga -10.894347 10.912153 -0.008903
Ga -8.168534 13.637966 -0.008903
Ga -8.168534 10.912153 2.716909
Ga -10.894347 16.363778 -16.363778
Ga -8.168534 16.363778 -13.637966
Ga -10.894347 19.089591 -13.637966
Ga -10.894347 16.363778 -10.912153
Ga -8.168534 19.089591 -10.912153
Ga -8.168534 16.363778 -8.186341
Ga -10.894347 19.089591 -8.186341
Ga -10.894347 16.363778 -5.460528
Ga -8.168534 19.089591 -5.460528
Ga -8.168534 16.363778 -2.734716
Ga -10.894347 21.815403 -10.912153
Ga -8.168534 21.815403 -8.186341
Ga -2.716909 -19.071784 -0.008903
Ga -2.716909 -21.797597 2.716909
Ga -5.442722 -19.071784 2.716909
Ga -5.442722 -21.797597 5.442722
Ga -2.716909 -19.071784 5.442722
Ga -5.442722 -19.071784 8.168534
Ga -2.716909 -13.620159 -5.460528
Ga -2.716909 -16.345972 -2.734716
Ga -5.442722 -13.620159 -2.734716
Ga -5.442722 -16.345972 -0.008903
Ga -2.716909 -13.620159 -0.008903
Ga -2.716909 -16.345972 2.716909
Ga -5.442722 -13.620159 2.716909
Ga -5.442722 -16.345972 5.442722
Ga -2.716909 -13.620159 5.442722
Ga -2.716909 -16.345972 8.168534
Ga -5.442722 -13.620159 8.168534
Ga -5.442722 -16.345972 10.894347
Ga -2.716909 -13.620159 10.894347
Ga -5.442722 -13.620159 13.620159
Ga -2.716909 -8.168534 -10.912153
Ga -2.716909 -10.894347 -8.186341
Ga -5.442722 -8.168534 -8.186341
Ga -5.442722 -10.894347 -5.460528
Ga -2.716909 -8.168534 -5.460528
Ga -2.716909 -10.894347 -2.734716
Ga -5.442722 -8.168534 -2.734716
Ga -5.442722 -10.894347 -0.008903
Ga -2.716909 -8.168534 -0.008903
Ga -2.716909 -10.894347 2.716909
Ga -5.442722 -8.168534 2.716909
Ga -5.442722 -10.894347 5.442722
Ga -2.716909 -8.168534 5.442722
Ga -2.716909 -10.894347 8.168534
Ga -5.442722 -8.168534 8.168534
Ga -5.442722 -10.894347 10.894347
Ga -2.716909 -8.168534 10.894347
Ga -2.716909 -10.894347 13.620159
Ga -5.442722 -8.168534 13.620159
Ga -5.442722 -10.894347 16.345972
Ga -2.716909 -8.168534 16.345972
Ga -5.442722 -8.168534 19.071784
Ga -2.716909 -2.716909 -16.363778
Ga -2.716909 -5.442722 -13.637966
Ga -5.442722 -2.716909 -13.637966
Ga -5.442722 -5.442722 -10.912153
Ga -2.716909 -2.716909 -10.912153
Ga -2.716909 -5.442722 -8.186341
Ga -5.442722 -2.716909 -8.186341
Ga -5.442722 -5.442722 -5.460528
Ga -2.716909 -2.716909 -5.460528
Ga -2.716909 -5.442722 -2.734716
Ga -5.442722 -2.716909 -2.734716
Ga -5.442722 -5.442722 -0.008903
Ga -2.716909 -2.716909 -0.008903
Ga -2.716909 -5.442722 2.716909
Ga -5.442722 -2.716909 2.716909
Ga -5.442722 -5.442722 5.442722
Ga -2.716909 -2.716909 5.442722
Ga -2.716909 -5.442722 8.168534
Ga -5.442722 -2.716909 8.168534
Ga -5.442722 -5.442722 10.894347
Ga -2.716909 -2.716909 10.894347
Ga -2.716909 -5.442722 13.620159
Ga -5.442722 -2.716909 13.620159
Ga -5.442722 -5.442722 16.345972
Ga -2.716909 -2.716909 16.345972
Ga -2.716909 -5.442722 19.071784
Ga -5.442722 -2.716909 19.071784
Ga -5.442722 -5.442722 21.797597
Ga -2.716909 -2.716909 21.797597
Ga -2.716909 2.734716 -21.815403
Ga -2.716909 0.008903 -19.089591
Ga -5.442722 2.734716 -19.089591
Ga -5.442722 0.008903 -16.363778
Ga -2.716909 2.734716 -16.363778
Ga -2.716909 0.008903 -13.637966
Ga -5.442722 2.734716 -13.637966
Ga -5.442722 0.008903 -10.912153
Ga -2.716909 2.734716 -10.912153
Ga -2.716909 0.008903 -8.186341
Ga -5.442722 2.734716 -8.186341
Ga -5.442722 0.008903 -5.460528
Ga -2.716909 2.734716 -5.460528
Ga -2.716909 0.008903 -2.734716
Ga -5.442722 2.734716 -2.734716
Ga -5.442722 0.008903 -0.008903
Ga -2.716909 2.734716 -0.008903
Ga -2.716909 0.008903 2.716909
Ga -5.442722 2.734716 2.716909
Ga -5.442722 0.008903 5.442722
Ga -2.716909 2.734716 5.442722
Ga -2.716909 0.008903 8.168534
Ga -5.442722 2.734716 8.168534
Ga -5.442722 0.008903 10.894347
Ga -2.716909 2.734716 10.894347
Ga -2.716909 0.008903 13.620159
Ga -5.442722 2.734716 13.620159
Ga -5.442722 0.008903 16.345972
Ga -2.716909 2.734716 16.345972
Ga -2.716909 0.008903 19.071784
Ga -5.442722 5.460528 -21.815403
Ga -2.716909 5.460528 -19.089591
Ga -5.442722 8.186341 -19.089591
Ga -5.442722 5.460528 -16.363778
Ga -2.716909 8.186341 -16.363778
Ga -2.716909 5.460528 -13.637966
Ga -5.442722 8.186341 -13.637966
Ga -5.442722 5.460528 -10.912153
Ga -2.716909 8.186341 -10.912153
Ga -2.716909 5.460528 -8.186341
Ga -5.442722 8.186341 -8.186341
Ga -5.442722 5.460528 -5.460528
Ga -2.716909 8.186341 -5.460528
Ga -2.716909 5.460528 -2.734716
Ga -5.442722 8.186341 -2.734716
Ga -5.442722 5.460528 -0.008903
Ga -2.716909 8.186341 -0.008903
Ga -2.716909 5.460528 2.716909
Ga -5.442722 8.186341 2.716909
Ga -5.442722 5.460528 5.442722
Ga -2.716909 8.186341 5.442722
Ga -2.716909 5.460528 8.168534
Ga -5.442722 8.186341 8.168534
Ga -5.442722 5.460528 10.894347
Ga -2.716909 8.186341 10.894347
Ga -2.716909 5.460528 13.620159
Ga -5.442722 10.912153 -16.363778
Ga -2.716909 10.912153 -13.637966
Ga -5.442722 13.637966 -13.637966
Ga -5.442722 10.912153 -10.912153
Ga -2.716909 13.637966 -10.912153
Ga -2.716909 10.912153 -8.186341
Ga -5.442722 13.637966 -8.186341
Ga -5.442722 10.912153 -5.460528
Ga -2.716909 13.637966 -5.460528
Ga -2.716909 10.912153 -2.734716
Ga -5.442722 13.637966 -2.734716
Ga -5.442722 10.912153 -0.008903
Ga -2.716909 13.637966 -0.008903
Ga -2.716909 10.912153 2.716909
Ga -5.442722 13.637966 2.716909
Ga -5.442722 10.912153 5.442722
Ga -2.716909 13.637966 5.442722
Ga -2.716909 10.912153 8.168534
Ga -5.442722 16.363778 -10.912153
Ga -2.716909 16.363778 -8.186341
Ga -5.442722 19.089591 -8.186341
Ga -5.442722 16.363778 -5.460528
Ga -2.716909 19.089591 -5.460528
Ga -2.716909 16.363778 -2.734716
Ga -5.442722 19.089591 -2.734716
Ga -5.442722 16.363778 -0.008903
Ga -2.716909 19.089591 -0.008903
Ga -2.716909 16.363778 2.716909
Ga -5.442722 21.815403 -5.460528
Ga -2.716909 21.815403 -2.734716
Ga 2.734716 -19.071784 -5.460528
Ga 2.734716 -21.797597 -2.734716
Ga 0.008903 -19.071784 -2.734716
Ga 0.008903 -21.797597 -0.008903
Ga 2.734716 -19.071784 -0.008903
Ga 0.008903 -19.071784 2.716909
Ga 2.734716 -13.620159 -10.912153
Ga 2.734716 -16.345972 -8.186341
Ga 0.008903 -13.620159 -8.186341
Ga 0.008903 -16.345972 -5.460528
Ga 2.734716 -13.620159 -5.460528
Ga 2.734716 -16.345972 -2.734716
Ga 0.008903 -13.620159 -2.734716
Ga 0.008903 -16.345972 -0.008903
Ga 2.734716 -13.620159 -0.008903
Ga 2.734716 -16.345972 2.716909
Ga 0.008903 -13.620159 2.716909
Ga 0.008903 -16.345972 5.442722
Ga 2.734716 -13.620159 5.442722
Ga 0.008903 -13.620159 8.168534
Ga 2.734716 -8.168534 -16.363778
Ga 2.734716 -10.894347 -13.637966
Ga 0.008903 -8.168534 -13.637966
Ga 0.008903 -10.894347 -10.912153
Ga 2.734716 -8.168534 -10.912153
Ga 2.734716 -10.894347 -8.186341
Ga 0.008903 -8.168534 -8.186341
Ga 0.008903 -10.894347 -5.460528
Ga 2.734716 -8.168534 -5.460528
Ga 2.734716 -10.894347 -2.734716
Ga 0.008903 -8.168534 -2.734716
Ga 0.008903 -10.894347 -0.008903
Ga 2.734716 -8.168534 -0.008903
Ga 2.734716 -10.894347 2.716909
Ga 0.008903 -8.168534 2.716909
Ga 0.008903 -10.894347 5.442722
Ga 2.734716 -8.168534 5.442722
Ga 2.734716 -10.894347 8.168534
Ga 0.008903 -8.168534 8.168534
Ga 0.008903 -10.894347 10.894347
Ga 2.734716 -8.168534 10.894347
Ga 0.008903 -8.168534 13.620159
Ga 2.734716 -2.716909 -21.815403
Ga 2.734716 -5.442722 -19.089591
Ga 0.008903 -2.716909 -19.089591
Ga 0.008903 -5.442722 -16.363778
Ga 2.734716 -2.716909 -16.363778
Ga 2.734716 -5.442722 -13.637966
Ga 0.008903 -2.716909 -13.637966
Ga 0.008903 -5.442722 -10.912153
Ga 2.734716 -2.716909 -10.912153
Ga 2.734716 -5.442722 -8.186341
Ga 0.008903 -2.716909 -8.186341
Ga 0.008903 -5.442722 -5.460528
Ga 2.734716 -2.716909 -5.460528
Ga 2.734716 -5.442722 -2.734716
Ga 0.008903 -2.716909 -2.734716
Ga 0.008903 -5.442722 -0.008903
Ga 2.734716 -2.716909 -0.008903
Ga 2.734716 -5.442722 2.716909
Ga 0.008903 -2.716909 2.716909
Ga 0.008903 -5.442722 5.442722
Ga 2.734716 -2.716909 5.442722
Ga 2.734716 -5.442722 8.168534
Ga 0.008903 -2.716909 8.168534
Ga 0.008903 -5.442722 10.894347
Ga 2.734716 -2.716909 10.894347
Ga 2.734716 -5.442722 13.620159
Ga 0.008903 -2.716909 13.620159
Ga 0.008903 -5.442722 16.345972
Ga 2.734716 -2.716909 16.345972
Ga 0.008903 -2.716909 19.071784
Ga 0.008903 0.008903 -21.815403
Ga 2.734716 0.008903 -19.089591
Ga 0.008903 2.734716 -19.089591
Ga 0.008903 0.008903 -16.363778
Ga 2.734716 2.734716 -16.363778
Ga 2.734716 0.008903 -13.637966
Ga 0.008903 2.734716 -13.637966
Ga 0.008903 0.008903 -10.912153
Ga 2.734716 2.734716 -10.912153
Ga 2.734716 0.008903 -8.186341
Ga 0.008903 2.734716 -8.186341
Ga 0.008903 0.008903 -5.460528
Ga 2.734716 2.734716 -5.460528
Ga 2.734716 0.008903 -2.734716
Ga 0.008903 2.734716 -2.734716
Ga 0.008903 0.008903 -0.008903
Ga 2.734716 2.734716 -0.008903
Ga 2.734716 0.008903 2.716909
Ga 0.008903 2.734716 2.716909
Ga 0.008903 0.008903 5.442722
Ga 2.734716 2.734716 5.442722
Ga 2.734716 0.008903 8.168534
Ga 0.008903 2.734716 8.168534
Ga 0.008903 0.008903 10.894347
Ga 2.734716 2.734716 10.894347
Ga 2.734716 0.008903 13.620159
Ga 0.008903 2.734716 13.620159
Ga 0.008903 0.008903 16.345972
Ga 2.734716 2.734716 16.345972
Ga 2.734716 0.008903 19.071784
Ga 0.008903 2.734716 19.071784
Ga 0.008903 0.008903 21.797597
Ga 2.734716 2.734716 21.797597
Ga 0.008903 5.460528 -16.363778
Ga 2.734716 5.460528 -13.637966
Ga 0.008903 8.186341 -13.637966
Ga 0.008903 5.460528 -10.912153
Ga 2.734716 8.186341 -10.912153
Ga 2.734716 5.460528 -8.186341
Ga 0.008903 8.186341 -8.186341
Ga 0.008903 5.460528 -5.460528
Ga 2.734716 8.186341 -5.460528
Ga 2.734716 5.460528 -2.734716
Ga 0.008903 8.186341 -2.734716
Ga 0.008903 5.460528 -0.008903
Ga 2.734716 8.186341 -0.008903
Ga 2.734716 5.460528 2.716909
Ga 0.008903 8.186341 2.716909
Ga 0.008903 5.460528 5.442722
Ga 2.734716 8.186341 5.442722
Ga 2.734716 5.460528 8.168534
Ga 0.008903 8.186341 8.168534
Ga 0.008903 5.460528 10.894347
Ga 2.734716 8.186341 10.894347
Ga 2.734716 5.460528 13.620159
Ga 0.008903 8.186341 13.620159
Ga 0.008903 5.460528 16.345972
Ga 2.734716 8.186341 16.345972
Ga 2.734716 5.460528 19.071784
Ga 0.008903 10.912153 -10.912153
Ga 2.734716 10.912153 -8.186341
Ga 0.008903 13.637966 -8.186341
Ga 0.008903 10.912153 -5.460528
Ga 2.734716 13.637966 -5.460528
Ga 2.734716 10.912153 -2.734716
Ga 0.008903 13.637966 -2.734716
Ga 0.008903 10.912153 -0.008903
Ga 2.734716 13.637966 -0.008903
Ga 2.734716 10.912153 2.716909
Ga 0.008903 13.637966 2.716909
Ga 0.008903 10.912153 5.442722
Ga 2.734716 13.637966 5.442722
Ga 2.734716 10.912153 8.168534
Ga 0.008903 13.637966 8.168534
Ga 0.008903 10.912153 10.894347
Ga 2.734716 13.637966 10.894347
Ga 2.734716 10.912153 13.620159
Ga 0.008903 16.363778 -5.460528
Ga 2.734716 16.363778 -2.734716
Ga 0.008903 19.089591 -2.734716
Ga 0.008903 16.363778 -0.008903
Ga 2.734716 19.089591 -0.008903
Ga 2.734716 16.363778 2.716909
Ga 0.008903 19.089591 2.716909
Ga 0.008903 16.363778 5.442722
Ga 2.734716 19.089591 5.442722
Ga 2.734716 16.363778 8.168534
Ga 0.008903 21.815403 -0.008903
Ga 2.734716 21.815403 2.716909
Ga 8.186341 -19.071784 -10.912153
Ga 8.186341 -21.797597 -8.186341
Ga 5.460528 -19.071784 -8.186341
Ga 5.460528 -21.797597 -5.460528
Ga 8.186341 -19.071784 -5.460528
Ga 5.460528 -19.071784 -2.734716
Ga 8.186341 -13.620159 -16.363778
Ga 8.186341 -16.345972 -13.637966
Ga 5.460528 -13.620159 -13.637966
Ga 5.460528 -16.345972 -10.912153
Ga 8.186341 -13.620159 -10.912153
Ga 8.186341 -16.345972 -8.186341
Ga 5.460528 -13.620159 -8.186341
Ga 5.460528 -16.345972 -5.460528
Ga 8.186341 -13.620159 -5.460528
Ga 8.186341 -16.345972 -2.734716
Ga 5.460528 -13.620159 -2.734716
Ga 5.460528 -16.345972 -0.008903
Ga 8.186341 -13.620159 -0.008903
Ga 5.460528 -13.620159 2.716909
Ga 8.186341 -8.168534 -21.815403
Ga 8.186341 -10.894347 -19.089591
Ga 5.460528 -8.168534 -19.089591
Ga 5.460528 -10.894347 -16.363778
Ga 8.186341 -8.168534 -16.363778
Ga 8.186341 -10.894347 -13.637966
Ga 5.460528 -8.168534 -13.637966
Ga 5.460528 -10.894347 -10.912153
Ga 8.186341 -8.168534 -10.912153
Ga 8.186341 -10.894347 -8.186341
Ga 5.460528 -8.168534 -8.186341
Ga 5.460528 -10.894347 -5.460528
Ga 8.186341 -8.168534 -5.460528
Ga 8.186341 -10.894347 -2.734716
Ga 5.460528 -8.168534 -2.734716
Ga 5.460528 -10.894347 -0.008903
Ga 8.186341 -8.168534 -0.008903
Ga 8.186341 -10.894347 2.716909
Ga 5.460528 -8.168534 2.716909
Ga 5.460528 -10.894347 5.442722
Ga 8.186341 -8.168534 5.442722
Ga 5.460528 -8.168534 8.168534
Ga 5.460528 -5.442722 -21.815403
Ga 8.186341 -5.442722 -19.089591
Ga 5.460528 -2.716909 -19.089591
Ga 5.460528 -5.442722 -16.363778
Ga 8.186341 -2.716909 -16.363778
Ga 8.186341 -5.442722 -13.637966
Ga 5.460528 -2.716909 -13.637966
Ga 5.460528 -5.442722 -10.912153
Ga 8.186341 -2.716909 -10.912153
Ga 8.186341 -5.442722 -8.186341
Ga 5.460528 -2.716909 -8.186341
Ga 5.460528 -5.442722 -5.460528
Ga 8.186341 -2.716909 -5.460528
Ga 8.186341 -5.442722 -2.734716
Ga 5.460528 -2.716909 -2.734716
Ga 5.460528 -5.442722 -0.008903
Ga 8.186341 -2.716909 -0.008903
Ga 8.186341 -5.442722 2.716909
Ga 5.460528 -2.716909 2.716909
Ga 5.460528 -5.442722 5.442722
Ga 8.186341 -2.716909 5.442722
Ga 8.186341 -5.442722 8.168534
Ga 5.460528 -2.716909 8.168534
Ga 5.460528 -5.442722 10.894347
Ga 8.186341 -2.716909 10.894347
Ga 5.460528 -2.716909 13.620159
Ga 5.460528 0.008903 -16.363778
Ga 8.186341 0.008903 -13.637966
Ga 5.460528 2.734716 -13.637966
Ga 5.460528 0.008903 -10.912153
Ga 8.186341 2.734716 -10.912153
Ga 8.186341 0.008903 -8.186341
Ga 5.460528 2.734716 -8.186341
Ga 5.460528 0.008903 -5.460528
Ga 8.186341 2.734716 -5.460528
Ga 8.186341 0.008903 -2.734716
Ga 5.460528 2.734716 -2.734716
Ga 5.460528 0.008903 -0.008903
Ga 8.186341 2.734716 -0.008903
Ga 8.186341 0.008903 2.716909
Ga 5.460528 2.734716 2.716909
Ga 5.460528 0.008903 5.442722
Ga 8.186341 2.734716 5.442722
Ga 8.186341 0.008903 8.168534
Ga 5.460528 2.734716 8.168534
Ga 5.460528 0.008903 10.894347
Ga 8.186341 2.734716 10.894347
Ga 8.186341 0.008903 13.620159
Ga 5.460528 2.734716 13.620159
Ga 5.460528 0.008903 16.345972
Ga 8.186341 2.734716 16.345972
Ga 5.460528 2.734716 19.071784
Ga 5.460528 5.460528 -10.912153
Ga 8.186341 5.460528 -8.186341
Ga 5.460528 8.186341 -8.186341
Ga 5.460528 5.460528 -5.460528
Ga 8.186341 8.186341 -5.460528
Ga 8.186341 5.460528 -2.734716
Ga 5.460528 8.186341 -2.734716
Ga 5.460528 5.460528 -0.008903
Ga 8.186341 8.186341 -0.008903
Ga 8.186341 5.460528 2.716909
Ga 5.460528 8.186341 2.716909
Ga 5.460528 5.460528 5.442722
Ga 8.186341 8.186341 5.442722
Ga 8.186341 5.460528 8.168534
Ga 5.460528 8.186341 8.168534
Ga 5.460528 5.460528 10.894347
Ga 8.186341 8.186341 10.894347
Ga 8.186341 5.460528 13.620159
Ga 5.460528 8.186341 13.620159
Ga 5.460528 5.460528 16.345972
Ga 8.186341 8.186341 16.345972
Ga 8.186341 5.460528 19.071784
Ga 5.460528 8.186341 19.071784
Ga 5.460528 5.460528 21.797597
Ga 8.186341 8.186341 21.797597
Ga 5.460528 10.912153 -5.460528
Ga 8.186341 10.912153 -2.734716
Ga 5.460528 13.637966 -2.734716
Ga 5.460528 10.912153 -0.008903
Ga 8.186341 13.637966 -0.008903
Ga 8.186341 10.912153 2.716909
Ga 5.460528 13.637966 2.716909
Ga 5.460528 10.912153 5.442722
Ga 8.186341 13.637966 5.442722
Ga 8.186341 10.912153 8.168534
Ga 5.460528 13.637966 8.168534
Ga 5.460528 10.912153 10.894347
Ga 8.186341 13.637966 10.894347
Ga 8.186341 10.912153 13.620159
Ga 5.460528 13.637966 13.620159
Ga 5.460528 10.912153 16.345972
Ga 8.186341 13.637966 16.345972
Ga 8.186341 10.912153 19.071784
Ga 5.460528 16.363778 -0.008903
Ga 8.186341 16.363778 2.716909
Ga 5.460528 19.089591 2.716909
Ga 5.460528 16.363778 5.442722
Ga 8.186341 19.089591 5.442722
Ga 8.186341 16.363778 8.168534
Ga 5.460528 19.089591 8.168534
Ga 5.460528 16.363778 10.894347
Ga 8.186341 19.089591 10.894347
Ga 8.186341 16.363778 13.620159
Ga 5.460528 21.815403 5.442722
Ga 8.186341 21.815403 8.168534
Ga 13.637966 -19.071784 -16.363778
Ga 13.637966 -21.797597 -13.637966
Ga 10.912153 -19.071784 -13.637966
Ga 10.912153 -21.797597 -10.912153
Ga 13.637966 -19.071784 -10.912153
Ga 10.912153 -19.071784 -8.186341
Ga 13.637966 -13.620159 -21.815403
Ga 13.637966 -16.345972 -19.089591
Ga 10.912153 -13.620159 -19.089591
Ga 10.912153 -16.345972 -16.363778
Ga 13.637966 -13.620159 -16.363778
Ga 13.637966 -16.345972 -13.637966
Ga 10.912153 -13.620159 -13.637966
Ga 10.912153 -16.345972 -10.912153
Ga 13.637966 -13.620159 -10.912153
Ga 13.637966 -16.345972 -8.186341
Ga 10.912153 -13.620159 -8.186341
Ga 10.912153 -16.345972 -5.460528
Ga 13.637966 -13.620159 -5.460528
Ga 10.912153 -13.620159 -2.734716
Ga 10.912153 -10.894347 -21.815403
Ga 13.637966 -10.894347 -19.089591
Ga 10.912153 -8.168534 -19.089591
Ga 10.912153 -10.894347 -16.363778
Ga 13.637966 -8.168534 -16.363778
Ga 13.637966 -10.894347 -13.637966
Ga 10.912153 -8.168534 -13.637966
Ga 10.912153 -10.894347 -10.912153
Ga 13.637966 -8.168534 -10.912153
Ga 13.637966 -10.894347 -8.186341
Ga 10.912153 -8.168534 -8.186341
Ga 10.912153 -10.894347 -5.460528
Ga 13.637966 -8.168534 -5.460528
Ga 13.637966 -10.894347 -2.734716
Ga 10.912153 -8.168534 -2.734716
Ga 10.912153 -10.894347 -0.008903
Ga 13.637966 -8.168534 -0.008903
Ga 10.912153 -8.168534 2.716909
Ga 10.912153 -5.442722 -16.363778
Ga 13.637966 -5.442722 -13.637966
Ga 10.912153 -2.716909 -13.637966
Ga 10.912153 -5.442722 -10.912153
Ga 13.637966 -2.716909 -10.912153
Ga 13.637966 -5.442722 -8.186341
Ga 10.912153 -2.716909 -8.186341
Ga 10.912153 -5.442722 -5.460528
Ga 13.637966 -2.716909 -5.460528
Ga 13.637966 -5.442722 -2.734716
Ga 10.912153 -2.716909 -2.734716
Ga 10.912153 -5.442722 -0.008903
Ga 13.637966 -2.716909 -0.008903
Ga 13.637966 -5.442722 2.716909
Ga 10.912153 -2.716909 2.716909
Ga 10.912153 -5.442722 5.442722
Ga 13.637966 -2.716909 5.442722
Ga 10.912153 -2.716909 8.168534
Ga 10.912153 0.008903 -10.912153
Ga 13.637966 0.008903 -8.186341
Ga 10.912153 2.734716 -8.186341
Ga 10.912153 0.008903 -5.460528
Ga 13.637966 2.734716 -5.460528
Ga 13.637966 0.008903 -2.734716
Ga 10.912153 2.734716 -2.734716
Ga 10.912153 0.008903 -0.008903
Ga 13.637966 2.734716 -0.008903
Ga 13.637966 0.008903 2.716909
Ga 10.912153 2.734716 2.716909
Ga 10.912153 0.008903 5.442722
Ga 13.637966 2.734716 5.442722
Ga 13.637966 0.008903 8.168534
Ga 10.912153 2.734716 8.168534
Ga 10.912153 0.008903 10.894347
Ga 13.637966 2.734716 10.894347
Ga 10.912153 2.734716 13.620159
Ga 10.912153 5.460528 -5.460528
Ga 13.637966 5.460528 -2.734716
Ga 10.912153 8.186341 -2.734716
Ga 10.912153 5.460528 -0.008903
Ga 13.637966 8.186341 -0.008903
Ga 13.637966 5.460528 2.716909
Ga 10.912153 8.186341 2.716909
Ga 10.912153 5.460528 5.442722
Ga 13.637966 8.186341 5.442722
Ga 13.637966 5.460528 8.168534
Ga 10.912153 8.186341 8.168534
Ga 10.912153 5.460528 10.894347
Ga 13.637966 8.186341 10.894347
Ga 13.637966 5.460528 13.620159
Ga 10.912153 8.186341 13.620159
Ga 10.912153 5.460528 16.345972
Ga 13.637966 8.186341 16.345972
Ga 10.912153 8.186341 19.071784
Ga 10.912153 10.912153 -0.008903
Ga 13.637966 10.912153 2.716909
Ga 10.912153 13.637966 2.716909
Ga 10.912153 10.912153 5.442722
Ga 13.637966 13.637966 5.442722
Ga 13.637966 10.912153 8.168534
Ga 10.912153 13.637966 8.168534
Ga 10.912153 10.912153 10.894347
Ga 13.637966 13.637966 10.894347
Ga 13.637966 10.912153 13.620159
Ga 10.912153 13.637966 13.620159
Ga 10.912153 10.912153 16.345972
Ga 13.637966 13.637966 16.345972
Ga 13.637966 10.912153 19.071784
Ga 10.912153 13.637966 19.071784
Ga 10.912153 10.912153 21.797597
Ga 13.637966 13.637966 21.797597
Ga 10.912153 16.363778 5.442722
Ga 13.637966 16.363778 8.168534
Ga 10.912153 19.089591 8.168534
Ga 10.912153 16.363778 10.894347
Ga 13.637966 19.089591 10.894347
Ga 13.637966 16.363778 13.620159
Ga 10.912153 19.089591 13.620159
Ga 10.912153 16.363778 16.345972
Ga 13.637966 19.089591 16.345972
Ga 13.637966 16.363778 19.071784
Ga 10.912153 21.815403 10.894347
Ga 13.637966 21.815403 13.620159
Ga 16.363778 -19.071784 -13.637966
Ga 16.363778 -13.620159 -19.089591
Ga 16.363778 -16.345972 -16.363778
Ga 19.089591 -13.620159 -16.363778
Ga 19.089591 -16.345972 -13.637966
Ga 16.363778 -13.620159 -13.637966
Ga 16.363778 -16.345972 -10.912153
Ga 19.089591 -13.620159 -10.912153
Ga 16.363778 -13.620159 -8.186341
Ga 16.363778 -10.894347 -16.363778
Ga 19.089591 -10.894347 -13.637966
Ga 16.363778 -8.168534 -13.637966
Ga 16.363778 -10.894347 -10.912153
Ga 19.089591 -8.168534 -10.912153
Ga 19.089591 -10.894347 -8.186341
Ga 16.363778 -8.168534 -8.186341
Ga 16.363778 -10.894347 -5.460528
Ga 19.089591 -8.168534 -5.460528
Ga 16.363778 -8.168534 -2.734716
Ga 16.363778 -5.442722 -10.912153
Ga 19.089591 -5.442722 -8.186341
Ga 16.363778 -2.716909 -8.186341
Ga 16.363778 -5.442722 -5.460528
Ga 19.089591 -2.716909 -5.460528
Ga 19.089591 -5.442722 -2.734716
Ga 16.363778 -2.716909 -2.734716
Ga 16.363778 -5.442722 -0.008903
Ga 19.089591 -2.716909 -0.008903
Ga 16.363778 -2.716909 2.716909
Ga 16.363778 0.008903 -5.460528
Ga 19.089591 0.008903 -2.734716
Ga 16.363778 2.734716 -2.734716
Ga 16.363778 0.008903 -0.008903
Ga 19.089591 2.734716 -0.008903
Ga 19.089591 0.008903 2.716909
Ga 16.363778 2.734716 2.716909
Ga 16.363778 0.008903 5.442722
Ga 19.089591 2.734716 5.442722
Ga 16.363778 2.734716 8.168534
Ga 16.363778 5.460528 -0.008903
Ga 19.089591 5.460528 2.716909
Ga 16.363778 8.186341 2.716909
Ga 16.363778 5.460528 5.442722
Ga 19.089591 8.186341 5.442722
Ga 19.089591 5.460528 8.168534
Ga 16.363778 8.186341 8.168534
Ga 16.363778 5.460528 10.894347
Ga 19.089591 8.186341 10.894347
Ga 16.363778 8.186341 13.620159
Ga 16.363778 10.912153 5.442722
Ga 19.089591 10.912153 8.168534
Ga 16.363778 13.637966 8.168534
Ga 16.363778 10.912153 10.894347
Ga 19.089591 13.637966 10.894347
Ga 19.089591 10.912153 13.620159
Ga 16.363778 13.637966 13.620159
Ga 16.363778 10.912153 16.345972
Ga 19.089591 13.637966 16.345972
Ga 16.363778 13.637966 19.071784
Ga 16.363778 16.363778 10.894347
Ga 19.089591 16.363778 13.620159
Ga 16.363778 19.089591 13.620159
Ga 16.363778 16.363778 16.345972
Ga 21.815403 -13.620159 -13.637966
Ga 21.815403 -10.894347 -10.912153
Ga 21.815403 -8.168534 -8.186341
Ga 21.815403 -5.442722 -5.460528
Ga 21.815403 -2.716909 -2.734716
Ga 21.815403 0.008903 -0.008903
Ga 21.815403 2.734716 2.716909
Ga 21.815403 5.460528 5.442722
Ga 21.815403 8.186341 8.168534
Ga 21.815403 10.912153 10.894347
Ga 21.815403 13.637966 13.620159
P -20.434690 -12.257253 9.531440
P -17.708878 -14.983065 9.531440
P -17.708878 -12.257253 12.257253
P -17.708878 -14.983065 14.983065
P -17.708878 -6.805628 1.354003
P -17.708878 -9.531440 4.079815
P -20.434690 -9.531440 6.805628
P -20.434690 -6.805628 9.531440
P -17.708878 -6.805628 6.805628
P -17.708878 -9.531440 9.531440
P -20.434690 -9.531440 12.257253
P -17.708878 -9.531440 14.983065
P -20.434690 -1.354003 -1.371810
P -17.708878 -1.354003 -4.097622
P -17.708878 -4.079815 -1.371810
P -20.434690 -4.079815 1.354003
P -20.434690 -1.354003 4.079815
P -17.708878 -1.354003 1.354003
P -17.708878 -4.079815 4.079815
P -20.434690 -4.079815 6.805628
P -17.708878 -1.354003 6.805628
P -17.708878 -4.079815 9.531440
P -20.434690 4.097622 -6.823435
P -17.708878 4.097622 -9.549247
P -17.708878 1.371810 -6.823435
P -20.434690 4.097622 -1.371810
P -17.708878 4.097622 -4.097622
P -17.708878 1.371810 -1.371810
P -20.434690 1.371810 1.354003
P -17.708878 4.097622 1.354003
P -17.708878 1.371810 4.079815
P -20.434690 9.549247 -12.275060
P -17.708878 9.549247 -15.000872
P -20.434690 6.823435 -9.549247
P -20.434690 9.549247 -6.823435
P -17.708878 9.549247 -9.549247
P -17.708878 6.823435 -6.823435
P -20.434690 6.823435 -4.097622
P -17.708878 9.549247 -4.097622
P -17.708878 6.823435 -1.371810
P -17.708878 15.000872 -15.000872
P -17.708878 12.275060 -12.275060
P -20.434690 12.275060 -9.549247
P -17.708878 15.000872 -9.549247
P -14.983065 -17.708878 9.531440
P -12.257253 -20.434690 9.531440
P -14.983065 -17.708878 14.983065
P -12.257253 -17.708878 12.257253
P -14.983065 -12.257253 4.079815
P -12.257253 -12.257253 1.354003
P -12.257253 -14.983065 4.079815
P -14.983065 -14.983065 6.805628
P -14.983065 -12.257253 9.531440
P -12.257253 -12.257253 6.805628
P -12.257253 -14.983065 9.531440
P -14.983065 -14.983065 12.257253
P -14.983065 -12.257253 14.983065
P -12.257253 -12.257253 12.257253
P -12.257253 -14.983065 14.983065
P -14.983065 -14.983065 17.708878
P -12.257253 -12.257253 17.708878
P -14.983065 -6.805628 -1.371810
P -12.257253 -6.805628 -4.097622
P -14.983065 -6.805628 4.079815
P -12.257253 -6.805628 1.354003
P -12.257253 -9.531440 4.079815
P -14.983065 -9.531440 6.805628
P -14.983065 -6.805628 9.531440
P -12.257253 -6.805628 6.805628
P -12.257253 -9.531440 9.531440
P -14.983065 -9.531440 12.257253
P -14.983065 -6.805628 14.983065
P -12.257253 -6.805628 12.257253
P -12.257253 -9.531440 14.983065
P -14.983065 -9.531440 17.708878
P -12.257253 -6.805628 17.708878
P -12.257253 -9.531440 20.434690
P -14.983065 -1.354003 -6.823435
P -12.257253 -4.079815 -6.823435
P -14.983065 -1.354003 -1.371810
P -12.257253 -1.354003 -4.097622
P -12.257253 -4.079815 -1.371810
P -14.983065 -4.079815 1.354003
P -14.983065 -1.354003 4.079815
P -12.257253 -1.354003 1.354003
P -12.257253 -4.079815 4.079815
P -14.983065 -4.079815 6.805628
P -12.257253 -1.354003 6.805628
P -12.257253 -4.079815 9.531440
P -14.983065 -4.079815 12.257253
P -12.257253 -1.354003 12.257253
P -14.983065 4.097622 -12.275060
P -12.257253 1.371810 -12.275060
P -14.983065 4.097622 -6.823435
P -12.257253 4.097622 -9.549247
P -12.257253 1.371810 -6.823435
P -14.983065 1.371810 -4.097622
P -14.983065 4.097622 -1.371810
P -12.257253 4.097622 -4.097622
P -12.257253 1.371810 -1.371810
P -14.983065 1.371810 1.354003
P -12.257253 4.097622 1.354003
P -12.257253 1.371810 4.079815
P -14.983065 1.371810 6.805628
P -12.257253 1.371810 9.531440
P -14.983065 9.549247 -17.726685
P -12.257253 9.549247 -20.452497
P -12.257253 6.823435 -17.726685
P -14.983065 6.823435 -15.000872
P -14.983065 9.549247 -12.275060
P -12.257253 9.549247 -15.000872
P -12.257253 6.823435 -12.275060
P -14.983065 6.823435 -9.549247
P -14.983065 9.549247 -6.823435
P -12.257253 9.549247 -9.549247
P -12.257253 6.823435 -6.823435
P -14.983065 6.823435 -4.097622
P -12.257253 9.549247 -4.097622
P -12.257253 6.823435 -1.371810
P -14.983065 6.823435 1.354003
P -12.257253 6.823435 4.079815
P -14.983065 15.000872 -17.726685
P -12.257253 12.275060 -17.726685
P -14.983065 12.275060 -15.000872
P -14.983065 15.000872 -12.275060
P -12.257253 15.000872 -15.000872
P -12.257253 12.275060 -12.275060
P -14.983065 12.275060 -9.549247
P -12.257253 15.000872 -9.549247
P -12.257253 12.275060 -6.823435
P -14.983065 12.275060 -4.097622
P -12.257253 15.000872 -4.097622
P -12.257253 12.275060 -1.371810
P -14.983065 17.726685 -15.000872
P -12.257253 17.726685 -12.275060
P -14.983065 17.726685 -9.549247
P -12.257253 20.452497 -9.549247
P -9.531440 -17.708878 4.079815
P -6.805628 -20.434690 4.079815
P -9.531440 -20.434690 6.805628
P -9.531440 -17.708878 9.531440
P -6.805628 -17.708878 6.805628
P -6.805628 -20.434690 9.531440
P -9.531440 -20.434690 12.257253
P -9.531440 -17.708878 14.983065
P -6.805628 -17.708878 12.257253
P -9.531440 -12.257253 -1.371810
P -6.805628 -12.257253 -4.097622
P -6.805628 -14.983065 -1.371810
P -9.531440 -12.257253 4.079815
P -6.805628 -12.257253 1.354003
P -6.805628 -14.983065 4.079815
P -9.531440 -14.983065 6.805628
P -9.531440 -12.257253 9.531440
P -6.805628 -12.257253 6.805628
P -6.805628 -14.983065 9.531440
P -9.531440 -14.983065 12.257253
P -9.531440 -12.257253 14.983065
P -6.805628 -12.257253 12.257253
P -9.531440 -12.257253 20.434690
P -6.805628 -12.257253 17.708878
P -6.805628 -6.805628 -9.549247
P -9.531440 -9.531440 -4.097622
P -9.531440 -6.805628 -1.371810
P -6.805628 -6.805628 -4.097622
P -6.805628 -9.531440 -1.371810
P -9.531440 -9.531440 1.354003
P -9.531440 -6.805628 4.079815
P -6.805628 -6.805628 1.354003
P -6.805628 -9.531440 4.079815
P -9.531440 -9.531440 6.805628
P -9.531440 -6.805628 9.531440
P -6.805628 -6.805628 6.805628
P -6.805628 -9.531440 9.531440
P -9.531440 -9.531440 12.257253
P -9.531440 -6.805628 14.983065
P -6.805628 -6.805628 12.257253
P -6.805628 -9.531440 14.983065
P -9.531440 -9.531440 17.708878
P -9.531440 -6.805628 20.434690
P -6.805628 -6.805628 17.708878
P -6.805628 -9.531440 20.434690
P -6.805628 -4.079815 -12.275060
P -9.531440 -4.079815 -9.549247
P -9.531440 -1.354003 -6.823435
P -6.805628 -1.354003 -9.549247
P -6.805628 -4.079815 -6.823435
P -9.531440 -4.079815 -4.097622
P -9.531440 -1.354003 -1.371810
P -6.805628 -1.354003 -4.097622
P -6.805628 -4.079815 -1.371810
P -9.531440 -4.079815 1.354003
P -9.531440 -1.354003 4.079815
P -6.805628 -1.354003 1.354003
P -6.805628 -4.079815 4.079815
P -9.531440 -4.079815 6.805628
P -9.531440 -1.354003 9.531440
P -6.805628 -1.354003 6.805628
P -6.805628 -4.079815 9.531440
P -9.531440 -4.079815 12.257253
P -9.531440 -1.354003 14.983065
P -6.805628 -1.354003 12.257253
P -6.805628 -4.079815 14.983065
P -6.805628 -1.354003 17.708878
P -6.805628 -4.079815 20.434690
P -6.805628 4.097622 -20.452497
P -6.805628 1.371810 -17.726685
P -9.531440 1.371810 -15.000872
P -9.531440 4.097622 -12.275060
P -6.805628 4.097622 -15.000872
P -6.805628 1.371810 -12.275060
P -9.531440 1.371810 -9.549247
P -9.531440 4.097622 -6.823435
P -6.805628 4.097622 -9.549247
P -6.805628 1.371810 -6.823435
P -9.531440 1.371810 -4.097622
P -9.531440 4.097622 -1.371810
P -6.805628 4.097622 -4.097622
P -6.805628 1.371810 -1.371810
P -9.531440 1.371810 1.354003
P -9.531440 4.097622 4.079815
P -6.805628 4.097622 1.354003
P -6.805628 1.371810 4.079815
P -9.531440 1.371810 6.805628
P -9.531440 4.097622 9.531440
P -6.805628 4.097622 6.805628
P -6.805628 1.371810 9.531440
P -6.805628 4.097622 12.257253
P -9.531440 6.823435 -20.452497
P -9.531440 9.549247 -17.726685
P -6.805628 9.549247 -20.452497
P -6.805628 6.823435 -17.726685
P -9.531440 6.823435 -15.000872
P -9.531440 9.549247 -12.275060
P -6.805628 9.549247 -15.000872
P -6.805628 6.823435 -12.275060
P -9.531440 6.823435 -9.549247
P -9.531440 9.549247 -6.823435
P -6.805628 9.549247 -9.549247
P -6.805628 6.823435 -6.823435
P -9.531440 6.823435 -4.097622
P -9.531440 9.549247 -1.371810
P -6.805628 9.549247 -4.097622
P -6.805628 6.823435 -1.371810
P -9.531440 6.823435 1.354003
P -9.531440 9.549247 4.079815
P -6.805628 9.549247 1.354003
P -6.805628 6.823435 4.079815
P -6.805628 9.549247 6.805628
P -6.805628 6.823435 9.531440
P -9.531440 12.275060 -20.452497
P -9.531440 15.000872 -17.726685
P -6.805628 12.275060 -17.726685
P -9.531440 12.275060 -15.000872
P -9.531440 15.000872 -12.275060
P -6.805628 12.275060 -12.275060
P -9.531440 12.275060 -9.549247
P -9.531440 15.000872 -6.823435
P -6.805628 15.000872 -9.549247
P -6.805628 12.275060 -6.823435
P -9.531440 12.275060 -4.097622
P -6.805628 15.000872 -4.097622
P -6.805628 12.275060 -1.371810
P -9.531440 12.275060 1.354003
P -6.805628 15.000872 1.354003
P -6.805628 12.275060 4.079815
P -9.531440 17.726685 -15.000872
P -9.531440 20.452497 -12.275060
P -6.805628 17.726685 -12.275060
P -9.531440 17.726685 -9.549247
P -9.531440 20.452497 -6.823435
P -6.805628 20.452497 -9.549247
P -6.805628 17.726685 -6.823435
P -9.531440 17.726685 -4.097622
P -6.805628 20.452497 -4.097622
P -6.805628 17.726685 -1.371810
P -4.079815 -17.708878 -1.371810
P -1.354003 -17.708878 -4.097622
P -1.354003 -20.434690 -1.371810
P -4.079815 -20.434690 1.354003
P -4.079815 -17.708878 4.079815
P -1.354003 -17.708878 1.354003
P -1.354003 -20.434690 4.079815
P -4.079815 -20.434690 6.805628
P -4.079815 -17.708878 9.531440
P -4.079815 -12.257253 -6.823435
P -1.354003 -12.257253 -9.549247
P -1.354003 -14.983065 -6.823435
P -4.079815 -12.257253 -1.371810
P -1.354003 -12.257253 -4.097622
P -1.354003 -14.983065 -1.371810
P -4.079815 -14.983065 1.354003
P -4.079815 -12.257253 4.079815
P -1.354003 -12.257253 1.354003
P -1.354003 -14.983065 4.079815
P -4.079815 -14.983065 6.805628
P -4.079815 -12.257253 9.531440
P -1.354003 -12.257253 6.805628
P -1.354003 -14.983065 9.531440
P -4.079815 -14.983065 12.257253
P -4.079815 -12.257253 14.983065
P -4.079815 -6.805628 -12.275060
P -1.354003 -6.805628 -15.000872
P -4.079815 -6.805628 -6.823435
P -1.354003 -6.805628 -9.549247
P -1.354003 -9.531440 -6.823435
P -4.079815 -9.531440 -4.097622
P -4.079815 -6.805628 -1.371810
P -1.354003 -6.805628 -4.097622
P -1.354003 -9.531440 -1.371810
P -4.079815 -9.531440 1.354003
P -4.079815 -6.805628 4.079815
P -1.354003 -6.805628 1.354003
P -1.354003 -9.531440 4.079815
P -4.079815 -9.531440 6.805628
P -4.079815 -6.805628 9.531440
P -1.354003 -6.805628 6.805628
P -1.354003 -9.531440 9.531440
P -4.079815 -9.531440 12.257253
P -4.079815 -6.805628 14.983065
P -1.354003 -6.805628 12.257253
P -1.354003 -9.531440 14.983065
P -4.079815 -6.805628 20.434690
P -1.354003 -6.805628 17.708878
P -4.079815 -1.354003 -17.726685
P -1.354003 -1.354003 -20.452497
P -4.079815 -4.079815 -15.000872
P -4.079815 -1.354003 -12.275060
P -1.354003 -1.354003 -15.000872
P -1.354003 -4.079815 -12.275060
P -4.079815 -4.079815 -9.549247
P -4.079815 -1.354003 -6.823435
P -1.354003 -1.354003 -9.549247
P -1.354003 -4.079815 -6.823435
P -4.079815 -4.079815 -4.097622
P -4.079815 -1.354003 -1.371810
P -1.354003 -1.354003 -4.097622
P -1.354003 -4.079815 -1.371810
P -4.079815 -4.079815 1.354003
P -4.079815 -1.354003 4.079815
P -1.354003 -1.354003 1.354003
P -1.354003 -4.079815 4.079815
P -4.079815 -4.079815 6.805628
P -4.079815 -1.354003 9.531440
P -1.354003 -1.354003 6.805628
P -1.354003 -4.079815 9.531440
P -4.079815 -4.079815 12.257253
P -4.079815 -1.354003 14.983065
P -1.354003 -1.354003 12.257253
P -1.354003 -4.079815 14.983065
P -4.079815 -4.079815 17.708878
P -4.079815 -1.354003 20.434690
P -1.354003 -1.354003 17.708878
P -1.354003 -4.079815 20.434690
P -4.079815 1.371810 -20.452497
P -4.079815 4.097622 -17.726685
P -1.354003 4.097622 -20.452497
P -1.354003 1.371810 -17.726685
P -4.079815 1.371810 -15.000872
P -4.079815 4.097622 -12.275060
P -1.354003 4.097622 -15.000872
P -1.354003 1.371810 -12.275060
P -4.079815 1.371810 -9.549247
P -4.079815 4.097622 -6.823435
P -1.354003 4.097622 -9.549247
P -1.354003 1.371810 -6.823435
P -4.079815 1.371810 -4.097622
P -4.079815 4.097622 -1.371810
P -1.354003 4.097622 -4.097622
P -1.354003 1.371810 -1.371810
P -4.079815 1.371810 1.354003
P -4.079815 4.097622 4.079815
P -1.354003 4.097622 1.354003
P -1.354003 1.371810 4.079815
P -4.079815 1.371810 6.805628
P -4.079815 4.097622 9.531440
P -1.354003 4.097622 6.805628
P -1.354003 1.371810 9.531440
P -4.079815 1.371810 12.257253
P -4.079815 4.097622 14.983065
P -1.354003 4.097622 12.257253
P -1.354003 1.371810 14.983065
P -4.079815 1.371810 17.708878
P -1.354003 4.097622 17.708878
P -1.354003 1.371810 20.434690
P -4.079815 6.823435 -20.452497
P -1.354003 6.823435 -17.726685
P -4.079815 6.823435 -15.000872
P -4.079815 9.549247 -12.275060
P -1.354003 9.549247 -15.000872
P -1.354003 6.823435 -12.275060
P -4.079815 6.823435 -9.549247
P -4.079815 9.549247 -6.823435
P -1.354003 9.549247 -9.549247
P -1.354003 6.823435 -6.823435
P -4.079815 6.823435 -4.097622
P -4.079815 9.549247 -1.371810
P -1.354003 9.549247 -4.097622
P -1.354003 6.823435 -1.371810
P -4.079815 6.823435 1.354003
P -4.079815 9.549247 4.079815
P -1.354003 9.549247 1.354003
P -1.354003 6.823435 4.079815
P -4.079815 6.823435 6.805628
P -1.354003 9.549247 6.805628
P -1.354003 6.823435 9.531440
P -4.079815 6.823435 12.257253
P -1.354003 9.549247 12.257253
P -4.079815 12.275060 -15.000872
P -4.079815 15.000872 -12.275060
P -4.079815 12.275060 -9.549247
P -4.079815 15.000872 -6.823435
P -1.354003 15.000872 -9.549247
P -1.354003 12.275060 -6.823435
P -4.079815 12.275060 -4.097622
P -4.079815 15.000872 -1.371810
P -1.354003 15.000872 -4.097622
P -1.354003 12.275060 -1.371810
P -4.079815 12.275060 1.354003
P -1.354003 15.000872 1.354003
P -1.354003 12.275060 4.079815
P -4.079815 12.275060 6.805628
P -1.354003 12.275060 9.531440
P -4.079815 17.726685 -9.549247
P -4.079815 20.452497 -6.823435
P -4.079815 17.726685 -4.097622
P -4.079815 20.452497 -1.371810
P -1.354003 20.452497 -4.097622
P -1.354003 17.726685 -1.371810
P -4.079815 17.726685 1.354003
P -1.354003 20.452497 1.354003
P -1.354003 17.726685 4.079815
P 4.097622 -20.434690 -6.823435
P 1.371810 -20.434690 -4.097622
P 1.371810 -17.708878 -1.371810
P 4.097622 -17.708878 -4.097622
P 4.097622 -20.434690 -1.371810
P 1.371810 -20.434690 1.354003
P 1.371810 -17.708878 4.079815
P 4.097622 -17.708878 1.354003
P 4.097622 -12.257253 -15.000872
P 4.097622 -14.983065 -12.275060
P 1.371810 -14.983065 -9.549247
P 1.371810 -12.257253 -6.823435
P 4.097622 -12.257253 -9.549247
P 4.097622 -14.983065 -6.823435
P 1.371810 -14.983065 -4.097622
P 1.371810 -12.257253 -1.371810
P 4.097622 -12.257253 -4.097622
P 4.097622 -14.983065 -1.371810
P 1.371810 -14.983065 1.354003
P 1.371810 -12.257253 4.079815
P 4.097622 -12.257253 1.354003
P 1.371810 -14.983065 6.805628
P 4.097622 -12.257253 6.805628
P 1.371810 -6.805628 -17.726685
P 4.097622 -6.805628 -20.452497
P 1.371810 -9.531440 -15.000872
P 1.371810 -6.805628 -12.275060
P 4.097622 -6.805628 -15.000872
P 4.097622 -9.531440 -12.275060
P 1.371810 -9.531440 -9.549247
P 1.371810 -6.805628 -6.823435
P 4.097622 -6.805628 -9.549247
P 4.097622 -9.531440 -6.823435
P 1.371810 -9.531440 -4.097622
P 1.371810 -6.805628 -1.371810
P 4.097622 -6.805628 -4.097622
P 4.097622 -9.531440 -1.371810
P 1.371810 -9.531440 1.354003
P 1.371810 -6.805628 4.079815
P 4.097622 -6.805628 1.354003
P 4.097622 -9.531440 4.079815
P 1.371810 -9.531440 6.805628
P 1.371810 -6.805628 9.531440
P 4.097622 -6.805628 6.805628
P 1.371810 -9.531440 12.257253
P 4.097622 -6.805628 12.257253
P 1.371810 -4.079815 -20.452497
P 1.371810 -1.354003 -17.726685
P 4.097622 -1.354003 -20.452497
P 4.097622 -4.079815 -17.726685
P 1.371810 -4.079815 -15.000872
P 1.371810 -1.354003 -12.275060
P 4.097622 -1.354003 -15.000872
P 4.097622 -4.079815 -12.275060
P 1.371810 -4.079815 -9.549247
P 1.371810 -1.354003 -6.823435
P 4.097622 -1.354003 -9.549247
P 4.097622 -4.079815 -6.823435
P 1.371810 -4.079815 -4.097622
P 1.371810 -1.354003 -1.371810
P 4.097622 -1.354003 -4.097622
P 4.097622 -4.079815 -1.371810
P 1.371810 -4.079815 1.354003
P 1.371810 -1.354003 4.079815
P 4.097622 -1.354003 1.354003
P 4.097622 -4.079815 4.079815
P 1.371810 -4.079815 6.805628
P 1.371810 -1.354003 9.531440
P 4.097622 -1.354003 6.805628
P 4.097622 -4.079815 9.531440
P 1.371810 -4.079815 12.257253
P 1.371810 -1.354003 14.983065
P 4.097622 -1.354003 12.257253
P 4.097622 -4.079815 14.983065
P 1.371810 -4.079815 17.708878
P 1.371810 -1.354003 20.434690
P 4.097622 -1.354003 17.708878
P 1.371810 1.371810 -20.452497
P 1.371810 4.097622 -17.726685
P 4.097622 1.371810 -17.726685
P 1.371810 1.371810 -15.000872
P 1.371810 4.097622 -12.275060
P 4.097622 4.097622 -15.000872
P 4.097622 1.371810 -12.275060
P 1.371810 1.371810 -9.549247
P 1.371810 4.097622 -6.823435
P 4.097622 4.097622 -9.549247
P 4.097622 1.371810 -6.823435
P 1.371810 1.371810 -4.097622
P 1.371810 4.097622 -1.371810
P 4.097622 4.097622 -4.097622
P 4.097622 1.371810 -1.371810
P 1.371810 1.371810 1.354003
P 1.371810 4.097622 4.079815
P 4.097622 4.097622 1.354003
P 4.097622 1.371810 4.079815
P 1.371810 1.371810 6.805628
P 1.371810 4.097622 9.531440
P 4.097622 4.097622 6.805628
P 4.097622 1.371810 9.531440
P 1.371810 1.371810 12.257253
P 1.371810 4.097622 14.983065
P 4.097622 4.097622 12.257253
P 4.097622 1.371810 14.983065
P 1.371810 1.371810 17.708878
P 1.371810 4.097622 20.434690
P 4.097622 4.097622 17.708878
P 4.097622 1.371810 20.434690
P 1.371810 9.549247 -12.275060
P 4.097622 6.823435 -12.275060
P 1.371810 6.823435 -9.549247
P 1.371810 9.549247 -6.823435
P 4.097622 6.823435 -6.823435
P 1.371810 6.823435 -4.097622
P 1.371810 9.549247 -1.371810
P 4.097622 9.549247 -4.097622
P 4.097622 6.823435 -1.371810
P 1.371810 6.823435 1.354003
P 1.371810 9.549247 4.079815
P 4.097622 9.549247 1.354003
P 4.097622 6.823435 4.079815
P 1.371810 6.823435 6.805628
P 1.371810 9.549247 9.531440
P 4.097622 9.549247 6.805628
P 4.097622 6.823435 9.531440
P 1.371810 6.823435 12.257253
P 1.371810 9.549247 14.983065
P 4.097622 9.549247 12.257253
P 4.097622 6.823435 14.983065
P 1.371810 6.823435 17.708878
P 4.097622 6.823435 20.434690
P 1.371810 15.000872 -6.823435
P 4.097622 12.275060 -6.823435
P 1.371810 12.275060 -4.097622
P 1.371810 15.000872 -1.371810
P 4.097622 12.275060 -1.371810
P 1.371810 12.275060 1.354003
P 1.371810 15.000872 4.079815
P 4.097622 15.000872 1.354003
P 4.097622 12.275060 4.079815
P 1.371810 12.275060 6.805628
P 1.371810 15.000872 9.531440
P 4.097622 15.000872 6.805628
P 4.097622 12.275060 9.531440
P 4.097622 15.000872 12.257253
P 4.097622 12.275060 14.983065
P 1.371810 17.726685 -4.097622
P 1.371810 20.452497 -1.371810
P 4.097622 17.726685 -1.371810
P 1.371810 17.726685 1.354003
P 1.371810 20.452497 4.079815
P 4.097622 20.452497 1.354003
P 4.097622 17.726685 4.079815
P 4.097622 20.452497 6.805628
P 6.823435 -17.708878 -12.275060
P 9.549247 -17.708878 -15.000872
P 9.549247 -20.434690 -12.275060
P 6.823435 -20.434690 -9.549247
P 6.823435 -17.708878 -6.823435
P 9.549247 -17.708878 -9.549247
P 9.549247 -20.434690 -6.823435
P 6.823435 -20.434690 -4.097622
P 6.823435 -17.708878 -1.371810
P 9.549247 -17.708878 -4.097622
P 6.823435 -12.257253 -17.726685
P 9.549247 -12.257253 -20.452497
P 9.549247 -14.983065 -17.726685
P 6.823435 -12.257253 -12.275060
P 9.549247 -12.257253 -15.000872
P 9.549247 -14.983065 -12.275060
P 6.823435 -14.983065 -9.549247
P 6.823435 -12.257253 -6.823435
P 9.549247 -12.257253 -9.549247
P 9.549247 -14.983065 -6.823435
P 6.823435 -14.983065 -4.097622
P 6.823435 -12.257253 -1.371810
P 9.549247 -12.257253 -4.097622
P 6.823435 -14.983065 1.354003
P 6.823435 -12.257253 4.079815
P 9.549247 -12.257253 1.354003
P 6.823435 -9.531440 -20.452497
P 6.823435 -6.805628 -17.726685
P 9.549247 -6.805628 -20.452497
P 9.549247 -9.531440 -17.726685
P 6.823435 -9.531440 -15.000872
P 6.823435 -6.805628 -12.275060
P 9.549247 -6.805628 -15.000872
P 9.549247 -9.531440 -12.275060
P 6.823435 -9.531440 -9.549247
P 6.823435 -6.805628 -6.823435
P 9.549247 -6.805628 -9.549247
P 9.549247 -9.531440 -6.823435
P 6.823435 -9.531440 -4.097622
P 6.823435 -6.805628 -1.371810
P 9.549247 -6.805628 -4.097622
P 9.549247 -9.531440 -1.371810
P 6.823435 -9.531440 1.354003
P 6.823435 -6.805628 4.079815
P 9.549247 -6.805628 1.354003
P 9.549247 -9.531440 4.079815
P 6.823435 -9.531440 6.805628
P 6.823435 -4.079815 -20.452497
P 6.823435 -1.354003 -17.726685
P 9.549247 -4.079815 -17.726685
P 6.823435 -4.079815 -15.000872
P 6.823435 -1.354003 -12.275060
P 9.549247 -4.079815 -12.275060
P 6.823435 -4.079815 -9.549247
P 6.823435 -1.354003 -6.823435
P 9.549247 -1.354003 -9.549247
P 9.549247 -4.079815 -6.823435
P 6.823435 -4.079815 -4.097622
P 6.823435 -1.354003 -1.371810
P 9.549247 -1.354003 -4.097622
P 9.549247 -4.079815 -1.371810
P 6.823435 -4.079815 1.354003
P 6.823435 -1.354003 4.079815
P 9.549247 -1.354003 1.354003
P 9.549247 -4.079815 4.079815
P 6.823435 -4.079815 6.805628
P 6.823435 -1.354003 9.531440
P 9.549247 -1.354003 6.805628
P 9.549247 -4.079815 9.531440
P 6.823435 -4.079815 12.257253
P 6.823435 4.097622 -12.275060
P 9.549247 1.371810 -12.275060
P 6.823435 1.371810 -9.549247
P 6.823435 4.097622 -6.823435
P 9.549247 4.097622 -9.549247
P 9.549247 1.371810 -6.823435
P 6.823435 1.371810 -4.097622
P 6.823435 4.097622 -1.371810
P 9.549247 4.097622 -4.097622
P 9.549247 1.371810 -1.371810
P 6.823435 1.371810 1.354003
P 6.823435 4.097622 4.079815
P 9.549247 4.097622 1.354003
P 9.549247 1.371810 4.079815
P 6.823435 1.371810 6.805628
P 6.823435 4.097622 9.531440
P 9.549247 4.097622 6.805628
P 9.549247 1.371810 9.531440
P 6.823435 1.371810 12.257253
P 6.823435 4.097622 14.983065
P 9.549247 4.097622 12.257253
P 9.549247 1.371810 14.983065
P 6.823435 1.371810 17.708878
P 6.823435 4.097622 20.434690
P 9.549247 4.097622 17.708878
P 6.823435 9.549247 -6.823435
P 6.823435 6.823435 -4.097622
P 6.823435 9.549247 -1.371810
P 9.549247 9.549247 -4.097622
P 9.549247 6.823435 -1.371810
P 6.823435 6.823435 1.354003
P 6.823435 9.549247 4.079815
P 9.549247 9.549247 1.354003
P 9.549247 6.823435 4.079815
P 6.823435 6.823435 6.805628
P 6.823435 9.549247 9.531440
P 9.549247 9.549247 6.805628
P 9.549247 6.823435 9.531440
P 6.823435 6.823435 12.257253
P 6.823435 9.549247 14.983065
P 9.549247 9.549247 12.257253
P 9.549247 6.823435 14.983065
P 6.823435 6.823435 17.708878
P 6.823435 9.549247 20.434690
P 9.549247 9.549247 17.708878
P 9.549247 6.823435 20.434690
P 6.823435 15.000872 -1.371810
P 9.549247 12.275060 -1.371810
P 6.823435 12.275060 1.354003
P 6.823435 15.000872 4.079815
P 9.549247 12.275060 4.079815
P 6.823435 12.275060 6.805628
P 6.823435 15.000872 9.531440
P 9.549247 15.000872 6.805628
P 9.549247 12.275060 9.531440
P 6.823435 12.275060 12.257253
P 9.549247 15.000872 12.257253
P 9.549247 12.275060 14.983065
P 6.823435 12.275060 17.708878
P 9.549247 15.000872 17.708878
P 9.549247 12.275060 20.434690
P 6.823435 17.726685 1.354003
P 6.823435 20.452497 4.079815
P 9.549247 17.726685 4.079815
P 6.823435 17.726685 6.805628
P 6.823435 20.452497 9.531440
P 9.549247 20.452497 6.805628
P 9.549247 17.726685 9.531440
P 6.823435 17.726685 12.257253
P 9.549247 20.452497 12.257253
P 9.549247 17.726685 14.983065
P 12.275060 -17.708878 -12.275060
P 15.000872 -17.708878 -15.000872
P 12.275060 -20.434690 -9.549247
P 15.000872 -17.708878 -9.549247
P 12.275060 -12.257253 -17.726685
P 15.000872 -14.983065 -17.726685
P 12.275060 -14.983065 -15.000872
P 12.275060 -12.257253 -12.275060
P 15.000872 -12.257253 -15.000872
P 15.000872 -14.983065 -12.275060
P 12.275060 -14.983065 -9.549247
P 12.275060 -12.257253 -6.823435
P 15.000872 -12.257253 -9.549247
P 12.275060 -14.983065 -4.097622
P 12.275060 -12.257253 -1.371810
P 15.000872 -12.257253 -4.097622
P 12.275060 -9.531440 -20.452497
P 12.275060 -6.805628 -17.726685
P 15.000872 -9.531440 -17.726685
P 12.275060 -9.531440 -15.000872
P 12.275060 -6.805628 -12.275060
P 15.000872 -6.805628 -15.000872
P 15.000872 -9.531440 -12.275060
P 12.275060 -9.531440 -9.549247
P 12.275060 -6.805628 -6.823435
P 15.000872 -6.805628 -9.549247
P 15.000872 -9.531440 -6.823435
P 12.275060 -9.531440 -4.097622
P 12.275060 -6.805628 -1.371810
P 15.000872 -6.805628 -4.097622
P 12.275060 -6.805628 4.079815
P 15.000872 -6.805628 1.354003
P 12.275060 -1.354003 -12.275060
P 15.000872 -4.079815 -12.275060
P 12.275060 -4.079815 -9.549247
P 12.275060 -1.354003 -6.823435
P 15.000872 -4.079815 -6.823435
P 12.275060 -4.079815 -4.097622
P 12.275060 -1.354003 -1.371810
P 15.000872 -1.354003 -4.097622
P 15.000872 -4.079815 -1.371810
P 12.275060 -4.079815 1.354003
P 12.275060 -1.354003 4.079815
P 15.000872 -1.354003 1.354003
P 12.275060 -4.079815 6.805628
P 12.275060 -1.354003 9.531440
P 15.000872 -1.354003 6.805628
P 12.275060 1.371810 -9.549247
P 12.275060 4.097622 -6.823435
P 15.000872 1.371810 -6.823435
P 12.275060 1.371810 -4.097622
P 12.275060 4.097622 -1.371810
P 15.000872 1.371810 -1.371810
P 12.275060 1.371810 1.354003
P 12.275060 4.097622 4.079815
P 15.000872 4.097622 1.354003
P 15.000872 1.371810 4.079815
P 12.275060 1.371810 6.805628
P 12.275060 4.097622 9.531440
P 15.000872 4.097622 6.805628
P 12.275060 1.371810 12.257253
P 15.000872 4.097622 12.257253
P 12.275060 9.549247 -1.371810
P 15.000872 6.823435 -1.371810
P 12.275060 6.823435 1.354003
P 12.275060 9.549247 4.079815
P 15.000872 6.823435 4.079815
P 12.275060 6.823435 6.805628
P 12.275060 9.549247 9.531440
P 15.000872 9.549247 6.805628
P 15.000872 6.823435 9.531440
P 12.275060 6.823435 12.257253
P 12.275060 9.549247 14.983065
P 15.000872 9.549247 12.257253
P 15.000872 6.823435 14.983065
P 12.275060 6.823435 17.708878
P 12.275060 9.549247 20.434690
P 15.000872 9.549247 17.708878
P 12.275060 15.000872 4.079815
P 15.000872 12.275060 4.079815
P 12.275060 12.275060 6.805628
P 12.275060 15.000872 9.531440
P 15.000872 15.000872 6.805628
P 15.000872 12.275060 9.531440
P 12.275060 12.275060 12.257253
P 12.275060 15.000872 14.983065
P 15.000872 15.000872 12.257253
P 15.000872 12.275060 14.983065
P 12.275060 12.275060 17.708878
P 15.000872 15.000872 17.708878
P 12.275060 20.452497 9.531440
P 15.000872 17.726685 9.531440
P 12.275060 17.726685 12.257253
P 15.000872 17.726685 14.983065
P 17.726685 -14.983065 -15.000872
P 17.726685 -12.257253 -12.275060
P 17.726685 -14.983065 -9.549247
P 17.726685 -12.257253 -6.823435
P 20.452497 -12.257253 -9.549247
P 17.726685 -9.531440 -15.000872
P 20.452497 -9.531440 -12.275060
P 17.726685 -9.531440 -9.549247
P 17.726685 -6.805628 -6.823435
P 20.452497 -6.805628 -9.549247
P 17.726685 -9.531440 -4.097622
P 17.726685 -6.805628 -1.371810
P 20.452497 -6.805628 -4.097622
P 17.726685 -4.079815 -9.549247
P 17.726685 -1.354003 -6.823435
P 17.726685 -4.079815 -4.097622
P 17.726685 -1.354003 -1.371810
P 20.452497 -1.354003 -4.097622
P 17.726685 -4.079815 1.354003
P 17.726685 -1.354003 4.079815
P 20.452497 -1.354003 1.354003
P 17.726685 1.371810 -4.097622
P 17.726685 4.097622 -1.371810
P 20.452497 1.371810 -1.371810
P 17.726685 1.371810 1.354003
P 17.726685 4.097622 4.079815
P 20.452497 4.097622 1.354003
P 17.726685 1.371810 6.805628
P 17.726685 4.097622 9.531440
P 20.452497 4.097622 6.805628
P 17.726685 9.549247 4.079815
P 20.452497 6.823435 4.079815
P 17.726685 6.823435 6.805628
P 17.726685 9.549247 9.531440
P 20.452497 9.549247 6.805628
P 20.452497 6.823435 9.531440
P 17.726685 9.549247 14.983065
P 20.452497 9.549247 12.257253
P 17.726685 15.000872 9.531440
P 20.452497 12.275060 9.531440
P 17.726685 12.275060 12.257253
P 17.726685 15.000872 14.983065
Cl -23.160503 -12.257253 12.257253
Cl -23.160503 -6.805628 6.805628
Cl -23.160503 -9.531440 9.531440
Cl -23.160503 -1.354003 1.354003
Cl -23.160503 -4.079815 4.079815
Cl -23.160503 4.097622 -4.097622
Cl -23.160503 1.371810 -1.371810
Cl -23.160503 9.549247 -9.549247
Cl -23.160503 6.823435 -6.823435
Cl -23.160503 12.275060 -12.275060
Cl -17.708878 -17.708878 12.257253
Cl -17.708878 -12.257253 6.805628
Cl -20.434690 -14.983065 12.257253
Cl -20.434690 -12.257253 14.983065
Cl -17.708878 -12.257253 17.708878
Cl -20.434690 -6.805628 4.079815
Cl -17.708878 -6.805628 12.257253
Cl -20.434690 1.371810 -4.097622
Cl -17.708878 6.823435 -12.275060
Cl -17.708878 12.275060 -17.726685
Cl -20.434690 12.275060 -15.000872
Cl -20.434690 15.000872 -12.275060
Cl -17.708878 12.275060 -6.823435
Cl -17.708878 17.726685 -12.275060
Cl -12.257253 -23.160503 12.257253
Cl -12.257253 -17.708878 6.805628
Cl -14.983065 -20.434690 12.257253
Cl -12.257253 -20.434690 14.983065
Cl -12.257253 -17.708878 17.708878
Cl -14.983065 -12.257253 20.434690
Cl -12.257253 -14.983065 20.434690
Cl -12.257253 -12.257253 23.160503
Cl -12.257253 -9.531440 -1.371810
Cl -14.983065 -9.531440 1.354003
Cl -12.257253 -1.354003 -9.549247
Cl -14.983065 -4.079815 -4.097622
Cl -14.983065 -1.354003 9.531440
Cl -12.257253 -4.079815 14.983065
Cl -12.257253 4.097622 -15.000872
Cl -14.983065 1.371810 -9.549247
Cl -14.983065 4.097622 4.079815
Cl -12.257253 4.097622 6.805628
Cl -14.983065 9.549247 -1.371810
Cl -12.257253 9.549247 1.354003
Cl -12.257253 12.275060 -23.178310
Cl -14.983065 12.275060 -20.452497
Cl -12.257253 15.000872 -20.452497
Cl -14.983065 15.000872 -6.823435
Cl -12.257253 17.726685 -17.726685
Cl -14.983065 20.452497 -12.275060
Cl -12.257253 20.452497 -15.000872
Cl -12.257253 17.726685 -6.823435
Cl -12.257253 23.178310 -12.275060
Cl -9.531440 -23.160503 9.531440
Cl -6.805628 -23.160503 6.805628
Cl -6.805628 -17.708878 1.354003
Cl -9.531440 -14.983065 1.354003
Cl -6.805628 -14.983065 14.983065
Cl -9.531440 -14.983065 17.708878
Cl -9.531440 -6.805628 -6.823435
Cl -6.805628 -9.531440 -6.823435
Cl -9.531440 -9.531440 23.160503
Cl -6.805628 -6.805628 23.160503
Cl -9.531440 -1.354003 -12.275060
Cl -6.805628 -1.354003 -15.000872
Cl -9.531440 -4.079815 17.708878
Cl -9.531440 4.097622 -17.726685
Cl -9.531440 1.371810 12.257253
Cl -6.805628 1.371810 14.983065
Cl -9.531440 9.549247 -23.178310
Cl -6.805628 6.823435 -23.178310
Cl -9.531440 6.823435 6.805628
Cl -6.805628 15.000872 -15.000872
Cl -9.531440 15.000872 -1.371810
Cl -9.531440 23.178310 -9.549247
Cl -6.805628 23.178310 -6.823435
Cl -4.079815 -23.160503 4.079815
Cl -1.354003 -23.160503 1.354003
Cl -1.354003 -17.708878 6.805628
Cl -4.079815 -14.983065 -4.097622
Cl -1.354003 -12.257253 12.257253
Cl -1.354003 -9.531440 -12.275060
Cl -4.079815 -9.531440 -9.549247
Cl -4.079815 -9.531440 17.708878
Cl -1.354003 -4.079815 -17.726685
Cl -4.079815 -4.079815 23.160503
Cl -1.354003 -1.354003 23.160503
Cl -4.079815 4.097622 -23.178310
Cl -1.354003 1.371810 -23.178310
Cl -4.079815 9.549247 -17.726685
Cl -4.079815 9.549247 9.531440
Cl -1.354003 6.823435 14.983065
Cl -1.354003 12.275060 -12.275060
Cl -4.079815 15.000872 4.079815
Cl -1.354003 15.000872 6.805628
Cl -1.354003 17.726685 -6.823435
Cl -4.079815 23.178310 -4.097622
Cl -1.354003 23.178310 -1.371810
Cl 1.371810 -23.160503 -1.371810
Cl 4.097622 -23.160503 -4.097622
Cl 1.371810 -17.708878 -6.823435
Cl 4.097622 -17.708878 -9.549247
Cl 1.371810 -12.257253 -12.275060
Cl 4.097622 -14.983065 4.079815
Cl 1.371810 -12.257253 9.531440
Cl 4.097622 -9.531440 -17.726685
Cl 4.097622 -9.531440 9.531440
Cl 1.371810 -6.805628 14.983065
Cl 1.371810 -1.354003 -23.178310
Cl 4.097622 -4.079815 -23.178310
Cl 1.371810 1.371810 23.160503
Cl 4.097622 4.097622 23.160503
Cl 1.371810 6.823435 -15.000872
Cl 4.097622 9.549247 -9.549247
Cl 4.097622 9.549247 17.708878
Cl 1.371810 12.275060 -9.549247
Cl 4.097622 15.000872 -4.097622
Cl 1.371810 12.275060 12.257253
Cl 1.371810 17.726685 6.805628
Cl 4.097622 17.726685 9.531440
Cl 1.371810 23.178310 1.354003
Cl 4.097622 23.178310 4.079815
Cl 6.823435 -23.160503 -6.823435
Cl 9.549247 -23.160503 -9.549247
Cl 6.823435 -14.983065 -15.000872
Cl 9.549247 -14.983065 -1.371810
Cl 6.823435 -6.805628 -23.178310
Cl 9.549247 -9.531440 -23.178310
Cl 6.823435 -6.805628 9.531440
Cl 9.549247 -6.805628 6.805628
Cl 9.549247 -1.354003 -15.000872
Cl 6.823435 -1.354003 14.983065
Cl 9.549247 -1.354003 12.257253
Cl 6.823435 1.371810 -15.000872
Cl 6.823435 6.823435 -9.549247
Cl 9.549247 6.823435 -6.823435
Cl 6.823435 6.823435 23.160503
Cl 9.549247 9.549247 23.160503
Cl 6.823435 12.275060 -4.097622
Cl 9.549247 15.000872 1.354003
Cl 6.823435 15.000872 14.983065
Cl 6.823435 23.178310 6.805628
Cl 9.549247 23.178310 9.531440
Cl 12.275060 -23.160503 -12.275060
Cl 12.275060 -17.708878 -17.726685
Cl 12.275060 -20.434690 -15.000872
Cl 15.000872 -20.434690 -12.275060
Cl 12.275060 -17.708878 -6.823435
Cl 12.275060 -12.257253 -23.178310
Cl 12.275060 -14.983065 -20.452497
Cl 15.000872 -12.257253 -20.452497
Cl 15.000872 -14.983065 -6.823435
Cl 15.000872 -9.531440 -1.371810
Cl 12.275060 -9.531440 1.354003
Cl 12.275060 -4.079815 -15.000872
Cl 15.000872 -1.354003 -9.549247
Cl 15.000872 -4.079815 4.079815
Cl 15.000872 4.097622 -4.097622
Cl 15.000872 1.371810 9.531440
Cl 12.275060 4.097622 14.983065
Cl 12.275060 6.823435 -4.097622
Cl 15.000872 9.549247 1.354003
Cl 12.275060 12.275060 1.354003
Cl 12.275060 15.000872 20.434690
Cl 15.000872 12.275060 20.434690
Cl 12.275060 12.275060 23.160503
Cl 12.275060 17.726685 6.805628
Cl 12.275060 20.452497 14.983065
Cl 15.000872 20.452497 12.257253
Cl 12.275060 17.726685 17.708878
Cl 12.275060 23.178310 12.257253
Cl 17.726685 -17.708878 -12.275060
Cl 17.726685 -12.257253 -17.726685
Cl 20.452497 -12.257253 -15.000872
Cl 20.452497 -14.983065 -12.275060
Cl 17.726685 -6.805628 -12.275060
Cl 20.452497 -9.531440 -6.823435
Cl 20.452497 -4.079815 -6.823435
Cl 20.452497 -4.079815 -1.371810
Cl 20.452497 1.371810 4.079815
Cl 17.726685 6.823435 1.354003
Cl 17.726685 6.823435 12.257253
Cl 17.726685 12.275060 6.805628
Cl 20.452497 15.000872 12.257253
Cl 20.452497 12.275060 14.983065
Cl 17.726685 12.275060 17.708878
Cl 17.726685 17.726685 12.257253
Cl 23.178310 -12.257253 -12.275060
Cl 23.178310 -9.531440 -9.549247
Cl 23.178310 -6.805628 -6.823435
Cl 23.178310 -4.079815 -4.097622
Cl 23.178310 -1.354003 -1.371810
Cl 23.178310 1.371810 1.354003
Cl 23.178310 4.097622 4.079815
Cl 23.178310 6.823435 6.805628
Cl 23.178310 9.549247 9.531440
Cl 23.178310 12.275060 12.257253
Cl -17.708878 -17.708878 17.708878
