7665
ZnS-Zn-Zn3739S3552Cl374-clean
Zn -29.623835 -18.853672 -0.000000
Zn -29.623835 -13.466306 -5.387366
Zn -29.623835 -16.159989 -2.693683
Zn -29.623835 -13.466306 -0.000000
Zn -29.623835 -16.159989 2.693683
Zn -29.623835 -13.466306 5.387366
Zn -29.623835 -8.078940 -10.774732
Zn -29.623835 -10.772623 -8.081049
Zn -29.623835 -8.078940 -5.387366
Zn -29.623835 -10.772623 -2.693683
Zn -29.623835 -8.078940 -0.000000
Zn -29.623835 -10.772623 2.693683
Zn -29.623835 -8.078940 5.387366
Zn -29.623835 -10.772623 8.081049
Zn -29.623835 -8.078940 10.774731
Zn -29.623835 -2.691574 -16.162097
Zn -29.623835 -5.385257 -13.468414
Zn -29.623835 -2.691574 -10.774732
Zn -29.623835 -5.385257 -8.081049
Zn -29.623835 -2.691574 -5.387366
Zn -29.623835 -5.385257 -2.693683
Zn -29.623835 -2.691574 -0.000000
Zn -29.623835 -5.385257 2.693683
Zn -29.623835 -2.691574 5.387366
Zn -29.623835 -5.385257 8.081049
Zn -29.623835 -2.691574 10.774731
Zn -29.623835 -5.385257 13.468414
Zn -29.623835 -2.691574 16.162097
Zn -29.623835 0.002109 -18.855780
Zn -29.623835 2.695791 -16.162097
Zn -29.623835 0.002109 -13.468414
Zn -29.623835 2.695791 -10.774732
Zn -29.623835 0.002109 -8.081049
Zn -29.623835 2.695791 -5.387366
Zn -29.623835 0.002109 -2.693683
Zn -29.623835 2.695791 -0.000000
Zn -29.623835 0.002109 2.693683
Zn -29.623835 2.695791 5.387366
Zn -29.623835 0.002109 8.081049
Zn -29.623835 2.695791 10.774731
Zn -29.623835 0.002109 13.468414
Zn -29.623835 2.695791 16.162097
Zn -29.623835 0.002109 18.855780
Zn -29.623835 5.389474 -13.468414
Zn -29.623835 8.083157 -10.774732
Zn -29.623835 5.389474 -8.081049
Zn -29.623835 8.083157 -5.387366
Zn -29.623835 5.389474 -2.693683
Zn -29.623835 8.083157 -0.000000
Zn -29.623835 5.389474 2.693683
Zn -29.623835 8.083157 5.387366
Zn -29.623835 5.389474 8.081049
Zn -29.623835 8.083157 10.774731
Zn -29.623835 5.389474 13.468414
Zn -29.623835 10.776840 -8.081049
Zn -29.623835 13.470523 -5.387366
Zn -29.623835 10.776840 -2.693683
Zn -29.623835 13.470523 -0.000000
Zn -29.623835 10.776840 2.693683
Zn -29.623835 13.470523 5.387366
Zn -29.623835 10.776840 8.081049
Zn -29.623835 16.164206 -2.693683
Zn -29.623835 18.857889 -0.000000
Zn -29.623835 16.164206 2.693683
Zn -24.236469 -24.241037 -0.000000
Zn -24.236469 -18.853672 -5.387366
Zn -24.236469 -21.547354 -2.693683
Zn -26.930152 -18.853672 -2.693683
Zn -26.930152 -21.547354 -0.000000
Zn -24.236469 -18.853672 -0.000000
Zn -24.236469 -21.547354 2.693683
Zn -26.930152 -18.853672 2.693683
Zn -24.236469 -18.853672 5.387366
Zn -24.236469 -13.466306 -10.774732
Zn -24.236469 -16.159989 -8.081049
Zn -26.930152 -13.466306 -8.081049
Zn -26.930152 -16.159989 -5.387366
Zn -24.236469 -13.466306 -5.387366
Zn -24.236469 -16.159989 -2.693683
Zn -26.930152 -13.466306 -2.693683
Zn -26.930152 -16.159989 -0.000000
Zn -24.236469 -13.466306 -0.000000
Zn -24.236469 -16.159989 2.693683
Zn -26.930152 -13.466306 2.693683
Zn -26.930152 -16.159989 5.387366
Zn -24.236469 -13.466306 5.387366
Zn -24.236469 -16.159989 8.081049
Zn -26.930152 -13.466306 8.081049
Zn -24.236469 -13.466306 10.774731
Zn -24.236469 -8.078940 -16.162097
Zn -24.236469 -10.772623 -13.468414
Zn -26.930152 -8.078940 -13.468414
Zn -26.930152 -10.772623 -10.774732
Zn -24.236469 -8.078940 -10.774732
Zn -24.236469 -10.772623 -8.081049
Zn -26.930152 -8.078940 -8.081049
Zn -26.930152 -10.772623 -5.387366
Zn -24.236469 -8.078940 -5.387366
Zn -24.236469 -10.772623 -2.693683
Zn -26.930152 -8.078940 -2.693683
Zn -26.930152 -10.772623 -0.000000
Zn -24.236469 -8.078940 -0.000000
Zn -24.236469 -10.772623 2.693683
Zn -26.930152 -8.078940 2.693683
Zn -26.930152 -10.772623 5.387366
Zn -24.236469 -8.078940 5.387366
Zn -24.236469 -10.772623 8.081049
Zn -26.930152 -8.078940 8.081049
Zn -26.930152 -10.772623 10.774731
Zn -24.236469 -8.078940 10.774731
Zn -24.236469 -10.772623 13.468414
Zn -26.930152 -8.078940 13.468414
Zn -24.236469 -8.078940 16.162097
Zn -24.236469 -2.691574 -21.549463
Zn -24.236469 -5.385257 -18.855780
Zn -26.930152 -2.691574 -18.855780
Zn -26.930152 -5.385257 -16.162097
Zn -24.236469 -2.691574 -16.162097
Zn -24.236469 -5.385257 -13.468414
Zn -26.930152 -2.691574 -13.468414
Zn -26.930152 -5.385257 -10.774732
Zn -24.236469 -2.691574 -10.774732
Zn -24.236469 -5.385257 -8.081049
Zn -26.930152 -2.691574 -8.081049
Zn -26.930152 -5.385257 -5.387366
Zn -24.236469 -2.691574 -5.387366
Zn -24.236469 -5.385257 -2.693683
Zn -26.930152 -2.691574 -2.693683
Zn -26.930152 -5.385257 -0.000000
Zn -24.236469 -2.691574 -0.000000
Zn -24.236469 -5.385257 2.693683
Zn -26.930152 -2.691574 2.693683
Zn -26.930152 -5.385257 5.387366
Zn -24.236469 -2.691574 5.387366
Zn -24.236469 -5.385257 8.081049
Zn -26.930152 -2.691574 8.081049
Zn -26.930152 -5.385257 10.774731
Zn -24.236469 -2.691574 10.774731
Zn -24.236469 -5.385257 13.468414
Zn -26.930152 -2.691574 13.468414
Zn -26.930152 -5.385257 16.162097
Zn -24.236469 -2.691574 16.162097
Zn -24.236469 -5.385257 18.855780
Zn -26.930152 -2.691574 18.855780
Zn -24.236469 -2.691574 21.549463
Zn -24.236469 0.002109 -24.243146
Zn -26.930152 0.002109 -21.549463
Zn -24.236469 2.695791 -21.549463
Zn -24.236469 0.002109 -18.855780
Zn -26.930152 2.695791 -18.855780
Zn -26.930152 0.002109 -16.162097
Zn -24.236469 2.695791 -16.162097
Zn -24.236469 0.002109 -13.468414
Zn -26.930152 2.695791 -13.468414
Zn -26.930152 0.002109 -10.774732
Zn -24.236469 2.695791 -10.774732
Zn -24.236469 0.002109 -8.081049
Zn -26.930152 2.695791 -8.081049
Zn -26.930152 0.002109 -5.387366
Zn -24.236469 2.695791 -5.387366
Zn -24.236469 0.002109 -2.693683
Zn -26.930152 2.695791 -2.693683
Zn -26.930152 0.002109 -0.000000
Zn -24.236469 2.695791 -0.000000
Zn -24.236469 0.002109 2.693683
Zn -26.930152 2.695791 2.693683
Zn -26.930152 0.002109 5.387366
Zn -24.236469 2.695791 5.387366
Zn -24.236469 0.002109 8.081049
Zn -26.930152 2.695791 8.081049
Zn -26.930152 0.002109 10.774731
Zn -24.236469 2.695791 10.774731
Zn -24.236469 0.002109 13.468414
Zn -26.930152 2.695791 13.468414
Zn -26.930152 0.002109 16.162097
Zn -24.236469 2.695791 16.162097
Zn -24.236469 0.002109 18.855780
Zn -26.930152 2.695791 18.855780
Zn -26.930152 0.002109 21.549463
Zn -24.236469 2.695791 21.549463
Zn -24.236469 0.002109 24.243146
Zn -24.236469 5.389474 -18.855780
Zn -26.930152 5.389474 -16.162097
Zn -24.236469 8.083157 -16.162097
Zn -24.236469 5.389474 -13.468414
Zn -26.930152 8.083157 -13.468414
Zn -26.930152 5.389474 -10.774732
Zn -24.236469 8.083157 -10.774732
Zn -24.236469 5.389474 -8.081049
Zn -26.930152 8.083157 -8.081049
Zn -26.930152 5.389474 -5.387366
Zn -24.236469 8.083157 -5.387366
Zn -24.236469 5.389474 -2.693683
Zn -26.930152 8.083157 -2.693683
Zn -26.930152 5.389474 -0.000000
Zn -24.236469 8.083157 -0.000000
Zn -24.236469 5.389474 2.693683
Zn -26.930152 8.083157 2.693683
Zn -26.930152 5.389474 5.387366
Zn -24.236469 8.083157 5.387366
Zn -24.236469 5.389474 8.081049
Zn -26.930152 8.083157 8.081049
Zn -26.930152 5.389474 10.774731
Zn -24.236469 8.083157 10.774731
Zn -24.236469 5.389474 13.468414
Zn -26.930152 8.083157 13.468414
Zn -26.930152 5.389474 16.162097
Zn -24.236469 8.083157 16.162097
Zn -24.236469 5.389474 18.855780
Zn -24.236469 10.776840 -13.468414
Zn -26.930152 10.776840 -10.774732
Zn -24.236469 13.470523 -10.774732
Zn -24.236469 10.776840 -8.081049
Zn -26.930152 13.470523 -8.081049
Zn -26.930152 10.776840 -5.387366
Zn -24.236469 13.470523 -5.387366
Zn -24.236469 10.776840 -2.693683
Zn -26.930152 13.470523 -2.693683
Zn -26.930152 10.776840 -0.000000
Zn -24.236469 13.470523 -0.000000
Zn -24.236469 10.776840 2.693683
Zn -26.930152 13.470523 2.693683
Zn -26.930152 10.776840 5.387366
Zn -24.236469 13.470523 5.387366
Zn -24.236469 10.776840 8.081049
Zn -26.930152 13.470523 8.081049
Zn -26.930152 10.776840 10.774731
Zn -24.236469 13.470523 10.774731
Zn -24.236469 10.776840 13.468414
Zn -24.236469 16.164206 -8.081049
Zn -26.930152 16.164206 -5.387366
Zn -24.236469 18.857889 -5.387366
Zn -24.236469 16.164206 -2.693683
Zn -26.930152 18.857889 -2.693683
Zn -26.930152 16.164206 -0.000000
Zn -24.236469 18.857889 -0.000000
Zn -24.236469 16.164206 2.693683
Zn -26.930152 18.857889 2.693683
Zn -26.930152 16.164206 5.387366
Zn -24.236469 18.857889 5.387366
Zn -24.236469 16.164206 8.081049
Zn -24.236469 21.551572 -2.693683
Zn -26.930152 21.551572 -0.000000
Zn -24.236469 24.245254 -0.000000
Zn -24.236469 21.551572 2.693683
Zn -18.849103 -29.628403 -0.000000
Zn -18.849103 -24.241037 -5.387366
Zn -18.849103 -26.934720 -2.693683
Zn -21.542786 -24.241037 -2.693683
Zn -21.542786 -26.934720 -0.000000
Zn -18.849103 -24.241037 -0.000000
Zn -18.849103 -26.934720 2.693683
Zn -21.542786 -24.241037 2.693683
Zn -18.849103 -24.241037 5.387366
Zn -18.849103 -18.853672 -10.774732
Zn -18.849103 -21.547354 -8.081049
Zn -21.542786 -18.853672 -8.081049
Zn -21.542786 -21.547354 -5.387366
Zn -18.849103 -18.853672 -5.387366
Zn -18.849103 -21.547354 -2.693683
Zn -21.542786 -18.853672 -2.693683
Zn -21.542786 -21.547354 -0.000000
Zn -18.849103 -18.853672 -0.000000
Zn -18.849103 -21.547354 2.693683
Zn -21.542786 -18.853672 2.693683
Zn -21.542786 -21.547354 5.387366
Zn -18.849103 -18.853672 5.387366
Zn -18.849103 -21.547354 8.081049
Zn -21.542786 -18.853672 8.081049
Zn -18.849103 -18.853672 10.774731
Zn -18.849103 -13.466306 -16.162097
Zn -18.849103 -16.159989 -13.468414
Zn -21.542786 -13.466306 -13.468414
Zn -21.542786 -16.159989 -10.774732
Zn -18.849103 -13.466306 -10.774732
Zn -18.849103 -16.159989 -8.081049
Zn -21.542786 -13.466306 -8.081049
Zn -21.542786 -16.159989 -5.387366
Zn -18.849103 -13.466306 -5.387366
Zn -18.849103 -16.159989 -2.693683
Zn -21.542786 -13.466306 -2.693683
Zn -21.542786 -16.159989 -0.000000
Zn -18.849103 -13.466306 -0.000000
Zn -18.849103 -16.159989 2.693683
Zn -21.542786 -13.466306 2.693683
Zn -21.542786 -16.159989 5.387366
Zn -18.849103 -13.466306 5.387366
Zn -18.849103 -16.159989 8.081049
Zn -21.542786 -13.466306 8.081049
Zn -21.542786 -16.159989 10.774731
Zn -18.849103 -13.466306 10.774731
Zn -18.849103 -16.159989 13.468414
Zn -21.542786 -13.466306 13.468414
Zn -18.849103 -13.466306 16.162097
Zn -18.849103 -8.078940 -21.549463
Zn -18.849103 -10.772623 -18.855780
Zn -21.542786 -8.078940 -18.855780
Zn -21.542786 -10.772623 -16.162097
Zn -18.849103 -8.078940 -16.162097
Zn -18.849103 -10.772623 -13.468414
Zn -21.542786 -8.078940 -13.468414
Zn -21.542786 -10.772623 -10.774732
Zn -18.849103 -8.078940 -10.774732
Zn -18.849103 -10.772623 -8.081049
Zn -21.542786 -8.078940 -8.081049
Zn -21.542786 -10.772623 -5.387366
Zn -18.849103 -8.078940 -5.387366
Zn -18.849103 -10.772623 -2.693683
Zn -21.542786 -8.078940 -2.693683
Zn -21.542786 -10.772623 -0.000000
Zn -18.849103 -8.078940 -0.000000
Zn -18.849103 -10.772623 2.693683
Zn -21.542786 -8.078940 2.693683
Zn -21.542786 -10.772623 5.387366
Zn -18.849103 -8.078940 5.387366
Zn -18.849103 -10.772623 8.081049
Zn -21.542786 -8.078940 8.081049
Zn -21.542786 -10.772623 10.774731
Zn -18.849103 -8.078940 10.774731
Zn -18.849103 -10.772623 13.468414
Zn -21.542786 -8.078940 13.468414
Zn -21.542786 -10.772623 16.162097
Zn -18.849103 -8.078940 16.162097
Zn -18.849103 -10.772623 18.855780
Zn -21.542786 -8.078940 18.855780
Zn -18.849103 -8.078940 21.549463
Zn -18.849103 -2.691574 -26.936829
Zn -18.849103 -5.385257 -24.243146
Zn -21.542786 -2.691574 -24.243146
Zn -21.542786 -5.385257 -21.549463
Zn -18.849103 -2.691574 -21.549463
Zn -18.849103 -5.385257 -18.855780
Zn -21.542786 -2.691574 -18.855780
Zn -21.542786 -5.385257 -16.162097
Zn -18.849103 -2.691574 -16.162097
Zn -18.849103 -5.385257 -13.468414
Zn -21.542786 -2.691574 -13.468414
Zn -21.542786 -5.385257 -10.774732
Zn -18.849103 -2.691574 -10.774732
Zn -18.849103 -5.385257 -8.081049
Zn -21.542786 -2.691574 -8.081049
Zn -21.542786 -5.385257 -5.387366
Zn -18.849103 -2.691574 -5.387366
Zn -18.849103 -5.385257 -2.693683
Zn -21.542786 -2.691574 -2.693683
Zn -21.542786 -5.385257 -0.000000
Zn -18.849103 -2.691574 -0.000000
Zn -18.849103 -5.385257 2.693683
Zn -21.542786 -2.691574 2.693683
Zn -21.542786 -5.385257 5.387366
Zn -18.849103 -2.691574 5.387366
Zn -18.849103 -5.385257 8.081049
Zn -21.542786 -2.691574 8.081049
Zn -21.542786 -5.385257 10.774731
Zn -18.849103 -2.691574 10.774731
Zn -18.849103 -5.385257 13.468414
Zn -21.542786 -2.691574 13.468414
Zn -21.542786 -5.385257 16.162097
Zn -18.849103 -2.691574 16.162097
Zn -18.849103 -5.385257 18.855780
Zn -21.542786 -2.691574 18.855780
Zn -21.542786 -5.385257 21.549463
Zn -18.849103 -2.691574 21.549463
Zn -18.849103 -5.385257 24.243146
Zn -21.542786 -2.691574 24.243146
Zn -18.849103 -2.691574 26.936829
Zn -18.849103 0.002109 -29.630512
Zn -21.542786 0.002109 -26.936829
Zn -18.849103 2.695791 -26.936829
Zn -18.849103 0.002109 -24.243146
Zn -21.542786 2.695791 -24.243146
Zn -21.542786 0.002109 -21.549463
Zn -18.849103 2.695791 -21.549463
Zn -18.849103 0.002109 -18.855780
Zn -21.542786 2.695791 -18.855780
Zn -21.542786 0.002109 -16.162097
Zn -18.849103 2.695791 -16.162097
Zn -18.849103 0.002109 -13.468414
Zn -21.542786 2.695791 -13.468414
Zn -21.542786 0.002109 -10.774732
Zn -18.849103 2.695791 -10.774732
Zn -18.849103 0.002109 -8.081049
Zn -21.542786 2.695791 -8.081049
Zn -21.542786 0.002109 -5.387366
Zn -18.849103 2.695791 -5.387366
Zn -18.849103 0.002109 -2.693683
Zn -21.542786 2.695791 -2.693683
Zn -21.542786 0.002109 -0.000000
Zn -18.849103 2.695791 -0.000000
Zn -18.849103 0.002109 2.693683
Zn -21.542786 2.695791 2.693683
Zn -21.542786 0.002109 5.387366
Zn -18.849103 2.695791 5.387366
Zn -18.849103 0.002109 8.081049
Zn -21.542786 2.695791 8.081049
Zn -21.542786 0.002109 10.774731
Zn -18.849103 2.695791 10.774731
Zn -18.849103 0.002109 13.468414
Zn -21.542786 2.695791 13.468414
Zn -21.542786 0.002109 16.162097
Zn -18.849103 2.695791 16.162097
Zn -18.849103 0.002109 18.855780
Zn -21.542786 2.695791 18.855780
Zn -21.542786 0.002109 21.549463
Zn -18.849103 2.695791 21.549463
Zn -18.849103 0.002109 24.243146
Zn -21.542786 2.695791 24.243146
Zn -21.542786 0.002109 26.936829
Zn -18.849103 2.695791 26.936829
Zn -18.849103 0.002109 29.630512
Zn -18.849103 5.389474 -24.243146
Zn -21.542786 5.389474 -21.549463
Zn -18.849103 8.083157 -21.549463
Zn -18.849103 5.389474 -18.855780
Zn -21.542786 8.083157 -18.855780
Zn -21.542786 5.389474 -16.162097
Zn -18.849103 8.083157 -16.162097
Zn -18.849103 5.389474 -13.468414
Zn -21.542786 8.083157 -13.468414
Zn -21.542786 5.389474 -10.774732
Zn -18.849103 8.083157 -10.774732
Zn -18.849103 5.389474 -8.081049
Zn -21.542786 8.083157 -8.081049
Zn -21.542786 5.389474 -5.387366
Zn -18.849103 8.083157 -5.387366
Zn -18.849103 5.389474 -2.693683
Zn -21.542786 8.083157 -2.693683
Zn -21.542786 5.389474 -0.000000
Zn -18.849103 8.083157 -0.000000
Zn -18.849103 5.389474 2.693683
Zn -21.542786 8.083157 2.693683
Zn -21.542786 5.389474 5.387366
Zn -18.849103 8.083157 5.387366
Zn -18.849103 5.389474 8.081049
Zn -21.542786 8.083157 8.081049
Zn -21.542786 5.389474 10.774731
Zn -18.849103 8.083157 10.774731
Zn -18.849103 5.389474 13.468414
Zn -21.542786 8.083157 13.468414
Zn -21.542786 5.389474 16.162097
Zn -18.849103 8.083157 16.162097
Zn -18.849103 5.389474 18.855780
Zn -21.542786 8.083157 18.855780
Zn -21.542786 5.389474 21.549463
Zn -18.849103 8.083157 21.549463
Zn -18.849103 5.389474 24.243146
Zn -18.849103 10.776840 -18.855780
Zn -21.542786 10.776840 -16.162097
Zn -18.849103 13.470523 -16.162097
Zn -18.849103 10.776840 -13.468414
Zn -21.542786 13.470523 -13.468414
Zn -21.542786 10.776840 -10.774731
Zn -18.849103 13.470523 -10.774731
Zn -18.849103 10.776840 -8.081049
Zn -21.542786 13.470523 -8.081049
Zn -21.542786 10.776840 -5.387366
Zn -18.849103 13.470523 -5.387366
Zn -18.849103 10.776840 -2.693683
Zn -21.542786 13.470523 -2.693683
Zn -21.542786 10.776840 -0.000000
Zn -18.849103 13.470523 -0.000000
Zn -18.849103 10.776840 2.693683
Zn -21.542786 13.470523 2.693683
Zn -21.542786 10.776840 5.387366
Zn -18.849103 13.470523 5.387366
Zn -18.849103 10.776840 8.081049
Zn -21.542786 13.470523 8.081049
Zn -21.542786 10.776840 10.774731
Zn -18.849103 13.470523 10.774731
Zn -18.849103 10.776840 13.468414
Zn -21.542786 13.470523 13.468414
Zn -21.542786 10.776840 16.162097
Zn -18.849103 13.470523 16.162097
Zn -18.849103 10.776840 18.855780
Zn -18.849103 16.164206 -13.468414
Zn -21.542786 16.164206 -10.774731
Zn -18.849103 18.857889 -10.774731
Zn -18.849103 16.164206 -8.081049
Zn -21.542786 18.857889 -8.081049
Zn -21.542786 16.164206 -5.387366
Zn -18.849103 18.857889 -5.387366
Zn -18.849103 16.164206 -2.693683
Zn -21.542786 18.857889 -2.693683
Zn -21.542786 16.164206 -0.000000
Zn -18.849103 18.857889 -0.000000
Zn -18.849103 16.164206 2.693683
Zn -21.542786 18.857889 2.693683
Zn -21.542786 16.164206 5.387366
Zn -18.849103 18.857889 5.387366
Zn -18.849103 16.164206 8.081049
Zn -21.542786 18.857889 8.081049
Zn -21.542786 16.164206 10.774731
Zn -18.849103 18.857889 10.774731
Zn -18.849103 16.164206 13.468414
Zn -18.849103 21.551572 -8.081049
Zn -21.542786 21.551572 -5.387366
Zn -18.849103 24.245254 -5.387366
Zn -18.849103 21.551572 -2.693683
Zn -21.542786 24.245254 -2.693683
Zn -21.542786 21.551572 -0.000000
Zn -18.849103 24.245254 -0.000000
Zn -18.849103 21.551572 2.693683
Zn -21.542786 24.245254 2.693683
Zn -21.542786 21.551572 5.387366
Zn -18.849103 24.245254 5.387366
Zn -18.849103 21.551572 8.081049
Zn -18.849103 26.938937 -2.693683
Zn -21.542786 26.938937 -0.000000
Zn -18.849103 29.632620 0.000000
Zn -18.849103 26.938937 2.693683
Zn -13.461737 -29.628403 -5.387366
Zn -16.155420 -29.628403 -2.693683
Zn -13.461737 -29.628403 -0.000000
Zn -16.155420 -29.628403 2.693683
Zn -13.461737 -29.628403 5.387366
Zn -13.461737 -24.241037 -10.774732
Zn -13.461737 -26.934720 -8.081049
Zn -16.155420 -24.241037 -8.081049
Zn -16.155420 -26.934720 -5.387366
Zn -13.461737 -24.241037 -5.387366
Zn -13.461737 -26.934720 -2.693683
Zn -16.155420 -24.241037 -2.693683
Zn -16.155420 -26.934720 -0.000000
Zn -13.461737 -24.241037 -0.000000
Zn -13.461737 -26.934720 2.693683
Zn -16.155420 -24.241037 2.693683
Zn -16.155420 -26.934720 5.387366
Zn -13.461737 -24.241037 5.387366
Zn -13.461737 -26.934720 8.081049
Zn -16.155420 -24.241037 8.081049
Zn -13.461737 -24.241037 10.774731
Zn -13.461737 -18.853672 -16.162097
Zn -13.461737 -21.547354 -13.468414
Zn -16.155420 -18.853672 -13.468414
Zn -16.155420 -21.547354 -10.774732
Zn -13.461737 -18.853672 -10.774732
Zn -13.461737 -21.547354 -8.081049
Zn -16.155420 -18.853672 -8.081049
Zn -16.155420 -21.547354 -5.387366
Zn -13.461737 -18.853672 -5.387366
Zn -13.461737 -21.547354 -2.693683
Zn -16.155420 -18.853672 -2.693683
Zn -16.155420 -21.547354 -0.000000
Zn -13.461737 -18.853672 -0.000000
Zn -13.461737 -21.547354 2.693683
Zn -16.155420 -18.853672 2.693683
Zn -16.155420 -21.547354 5.387366
Zn -13.461737 -18.853672 5.387366
Zn -13.461737 -21.547354 8.081049
Zn -16.155420 -18.853672 8.081049
Zn -16.155420 -21.547354 10.774731
Zn -13.461737 -18.853672 10.774731
Zn -13.461737 -21.547354 13.468414
Zn -16.155420 -18.853672 13.468414
Zn -13.461737 -18.853672 16.162097
Zn -13.461737 -13.466306 -21.549463
Zn -13.461737 -16.159989 -18.855780
Zn -16.155420 -13.466306 -18.855780
Zn -16.155420 -16.159989 -16.162097
Zn -13.461737 -13.466306 -16.162097
Zn -13.461737 -16.159989 -13.468414
Zn -16.155420 -13.466306 -13.468414
Zn -16.155420 -16.159989 -10.774732
Zn -13.461737 -13.466306 -10.774732
Zn -13.461737 -16.159989 -8.081049
Zn -16.155420 -13.466306 -8.081049
Zn -16.155420 -16.159989 -5.387366
Zn -13.461737 -13.466306 -5.387366
Zn -13.461737 -16.159989 -2.693683
Zn -16.155420 -13.466306 -2.693683
Zn -16.155420 -16.159989 -0.000000
Zn -13.461737 -13.466306 -0.000000
Zn -13.461737 -16.159989 2.693683
Zn -16.155420 -13.466306 2.693683
Zn -16.155420 -16.159989 5.387366
Zn -13.461737 -13.466306 5.387366
Zn -13.461737 -16.159989 8.081049
Zn -16.155420 -13.466306 8.081049
Zn -16.155420 -16.159989 10.774731
Zn -13.461737 -13.466306 10.774731
Zn -13.461737 -16.159989 13.468414
Zn -16.155420 -13.466306 13.468414
Zn -16.155420 -16.159989 16.162097
Zn -13.461737 -13.466306 16.162097
Zn -13.461737 -16.159989 18.855780
Zn -16.155420 -13.466306 18.855780
Zn -13.461737 -13.466306 21.549463
Zn -13.461737 -8.078940 -26.936829
Zn -13.461737 -10.772623 -24.243146
Zn -16.155420 -8.078940 -24.243146
Zn -16.155420 -10.772623 -21.549463
Zn -13.461737 -8.078940 -21.549463
Zn -13.461737 -10.772623 -18.855780
Zn -16.155420 -8.078940 -18.855780
Zn -16.155420 -10.772623 -16.162097
Zn -13.461737 -8.078940 -16.162097
Zn -13.461737 -10.772623 -13.468414
Zn -16.155420 -8.078940 -13.468414
Zn -16.155420 -10.772623 -10.774732
Zn -13.461737 -8.078940 -10.774732
Zn -13.461737 -10.772623 -8.081049
Zn -16.155420 -8.078940 -8.081049
Zn -16.155420 -10.772623 -5.387366
Zn -13.461737 -8.078940 -5.387366
Zn -13.461737 -10.772623 -2.693683
Zn -16.155420 -8.078940 -2.693683
Zn -16.155420 -10.772623 -0.000000
Zn -13.461737 -8.078940 -0.000000
Zn -13.461737 -10.772623 2.693683
Zn -16.155420 -8.078940 2.693683
Zn -16.155420 -10.772623 5.387366
Zn -13.461737 -8.078940 5.387366
Zn -13.461737 -10.772623 8.081049
Zn -16.155420 -8.078940 8.081049
Zn -16.155420 -10.772623 10.774731
Zn -13.461737 -8.078940 10.774731
Zn -13.461737 -10.772623 13.468414
Zn -16.155420 -8.078940 13.468414
Zn -16.155420 -10.772623 16.162097
Zn -13.461737 -8.078940 16.162097
Zn -13.461737 -10.772623 18.855780
Zn -16.155420 -8.078940 18.855780
Zn -16.155420 -10.772623 21.549463
Zn -13.461737 -8.078940 21.549463
Zn -13.461737 -10.772623 24.243146
Zn -16.155420 -8.078940 24.243146
Zn -13.461737 -8.078940 26.936829
Zn -13.461737 -5.385257 -29.630512
Zn -16.155420 -2.691574 -29.630512
Zn -16.155420 -5.385257 -26.936829
Zn -13.461737 -2.691574 -26.936829
Zn -13.461737 -5.385257 -24.243146
Zn -16.155420 -2.691574 -24.243146
Zn -16.155420 -5.385257 -21.549463
Zn -13.461737 -2.691574 -21.549463
Zn -13.461737 -5.385257 -18.855780
Zn -16.155420 -2.691574 -18.855780
Zn -16.155420 -5.385257 -16.162097
Zn -13.461737 -2.691574 -16.162097
Zn -13.461737 -5.385257 -13.468414
Zn -16.155420 -2.691574 -13.468414
Zn -16.155420 -5.385257 -10.774732
Zn -13.461737 -2.691574 -10.774732
Zn -13.461737 -5.385257 -8.081049
Zn -16.155420 -2.691574 -8.081049
Zn -16.155420 -5.385257 -5.387366
Zn -13.461737 -2.691574 -5.387366
Zn -13.461737 -5.385257 -2.693683
Zn -16.155420 -2.691574 -2.693683
Zn -16.155420 -5.385257 -0.000000
Zn -13.461737 -2.691574 -0.000000
Zn -13.461737 -5.385257 2.693683
Zn -16.155420 -2.691574 2.693683
Zn -16.155420 -5.385257 5.387366
Zn -13.461737 -2.691574 5.387366
Zn -13.461737 -5.385257 8.081049
Zn -16.155420 -2.691574 8.081049
Zn -16.155420 -5.385257 10.774731
Zn -13.461737 -2.691574 10.774731
Zn -13.461737 -5.385257 13.468414
Zn -16.155420 -2.691574 13.468414
Zn -16.155420 -5.385257 16.162097
Zn -13.461737 -2.691574 16.162097
Zn -13.461737 -5.385257 18.855780
Zn -16.155420 -2.691574 18.855780
Zn -16.155420 -5.385257 21.549463
Zn -13.461737 -2.691574 21.549463
Zn -13.461737 -5.385257 24.243146
Zn -16.155420 -2.691574 24.243146
Zn -16.155420 -5.385257 26.936829
Zn -13.461737 -2.691574 26.936829
Zn -13.461737 -5.385257 29.630512
Zn -16.155420 -2.691574 29.630512
Zn -13.461737 0.002109 -29.630512
Zn -16.155420 2.695791 -29.630512
Zn -16.155420 0.002109 -26.936829
Zn -13.461737 2.695791 -26.936829
Zn -13.461737 0.002109 -24.243146
Zn -16.155420 2.695791 -24.243146
Zn -16.155420 0.002109 -21.549463
Zn -13.461737 2.695791 -21.549463
Zn -13.461737 0.002109 -18.855780
Zn -16.155420 2.695791 -18.855780
Zn -16.155420 0.002109 -16.162097
Zn -13.461737 2.695791 -16.162097
Zn -13.461737 0.002109 -13.468414
Zn -16.155420 2.695791 -13.468414
Zn -16.155420 0.002109 -10.774732
Zn -13.461737 2.695791 -10.774732
Zn -13.461737 0.002109 -8.081049
Zn -16.155420 2.695791 -8.081049
Zn -16.155420 0.002109 -5.387366
Zn -13.461737 2.695791 -5.387366
Zn -13.461737 0.002109 -2.693683
Zn -16.155420 2.695791 -2.693683
Zn -16.155420 0.002109 -0.000000
Zn -13.461737 2.695791 -0.000000
Zn -13.461737 0.002109 2.693683
Zn -16.155420 2.695791 2.693683
Zn -16.155420 0.002109 5.387366
Zn -13.461737 2.695791 5.387366
Zn -13.461737 0.002109 8.081049
Zn -16.155420 2.695791 8.081049
Zn -16.155420 0.002109 10.774731
Zn -13.461737 2.695791 10.774731
Zn -13.461737 0.002109 13.468414
Zn -16.155420 2.695791 13.468414
Zn -16.155420 0.002109 16.162097
Zn -13.461737 2.695791 16.162097
Zn -13.461737 0.002109 18.855780
Zn -16.155420 2.695791 18.855780
Zn -16.155420 0.002109 21.549463
Zn -13.461737 2.695791 21.549463
Zn -13.461737 0.002109 24.243146
Zn -16.155420 2.695791 24.243146
Zn -16.155420 0.002109 26.936829
Zn -13.461737 2.695791 26.936829
Zn -13.461737 0.002109 29.630512
Zn -16.155420 2.695791 29.630512
Zn -13.461737 5.389474 -29.630512
Zn -16.155420 5.389474 -26.936829
Zn -13.461737 8.083157 -26.936829
Zn -13.461737 5.389474 -24.243146
Zn -16.155420 8.083157 -24.243146
Zn -16.155420 5.389474 -21.549463
Zn -13.461737 8.083157 -21.549463
Zn -13.461737 5.389474 -18.855780
Zn -16.155420 8.083157 -18.855780
Zn -16.155420 5.389474 -16.162097
Zn -13.461737 8.083157 -16.162097
Zn -13.461737 5.389474 -13.468414
Zn -16.155420 8.083157 -13.468414
Zn -16.155420 5.389474 -10.774731
Zn -13.461737 8.083157 -10.774731
Zn -13.461737 5.389474 -8.081049
Zn -16.155420 8.083157 -8.081049
Zn -16.155420 5.389474 -5.387366
Zn -13.461737 8.083157 -5.387366
Zn -13.461737 5.389474 -2.693683
Zn -16.155420 8.083157 -2.693683
Zn -16.155420 5.389474 -0.000000
Zn -13.461737 8.083157 -0.000000
Zn -13.461737 5.389474 2.693683
Zn -16.155420 8.083157 2.693683
Zn -16.155420 5.389474 5.387366
Zn -13.461737 8.083157 5.387366
Zn -13.461737 5.389474 8.081049
Zn -16.155420 8.083157 8.081049
Zn -16.155420 5.389474 10.774731
Zn -13.461737 8.083157 10.774731
Zn -13.461737 5.389474 13.468414
Zn -16.155420 8.083157 13.468414
Zn -16.155420 5.389474 16.162097
Zn -13.461737 8.083157 16.162097
Zn -13.461737 5.389474 18.855780
Zn -16.155420 8.083157 18.855780
Zn -16.155420 5.389474 21.549463
Zn -13.461737 8.083157 21.549463
Zn -13.461737 5.389474 24.243146
Zn -16.155420 8.083157 24.243146
Zn -16.155420 5.389474 26.936829
Zn -13.461737 8.083157 26.936829
Zn -13.461737 5.389474 29.630512
Zn -13.461737 10.776840 -24.243146
Zn -16.155420 10.776840 -21.549463
Zn -13.461737 13.470523 -21.549463
Zn -13.461737 10.776840 -18.855780
Zn -16.155420 13.470523 -18.855780
Zn -16.155420 10.776840 -16.162097
Zn -13.461737 13.470523 -16.162097
Zn -13.461737 10.776840 -13.468414
Zn -16.155420 13.470523 -13.468414
Zn -16.155420 10.776840 -10.774731
Zn -13.461737 13.470523 -10.774731
Zn -13.461737 10.776840 -8.081049
Zn -16.155420 13.470523 -8.081049
Zn -16.155420 10.776840 -5.387366
Zn -13.461737 13.470523 -5.387366
Zn -13.461737 10.776840 -2.693683
Zn -16.155420 13.470523 -2.693683
Zn -16.155420 10.776840 -0.000000
Zn -13.461737 13.470523 -0.000000
Zn -13.461737 10.776840 2.693683
Zn -16.155420 13.470523 2.693683
Zn -16.155420 10.776840 5.387366
Zn -13.461737 13.470523 5.387366
Zn -13.461737 10.776840 8.081049
Zn -16.155420 13.470523 8.081049
Zn -16.155420 10.776840 10.774731
Zn -13.461737 13.470523 10.774731
Zn -13.461737 10.776840 13.468414
Zn -16.155420 13.470523 13.468414
Zn -16.155420 10.776840 16.162097
Zn -13.461737 13.470523 16.162097
Zn -13.461737 10.776840 18.855780
Zn -16.155420 13.470523 18.855780
Zn -16.155420 10.776840 21.549463
Zn -13.461737 13.470523 21.549463
Zn -13.461737 10.776840 24.243146
Zn -13.461737 16.164206 -18.855780
Zn -16.155420 16.164206 -16.162097
Zn -13.461737 18.857889 -16.162097
Zn -13.461737 16.164206 -13.468414
Zn -16.155420 18.857889 -13.468414
Zn -16.155420 16.164206 -10.774731
Zn -13.461737 18.857889 -10.774731
Zn -13.461737 16.164206 -8.081049
Zn -16.155420 18.857889 -8.081049
Zn -16.155420 16.164206 -5.387366
Zn -13.461737 18.857889 -5.387366
Zn -13.461737 16.164206 -2.693683
Zn -16.155420 18.857889 -2.693683
Zn -16.155420 16.164206 -0.000000
Zn -13.461737 18.857889 -0.000000
Zn -13.461737 16.164206 2.693683
Zn -16.155420 18.857889 2.693683
Zn -16.155420 16.164206 5.387366
Zn -13.461737 18.857889 5.387366
Zn -13.461737 16.164206 8.081049
Zn -16.155420 18.857889 8.081049
Zn -16.155420 16.164206 10.774731
Zn -13.461737 18.857889 10.774731
Zn -13.461737 16.164206 13.468414
Zn -16.155420 18.857889 13.468414
Zn -16.155420 16.164206 16.162097
Zn -13.461737 18.857889 16.162097
Zn -13.461737 16.164206 18.855780
Zn -13.461737 21.551572 -13.468414
Zn -16.155420 21.551572 -10.774731
Zn -13.461737 24.245254 -10.774731
Zn -13.461737 21.551572 -8.081049
Zn -16.155420 24.245254 -8.081049
Zn -16.155420 21.551572 -5.387366
Zn -13.461737 24.245254 -5.387366
Zn -13.461737 21.551572 -2.693683
Zn -16.155420 24.245254 -2.693683
Zn -16.155420 21.551572 -0.000000
Zn -13.461737 24.245254 0.000000
Zn -13.461737 21.551572 2.693683
Zn -16.155420 24.245254 2.693683
Zn -16.155420 21.551572 5.387366
Zn -13.461737 24.245254 5.387366
Zn -13.461737 21.551572 8.081049
Zn -16.155420 24.245254 8.081049
Zn -16.155420 21.551572 10.774731
Zn -13.461737 24.245254 10.774731
Zn -13.461737 21.551572 13.468414
Zn -13.461737 26.938937 -8.081049
Zn -16.155420 26.938937 -5.387366
Zn -13.461737 29.632620 -5.387366
Zn -13.461737 26.938937 -2.693683
Zn -16.155420 29.632620 -2.693683
Zn -16.155420 26.938937 0.000000
Zn -13.461737 29.632620 0.000000
Zn -13.461737 26.938937 2.693683
Zn -16.155420 29.632620 2.693683
Zn -16.155420 26.938937 5.387366
Zn -13.461737 29.632620 5.387366
Zn -13.461737 26.938937 8.081049
Zn -8.074372 -29.628403 -10.774732
Zn -10.768054 -29.628403 -8.081049
Zn -8.074372 -29.628403 -5.387366
Zn -10.768054 -29.628403 -2.693683
Zn -8.074372 -29.628403 -0.000000
Zn -10.768054 -29.628403 2.693683
Zn -8.074372 -29.628403 5.387366
Zn -10.768054 -29.628403 8.081049
Zn -8.074372 -29.628403 10.774731
Zn -8.074372 -24.241037 -16.162097
Zn -8.074372 -26.934720 -13.468414
Zn -10.768054 -24.241037 -13.468414
Zn -10.768054 -26.934720 -10.774732
Zn -8.074372 -24.241037 -10.774732
Zn -8.074372 -26.934720 -8.081049
Zn -10.768054 -24.241037 -8.081049
Zn -10.768054 -26.934720 -5.387366
Zn -8.074372 -24.241037 -5.387366
Zn -8.074372 -26.934720 -2.693683
Zn -10.768054 -24.241037 -2.693683
Zn -10.768054 -26.934720 -0.000000
Zn -8.074372 -24.241037 -0.000000
Zn -8.074372 -26.934720 2.693683
Zn -10.768054 -24.241037 2.693683
Zn -10.768054 -26.934720 5.387366
Zn -8.074372 -24.241037 5.387366
Zn -8.074372 -26.934720 8.081049
Zn -10.768054 -24.241037 8.081049
Zn -10.768054 -26.934720 10.774731
Zn -8.074372 -24.241037 10.774731
Zn -8.074372 -26.934720 13.468414
Zn -10.768054 -24.241037 13.468414
Zn -8.074372 -24.241037 16.162097
Zn -8.074372 -18.853672 -21.549463
Zn -8.074372 -21.547354 -18.855780
Zn -10.768054 -18.853672 -18.855780
Zn -10.768054 -21.547354 -16.162097
Zn -8.074372 -18.853672 -16.162097
Zn -8.074372 -21.547354 -13.468414
Zn -10.768054 -18.853672 -13.468414
Zn -10.768054 -21.547354 -10.774732
Zn -8.074372 -18.853672 -10.774732
Zn -8.074372 -21.547354 -8.081049
Zn -10.768054 -18.853672 -8.081049
Zn -10.768054 -21.547354 -5.387366
Zn -8.074372 -18.853672 -5.387366
Zn -8.074372 -21.547354 -2.693683
Zn -10.768054 -18.853672 -2.693683
Zn -10.768054 -21.547354 -0.000000
Zn -8.074372 -18.853672 -0.000000
Zn -8.074372 -21.547354 2.693683
Zn -10.768054 -18.853672 2.693683
Zn -10.768054 -21.547354 5.387366
Zn -8.074372 -18.853672 5.387366
Zn -8.074372 -21.547354 8.081049
Zn -10.768054 -18.853672 8.081049
Zn -10.768054 -21.547354 10.774731
Zn -8.074372 -18.853672 10.774731
Zn -8.074372 -21.547354 13.468414
Zn -10.768054 -18.853672 13.468414
Zn -10.768054 -21.547354 16.162097
Zn -8.074372 -18.853672 16.162097
Zn -8.074372 -21.547354 18.855780
Zn -10.768054 -18.853672 18.855780
Zn -8.074372 -18.853672 21.549463
Zn -8.074372 -13.466306 -26.936829
Zn -8.074372 -16.159989 -24.243146
Zn -10.768054 -13.466306 -24.243146
Zn -10.768054 -16.159989 -21.549463
Zn -8.074372 -13.466306 -21.549463
Zn -8.074372 -16.159989 -18.855780
Zn -10.768054 -13.466306 -18.855780
Zn -10.768054 -16.159989 -16.162097
Zn -8.074372 -13.466306 -16.162097
Zn -8.074372 -16.159989 -13.468414
Zn -10.768054 -13.466306 -13.468414
Zn -10.768054 -16.159989 -10.774732
Zn -8.074372 -13.466306 -10.774732
Zn -8.074372 -16.159989 -8.081049
Zn -10.768054 -13.466306 -8.081049
Zn -10.768054 -16.159989 -5.387366
Zn -8.074372 -13.466306 -5.387366
Zn -8.074372 -16.159989 -2.693683
Zn -10.768054 -13.466306 -2.693683
Zn -10.768054 -16.159989 -0.000000
Zn -8.074372 -13.466306 -0.000000
Zn -8.074372 -16.159989 2.693683
Zn -10.768054 -13.466306 2.693683
Zn -10.768054 -16.159989 5.387366
Zn -8.074372 -13.466306 5.387366
Zn -8.074372 -16.159989 8.081049
Zn -10.768054 -13.466306 8.081049
Zn -10.768054 -16.159989 10.774731
Zn -8.074372 -13.466306 10.774731
Zn -8.074372 -16.159989 13.468414
Zn -10.768054 -13.466306 13.468414
Zn -10.768054 -16.159989 16.162097
Zn -8.074372 -13.466306 16.162097
Zn -8.074372 -16.159989 18.855780
Zn -10.768054 -13.466306 18.855780
Zn -10.768054 -16.159989 21.549463
Zn -8.074372 -13.466306 21.549463
Zn -8.074372 -16.159989 24.243146
Zn -10.768054 -13.466306 24.243146
Zn -8.074372 -13.466306 26.936829
Zn -8.074372 -10.772623 -29.630512
Zn -10.768054 -8.078940 -29.630512
Zn -10.768054 -10.772623 -26.936829
Zn -8.074372 -8.078940 -26.936829
Zn -8.074372 -10.772623 -24.243146
Zn -10.768054 -8.078940 -24.243146
Zn -10.768054 -10.772623 -21.549463
Zn -8.074372 -8.078940 -21.549463
Zn -8.074372 -10.772623 -18.855780
Zn -10.768054 -8.078940 -18.855780
Zn -10.768054 -10.772623 -16.162097
Zn -8.074372 -8.078940 -16.162097
Zn -8.074372 -10.772623 -13.468414
Zn -10.768054 -8.078940 -13.468414
Zn -10.768054 -10.772623 -10.774732
Zn -8.074372 -8.078940 -10.774732
Zn -8.074372 -10.772623 -8.081049
Zn -10.768054 -8.078940 -8.081049
Zn -10.768054 -10.772623 -5.387366
Zn -8.074372 -8.078940 -5.387366
Zn -8.074372 -10.772623 -2.693683
Zn -10.768054 -8.078940 -2.693683
Zn -10.768054 -10.772623 -0.000000
Zn -8.074372 -8.078940 -0.000000
Zn -8.074372 -10.772623 2.693683
Zn -10.768054 -8.078940 2.693683
Zn -10.768054 -10.772623 5.387366
Zn -8.074372 -8.078940 5.387366
Zn -8.074372 -10.772623 8.081049
Zn -10.768054 -8.078940 8.081049
Zn -10.768054 -10.772623 10.774731
Zn -8.074372 -8.078940 10.774731
Zn -8.074372 -10.772623 13.468414
Zn -10.768054 -8.078940 13.468414
Zn -10.768054 -10.772623 16.162097
Zn -8.074372 -8.078940 16.162097
Zn -8.074372 -10.772623 18.855780
Zn -10.768054 -8.078940 18.855780
Zn -10.768054 -10.772623 21.549463
Zn -8.074372 -8.078940 21.549463
Zn -8.074372 -10.772623 24.243146
Zn -10.768054 -8.078940 24.243146
Zn -10.768054 -10.772623 26.936829
Zn -8.074372 -8.078940 26.936829
Zn -8.074372 -10.772623 29.630512
Zn -10.768054 -8.078940 29.630512
Zn -8.074372 -5.385257 -29.630512
Zn -10.768054 -2.691574 -29.630512
Zn -10.768054 -5.385257 -26.936829
Zn -8.074372 -2.691574 -26.936829
Zn -8.074372 -5.385257 -24.243146
Zn -10.768054 -2.691574 -24.243146
Zn -10.768054 -5.385257 -21.549463
Zn -8.074372 -2.691574 -21.549463
Zn -8.074372 -5.385257 -18.855780
Zn -10.768054 -2.691574 -18.855780
Zn -10.768054 -5.385257 -16.162097
Zn -8.074372 -2.691574 -16.162097
Zn -8.074372 -5.385257 -13.468414
Zn -10.768054 -2.691574 -13.468414
Zn -10.768054 -5.385257 -10.774732
Zn -8.074372 -2.691574 -10.774732
Zn -8.074372 -5.385257 -8.081049
Zn -10.768054 -2.691574 -8.081049
Zn -10.768054 -5.385257 -5.387366
Zn -8.074372 -2.691574 -5.387366
Zn -8.074372 -5.385257 -2.693683
Zn -10.768054 -2.691574 -2.693683
Zn -10.768054 -5.385257 -0.000000
Zn -8.074372 -2.691574 -0.000000
Zn -8.074372 -5.385257 2.693683
Zn -10.768054 -2.691574 2.693683
Zn -10.768054 -5.385257 5.387366
Zn -8.074372 -2.691574 5.387366
Zn -8.074372 -5.385257 8.081049
Zn -10.768054 -2.691574 8.081049
Zn -10.768054 -5.385257 10.774731
Zn -8.074372 -2.691574 10.774731
Zn -8.074372 -5.385257 13.468414
Zn -10.768054 -2.691574 13.468414
Zn -10.768054 -5.385257 16.162097
Zn -8.074372 -2.691574 16.162097
Zn -8.074372 -5.385257 18.855780
Zn -10.768054 -2.691574 18.855780
Zn -10.768054 -5.385257 21.549463
Zn -8.074372 -2.691574 21.549463
Zn -8.074372 -5.385257 24.243146
Zn -10.768054 -2.691574 24.243146
Zn -10.768054 -5.385257 26.936829
Zn -8.074372 -2.691574 26.936829
Zn -8.074372 -5.385257 29.630512
Zn -10.768054 -2.691574 29.630512
Zn -8.074372 0.002109 -29.630512
Zn -10.768054 2.695791 -29.630512
Zn -10.768054 0.002109 -26.936829
Zn -8.074372 2.695791 -26.936829
Zn -8.074372 0.002109 -24.243146
Zn -10.768054 2.695791 -24.243146
Zn -10.768054 0.002109 -21.549463
Zn -8.074372 2.695791 -21.549463
Zn -8.074372 0.002109 -18.855780
Zn -10.768054 2.695791 -18.855780
Zn -10.768054 0.002109 -16.162097
Zn -8.074372 2.695791 -16.162097
Zn -8.074372 0.002109 -13.468414
Zn -10.768054 2.695791 -13.468414
Zn -10.768054 0.002109 -10.774731
Zn -8.074372 2.695791 -10.774731
Zn -8.074372 0.002109 -8.081049
Zn -10.768054 2.695791 -8.081049
Zn -10.768054 0.002109 -5.387366
Zn -8.074372 2.695791 -5.387366
Zn -8.074372 0.002109 -2.693683
Zn -10.768054 2.695791 -2.693683
Zn -10.768054 0.002109 -0.000000
Zn -8.074372 2.695791 -0.000000
Zn -8.074372 0.002109 2.693683
Zn -10.768054 2.695791 2.693683
Zn -10.768054 0.002109 5.387366
Zn -8.074372 2.695791 5.387366
Zn -8.074372 0.002109 8.081049
Zn -10.768054 2.695791 8.081049
Zn -10.768054 0.002109 10.774731
Zn -8.074372 2.695791 10.774731
Zn -8.074372 0.002109 13.468414
Zn -10.768054 2.695791 13.468414
Zn -10.768054 0.002109 16.162097
Zn -8.074372 2.695791 16.162097
Zn -8.074372 0.002109 18.855780
Zn -10.768054 2.695791 18.855780
Zn -10.768054 0.002109 21.549463
Zn -8.074372 2.695791 21.549463
Zn -8.074372 0.002109 24.243146
Zn -10.768054 2.695791 24.243146
Zn -10.768054 0.002109 26.936829
Zn -8.074372 2.695791 26.936829
Zn -8.074372 0.002109 29.630512
Zn -10.768054 2.695791 29.630512
Zn -8.074372 5.389474 -29.630512
Zn -10.768054 8.083157 -29.630512
Zn -10.768054 5.389474 -26.936829
Zn -8.074372 8.083157 -26.936829
Zn -8.074372 5.389474 -24.243146
Zn -10.768054 8.083157 -24.243146
Zn -10.768054 5.389474 -21.549463
Zn -8.074372 8.083157 -21.549463
Zn -8.074372 5.389474 -18.855780
Zn -10.768054 8.083157 -18.855780
Zn -10.768054 5.389474 -16.162097
Zn -8.074372 8.083157 -16.162097
Zn -8.074372 5.389474 -13.468414
Zn -10.768054 8.083157 -13.468414
Zn -10.768054 5.389474 -10.774731
Zn -8.074372 8.083157 -10.774731
Zn -8.074372 5.389474 -8.081049
Zn -10.768054 8.083157 -8.081049
Zn -10.768054 5.389474 -5.387366
Zn -8.074372 8.083157 -5.387366
Zn -8.074372 5.389474 -2.693683
Zn -10.768054 8.083157 -2.693683
Zn -10.768054 5.389474 -0.000000
Zn -8.074372 8.083157 -0.000000
Zn -8.074372 5.389474 2.693683
Zn -10.768054 8.083157 2.693683
Zn -10.768054 5.389474 5.387366
Zn -8.074372 8.083157 5.387366
Zn -8.074372 5.389474 8.081049
Zn -10.768054 8.083157 8.081049
Zn -10.768054 5.389474 10.774731
Zn -8.074372 8.083157 10.774731
Zn -8.074372 5.389474 13.468414
Zn -10.768054 8.083157 13.468414
Zn -10.768054 5.389474 16.162097
Zn -8.074372 8.083157 16.162097
Zn -8.074372 5.389474 18.855780
Zn -10.768054 8.083157 18.855780
Zn -10.768054 5.389474 21.549463
Zn -8.074372 8.083157 21.549463
Zn -8.074372 5.389474 24.243146
Zn -10.768054 8.083157 24.243146
Zn -10.768054 5.389474 26.936829
Zn -8.074372 8.083157 26.936829
Zn -8.074372 5.389474 29.630512
Zn -10.768054 8.083157 29.630512
Zn -8.074372 10.776840 -29.630512
Zn -10.768054 10.776840 -26.936829
Zn -8.074372 13.470523 -26.936829
Zn -8.074372 10.776840 -24.243146
Zn -10.768054 13.470523 -24.243146
Zn -10.768054 10.776840 -21.549463
Zn -8.074372 13.470523 -21.549463
Zn -8.074372 10.776840 -18.855780
Zn -10.768054 13.470523 -18.855780
Zn -10.768054 10.776840 -16.162097
Zn -8.074372 13.470523 -16.162097
Zn -8.074372 10.776840 -13.468414
Zn -10.768054 13.470523 -13.468414
Zn -10.768054 10.776840 -10.774731
Zn -8.074372 13.470523 -10.774731
Zn -8.074372 10.776840 -8.081049
Zn -10.768054 13.470523 -8.081049
Zn -10.768054 10.776840 -5.387366
Zn -8.074372 13.470523 -5.387366
Zn -8.074372 10.776840 -2.693683
Zn -10.768054 13.470523 -2.693683
Zn -10.768054 10.776840 -0.000000
Zn -8.074372 13.470523 -0.000000
Zn -8.074372 10.776840 2.693683
Zn -10.768054 13.470523 2.693683
Zn -10.768054 10.776840 5.387366
Zn -8.074372 13.470523 5.387366
Zn -8.074372 10.776840 8.081049
Zn -10.768054 13.470523 8.081049
Zn -10.768054 10.776840 10.774731
Zn -8.074372 13.470523 10.774731
Zn -8.074372 10.776840 13.468414
Zn -10.768054 13.470523 13.468414
Zn -10.768054 10.776840 16.162097
Zn -8.074372 13.470523 16.162097
Zn -8.074372 10.776840 18.855780
Zn -10.768054 13.470523 18.855780
Zn -10.768054 10.776840 21.549463
Zn -8.074372 13.470523 21.549463
Zn -8.074372 10.776840 24.243146
Zn -10.768054 13.470523 24.243146
Zn -10.768054 10.776840 26.936829
Zn -8.074372 13.470523 26.936829
Zn -8.074372 10.776840 29.630512
Zn -8.074372 16.164206 -24.243146
Zn -10.768054 16.164206 -21.549463
Zn -8.074372 18.857889 -21.549463
Zn -8.074372 16.164206 -18.855780
Zn -10.768054 18.857889 -18.855780
Zn -10.768054 16.164206 -16.162097
Zn -8.074372 18.857889 -16.162097
Zn -8.074372 16.164206 -13.468414
Zn -10.768054 18.857889 -13.468414
Zn -10.768054 16.164206 -10.774731
Zn -8.074372 18.857889 -10.774731
Zn -8.074372 16.164206 -8.081049
Zn -10.768054 18.857889 -8.081049
Zn -10.768054 16.164206 -5.387366
Zn -8.074372 18.857889 -5.387366
Zn -8.074372 16.164206 -2.693683
Zn -10.768054 18.857889 -2.693683
Zn -10.768054 16.164206 -0.000000
Zn -8.074372 18.857889 0.000000
Zn -8.074372 16.164206 2.693683
Zn -10.768054 18.857889 2.693683
Zn -10.768054 16.164206 5.387366
Zn -8.074372 18.857889 5.387366
Zn -8.074372 16.164206 8.081049
Zn -10.768054 18.857889 8.081049
Zn -10.768054 16.164206 10.774731
Zn -8.074372 18.857889 10.774731
Zn -8.074372 16.164206 13.468414
Zn -10.768054 18.857889 13.468414
Zn -10.768054 16.164206 16.162097
Zn -8.074372 18.857889 16.162097
Zn -8.074372 16.164206 18.855780
Zn -10.768054 18.857889 18.855780
Zn -10.768054 16.164206 21.549463
Zn -8.074372 18.857889 21.549463
Zn -8.074372 16.164206 24.243146
Zn -8.074372 21.551572 -18.855780
Zn -10.768054 21.551572 -16.162097
Zn -8.074372 24.245254 -16.162097
Zn -8.074372 21.551572 -13.468414
Zn -10.768054 24.245254 -13.468414
Zn -10.768054 21.551572 -10.774731
Zn -8.074372 24.245254 -10.774731
Zn -8.074372 21.551572 -8.081049
Zn -10.768054 24.245254 -8.081049
Zn -10.768054 21.551572 -5.387366
Zn -8.074372 24.245254 -5.387366
Zn -8.074372 21.551572 -2.693683
Zn -10.768054 24.245254 -2.693683
Zn -10.768054 21.551572 0.000000
Zn -8.074372 24.245254 0.000000
Zn -8.074372 21.551572 2.693683
Zn -10.768054 24.245254 2.693683
Zn -10.768054 21.551572 5.387366
Zn -8.074372 24.245254 5.387366
Zn -8.074372 21.551572 8.081049
Zn -10.768054 24.245254 8.081049
Zn -10.768054 21.551572 10.774731
Zn -8.074372 24.245254 10.774731
Zn -8.074372 21.551572 13.468414
Zn -10.768054 24.245254 13.468414
Zn -10.768054 21.551572 16.162097
Zn -8.074372 24.245254 16.162097
Zn -8.074372 21.551572 18.855780
Zn -8.074372 26.938937 -13.468414
Zn -10.768054 26.938937 -10.774731
Zn -8.074372 29.632620 -10.774731
Zn -8.074372 26.938937 -8.081049
Zn -10.768054 29.632620 -8.081049
Zn -10.768054 26.938937 -5.387366
Zn -8.074372 29.632620 -5.387366
Zn -8.074372 26.938937 -2.693683
Zn -10.768054 29.632620 -2.693683
Zn -10.768054 26.938937 0.000000
Zn -8.074372 29.632620 0.000000
Zn -8.074372 26.938937 2.693683
Zn -10.768054 29.632620 2.693683
Zn -10.768054 26.938937 5.387366
Zn -8.074372 29.632620 5.387366
Zn -8.074372 26.938937 8.081049
Zn -10.768054 29.632620 8.081049
Zn -10.768054 26.938937 10.774732
Zn -8.074372 29.632620 10.774732
Zn -8.074372 26.938937 13.468414
Zn -2.687006 -29.628403 -16.162097
Zn -5.380689 -29.628403 -13.468414
Zn -2.687006 -29.628403 -10.774732
Zn -5.380689 -29.628403 -8.081049
Zn -2.687006 -29.628403 -5.387366
Zn -5.380689 -29.628403 -2.693683
Zn -2.687006 -29.628403 -0.000000
Zn -5.380689 -29.628403 2.693683
Zn -2.687006 -29.628403 5.387366
Zn -5.380689 -29.628403 8.081049
Zn -2.687006 -29.628403 10.774731
Zn -5.380689 -29.628403 13.468414
Zn -2.687006 -29.628403 16.162097
Zn -2.687006 -24.241037 -21.549463
Zn -2.687006 -26.934720 -18.855780
Zn -5.380689 -24.241037 -18.855780
Zn -5.380689 -26.934720 -16.162097
Zn -2.687006 -24.241037 -16.162097
Zn -2.687006 -26.934720 -13.468414
Zn -5.380689 -24.241037 -13.468414
Zn -5.380689 -26.934720 -10.774732
Zn -2.687006 -24.241037 -10.774732
Zn -2.687006 -26.934720 -8.081049
Zn -5.380689 -24.241037 -8.081049
Zn -5.380689 -26.934720 -5.387366
Zn -2.687006 -24.241037 -5.387366
Zn -2.687006 -26.934720 -2.693683
Zn -5.380689 -24.241037 -2.693683
Zn -5.380689 -26.934720 -0.000000
Zn -2.687006 -24.241037 -0.000000
Zn -2.687006 -26.934720 2.693683
Zn -5.380689 -24.241037 2.693683
Zn -5.380689 -26.934720 5.387366
Zn -2.687006 -24.241037 5.387366
Zn -2.687006 -26.934720 8.081049
Zn -5.380689 -24.241037 8.081049
Zn -5.380689 -26.934720 10.774731
Zn -2.687006 -24.241037 10.774731
Zn -2.687006 -26.934720 13.468414
Zn -5.380689 -24.241037 13.468414
Zn -5.380689 -26.934720 16.162097
Zn -2.687006 -24.241037 16.162097
Zn -2.687006 -26.934720 18.855780
Zn -5.380689 -24.241037 18.855780
Zn -2.687006 -24.241037 21.549463
Zn -2.687006 -18.853672 -26.936829
Zn -2.687006 -21.547354 -24.243146
Zn -5.380689 -18.853672 -24.243146
Zn -5.380689 -21.547354 -21.549463
Zn -2.687006 -18.853672 -21.549463
Zn -2.687006 -21.547354 -18.855780
Zn -5.380689 -18.853672 -18.855780
Zn -5.380689 -21.547354 -16.162097
Zn -2.687006 -18.853672 -16.162097
Zn -2.687006 -21.547354 -13.468414
Zn -5.380689 -18.853672 -13.468414
Zn -5.380689 -21.547354 -10.774732
Zn -2.687006 -18.853672 -10.774732
Zn -2.687006 -21.547354 -8.081049
Zn -5.380689 -18.853672 -8.081049
Zn -5.380689 -21.547354 -5.387366
Zn -2.687006 -18.853672 -5.387366
Zn -2.687006 -21.547354 -2.693683
Zn -5.380689 -18.853672 -2.693683
Zn -5.380689 -21.547354 -0.000000
Zn -2.687006 -18.853672 -0.000000
Zn -2.687006 -21.547354 2.693683
Zn -5.380689 -18.853672 2.693683
Zn -5.380689 -21.547354 5.387366
Zn -2.687006 -18.853672 5.387366
Zn -2.687006 -21.547354 8.081049
Zn -5.380689 -18.853672 8.081049
Zn -5.380689 -21.547354 10.774731
Zn -2.687006 -18.853672 10.774731
Zn -2.687006 -21.547354 13.468414
Zn -5.380689 -18.853672 13.468414
Zn -5.380689 -21.547354 16.162097
Zn -2.687006 -18.853672 16.162097
Zn -2.687006 -21.547354 18.855780
Zn -5.380689 -18.853672 18.855780
Zn -5.380689 -21.547354 21.549463
Zn -2.687006 -18.853672 21.549463
Zn -2.687006 -21.547354 24.243146
Zn -5.380689 -18.853672 24.243146
Zn -2.687006 -18.853672 26.936829
Zn -2.687006 -16.159989 -29.630512
Zn -5.380689 -13.466306 -29.630512
Zn -5.380689 -16.159989 -26.936829
Zn -2.687006 -13.466306 -26.936829
Zn -2.687006 -16.159989 -24.243146
Zn -5.380689 -13.466306 -24.243146
Zn -5.380689 -16.159989 -21.549463
Zn -2.687006 -13.466306 -21.549463
Zn -2.687006 -16.159989 -18.855780
Zn -5.380689 -13.466306 -18.855780
Zn -5.380689 -16.159989 -16.162097
Zn -2.687006 -13.466306 -16.162097
Zn -2.687006 -16.159989 -13.468414
Zn -5.380689 -13.466306 -13.468414
Zn -5.380689 -16.159989 -10.774732
Zn -2.687006 -13.466306 -10.774732
Zn -2.687006 -16.159989 -8.081049
Zn -5.380689 -13.466306 -8.081049
Zn -5.380689 -16.159989 -5.387366
Zn -2.687006 -13.466306 -5.387366
Zn -2.687006 -16.159989 -2.693683
Zn -5.380689 -13.466306 -2.693683
Zn -5.380689 -16.159989 -0.000000
Zn -2.687006 -13.466306 -0.000000
Zn -2.687006 -16.159989 2.693683
Zn -5.380689 -13.466306 2.693683
Zn -5.380689 -16.159989 5.387366
Zn -2.687006 -13.466306 5.387366
Zn -2.687006 -16.159989 8.081049
Zn -5.380689 -13.466306 8.081049
Zn -5.380689 -16.159989 10.774731
Zn -2.687006 -13.466306 10.774731
Zn -2.687006 -16.159989 13.468414
Zn -5.380689 -13.466306 13.468414
Zn -5.380689 -16.159989 16.162097
Zn -2.687006 -13.466306 16.162097
Zn -2.687006 -16.159989 18.855780
Zn -5.380689 -13.466306 18.855780
Zn -5.380689 -16.159989 21.549463
Zn -2.687006 -13.466306 21.549463
Zn -2.687006 -16.159989 24.243146
Zn -5.380689 -13.466306 24.243146
Zn -5.380689 -16.159989 26.936829
Zn -2.687006 -13.466306 26.936829
Zn -2.687006 -16.159989 29.630512
Zn -5.380689 -13.466306 29.630512
Zn -2.687006 -10.772623 -29.630512
Zn -5.380689 -8.078940 -29.630512
Zn -5.380689 -10.772623 -26.936829
Zn -2.687006 -8.078940 -26.936829
Zn -2.687006 -10.772623 -24.243146
Zn -5.380689 -8.078940 -24.243146
Zn -5.380689 -10.772623 -21.549463
Zn -2.687006 -8.078940 -21.549463
Zn -2.687006 -10.772623 -18.855780
Zn -5.380689 -8.078940 -18.855780
Zn -5.380689 -10.772623 -16.162097
Zn -2.687006 -8.078940 -16.162097
Zn -2.687006 -10.772623 -13.468414
Zn -5.380689 -8.078940 -13.468414
Zn -5.380689 -10.772623 -10.774732
Zn -2.687006 -8.078940 -10.774732
Zn -2.687006 -10.772623 -8.081049
Zn -5.380689 -8.078940 -8.081049
Zn -5.380689 -10.772623 -5.387366
Zn -2.687006 -8.078940 -5.387366
Zn -2.687006 -10.772623 -2.693683
Zn -5.380689 -8.078940 -2.693683
Zn -5.380689 -10.772623 -0.000000
Zn -2.687006 -8.078940 -0.000000
Zn -2.687006 -10.772623 2.693683
Zn -5.380689 -8.078940 2.693683
Zn -5.380689 -10.772623 5.387366
Zn -2.687006 -8.078940 5.387366
Zn -2.687006 -10.772623 8.081049
Zn -5.380689 -8.078940 8.081049
Zn -5.380689 -10.772623 10.774731
Zn -2.687006 -8.078940 10.774731
Zn -2.687006 -10.772623 13.468414
Zn -5.380689 -8.078940 13.468414
Zn -5.380689 -10.772623 16.162097
Zn -2.687006 -8.078940 16.162097
Zn -2.687006 -10.772623 18.855780
Zn -5.380689 -8.078940 18.855780
Zn -5.380689 -10.772623 21.549463
Zn -2.687006 -8.078940 21.549463
Zn -2.687006 -10.772623 24.243146
Zn -5.380689 -8.078940 24.243146
Zn -5.380689 -10.772623 26.936829
Zn -2.687006 -8.078940 26.936829
Zn -2.687006 -10.772623 29.630512
Zn -5.380689 -8.078940 29.630512
Zn -2.687006 -5.385257 -29.630512
Zn -5.380689 -2.691574 -29.630512
Zn -5.380689 -5.385257 -26.936829
Zn -2.687006 -2.691574 -26.936829
Zn -2.687006 -5.385257 -24.243146
Zn -5.380689 -2.691574 -24.243146
Zn -5.380689 -5.385257 -21.549463
Zn -2.687006 -2.691574 -21.549463
Zn -2.687006 -5.385257 -18.855780
Zn -5.380689 -2.691574 -18.855780
Zn -5.380689 -5.385257 -16.162097
Zn -2.687006 -2.691574 -16.162097
Zn -2.687006 -5.385257 -13.468414
Zn -5.380689 -2.691574 -13.468414
Zn -5.380689 -5.385257 -10.774731
Zn -2.687006 -2.691574 -10.774731
Zn -2.687006 -5.385257 -8.081049
Zn -5.380689 -2.691574 -8.081049
Zn -5.380689 -5.385257 -5.387366
Zn -2.687006 -2.691574 -5.387366
Zn -2.687006 -5.385257 -2.693683
Zn -5.380689 -2.691574 -2.693683
Zn -5.380689 -5.385257 -0.000000
Zn -2.687006 -2.691574 -0.000000
Zn -2.687006 -5.385257 2.693683
Zn -5.380689 -2.691574 2.693683
Zn -5.380689 -5.385257 5.387366
Zn -2.687006 -2.691574 5.387366
Zn -2.687006 -5.385257 8.081049
Zn -5.380689 -2.691574 8.081049
Zn -5.380689 -5.385257 10.774731
Zn -2.687006 -2.691574 10.774731
Zn -2.687006 -5.385257 13.468414
Zn -5.380689 -2.691574 13.468414
Zn -5.380689 -5.385257 16.162097
Zn -2.687006 -2.691574 16.162097
Zn -2.687006 -5.385257 18.855780
Zn -5.380689 -2.691574 18.855780
Zn -5.380689 -5.385257 21.549463
Zn -2.687006 -2.691574 21.549463
Zn -2.687006 -5.385257 24.243146
Zn -5.380689 -2.691574 24.243146
Zn -5.380689 -5.385257 26.936829
Zn -2.687006 -2.691574 26.936829
Zn -2.687006 -5.385257 29.630512
Zn -5.380689 -2.691574 29.630512
Zn -2.687006 0.002109 -29.630512
Zn -5.380689 2.695791 -29.630512
Zn -5.380689 0.002109 -26.936829
Zn -2.687006 2.695791 -26.936829
Zn -2.687006 0.002109 -24.243146
Zn -5.380689 2.695791 -24.243146
Zn -5.380689 0.002109 -21.549463
Zn -2.687006 2.695791 -21.549463
Zn -2.687006 0.002109 -18.855780
Zn -5.380689 2.695791 -18.855780
Zn -5.380689 0.002109 -16.162097
Zn -2.687006 2.695791 -16.162097
Zn -2.687006 0.002109 -13.468414
Zn -5.380689 2.695791 -13.468414
Zn -5.380689 0.002109 -10.774731
Zn -2.687006 2.695791 -10.774731
Zn -2.687006 0.002109 -8.081049
Zn -5.380689 2.695791 -8.081049
Zn -5.380689 0.002109 -5.387366
Zn -2.687006 2.695791 -5.387366
Zn -2.687006 0.002109 -2.693683
Zn -5.380689 2.695791 -2.693683
Zn -5.380689 0.002109 -0.000000
Zn -2.687006 2.695791 -0.000000
Zn -2.687006 0.002109 2.693683
Zn -5.380689 2.695791 2.693683
Zn -5.380689 0.002109 5.387366
Zn -2.687006 2.695791 5.387366
Zn -2.687006 0.002109 8.081049
Zn -5.380689 2.695791 8.081049
Zn -5.380689 0.002109 10.774731
Zn -2.687006 2.695791 10.774731
Zn -2.687006 0.002109 13.468414
Zn -5.380689 2.695791 13.468414
Zn -5.380689 0.002109 16.162097
Zn -2.687006 2.695791 16.162097
Zn -2.687006 0.002109 18.855780
Zn -5.380689 2.695791 18.855780
Zn -5.380689 0.002109 21.549463
Zn -2.687006 2.695791 21.549463
Zn -2.687006 0.002109 24.243146
Zn -5.380689 2.695791 24.243146
Zn -5.380689 0.002109 26.936829
Zn -2.687006 2.695791 26.936829
Zn -2.687006 0.002109 29.630512
Zn -5.380689 2.695791 29.630512
Zn -2.687006 5.389474 -29.630512
Zn -5.380689 8.083157 -29.630512
Zn -5.380689 5.389474 -26.936829
Zn -2.687006 8.083157 -26.936829
Zn -2.687006 5.389474 -24.243146
Zn -5.380689 8.083157 -24.243146
Zn -5.380689 5.389474 -21.549463
Zn -2.687006 8.083157 -21.549463
Zn -2.687006 5.389474 -18.855780
Zn -5.380689 8.083157 -18.855780
Zn -5.380689 5.389474 -16.162097
Zn -2.687006 8.083157 -16.162097
Zn -2.687006 5.389474 -13.468414
Zn -5.380689 8.083157 -13.468414
Zn -5.380689 5.389474 -10.774731
Zn -2.687006 8.083157 -10.774731
Zn -2.687006 5.389474 -8.081049
Zn -5.380689 8.083157 -8.081049
Zn -5.380689 5.389474 -5.387366
Zn -2.687006 8.083157 -5.387366
Zn -2.687006 5.389474 -2.693683
Zn -5.380689 8.083157 -2.693683
Zn -5.380689 5.389474 -0.000000
Zn -2.687006 8.083157 -0.000000
Zn -2.687006 5.389474 2.693683
Zn -5.380689 8.083157 2.693683
Zn -5.380689 5.389474 5.387366
Zn -2.687006 8.083157 5.387366
Zn -2.687006 5.389474 8.081049
Zn -5.380689 8.083157 8.081049
Zn -5.380689 5.389474 10.774731
Zn -2.687006 8.083157 10.774731
Zn -2.687006 5.389474 13.468414
Zn -5.380689 8.083157 13.468414
Zn -5.380689 5.389474 16.162097
Zn -2.687006 8.083157 16.162097
Zn -2.687006 5.389474 18.855780
Zn -5.380689 8.083157 18.855780
Zn -5.380689 5.389474 21.549463
Zn -2.687006 8.083157 21.549463
Zn -2.687006 5.389474 24.243146
Zn -5.380689 8.083157 24.243146
Zn -5.380689 5.389474 26.936829
Zn -2.687006 8.083157 26.936829
Zn -2.687006 5.389474 29.630512
Zn -5.380689 8.083157 29.630512
Zn -2.687006 10.776840 -29.630512
Zn -5.380689 13.470523 -29.630512
Zn -5.380689 10.776840 -26.936829
Zn -2.687006 13.470523 -26.936829
Zn -2.687006 10.776840 -24.243146
Zn -5.380689 13.470523 -24.243146
Zn -5.380689 10.776840 -21.549463
Zn -2.687006 13.470523 -21.549463
Zn -2.687006 10.776840 -18.855780
Zn -5.380689 13.470523 -18.855780
Zn -5.380689 10.776840 -16.162097
Zn -2.687006 13.470523 -16.162097
Zn -2.687006 10.776840 -13.468414
Zn -5.380689 13.470523 -13.468414
Zn -5.380689 10.776840 -10.774731
Zn -2.687006 13.470523 -10.774731
Zn -2.687006 10.776840 -8.081049
Zn -5.380689 13.470523 -8.081049
Zn -5.380689 10.776840 -5.387366
Zn -2.687006 13.470523 -5.387366
Zn -2.687006 10.776840 -2.693683
Zn -5.380689 13.470523 -2.693683
Zn -5.380689 10.776840 -0.000000
Zn -2.687006 13.470523 0.000000
Zn -2.687006 10.776840 2.693683
Zn -5.380689 13.470523 2.693683
Zn -5.380689 10.776840 5.387366
Zn -2.687006 13.470523 5.387366
Zn -2.687006 10.776840 8.081049
Zn -5.380689 13.470523 8.081049
Zn -5.380689 10.776840 10.774731
Zn -2.687006 13.470523 10.774731
Zn -2.687006 10.776840 13.468414
Zn -5.380689 13.470523 13.468414
Zn -5.380689 10.776840 16.162097
Zn -2.687006 13.470523 16.162097
Zn -2.687006 10.776840 18.855780
Zn -5.380689 13.470523 18.855780
Zn -5.380689 10.776840 21.549463
Zn -2.687006 13.470523 21.549463
Zn -2.687006 10.776840 24.243146
Zn -5.380689 13.470523 24.243146
Zn -5.380689 10.776840 26.936829
Zn -2.687006 13.470523 26.936829
Zn -2.687006 10.776840 29.630512
Zn -5.380689 13.470523 29.630512
Zn -2.687006 16.164206 -29.630512
Zn -5.380689 16.164206 -26.936829
Zn -2.687006 18.857889 -26.936829
Zn -2.687006 16.164206 -24.243146
Zn -5.380689 18.857889 -24.243146
Zn -5.380689 16.164206 -21.549463
Zn -2.687006 18.857889 -21.549463
Zn -2.687006 16.164206 -18.855780
Zn -5.380689 18.857889 -18.855780
Zn -5.380689 16.164206 -16.162097
Zn -2.687006 18.857889 -16.162097
Zn -2.687006 16.164206 -13.468414
Zn -5.380689 18.857889 -13.468414
Zn -5.380689 16.164206 -10.774731
Zn -2.687006 18.857889 -10.774731
Zn -2.687006 16.164206 -8.081049
Zn -5.380689 18.857889 -8.081049
Zn -5.380689 16.164206 -5.387366
Zn -2.687006 18.857889 -5.387366
Zn -2.687006 16.164206 -2.693683
Zn -5.380689 18.857889 -2.693683
Zn -5.380689 16.164206 0.000000
Zn -2.687006 18.857889 0.000000
Zn -2.687006 16.164206 2.693683
Zn -5.380689 18.857889 2.693683
Zn -5.380689 16.164206 5.387366
Zn -2.687006 18.857889 5.387366
Zn -2.687006 16.164206 8.081049
Zn -5.380689 18.857889 8.081049
Zn -5.380689 16.164206 10.774731
Zn -2.687006 18.857889 10.774731
Zn -2.687006 16.164206 13.468414
Zn -5.380689 18.857889 13.468414
Zn -5.380689 16.164206 16.162097
Zn -2.687006 18.857889 16.162097
Zn -2.687006 16.164206 18.855780
Zn -5.380689 18.857889 18.855780
Zn -5.380689 16.164206 21.549463
Zn -2.687006 18.857889 21.549463
Zn -2.687006 16.164206 24.243146
Zn -5.380689 18.857889 24.243146
Zn -5.380689 16.164206 26.936829
Zn -2.687006 18.857889 26.936829
Zn -2.687006 16.164206 29.630512
Zn -2.687006 21.551572 -24.243146
Zn -5.380689 21.551572 -21.549463
Zn -2.687006 24.245254 -21.549463
Zn -2.687006 21.551572 -18.855780
Zn -5.380689 24.245254 -18.855780
Zn -5.380689 21.551572 -16.162097
Zn -2.687006 24.245254 -16.162097
Zn -2.687006 21.551572 -13.468414
Zn -5.380689 24.245254 -13.468414
Zn -5.380689 21.551572 -10.774731
Zn -2.687006 24.245254 -10.774731
Zn -2.687006 21.551572 -8.081049
Zn -5.380689 24.245254 -8.081049
Zn -5.380689 21.551572 -5.387366
Zn -2.687006 24.245254 -5.387366
Zn -2.687006 21.551572 -2.693683
Zn -5.380689 24.245254 -2.693683
Zn -5.380689 21.551572 0.000000
Zn -2.687006 24.245254 0.000000
Zn -2.687006 21.551572 2.693683
Zn -5.380689 24.245254 2.693683
Zn -5.380689 21.551572 5.387366
Zn -2.687006 24.245254 5.387366
Zn -2.687006 21.551572 8.081049
Zn -5.380689 24.245254 8.081049
Zn -5.380689 21.551572 10.774732
Zn -2.687006 24.245254 10.774732
Zn -2.687006 21.551572 13.468414
Zn -5.380689 24.245254 13.468414
Zn -5.380689 21.551572 16.162097
Zn -2.687006 24.245254 16.162097
Zn -2.687006 21.551572 18.855780
Zn -5.380689 24.245254 18.855780
Zn -5.380689 21.551572 21.549463
Zn -2.687006 24.245254 21.549463
Zn -2.687006 21.551572 24.243146
Zn -2.687006 26.938937 -18.855780
Zn -5.380689 26.938937 -16.162097
Zn -2.687006 29.632620 -16.162097
Zn -2.687006 26.938937 -13.468414
Zn -5.380689 29.632620 -13.468414
Zn -5.380689 26.938937 -10.774731
Zn -2.687006 29.632620 -10.774731
Zn -2.687006 26.938937 -8.081049
Zn -5.380689 29.632620 -8.081049
Zn -5.380689 26.938937 -5.387366
Zn -2.687006 29.632620 -5.387366
Zn -2.687006 26.938937 -2.693683
Zn -5.380689 29.632620 -2.693683
Zn -5.380689 26.938937 0.000000
Zn -2.687006 29.632620 0.000000
Zn -2.687006 26.938937 2.693683
Zn -5.380689 29.632620 2.693683
Zn -5.380689 26.938937 5.387366
Zn -2.687006 29.632620 5.387366
Zn -2.687006 26.938937 8.081049
Zn -5.380689 29.632620 8.081049
Zn -5.380689 26.938937 10.774732
Zn -2.687006 29.632620 10.774732
Zn -2.687006 26.938937 13.468414
Zn -5.380689 29.632620 13.468414
Zn -5.380689 26.938937 16.162097
Zn -2.687006 29.632620 16.162097
Zn -2.687006 26.938937 18.855780
Zn 0.006677 -29.628403 -18.855780
Zn 2.700360 -29.628403 -16.162097
Zn 0.006677 -29.628403 -13.468414
Zn 2.700360 -29.628403 -10.774732
Zn 0.006677 -29.628403 -8.081049
Zn 2.700360 -29.628403 -5.387366
Zn 0.006677 -29.628403 -2.693683
Zn 2.700360 -29.628403 -0.000000
Zn 0.006677 -29.628403 2.693683
Zn 2.700360 -29.628403 5.387366
Zn 0.006677 -29.628403 8.081049
Zn 2.700360 -29.628403 10.774731
Zn 0.006677 -29.628403 13.468414
Zn 2.700360 -29.628403 16.162097
Zn 0.006677 -29.628403 18.855780
Zn 0.006677 -24.241037 -24.243146
Zn 0.006677 -26.934720 -21.549463
Zn 2.700360 -24.241037 -21.549463
Zn 2.700360 -26.934720 -18.855780
Zn 0.006677 -24.241037 -18.855780
Zn 0.006677 -26.934720 -16.162097
Zn 2.700360 -24.241037 -16.162097
Zn 2.700360 -26.934720 -13.468414
Zn 0.006677 -24.241037 -13.468414
Zn 0.006677 -26.934720 -10.774732
Zn 2.700360 -24.241037 -10.774732
Zn 2.700360 -26.934720 -8.081049
Zn 0.006677 -24.241037 -8.081049
Zn 0.006677 -26.934720 -5.387366
Zn 2.700360 -24.241037 -5.387366
Zn 2.700360 -26.934720 -2.693683
Zn 0.006677 -24.241037 -2.693683
Zn 0.006677 -26.934720 -0.000000
Zn 2.700360 -24.241037 -0.000000
Zn 2.700360 -26.934720 2.693683
Zn 0.006677 -24.241037 2.693683
Zn 0.006677 -26.934720 5.387366
Zn 2.700360 -24.241037 5.387366
Zn 2.700360 -26.934720 8.081049
Zn 0.006677 -24.241037 8.081049
Zn 0.006677 -26.934720 10.774731
Zn 2.700360 -24.241037 10.774731
Zn 2.700360 -26.934720 13.468414
Zn 0.006677 -24.241037 13.468414
Zn 0.006677 -26.934720 16.162097
Zn 2.700360 -24.241037 16.162097
Zn 2.700360 -26.934720 18.855780
Zn 0.006677 -24.241037 18.855780
Zn 0.006677 -26.934720 21.549463
Zn 2.700360 -24.241037 21.549463
Zn 0.006677 -24.241037 24.243146
Zn 0.006677 -18.853672 -29.630512
Zn 0.006677 -21.547354 -26.936829
Zn 2.700360 -18.853672 -26.936829
Zn 2.700360 -21.547354 -24.243146
Zn 0.006677 -18.853672 -24.243146
Zn 0.006677 -21.547354 -21.549463
Zn 2.700360 -18.853672 -21.549463
Zn 2.700360 -21.547354 -18.855780
Zn 0.006677 -18.853672 -18.855780
Zn 0.006677 -21.547354 -16.162097
Zn 2.700360 -18.853672 -16.162097
Zn 2.700360 -21.547354 -13.468414
Zn 0.006677 -18.853672 -13.468414
Zn 0.006677 -21.547354 -10.774732
Zn 2.700360 -18.853672 -10.774732
Zn 2.700360 -21.547354 -8.081049
Zn 0.006677 -18.853672 -8.081049
Zn 0.006677 -21.547354 -5.387366
Zn 2.700360 -18.853672 -5.387366
Zn 2.700360 -21.547354 -2.693683
Zn 0.006677 -18.853672 -2.693683
Zn 0.006677 -21.547354 -0.000000
Zn 2.700360 -18.853672 -0.000000
Zn 2.700360 -21.547354 2.693683
Zn 0.006677 -18.853672 2.693683
Zn 0.006677 -21.547354 5.387366
Zn 2.700360 -18.853672 5.387366
Zn 2.700360 -21.547354 8.081049
Zn 0.006677 -18.853672 8.081049
Zn 0.006677 -21.547354 10.774731
Zn 2.700360 -18.853672 10.774731
Zn 2.700360 -21.547354 13.468414
Zn 0.006677 -18.853672 13.468414
Zn 0.006677 -21.547354 16.162097
Zn 2.700360 -18.853672 16.162097
Zn 2.700360 -21.547354 18.855780
Zn 0.006677 -18.853672 18.855780
Zn 0.006677 -21.547354 21.549463
Zn 2.700360 -18.853672 21.549463
Zn 2.700360 -21.547354 24.243146
Zn 0.006677 -18.853672 24.243146
Zn 0.006677 -21.547354 26.936829
Zn 2.700360 -18.853672 26.936829
Zn 0.006677 -18.853672 29.630512
Zn 2.700360 -16.159989 -29.630512
Zn 0.006677 -13.466306 -29.630512
Zn 0.006677 -16.159989 -26.936829
Zn 2.700360 -13.466306 -26.936829
Zn 2.700360 -16.159989 -24.243146
Zn 0.006677 -13.466306 -24.243146
Zn 0.006677 -16.159989 -21.549463
Zn 2.700360 -13.466306 -21.549463
Zn 2.700360 -16.159989 -18.855780
Zn 0.006677 -13.466306 -18.855780
Zn 0.006677 -16.159989 -16.162097
Zn 2.700360 -13.466306 -16.162097
Zn 2.700360 -16.159989 -13.468414
Zn 0.006677 -13.466306 -13.468414
Zn 0.006677 -16.159989 -10.774732
Zn 2.700360 -13.466306 -10.774732
Zn 2.700360 -16.159989 -8.081049
Zn 0.006677 -13.466306 -8.081049
Zn 0.006677 -16.159989 -5.387366
Zn 2.700360 -13.466306 -5.387366
Zn 2.700360 -16.159989 -2.693683
Zn 0.006677 -13.466306 -2.693683
Zn 0.006677 -16.159989 -0.000000
Zn 2.700360 -13.466306 -0.000000
Zn 2.700360 -16.159989 2.693683
Zn 0.006677 -13.466306 2.693683
Zn 0.006677 -16.159989 5.387366
Zn 2.700360 -13.466306 5.387366
Zn 2.700360 -16.159989 8.081049
Zn 0.006677 -13.466306 8.081049
Zn 0.006677 -16.159989 10.774731
Zn 2.700360 -13.466306 10.774731
Zn 2.700360 -16.159989 13.468414
Zn 0.006677 -13.466306 13.468414
Zn 0.006677 -16.159989 16.162097
Zn 2.700360 -13.466306 16.162097
Zn 2.700360 -16.159989 18.855780
Zn 0.006677 -13.466306 18.855780
Zn 0.006677 -16.159989 21.549463
Zn 2.700360 -13.466306 21.549463
Zn 2.700360 -16.159989 24.243146
Zn 0.006677 -13.466306 24.243146
Zn 0.006677 -16.159989 26.936829
Zn 2.700360 -13.466306 26.936829
Zn 2.700360 -16.159989 29.630512
Zn 0.006677 -13.466306 29.630512
Zn 2.700360 -10.772623 -29.630512
Zn 0.006677 -8.078940 -29.630512
Zn 0.006677 -10.772623 -26.936829
Zn 2.700360 -8.078940 -26.936829
Zn 2.700360 -10.772623 -24.243146
Zn 0.006677 -8.078940 -24.243146
Zn 0.006677 -10.772623 -21.549463
Zn 2.700360 -8.078940 -21.549463
Zn 2.700360 -10.772623 -18.855780
Zn 0.006677 -8.078940 -18.855780
Zn 0.006677 -10.772623 -16.162097
Zn 2.700360 -8.078940 -16.162097
Zn 2.700360 -10.772623 -13.468414
Zn 0.006677 -8.078940 -13.468414
Zn 0.006677 -10.772623 -10.774731
Zn 2.700360 -8.078940 -10.774731
Zn 2.700360 -10.772623 -8.081049
Zn 0.006677 -8.078940 -8.081049
Zn 0.006677 -10.772623 -5.387366
Zn 2.700360 -8.078940 -5.387366
Zn 2.700360 -10.772623 -2.693683
Zn 0.006677 -8.078940 -2.693683
Zn 0.006677 -10.772623 -0.000000
Zn 2.700360 -8.078940 -0.000000
Zn 2.700360 -10.772623 2.693683
Zn 0.006677 -8.078940 2.693683
Zn 0.006677 -10.772623 5.387366
Zn 2.700360 -8.078940 5.387366
Zn 2.700360 -10.772623 8.081049
Zn 0.006677 -8.078940 8.081049
Zn 0.006677 -10.772623 10.774731
Zn 2.700360 -8.078940 10.774731
Zn 2.700360 -10.772623 13.468414
Zn 0.006677 -8.078940 13.468414
Zn 0.006677 -10.772623 16.162097
Zn 2.700360 -8.078940 16.162097
Zn 2.700360 -10.772623 18.855780
Zn 0.006677 -8.078940 18.855780
Zn 0.006677 -10.772623 21.549463
Zn 2.700360 -8.078940 21.549463
Zn 2.700360 -10.772623 24.243146
Zn 0.006677 -8.078940 24.243146
Zn 0.006677 -10.772623 26.936829
Zn 2.700360 -8.078940 26.936829
Zn 2.700360 -10.772623 29.630512
Zn 0.006677 -8.078940 29.630512
Zn 2.700360 -5.385257 -29.630512
Zn 0.006677 -2.691574 -29.630512
Zn 0.006677 -5.385257 -26.936829
Zn 2.700360 -2.691574 -26.936829
Zn 2.700360 -5.385257 -24.243146
Zn 0.006677 -2.691574 -24.243146
Zn 0.006677 -5.385257 -21.549463
Zn 2.700360 -2.691574 -21.549463
Zn 2.700360 -5.385257 -18.855780
Zn 0.006677 -2.691574 -18.855780
Zn 0.006677 -5.385257 -16.162097
Zn 2.700360 -2.691574 -16.162097
Zn 2.700360 -5.385257 -13.468414
Zn 0.006677 -2.691574 -13.468414
Zn 0.006677 -5.385257 -10.774731
Zn 2.700360 -2.691574 -10.774731
Zn 2.700360 -5.385257 -8.081049
Zn 0.006677 -2.691574 -8.081049
Zn 0.006677 -5.385257 -5.387366
Zn 2.700360 -2.691574 -5.387366
Zn 2.700360 -5.385257 -2.693683
Zn 0.006677 -2.691574 -2.693683
Zn 0.006677 -5.385257 -0.000000
Zn 2.700360 -2.691574 -0.000000
Zn 2.700360 -5.385257 2.693683
Zn 0.006677 -2.691574 2.693683
Zn 0.006677 -5.385257 5.387366
Zn 2.700360 -2.691574 5.387366
Zn 2.700360 -5.385257 8.081049
Zn 0.006677 -2.691574 8.081049
Zn 0.006677 -5.385257 10.774731
Zn 2.700360 -2.691574 10.774731
Zn 2.700360 -5.385257 13.468414
Zn 0.006677 -2.691574 13.468414
Zn 0.006677 -5.385257 16.162097
Zn 2.700360 -2.691574 16.162097
Zn 2.700360 -5.385257 18.855780
Zn 0.006677 -2.691574 18.855780
Zn 0.006677 -5.385257 21.549463
Zn 2.700360 -2.691574 21.549463
Zn 2.700360 -5.385257 24.243146
Zn 0.006677 -2.691574 24.243146
Zn 0.006677 -5.385257 26.936829
Zn 2.700360 -2.691574 26.936829
Zn 2.700360 -5.385257 29.630512
Zn 0.006677 -2.691574 29.630512
Zn 2.700360 0.002109 -29.630512
Zn 0.006677 2.695791 -29.630512
Zn 0.006677 0.002109 -26.936829
Zn 2.700360 2.695791 -26.936829
Zn 2.700360 0.002109 -24.243146
Zn 0.006677 2.695791 -24.243146
Zn 0.006677 0.002109 -21.549463
Zn 2.700360 2.695791 -21.549463
Zn 2.700360 0.002109 -18.855780
Zn 0.006677 2.695791 -18.855780
Zn 0.006677 0.002109 -16.162097
Zn 2.700360 2.695791 -16.162097
Zn 2.700360 0.002109 -13.468414
Zn 0.006677 2.695791 -13.468414
Zn 0.006677 0.002109 -10.774731
Zn 2.700360 2.695791 -10.774731
Zn 2.700360 0.002109 -8.081049
Zn 0.006677 2.695791 -8.081049
Zn 0.006677 0.002109 -5.387366
Zn 2.700360 2.695791 -5.387366
Zn 2.700360 0.002109 -2.693683
Zn 0.006677 2.695791 -2.693683
Zn 0.006677 0.002109 -0.000000
Zn 2.700360 2.695791 -0.000000
Zn 2.700360 0.002109 2.693683
Zn 0.006677 2.695791 2.693683
Zn 0.006677 0.002109 5.387366
Zn 2.700360 2.695791 5.387366
Zn 2.700360 0.002109 8.081049
Zn 0.006677 2.695791 8.081049
Zn 0.006677 0.002109 10.774731
Zn 2.700360 2.695791 10.774731
Zn 2.700360 0.002109 13.468414
Zn 0.006677 2.695791 13.468414
Zn 0.006677 0.002109 16.162097
Zn 2.700360 2.695791 16.162097
Zn 2.700360 0.002109 18.855780
Zn 0.006677 2.695791 18.855780
Zn 0.006677 0.002109 21.549463
Zn 2.700360 2.695791 21.549463
Zn 2.700360 0.002109 24.243146
Zn 0.006677 2.695791 24.243146
Zn 0.006677 0.002109 26.936829
Zn 2.700360 2.695791 26.936829
Zn 2.700360 0.002109 29.630512
Zn 0.006677 2.695791 29.630512
Zn 2.700360 5.389474 -29.630512
Zn 0.006677 8.083157 -29.630512
Zn 0.006677 5.389474 -26.936829
Zn 2.700360 8.083157 -26.936829
Zn 2.700360 5.389474 -24.243146
Zn 0.006677 8.083157 -24.243146
Zn 0.006677 5.389474 -21.549463
Zn 2.700360 8.083157 -21.549463
Zn 2.700360 5.389474 -18.855780
Zn 0.006677 8.083157 -18.855780
Zn 0.006677 5.389474 -16.162097
Zn 2.700360 8.083157 -16.162097
Zn 2.700360 5.389474 -13.468414
Zn 0.006677 8.083157 -13.468414
Zn 0.006677 5.389474 -10.774731
Zn 2.700360 8.083157 -10.774731
Zn 2.700360 5.389474 -8.081049
Zn 0.006677 8.083157 -8.081049
Zn 0.006677 5.389474 -5.387366
Zn 2.700360 8.083157 -5.387366
Zn 2.700360 5.389474 -2.693683
Zn 0.006677 8.083157 -2.693683
Zn 0.006677 5.389474 -0.000000
Zn 2.700360 8.083157 0.000000
Zn 2.700360 5.389474 2.693683
Zn 0.006677 8.083157 2.693683
Zn 0.006677 5.389474 5.387366
Zn 2.700360 8.083157 5.387366
Zn 2.700360 5.389474 8.081049
Zn 0.006677 8.083157 8.081049
Zn 0.006677 5.389474 10.774731
Zn 2.700360 8.083157 10.774731
Zn 2.700360 5.389474 13.468414
Zn 0.006677 8.083157 13.468414
Zn 0.006677 5.389474 16.162097
Zn 2.700360 8.083157 16.162097
Zn 2.700360 5.389474 18.855780
Zn 0.006677 8.083157 18.855780
Zn 0.006677 5.389474 21.549463
Zn 2.700360 8.083157 21.549463
Zn 2.700360 5.389474 24.243146
Zn 0.006677 8.083157 24.243146
Zn 0.006677 5.389474 26.936829
Zn 2.700360 8.083157 26.936829
Zn 2.700360 5.389474 29.630512
Zn 0.006677 8.083157 29.630512
Zn 2.700360 10.776840 -29.630512
Zn 0.006677 13.470523 -29.630512
Zn 0.006677 10.776840 -26.936829
Zn 2.700360 13.470523 -26.936829
Zn 2.700360 10.776840 -24.243146
Zn 0.006677 13.470523 -24.243146
Zn 0.006677 10.776840 -21.549463
Zn 2.700360 13.470523 -21.549463
Zn 2.700360 10.776840 -18.855780
Zn 0.006677 13.470523 -18.855780
Zn 0.006677 10.776840 -16.162097
Zn 2.700360 13.470523 -16.162097
Zn 2.700360 10.776840 -13.468414
Zn 0.006677 13.470523 -13.468414
Zn 0.006677 10.776840 -10.774731
Zn 2.700360 13.470523 -10.774731
Zn 2.700360 10.776840 -8.081049
Zn 0.006677 13.470523 -8.081049
Zn 0.006677 10.776840 -5.387366
Zn 2.700360 13.470523 -5.387366
Zn 2.700360 10.776840 -2.693683
Zn 0.006677 13.470523 -2.693683
Zn 0.006677 10.776840 0.000000
Zn 2.700360 13.470523 0.000000
Zn 2.700360 10.776840 2.693683
Zn 0.006677 13.470523 2.693683
Zn 0.006677 10.776840 5.387366
Zn 2.700360 13.470523 5.387366
Zn 2.700360 10.776840 8.081049
Zn 0.006677 13.470523 8.081049
Zn 0.006677 10.776840 10.774731
Zn 2.700360 13.470523 10.774731
Zn 2.700360 10.776840 13.468414
Zn 0.006677 13.470523 13.468414
Zn 0.006677 10.776840 16.162097
Zn 2.700360 13.470523 16.162097
Zn 2.700360 10.776840 18.855780
Zn 0.006677 13.470523 18.855780
Zn 0.006677 10.776840 21.549463
Zn 2.700360 13.470523 21.549463
Zn 2.700360 10.776840 24.243146
Zn 0.006677 13.470523 24.243146
Zn 0.006677 10.776840 26.936829
Zn 2.700360 13.470523 26.936829
Zn 2.700360 10.776840 29.630512
Zn 0.006677 13.470523 29.630512
Zn 2.700360 16.164206 -29.630512
Zn 0.006677 18.857889 -29.630512
Zn 0.006677 16.164206 -26.936829
Zn 2.700360 18.857889 -26.936829
Zn 2.700360 16.164206 -24.243146
Zn 0.006677 18.857889 -24.243146
Zn 0.006677 16.164206 -21.549463
Zn 2.700360 18.857889 -21.549463
Zn 2.700360 16.164206 -18.855780
Zn 0.006677 18.857889 -18.855780
Zn 0.006677 16.164206 -16.162097
Zn 2.700360 18.857889 -16.162097
Zn 2.700360 16.164206 -13.468414
Zn 0.006677 18.857889 -13.468414
Zn 0.006677 16.164206 -10.774731
Zn 2.700360 18.857889 -10.774731
Zn 2.700360 16.164206 -8.081049
Zn 0.006677 18.857889 -8.081049
Zn 0.006677 16.164206 -5.387366
Zn 2.700360 18.857889 -5.387366
Zn 2.700360 16.164206 -2.693683
Zn 0.006677 18.857889 -2.693683
Zn 0.006677 16.164206 0.000000
Zn 2.700360 18.857889 0.000000
Zn 2.700360 16.164206 2.693683
Zn 0.006677 18.857889 2.693683
Zn 0.006677 16.164206 5.387366
Zn 2.700360 18.857889 5.387366
Zn 2.700360 16.164206 8.081049
Zn 0.006677 18.857889 8.081049
Zn 0.006677 16.164206 10.774732
Zn 2.700360 18.857889 10.774732
Zn 2.700360 16.164206 13.468414
Zn 0.006677 18.857889 13.468414
Zn 0.006677 16.164206 16.162097
Zn 2.700360 18.857889 16.162097
Zn 2.700360 16.164206 18.855780
Zn 0.006677 18.857889 18.855780
Zn 0.006677 16.164206 21.549463
Zn 2.700360 18.857889 21.549463
Zn 2.700360 16.164206 24.243146
Zn 0.006677 18.857889 24.243146
Zn 0.006677 16.164206 26.936829
Zn 2.700360 18.857889 26.936829
Zn 2.700360 16.164206 29.630512
Zn 0.006677 18.857889 29.630512
Zn 0.006677 21.551572 -26.936829
Zn 2.700360 21.551572 -24.243146
Zn 0.006677 24.245254 -24.243146
Zn 0.006677 21.551572 -21.549463
Zn 2.700360 24.245254 -21.549463
Zn 2.700360 21.551572 -18.855780
Zn 0.006677 24.245254 -18.855780
Zn 0.006677 21.551572 -16.162097
Zn 2.700360 24.245254 -16.162097
Zn 2.700360 21.551572 -13.468414
Zn 0.006677 24.245254 -13.468414
Zn 0.006677 21.551572 -10.774731
Zn 2.700360 24.245254 -10.774731
Zn 2.700360 21.551572 -8.081049
Zn 0.006677 24.245254 -8.081049
Zn 0.006677 21.551572 -5.387366
Zn 2.700360 24.245254 -5.387366
Zn 2.700360 21.551572 -2.693683
Zn 0.006677 24.245254 -2.693683
Zn 0.006677 21.551572 0.000000
Zn 2.700360 24.245254 0.000000
Zn 2.700360 21.551572 2.693683
Zn 0.006677 24.245254 2.693683
Zn 0.006677 21.551572 5.387366
Zn 2.700360 24.245254 5.387366
Zn 2.700360 21.551572 8.081049
Zn 0.006677 24.245254 8.081049
Zn 0.006677 21.551572 10.774732
Zn 2.700360 24.245254 10.774732
Zn 2.700360 21.551572 13.468414
Zn 0.006677 24.245254 13.468414
Zn 0.006677 21.551572 16.162097
Zn 2.700360 24.245254 16.162097
Zn 2.700360 21.551572 18.855780
Zn 0.006677 24.245254 18.855780
Zn 0.006677 21.551572 21.549463
Zn 2.700360 24.245254 21.549463
Zn 2.700360 21.551572 24.243146
Zn 0.006677 24.245254 24.243146
Zn 0.006677 21.551572 26.936829
Zn 0.006677 26.938937 -21.549463
Zn 2.700360 26.938937 -18.855780
Zn 0.006677 29.632620 -18.855780
Zn 0.006677 26.938937 -16.162097
Zn 2.700360 29.632620 -16.162097
Zn 2.700360 26.938937 -13.468414
Zn 0.006677 29.632620 -13.468414
Zn 0.006677 26.938937 -10.774731
Zn 2.700360 29.632620 -10.774731
Zn 2.700360 26.938937 -8.081049
Zn 0.006677 29.632620 -8.081049
Zn 0.006677 26.938937 -5.387366
Zn 2.700360 29.632620 -5.387366
Zn 2.700360 26.938937 -2.693683
Zn 0.006677 29.632620 -2.693683
Zn 0.006677 26.938937 0.000000
Zn 2.700360 29.632620 0.000000
Zn 2.700360 26.938937 2.693683
Zn 0.006677 29.632620 2.693683
Zn 0.006677 26.938937 5.387366
Zn 2.700360 29.632620 5.387366
Zn 2.700360 26.938937 8.081049
Zn 0.006677 29.632620 8.081049
Zn 0.006677 26.938937 10.774732
Zn 2.700360 29.632620 10.774732
Zn 2.700360 26.938937 13.468414
Zn 0.006677 29.632620 13.468414
Zn 0.006677 26.938937 16.162097
Zn 2.700360 29.632620 16.162097
Zn 2.700360 26.938937 18.855780
Zn 0.006677 29.632620 18.855780
Zn 0.006677 26.938937 21.549463
Zn 5.394043 -29.628403 -13.468414
Zn 8.087726 -29.628403 -10.774732
Zn 5.394043 -29.628403 -8.081049
Zn 8.087726 -29.628403 -5.387366
Zn 5.394043 -29.628403 -2.693683
Zn 8.087726 -29.628403 -0.000000
Zn 5.394043 -29.628403 2.693683
Zn 8.087726 -29.628403 5.387366
Zn 5.394043 -29.628403 8.081049
Zn 8.087726 -29.628403 10.774731
Zn 5.394043 -29.628403 13.468414
Zn 5.394043 -24.241037 -18.855780
Zn 5.394043 -26.934720 -16.162097
Zn 8.087726 -24.241037 -16.162097
Zn 8.087726 -26.934720 -13.468414
Zn 5.394043 -24.241037 -13.468414
Zn 5.394043 -26.934720 -10.774732
Zn 8.087726 -24.241037 -10.774732
Zn 8.087726 -26.934720 -8.081049
Zn 5.394043 -24.241037 -8.081049
Zn 5.394043 -26.934720 -5.387366
Zn 8.087726 -24.241037 -5.387366
Zn 8.087726 -26.934720 -2.693683
Zn 5.394043 -24.241037 -2.693683
Zn 5.394043 -26.934720 -0.000000
Zn 8.087726 -24.241037 -0.000000
Zn 8.087726 -26.934720 2.693683
Zn 5.394043 -24.241037 2.693683
Zn 5.394043 -26.934720 5.387366
Zn 8.087726 -24.241037 5.387366
Zn 8.087726 -26.934720 8.081049
Zn 5.394043 -24.241037 8.081049
Zn 5.394043 -26.934720 10.774731
Zn 8.087726 -24.241037 10.774731
Zn 8.087726 -26.934720 13.468414
Zn 5.394043 -24.241037 13.468414
Zn 5.394043 -26.934720 16.162097
Zn 8.087726 -24.241037 16.162097
Zn 5.394043 -24.241037 18.855780
Zn 5.394043 -18.853672 -24.243146
Zn 5.394043 -21.547354 -21.549463
Zn 8.087726 -18.853672 -21.549463
Zn 8.087726 -21.547354 -18.855780
Zn 5.394043 -18.853672 -18.855780
Zn 5.394043 -21.547354 -16.162097
Zn 8.087726 -18.853672 -16.162097
Zn 8.087726 -21.547354 -13.468414
Zn 5.394043 -18.853672 -13.468414
Zn 5.394043 -21.547354 -10.774732
Zn 8.087726 -18.853672 -10.774732
Zn 8.087726 -21.547354 -8.081049
Zn 5.394043 -18.853672 -8.081049
Zn 5.394043 -21.547354 -5.387366
Zn 8.087726 -18.853672 -5.387366
Zn 8.087726 -21.547354 -2.693683
Zn 5.394043 -18.853672 -2.693683
Zn 5.394043 -21.547354 -0.000000
Zn 8.087726 -18.853672 -0.000000
Zn 8.087726 -21.547354 2.693683
Zn 5.394043 -18.853672 2.693683
Zn 5.394043 -21.547354 5.387366
Zn 8.087726 -18.853672 5.387366
Zn 8.087726 -21.547354 8.081049
Zn 5.394043 -18.853672 8.081049
Zn 5.394043 -21.547354 10.774731
Zn 8.087726 -18.853672 10.774731
Zn 8.087726 -21.547354 13.468414
Zn 5.394043 -18.853672 13.468414
Zn 5.394043 -21.547354 16.162097
Zn 8.087726 -18.853672 16.162097
Zn 8.087726 -21.547354 18.855780
Zn 5.394043 -18.853672 18.855780
Zn 5.394043 -21.547354 21.549463
Zn 8.087726 -18.853672 21.549463
Zn 5.394043 -18.853672 24.243146
Zn 5.394043 -13.466306 -29.630512
Zn 5.394043 -16.159989 -26.936829
Zn 8.087726 -13.466306 -26.936829
Zn 8.087726 -16.159989 -24.243146
Zn 5.394043 -13.466306 -24.243146
Zn 5.394043 -16.159989 -21.549463
Zn 8.087726 -13.466306 -21.549463
Zn 8.087726 -16.159989 -18.855780
Zn 5.394043 -13.466306 -18.855780
Zn 5.394043 -16.159989 -16.162097
Zn 8.087726 -13.466306 -16.162097
Zn 8.087726 -16.159989 -13.468414
Zn 5.394043 -13.466306 -13.468414
Zn 5.394043 -16.159989 -10.774731
Zn 8.087726 -13.466306 -10.774731
Zn 8.087726 -16.159989 -8.081049
Zn 5.394043 -13.466306 -8.081049
Zn 5.394043 -16.159989 -5.387366
Zn 8.087726 -13.466306 -5.387366
Zn 8.087726 -16.159989 -2.693683
Zn 5.394043 -13.466306 -2.693683
Zn 5.394043 -16.159989 -0.000000
Zn 8.087726 -13.466306 -0.000000
Zn 8.087726 -16.159989 2.693683
Zn 5.394043 -13.466306 2.693683
Zn 5.394043 -16.159989 5.387366
Zn 8.087726 -13.466306 5.387366
Zn 8.087726 -16.159989 8.081049
Zn 5.394043 -13.466306 8.081049
Zn 5.394043 -16.159989 10.774731
Zn 8.087726 -13.466306 10.774731
Zn 8.087726 -16.159989 13.468414
Zn 5.394043 -13.466306 13.468414
Zn 5.394043 -16.159989 16.162097
Zn 8.087726 -13.466306 16.162097
Zn 8.087726 -16.159989 18.855780
Zn 5.394043 -13.466306 18.855780
Zn 5.394043 -16.159989 21.549463
Zn 8.087726 -13.466306 21.549463
Zn 8.087726 -16.159989 24.243146
Zn 5.394043 -13.466306 24.243146
Zn 5.394043 -16.159989 26.936829
Zn 8.087726 -13.466306 26.936829
Zn 5.394043 -13.466306 29.630512
Zn 8.087726 -10.772623 -29.630512
Zn 5.394043 -8.078940 -29.630512
Zn 5.394043 -10.772623 -26.936829
Zn 8.087726 -8.078940 -26.936829
Zn 8.087726 -10.772623 -24.243146
Zn 5.394043 -8.078940 -24.243146
Zn 5.394043 -10.772623 -21.549463
Zn 8.087726 -8.078940 -21.549463
Zn 8.087726 -10.772623 -18.855780
Zn 5.394043 -8.078940 -18.855780
Zn 5.394043 -10.772623 -16.162097
Zn 8.087726 -8.078940 -16.162097
Zn 8.087726 -10.772623 -13.468414
Zn 5.394043 -8.078940 -13.468414
Zn 5.394043 -10.772623 -10.774731
Zn 8.087726 -8.078940 -10.774731
Zn 8.087726 -10.772623 -8.081049
Zn 5.394043 -8.078940 -8.081049
Zn 5.394043 -10.772623 -5.387366
Zn 8.087726 -8.078940 -5.387366
Zn 8.087726 -10.772623 -2.693683
Zn 5.394043 -8.078940 -2.693683
Zn 5.394043 -10.772623 -0.000000
Zn 8.087726 -8.078940 -0.000000
Zn 8.087726 -10.772623 2.693683
Zn 5.394043 -8.078940 2.693683
Zn 5.394043 -10.772623 5.387366
Zn 8.087726 -8.078940 5.387366
Zn 8.087726 -10.772623 8.081049
Zn 5.394043 -8.078940 8.081049
Zn 5.394043 -10.772623 10.774731
Zn 8.087726 -8.078940 10.774731
Zn 8.087726 -10.772623 13.468414
Zn 5.394043 -8.078940 13.468414
Zn 5.394043 -10.772623 16.162097
Zn 8.087726 -8.078940 16.162097
Zn 8.087726 -10.772623 18.855780
Zn 5.394043 -8.078940 18.855780
Zn 5.394043 -10.772623 21.549463
Zn 8.087726 -8.078940 21.549463
Zn 8.087726 -10.772623 24.243146
Zn 5.394043 -8.078940 24.243146
Zn 5.394043 -10.772623 26.936829
Zn 8.087726 -8.078940 26.936829
Zn 8.087726 -10.772623 29.630512
Zn 5.394043 -8.078940 29.630512
Zn 8.087726 -5.385257 -29.630512
Zn 5.394043 -2.691574 -29.630512
Zn 5.394043 -5.385257 -26.936829
Zn 8.087726 -2.691574 -26.936829
Zn 8.087726 -5.385257 -24.243146
Zn 5.394043 -2.691574 -24.243146
Zn 5.394043 -5.385257 -21.549463
Zn 8.087726 -2.691574 -21.549463
Zn 8.087726 -5.385257 -18.855780
Zn 5.394043 -2.691574 -18.855780
Zn 5.394043 -5.385257 -16.162097
Zn 8.087726 -2.691574 -16.162097
Zn 8.087726 -5.385257 -13.468414
Zn 5.394043 -2.691574 -13.468414
Zn 5.394043 -5.385257 -10.774731
Zn 8.087726 -2.691574 -10.774731
Zn 8.087726 -5.385257 -8.081049
Zn 5.394043 -2.691574 -8.081049
Zn 5.394043 -5.385257 -5.387366
Zn 8.087726 -2.691574 -5.387366
Zn 8.087726 -5.385257 -2.693683
Zn 5.394043 -2.691574 -2.693683
Zn 5.394043 -5.385257 -0.000000
Zn 8.087726 -2.691574 -0.000000
Zn 8.087726 -5.385257 2.693683
Zn 5.394043 -2.691574 2.693683
Zn 5.394043 -5.385257 5.387366
Zn 8.087726 -2.691574 5.387366
Zn 8.087726 -5.385257 8.081049
Zn 5.394043 -2.691574 8.081049
Zn 5.394043 -5.385257 10.774731
Zn 8.087726 -2.691574 10.774731
Zn 8.087726 -5.385257 13.468414
Zn 5.394043 -2.691574 13.468414
Zn 5.394043 -5.385257 16.162097
Zn 8.087726 -2.691574 16.162097
Zn 8.087726 -5.385257 18.855780
Zn 5.394043 -2.691574 18.855780
Zn 5.394043 -5.385257 21.549463
Zn 8.087726 -2.691574 21.549463
Zn 8.087726 -5.385257 24.243146
Zn 5.394043 -2.691574 24.243146
Zn 5.394043 -5.385257 26.936829
Zn 8.087726 -2.691574 26.936829
Zn 8.087726 -5.385257 29.630512
Zn 5.394043 -2.691574 29.630512
Zn 8.087726 0.002109 -29.630512
Zn 5.394043 2.695791 -29.630512
Zn 5.394043 0.002109 -26.936829
Zn 8.087726 2.695791 -26.936829
Zn 8.087726 0.002109 -24.243146
Zn 5.394043 2.695791 -24.243146
Zn 5.394043 0.002109 -21.549463
Zn 8.087726 2.695791 -21.549463
Zn 8.087726 0.002109 -18.855780
Zn 5.394043 2.695791 -18.855780
Zn 5.394043 0.002109 -16.162097
Zn 8.087726 2.695791 -16.162097
Zn 8.087726 0.002109 -13.468414
Zn 5.394043 2.695791 -13.468414
Zn 5.394043 0.002109 -10.774731
Zn 8.087726 2.695791 -10.774731
Zn 8.087726 0.002109 -8.081049
Zn 5.394043 2.695791 -8.081049
Zn 5.394043 0.002109 -5.387366
Zn 8.087726 2.695791 -5.387366
Zn 8.087726 0.002109 -2.693683
Zn 5.394043 2.695791 -2.693683
Zn 5.394043 0.002109 -0.000000
Zn 8.087726 2.695791 0.000000
Zn 8.087726 0.002109 2.693683
Zn 5.394043 2.695791 2.693683
Zn 5.394043 0.002109 5.387366
Zn 8.087726 2.695791 5.387366
Zn 8.087726 0.002109 8.081049
Zn 5.394043 2.695791 8.081049
Zn 5.394043 0.002109 10.774731
Zn 8.087726 2.695791 10.774731
Zn 8.087726 0.002109 13.468414
Zn 5.394043 2.695791 13.468414
Zn 5.394043 0.002109 16.162097
Zn 8.087726 2.695791 16.162097
Zn 8.087726 0.002109 18.855780
Zn 5.394043 2.695791 18.855780
Zn 5.394043 0.002109 21.549463
Zn 8.087726 2.695791 21.549463
Zn 8.087726 0.002109 24.243146
Zn 5.394043 2.695791 24.243146
Zn 5.394043 0.002109 26.936829
Zn 8.087726 2.695791 26.936829
Zn 8.087726 0.002109 29.630512
Zn 5.394043 2.695791 29.630512
Zn 8.087726 5.389474 -29.630512
Zn 5.394043 8.083157 -29.630512
Zn 5.394043 5.389474 -26.936829
Zn 8.087726 8.083157 -26.936829
Zn 8.087726 5.389474 -24.243146
Zn 5.394043 8.083157 -24.243146
Zn 5.394043 5.389474 -21.549463
Zn 8.087726 8.083157 -21.549463
Zn 8.087726 5.389474 -18.855780
Zn 5.394043 8.083157 -18.855780
Zn 5.394043 5.389474 -16.162097
Zn 8.087726 8.083157 -16.162097
Zn 8.087726 5.389474 -13.468414
Zn 5.394043 8.083157 -13.468414
Zn 5.394043 5.389474 -10.774731
Zn 8.087726 8.083157 -10.774731
Zn 8.087726 5.389474 -8.081049
Zn 5.394043 8.083157 -8.081049
Zn 5.394043 5.389474 -5.387366
Zn 8.087726 8.083157 -5.387366
Zn 8.087726 5.389474 -2.693683
Zn 5.394043 8.083157 -2.693683
Zn 5.394043 5.389474 0.000000
Zn 8.087726 8.083157 0.000000
Zn 8.087726 5.389474 2.693683
Zn 5.394043 8.083157 2.693683
Zn 5.394043 5.389474 5.387366
Zn 8.087726 8.083157 5.387366
Zn 8.087726 5.389474 8.081049
Zn 5.394043 8.083157 8.081049
Zn 5.394043 5.389474 10.774731
Zn 8.087726 8.083157 10.774731
Zn 8.087726 5.389474 13.468414
Zn 5.394043 8.083157 13.468414
Zn 5.394043 5.389474 16.162097
Zn 8.087726 8.083157 16.162097
Zn 8.087726 5.389474 18.855780
Zn 5.394043 8.083157 18.855780
Zn 5.394043 5.389474 21.549463
Zn 8.087726 8.083157 21.549463
Zn 8.087726 5.389474 24.243146
Zn 5.394043 8.083157 24.243146
Zn 5.394043 5.389474 26.936829
Zn 8.087726 8.083157 26.936829
Zn 8.087726 5.389474 29.630512
Zn 5.394043 8.083157 29.630512
Zn 8.087726 10.776840 -29.630512
Zn 5.394043 13.470523 -29.630512
Zn 5.394043 10.776840 -26.936829
Zn 8.087726 13.470523 -26.936829
Zn 8.087726 10.776840 -24.243146
Zn 5.394043 13.470523 -24.243146
Zn 5.394043 10.776840 -21.549463
Zn 8.087726 13.470523 -21.549463
Zn 8.087726 10.776840 -18.855780
Zn 5.394043 13.470523 -18.855780
Zn 5.394043 10.776840 -16.162097
Zn 8.087726 13.470523 -16.162097
Zn 8.087726 10.776840 -13.468414
Zn 5.394043 13.470523 -13.468414
Zn 5.394043 10.776840 -10.774731
Zn 8.087726 13.470523 -10.774731
Zn 8.087726 10.776840 -8.081049
Zn 5.394043 13.470523 -8.081049
Zn 5.394043 10.776840 -5.387366
Zn 8.087726 13.470523 -5.387366
Zn 8.087726 10.776840 -2.693683
Zn 5.394043 13.470523 -2.693683
Zn 5.394043 10.776840 0.000000
Zn 8.087726 13.470523 0.000000
Zn 8.087726 10.776840 2.693683
Zn 5.394043 13.470523 2.693683
Zn 5.394043 10.776840 5.387366
Zn 8.087726 13.470523 5.387366
Zn 8.087726 10.776840 8.081049
Zn 5.394043 13.470523 8.081049
Zn 5.394043 10.776840 10.774732
Zn 8.087726 13.470523 10.774732
Zn 8.087726 10.776840 13.468414
Zn 5.394043 13.470523 13.468414
Zn 5.394043 10.776840 16.162097
Zn 8.087726 13.470523 16.162097
Zn 8.087726 10.776840 18.855780
Zn 5.394043 13.470523 18.855780
Zn 5.394043 10.776840 21.549463
Zn 8.087726 13.470523 21.549463
Zn 8.087726 10.776840 24.243146
Zn 5.394043 13.470523 24.243146
Zn 5.394043 10.776840 26.936829
Zn 8.087726 13.470523 26.936829
Zn 8.087726 10.776840 29.630512
Zn 5.394043 13.470523 29.630512
Zn 5.394043 16.164206 -26.936829
Zn 8.087726 16.164206 -24.243146
Zn 5.394043 18.857889 -24.243146
Zn 5.394043 16.164206 -21.549463
Zn 8.087726 18.857889 -21.549463
Zn 8.087726 16.164206 -18.855780
Zn 5.394043 18.857889 -18.855780
Zn 5.394043 16.164206 -16.162097
Zn 8.087726 18.857889 -16.162097
Zn 8.087726 16.164206 -13.468414
Zn 5.394043 18.857889 -13.468414
Zn 5.394043 16.164206 -10.774731
Zn 8.087726 18.857889 -10.774731
Zn 8.087726 16.164206 -8.081049
Zn 5.394043 18.857889 -8.081049
Zn 5.394043 16.164206 -5.387366
Zn 8.087726 18.857889 -5.387366
Zn 8.087726 16.164206 -2.693683
Zn 5.394043 18.857889 -2.693683
Zn 5.394043 16.164206 0.000000
Zn 8.087726 18.857889 0.000000
Zn 8.087726 16.164206 2.693683
Zn 5.394043 18.857889 2.693683
Zn 5.394043 16.164206 5.387366
Zn 8.087726 18.857889 5.387366
Zn 8.087726 16.164206 8.081049
Zn 5.394043 18.857889 8.081049
Zn 5.394043 16.164206 10.774732
Zn 8.087726 18.857889 10.774732
Zn 8.087726 16.164206 13.468414
Zn 5.394043 18.857889 13.468414
Zn 5.394043 16.164206 16.162097
Zn 8.087726 18.857889 16.162097
Zn 8.087726 16.164206 18.855780
Zn 5.394043 18.857889 18.855780
Zn 5.394043 16.164206 21.549463
Zn 8.087726 18.857889 21.549463
Zn 8.087726 16.164206 24.243146
Zn 5.394043 18.857889 24.243146
Zn 5.394043 16.164206 26.936829
Zn 5.394043 21.551572 -21.549463
Zn 8.087726 21.551572 -18.855780
Zn 5.394043 24.245254 -18.855780
Zn 5.394043 21.551572 -16.162097
Zn 8.087726 24.245254 -16.162097
Zn 8.087726 21.551572 -13.468414
Zn 5.394043 24.245254 -13.468414
Zn 5.394043 21.551572 -10.774731
Zn 8.087726 24.245254 -10.774731
Zn 8.087726 21.551572 -8.081049
Zn 5.394043 24.245254 -8.081049
Zn 5.394043 21.551572 -5.387366
Zn 8.087726 24.245254 -5.387366
Zn 8.087726 21.551572 -2.693683
Zn 5.394043 24.245254 -2.693683
Zn 5.394043 21.551572 0.000000
Zn 8.087726 24.245254 0.000000
Zn 8.087726 21.551572 2.693683
Zn 5.394043 24.245254 2.693683
Zn 5.394043 21.551572 5.387366
Zn 8.087726 24.245254 5.387366
Zn 8.087726 21.551572 8.081049
Zn 5.394043 24.245254 8.081049
Zn 5.394043 21.551572 10.774732
Zn 8.087726 24.245254 10.774732
Zn 8.087726 21.551572 13.468414
Zn 5.394043 24.245254 13.468414
Zn 5.394043 21.551572 16.162097
Zn 8.087726 24.245254 16.162097
Zn 8.087726 21.551572 18.855780
Zn 5.394043 24.245254 18.855780
Zn 5.394043 21.551572 21.549463
Zn 5.394043 26.938937 -16.162097
Zn 8.087726 26.938937 -13.468414
Zn 5.394043 29.632620 -13.468414
Zn 5.394043 26.938937 -10.774731
Zn 8.087726 29.632620 -10.774731
Zn 8.087726 26.938937 -8.081049
Zn 5.394043 29.632620 -8.081049
Zn 5.394043 26.938937 -5.387366
Zn 8.087726 29.632620 -5.387366
Zn 8.087726 26.938937 -2.693683
Zn 5.394043 29.632620 -2.693683
Zn 5.394043 26.938937 0.000000
Zn 8.087726 29.632620 0.000000
Zn 8.087726 26.938937 2.693683
Zn 5.394043 29.632620 2.693683
Zn 5.394043 26.938937 5.387366
Zn 8.087726 29.632620 5.387366
Zn 8.087726 26.938937 8.081049
Zn 5.394043 29.632620 8.081049
Zn 5.394043 26.938937 10.774732
Zn 8.087726 29.632620 10.774732
Zn 8.087726 26.938937 13.468414
Zn 5.394043 29.632620 13.468414
Zn 5.394043 26.938937 16.162097
Zn 10.781409 -29.628403 -8.081049
Zn 13.475091 -29.628403 -5.387366
Zn 10.781409 -29.628403 -2.693683
Zn 13.475091 -29.628403 -0.000000
Zn 10.781409 -29.628403 2.693683
Zn 13.475091 -29.628403 5.387366
Zn 10.781409 -29.628403 8.081049
Zn 10.781409 -24.241037 -13.468414
Zn 10.781409 -26.934720 -10.774732
Zn 13.475091 -24.241037 -10.774732
Zn 13.475091 -26.934720 -8.081049
Zn 10.781409 -24.241037 -8.081049
Zn 10.781409 -26.934720 -5.387366
Zn 13.475091 -24.241037 -5.387366
Zn 13.475091 -26.934720 -2.693683
Zn 10.781409 -24.241037 -2.693683
Zn 10.781409 -26.934720 -0.000000
Zn 13.475091 -24.241037 -0.000000
Zn 13.475091 -26.934720 2.693683
Zn 10.781409 -24.241037 2.693683
Zn 10.781409 -26.934720 5.387366
Zn 13.475091 -24.241037 5.387366
Zn 13.475091 -26.934720 8.081049
Zn 10.781409 -24.241037 8.081049
Zn 10.781409 -26.934720 10.774731
Zn 13.475091 -24.241037 10.774731
Zn 10.781409 -24.241037 13.468414
Zn 10.781409 -18.853672 -18.855780
Zn 10.781409 -21.547354 -16.162097
Zn 13.475091 -18.853672 -16.162097
Zn 13.475091 -21.547354 -13.468414
Zn 10.781409 -18.853672 -13.468414
Zn 10.781409 -21.547354 -10.774731
Zn 13.475091 -18.853672 -10.774731
Zn 13.475091 -21.547354 -8.081049
Zn 10.781409 -18.853672 -8.081049
Zn 10.781409 -21.547354 -5.387366
Zn 13.475091 -18.853672 -5.387366
Zn 13.475091 -21.547354 -2.693683
Zn 10.781409 -18.853672 -2.693683
Zn 10.781409 -21.547354 -0.000000
Zn 13.475091 -18.853672 -0.000000
Zn 13.475091 -21.547354 2.693683
Zn 10.781409 -18.853672 2.693683
Zn 10.781409 -21.547354 5.387366
Zn 13.475091 -18.853672 5.387366
Zn 13.475091 -21.547354 8.081049
Zn 10.781409 -18.853672 8.081049
Zn 10.781409 -21.547354 10.774731
Zn 13.475091 -18.853672 10.774731
Zn 13.475091 -21.547354 13.468414
Zn 10.781409 -18.853672 13.468414
Zn 10.781409 -21.547354 16.162097
Zn 13.475091 -18.853672 16.162097
Zn 10.781409 -18.853672 18.855780
Zn 10.781409 -13.466306 -24.243146
Zn 10.781409 -16.159989 -21.549463
Zn 13.475091 -13.466306 -21.549463
Zn 13.475091 -16.159989 -18.855780
Zn 10.781409 -13.466306 -18.855780
Zn 10.781409 -16.159989 -16.162097
Zn 13.475091 -13.466306 -16.162097
Zn 13.475091 -16.159989 -13.468414
Zn 10.781409 -13.466306 -13.468414
Zn 10.781409 -16.159989 -10.774731
Zn 13.475091 -13.466306 -10.774731
Zn 13.475091 -16.159989 -8.081049
Zn 10.781409 -13.466306 -8.081049
Zn 10.781409 -16.159989 -5.387366
Zn 13.475091 -13.466306 -5.387366
Zn 13.475091 -16.159989 -2.693683
Zn 10.781409 -13.466306 -2.693683
Zn 10.781409 -16.159989 -0.000000
Zn 13.475091 -13.466306 -0.000000
Zn 13.475091 -16.159989 2.693683
Zn 10.781409 -13.466306 2.693683
Zn 10.781409 -16.159989 5.387366
Zn 13.475091 -13.466306 5.387366
Zn 13.475091 -16.159989 8.081049
Zn 10.781409 -13.466306 8.081049
Zn 10.781409 -16.159989 10.774731
Zn 13.475091 -13.466306 10.774731
Zn 13.475091 -16.159989 13.468414
Zn 10.781409 -13.466306 13.468414
Zn 10.781409 -16.159989 16.162097
Zn 13.475091 -13.466306 16.162097
Zn 13.475091 -16.159989 18.855780
Zn 10.781409 -13.466306 18.855780
Zn 10.781409 -16.159989 21.549463
Zn 13.475091 -13.466306 21.549463
Zn 10.781409 -13.466306 24.243146
Zn 10.781409 -8.078940 -29.630512
Zn 10.781409 -10.772623 -26.936829
Zn 13.475091 -8.078940 -26.936829
Zn 13.475091 -10.772623 -24.243146
Zn 10.781409 -8.078940 -24.243146
Zn 10.781409 -10.772623 -21.549463
Zn 13.475091 -8.078940 -21.549463
Zn 13.475091 -10.772623 -18.855780
Zn 10.781409 -8.078940 -18.855780
Zn 10.781409 -10.772623 -16.162097
Zn 13.475091 -8.078940 -16.162097
Zn 13.475091 -10.772623 -13.468414
Zn 10.781409 -8.078940 -13.468414
Zn 10.781409 -10.772623 -10.774731
Zn 13.475091 -8.078940 -10.774731
Zn 13.475091 -10.772623 -8.081049
Zn 10.781409 -8.078940 -8.081049
Zn 10.781409 -10.772623 -5.387366
Zn 13.475091 -8.078940 -5.387366
Zn 13.475091 -10.772623 -2.693683
Zn 10.781409 -8.078940 -2.693683
Zn 10.781409 -10.772623 -0.000000
Zn 13.475091 -8.078940 -0.000000
Zn 13.475091 -10.772623 2.693683
Zn 10.781409 -8.078940 2.693683
Zn 10.781409 -10.772623 5.387366
Zn 13.475091 -8.078940 5.387366
Zn 13.475091 -10.772623 8.081049
Zn 10.781409 -8.078940 8.081049
Zn 10.781409 -10.772623 10.774731
Zn 13.475091 -8.078940 10.774731
Zn 13.475091 -10.772623 13.468414
Zn 10.781409 -8.078940 13.468414
Zn 10.781409 -10.772623 16.162097
Zn 13.475091 -8.078940 16.162097
Zn 13.475091 -10.772623 18.855780
Zn 10.781409 -8.078940 18.855780
Zn 10.781409 -10.772623 21.549463
Zn 13.475091 -8.078940 21.549463
Zn 13.475091 -10.772623 24.243146
Zn 10.781409 -8.078940 24.243146
Zn 10.781409 -10.772623 26.936829
Zn 13.475091 -8.078940 26.936829
Zn 10.781409 -8.078940 29.630512
Zn 13.475091 -5.385257 -29.630512
Zn 10.781409 -2.691574 -29.630512
Zn 10.781409 -5.385257 -26.936829
Zn 13.475091 -2.691574 -26.936829
Zn 13.475091 -5.385257 -24.243146
Zn 10.781409 -2.691574 -24.243146
Zn 10.781409 -5.385257 -21.549463
Zn 13.475091 -2.691574 -21.549463
Zn 13.475091 -5.385257 -18.855780
Zn 10.781409 -2.691574 -18.855780
Zn 10.781409 -5.385257 -16.162097
Zn 13.475091 -2.691574 -16.162097
Zn 13.475091 -5.385257 -13.468414
Zn 10.781409 -2.691574 -13.468414
Zn 10.781409 -5.385257 -10.774731
Zn 13.475091 -2.691574 -10.774731
Zn 13.475091 -5.385257 -8.081049
Zn 10.781409 -2.691574 -8.081049
Zn 10.781409 -5.385257 -5.387366
Zn 13.475091 -2.691574 -5.387366
Zn 13.475091 -5.385257 -2.693683
Zn 10.781409 -2.691574 -2.693683
Zn 10.781409 -5.385257 -0.000000
Zn 13.475091 -2.691574 0.000000
Zn 13.475091 -5.385257 2.693683
Zn 10.781409 -2.691574 2.693683
Zn 10.781409 -5.385257 5.387366
Zn 13.475091 -2.691574 5.387366
Zn 13.475091 -5.385257 8.081049
Zn 10.781409 -2.691574 8.081049
Zn 10.781409 -5.385257 10.774731
Zn 13.475091 -2.691574 10.774731
Zn 13.475091 -5.385257 13.468414
Zn 10.781409 -2.691574 13.468414
Zn 10.781409 -5.385257 16.162097
Zn 13.475091 -2.691574 16.162097
Zn 13.475091 -5.385257 18.855780
Zn 10.781409 -2.691574 18.855780
Zn 10.781409 -5.385257 21.549463
Zn 13.475091 -2.691574 21.549463
Zn 13.475091 -5.385257 24.243146
Zn 10.781409 -2.691574 24.243146
Zn 10.781409 -5.385257 26.936829
Zn 13.475091 -2.691574 26.936829
Zn 13.475091 -5.385257 29.630512
Zn 10.781409 -2.691574 29.630512
Zn 13.475091 0.002109 -29.630512
Zn 10.781409 2.695791 -29.630512
Zn 10.781409 0.002109 -26.936829
Zn 13.475091 2.695791 -26.936829
Zn 13.475091 0.002109 -24.243146
Zn 10.781409 2.695791 -24.243146
Zn 10.781409 0.002109 -21.549463
Zn 13.475091 2.695791 -21.549463
Zn 13.475091 0.002109 -18.855780
Zn 10.781409 2.695791 -18.855780
Zn 10.781409 0.002109 -16.162097
Zn 13.475091 2.695791 -16.162097
Zn 13.475091 0.002109 -13.468414
Zn 10.781409 2.695791 -13.468414
Zn 10.781409 0.002109 -10.774731
Zn 13.475091 2.695791 -10.774731
Zn 13.475091 0.002109 -8.081049
Zn 10.781409 2.695791 -8.081049
Zn 10.781409 0.002109 -5.387366
Zn 13.475091 2.695791 -5.387366
Zn 13.475091 0.002109 -2.693683
Zn 10.781409 2.695791 -2.693683
Zn 10.781409 0.002109 0.000000
Zn 13.475091 2.695791 0.000000
Zn 13.475091 0.002109 2.693683
Zn 10.781409 2.695791 2.693683
Zn 10.781409 0.002109 5.387366
Zn 13.475091 2.695791 5.387366
Zn 13.475091 0.002109 8.081049
Zn 10.781409 2.695791 8.081049
Zn 10.781409 0.002109 10.774731
Zn 13.475091 2.695791 10.774731
Zn 13.475091 0.002109 13.468414
Zn 10.781409 2.695791 13.468414
Zn 10.781409 0.002109 16.162097
Zn 13.475091 2.695791 16.162097
Zn 13.475091 0.002109 18.855780
Zn 10.781409 2.695791 18.855780
Zn 10.781409 0.002109 21.549463
Zn 13.475091 2.695791 21.549463
Zn 13.475091 0.002109 24.243146
Zn 10.781409 2.695791 24.243146
Zn 10.781409 0.002109 26.936829
Zn 13.475091 2.695791 26.936829
Zn 13.475091 0.002109 29.630512
Zn 10.781409 2.695791 29.630512
Zn 13.475091 5.389474 -29.630512
Zn 10.781409 8.083157 -29.630512
Zn 10.781409 5.389474 -26.936829
Zn 13.475091 8.083157 -26.936829
Zn 13.475091 5.389474 -24.243146
Zn 10.781409 8.083157 -24.243146
Zn 10.781409 5.389474 -21.549463
Zn 13.475091 8.083157 -21.549463
Zn 13.475091 5.389474 -18.855780
Zn 10.781409 8.083157 -18.855780
Zn 10.781409 5.389474 -16.162097
Zn 13.475091 8.083157 -16.162097
Zn 13.475091 5.389474 -13.468414
Zn 10.781409 8.083157 -13.468414
Zn 10.781409 5.389474 -10.774731
Zn 13.475091 8.083157 -10.774731
Zn 13.475091 5.389474 -8.081049
Zn 10.781409 8.083157 -8.081049
Zn 10.781409 5.389474 -5.387366
Zn 13.475091 8.083157 -5.387366
Zn 13.475091 5.389474 -2.693683
Zn 10.781409 8.083157 -2.693683
Zn 10.781409 5.389474 0.000000
Zn 13.475091 8.083157 0.000000
Zn 13.475091 5.389474 2.693683
Zn 10.781409 8.083157 2.693683
Zn 10.781409 5.389474 5.387366
Zn 13.475091 8.083157 5.387366
Zn 13.475091 5.389474 8.081049
Zn 10.781409 8.083157 8.081049
Zn 10.781409 5.389474 10.774732
Zn 13.475091 8.083157 10.774732
Zn 13.475091 5.389474 13.468414
Zn 10.781409 8.083157 13.468414
Zn 10.781409 5.389474 16.162097
Zn 13.475091 8.083157 16.162097
Zn 13.475091 5.389474 18.855780
Zn 10.781409 8.083157 18.855780
Zn 10.781409 5.389474 21.549463
Zn 13.475091 8.083157 21.549463
Zn 13.475091 5.389474 24.243146
Zn 10.781409 8.083157 24.243146
Zn 10.781409 5.389474 26.936829
Zn 13.475091 8.083157 26.936829
Zn 13.475091 5.389474 29.630512
Zn 10.781409 8.083157 29.630512
Zn 10.781409 10.776840 -26.936829
Zn 13.475091 10.776840 -24.243146
Zn 10.781409 13.470523 -24.243146
Zn 10.781409 10.776840 -21.549463
Zn 13.475091 13.470523 -21.549463
Zn 13.475091 10.776840 -18.855780
Zn 10.781409 13.470523 -18.855780
Zn 10.781409 10.776840 -16.162097
Zn 13.475091 13.470523 -16.162097
Zn 13.475091 10.776840 -13.468414
Zn 10.781409 13.470523 -13.468414
Zn 10.781409 10.776840 -10.774731
Zn 13.475091 13.470523 -10.774731
Zn 13.475091 10.776840 -8.081049
Zn 10.781409 13.470523 -8.081049
Zn 10.781409 10.776840 -5.387366
Zn 13.475091 13.470523 -5.387366
Zn 13.475091 10.776840 -2.693683
Zn 10.781409 13.470523 -2.693683
Zn 10.781409 10.776840 0.000000
Zn 13.475091 13.470523 0.000000
Zn 13.475091 10.776840 2.693683
Zn 10.781409 13.470523 2.693683
Zn 10.781409 10.776840 5.387366
Zn 13.475091 13.470523 5.387366
Zn 13.475091 10.776840 8.081049
Zn 10.781409 13.470523 8.081049
Zn 10.781409 10.776840 10.774732
Zn 13.475091 13.470523 10.774732
Zn 13.475091 10.776840 13.468414
Zn 10.781409 13.470523 13.468414
Zn 10.781409 10.776840 16.162097
Zn 13.475091 13.470523 16.162097
Zn 13.475091 10.776840 18.855780
Zn 10.781409 13.470523 18.855780
Zn 10.781409 10.776840 21.549463
Zn 13.475091 13.470523 21.549463
Zn 13.475091 10.776840 24.243146
Zn 10.781409 13.470523 24.243146
Zn 10.781409 10.776840 26.936829
Zn 10.781409 16.164206 -21.549463
Zn 13.475091 16.164206 -18.855780
Zn 10.781409 18.857889 -18.855780
Zn 10.781409 16.164206 -16.162097
Zn 13.475091 18.857889 -16.162097
Zn 13.475091 16.164206 -13.468414
Zn 10.781409 18.857889 -13.468414
Zn 10.781409 16.164206 -10.774731
Zn 13.475091 18.857889 -10.774731
Zn 13.475091 16.164206 -8.081049
Zn 10.781409 18.857889 -8.081049
Zn 10.781409 16.164206 -5.387366
Zn 13.475091 18.857889 -5.387366
Zn 13.475091 16.164206 -2.693683
Zn 10.781409 18.857889 -2.693683
Zn 10.781409 16.164206 0.000000
Zn 13.475091 18.857889 0.000000
Zn 13.475091 16.164206 2.693683
Zn 10.781409 18.857889 2.693683
Zn 10.781409 16.164206 5.387366
Zn 13.475091 18.857889 5.387366
Zn 13.475091 16.164206 8.081049
Zn 10.781409 18.857889 8.081049
Zn 10.781409 16.164206 10.774732
Zn 13.475091 18.857889 10.774732
Zn 13.475091 16.164206 13.468414
Zn 10.781409 18.857889 13.468414
Zn 10.781409 16.164206 16.162097
Zn 13.475091 18.857889 16.162097
Zn 13.475091 16.164206 18.855780
Zn 10.781409 18.857889 18.855780
Zn 10.781409 16.164206 21.549463
Zn 10.781409 21.551572 -16.162097
Zn 13.475091 21.551572 -13.468414
Zn 10.781409 24.245254 -13.468414
Zn 10.781409 21.551572 -10.774731
Zn 13.475091 24.245254 -10.774731
Zn 13.475091 21.551572 -8.081049
Zn 10.781409 24.245254 -8.081049
Zn 10.781409 21.551572 -5.387366
Zn 13.475091 24.245254 -5.387366
Zn 13.475091 21.551572 -2.693683
Zn 10.781409 24.245254 -2.693683
Zn 10.781409 21.551572 0.000000
Zn 13.475091 24.245254 0.000000
Zn 13.475091 21.551572 2.693683
Zn 10.781409 24.245254 2.693683
Zn 10.781409 21.551572 5.387366
Zn 13.475091 24.245254 5.387366
Zn 13.475091 21.551572 8.081049
Zn 10.781409 24.245254 8.081049
Zn 10.781409 21.551572 10.774732
Zn 13.475091 24.245254 10.774732
Zn 13.475091 21.551572 13.468414
Zn 10.781409 24.245254 13.468414
Zn 10.781409 21.551572 16.162097
Zn 10.781409 26.938937 -10.774731
Zn 13.475091 26.938937 -8.081049
Zn 10.781409 29.632620 -8.081049
Zn 10.781409 26.938937 -5.387366
Zn 13.475091 29.632620 -5.387366
Zn 13.475091 26.938937 -2.693683
Zn 10.781409 29.632620 -2.693683
Zn 10.781409 26.938937 0.000000
Zn 13.475091 29.632620 0.000000
Zn 13.475091 26.938937 2.693683
Zn 10.781409 29.632620 2.693683
Zn 10.781409 26.938937 5.387366
Zn 13.475091 29.632620 5.387366
Zn 13.475091 26.938937 8.081049
Zn 10.781409 29.632620 8.081049
Zn 10.781409 26.938937 10.774732
Zn 16.168774 -29.628403 -2.693683
Zn 18.862457 -29.628403 -0.000000
Zn 16.168774 -29.628403 2.693683
Zn 16.168774 -24.241037 -8.081049
Zn 16.168774 -26.934720 -5.387366
Zn 18.862457 -24.241037 -5.387366
Zn 18.862457 -26.934720 -2.693683
Zn 16.168774 -24.241037 -2.693683
Zn 16.168774 -26.934720 -0.000000
Zn 18.862457 -24.241037 -0.000000
Zn 18.862457 -26.934720 2.693683
Zn 16.168774 -24.241037 2.693683
Zn 16.168774 -26.934720 5.387366
Zn 18.862457 -24.241037 5.387366
Zn 16.168774 -24.241037 8.081049
Zn 16.168774 -18.853672 -13.468414
Zn 16.168774 -21.547354 -10.774731
Zn 18.862457 -18.853672 -10.774731
Zn 18.862457 -21.547354 -8.081049
Zn 16.168774 -18.853672 -8.081049
Zn 16.168774 -21.547354 -5.387366
Zn 18.862457 -18.853672 -5.387366
Zn 18.862457 -21.547354 -2.693683
Zn 16.168774 -18.853672 -2.693683
Zn 16.168774 -21.547354 -0.000000
Zn 18.862457 -18.853672 -0.000000
Zn 18.862457 -21.547354 2.693683
Zn 16.168774 -18.853672 2.693683
Zn 16.168774 -21.547354 5.387366
Zn 18.862457 -18.853672 5.387366
Zn 18.862457 -21.547354 8.081049
Zn 16.168774 -18.853672 8.081049
Zn 16.168774 -21.547354 10.774731
Zn 18.862457 -18.853672 10.774731
Zn 16.168774 -18.853672 13.468414
Zn 16.168774 -13.466306 -18.855780
Zn 16.168774 -16.159989 -16.162097
Zn 18.862457 -13.466306 -16.162097
Zn 18.862457 -16.159989 -13.468414
Zn 16.168774 -13.466306 -13.468414
Zn 16.168774 -16.159989 -10.774731
Zn 18.862457 -13.466306 -10.774731
Zn 18.862457 -16.159989 -8.081049
Zn 16.168774 -13.466306 -8.081049
Zn 16.168774 -16.159989 -5.387366
Zn 18.862457 -13.466306 -5.387366
Zn 18.862457 -16.159989 -2.693683
Zn 16.168774 -13.466306 -2.693683
Zn 16.168774 -16.159989 -0.000000
Zn 18.862457 -13.466306 -0.000000
Zn 18.862457 -16.159989 2.693683
Zn 16.168774 -13.466306 2.693683
Zn 16.168774 -16.159989 5.387366
Zn 18.862457 -13.466306 5.387366
Zn 18.862457 -16.159989 8.081049
Zn 16.168774 -13.466306 8.081049
Zn 16.168774 -16.159989 10.774731
Zn 18.862457 -13.466306 10.774731
Zn 18.862457 -16.159989 13.468414
Zn 16.168774 -13.466306 13.468414
Zn 16.168774 -16.159989 16.162097
Zn 18.862457 -13.466306 16.162097
Zn 16.168774 -13.466306 18.855780
Zn 16.168774 -8.078940 -24.243146
Zn 16.168774 -10.772623 -21.549463
Zn 18.862457 -8.078940 -21.549463
Zn 18.862457 -10.772623 -18.855780
Zn 16.168774 -8.078940 -18.855780
Zn 16.168774 -10.772623 -16.162097
Zn 18.862457 -8.078940 -16.162097
Zn 18.862457 -10.772623 -13.468414
Zn 16.168774 -8.078940 -13.468414
Zn 16.168774 -10.772623 -10.774731
Zn 18.862457 -8.078940 -10.774731
Zn 18.862457 -10.772623 -8.081049
Zn 16.168774 -8.078940 -8.081049
Zn 16.168774 -10.772623 -5.387366
Zn 18.862457 -8.078940 -5.387366
Zn 18.862457 -10.772623 -2.693683
Zn 16.168774 -8.078940 -2.693683
Zn 16.168774 -10.772623 -0.000000
Zn 18.862457 -8.078940 0.000000
Zn 18.862457 -10.772623 2.693683
Zn 16.168774 -8.078940 2.693683
Zn 16.168774 -10.772623 5.387366
Zn 18.862457 -8.078940 5.387366
Zn 18.862457 -10.772623 8.081049
Zn 16.168774 -8.078940 8.081049
Zn 16.168774 -10.772623 10.774731
Zn 18.862457 -8.078940 10.774731
Zn 18.862457 -10.772623 13.468414
Zn 16.168774 -8.078940 13.468414
Zn 16.168774 -10.772623 16.162097
Zn 18.862457 -8.078940 16.162097
Zn 18.862457 -10.772623 18.855780
Zn 16.168774 -8.078940 18.855780
Zn 16.168774 -10.772623 21.549463
Zn 18.862457 -8.078940 21.549463
Zn 16.168774 -8.078940 24.243146
Zn 16.168774 -2.691574 -29.630512
Zn 16.168774 -5.385257 -26.936829
Zn 18.862457 -2.691574 -26.936829
Zn 18.862457 -5.385257 -24.243146
Zn 16.168774 -2.691574 -24.243146
Zn 16.168774 -5.385257 -21.549463
Zn 18.862457 -2.691574 -21.549463
Zn 18.862457 -5.385257 -18.855780
Zn 16.168774 -2.691574 -18.855780
Zn 16.168774 -5.385257 -16.162097
Zn 18.862457 -2.691574 -16.162097
Zn 18.862457 -5.385257 -13.468414
Zn 16.168774 -2.691574 -13.468414
Zn 16.168774 -5.385257 -10.774731
Zn 18.862457 -2.691574 -10.774731
Zn 18.862457 -5.385257 -8.081049
Zn 16.168774 -2.691574 -8.081049
Zn 16.168774 -5.385257 -5.387366
Zn 18.862457 -2.691574 -5.387366
Zn 18.862457 -5.385257 -2.693683
Zn 16.168774 -2.691574 -2.693683
Zn 16.168774 -5.385257 0.000000
Zn 18.862457 -2.691574 0.000000
Zn 18.862457 -5.385257 2.693683
Zn 16.168774 -2.691574 2.693683
Zn 16.168774 -5.385257 5.387366
Zn 18.862457 -2.691574 5.387366
Zn 18.862457 -5.385257 8.081049
Zn 16.168774 -2.691574 8.081049
Zn 16.168774 -5.385257 10.774731
Zn 18.862457 -2.691574 10.774731
Zn 18.862457 -5.385257 13.468414
Zn 16.168774 -2.691574 13.468414
Zn 16.168774 -5.385257 16.162097
Zn 18.862457 -2.691574 16.162097
Zn 18.862457 -5.385257 18.855780
Zn 16.168774 -2.691574 18.855780
Zn 16.168774 -5.385257 21.549463
Zn 18.862457 -2.691574 21.549463
Zn 18.862457 -5.385257 24.243146
Zn 16.168774 -2.691574 24.243146
Zn 16.168774 -5.385257 26.936829
Zn 18.862457 -2.691574 26.936829
Zn 16.168774 -2.691574 29.630512
Zn 18.862457 0.002109 -29.630512
Zn 16.168774 2.695791 -29.630512
Zn 16.168774 0.002109 -26.936829
Zn 18.862457 2.695791 -26.936829
Zn 18.862457 0.002109 -24.243146
Zn 16.168774 2.695791 -24.243146
Zn 16.168774 0.002109 -21.549463
Zn 18.862457 2.695791 -21.549463
Zn 18.862457 0.002109 -18.855780
Zn 16.168774 2.695791 -18.855780
Zn 16.168774 0.002109 -16.162097
Zn 18.862457 2.695791 -16.162097
Zn 18.862457 0.002109 -13.468414
Zn 16.168774 2.695791 -13.468414
Zn 16.168774 0.002109 -10.774731
Zn 18.862457 2.695791 -10.774731
Zn 18.862457 0.002109 -8.081049
Zn 16.168774 2.695791 -8.081049
Zn 16.168774 0.002109 -5.387366
Zn 18.862457 2.695791 -5.387366
Zn 18.862457 0.002109 -2.693683
Zn 16.168774 2.695791 -2.693683
Zn 16.168774 0.002109 0.000000
Zn 18.862457 2.695791 0.000000
Zn 18.862457 0.002109 2.693683
Zn 16.168774 2.695791 2.693683
Zn 16.168774 0.002109 5.387366
Zn 18.862457 2.695791 5.387366
Zn 18.862457 0.002109 8.081049
Zn 16.168774 2.695791 8.081049
Zn 16.168774 0.002109 10.774732
Zn 18.862457 2.695791 10.774732
Zn 18.862457 0.002109 13.468414
Zn 16.168774 2.695791 13.468414
Zn 16.168774 0.002109 16.162097
Zn 18.862457 2.695791 16.162097
Zn 18.862457 0.002109 18.855780
Zn 16.168774 2.695791 18.855780
Zn 16.168774 0.002109 21.549463
Zn 18.862457 2.695791 21.549463
Zn 18.862457 0.002109 24.243146
Zn 16.168774 2.695791 24.243146
Zn 16.168774 0.002109 26.936829
Zn 18.862457 2.695791 26.936829
Zn 18.862457 0.002109 29.630512
Zn 16.168774 2.695791 29.630512
Zn 16.168774 5.389474 -26.936829
Zn 18.862457 5.389474 -24.243146
Zn 16.168774 8.083157 -24.243146
Zn 16.168774 5.389474 -21.549463
Zn 18.862457 8.083157 -21.549463
Zn 18.862457 5.389474 -18.855780
Zn 16.168774 8.083157 -18.855780
Zn 16.168774 5.389474 -16.162097
Zn 18.862457 8.083157 -16.162097
Zn 18.862457 5.389474 -13.468414
Zn 16.168774 8.083157 -13.468414
Zn 16.168774 5.389474 -10.774731
Zn 18.862457 8.083157 -10.774731
Zn 18.862457 5.389474 -8.081049
Zn 16.168774 8.083157 -8.081049
Zn 16.168774 5.389474 -5.387366
Zn 18.862457 8.083157 -5.387366
Zn 18.862457 5.389474 -2.693683
Zn 16.168774 8.083157 -2.693683
Zn 16.168774 5.389474 0.000000
Zn 18.862457 8.083157 0.000000
Zn 18.862457 5.389474 2.693683
Zn 16.168774 8.083157 2.693683
Zn 16.168774 5.389474 5.387366
Zn 18.862457 8.083157 5.387366
Zn 18.862457 5.389474 8.081049
Zn 16.168774 8.083157 8.081049
Zn 16.168774 5.389474 10.774732
Zn 18.862457 8.083157 10.774732
Zn 18.862457 5.389474 13.468414
Zn 16.168774 8.083157 13.468414
Zn 16.168774 5.389474 16.162097
Zn 18.862457 8.083157 16.162097
Zn 18.862457 5.389474 18.855780
Zn 16.168774 8.083157 18.855780
Zn 16.168774 5.389474 21.549463
Zn 18.862457 8.083157 21.549463
Zn 18.862457 5.389474 24.243146
Zn 16.168774 8.083157 24.243146
Zn 16.168774 5.389474 26.936829
Zn 16.168774 10.776840 -21.549463
Zn 18.862457 10.776840 -18.855780
Zn 16.168774 13.470523 -18.855780
Zn 16.168774 10.776840 -16.162097
Zn 18.862457 13.470523 -16.162097
Zn 18.862457 10.776840 -13.468414
Zn 16.168774 13.470523 -13.468414
Zn 16.168774 10.776840 -10.774731
Zn 18.862457 13.470523 -10.774731
Zn 18.862457 10.776840 -8.081049
Zn 16.168774 13.470523 -8.081049
Zn 16.168774 10.776840 -5.387366
Zn 18.862457 13.470523 -5.387366
Zn 18.862457 10.776840 -2.693683
Zn 16.168774 13.470523 -2.693683
Zn 16.168774 10.776840 0.000000
Zn 18.862457 13.470523 0.000000
Zn 18.862457 10.776840 2.693683
Zn 16.168774 13.470523 2.693683
Zn 16.168774 10.776840 5.387366
Zn 18.862457 13.470523 5.387366
Zn 18.862457 10.776840 8.081049
Zn 16.168774 13.470523 8.081049
Zn 16.168774 10.776840 10.774732
Zn 18.862457 13.470523 10.774732
Zn 18.862457 10.776840 13.468414
Zn 16.168774 13.470523 13.468414
Zn 16.168774 10.776840 16.162097
Zn 18.862457 13.470523 16.162097
Zn 18.862457 10.776840 18.855780
Zn 16.168774 13.470523 18.855780
Zn 16.168774 10.776840 21.549463
Zn 16.168774 16.164206 -16.162097
Zn 18.862457 16.164206 -13.468414
Zn 16.168774 18.857889 -13.468414
Zn 16.168774 16.164206 -10.774731
Zn 18.862457 18.857889 -10.774731
Zn 18.862457 16.164206 -8.081049
Zn 16.168774 18.857889 -8.081049
Zn 16.168774 16.164206 -5.387366
Zn 18.862457 18.857889 -5.387366
Zn 18.862457 16.164206 -2.693683
Zn 16.168774 18.857889 -2.693683
Zn 16.168774 16.164206 0.000000
Zn 18.862457 18.857889 0.000000
Zn 18.862457 16.164206 2.693683
Zn 16.168774 18.857889 2.693683
Zn 16.168774 16.164206 5.387366
Zn 18.862457 18.857889 5.387366
Zn 18.862457 16.164206 8.081049
Zn 16.168774 18.857889 8.081049
Zn 16.168774 16.164206 10.774732
Zn 18.862457 18.857889 10.774732
Zn 18.862457 16.164206 13.468414
Zn 16.168774 18.857889 13.468414
Zn 16.168774 16.164206 16.162097
Zn 16.168774 21.551572 -10.774731
Zn 18.862457 21.551572 -8.081049
Zn 16.168774 24.245254 -8.081049
Zn 16.168774 21.551572 -5.387366
Zn 18.862457 24.245254 -5.387366
Zn 18.862457 21.551572 -2.693683
Zn 16.168774 24.245254 -2.693683
Zn 16.168774 21.551572 0.000000
Zn 18.862457 24.245254 0.000000
Zn 18.862457 21.551572 2.693683
Zn 16.168774 24.245254 2.693683
Zn 16.168774 21.551572 5.387366
Zn 18.862457 24.245254 5.387366
Zn 18.862457 21.551572 8.081049
Zn 16.168774 24.245254 8.081049
Zn 16.168774 21.551572 10.774732
Zn 16.168774 26.938937 -5.387366
Zn 18.862457 26.938937 -2.693683
Zn 16.168774 29.632620 -2.693683
Zn 16.168774 26.938937 0.000000
Zn 18.862457 29.632620 0.000000
Zn 18.862457 26.938937 2.693683
Zn 16.168774 29.632620 2.693683
Zn 16.168774 26.938937 5.387366
Zn 21.556140 -24.241037 -2.693683
Zn 21.556140 -26.934720 -0.000000
Zn 24.249823 -24.241037 -0.000000
Zn 21.556140 -24.241037 2.693683
Zn 21.556140 -18.853672 -8.081049
Zn 21.556140 -21.547354 -5.387366
Zn 24.249823 -18.853672 -5.387366
Zn 24.249823 -21.547354 -2.693683
Zn 21.556140 -18.853672 -2.693683
Zn 21.556140 -21.547354 -0.000000
Zn 24.249823 -18.853672 -0.000000
Zn 24.249823 -21.547354 2.693683
Zn 21.556140 -18.853672 2.693683
Zn 21.556140 -21.547354 5.387366
Zn 24.249823 -18.853672 5.387366
Zn 21.556140 -18.853672 8.081049
Zn 21.556140 -13.466306 -13.468414
Zn 21.556140 -16.159989 -10.774731
Zn 24.249823 -13.466306 -10.774731
Zn 24.249823 -16.159989 -8.081049
Zn 21.556140 -13.466306 -8.081049
Zn 21.556140 -16.159989 -5.387366
Zn 24.249823 -13.466306 -5.387366
Zn 24.249823 -16.159989 -2.693683
Zn 21.556140 -13.466306 -2.693683
Zn 21.556140 -16.159989 -0.000000
Zn 24.249823 -13.466306 0.000000
Zn 24.249823 -16.159989 2.693683
Zn 21.556140 -13.466306 2.693683
Zn 21.556140 -16.159989 5.387366
Zn 24.249823 -13.466306 5.387366
Zn 24.249823 -16.159989 8.081049
Zn 21.556140 -13.466306 8.081049
Zn 21.556140 -16.159989 10.774731
Zn 24.249823 -13.466306 10.774731
Zn 21.556140 -13.466306 13.468414
Zn 21.556140 -8.078940 -18.855780
Zn 21.556140 -10.772623 -16.162097
Zn 24.249823 -8.078940 -16.162097
Zn 24.249823 -10.772623 -13.468414
Zn 21.556140 -8.078940 -13.468414
Zn 21.556140 -10.772623 -10.774731
Zn 24.249823 -8.078940 -10.774731
Zn 24.249823 -10.772623 -8.081049
Zn 21.556140 -8.078940 -8.081049
Zn 21.556140 -10.772623 -5.387366
Zn 24.249823 -8.078940 -5.387366
Zn 24.249823 -10.772623 -2.693683
Zn 21.556140 -8.078940 -2.693683
Zn 21.556140 -10.772623 0.000000
Zn 24.249823 -8.078940 0.000000
Zn 24.249823 -10.772623 2.693683
Zn 21.556140 -8.078940 2.693683
Zn 21.556140 -10.772623 5.387366
Zn 24.249823 -8.078940 5.387366
Zn 24.249823 -10.772623 8.081049
Zn 21.556140 -8.078940 8.081049
Zn 21.556140 -10.772623 10.774731
Zn 24.249823 -8.078940 10.774731
Zn 24.249823 -10.772623 13.468414
Zn 21.556140 -8.078940 13.468414
Zn 21.556140 -10.772623 16.162097
Zn 24.249823 -8.078940 16.162097
Zn 21.556140 -8.078940 18.855780
Zn 21.556140 -2.691574 -24.243146
Zn 21.556140 -5.385257 -21.549463
Zn 24.249823 -2.691574 -21.549463
Zn 24.249823 -5.385257 -18.855780
Zn 21.556140 -2.691574 -18.855780
Zn 21.556140 -5.385257 -16.162097
Zn 24.249823 -2.691574 -16.162097
Zn 24.249823 -5.385257 -13.468414
Zn 21.556140 -2.691574 -13.468414
Zn 21.556140 -5.385257 -10.774731
Zn 24.249823 -2.691574 -10.774731
Zn 24.249823 -5.385257 -8.081049
Zn 21.556140 -2.691574 -8.081049
Zn 21.556140 -5.385257 -5.387366
Zn 24.249823 -2.691574 -5.387366
Zn 24.249823 -5.385257 -2.693683
Zn 21.556140 -2.691574 -2.693683
Zn 21.556140 -5.385257 0.000000
Zn 24.249823 -2.691574 0.000000
Zn 24.249823 -5.385257 2.693683
Zn 21.556140 -2.691574 2.693683
Zn 21.556140 -5.385257 5.387366
Zn 24.249823 -2.691574 5.387366
Zn 24.249823 -5.385257 8.081049
Zn 21.556140 -2.691574 8.081049
Zn 21.556140 -5.385257 10.774732
Zn 24.249823 -2.691574 10.774732
Zn 24.249823 -5.385257 13.468414
Zn 21.556140 -2.691574 13.468414
Zn 21.556140 -5.385257 16.162097
Zn 24.249823 -2.691574 16.162097
Zn 24.249823 -5.385257 18.855780
Zn 21.556140 -2.691574 18.855780
Zn 21.556140 -5.385257 21.549463
Zn 24.249823 -2.691574 21.549463
Zn 21.556140 -2.691574 24.243146
Zn 21.556140 0.002109 -26.936829
Zn 24.249823 0.002109 -24.243146
Zn 21.556140 2.695791 -24.243146
Zn 21.556140 0.002109 -21.549463
Zn 24.249823 2.695791 -21.549463
Zn 24.249823 0.002109 -18.855780
Zn 21.556140 2.695791 -18.855780
Zn 21.556140 0.002109 -16.162097
Zn 24.249823 2.695791 -16.162097
Zn 24.249823 0.002109 -13.468414
Zn 21.556140 2.695791 -13.468414
Zn 21.556140 0.002109 -10.774731
Zn 24.249823 2.695791 -10.774731
Zn 24.249823 0.002109 -8.081049
Zn 21.556140 2.695791 -8.081049
Zn 21.556140 0.002109 -5.387366
Zn 24.249823 2.695791 -5.387366
Zn 24.249823 0.002109 -2.693683
Zn 21.556140 2.695791 -2.693683
Zn 21.556140 0.002109 0.000000
Zn 24.249823 2.695791 0.000000
Zn 24.249823 0.002109 2.693683
Zn 21.556140 2.695791 2.693683
Zn 21.556140 0.002109 5.387366
Zn 24.249823 2.695791 5.387366
Zn 24.249823 0.002109 8.081049
Zn 21.556140 2.695791 8.081049
Zn 21.556140 0.002109 10.774732
Zn 24.249823 2.695791 10.774732
Zn 24.249823 0.002109 13.468414
Zn 21.556140 2.695791 13.468414
Zn 21.556140 0.002109 16.162097
Zn 24.249823 2.695791 16.162097
Zn 24.249823 0.002109 18.855780
Zn 21.556140 2.695791 18.855780
Zn 21.556140 0.002109 21.549463
Zn 24.249823 2.695791 21.549463
Zn 24.249823 0.002109 24.243146
Zn 21.556140 2.695791 24.243146
Zn 21.556140 0.002109 26.936829
Zn 21.556140 5.389474 -21.549463
Zn 24.249823 5.389474 -18.855780
Zn 21.556140 8.083157 -18.855780
Zn 21.556140 5.389474 -16.162097
Zn 24.249823 8.083157 -16.162097
Zn 24.249823 5.389474 -13.468414
Zn 21.556140 8.083157 -13.468414
Zn 21.556140 5.389474 -10.774731
Zn 24.249823 8.083157 -10.774731
Zn 24.249823 5.389474 -8.081049
Zn 21.556140 8.083157 -8.081049
Zn 21.556140 5.389474 -5.387366
Zn 24.249823 8.083157 -5.387366
Zn 24.249823 5.389474 -2.693683
Zn 21.556140 8.083157 -2.693683
Zn 21.556140 5.389474 0.000000
Zn 24.249823 8.083157 0.000000
Zn 24.249823 5.389474 2.693683
Zn 21.556140 8.083157 2.693683
Zn 21.556140 5.389474 5.387366
Zn 24.249823 8.083157 5.387366
Zn 24.249823 5.389474 8.081049
Zn 21.556140 8.083157 8.081049
Zn 21.556140 5.389474 10.774732
Zn 24.249823 8.083157 10.774732
Zn 24.249823 5.389474 13.468414
Zn 21.556140 8.083157 13.468414
Zn 21.556140 5.389474 16.162097
Zn 24.249823 8.083157 16.162097
Zn 24.249823 5.389474 18.855780
Zn 21.556140 8.083157 18.855780
Zn 21.556140 5.389474 21.549463
Zn 21.556140 10.776840 -16.162097
Zn 24.249823 10.776840 -13.468414
Zn 21.556140 13.470523 -13.468414
Zn 21.556140 10.776840 -10.774731
Zn 24.249823 13.470523 -10.774731
Zn 24.249823 10.776840 -8.081049
Zn 21.556140 13.470523 -8.081049
Zn 21.556140 10.776840 -5.387366
Zn 24.249823 13.470523 -5.387366
Zn 24.249823 10.776840 -2.693683
Zn 21.556140 13.470523 -2.693683
Zn 21.556140 10.776840 0.000000
Zn 24.249823 13.470523 0.000000
Zn 24.249823 10.776840 2.693683
Zn 21.556140 13.470523 2.693683
Zn 21.556140 10.776840 5.387366
Zn 24.249823 13.470523 5.387366
Zn 24.249823 10.776840 8.081049
Zn 21.556140 13.470523 8.081049
Zn 21.556140 10.776840 10.774732
Zn 24.249823 13.470523 10.774732
Zn 24.249823 10.776840 13.468414
Zn 21.556140 13.470523 13.468414
Zn 21.556140 10.776840 16.162097
Zn 21.556140 16.164206 -10.774731
Zn 24.249823 16.164206 -8.081049
Zn 21.556140 18.857889 -8.081049
Zn 21.556140 16.164206 -5.387366
Zn 24.249823 18.857889 -5.387366
Zn 24.249823 16.164206 -2.693683
Zn 21.556140 18.857889 -2.693683
Zn 21.556140 16.164206 0.000000
Zn 24.249823 18.857889 0.000000
Zn 24.249823 16.164206 2.693683
Zn 21.556140 18.857889 2.693683
Zn 21.556140 16.164206 5.387366
Zn 24.249823 18.857889 5.387366
Zn 24.249823 16.164206 8.081049
Zn 21.556140 18.857889 8.081049
Zn 21.556140 16.164206 10.774732
Zn 21.556140 21.551572 -5.387366
Zn 24.249823 21.551572 -2.693683
Zn 21.556140 24.245254 -2.693683
Zn 21.556140 21.551572 0.000000
Zn 24.249823 24.245254 0.000000
Zn 24.249823 21.551572 2.693683
Zn 21.556140 24.245254 2.693683
Zn 21.556140 21.551572 5.387366
Zn 21.556140 26.938937 0.000000
Zn 26.943506 -18.853672 -2.693683
Zn 26.943506 -21.547354 -0.000000
Zn 29.637189 -18.853672 0.000000
Zn 26.943506 -18.853672 2.693683
Zn 26.943506 -13.466306 -8.081049
Zn 26.943506 -16.159989 -5.387366
Zn 29.637189 -13.466306 -5.387366
Zn 29.637189 -16.159989 -2.693683
Zn 26.943506 -13.466306 -2.693683
Zn 26.943506 -16.159989 0.000000
Zn 29.637189 -13.466306 0.000000
Zn 29.637189 -16.159989 2.693683
Zn 26.943506 -13.466306 2.693683
Zn 26.943506 -16.159989 5.387366
Zn 29.637189 -13.466306 5.387366
Zn 26.943506 -13.466306 8.081049
Zn 26.943506 -8.078940 -13.468414
Zn 26.943506 -10.772623 -10.774731
Zn 29.637189 -8.078940 -10.774731
Zn 29.637189 -10.772623 -8.081049
Zn 26.943506 -8.078940 -8.081049
Zn 26.943506 -10.772623 -5.387366
Zn 29.637189 -8.078940 -5.387366
Zn 29.637189 -10.772623 -2.693683
Zn 26.943506 -8.078940 -2.693683
Zn 26.943506 -10.772623 0.000000
Zn 29.637189 -8.078940 0.000000
Zn 29.637189 -10.772623 2.693683
Zn 26.943506 -8.078940 2.693683
Zn 26.943506 -10.772623 5.387366
Zn 29.637189 -8.078940 5.387366
Zn 29.637189 -10.772623 8.081049
Zn 26.943506 -8.078940 8.081049
Zn 26.943506 -10.772623 10.774732
Zn 29.637189 -8.078940 10.774732
Zn 26.943506 -8.078940 13.468414
Zn 26.943506 -2.691574 -18.855780
Zn 26.943506 -5.385257 -16.162097
Zn 29.637189 -2.691574 -16.162097
Zn 29.637189 -5.385257 -13.468414
Zn 26.943506 -2.691574 -13.468414
Zn 26.943506 -5.385257 -10.774731
Zn 29.637189 -2.691574 -10.774731
Zn 29.637189 -5.385257 -8.081049
Zn 26.943506 -2.691574 -8.081049
Zn 26.943506 -5.385257 -5.387366
Zn 29.637189 -2.691574 -5.387366
Zn 29.637189 -5.385257 -2.693683
Zn 26.943506 -2.691574 -2.693683
Zn 26.943506 -5.385257 0.000000
Zn 29.637189 -2.691574 0.000000
Zn 29.637189 -5.385257 2.693683
Zn 26.943506 -2.691574 2.693683
Zn 26.943506 -5.385257 5.387366
Zn 29.637189 -2.691574 5.387366
Zn 29.637189 -5.385257 8.081049
Zn 26.943506 -2.691574 8.081049
Zn 26.943506 -5.385257 10.774732
Zn 29.637189 -2.691574 10.774732
Zn 29.637189 -5.385257 13.468414
Zn 26.943506 -2.691574 13.468414
Zn 26.943506 -5.385257 16.162097
Zn 29.637189 -2.691574 16.162097
Zn 26.943506 -2.691574 18.855780
Zn 26.943506 0.002109 -21.549463
Zn 29.637189 0.002109 -18.855780
Zn 26.943506 2.695791 -18.855780
Zn 26.943506 0.002109 -16.162097
Zn 29.637189 2.695791 -16.162097
Zn 29.637189 0.002109 -13.468414
Zn 26.943506 2.695791 -13.468414
Zn 26.943506 0.002109 -10.774731
Zn 29.637189 2.695791 -10.774731
Zn 29.637189 0.002109 -8.081049
Zn 26.943506 2.695791 -8.081049
Zn 26.943506 0.002109 -5.387366
Zn 29.637189 2.695791 -5.387366
Zn 29.637189 0.002109 -2.693683
Zn 26.943506 2.695791 -2.693683
Zn 26.943506 0.002109 0.000000
Zn 29.637189 2.695791 0.000000
Zn 29.637189 0.002109 2.693683
Zn 26.943506 2.695791 2.693683
Zn 26.943506 0.002109 5.387366
Zn 29.637189 2.695791 5.387366
Zn 29.637189 0.002109 8.081049
Zn 26.943506 2.695791 8.081049
Zn 26.943506 0.002109 10.774732
Zn 29.637189 2.695791 10.774732
Zn 29.637189 0.002109 13.468414
Zn 26.943506 2.695791 13.468414
Zn 26.943506 0.002109 16.162097
Zn 29.637189 2.695791 16.162097
Zn 29.637189 0.002109 18.855780
Zn 26.943506 2.695791 18.855780
Zn 26.943506 0.002109 21.549463
Zn 26.943506 5.389474 -16.162097
Zn 29.637189 5.389474 -13.468414
Zn 26.943506 8.083157 -13.468414
Zn 26.943506 5.389474 -10.774731
Zn 29.637189 8.083157 -10.774731
Zn 29.637189 5.389474 -8.081049
Zn 26.943506 8.083157 -8.081049
Zn 26.943506 5.389474 -5.387366
Zn 29.637189 8.083157 -5.387366
Zn 29.637189 5.389474 -2.693683
Zn 26.943506 8.083157 -2.693683
Zn 26.943506 5.389474 0.000000
Zn 29.637189 8.083157 0.000000
Zn 29.637189 5.389474 2.693683
Zn 26.943506 8.083157 2.693683
Zn 26.943506 5.389474 5.387366
Zn 29.637189 8.083157 5.387366
Zn 29.637189 5.389474 8.081049
Zn 26.943506 8.083157 8.081049
Zn 26.943506 5.389474 10.774732
Zn 29.637189 8.083157 10.774732
Zn 29.637189 5.389474 13.468414
Zn 26.943506 8.083157 13.468414
Zn 26.943506 5.389474 16.162097
Zn 26.943506 10.776840 -10.774731
Zn 29.637189 10.776840 -8.081049
Zn 26.943506 13.470523 -8.081049
Zn 26.943506 10.776840 -5.387366
Zn 29.637189 13.470523 -5.387366
Zn 29.637189 10.776840 -2.693683
Zn 26.943506 13.470523 -2.693683
Zn 26.943506 10.776840 0.000000
Zn 29.637189 13.470523 0.000000
Zn 29.637189 10.776840 2.693683
Zn 26.943506 13.470523 2.693683
Zn 26.943506 10.776840 5.387366
Zn 29.637189 13.470523 5.387366
Zn 29.637189 10.776840 8.081049
Zn 26.943506 13.470523 8.081049
Zn 26.943506 10.776840 10.774732
Zn 26.943506 16.164206 -5.387366
Zn 29.637189 16.164206 -2.693683
Zn 26.943506 18.857889 -2.693683
Zn 26.943506 16.164206 0.000000
Zn 29.637189 18.857889 0.000000
Zn 29.637189 16.164206 2.693683
Zn 26.943506 18.857889 2.693683
Zn 26.943506 16.164206 5.387366
Zn 26.943506 21.551572 0.000000
S -28.276993 -17.506830 -4.040524
S -28.276993 -20.200513 -1.346841
S -28.276993 -17.506830 1.346841
S -28.276993 -12.119464 -9.427890
S -28.276993 -14.813147 -6.734207
S -28.276993 -12.119464 -4.040524
S -28.276993 -14.813147 -1.346841
S -28.276993 -12.119464 1.346841
S -28.276993 -14.813147 4.040524
S -28.276993 -12.119464 6.734207
S -28.276993 -6.732099 -14.815256
S -28.276993 -9.425782 -12.121573
S -28.276993 -6.732099 -9.427890
S -28.276993 -9.425782 -6.734207
S -28.276993 -6.732099 -4.040524
S -28.276993 -9.425782 -1.346841
S -28.276993 -6.732099 1.346841
S -28.276993 -9.425782 4.040524
S -28.276993 -6.732099 6.734207
S -28.276993 -9.425782 9.427890
S -28.276993 -6.732099 12.121573
S -28.276993 -1.344733 -20.202622
S -28.276993 -4.038416 -17.508939
S -28.276993 -1.344733 -14.815256
S -28.276993 -4.038416 -12.121573
S -28.276993 -1.344733 -9.427890
S -28.276993 -4.038416 -6.734207
S -28.276993 -1.344733 -4.040524
S -28.276993 -4.038416 -1.346841
S -28.276993 -1.344733 1.346841
S -28.276993 -4.038416 4.040524
S -28.276993 -1.344733 6.734207
S -28.276993 -4.038416 9.427890
S -28.276993 -1.344733 12.121573
S -28.276993 -4.038416 14.815256
S -28.276993 -1.344733 17.508939
S -28.276993 1.348950 -17.508939
S -28.276993 4.042633 -14.815256
S -28.276993 1.348950 -12.121573
S -28.276993 4.042633 -9.427890
S -28.276993 1.348950 -6.734207
S -28.276993 4.042633 -4.040524
S -28.276993 1.348950 -1.346841
S -28.276993 4.042633 1.346841
S -28.276993 1.348950 4.040524
S -28.276993 4.042633 6.734207
S -28.276993 1.348950 9.427890
S -28.276993 4.042633 12.121573
S -28.276993 1.348950 14.815256
S -28.276993 4.042633 17.508939
S -28.276993 1.348950 20.202622
S -28.276993 6.736316 -12.121573
S -28.276993 9.429999 -9.427890
S -28.276993 6.736316 -6.734207
S -28.276993 9.429999 -4.040524
S -28.276993 6.736316 -1.346841
S -28.276993 9.429999 1.346841
S -28.276993 6.736316 4.040524
S -28.276993 9.429999 6.734207
S -28.276993 6.736316 9.427890
S -28.276993 9.429999 12.121573
S -28.276993 6.736316 14.815256
S -28.276993 12.123681 -6.734207
S -28.276993 14.817364 -4.040524
S -28.276993 12.123681 -1.346841
S -28.276993 14.817364 1.346841
S -28.276993 12.123681 4.040524
S -28.276993 14.817364 6.734207
S -28.276993 12.123681 9.427890
S -28.276993 17.511047 -1.346841
S -28.276993 20.204730 1.346841
S -28.276993 17.511047 4.040524
S -25.583310 -22.894196 -1.346841
S -22.889627 -22.894196 -4.040524
S -22.889627 -25.587879 -1.346841
S -22.889627 -22.894196 1.346841
S -25.583310 -17.506830 -6.734207
S -22.889627 -17.506830 -9.427890
S -22.889627 -20.200513 -6.734207
S -25.583310 -20.200513 -4.040524
S -25.583310 -17.506830 -1.346841
S -22.889627 -17.506830 -4.040524
S -22.889627 -20.200513 -1.346841
S -25.583310 -20.200513 1.346841
S -25.583310 -17.506830 4.040524
S -22.889627 -17.506830 1.346841
S -22.889627 -20.200513 4.040524
S -22.889627 -17.506830 6.734207
S -25.583310 -12.119464 -12.121573
S -22.889627 -12.119464 -14.815256
S -22.889627 -14.813147 -12.121573
S -25.583310 -14.813147 -9.427890
S -25.583310 -12.119464 -6.734207
S -22.889627 -12.119464 -9.427890
S -22.889627 -14.813147 -6.734207
S -25.583310 -14.813147 -4.040524
S -25.583310 -12.119464 -1.346841
S -22.889627 -12.119464 -4.040524
S -22.889627 -14.813147 -1.346841
S -25.583310 -14.813147 1.346841
S -25.583310 -12.119464 4.040524
S -22.889627 -12.119464 1.346841
S -22.889627 -14.813147 4.040524
S -25.583310 -14.813147 6.734207
S -25.583310 -12.119464 9.427890
S -22.889627 -12.119464 6.734207
S -22.889627 -14.813147 9.427890
S -22.889627 -12.119464 12.121573
S -25.583310 -6.732099 -17.508939
S -22.889627 -6.732099 -20.202622
S -22.889627 -9.425782 -17.508939
S -25.583310 -9.425782 -14.815256
S -25.583310 -6.732099 -12.121573
S -22.889627 -6.732099 -14.815256
S -22.889627 -9.425782 -12.121573
S -25.583310 -9.425782 -9.427890
S -25.583310 -6.732099 -6.734207
S -22.889627 -6.732099 -9.427890
S -22.889627 -9.425782 -6.734207
S -25.583310 -9.425782 -4.040524
S -25.583310 -6.732099 -1.346841
S -22.889627 -6.732099 -4.040524
S -22.889627 -9.425782 -1.346841
S -25.583310 -9.425782 1.346841
S -25.583310 -6.732099 4.040524
S -22.889627 -6.732099 1.346841
S -22.889627 -9.425782 4.040524
S -25.583310 -9.425782 6.734207
S -25.583310 -6.732099 9.427890
S -22.889627 -6.732099 6.734207
S -22.889627 -9.425782 9.427890
S -25.583310 -9.425782 12.121573
S -25.583310 -6.732099 14.815256
S -22.889627 -6.732099 12.121573
S -22.889627 -9.425782 14.815256
S -22.889627 -6.732099 17.508939
S -25.583310 -1.344733 -22.896304
S -22.889627 -1.344733 -25.589987
S -22.889627 -4.038416 -22.896304
S -25.583310 -4.038416 -20.202622
S -25.583310 -1.344733 -17.508939
S -22.889627 -1.344733 -20.202622
S -22.889627 -4.038416 -17.508939
S -25.583310 -4.038416 -14.815256
S -25.583310 -1.344733 -12.121573
S -22.889627 -1.344733 -14.815256
S -22.889627 -4.038416 -12.121573
S -25.583310 -4.038416 -9.427890
S -25.583310 -1.344733 -6.734207
S -22.889627 -1.344733 -9.427890
S -22.889627 -4.038416 -6.734207
S -25.583310 -4.038416 -4.040524
S -25.583310 -1.344733 -1.346841
S -22.889627 -1.344733 -4.040524
S -22.889627 -4.038416 -1.346841
S -25.583310 -4.038416 1.346841
S -25.583310 -1.344733 4.040524
S -22.889627 -1.344733 1.346841
S -22.889627 -4.038416 4.040524
S -25.583310 -4.038416 6.734207
S -25.583310 -1.344733 9.427890
S -22.889627 -1.344733 6.734207
S -22.889627 -4.038416 9.427890
S -25.583310 -4.038416 12.121573
S -25.583310 -1.344733 14.815256
S -22.889627 -1.344733 12.121573
S -22.889627 -4.038416 14.815256
S -25.583310 -4.038416 17.508939
S -25.583310 -1.344733 20.202622
S -22.889627 -1.344733 17.508939
S -22.889627 -4.038416 20.202622
S -22.889627 -1.344733 22.896304
S -22.889627 1.348950 -22.896304
S -25.583310 1.348950 -20.202622
S -25.583310 4.042633 -17.508939
S -22.889627 4.042633 -20.202622
S -22.889627 1.348950 -17.508939
S -25.583310 1.348950 -14.815256
S -25.583310 4.042633 -12.121573
S -22.889627 4.042633 -14.815256
S -22.889627 1.348950 -12.121573
S -25.583310 1.348950 -9.427890
S -25.583310 4.042633 -6.734207
S -22.889627 4.042633 -9.427890
S -22.889627 1.348950 -6.734207
S -25.583310 1.348950 -4.040524
S -25.583310 4.042633 -1.346841
S -22.889627 4.042633 -4.040524
S -22.889627 1.348950 -1.346841
S -25.583310 1.348950 1.346841
S -25.583310 4.042633 4.040524
S -22.889627 4.042633 1.346841
S -22.889627 1.348950 4.040524
S -25.583310 1.348950 6.734207
S -25.583310 4.042633 9.427890
S -22.889627 4.042633 6.734207
S -22.889627 1.348950 9.427890
S -25.583310 1.348950 12.121573
S -25.583310 4.042633 14.815256
S -22.889627 4.042633 12.121573
S -22.889627 1.348950 14.815256
S -25.583310 1.348950 17.508939
S -25.583310 4.042633 20.202622
S -22.889627 4.042633 17.508939
S -22.889627 1.348950 20.202622
S -25.583310 1.348950 22.896304
S -22.889627 4.042633 22.896304
S -22.889627 1.348950 25.589987
S -22.889627 6.736316 -17.508939
S -25.583310 6.736316 -14.815256
S -25.583310 9.429999 -12.121573
S -22.889627 9.429999 -14.815256
S -22.889627 6.736316 -12.121573
S -25.583310 6.736316 -9.427890
S -25.583310 9.429999 -6.734207
S -22.889627 9.429999 -9.427890
S -22.889627 6.736316 -6.734207
S -25.583310 6.736316 -4.040524
S -25.583310 9.429999 -1.346841
S -22.889627 9.429999 -4.040524
S -22.889627 6.736316 -1.346841
S -25.583310 6.736316 1.346841
S -25.583310 9.429999 4.040524
S -22.889627 9.429999 1.346841
S -22.889627 6.736316 4.040524
S -25.583310 6.736316 6.734207
S -25.583310 9.429999 9.427890
S -22.889627 9.429999 6.734207
S -22.889627 6.736316 9.427890
S -25.583310 6.736316 12.121573
S -25.583310 9.429999 14.815256
S -22.889627 9.429999 12.121573
S -22.889627 6.736316 14.815256
S -25.583310 6.736316 17.508939
S -22.889627 9.429999 17.508939
S -22.889627 6.736316 20.202622
S -22.889627 12.123681 -12.121573
S -25.583310 12.123681 -9.427890
S -25.583310 14.817364 -6.734207
S -22.889627 14.817364 -9.427890
S -22.889627 12.123681 -6.734207
S -25.583310 12.123681 -4.040524
S -25.583310 14.817364 -1.346841
S -22.889627 14.817364 -4.040524
S -22.889627 12.123681 -1.346841
S -25.583310 12.123681 1.346841
S -25.583310 14.817364 4.040524
S -22.889627 14.817364 1.346841
S -22.889627 12.123681 4.040524
S -25.583310 12.123681 6.734207
S -25.583310 14.817364 9.427890
S -22.889627 14.817364 6.734207
S -22.889627 12.123681 9.427890
S -25.583310 12.123681 12.121573
S -22.889627 14.817364 12.121573
S -22.889627 12.123681 14.815256
S -22.889627 17.511047 -6.734207
S -25.583310 17.511047 -4.040524
S -25.583310 20.204730 -1.346841
S -22.889627 20.204730 -4.040524
S -22.889627 17.511047 -1.346841
S -25.583310 17.511047 1.346841
S -25.583310 20.204730 4.040524
S -22.889627 20.204730 1.346841
S -22.889627 17.511047 4.040524
S -25.583310 17.511047 6.734207
S -22.889627 20.204730 6.734207
S -22.889627 17.511047 9.427890
S -22.889627 22.898413 -1.346841
S -25.583310 22.898413 1.346841
S -22.889627 25.592096 1.346841
S -22.889627 22.898413 4.040524
S -20.195944 -28.281562 -1.346841
S -17.502262 -28.281562 -4.040524
S -17.502262 -28.281562 1.346841
S -20.195944 -22.894196 -6.734207
S -17.502262 -22.894196 -9.427890
S -17.502262 -25.587879 -6.734207
S -20.195944 -25.587879 -4.040524
S -20.195944 -22.894196 -1.346841
S -17.502262 -22.894196 -4.040524
S -17.502262 -25.587879 -1.346841
S -20.195944 -25.587879 1.346841
S -20.195944 -22.894196 4.040524
S -17.502262 -22.894196 1.346841
S -17.502262 -25.587879 4.040524
S -17.502262 -22.894196 6.734207
S -20.195944 -17.506830 -12.121573
S -17.502262 -17.506830 -14.815256
S -17.502262 -20.200513 -12.121573
S -20.195944 -20.200513 -9.427890
S -20.195944 -17.506830 -6.734207
S -17.502262 -17.506830 -9.427890
S -17.502262 -20.200513 -6.734207
S -20.195944 -20.200513 -4.040524
S -20.195944 -17.506830 -1.346841
S -17.502262 -17.506830 -4.040524
S -17.502262 -20.200513 -1.346841
S -20.195944 -20.200513 1.346841
S -20.195944 -17.506830 4.040524
S -17.502262 -17.506830 1.346841
S -17.502262 -20.200513 4.040524
S -20.195944 -20.200513 6.734207
S -20.195944 -17.506830 9.427890
S -17.502262 -17.506830 6.734207
S -17.502262 -20.200513 9.427890
S -17.502262 -17.506830 12.121573
S -20.195944 -12.119464 -17.508939
S -17.502262 -12.119464 -20.202622
S -17.502262 -14.813147 -17.508939
S -20.195944 -14.813147 -14.815256
S -20.195944 -12.119464 -12.121573
S -17.502262 -12.119464 -14.815256
S -17.502262 -14.813147 -12.121573
S -20.195944 -14.813147 -9.427890
S -20.195944 -12.119464 -6.734207
S -17.502262 -12.119464 -9.427890
S -17.502262 -14.813147 -6.734207
S -20.195944 -14.813147 -4.040524
S -20.195944 -12.119464 -1.346841
S -17.502262 -12.119464 -4.040524
S -17.502262 -14.813147 -1.346841
S -20.195944 -14.813147 1.346841
S -20.195944 -12.119464 4.040524
S -17.502262 -12.119464 1.346841
S -17.502262 -14.813147 4.040524
S -20.195944 -14.813147 6.734207
S -20.195944 -12.119464 9.427890
S -17.502262 -12.119464 6.734207
S -17.502262 -14.813147 9.427890
S -20.195944 -14.813147 12.121573
S -20.195944 -12.119464 14.815256
S -17.502262 -12.119464 12.121573
S -17.502262 -14.813147 14.815256
S -17.502262 -12.119464 17.508939
S -20.195944 -6.732099 -22.896304
S -17.502262 -6.732099 -25.589987
S -17.502262 -9.425782 -22.896304
S -20.195944 -9.425782 -20.202622
S -20.195944 -6.732099 -17.508939
S -17.502262 -6.732099 -20.202622
S -17.502262 -9.425782 -17.508939
S -20.195944 -9.425782 -14.815256
S -20.195944 -6.732099 -12.121573
S -17.502262 -6.732099 -14.815256
S -17.502262 -9.425782 -12.121573
S -20.195944 -9.425782 -9.427890
S -20.195944 -6.732099 -6.734207
S -17.502262 -6.732099 -9.427890
S -17.502262 -9.425782 -6.734207
S -20.195944 -9.425782 -4.040524
S -20.195944 -6.732099 -1.346841
S -17.502262 -6.732099 -4.040524
S -17.502262 -9.425782 -1.346841
S -20.195944 -9.425782 1.346841
S -20.195944 -6.732099 4.040524
S -17.502262 -6.732099 1.346841
S -17.502262 -9.425782 4.040524
S -20.195944 -9.425782 6.734207
S -20.195944 -6.732099 9.427890
S -17.502262 -6.732099 6.734207
S -17.502262 -9.425782 9.427890
S -20.195944 -9.425782 12.121573
S -20.195944 -6.732099 14.815256
S -17.502262 -6.732099 12.121573
S -17.502262 -9.425782 14.815256
S -20.195944 -9.425782 17.508939
S -20.195944 -6.732099 20.202622
S -17.502262 -6.732099 17.508939
S -17.502262 -9.425782 20.202622
S -17.502262 -6.732099 22.896304
S -20.195944 -1.344733 -28.283670
S -17.502262 -4.038416 -28.283670
S -20.195944 -4.038416 -25.589987
S -20.195944 -1.344733 -22.896304
S -17.502262 -1.344733 -25.589987
S -17.502262 -4.038416 -22.896304
S -20.195944 -4.038416 -20.202622
S -20.195944 -1.344733 -17.508939
S -17.502262 -1.344733 -20.202622
S -17.502262 -4.038416 -17.508939
S -20.195944 -4.038416 -14.815256
S -20.195944 -1.344733 -12.121573
S -17.502262 -1.344733 -14.815256
S -17.502262 -4.038416 -12.121573
S -20.195944 -4.038416 -9.427890
S -20.195944 -1.344733 -6.734207
S -17.502262 -1.344733 -9.427890
S -17.502262 -4.038416 -6.734207
S -20.195944 -4.038416 -4.040524
S -20.195944 -1.344733 -1.346841
S -17.502262 -1.344733 -4.040524
S -17.502262 -4.038416 -1.346841
S -20.195944 -4.038416 1.346841
S -20.195944 -1.344733 4.040524
S -17.502262 -1.344733 1.346841
S -17.502262 -4.038416 4.040524
S -20.195944 -4.038416 6.734207
S -20.195944 -1.344733 9.427890
S -17.502262 -1.344733 6.734207
S -17.502262 -4.038416 9.427890
S -20.195944 -4.038416 12.121573
S -20.195944 -1.344733 14.815256
S -17.502262 -1.344733 12.121573
S -17.502262 -4.038416 14.815256
S -20.195944 -4.038416 17.508939
S -20.195944 -1.344733 20.202622
S -17.502262 -1.344733 17.508939
S -17.502262 -4.038416 20.202622
S -20.195944 -4.038416 22.896304
S -20.195944 -1.344733 25.589987
S -17.502262 -1.344733 22.896304
S -17.502262 -4.038416 25.589987
S -17.502262 -1.344733 28.283670
S -17.502262 1.348950 -28.283670
S -20.195944 1.348950 -25.589987
S -20.195944 4.042633 -22.896304
S -17.502262 4.042633 -25.589987
S -17.502262 1.348950 -22.896304
S -20.195944 1.348950 -20.202622
S -20.195944 4.042633 -17.508939
S -17.502262 4.042633 -20.202622
S -17.502262 1.348950 -17.508939
S -20.195944 1.348950 -14.815256
S -20.195944 4.042633 -12.121573
S -17.502262 4.042633 -14.815256
S -17.502262 1.348950 -12.121573
S -20.195944 1.348950 -9.427890
S -20.195944 4.042633 -6.734207
S -17.502262 4.042633 -9.427890
S -17.502262 1.348950 -6.734207
S -20.195944 1.348950 -4.040524
S -20.195944 4.042633 -1.346841
S -17.502262 4.042633 -4.040524
S -17.502262 1.348950 -1.346841
S -20.195944 1.348950 1.346841
S -20.195944 4.042633 4.040524
S -17.502262 4.042633 1.346841
S -17.502262 1.348950 4.040524
S -20.195944 1.348950 6.734207
S -20.195944 4.042633 9.427890
S -17.502262 4.042633 6.734207
S -17.502262 1.348950 9.427890
S -20.195944 1.348950 12.121573
S -20.195944 4.042633 14.815256
S -17.502262 4.042633 12.121573
S -17.502262 1.348950 14.815256
S -20.195944 1.348950 17.508939
S -20.195944 4.042633 20.202622
S -17.502262 4.042633 17.508939
S -17.502262 1.348950 20.202622
S -20.195944 1.348950 22.896304
S -20.195944 4.042633 25.589987
S -17.502262 4.042633 22.896304
S -17.502262 1.348950 25.589987
S -20.195944 1.348950 28.283670
S -17.502262 4.042633 28.283670
S -17.502262 6.736316 -22.896304
S -20.195944 6.736316 -20.202622
S -20.195944 9.429999 -17.508939
S -17.502262 9.429999 -20.202622
S -17.502262 6.736316 -17.508939
S -20.195944 6.736316 -14.815256
S -20.195944 9.429999 -12.121573
S -17.502262 9.429999 -14.815256
S -17.502262 6.736316 -12.121573
S -20.195944 6.736316 -9.427890
S -20.195944 9.429999 -6.734207
S -17.502262 9.429999 -9.427890
S -17.502262 6.736316 -6.734207
S -20.195944 6.736316 -4.040524
S -20.195944 9.429999 -1.346841
S -17.502262 9.429999 -4.040524
S -17.502262 6.736316 -1.346841
S -20.195944 6.736316 1.346841
S -20.195944 9.429999 4.040524
S -17.502262 9.429999 1.346841
S -17.502262 6.736316 4.040524
S -20.195944 6.736316 6.734207
S -20.195944 9.429999 9.427890
S -17.502262 9.429999 6.734207
S -17.502262 6.736316 9.427890
S -20.195944 6.736316 12.121573
S -20.195944 9.429999 14.815256
S -17.502262 9.429999 12.121573
S -17.502262 6.736316 14.815256
S -20.195944 6.736316 17.508939
S -20.195944 9.429999 20.202622
S -17.502262 9.429999 17.508939
S -17.502262 6.736316 20.202622
S -20.195944 6.736316 22.896304
S -17.502262 9.429999 22.896304
S -17.502262 6.736316 25.589987
S -17.502262 12.123681 -17.508939
S -20.195944 12.123681 -14.815256
S -20.195944 14.817364 -12.121573
S -17.502262 14.817364 -14.815256
S -17.502262 12.123681 -12.121573
S -20.195944 12.123681 -9.427890
S -20.195944 14.817364 -6.734207
S -17.502262 14.817364 -9.427890
S -17.502262 12.123681 -6.734207
S -20.195944 12.123681 -4.040524
S -20.195944 14.817364 -1.346841
S -17.502262 14.817364 -4.040524
S -17.502262 12.123681 -1.346841
S -20.195944 12.123681 1.346841
S -20.195944 14.817364 4.040524
S -17.502262 14.817364 1.346841
S -17.502262 12.123681 4.040524
S -20.195944 12.123681 6.734207
S -20.195944 14.817364 9.427890
S -17.502262 14.817364 6.734207
S -17.502262 12.123681 9.427890
S -20.195944 12.123681 12.121573
S -20.195944 14.817364 14.815256
S -17.502262 14.817364 12.121573
S -17.502262 12.123681 14.815256
S -20.195944 12.123681 17.508939
S -17.502262 14.817364 17.508939
S -17.502262 12.123681 20.202622
S -17.502262 17.511047 -12.121573
S -20.195944 17.511047 -9.427890
S -20.195944 20.204730 -6.734207
S -17.502262 20.204730 -9.427890
S -17.502262 17.511047 -6.734207
S -20.195944 17.511047 -4.040524
S -20.195944 20.204730 -1.346841
S -17.502262 20.204730 -4.040524
S -17.502262 17.511047 -1.346841
S -20.195944 17.511047 1.346841
S -20.195944 20.204730 4.040524
S -17.502262 20.204730 1.346841
S -17.502262 17.511047 4.040524
S -20.195944 17.511047 6.734207
S -20.195944 20.204730 9.427890
S -17.502262 20.204730 6.734207
S -17.502262 17.511047 9.427890
S -20.195944 17.511047 12.121573
S -17.502262 20.204730 12.121573
S -17.502262 17.511047 14.815256
S -17.502262 22.898413 -6.734207
S -20.195944 22.898413 -4.040524
S -20.195944 25.592096 -1.346841
S -17.502262 25.592096 -4.040524
S -17.502262 22.898413 -1.346841
S -20.195944 22.898413 1.346841
S -20.195944 25.592096 4.040524
S -17.502262 25.592096 1.346841
S -17.502262 22.898413 4.040524
S -20.195944 22.898413 6.734207
S -17.502262 25.592096 6.734207
S -17.502262 22.898413 9.427890
S -17.502262 28.285779 -1.346841
S -20.195944 28.285779 1.346841
S -17.502262 28.285779 4.040524
S -14.808579 -28.281562 -6.734207
S -12.114896 -28.281562 -9.427890
S -14.808579 -28.281562 -1.346841
S -12.114896 -28.281562 -4.040524
S -14.808579 -28.281562 4.040524
S -12.114896 -28.281562 1.346841
S -12.114896 -28.281562 6.734207
S -14.808579 -22.894196 -12.121573
S -12.114896 -22.894196 -14.815256
S -12.114896 -25.587879 -12.121573
S -14.808579 -25.587879 -9.427890
S -14.808579 -22.894196 -6.734207
S -12.114896 -22.894196 -9.427890
S -12.114896 -25.587879 -6.734207
S -14.808579 -25.587879 -4.040524
S -14.808579 -22.894196 -1.346841
S -12.114896 -22.894196 -4.040524
S -12.114896 -25.587879 -1.346841
S -14.808579 -25.587879 1.346841
S -14.808579 -22.894196 4.040524
S -12.114896 -22.894196 1.346841
S -12.114896 -25.587879 4.040524
S -14.808579 -25.587879 6.734207
S -14.808579 -22.894196 9.427890
S -12.114896 -22.894196 6.734207
S -12.114896 -25.587879 9.427890
S -12.114896 -22.894196 12.121573
S -14.808579 -17.506830 -17.508939
S -12.114896 -17.506830 -20.202622
S -12.114896 -20.200513 -17.508939
S -14.808579 -20.200513 -14.815256
S -14.808579 -17.506830 -12.121573
S -12.114896 -17.506830 -14.815256
S -12.114896 -20.200513 -12.121573
S -14.808579 -20.200513 -9.427890
S -14.808579 -17.506830 -6.734207
S -12.114896 -17.506830 -9.427890
S -12.114896 -20.200513 -6.734207
S -14.808579 -20.200513 -4.040524
S -14.808579 -17.506830 -1.346841
S -12.114896 -17.506830 -4.040524
S -12.114896 -20.200513 -1.346841
S -14.808579 -20.200513 1.346841
S -14.808579 -17.506830 4.040524
S -12.114896 -17.506830 1.346841
S -12.114896 -20.200513 4.040524
S -14.808579 -20.200513 6.734207
S -14.808579 -17.506830 9.427890
S -12.114896 -17.506830 6.734207
S -12.114896 -20.200513 9.427890
S -14.808579 -20.200513 12.121573
S -14.808579 -17.506830 14.815256
S -12.114896 -17.506830 12.121573
S -12.114896 -20.200513 14.815256
S -12.114896 -17.506830 17.508939
S -14.808579 -12.119464 -22.896304
S -12.114896 -12.119464 -25.589987
S -12.114896 -14.813147 -22.896304
S -14.808579 -14.813147 -20.202622
S -14.808579 -12.119464 -17.508939
S -12.114896 -12.119464 -20.202622
S -12.114896 -14.813147 -17.508939
S -14.808579 -14.813147 -14.815256
S -14.808579 -12.119464 -12.121573
S -12.114896 -12.119464 -14.815256
S -12.114896 -14.813147 -12.121573
S -14.808579 -14.813147 -9.427890
S -14.808579 -12.119464 -6.734207
S -12.114896 -12.119464 -9.427890
S -12.114896 -14.813147 -6.734207
S -14.808579 -14.813147 -4.040524
S -14.808579 -12.119464 -1.346841
S -12.114896 -12.119464 -4.040524
S -12.114896 -14.813147 -1.346841
S -14.808579 -14.813147 1.346841
S -14.808579 -12.119464 4.040524
S -12.114896 -12.119464 1.346841
S -12.114896 -14.813147 4.040524
S -14.808579 -14.813147 6.734207
S -14.808579 -12.119464 9.427890
S -12.114896 -12.119464 6.734207
S -12.114896 -14.813147 9.427890
S -14.808579 -14.813147 12.121573
S -14.808579 -12.119464 14.815256
S -12.114896 -12.119464 12.121573
S -12.114896 -14.813147 14.815256
S -14.808579 -14.813147 17.508939
S -14.808579 -12.119464 20.202622
S -12.114896 -12.119464 17.508939
S -12.114896 -14.813147 20.202622
S -12.114896 -12.119464 22.896304
S -14.808579 -6.732099 -28.283670
S -12.114896 -9.425782 -28.283670
S -14.808579 -9.425782 -25.589987
S -14.808579 -6.732099 -22.896304
S -12.114896 -6.732099 -25.589987
S -12.114896 -9.425782 -22.896304
S -14.808579 -9.425782 -20.202622
S -14.808579 -6.732099 -17.508939
S -12.114896 -6.732099 -20.202622
S -12.114896 -9.425782 -17.508939
S -14.808579 -9.425782 -14.815256
S -14.808579 -6.732099 -12.121573
S -12.114896 -6.732099 -14.815256
S -12.114896 -9.425782 -12.121573
S -14.808579 -9.425782 -9.427890
S -14.808579 -6.732099 -6.734207
S -12.114896 -6.732099 -9.427890
S -12.114896 -9.425782 -6.734207
S -14.808579 -9.425782 -4.040524
S -14.808579 -6.732099 -1.346841
S -12.114896 -6.732099 -4.040524
S -12.114896 -9.425782 -1.346841
S -14.808579 -9.425782 1.346841
S -14.808579 -6.732099 4.040524
S -12.114896 -6.732099 1.346841
S -12.114896 -9.425782 4.040524
S -14.808579 -9.425782 6.734207
S -14.808579 -6.732099 9.427890
S -12.114896 -6.732099 6.734207
S -12.114896 -9.425782 9.427890
S -14.808579 -9.425782 12.121573
S -14.808579 -6.732099 14.815256
S -12.114896 -6.732099 12.121573
S -12.114896 -9.425782 14.815256
S -14.808579 -9.425782 17.508939
S -14.808579 -6.732099 20.202622
S -12.114896 -6.732099 17.508939
S -12.114896 -9.425782 20.202622
S -14.808579 -9.425782 22.896304
S -14.808579 -6.732099 25.589987
S -12.114896 -6.732099 22.896304
S -12.114896 -9.425782 25.589987
S -12.114896 -6.732099 28.283670
S -14.808579 -1.344733 -28.283670
S -12.114896 -4.038416 -28.283670
S -14.808579 -4.038416 -25.589987
S -14.808579 -1.344733 -22.896304
S -12.114896 -1.344733 -25.589987
S -12.114896 -4.038416 -22.896304
S -14.808579 -4.038416 -20.202622
S -14.808579 -1.344733 -17.508939
S -12.114896 -1.344733 -20.202622
S -12.114896 -4.038416 -17.508939
S -14.808579 -4.038416 -14.815256
S -14.808579 -1.344733 -12.121573
S -12.114896 -1.344733 -14.815256
S -12.114896 -4.038416 -12.121573
S -14.808579 -4.038416 -9.427890
S -14.808579 -1.344733 -6.734207
S -12.114896 -1.344733 -9.427890
S -12.114896 -4.038416 -6.734207
S -14.808579 -4.038416 -4.040524
S -14.808579 -1.344733 -1.346841
S -12.114896 -1.344733 -4.040524
S -12.114896 -4.038416 -1.346841
S -14.808579 -4.038416 1.346841
S -14.808579 -1.344733 4.040524
S -12.114896 -1.344733 1.346841
S -12.114896 -4.038416 4.040524
S -14.808579 -4.038416 6.734207
S -14.808579 -1.344733 9.427890
S -12.114896 -1.344733 6.734207
S -12.114896 -4.038416 9.427890
S -14.808579 -4.038416 12.121573
S -14.808579 -1.344733 14.815256
S -12.114896 -1.344733 12.121573
S -12.114896 -4.038416 14.815256
S -14.808579 -4.038416 17.508939
S -14.808579 -1.344733 20.202622
S -12.114896 -1.344733 17.508939
S -12.114896 -4.038416 20.202622
S -14.808579 -4.038416 22.896304
S -14.808579 -1.344733 25.589987
S -12.114896 -1.344733 22.896304
S -12.114896 -4.038416 25.589987
S -14.808579 -4.038416 28.283670
S -12.114896 -1.344733 28.283670
S -14.808579 4.042633 -28.283670
S -12.114896 1.348950 -28.283670
S -14.808579 1.348950 -25.589987
S -14.808579 4.042633 -22.896304
S -12.114896 4.042633 -25.589987
S -12.114896 1.348950 -22.896304
S -14.808579 1.348950 -20.202622
S -14.808579 4.042633 -17.508939
S -12.114896 4.042633 -20.202622
S -12.114896 1.348950 -17.508939
S -14.808579 1.348950 -14.815256
S -14.808579 4.042633 -12.121573
S -12.114896 4.042633 -14.815256
S -12.114896 1.348950 -12.121573
S -14.808579 1.348950 -9.427890
S -14.808579 4.042633 -6.734207
S -12.114896 4.042633 -9.427890
S -12.114896 1.348950 -6.734207
S -14.808579 1.348950 -4.040524
S -14.808579 4.042633 -1.346841
S -12.114896 4.042633 -4.040524
S -12.114896 1.348950 -1.346841
S -14.808579 1.348950 1.346841
S -14.808579 4.042633 4.040524
S -12.114896 4.042633 1.346841
S -12.114896 1.348950 4.040524
S -14.808579 1.348950 6.734207
S -14.808579 4.042633 9.427890
S -12.114896 4.042633 6.734207
S -12.114896 1.348950 9.427890
S -14.808579 1.348950 12.121573
S -14.808579 4.042633 14.815256
S -12.114896 4.042633 12.121573
S -12.114896 1.348950 14.815256
S -14.808579 1.348950 17.508939
S -14.808579 4.042633 20.202622
S -12.114896 4.042633 17.508939
S -12.114896 1.348950 20.202622
S -14.808579 1.348950 22.896304
S -14.808579 4.042633 25.589987
S -12.114896 4.042633 22.896304
S -12.114896 1.348950 25.589987
S -14.808579 1.348950 28.283670
S -12.114896 4.042633 28.283670
S -12.114896 6.736316 -28.283670
S -14.808579 6.736316 -25.589987
S -14.808579 9.429999 -22.896304
S -12.114896 9.429999 -25.589987
S -12.114896 6.736316 -22.896304
S -14.808579 6.736316 -20.202622
S -14.808579 9.429999 -17.508939
S -12.114896 9.429999 -20.202622
S -12.114896 6.736316 -17.508939
S -14.808579 6.736316 -14.815256
S -14.808579 9.429999 -12.121573
S -12.114896 9.429999 -14.815256
S -12.114896 6.736316 -12.121573
S -14.808579 6.736316 -9.427890
S -14.808579 9.429999 -6.734207
S -12.114896 9.429999 -9.427890
S -12.114896 6.736316 -6.734207
S -14.808579 6.736316 -4.040524
S -14.808579 9.429999 -1.346841
S -12.114896 9.429999 -4.040524
S -12.114896 6.736316 -1.346841
S -14.808579 6.736316 1.346841
S -14.808579 9.429999 4.040524
S -12.114896 9.429999 1.346841
S -12.114896 6.736316 4.040524
S -14.808579 6.736316 6.734207
S -14.808579 9.429999 9.427890
S -12.114896 9.429999 6.734207
S -12.114896 6.736316 9.427890
S -14.808579 6.736316 12.121573
S -14.808579 9.429999 14.815256
S -12.114896 9.429999 12.121573
S -12.114896 6.736316 14.815256
S -14.808579 6.736316 17.508939
S -14.808579 9.429999 20.202622
S -12.114896 9.429999 17.508939
S -12.114896 6.736316 20.202622
S -14.808579 6.736316 22.896304
S -14.808579 9.429999 25.589987
S -12.114896 9.429999 22.896304
S -12.114896 6.736316 25.589987
S -14.808579 6.736316 28.283670
S -12.114896 9.429999 28.283670
S -12.114896 12.123681 -22.896304
S -14.808579 12.123681 -20.202622
S -14.808579 14.817364 -17.508939
S -12.114896 14.817364 -20.202622
S -12.114896 12.123681 -17.508939
S -14.808579 12.123681 -14.815256
S -14.808579 14.817364 -12.121573
S -12.114896 14.817364 -14.815256
S -12.114896 12.123681 -12.121573
S -14.808579 12.123681 -9.427890
S -14.808579 14.817364 -6.734207
S -12.114896 14.817364 -9.427890
S -12.114896 12.123681 -6.734207
S -14.808579 12.123681 -4.040524
S -14.808579 14.817364 -1.346841
S -12.114896 14.817364 -4.040524
S -12.114896 12.123681 -1.346841
S -14.808579 12.123681 1.346841
S -14.808579 14.817364 4.040524
S -12.114896 14.817364 1.346841
S -12.114896 12.123681 4.040524
S -14.808579 12.123681 6.734207
S -14.808579 14.817364 9.427890
S -12.114896 14.817364 6.734207
S -12.114896 12.123681 9.427890
S -14.808579 12.123681 12.121573
S -14.808579 14.817364 14.815256
S -12.114896 14.817364 12.121573
S -12.114896 12.123681 14.815256
S -14.808579 12.123681 17.508939
S -14.808579 14.817364 20.202622
S -12.114896 14.817364 17.508939
S -12.114896 12.123681 20.202622
S -14.808579 12.123681 22.896304
S -12.114896 14.817364 22.896304
S -12.114896 12.123681 25.589987
S -12.114896 17.511047 -17.508939
S -14.808579 17.511047 -14.815256
S -14.808579 20.204730 -12.121573
S -12.114896 20.204730 -14.815256
S -12.114896 17.511047 -12.121573
S -14.808579 17.511047 -9.427890
S -14.808579 20.204730 -6.734207
S -12.114896 20.204730 -9.427890
S -12.114896 17.511047 -6.734207
S -14.808579 17.511047 -4.040524
S -14.808579 20.204730 -1.346841
S -12.114896 20.204730 -4.040524
S -12.114896 17.511047 -1.346841
S -14.808579 17.511047 1.346841
S -14.808579 20.204730 4.040524
S -12.114896 20.204730 1.346841
S -12.114896 17.511047 4.040524
S -14.808579 17.511047 6.734207
S -14.808579 20.204730 9.427890
S -12.114896 20.204730 6.734207
S -12.114896 17.511047 9.427890
S -14.808579 17.511047 12.121573
S -14.808579 20.204730 14.815256
S -12.114896 20.204730 12.121573
S -12.114896 17.511047 14.815256
S -14.808579 17.511047 17.508939
S -12.114896 20.204730 17.508939
S -12.114896 17.511047 20.202622
S -12.114896 22.898413 -12.121573
S -14.808579 22.898413 -9.427890
S -14.808579 25.592096 -6.734207
S -12.114896 25.592096 -9.427890
S -12.114896 22.898413 -6.734207
S -14.808579 22.898413 -4.040524
S -14.808579 25.592096 -1.346841
S -12.114896 25.592096 -4.040524
S -12.114896 22.898413 -1.346841
S -14.808579 22.898413 1.346841
S -14.808579 25.592096 4.040524
S -12.114896 25.592096 1.346841
S -12.114896 22.898413 4.040524
S -14.808579 22.898413 6.734207
S -14.808579 25.592096 9.427890
S -12.114896 25.592096 6.734207
S -12.114896 22.898413 9.427890
S -14.808579 22.898413 12.121573
S -12.114896 25.592096 12.121573
S -12.114896 22.898413 14.815256
S -12.114896 28.285779 -6.734207
S -14.808579 28.285779 -4.040524
S -12.114896 28.285779 -1.346841
S -14.808579 28.285779 1.346841
S -12.114896 28.285779 4.040524
S -14.808579 28.285779 6.734207
S -12.114896 28.285779 9.427890
S -9.421213 -28.281562 -12.121573
S -6.727530 -28.281562 -14.815256
S -9.421213 -28.281562 -6.734207
S -6.727530 -28.281562 -9.427890
S -9.421213 -28.281562 -1.346841
S -6.727530 -28.281562 -4.040524
S -9.421213 -28.281562 4.040524
S -6.727530 -28.281562 1.346841
S -9.421213 -28.281562 9.427890
S -6.727530 -28.281562 6.734207
S -6.727530 -28.281562 12.121573
S -9.421213 -22.894196 -17.508939
S -6.727530 -22.894196 -20.202622
S -6.727530 -25.587879 -17.508939
S -9.421213 -25.587879 -14.815256
S -9.421213 -22.894196 -12.121573
S -6.727530 -22.894196 -14.815256
S -6.727530 -25.587879 -12.121573
S -9.421213 -25.587879 -9.427890
S -9.421213 -22.894196 -6.734207
S -6.727530 -22.894196 -9.427890
S -6.727530 -25.587879 -6.734207
S -9.421213 -25.587879 -4.040524
S -9.421213 -22.894196 -1.346841
S -6.727530 -22.894196 -4.040524
S -6.727530 -25.587879 -1.346841
S -9.421213 -25.587879 1.346841
S -9.421213 -22.894196 4.040524
S -6.727530 -22.894196 1.346841
S -6.727530 -25.587879 4.040524
S -9.421213 -25.587879 6.734207
S -9.421213 -22.894196 9.427890
S -6.727530 -22.894196 6.734207
S -6.727530 -25.587879 9.427890
S -9.421213 -25.587879 12.121573
S -9.421213 -22.894196 14.815256
S -6.727530 -22.894196 12.121573
S -6.727530 -25.587879 14.815256
S -6.727530 -22.894196 17.508939
S -9.421213 -17.506830 -22.896304
S -6.727530 -17.506830 -25.589987
S -6.727530 -20.200513 -22.896304
S -9.421213 -20.200513 -20.202622
S -9.421213 -17.506830 -17.508939
S -6.727530 -17.506830 -20.202622
S -6.727530 -20.200513 -17.508939
S -9.421213 -20.200513 -14.815256
S -9.421213 -17.506830 -12.121573
S -6.727530 -17.506830 -14.815256
S -6.727530 -20.200513 -12.121573
S -9.421213 -20.200513 -9.427890
S -9.421213 -17.506830 -6.734207
S -6.727530 -17.506830 -9.427890
S -6.727530 -20.200513 -6.734207
S -9.421213 -20.200513 -4.040524
S -9.421213 -17.506830 -1.346841
S -6.727530 -17.506830 -4.040524
S -6.727530 -20.200513 -1.346841
S -9.421213 -20.200513 1.346841
S -9.421213 -17.506830 4.040524
S -6.727530 -17.506830 1.346841
S -6.727530 -20.200513 4.040524
S -9.421213 -20.200513 6.734207
S -9.421213 -17.506830 9.427890
S -6.727530 -17.506830 6.734207
S -6.727530 -20.200513 9.427890
S -9.421213 -20.200513 12.121573
S -9.421213 -17.506830 14.815256
S -6.727530 -17.506830 12.121573
S -6.727530 -20.200513 14.815256
S -9.421213 -20.200513 17.508939
S -9.421213 -17.506830 20.202622
S -6.727530 -17.506830 17.508939
S -6.727530 -20.200513 20.202622
S -6.727530 -17.506830 22.896304
S -9.421213 -12.119464 -28.283670
S -6.727530 -14.813147 -28.283670
S -9.421213 -14.813147 -25.589987
S -9.421213 -12.119464 -22.896304
S -6.727530 -12.119464 -25.589987
S -6.727530 -14.813147 -22.896304
S -9.421213 -14.813147 -20.202622
S -9.421213 -12.119464 -17.508939
S -6.727530 -12.119464 -20.202622
S -6.727530 -14.813147 -17.508939
S -9.421213 -14.813147 -14.815256
S -9.421213 -12.119464 -12.121573
S -6.727530 -12.119464 -14.815256
S -6.727530 -14.813147 -12.121573
S -9.421213 -14.813147 -9.427890
S -9.421213 -12.119464 -6.734207
S -6.727530 -12.119464 -9.427890
S -6.727530 -14.813147 -6.734207
S -9.421213 -14.813147 -4.040524
S -9.421213 -12.119464 -1.346841
S -6.727530 -12.119464 -4.040524
S -6.727530 -14.813147 -1.346841
S -9.421213 -14.813147 1.346841
S -9.421213 -12.119464 4.040524
S -6.727530 -12.119464 1.346841
S -6.727530 -14.813147 4.040524
S -9.421213 -14.813147 6.734207
S -9.421213 -12.119464 9.427890
S -6.727530 -12.119464 6.734207
S -6.727530 -14.813147 9.427890
S -9.421213 -14.813147 12.121573
S -9.421213 -12.119464 14.815256
S -6.727530 -12.119464 12.121573
S -6.727530 -14.813147 14.815256
S -9.421213 -14.813147 17.508939
S -9.421213 -12.119464 20.202622
S -6.727530 -12.119464 17.508939
S -6.727530 -14.813147 20.202622
S -9.421213 -14.813147 22.896304
S -9.421213 -12.119464 25.589987
S -6.727530 -12.119464 22.896304
S -6.727530 -14.813147 25.589987
S -6.727530 -12.119464 28.283670
S -9.421213 -6.732099 -28.283670
S -6.727530 -9.425782 -28.283670
S -9.421213 -9.425782 -25.589987
S -9.421213 -6.732099 -22.896304
S -6.727530 -6.732099 -25.589987
S -6.727530 -9.425782 -22.896304
S -9.421213 -9.425782 -20.202622
S -9.421213 -6.732099 -17.508939
S -6.727530 -6.732099 -20.202622
S -6.727530 -9.425782 -17.508939
S -9.421213 -9.425782 -14.815256
S -9.421213 -6.732099 -12.121573
S -6.727530 -6.732099 -14.815256
S -6.727530 -9.425782 -12.121573
S -9.421213 -9.425782 -9.427890
S -9.421213 -6.732099 -6.734207
S -6.727530 -6.732099 -9.427890
S -6.727530 -9.425782 -6.734207
S -9.421213 -9.425782 -4.040524
S -9.421213 -6.732099 -1.346841
S -6.727530 -6.732099 -4.040524
S -6.727530 -9.425782 -1.346841
S -9.421213 -9.425782 1.346841
S -9.421213 -6.732099 4.040524
S -6.727530 -6.732099 1.346841
S -6.727530 -9.425782 4.040524
S -9.421213 -9.425782 6.734207
S -9.421213 -6.732099 9.427890
S -6.727530 -6.732099 6.734207
S -6.727530 -9.425782 9.427890
S -9.421213 -9.425782 12.121573
S -9.421213 -6.732099 14.815256
S -6.727530 -6.732099 12.121573
S -6.727530 -9.425782 14.815256
S -9.421213 -9.425782 17.508939
S -9.421213 -6.732099 20.202622
S -6.727530 -6.732099 17.508939
S -6.727530 -9.425782 20.202622
S -9.421213 -9.425782 22.896304
S -9.421213 -6.732099 25.589987
S -6.727530 -6.732099 22.896304
S -6.727530 -9.425782 25.589987
S -9.421213 -9.425782 28.283670
S -6.727530 -6.732099 28.283670
S -9.421213 -1.344733 -28.283670
S -6.727530 -4.038416 -28.283670
S -9.421213 -4.038416 -25.589987
S -9.421213 -1.344733 -22.896304
S -6.727530 -1.344733 -25.589987
S -6.727530 -4.038416 -22.896304
S -9.421213 -4.038416 -20.202622
S -9.421213 -1.344733 -17.508939
S -6.727530 -1.344733 -20.202622
S -6.727530 -4.038416 -17.508939
S -9.421213 -4.038416 -14.815256
S -9.421213 -1.344733 -12.121573
S -6.727530 -1.344733 -14.815256
S -6.727530 -4.038416 -12.121573
S -9.421213 -4.038416 -9.427890
S -9.421213 -1.344733 -6.734207
S -6.727530 -1.344733 -9.427890
S -6.727530 -4.038416 -6.734207
S -9.421213 -4.038416 -4.040524
S -9.421213 -1.344733 -1.346841
S -6.727530 -1.344733 -4.040524
S -6.727530 -4.038416 -1.346841
S -9.421213 -4.038416 1.346841
S -9.421213 -1.344733 4.040524
S -6.727530 -1.344733 1.346841
S -6.727530 -4.038416 4.040524
S -9.421213 -4.038416 6.734207
S -9.421213 -1.344733 9.427890
S -6.727530 -1.344733 6.734207
S -6.727530 -4.038416 9.427890
S -9.421213 -4.038416 12.121573
S -9.421213 -1.344733 14.815256
S -6.727530 -1.344733 12.121573
S -6.727530 -4.038416 14.815256
S -9.421213 -4.038416 17.508939
S -9.421213 -1.344733 20.202622
S -6.727530 -1.344733 17.508939
S -6.727530 -4.038416 20.202622
S -9.421213 -4.038416 22.896304
S -9.421213 -1.344733 25.589987
S -6.727530 -1.344733 22.896304
S -6.727530 -4.038416 25.589987
S -9.421213 -4.038416 28.283670
S -6.727530 -1.344733 28.283670
S -9.421213 4.042633 -28.283670
S -6.727530 1.348950 -28.283670
S -9.421213 1.348950 -25.589987
S -9.421213 4.042633 -22.896304
S -6.727530 4.042633 -25.589987
S -6.727530 1.348950 -22.896304
S -9.421213 1.348950 -20.202622
S -9.421213 4.042633 -17.508939
S -6.727530 4.042633 -20.202622
S -6.727530 1.348950 -17.508939
S -9.421213 1.348950 -14.815256
S -9.421213 4.042633 -12.121573
S -6.727530 4.042633 -14.815256
S -6.727530 1.348950 -12.121573
S -9.421213 1.348950 -9.427890
S -9.421213 4.042633 -6.734207
S -6.727530 4.042633 -9.427890
S -6.727530 1.348950 -6.734207
S -9.421213 1.348950 -4.040524
S -9.421213 4.042633 -1.346841
S -6.727530 4.042633 -4.040524
S -6.727530 1.348950 -1.346841
S -9.421213 1.348950 1.346841
S -9.421213 4.042633 4.040524
S -6.727530 4.042633 1.346841
S -6.727530 1.348950 4.040524
S -9.421213 1.348950 6.734207
S -9.421213 4.042633 9.427890
S -6.727530 4.042633 6.734207
S -6.727530 1.348950 9.427890
S -9.421213 1.348950 12.121573
S -9.421213 4.042633 14.815256
S -6.727530 4.042633 12.121573
S -6.727530 1.348950 14.815256
S -9.421213 1.348950 17.508939
S -9.421213 4.042633 20.202622
S -6.727530 4.042633 17.508939
S -6.727530 1.348950 20.202622
S -9.421213 1.348950 22.896304
S -9.421213 4.042633 25.589987
S -6.727530 4.042633 22.896304
S -6.727530 1.348950 25.589987
S -9.421213 1.348950 28.283670
S -6.727530 4.042633 28.283670
S -9.421213 9.429999 -28.283670
S -6.727530 6.736316 -28.283670
S -9.421213 6.736316 -25.589987
S -9.421213 9.429999 -22.896304
S -6.727530 9.429999 -25.589987
S -6.727530 6.736316 -22.896304
S -9.421213 6.736316 -20.202622
S -9.421213 9.429999 -17.508939
S -6.727530 9.429999 -20.202622
S -6.727530 6.736316 -17.508939
S -9.421213 6.736316 -14.815256
S -9.421213 9.429999 -12.121573
S -6.727530 9.429999 -14.815256
S -6.727530 6.736316 -12.121573
S -9.421213 6.736316 -9.427890
S -9.421213 9.429999 -6.734207
S -6.727530 9.429999 -9.427890
S -6.727530 6.736316 -6.734207
S -9.421213 6.736316 -4.040524
S -9.421213 9.429999 -1.346841
S -6.727530 9.429999 -4.040524
S -6.727530 6.736316 -1.346841
S -9.421213 6.736316 1.346841
S -9.421213 9.429999 4.040524
S -6.727530 9.429999 1.346841
S -6.727530 6.736316 4.040524
S -9.421213 6.736316 6.734207
S -9.421213 9.429999 9.427890
S -6.727530 9.429999 6.734207
S -6.727530 6.736316 9.427890
S -9.421213 6.736316 12.121573
S -9.421213 9.429999 14.815256
S -6.727530 9.429999 12.121573
S -6.727530 6.736316 14.815256
S -9.421213 6.736316 17.508939
S -9.421213 9.429999 20.202622
S -6.727530 9.429999 17.508939
S -6.727530 6.736316 20.202622
S -9.421213 6.736316 22.896304
S -9.421213 9.429999 25.589987
S -6.727530 9.429999 22.896304
S -6.727530 6.736316 25.589987
S -9.421213 6.736316 28.283670
S -6.727530 9.429999 28.283670
S -6.727530 12.123681 -28.283670
S -9.421213 12.123681 -25.589987
S -9.421213 14.817364 -22.896304
S -6.727530 14.817364 -25.589987
S -6.727530 12.123681 -22.896304
S -9.421213 12.123681 -20.202622
S -9.421213 14.817364 -17.508939
S -6.727530 14.817364 -20.202622
S -6.727530 12.123681 -17.508939
S -9.421213 12.123681 -14.815256
S -9.421213 14.817364 -12.121573
S -6.727530 14.817364 -14.815256
S -6.727530 12.123681 -12.121573
S -9.421213 12.123681 -9.427890
S -9.421213 14.817364 -6.734207
S -6.727530 14.817364 -9.427890
S -6.727530 12.123681 -6.734207
S -9.421213 12.123681 -4.040524
S -9.421213 14.817364 -1.346841
S -6.727530 14.817364 -4.040524
S -6.727530 12.123681 -1.346841
S -9.421213 12.123681 1.346841
S -9.421213 14.817364 4.040524
S -6.727530 14.817364 1.346841
S -6.727530 12.123681 4.040524
S -9.421213 12.123681 6.734207
S -9.421213 14.817364 9.427890
S -6.727530 14.817364 6.734207
S -6.727530 12.123681 9.427890
S -9.421213 12.123681 12.121573
S -9.421213 14.817364 14.815256
S -6.727530 14.817364 12.121573
S -6.727530 12.123681 14.815256
S -9.421213 12.123681 17.508939
S -9.421213 14.817364 20.202622
S -6.727530 14.817364 17.508939
S -6.727530 12.123681 20.202622
S -9.421213 12.123681 22.896304
S -9.421213 14.817364 25.589987
S -6.727530 14.817364 22.896304
S -6.727530 12.123681 25.589987
S -9.421213 12.123681 28.283670
S -6.727530 14.817364 28.283670
S -6.727530 17.511047 -22.896304
S -9.421213 17.511047 -20.202622
S -9.421213 20.204730 -17.508939
S -6.727530 20.204730 -20.202622
S -6.727530 17.511047 -17.508939
S -9.421213 17.511047 -14.815256
S -9.421213 20.204730 -12.121573
S -6.727530 20.204730 -14.815256
S -6.727530 17.511047 -12.121573
S -9.421213 17.511047 -9.427890
S -9.421213 20.204730 -6.734207
S -6.727530 20.204730 -9.427890
S -6.727530 17.511047 -6.734207
S -9.421213 17.511047 -4.040524
S -9.421213 20.204730 -1.346841
S -6.727530 20.204730 -4.040524
S -6.727530 17.511047 -1.346841
S -9.421213 17.511047 1.346841
S -9.421213 20.204730 4.040524
S -6.727530 20.204730 1.346841
S -6.727530 17.511047 4.040524
S -9.421213 17.511047 6.734207
S -9.421213 20.204730 9.427890
S -6.727530 20.204730 6.734207
S -6.727530 17.511047 9.427890
S -9.421213 17.511047 12.121573
S -9.421213 20.204730 14.815256
S -6.727530 20.204730 12.121573
S -6.727530 17.511047 14.815256
S -9.421213 17.511047 17.508939
S -9.421213 20.204730 20.202622
S -6.727530 20.204730 17.508939
S -6.727530 17.511047 20.202622
S -9.421213 17.511047 22.896304
S -6.727530 20.204730 22.896304
S -6.727530 17.511047 25.589987
S -6.727530 22.898413 -17.508939
S -9.421213 22.898413 -14.815256
S -9.421213 25.592096 -12.121573
S -6.727530 25.592096 -14.815256
S -6.727530 22.898413 -12.121573
S -9.421213 22.898413 -9.427890
S -9.421213 25.592096 -6.734207
S -6.727530 25.592096 -9.427890
S -6.727530 22.898413 -6.734207
S -9.421213 22.898413 -4.040524
S -9.421213 25.592096 -1.346841
S -6.727530 25.592096 -4.040524
S -6.727530 22.898413 -1.346841
S -9.421213 22.898413 1.346841
S -9.421213 25.592096 4.040524
S -6.727530 25.592096 1.346841
S -6.727530 22.898413 4.040524
S -9.421213 22.898413 6.734207
S -9.421213 25.592096 9.427890
S -6.727530 25.592096 6.734207
S -6.727530 22.898413 9.427890
S -9.421213 22.898413 12.121573
S -9.421213 25.592096 14.815256
S -6.727530 25.592096 12.121573
S -6.727530 22.898413 14.815256
S -9.421213 22.898413 17.508939
S -6.727530 25.592096 17.508939
S -6.727530 22.898413 20.202622
S -6.727530 28.285779 -12.121573
S -9.421213 28.285779 -9.427890
S -6.727530 28.285779 -6.734207
S -9.421213 28.285779 -4.040524
S -6.727530 28.285779 -1.346841
S -9.421213 28.285779 1.346841
S -6.727530 28.285779 4.040524
S -9.421213 28.285779 6.734207
S -6.727530 28.285779 9.427890
S -9.421213 28.285779 12.121573
S -6.727530 28.285779 14.815256
S -4.033847 -28.281562 -17.508939
S -1.340164 -28.281562 -20.202622
S -4.033847 -28.281562 -12.121573
S -1.340164 -28.281562 -14.815256
S -4.033847 -28.281562 -6.734207
S -1.340164 -28.281562 -9.427890
S -4.033847 -28.281562 -1.346841
S -1.340164 -28.281562 -4.040524
S -4.033847 -28.281562 4.040524
S -1.340164 -28.281562 1.346841
S -4.033847 -28.281562 9.427890
S -1.340164 -28.281562 6.734207
S -4.033847 -28.281562 14.815256
S -1.340164 -28.281562 12.121573
S -1.340164 -28.281562 17.508939
S -4.033847 -22.894196 -22.896304
S -1.340164 -22.894196 -25.589987
S -1.340164 -25.587879 -22.896304
S -4.033847 -25.587879 -20.202622
S -4.033847 -22.894196 -17.508939
S -1.340164 -22.894196 -20.202622
S -1.340164 -25.587879 -17.508939
S -4.033847 -25.587879 -14.815256
S -4.033847 -22.894196 -12.121573
S -1.340164 -22.894196 -14.815256
S -1.340164 -25.587879 -12.121573
S -4.033847 -25.587879 -9.427890
S -4.033847 -22.894196 -6.734207
S -1.340164 -22.894196 -9.427890
S -1.340164 -25.587879 -6.734207
S -4.033847 -25.587879 -4.040524
S -4.033847 -22.894196 -1.346841
S -1.340164 -22.894196 -4.040524
S -1.340164 -25.587879 -1.346841
S -4.033847 -25.587879 1.346841
S -4.033847 -22.894196 4.040524
S -1.340164 -22.894196 1.346841
S -1.340164 -25.587879 4.040524
S -4.033847 -25.587879 6.734207
S -4.033847 -22.894196 9.427890
S -1.340164 -22.894196 6.734207
S -1.340164 -25.587879 9.427890
S -4.033847 -25.587879 12.121573
S -4.033847 -22.894196 14.815256
S -1.340164 -22.894196 12.121573
S -1.340164 -25.587879 14.815256
S -4.033847 -25.587879 17.508939
S -4.033847 -22.894196 20.202622
S -1.340164 -22.894196 17.508939
S -1.340164 -25.587879 20.202622
S -1.340164 -22.894196 22.896304
S -4.033847 -17.506830 -28.283670
S -1.340164 -20.200513 -28.283670
S -4.033847 -20.200513 -25.589987
S -4.033847 -17.506830 -22.896304
S -1.340164 -17.506830 -25.589987
S -1.340164 -20.200513 -22.896304
S -4.033847 -20.200513 -20.202622
S -4.033847 -17.506830 -17.508939
S -1.340164 -17.506830 -20.202622
S -1.340164 -20.200513 -17.508939
S -4.033847 -20.200513 -14.815256
S -4.033847 -17.506830 -12.121573
S -1.340164 -17.506830 -14.815256
S -1.340164 -20.200513 -12.121573
S -4.033847 -20.200513 -9.427890
S -4.033847 -17.506830 -6.734207
S -1.340164 -17.506830 -9.427890
S -1.340164 -20.200513 -6.734207
S -4.033847 -20.200513 -4.040524
S -4.033847 -17.506830 -1.346841
S -1.340164 -17.506830 -4.040524
S -1.340164 -20.200513 -1.346841
S -4.033847 -20.200513 1.346841
S -4.033847 -17.506830 4.040524
S -1.340164 -17.506830 1.346841
S -1.340164 -20.200513 4.040524
S -4.033847 -20.200513 6.734207
S -4.033847 -17.506830 9.427890
S -1.340164 -17.506830 6.734207
S -1.340164 -20.200513 9.427890
S -4.033847 -20.200513 12.121573
S -4.033847 -17.506830 14.815256
S -1.340164 -17.506830 12.121573
S -1.340164 -20.200513 14.815256
S -4.033847 -20.200513 17.508939
S -4.033847 -17.506830 20.202622
S -1.340164 -17.506830 17.508939
S -1.340164 -20.200513 20.202622
S -4.033847 -20.200513 22.896304
S -4.033847 -17.506830 25.589987
S -1.340164 -17.506830 22.896304
S -1.340164 -20.200513 25.589987
S -1.340164 -17.506830 28.283670
S -4.033847 -12.119464 -28.283670
S -1.340164 -14.813147 -28.283670
S -4.033847 -14.813147 -25.589987
S -4.033847 -12.119464 -22.896304
S -1.340164 -12.119464 -25.589987
S -1.340164 -14.813147 -22.896304
S -4.033847 -14.813147 -20.202622
S -4.033847 -12.119464 -17.508939
S -1.340164 -12.119464 -20.202622
S -1.340164 -14.813147 -17.508939
S -4.033847 -14.813147 -14.815256
S -4.033847 -12.119464 -12.121573
S -1.340164 -12.119464 -14.815256
S -1.340164 -14.813147 -12.121573
S -4.033847 -14.813147 -9.427890
S -4.033847 -12.119464 -6.734207
S -1.340164 -12.119464 -9.427890
S -1.340164 -14.813147 -6.734207
S -4.033847 -14.813147 -4.040524
S -4.033847 -12.119464 -1.346841
S -1.340164 -12.119464 -4.040524
S -1.340164 -14.813147 -1.346841
S -4.033847 -14.813147 1.346841
S -4.033847 -12.119464 4.040524
S -1.340164 -12.119464 1.346841
S -1.340164 -14.813147 4.040524
S -4.033847 -14.813147 6.734207
S -4.033847 -12.119464 9.427890
S -1.340164 -12.119464 6.734207
S -1.340164 -14.813147 9.427890
S -4.033847 -14.813147 12.121573
S -4.033847 -12.119464 14.815256
S -1.340164 -12.119464 12.121573
S -1.340164 -14.813147 14.815256
S -4.033847 -14.813147 17.508939
S -4.033847 -12.119464 20.202622
S -1.340164 -12.119464 17.508939
S -1.340164 -14.813147 20.202622
S -4.033847 -14.813147 22.896304
S -4.033847 -12.119464 25.589987
S -1.340164 -12.119464 22.896304
S -1.340164 -14.813147 25.589987
S -4.033847 -14.813147 28.283670
S -1.340164 -12.119464 28.283670
S -4.033847 -6.732099 -28.283670
S -1.340164 -9.425782 -28.283670
S -4.033847 -9.425782 -25.589987
S -4.033847 -6.732099 -22.896304
S -1.340164 -6.732099 -25.589987
S -1.340164 -9.425782 -22.896304
S -4.033847 -9.425782 -20.202622
S -4.033847 -6.732099 -17.508939
S -1.340164 -6.732099 -20.202622
S -1.340164 -9.425782 -17.508939
S -4.033847 -9.425782 -14.815256
S -4.033847 -6.732099 -12.121573
S -1.340164 -6.732099 -14.815256
S -1.340164 -9.425782 -12.121573
S -4.033847 -9.425782 -9.427890
S -4.033847 -6.732099 -6.734207
S -1.340164 -6.732099 -9.427890
S -1.340164 -9.425782 -6.734207
S -4.033847 -9.425782 -4.040524
S -4.033847 -6.732099 -1.346841
S -1.340164 -6.732099 -4.040524
S -1.340164 -9.425782 -1.346841
S -4.033847 -9.425782 1.346841
S -4.033847 -6.732099 4.040524
S -1.340164 -6.732099 1.346841
S -1.340164 -9.425782 4.040524
S -4.033847 -9.425782 6.734207
S -4.033847 -6.732099 9.427890
S -1.340164 -6.732099 6.734207
S -1.340164 -9.425782 9.427890
S -4.033847 -9.425782 12.121573
S -4.033847 -6.732099 14.815256
S -1.340164 -6.732099 12.121573
S -1.340164 -9.425782 14.815256
S -4.033847 -9.425782 17.508939
S -4.033847 -6.732099 20.202622
S -1.340164 -6.732099 17.508939
S -1.340164 -9.425782 20.202622
S -4.033847 -9.425782 22.896304
S -4.033847 -6.732099 25.589987
S -1.340164 -6.732099 22.896304
S -1.340164 -9.425782 25.589987
S -4.033847 -9.425782 28.283670
S -1.340164 -6.732099 28.283670
S -4.033847 -1.344733 -28.283670
S -1.340164 -4.038416 -28.283670
S -4.033847 -4.038416 -25.589987
S -4.033847 -1.344733 -22.896304
S -1.340164 -1.344733 -25.589987
S -1.340164 -4.038416 -22.896304
S -4.033847 -4.038416 -20.202622
S -4.033847 -1.344733 -17.508939
S -1.340164 -1.344733 -20.202622
S -1.340164 -4.038416 -17.508939
S -4.033847 -4.038416 -14.815256
S -4.033847 -1.344733 -12.121573
S -1.340164 -1.344733 -14.815256
S -1.340164 -4.038416 -12.121573
S -4.033847 -4.038416 -9.427890
S -4.033847 -1.344733 -6.734207
S -1.340164 -1.344733 -9.427890
S -1.340164 -4.038416 -6.734207
S -4.033847 -4.038416 -4.040524
S -4.033847 -1.344733 -1.346841
S -1.340164 -1.344733 -4.040524
S -1.340164 -4.038416 -1.346841
S -4.033847 -4.038416 1.346841
S -4.033847 -1.344733 4.040524
S -1.340164 -1.344733 1.346841
S -1.340164 -4.038416 4.040524
S -4.033847 -4.038416 6.734207
S -4.033847 -1.344733 9.427890
S -1.340164 -1.344733 6.734207
S -1.340164 -4.038416 9.427890
S -4.033847 -4.038416 12.121573
S -4.033847 -1.344733 14.815256
S -1.340164 -1.344733 12.121573
S -1.340164 -4.038416 14.815256
S -4.033847 -4.038416 17.508939
S -4.033847 -1.344733 20.202622
S -1.340164 -1.344733 17.508939
S -1.340164 -4.038416 20.202622
S -4.033847 -4.038416 22.896304
S -4.033847 -1.344733 25.589987
S -1.340164 -1.344733 22.896304
S -1.340164 -4.038416 25.589987
S -4.033847 -4.038416 28.283670
S -1.340164 -1.344733 28.283670
S -4.033847 4.042633 -28.283670
S -1.340164 1.348950 -28.283670
S -4.033847 1.348950 -25.589987
S -4.033847 4.042633 -22.896304
S -1.340164 4.042633 -25.589987
S -1.340164 1.348950 -22.896304
S -4.033847 1.348950 -20.202622
S -4.033847 4.042633 -17.508939
S -1.340164 4.042633 -20.202622
S -1.340164 1.348950 -17.508939
S -4.033847 1.348950 -14.815256
S -4.033847 4.042633 -12.121573
S -1.340164 4.042633 -14.815256
S -1.340164 1.348950 -12.121573
S -4.033847 1.348950 -9.427890
S -4.033847 4.042633 -6.734207
S -1.340164 4.042633 -9.427890
S -1.340164 1.348950 -6.734207
S -4.033847 1.348950 -4.040524
S -4.033847 4.042633 -1.346841
S -1.340164 4.042633 -4.040524
S -1.340164 1.348950 -1.346841
S -4.033847 1.348950 1.346841
S -4.033847 4.042633 4.040524
S -1.340164 4.042633 1.346841
S -1.340164 1.348950 4.040524
S -4.033847 1.348950 6.734207
S -4.033847 4.042633 9.427890
S -1.340164 4.042633 6.734207
S -1.340164 1.348950 9.427890
S -4.033847 1.348950 12.121573
S -4.033847 4.042633 14.815256
S -1.340164 4.042633 12.121573
S -1.340164 1.348950 14.815256
S -4.033847 1.348950 17.508939
S -4.033847 4.042633 20.202622
S -1.340164 4.042633 17.508939
S -1.340164 1.348950 20.202622
S -4.033847 1.348950 22.896304
S -4.033847 4.042633 25.589987
S -1.340164 4.042633 22.896304
S -1.340164 1.348950 25.589987
S -4.033847 1.348950 28.283670
S -1.340164 4.042633 28.283670
S -4.033847 9.429999 -28.283670
S -1.340164 6.736316 -28.283670
S -4.033847 6.736316 -25.589987
S -4.033847 9.429999 -22.896304
S -1.340164 9.429999 -25.589987
S -1.340164 6.736316 -22.896304
S -4.033847 6.736316 -20.202622
S -4.033847 9.429999 -17.508939
S -1.340164 9.429999 -20.202622
S -1.340164 6.736316 -17.508939
S -4.033847 6.736316 -14.815256
S -4.033847 9.429999 -12.121573
S -1.340164 9.429999 -14.815256
S -1.340164 6.736316 -12.121573
S -4.033847 6.736316 -9.427890
S -4.033847 9.429999 -6.734207
S -1.340164 9.429999 -9.427890
S -1.340164 6.736316 -6.734207
S -4.033847 6.736316 -4.040524
S -4.033847 9.429999 -1.346841
S -1.340164 9.429999 -4.040524
S -1.340164 6.736316 -1.346841
S -4.033847 6.736316 1.346841
S -4.033847 9.429999 4.040524
S -1.340164 9.429999 1.346841
S -1.340164 6.736316 4.040524
S -4.033847 6.736316 6.734207
S -4.033847 9.429999 9.427890
S -1.340164 9.429999 6.734207
S -1.340164 6.736316 9.427890
S -4.033847 6.736316 12.121573
S -4.033847 9.429999 14.815256
S -1.340164 9.429999 12.121573
S -1.340164 6.736316 14.815256
S -4.033847 6.736316 17.508939
S -4.033847 9.429999 20.202622
S -1.340164 9.429999 17.508939
S -1.340164 6.736316 20.202622
S -4.033847 6.736316 22.896304
S -4.033847 9.429999 25.589987
S -1.340164 9.429999 22.896304
S -1.340164 6.736316 25.589987
S -4.033847 6.736316 28.283670
S -1.340164 9.429999 28.283670
S -4.033847 14.817364 -28.283670
S -1.340164 12.123681 -28.283670
S -4.033847 12.123681 -25.589987
S -4.033847 14.817364 -22.896304
S -1.340164 14.817364 -25.589987
S -1.340164 12.123681 -22.896304
S -4.033847 12.123681 -20.202622
S -4.033847 14.817364 -17.508939
S -1.340164 14.817364 -20.202622
S -1.340164 12.123681 -17.508939
S -4.033847 12.123681 -14.815256
S -4.033847 14.817364 -12.121573
S -1.340164 14.817364 -14.815256
S -1.340164 12.123681 -12.121573
S -4.033847 12.123681 -9.427890
S -4.033847 14.817364 -6.734207
S -1.340164 14.817364 -9.427890
S -1.340164 12.123681 -6.734207
S -4.033847 12.123681 -4.040524
S -4.033847 14.817364 -1.346841
S -1.340164 14.817364 -4.040524
S -1.340164 12.123681 -1.346841
S -4.033847 12.123681 1.346841
S -4.033847 14.817364 4.040524
S -1.340164 14.817364 1.346841
S -1.340164 12.123681 4.040524
S -4.033847 12.123681 6.734207
S -4.033847 14.817364 9.427890
S -1.340164 14.817364 6.734207
S -1.340164 12.123681 9.427890
S -4.033847 12.123681 12.121573
S -4.033847 14.817364 14.815256
S -1.340164 14.817364 12.121573
S -1.340164 12.123681 14.815256
S -4.033847 12.123681 17.508939
S -4.033847 14.817364 20.202622
S -1.340164 14.817364 17.508939
S -1.340164 12.123681 20.202622
S -4.033847 12.123681 22.896304
S -4.033847 14.817364 25.589987
S -1.340164 14.817364 22.896304
S -1.340164 12.123681 25.589987
S -4.033847 12.123681 28.283670
S -1.340164 14.817364 28.283670
S -1.340164 17.511047 -28.283670
S -4.033847 17.511047 -25.589987
S -4.033847 20.204730 -22.896304
S -1.340164 20.204730 -25.589987
S -1.340164 17.511047 -22.896304
S -4.033847 17.511047 -20.202622
S -4.033847 20.204730 -17.508939
S -1.340164 20.204730 -20.202622
S -1.340164 17.511047 -17.508939
S -4.033847 17.511047 -14.815256
S -4.033847 20.204730 -12.121573
S -1.340164 20.204730 -14.815256
S -1.340164 17.511047 -12.121573
S -4.033847 17.511047 -9.427890
S -4.033847 20.204730 -6.734207
S -1.340164 20.204730 -9.427890
S -1.340164 17.511047 -6.734207
S -4.033847 17.511047 -4.040524
S -4.033847 20.204730 -1.346841
S -1.340164 20.204730 -4.040524
S -1.340164 17.511047 -1.346841
S -4.033847 17.511047 1.346841
S -4.033847 20.204730 4.040524
S -1.340164 20.204730 1.346841
S -1.340164 17.511047 4.040524
S -4.033847 17.511047 6.734207
S -4.033847 20.204730 9.427890
S -1.340164 20.204730 6.734207
S -1.340164 17.511047 9.427890
S -4.033847 17.511047 12.121573
S -4.033847 20.204730 14.815256
S -1.340164 20.204730 12.121573
S -1.340164 17.511047 14.815256
S -4.033847 17.511047 17.508939
S -4.033847 20.204730 20.202622
S -1.340164 20.204730 17.508939
S -1.340164 17.511047 20.202622
S -4.033847 17.511047 22.896304
S -4.033847 20.204730 25.589987
S -1.340164 20.204730 22.896304
S -1.340164 17.511047 25.589987
S -4.033847 17.511047 28.283670
S -1.340164 20.204730 28.283670
S -1.340164 22.898413 -22.896304
S -4.033847 22.898413 -20.202622
S -4.033847 25.592096 -17.508939
S -1.340164 25.592096 -20.202622
S -1.340164 22.898413 -17.508939
S -4.033847 22.898413 -14.815256
S -4.033847 25.592096 -12.121573
S -1.340164 25.592096 -14.815256
S -1.340164 22.898413 -12.121573
S -4.033847 22.898413 -9.427890
S -4.033847 25.592096 -6.734207
S -1.340164 25.592096 -9.427890
S -1.340164 22.898413 -6.734207
S -4.033847 22.898413 -4.040524
S -4.033847 25.592096 -1.346841
S -1.340164 25.592096 -4.040524
S -1.340164 22.898413 -1.346841
S -4.033847 22.898413 1.346841
S -4.033847 25.592096 4.040524
S -1.340164 25.592096 1.346841
S -1.340164 22.898413 4.040524
S -4.033847 22.898413 6.734207
S -4.033847 25.592096 9.427890
S -1.340164 25.592096 6.734207
S -1.340164 22.898413 9.427890
S -4.033847 22.898413 12.121573
S -4.033847 25.592096 14.815256
S -1.340164 25.592096 12.121573
S -1.340164 22.898413 14.815256
S -4.033847 22.898413 17.508939
S -4.033847 25.592096 20.202622
S -1.340164 25.592096 17.508939
S -1.340164 22.898413 20.202622
S -4.033847 22.898413 22.896304
S -1.340164 25.592096 22.896304
S -1.340164 22.898413 25.589987
S -1.340164 28.285779 -17.508939
S -4.033847 28.285779 -14.815256
S -1.340164 28.285779 -12.121573
S -4.033847 28.285779 -9.427890
S -1.340164 28.285779 -6.734207
S -4.033847 28.285779 -4.040524
S -1.340164 28.285779 -1.346841
S -4.033847 28.285779 1.346841
S -1.340164 28.285779 4.040524
S -4.033847 28.285779 6.734207
S -1.340164 28.285779 9.427890
S -4.033847 28.285779 12.121573
S -1.340164 28.285779 14.815256
S -4.033847 28.285779 17.508939
S -1.340164 28.285779 20.202622
S 1.353519 -28.281562 -17.508939
S 1.353519 -28.281562 -12.121573
S 4.047201 -28.281562 -14.815256
S 1.353519 -28.281562 -6.734207
S 4.047201 -28.281562 -9.427890
S 1.353519 -28.281562 -1.346841
S 4.047201 -28.281562 -4.040524
S 1.353519 -28.281562 4.040524
S 4.047201 -28.281562 1.346841
S 1.353519 -28.281562 9.427890
S 4.047201 -28.281562 6.734207
S 1.353519 -28.281562 14.815256
S 4.047201 -28.281562 12.121573
S 1.353519 -28.281562 20.202622
S 4.047201 -28.281562 17.508939
S 1.353519 -22.894196 -22.896304
S 1.353519 -25.587879 -20.202622
S 1.353519 -22.894196 -17.508939
S 4.047201 -22.894196 -20.202622
S 4.047201 -25.587879 -17.508939
S 1.353519 -25.587879 -14.815256
S 1.353519 -22.894196 -12.121573
S 4.047201 -22.894196 -14.815256
S 4.047201 -25.587879 -12.121573
S 1.353519 -25.587879 -9.427890
S 1.353519 -22.894196 -6.734207
S 4.047201 -22.894196 -9.427890
S 4.047201 -25.587879 -6.734207
S 1.353519 -25.587879 -4.040524
S 1.353519 -22.894196 -1.346841
S 4.047201 -22.894196 -4.040524
S 4.047201 -25.587879 -1.346841
S 1.353519 -25.587879 1.346841
S 1.353519 -22.894196 4.040524
S 4.047201 -22.894196 1.346841
S 4.047201 -25.587879 4.040524
S 1.353519 -25.587879 6.734207
S 1.353519 -22.894196 9.427890
S 4.047201 -22.894196 6.734207
S 4.047201 -25.587879 9.427890
S 1.353519 -25.587879 12.121573
S 1.353519 -22.894196 14.815256
S 4.047201 -22.894196 12.121573
S 4.047201 -25.587879 14.815256
S 1.353519 -25.587879 17.508939
S 1.353519 -22.894196 20.202622
S 4.047201 -22.894196 17.508939
S 4.047201 -25.587879 20.202622
S 1.353519 -25.587879 22.896304
S 1.353519 -22.894196 25.589987
S 4.047201 -22.894196 22.896304
S 1.353519 -17.506830 -28.283670
S 1.353519 -20.200513 -25.589987
S 1.353519 -17.506830 -22.896304
S 4.047201 -17.506830 -25.589987
S 4.047201 -20.200513 -22.896304
S 1.353519 -20.200513 -20.202622
S 1.353519 -17.506830 -17.508939
S 4.047201 -17.506830 -20.202622
S 4.047201 -20.200513 -17.508939
S 1.353519 -20.200513 -14.815256
S 1.353519 -17.506830 -12.121573
S 4.047201 -17.506830 -14.815256
S 4.047201 -20.200513 -12.121573
S 1.353519 -20.200513 -9.427890
S 1.353519 -17.506830 -6.734207
S 4.047201 -17.506830 -9.427890
S 4.047201 -20.200513 -6.734207
S 1.353519 -20.200513 -4.040524
S 1.353519 -17.506830 -1.346841
S 4.047201 -17.506830 -4.040524
S 4.047201 -20.200513 -1.346841
S 1.353519 -20.200513 1.346841
S 1.353519 -17.506830 4.040524
S 4.047201 -17.506830 1.346841
S 4.047201 -20.200513 4.040524
S 1.353519 -20.200513 6.734207
S 1.353519 -17.506830 9.427890
S 4.047201 -17.506830 6.734207
S 4.047201 -20.200513 9.427890
S 1.353519 -20.200513 12.121573
S 1.353519 -17.506830 14.815256
S 4.047201 -17.506830 12.121573
S 4.047201 -20.200513 14.815256
S 1.353519 -20.200513 17.508939
S 1.353519 -17.506830 20.202622
S 4.047201 -17.506830 17.508939
S 4.047201 -20.200513 20.202622
S 1.353519 -20.200513 22.896304
S 1.353519 -17.506830 25.589987
S 4.047201 -17.506830 22.896304
S 4.047201 -20.200513 25.589987
S 1.353519 -20.200513 28.283670
S 4.047201 -17.506830 28.283670
S 1.353519 -12.119464 -28.283670
S 4.047201 -14.813147 -28.283670
S 1.353519 -14.813147 -25.589987
S 1.353519 -12.119464 -22.896304
S 4.047201 -12.119464 -25.589987
S 4.047201 -14.813147 -22.896304
S 1.353519 -14.813147 -20.202622
S 1.353519 -12.119464 -17.508939
S 4.047201 -12.119464 -20.202622
S 4.047201 -14.813147 -17.508939
S 1.353519 -14.813147 -14.815256
S 1.353519 -12.119464 -12.121573
S 4.047201 -12.119464 -14.815256
S 4.047201 -14.813147 -12.121573
S 1.353519 -14.813147 -9.427890
S 1.353519 -12.119464 -6.734207
S 4.047201 -12.119464 -9.427890
S 4.047201 -14.813147 -6.734207
S 1.353519 -14.813147 -4.040524
S 1.353519 -12.119464 -1.346841
S 4.047201 -12.119464 -4.040524
S 4.047201 -14.813147 -1.346841
S 1.353519 -14.813147 1.346841
S 1.353519 -12.119464 4.040524
S 4.047201 -12.119464 1.346841
S 4.047201 -14.813147 4.040524
S 1.353519 -14.813147 6.734207
S 1.353519 -12.119464 9.427890
S 4.047201 -12.119464 6.734207
S 4.047201 -14.813147 9.427890
S 1.353519 -14.813147 12.121573
S 1.353519 -12.119464 14.815256
S 4.047201 -12.119464 12.121573
S 4.047201 -14.813147 14.815256
S 1.353519 -14.813147 17.508939
S 1.353519 -12.119464 20.202622
S 4.047201 -12.119464 17.508939
S 4.047201 -14.813147 20.202622
S 1.353519 -14.813147 22.896304
S 1.353519 -12.119464 25.589987
S 4.047201 -12.119464 22.896304
S 4.047201 -14.813147 25.589987
S 1.353519 -14.813147 28.283670
S 4.047201 -12.119464 28.283670
S 1.353519 -6.732099 -28.283670
S 4.047201 -9.425782 -28.283670
S 1.353519 -9.425782 -25.589987
S 1.353519 -6.732099 -22.896304
S 4.047201 -6.732099 -25.589987
S 4.047201 -9.425782 -22.896304
S 1.353519 -9.425782 -20.202622
S 1.353519 -6.732099 -17.508939
S 4.047201 -6.732099 -20.202622
S 4.047201 -9.425782 -17.508939
S 1.353519 -9.425782 -14.815256
S 1.353519 -6.732099 -12.121573
S 4.047201 -6.732099 -14.815256
S 4.047201 -9.425782 -12.121573
S 1.353519 -9.425782 -9.427890
S 1.353519 -6.732099 -6.734207
S 4.047201 -6.732099 -9.427890
S 4.047201 -9.425782 -6.734207
S 1.353519 -9.425782 -4.040524
S 1.353519 -6.732099 -1.346841
S 4.047201 -6.732099 -4.040524
S 4.047201 -9.425782 -1.346841
S 1.353519 -9.425782 1.346841
S 1.353519 -6.732099 4.040524
S 4.047201 -6.732099 1.346841
S 4.047201 -9.425782 4.040524
S 1.353519 -9.425782 6.734207
S 1.353519 -6.732099 9.427890
S 4.047201 -6.732099 6.734207
S 4.047201 -9.425782 9.427890
S 1.353519 -9.425782 12.121573
S 1.353519 -6.732099 14.815256
S 4.047201 -6.732099 12.121573
S 4.047201 -9.425782 14.815256
S 1.353519 -9.425782 17.508939
S 1.353519 -6.732099 20.202622
S 4.047201 -6.732099 17.508939
S 4.047201 -9.425782 20.202622
S 1.353519 -9.425782 22.896304
S 1.353519 -6.732099 25.589987
S 4.047201 -6.732099 22.896304
S 4.047201 -9.425782 25.589987
S 1.353519 -9.425782 28.283670
S 4.047201 -6.732099 28.283670
S 1.353519 -1.344733 -28.283670
S 4.047201 -4.038416 -28.283670
S 1.353519 -4.038416 -25.589987
S 1.353519 -1.344733 -22.896304
S 4.047201 -1.344733 -25.589987
S 4.047201 -4.038416 -22.896304
S 1.353519 -4.038416 -20.202622
S 1.353519 -1.344733 -17.508939
S 4.047201 -1.344733 -20.202622
S 4.047201 -4.038416 -17.508939
S 1.353519 -4.038416 -14.815256
S 1.353519 -1.344733 -12.121573
S 4.047201 -1.344733 -14.815256
S 4.047201 -4.038416 -12.121573
S 1.353519 -4.038416 -9.427890
S 1.353519 -1.344733 -6.734207
S 4.047201 -1.344733 -9.427890
S 4.047201 -4.038416 -6.734207
S 1.353519 -4.038416 -4.040524
S 1.353519 -1.344733 -1.346841
S 4.047201 -1.344733 -4.040524
S 4.047201 -4.038416 -1.346841
S 1.353519 -4.038416 1.346841
S 1.353519 -1.344733 4.040524
S 4.047201 -1.344733 1.346841
S 4.047201 -4.038416 4.040524
S 1.353519 -4.038416 6.734207
S 1.353519 -1.344733 9.427890
S 4.047201 -1.344733 6.734207
S 4.047201 -4.038416 9.427890
S 1.353519 -4.038416 12.121573
S 1.353519 -1.344733 14.815256
S 4.047201 -1.344733 12.121573
S 4.047201 -4.038416 14.815256
S 1.353519 -4.038416 17.508939
S 1.353519 -1.344733 20.202622
S 4.047201 -1.344733 17.508939
S 4.047201 -4.038416 20.202622
S 1.353519 -4.038416 22.896304
S 1.353519 -1.344733 25.589987
S 4.047201 -1.344733 22.896304
S 4.047201 -4.038416 25.589987
S 1.353519 -4.038416 28.283670
S 4.047201 -1.344733 28.283670
S 1.353519 4.042633 -28.283670
S 4.047201 1.348950 -28.283670
S 1.353519 1.348950 -25.589987
S 1.353519 4.042633 -22.896304
S 4.047201 4.042633 -25.589987
S 4.047201 1.348950 -22.896304
S 1.353519 1.348950 -20.202622
S 1.353519 4.042633 -17.508939
S 4.047201 4.042633 -20.202622
S 4.047201 1.348950 -17.508939
S 1.353519 1.348950 -14.815256
S 1.353519 4.042633 -12.121573
S 4.047201 4.042633 -14.815256
S 4.047201 1.348950 -12.121573
S 1.353519 1.348950 -9.427890
S 1.353519 4.042633 -6.734207
S 4.047201 4.042633 -9.427890
S 4.047201 1.348950 -6.734207
S 1.353519 1.348950 -4.040524
S 1.353519 4.042633 -1.346841
S 4.047201 4.042633 -4.040524
S 4.047201 1.348950 -1.346841
S 1.353519 1.348950 1.346841
S 1.353519 4.042633 4.040524
S 4.047201 4.042633 1.346841
S 4.047201 1.348950 4.040524
S 1.353519 1.348950 6.734207
S 1.353519 4.042633 9.427890
S 4.047201 4.042633 6.734207
S 4.047201 1.348950 9.427890
S 1.353519 1.348950 12.121573
S 1.353519 4.042633 14.815256
S 4.047201 4.042633 12.121573
S 4.047201 1.348950 14.815256
S 1.353519 1.348950 17.508939
S 1.353519 4.042633 20.202622
S 4.047201 4.042633 17.508939
S 4.047201 1.348950 20.202622
S 1.353519 1.348950 22.896304
S 1.353519 4.042633 25.589987
S 4.047201 4.042633 22.896304
S 4.047201 1.348950 25.589987
S 1.353519 1.348950 28.283670
S 4.047201 4.042633 28.283670
S 1.353519 9.429999 -28.283670
S 4.047201 6.736316 -28.283670
S 1.353519 6.736316 -25.589987
S 1.353519 9.429999 -22.896304
S 4.047201 9.429999 -25.589987
S 4.047201 6.736316 -22.896304
S 1.353519 6.736316 -20.202622
S 1.353519 9.429999 -17.508939
S 4.047201 9.429999 -20.202622
S 4.047201 6.736316 -17.508939
S 1.353519 6.736316 -14.815256
S 1.353519 9.429999 -12.121573
S 4.047201 9.429999 -14.815256
S 4.047201 6.736316 -12.121573
S 1.353519 6.736316 -9.427890
S 1.353519 9.429999 -6.734207
S 4.047201 9.429999 -9.427890
S 4.047201 6.736316 -6.734207
S 1.353519 6.736316 -4.040524
S 1.353519 9.429999 -1.346841
S 4.047201 9.429999 -4.040524
S 4.047201 6.736316 -1.346841
S 1.353519 6.736316 1.346841
S 1.353519 9.429999 4.040524
S 4.047201 9.429999 1.346841
S 4.047201 6.736316 4.040524
S 1.353519 6.736316 6.734207
S 1.353519 9.429999 9.427890
S 4.047201 9.429999 6.734207
S 4.047201 6.736316 9.427890
S 1.353519 6.736316 12.121573
S 1.353519 9.429999 14.815256
S 4.047201 9.429999 12.121573
S 4.047201 6.736316 14.815256
S 1.353519 6.736316 17.508939
S 1.353519 9.429999 20.202622
S 4.047201 9.429999 17.508939
S 4.047201 6.736316 20.202622
S 1.353519 6.736316 22.896304
S 1.353519 9.429999 25.589987
S 4.047201 9.429999 22.896304
S 4.047201 6.736316 25.589987
S 1.353519 6.736316 28.283670
S 4.047201 9.429999 28.283670
S 1.353519 14.817364 -28.283670
S 4.047201 12.123681 -28.283670
S 1.353519 12.123681 -25.589987
S 1.353519 14.817364 -22.896304
S 4.047201 14.817364 -25.589987
S 4.047201 12.123681 -22.896304
S 1.353519 12.123681 -20.202622
S 1.353519 14.817364 -17.508939
S 4.047201 14.817364 -20.202622
S 4.047201 12.123681 -17.508939
S 1.353519 12.123681 -14.815256
S 1.353519 14.817364 -12.121573
S 4.047201 14.817364 -14.815256
S 4.047201 12.123681 -12.121573
S 1.353519 12.123681 -9.427890
S 1.353519 14.817364 -6.734207
S 4.047201 14.817364 -9.427890
S 4.047201 12.123681 -6.734207
S 1.353519 12.123681 -4.040524
S 1.353519 14.817364 -1.346841
S 4.047201 14.817364 -4.040524
S 4.047201 12.123681 -1.346841
S 1.353519 12.123681 1.346841
S 1.353519 14.817364 4.040524
S 4.047201 14.817364 1.346841
S 4.047201 12.123681 4.040524
S 1.353519 12.123681 6.734207
S 1.353519 14.817364 9.427890
S 4.047201 14.817364 6.734207
S 4.047201 12.123681 9.427890
S 1.353519 12.123681 12.121573
S 1.353519 14.817364 14.815256
S 4.047201 14.817364 12.121573
S 4.047201 12.123681 14.815256
S 1.353519 12.123681 17.508939
S 1.353519 14.817364 20.202622
S 4.047201 14.817364 17.508939
S 4.047201 12.123681 20.202622
S 1.353519 12.123681 22.896304
S 1.353519 14.817364 25.589987
S 4.047201 14.817364 22.896304
S 4.047201 12.123681 25.589987
S 1.353519 12.123681 28.283670
S 4.047201 14.817364 28.283670
S 1.353519 20.204730 -28.283670
S 4.047201 17.511047 -28.283670
S 1.353519 17.511047 -25.589987
S 1.353519 20.204730 -22.896304
S 4.047201 20.204730 -25.589987
S 4.047201 17.511047 -22.896304
S 1.353519 17.511047 -20.202622
S 1.353519 20.204730 -17.508939
S 4.047201 20.204730 -20.202622
S 4.047201 17.511047 -17.508939
S 1.353519 17.511047 -14.815256
S 1.353519 20.204730 -12.121573
S 4.047201 20.204730 -14.815256
S 4.047201 17.511047 -12.121573
S 1.353519 17.511047 -9.427890
S 1.353519 20.204730 -6.734207
S 4.047201 20.204730 -9.427890
S 4.047201 17.511047 -6.734207
S 1.353519 17.511047 -4.040524
S 1.353519 20.204730 -1.346841
S 4.047201 20.204730 -4.040524
S 4.047201 17.511047 -1.346841
S 1.353519 17.511047 1.346841
S 1.353519 20.204730 4.040524
S 4.047201 20.204730 1.346841
S 4.047201 17.511047 4.040524
S 1.353519 17.511047 6.734207
S 1.353519 20.204730 9.427890
S 4.047201 20.204730 6.734207
S 4.047201 17.511047 9.427890
S 1.353519 17.511047 12.121573
S 1.353519 20.204730 14.815256
S 4.047201 20.204730 12.121573
S 4.047201 17.511047 14.815256
S 1.353519 17.511047 17.508939
S 1.353519 20.204730 20.202622
S 4.047201 20.204730 17.508939
S 4.047201 17.511047 20.202622
S 1.353519 17.511047 22.896304
S 1.353519 20.204730 25.589987
S 4.047201 20.204730 22.896304
S 4.047201 17.511047 25.589987
S 1.353519 17.511047 28.283670
S 1.353519 22.898413 -25.589987
S 1.353519 25.592096 -22.896304
S 4.047201 22.898413 -22.896304
S 1.353519 22.898413 -20.202622
S 1.353519 25.592096 -17.508939
S 4.047201 25.592096 -20.202622
S 4.047201 22.898413 -17.508939
S 1.353519 22.898413 -14.815256
S 1.353519 25.592096 -12.121573
S 4.047201 25.592096 -14.815256
S 4.047201 22.898413 -12.121573
S 1.353519 22.898413 -9.427890
S 1.353519 25.592096 -6.734207
S 4.047201 25.592096 -9.427890
S 4.047201 22.898413 -6.734207
S 1.353519 22.898413 -4.040524
S 1.353519 25.592096 -1.346841
S 4.047201 25.592096 -4.040524
S 4.047201 22.898413 -1.346841
S 1.353519 22.898413 1.346841
S 1.353519 25.592096 4.040524
S 4.047201 25.592096 1.346841
S 4.047201 22.898413 4.040524
S 1.353519 22.898413 6.734207
S 1.353519 25.592096 9.427890
S 4.047201 25.592096 6.734207
S 4.047201 22.898413 9.427890
S 1.353519 22.898413 12.121573
S 1.353519 25.592096 14.815256
S 4.047201 25.592096 12.121573
S 4.047201 22.898413 14.815256
S 1.353519 22.898413 17.508939
S 1.353519 25.592096 20.202622
S 4.047201 25.592096 17.508939
S 4.047201 22.898413 20.202622
S 1.353519 22.898413 22.896304
S 1.353519 28.285779 -20.202622
S 4.047201 28.285779 -17.508939
S 1.353519 28.285779 -14.815256
S 4.047201 28.285779 -12.121573
S 1.353519 28.285779 -9.427890
S 4.047201 28.285779 -6.734207
S 1.353519 28.285779 -4.040524
S 4.047201 28.285779 -1.346841
S 1.353519 28.285779 1.346841
S 4.047201 28.285779 4.040524
S 1.353519 28.285779 6.734207
S 4.047201 28.285779 9.427890
S 1.353519 28.285779 12.121573
S 4.047201 28.285779 14.815256
S 1.353519 28.285779 17.508939
S 6.740884 -28.281562 -12.121573
S 6.740884 -28.281562 -6.734207
S 9.434567 -28.281562 -9.427890
S 6.740884 -28.281562 -1.346841
S 9.434567 -28.281562 -4.040524
S 6.740884 -28.281562 4.040524
S 9.434567 -28.281562 1.346841
S 6.740884 -28.281562 9.427890
S 9.434567 -28.281562 6.734207
S 6.740884 -28.281562 14.815256
S 9.434567 -28.281562 12.121573
S 6.740884 -22.894196 -17.508939
S 6.740884 -25.587879 -14.815256
S 6.740884 -22.894196 -12.121573
S 9.434567 -22.894196 -14.815256
S 9.434567 -25.587879 -12.121573
S 6.740884 -25.587879 -9.427890
S 6.740884 -22.894196 -6.734207
S 9.434567 -22.894196 -9.427890
S 9.434567 -25.587879 -6.734207
S 6.740884 -25.587879 -4.040524
S 6.740884 -22.894196 -1.346841
S 9.434567 -22.894196 -4.040524
S 9.434567 -25.587879 -1.346841
S 6.740884 -25.587879 1.346841
S 6.740884 -22.894196 4.040524
S 9.434567 -22.894196 1.346841
S 9.434567 -25.587879 4.040524
S 6.740884 -25.587879 6.734207
S 6.740884 -22.894196 9.427890
S 9.434567 -22.894196 6.734207
S 9.434567 -25.587879 9.427890
S 6.740884 -25.587879 12.121573
S 6.740884 -22.894196 14.815256
S 9.434567 -22.894196 12.121573
S 9.434567 -25.587879 14.815256
S 6.740884 -25.587879 17.508939
S 6.740884 -22.894196 20.202622
S 9.434567 -22.894196 17.508939
S 6.740884 -17.506830 -22.896304
S 6.740884 -20.200513 -20.202622
S 6.740884 -17.506830 -17.508939
S 9.434567 -17.506830 -20.202622
S 9.434567 -20.200513 -17.508939
S 6.740884 -20.200513 -14.815256
S 6.740884 -17.506830 -12.121573
S 9.434567 -17.506830 -14.815256
S 9.434567 -20.200513 -12.121573
S 6.740884 -20.200513 -9.427890
S 6.740884 -17.506830 -6.734207
S 9.434567 -17.506830 -9.427890
S 9.434567 -20.200513 -6.734207
S 6.740884 -20.200513 -4.040524
S 6.740884 -17.506830 -1.346841
S 9.434567 -17.506830 -4.040524
S 9.434567 -20.200513 -1.346841
S 6.740884 -20.200513 1.346841
S 6.740884 -17.506830 4.040524
S 9.434567 -17.506830 1.346841
S 9.434567 -20.200513 4.040524
S 6.740884 -20.200513 6.734207
S 6.740884 -17.506830 9.427890
S 9.434567 -17.506830 6.734207
S 9.434567 -20.200513 9.427890
S 6.740884 -20.200513 12.121573
S 6.740884 -17.506830 14.815256
S 9.434567 -17.506830 12.121573
S 9.434567 -20.200513 14.815256
S 6.740884 -20.200513 17.508939
S 6.740884 -17.506830 20.202622
S 9.434567 -17.506830 17.508939
S 9.434567 -20.200513 20.202622
S 6.740884 -20.200513 22.896304
S 6.740884 -17.506830 25.589987
S 9.434567 -17.506830 22.896304
S 6.740884 -12.119464 -28.283670
S 6.740884 -14.813147 -25.589987
S 6.740884 -12.119464 -22.896304
S 9.434567 -12.119464 -25.589987
S 9.434567 -14.813147 -22.896304
S 6.740884 -14.813147 -20.202622
S 6.740884 -12.119464 -17.508939
S 9.434567 -12.119464 -20.202622
S 9.434567 -14.813147 -17.508939
S 6.740884 -14.813147 -14.815256
S 6.740884 -12.119464 -12.121573
S 9.434567 -12.119464 -14.815256
S 9.434567 -14.813147 -12.121573
S 6.740884 -14.813147 -9.427890
S 6.740884 -12.119464 -6.734207
S 9.434567 -12.119464 -9.427890
S 9.434567 -14.813147 -6.734207
S 6.740884 -14.813147 -4.040524
S 6.740884 -12.119464 -1.346841
S 9.434567 -12.119464 -4.040524
S 9.434567 -14.813147 -1.346841
S 6.740884 -14.813147 1.346841
S 6.740884 -12.119464 4.040524
S 9.434567 -12.119464 1.346841
S 9.434567 -14.813147 4.040524
S 6.740884 -14.813147 6.734207
S 6.740884 -12.119464 9.427890
S 9.434567 -12.119464 6.734207
S 9.434567 -14.813147 9.427890
S 6.740884 -14.813147 12.121573
S 6.740884 -12.119464 14.815256
S 9.434567 -12.119464 12.121573
S 9.434567 -14.813147 14.815256
S 6.740884 -14.813147 17.508939
S 6.740884 -12.119464 20.202622
S 9.434567 -12.119464 17.508939
S 9.434567 -14.813147 20.202622
S 6.740884 -14.813147 22.896304
S 6.740884 -12.119464 25.589987
S 9.434567 -12.119464 22.896304
S 9.434567 -14.813147 25.589987
S 6.740884 -14.813147 28.283670
S 9.434567 -12.119464 28.283670
S 6.740884 -6.732099 -28.283670
S 9.434567 -9.425782 -28.283670
S 6.740884 -9.425782 -25.589987
S 6.740884 -6.732099 -22.896304
S 9.434567 -6.732099 -25.589987
S 9.434567 -9.425782 -22.896304
S 6.740884 -9.425782 -20.202622
S 6.740884 -6.732099 -17.508939
S 9.434567 -6.732099 -20.202622
S 9.434567 -9.425782 -17.508939
S 6.740884 -9.425782 -14.815256
S 6.740884 -6.732099 -12.121573
S 9.434567 -6.732099 -14.815256
S 9.434567 -9.425782 -12.121573
S 6.740884 -9.425782 -9.427890
S 6.740884 -6.732099 -6.734207
S 9.434567 -6.732099 -9.427890
S 9.434567 -9.425782 -6.734207
S 6.740884 -9.425782 -4.040524
S 6.740884 -6.732099 -1.346841
S 9.434567 -6.732099 -4.040524
S 9.434567 -9.425782 -1.346841
S 6.740884 -9.425782 1.346841
S 6.740884 -6.732099 4.040524
S 9.434567 -6.732099 1.346841
S 9.434567 -9.425782 4.040524
S 6.740884 -9.425782 6.734207
S 6.740884 -6.732099 9.427890
S 9.434567 -6.732099 6.734207
S 9.434567 -9.425782 9.427890
S 6.740884 -9.425782 12.121573
S 6.740884 -6.732099 14.815256
S 9.434567 -6.732099 12.121573
S 9.434567 -9.425782 14.815256
S 6.740884 -9.425782 17.508939
S 6.740884 -6.732099 20.202622
S 9.434567 -6.732099 17.508939
S 9.434567 -9.425782 20.202622
S 6.740884 -9.425782 22.896304
S 6.740884 -6.732099 25.589987
S 9.434567 -6.732099 22.896304
S 9.434567 -9.425782 25.589987
S 6.740884 -9.425782 28.283670
S 9.434567 -6.732099 28.283670
S 6.740884 -1.344733 -28.283670
S 9.434567 -4.038416 -28.283670
S 6.740884 -4.038416 -25.589987
S 6.740884 -1.344733 -22.896304
S 9.434567 -1.344733 -25.589987
S 9.434567 -4.038416 -22.896304
S 6.740884 -4.038416 -20.202622
S 6.740884 -1.344733 -17.508939
S 9.434567 -1.344733 -20.202622
S 9.434567 -4.038416 -17.508939
S 6.740884 -4.038416 -14.815256
S 6.740884 -1.344733 -12.121573
S 9.434567 -1.344733 -14.815256
S 9.434567 -4.038416 -12.121573
S 6.740884 -4.038416 -9.427890
S 6.740884 -1.344733 -6.734207
S 9.434567 -1.344733 -9.427890
S 9.434567 -4.038416 -6.734207
S 6.740884 -4.038416 -4.040524
S 6.740884 -1.344733 -1.346841
S 9.434567 -1.344733 -4.040524
S 9.434567 -4.038416 -1.346841
S 6.740884 -4.038416 1.346841
S 6.740884 -1.344733 4.040524
S 9.434567 -1.344733 1.346841
S 9.434567 -4.038416 4.040524
S 6.740884 -4.038416 6.734207
S 6.740884 -1.344733 9.427890
S 9.434567 -1.344733 6.734207
S 9.434567 -4.038416 9.427890
S 6.740884 -4.038416 12.121573
S 6.740884 -1.344733 14.815256
S 9.434567 -1.344733 12.121573
S 9.434567 -4.038416 14.815256
S 6.740884 -4.038416 17.508939
S 6.740884 -1.344733 20.202622
S 9.434567 -1.344733 17.508939
S 9.434567 -4.038416 20.202622
S 6.740884 -4.038416 22.896304
S 6.740884 -1.344733 25.589987
S 9.434567 -1.344733 22.896304
S 9.434567 -4.038416 25.589987
S 6.740884 -4.038416 28.283670
S 9.434567 -1.344733 28.283670
S 6.740884 4.042633 -28.283670
S 9.434567 1.348950 -28.283670
S 6.740884 1.348950 -25.589987
S 6.740884 4.042633 -22.896304
S 9.434567 4.042633 -25.589987
S 9.434567 1.348950 -22.896304
S 6.740884 1.348950 -20.202622
S 6.740884 4.042633 -17.508939
S 9.434567 4.042633 -20.202622
S 9.434567 1.348950 -17.508939
S 6.740884 1.348950 -14.815256
S 6.740884 4.042633 -12.121573
S 9.434567 4.042633 -14.815256
S 9.434567 1.348950 -12.121573
S 6.740884 1.348950 -9.427890
S 6.740884 4.042633 -6.734207
S 9.434567 4.042633 -9.427890
S 9.434567 1.348950 -6.734207
S 6.740884 1.348950 -4.040524
S 6.740884 4.042633 -1.346841
S 9.434567 4.042633 -4.040524
S 9.434567 1.348950 -1.346841
S 6.740884 1.348950 1.346841
S 6.740884 4.042633 4.040524
S 9.434567 4.042633 1.346841
S 9.434567 1.348950 4.040524
S 6.740884 1.348950 6.734207
S 6.740884 4.042633 9.427890
S 9.434567 4.042633 6.734207
S 9.434567 1.348950 9.427890
S 6.740884 1.348950 12.121573
S 6.740884 4.042633 14.815256
S 9.434567 4.042633 12.121573
S 9.434567 1.348950 14.815256
S 6.740884 1.348950 17.508939
S 6.740884 4.042633 20.202622
S 9.434567 4.042633 17.508939
S 9.434567 1.348950 20.202622
S 6.740884 1.348950 22.896304
S 6.740884 4.042633 25.589987
S 9.434567 4.042633 22.896304
S 9.434567 1.348950 25.589987
S 6.740884 1.348950 28.283670
S 9.434567 4.042633 28.283670
S 6.740884 9.429999 -28.283670
S 9.434567 6.736316 -28.283670
S 6.740884 6.736316 -25.589987
S 6.740884 9.429999 -22.896304
S 9.434567 9.429999 -25.589987
S 9.434567 6.736316 -22.896304
S 6.740884 6.736316 -20.202622
S 6.740884 9.429999 -17.508939
S 9.434567 9.429999 -20.202622
S 9.434567 6.736316 -17.508939
S 6.740884 6.736316 -14.815256
S 6.740884 9.429999 -12.121573
S 9.434567 9.429999 -14.815256
S 9.434567 6.736316 -12.121573
S 6.740884 6.736316 -9.427890
S 6.740884 9.429999 -6.734207
S 9.434567 9.429999 -9.427890
S 9.434567 6.736316 -6.734207
S 6.740884 6.736316 -4.040524
S 6.740884 9.429999 -1.346841
S 9.434567 9.429999 -4.040524
S 9.434567 6.736316 -1.346841
S 6.740884 6.736316 1.346841
S 6.740884 9.429999 4.040524
S 9.434567 9.429999 1.346841
S 9.434567 6.736316 4.040524
S 6.740884 6.736316 6.734207
S 6.740884 9.429999 9.427890
S 9.434567 9.429999 6.734207
S 9.434567 6.736316 9.427890
S 6.740884 6.736316 12.121573
S 6.740884 9.429999 14.815256
S 9.434567 9.429999 12.121573
S 9.434567 6.736316 14.815256
S 6.740884 6.736316 17.508939
S 6.740884 9.429999 20.202622
S 9.434567 9.429999 17.508939
S 9.434567 6.736316 20.202622
S 6.740884 6.736316 22.896304
S 6.740884 9.429999 25.589987
S 9.434567 9.429999 22.896304
S 9.434567 6.736316 25.589987
S 6.740884 6.736316 28.283670
S 9.434567 9.429999 28.283670
S 6.740884 14.817364 -28.283670
S 9.434567 12.123681 -28.283670
S 6.740884 12.123681 -25.589987
S 6.740884 14.817364 -22.896304
S 9.434567 14.817364 -25.589987
S 9.434567 12.123681 -22.896304
S 6.740884 12.123681 -20.202622
S 6.740884 14.817364 -17.508939
S 9.434567 14.817364 -20.202622
S 9.434567 12.123681 -17.508939
S 6.740884 12.123681 -14.815256
S 6.740884 14.817364 -12.121573
S 9.434567 14.817364 -14.815256
S 9.434567 12.123681 -12.121573
S 6.740884 12.123681 -9.427890
S 6.740884 14.817364 -6.734207
S 9.434567 14.817364 -9.427890
S 9.434567 12.123681 -6.734207
S 6.740884 12.123681 -4.040524
S 6.740884 14.817364 -1.346841
S 9.434567 14.817364 -4.040524
S 9.434567 12.123681 -1.346841
S 6.740884 12.123681 1.346841
S 6.740884 14.817364 4.040524
S 9.434567 14.817364 1.346841
S 9.434567 12.123681 4.040524
S 6.740884 12.123681 6.734207
S 6.740884 14.817364 9.427890
S 9.434567 14.817364 6.734207
S 9.434567 12.123681 9.427890
S 6.740884 12.123681 12.121573
S 6.740884 14.817364 14.815256
S 9.434567 14.817364 12.121573
S 9.434567 12.123681 14.815256
S 6.740884 12.123681 17.508939
S 6.740884 14.817364 20.202622
S 9.434567 14.817364 17.508939
S 9.434567 12.123681 20.202622
S 6.740884 12.123681 22.896304
S 6.740884 14.817364 25.589987
S 9.434567 14.817364 22.896304
S 9.434567 12.123681 25.589987
S 6.740884 12.123681 28.283670
S 6.740884 17.511047 -25.589987
S 6.740884 20.204730 -22.896304
S 9.434567 17.511047 -22.896304
S 6.740884 17.511047 -20.202622
S 6.740884 20.204730 -17.508939
S 9.434567 20.204730 -20.202622
S 9.434567 17.511047 -17.508939
S 6.740884 17.511047 -14.815256
S 6.740884 20.204730 -12.121573
S 9.434567 20.204730 -14.815256
S 9.434567 17.511047 -12.121573
S 6.740884 17.511047 -9.427890
S 6.740884 20.204730 -6.734207
S 9.434567 20.204730 -9.427890
S 9.434567 17.511047 -6.734207
S 6.740884 17.511047 -4.040524
S 6.740884 20.204730 -1.346841
S 9.434567 20.204730 -4.040524
S 9.434567 17.511047 -1.346841
S 6.740884 17.511047 1.346841
S 6.740884 20.204730 4.040524
S 9.434567 20.204730 1.346841
S 9.434567 17.511047 4.040524
S 6.740884 17.511047 6.734207
S 6.740884 20.204730 9.427890
S 9.434567 20.204730 6.734207
S 9.434567 17.511047 9.427890
S 6.740884 17.511047 12.121573
S 6.740884 20.204730 14.815256
S 9.434567 20.204730 12.121573
S 9.434567 17.511047 14.815256
S 6.740884 17.511047 17.508939
S 6.740884 20.204730 20.202622
S 9.434567 20.204730 17.508939
S 9.434567 17.511047 20.202622
S 6.740884 17.511047 22.896304
S 6.740884 22.898413 -20.202622
S 6.740884 25.592096 -17.508939
S 9.434567 22.898413 -17.508939
S 6.740884 22.898413 -14.815256
S 6.740884 25.592096 -12.121573
S 9.434567 25.592096 -14.815256
S 9.434567 22.898413 -12.121573
S 6.740884 22.898413 -9.427890
S 6.740884 25.592096 -6.734207
S 9.434567 25.592096 -9.427890
S 9.434567 22.898413 -6.734207
S 6.740884 22.898413 -4.040524
S 6.740884 25.592096 -1.346841
S 9.434567 25.592096 -4.040524
S 9.434567 22.898413 -1.346841
S 6.740884 22.898413 1.346841
S 6.740884 25.592096 4.040524
S 9.434567 25.592096 1.346841
S 9.434567 22.898413 4.040524
S 6.740884 22.898413 6.734207
S 6.740884 25.592096 9.427890
S 9.434567 25.592096 6.734207
S 9.434567 22.898413 9.427890
S 6.740884 22.898413 12.121573
S 6.740884 25.592096 14.815256
S 9.434567 25.592096 12.121573
S 9.434567 22.898413 14.815256
S 6.740884 22.898413 17.508939
S 6.740884 28.285779 -14.815256
S 9.434567 28.285779 -12.121573
S 6.740884 28.285779 -9.427890
S 9.434567 28.285779 -6.734207
S 6.740884 28.285779 -4.040524
S 9.434567 28.285779 -1.346841
S 6.740884 28.285779 1.346841
S 9.434567 28.285779 4.040524
S 6.740884 28.285779 6.734207
S 9.434567 28.285779 9.427890
S 6.740884 28.285779 12.121573
S 12.128250 -28.281562 -6.734207
S 12.128250 -28.281562 -1.346841
S 14.821933 -28.281562 -4.040524
S 12.128250 -28.281562 4.040524
S 14.821933 -28.281562 1.346841
S 12.128250 -28.281562 9.427890
S 14.821933 -28.281562 6.734207
S 12.128250 -22.894196 -12.121573
S 12.128250 -25.587879 -9.427890
S 12.128250 -22.894196 -6.734207
S 14.821933 -22.894196 -9.427890
S 14.821933 -25.587879 -6.734207
S 12.128250 -25.587879 -4.040524
S 12.128250 -22.894196 -1.346841
S 14.821933 -22.894196 -4.040524
S 14.821933 -25.587879 -1.346841
S 12.128250 -25.587879 1.346841
S 12.128250 -22.894196 4.040524
S 14.821933 -22.894196 1.346841
S 14.821933 -25.587879 4.040524
S 12.128250 -25.587879 6.734207
S 12.128250 -22.894196 9.427890
S 14.821933 -22.894196 6.734207
S 14.821933 -25.587879 9.427890
S 12.128250 -25.587879 12.121573
S 12.128250 -22.894196 14.815256
S 14.821933 -22.894196 12.121573
S 12.128250 -17.506830 -17.508939
S 12.128250 -20.200513 -14.815256
S 12.128250 -17.506830 -12.121573
S 14.821933 -17.506830 -14.815256
S 14.821933 -20.200513 -12.121573
S 12.128250 -20.200513 -9.427890
S 12.128250 -17.506830 -6.734207
S 14.821933 -17.506830 -9.427890
S 14.821933 -20.200513 -6.734207
S 12.128250 -20.200513 -4.040524
S 12.128250 -17.506830 -1.346841
S 14.821933 -17.506830 -4.040524
S 14.821933 -20.200513 -1.346841
S 12.128250 -20.200513 1.346841
S 12.128250 -17.506830 4.040524
S 14.821933 -17.506830 1.346841
S 14.821933 -20.200513 4.040524
S 12.128250 -20.200513 6.734207
S 12.128250 -17.506830 9.427890
S 14.821933 -17.506830 6.734207
S 14.821933 -20.200513 9.427890
S 12.128250 -20.200513 12.121573
S 12.128250 -17.506830 14.815256
S 14.821933 -17.506830 12.121573
S 14.821933 -20.200513 14.815256
S 12.128250 -20.200513 17.508939
S 12.128250 -17.506830 20.202622
S 14.821933 -17.506830 17.508939
S 12.128250 -12.119464 -22.896304
S 12.128250 -14.813147 -20.202622
S 12.128250 -12.119464 -17.508939
S 14.821933 -12.119464 -20.202622
S 14.821933 -14.813147 -17.508939
S 12.128250 -14.813147 -14.815256
S 12.128250 -12.119464 -12.121573
S 14.821933 -12.119464 -14.815256
S 14.821933 -14.813147 -12.121573
S 12.128250 -14.813147 -9.427890
S 12.128250 -12.119464 -6.734207
S 14.821933 -12.119464 -9.427890
S 14.821933 -14.813147 -6.734207
S 12.128250 -14.813147 -4.040524
S 12.128250 -12.119464 -1.346841
S 14.821933 -12.119464 -4.040524
S 14.821933 -14.813147 -1.346841
S 12.128250 -14.813147 1.346841
S 12.128250 -12.119464 4.040524
S 14.821933 -12.119464 1.346841
S 14.821933 -14.813147 4.040524
S 12.128250 -14.813147 6.734207
S 12.128250 -12.119464 9.427890
S 14.821933 -12.119464 6.734207
S 14.821933 -14.813147 9.427890
S 12.128250 -14.813147 12.121573
S 12.128250 -12.119464 14.815256
S 14.821933 -12.119464 12.121573
S 14.821933 -14.813147 14.815256
S 12.128250 -14.813147 17.508939
S 12.128250 -12.119464 20.202622
S 14.821933 -12.119464 17.508939
S 14.821933 -14.813147 20.202622
S 12.128250 -14.813147 22.896304
S 12.128250 -12.119464 25.589987
S 14.821933 -12.119464 22.896304
S 12.128250 -6.732099 -28.283670
S 12.128250 -9.425782 -25.589987
S 12.128250 -6.732099 -22.896304
S 14.821933 -6.732099 -25.589987
S 14.821933 -9.425782 -22.896304
S 12.128250 -9.425782 -20.202622
S 12.128250 -6.732099 -17.508939
S 14.821933 -6.732099 -20.202622
S 14.821933 -9.425782 -17.508939
S 12.128250 -9.425782 -14.815256
S 12.128250 -6.732099 -12.121573
S 14.821933 -6.732099 -14.815256
S 14.821933 -9.425782 -12.121573
S 12.128250 -9.425782 -9.427890
S 12.128250 -6.732099 -6.734207
S 14.821933 -6.732099 -9.427890
S 14.821933 -9.425782 -6.734207
S 12.128250 -9.425782 -4.040524
S 12.128250 -6.732099 -1.346841
S 14.821933 -6.732099 -4.040524
S 14.821933 -9.425782 -1.346841
S 12.128250 -9.425782 1.346841
S 12.128250 -6.732099 4.040524
S 14.821933 -6.732099 1.346841
S 14.821933 -9.425782 4.040524
S 12.128250 -9.425782 6.734207
S 12.128250 -6.732099 9.427890
S 14.821933 -6.732099 6.734207
S 14.821933 -9.425782 9.427890
S 12.128250 -9.425782 12.121573
S 12.128250 -6.732099 14.815256
S 14.821933 -6.732099 12.121573
S 14.821933 -9.425782 14.815256
S 12.128250 -9.425782 17.508939
S 12.128250 -6.732099 20.202622
S 14.821933 -6.732099 17.508939
S 14.821933 -9.425782 20.202622
S 12.128250 -9.425782 22.896304
S 12.128250 -6.732099 25.589987
S 14.821933 -6.732099 22.896304
S 14.821933 -9.425782 25.589987
S 12.128250 -9.425782 28.283670
S 14.821933 -6.732099 28.283670
S 12.128250 -1.344733 -28.283670
S 14.821933 -4.038416 -28.283670
S 12.128250 -4.038416 -25.589987
S 12.128250 -1.344733 -22.896304
S 14.821933 -1.344733 -25.589987
S 14.821933 -4.038416 -22.896304
S 12.128250 -4.038416 -20.202622
S 12.128250 -1.344733 -17.508939
S 14.821933 -1.344733 -20.202622
S 14.821933 -4.038416 -17.508939
S 12.128250 -4.038416 -14.815256
S 12.128250 -1.344733 -12.121573
S 14.821933 -1.344733 -14.815256
S 14.821933 -4.038416 -12.121573
S 12.128250 -4.038416 -9.427890
S 12.128250 -1.344733 -6.734207
S 14.821933 -1.344733 -9.427890
S 14.821933 -4.038416 -6.734207
S 12.128250 -4.038416 -4.040524
S 12.128250 -1.344733 -1.346841
S 14.821933 -1.344733 -4.040524
S 14.821933 -4.038416 -1.346841
S 12.128250 -4.038416 1.346841
S 12.128250 -1.344733 4.040524
S 14.821933 -1.344733 1.346841
S 14.821933 -4.038416 4.040524
S 12.128250 -4.038416 6.734207
S 12.128250 -1.344733 9.427890
S 14.821933 -1.344733 6.734207
S 14.821933 -4.038416 9.427890
S 12.128250 -4.038416 12.121573
S 12.128250 -1.344733 14.815256
S 14.821933 -1.344733 12.121573
S 14.821933 -4.038416 14.815256
S 12.128250 -4.038416 17.508939
S 12.128250 -1.344733 20.202622
S 14.821933 -1.344733 17.508939
S 14.821933 -4.038416 20.202622
S 12.128250 -4.038416 22.896304
S 12.128250 -1.344733 25.589987
S 14.821933 -1.344733 22.896304
S 14.821933 -4.038416 25.589987
S 12.128250 -4.038416 28.283670
S 14.821933 -1.344733 28.283670
S 12.128250 4.042633 -28.283670
S 14.821933 1.348950 -28.283670
S 12.128250 1.348950 -25.589987
S 12.128250 4.042633 -22.896304
S 14.821933 4.042633 -25.589987
S 14.821933 1.348950 -22.896304
S 12.128250 1.348950 -20.202622
S 12.128250 4.042633 -17.508939
S 14.821933 4.042633 -20.202622
S 14.821933 1.348950 -17.508939
S 12.128250 1.348950 -14.815256
S 12.128250 4.042633 -12.121573
S 14.821933 4.042633 -14.815256
S 14.821933 1.348950 -12.121573
S 12.128250 1.348950 -9.427890
S 12.128250 4.042633 -6.734207
S 14.821933 4.042633 -9.427890
S 14.821933 1.348950 -6.734207
S 12.128250 1.348950 -4.040524
S 12.128250 4.042633 -1.346841
S 14.821933 4.042633 -4.040524
S 14.821933 1.348950 -1.346841
S 12.128250 1.348950 1.346841
S 12.128250 4.042633 4.040524
S 14.821933 4.042633 1.346841
S 14.821933 1.348950 4.040524
S 12.128250 1.348950 6.734207
S 12.128250 4.042633 9.427890
S 14.821933 4.042633 6.734207
S 14.821933 1.348950 9.427890
S 12.128250 1.348950 12.121573
S 12.128250 4.042633 14.815256
S 14.821933 4.042633 12.121573
S 14.821933 1.348950 14.815256
S 12.128250 1.348950 17.508939
S 12.128250 4.042633 20.202622
S 14.821933 4.042633 17.508939
S 14.821933 1.348950 20.202622
S 12.128250 1.348950 22.896304
S 12.128250 4.042633 25.589987
S 14.821933 4.042633 22.896304
S 14.821933 1.348950 25.589987
S 12.128250 1.348950 28.283670
S 14.821933 4.042633 28.283670
S 12.128250 9.429999 -28.283670
S 14.821933 6.736316 -28.283670
S 12.128250 6.736316 -25.589987
S 12.128250 9.429999 -22.896304
S 14.821933 9.429999 -25.589987
S 14.821933 6.736316 -22.896304
S 12.128250 6.736316 -20.202622
S 12.128250 9.429999 -17.508939
S 14.821933 9.429999 -20.202622
S 14.821933 6.736316 -17.508939
S 12.128250 6.736316 -14.815256
S 12.128250 9.429999 -12.121573
S 14.821933 9.429999 -14.815256
S 14.821933 6.736316 -12.121573
S 12.128250 6.736316 -9.427890
S 12.128250 9.429999 -6.734207
S 14.821933 9.429999 -9.427890
S 14.821933 6.736316 -6.734207
S 12.128250 6.736316 -4.040524
S 12.128250 9.429999 -1.346841
S 14.821933 9.429999 -4.040524
S 14.821933 6.736316 -1.346841
S 12.128250 6.736316 1.346841
S 12.128250 9.429999 4.040524
S 14.821933 9.429999 1.346841
S 14.821933 6.736316 4.040524
S 12.128250 6.736316 6.734207
S 12.128250 9.429999 9.427890
S 14.821933 9.429999 6.734207
S 14.821933 6.736316 9.427890
S 12.128250 6.736316 12.121573
S 12.128250 9.429999 14.815256
S 14.821933 9.429999 12.121573
S 14.821933 6.736316 14.815256
S 12.128250 6.736316 17.508939
S 12.128250 9.429999 20.202622
S 14.821933 9.429999 17.508939
S 14.821933 6.736316 20.202622
S 12.128250 6.736316 22.896304
S 12.128250 9.429999 25.589987
S 14.821933 9.429999 22.896304
S 14.821933 6.736316 25.589987
S 12.128250 6.736316 28.283670
S 12.128250 12.123681 -25.589987
S 12.128250 14.817364 -22.896304
S 14.821933 12.123681 -22.896304
S 12.128250 12.123681 -20.202622
S 12.128250 14.817364 -17.508939
S 14.821933 14.817364 -20.202622
S 14.821933 12.123681 -17.508939
S 12.128250 12.123681 -14.815256
S 12.128250 14.817364 -12.121573
S 14.821933 14.817364 -14.815256
S 14.821933 12.123681 -12.121573
S 12.128250 12.123681 -9.427890
S 12.128250 14.817364 -6.734207
S 14.821933 14.817364 -9.427890
S 14.821933 12.123681 -6.734207
S 12.128250 12.123681 -4.040524
S 12.128250 14.817364 -1.346841
S 14.821933 14.817364 -4.040524
S 14.821933 12.123681 -1.346841
S 12.128250 12.123681 1.346841
S 12.128250 14.817364 4.040524
S 14.821933 14.817364 1.346841
S 14.821933 12.123681 4.040524
S 12.128250 12.123681 6.734207
S 12.128250 14.817364 9.427890
S 14.821933 14.817364 6.734207
S 14.821933 12.123681 9.427890
S 12.128250 12.123681 12.121573
S 12.128250 14.817364 14.815256
S 14.821933 14.817364 12.121573
S 14.821933 12.123681 14.815256
S 12.128250 12.123681 17.508939
S 12.128250 14.817364 20.202622
S 14.821933 14.817364 17.508939
S 14.821933 12.123681 20.202622
S 12.128250 12.123681 22.896304
S 12.128250 17.511047 -20.202622
S 12.128250 20.204730 -17.508939
S 14.821933 17.511047 -17.508939
S 12.128250 17.511047 -14.815256
S 12.128250 20.204730 -12.121573
S 14.821933 20.204730 -14.815256
S 14.821933 17.511047 -12.121573
S 12.128250 17.511047 -9.427890
S 12.128250 20.204730 -6.734207
S 14.821933 20.204730 -9.427890
S 14.821933 17.511047 -6.734207
S 12.128250 17.511047 -4.040524
S 12.128250 20.204730 -1.346841
S 14.821933 20.204730 -4.040524
S 14.821933 17.511047 -1.346841
S 12.128250 17.511047 1.346841
S 12.128250 20.204730 4.040524
S 14.821933 20.204730 1.346841
S 14.821933 17.511047 4.040524
S 12.128250 17.511047 6.734207
S 12.128250 20.204730 9.427890
S 14.821933 20.204730 6.734207
S 14.821933 17.511047 9.427890
S 12.128250 17.511047 12.121573
S 12.128250 20.204730 14.815256
S 14.821933 20.204730 12.121573
S 14.821933 17.511047 14.815256
S 12.128250 17.511047 17.508939
S 12.128250 22.898413 -14.815256
S 12.128250 25.592096 -12.121573
S 14.821933 22.898413 -12.121573
S 12.128250 22.898413 -9.427890
S 12.128250 25.592096 -6.734207
S 14.821933 25.592096 -9.427890
S 14.821933 22.898413 -6.734207
S 12.128250 22.898413 -4.040524
S 12.128250 25.592096 -1.346841
S 14.821933 25.592096 -4.040524
S 14.821933 22.898413 -1.346841
S 12.128250 22.898413 1.346841
S 12.128250 25.592096 4.040524
S 14.821933 25.592096 1.346841
S 14.821933 22.898413 4.040524
S 12.128250 22.898413 6.734207
S 12.128250 25.592096 9.427890
S 14.821933 25.592096 6.734207
S 14.821933 22.898413 9.427890
S 12.128250 22.898413 12.121573
S 12.128250 28.285779 -9.427890
S 14.821933 28.285779 -6.734207
S 12.128250 28.285779 -4.040524
S 14.821933 28.285779 -1.346841
S 12.128250 28.285779 1.346841
S 14.821933 28.285779 4.040524
S 12.128250 28.285779 6.734207
S 17.515616 -28.281562 -1.346841
S 17.515616 -28.281562 4.040524
S 20.209299 -28.281562 1.346841
S 17.515616 -22.894196 -6.734207
S 17.515616 -25.587879 -4.040524
S 17.515616 -22.894196 -1.346841
S 20.209299 -22.894196 -4.040524
S 20.209299 -25.587879 -1.346841
S 17.515616 -25.587879 1.346841
S 17.515616 -22.894196 4.040524
S 20.209299 -22.894196 1.346841
S 20.209299 -25.587879 4.040524
S 17.515616 -25.587879 6.734207
S 17.515616 -22.894196 9.427890
S 20.209299 -22.894196 6.734207
S 17.515616 -17.506830 -12.121573
S 17.515616 -20.200513 -9.427890
S 17.515616 -17.506830 -6.734207
S 20.209299 -17.506830 -9.427890
S 20.209299 -20.200513 -6.734207
S 17.515616 -20.200513 -4.040524
S 17.515616 -17.506830 -1.346841
S 20.209299 -17.506830 -4.040524
S 20.209299 -20.200513 -1.346841
S 17.515616 -20.200513 1.346841
S 17.515616 -17.506830 4.040524
S 20.209299 -17.506830 1.346841
S 20.209299 -20.200513 4.040524
S 17.515616 -20.200513 6.734207
S 17.515616 -17.506830 9.427890
S 20.209299 -17.506830 6.734207
S 20.209299 -20.200513 9.427890
S 17.515616 -20.200513 12.121573
S 17.515616 -17.506830 14.815256
S 20.209299 -17.506830 12.121573
S 17.515616 -12.119464 -17.508939
S 17.515616 -14.813147 -14.815256
S 17.515616 -12.119464 -12.121573
S 20.209299 -12.119464 -14.815256
S 20.209299 -14.813147 -12.121573
S 17.515616 -14.813147 -9.427890
S 17.515616 -12.119464 -6.734207
S 20.209299 -12.119464 -9.427890
S 20.209299 -14.813147 -6.734207
S 17.515616 -14.813147 -4.040524
S 17.515616 -12.119464 -1.346841
S 20.209299 -12.119464 -4.040524
S 20.209299 -14.813147 -1.346841
S 17.515616 -14.813147 1.346841
S 17.515616 -12.119464 4.040524
S 20.209299 -12.119464 1.346841
S 20.209299 -14.813147 4.040524
S 17.515616 -14.813147 6.734207
S 17.515616 -12.119464 9.427890
S 20.209299 -12.119464 6.734207
S 20.209299 -14.813147 9.427890
S 17.515616 -14.813147 12.121573
S 17.515616 -12.119464 14.815256
S 20.209299 -12.119464 12.121573
S 20.209299 -14.813147 14.815256
S 17.515616 -14.813147 17.508939
S 17.515616 -12.119464 20.202622
S 20.209299 -12.119464 17.508939
S 17.515616 -6.732099 -22.896304
S 17.515616 -9.425782 -20.202622
S 17.515616 -6.732099 -17.508939
S 20.209299 -6.732099 -20.202622
S 20.209299 -9.425782 -17.508939
S 17.515616 -9.425782 -14.815256
S 17.515616 -6.732099 -12.121573
S 20.209299 -6.732099 -14.815256
S 20.209299 -9.425782 -12.121573
S 17.515616 -9.425782 -9.427890
S 17.515616 -6.732099 -6.734207
S 20.209299 -6.732099 -9.427890
S 20.209299 -9.425782 -6.734207
S 17.515616 -9.425782 -4.040524
S 17.515616 -6.732099 -1.346841
S 20.209299 -6.732099 -4.040524
S 20.209299 -9.425782 -1.346841
S 17.515616 -9.425782 1.346841
S 17.515616 -6.732099 4.040524
S 20.209299 -6.732099 1.346841
S 20.209299 -9.425782 4.040524
S 17.515616 -9.425782 6.734207
S 17.515616 -6.732099 9.427890
S 20.209299 -6.732099 6.734207
S 20.209299 -9.425782 9.427890
S 17.515616 -9.425782 12.121573
S 17.515616 -6.732099 14.815256
S 20.209299 -6.732099 12.121573
S 20.209299 -9.425782 14.815256
S 17.515616 -9.425782 17.508939
S 17.515616 -6.732099 20.202622
S 20.209299 -6.732099 17.508939
S 20.209299 -9.425782 20.202622
S 17.515616 -9.425782 22.896304
S 17.515616 -6.732099 25.589987
S 20.209299 -6.732099 22.896304
S 17.515616 -1.344733 -28.283670
S 17.515616 -4.038416 -25.589987
S 17.515616 -1.344733 -22.896304
S 20.209299 -1.344733 -25.589987
S 20.209299 -4.038416 -22.896304
S 17.515616 -4.038416 -20.202622
S 17.515616 -1.344733 -17.508939
S 20.209299 -1.344733 -20.202622
S 20.209299 -4.038416 -17.508939
S 17.515616 -4.038416 -14.815256
S 17.515616 -1.344733 -12.121573
S 20.209299 -1.344733 -14.815256
S 20.209299 -4.038416 -12.121573
S 17.515616 -4.038416 -9.427890
S 17.515616 -1.344733 -6.734207
S 20.209299 -1.344733 -9.427890
S 20.209299 -4.038416 -6.734207
S 17.515616 -4.038416 -4.040524
S 17.515616 -1.344733 -1.346841
S 20.209299 -1.344733 -4.040524
S 20.209299 -4.038416 -1.346841
S 17.515616 -4.038416 1.346841
S 17.515616 -1.344733 4.040524
S 20.209299 -1.344733 1.346841
S 20.209299 -4.038416 4.040524
S 17.515616 -4.038416 6.734207
S 17.515616 -1.344733 9.427890
S 20.209299 -1.344733 6.734207
S 20.209299 -4.038416 9.427890
S 17.515616 -4.038416 12.121573
S 17.515616 -1.344733 14.815256
S 20.209299 -1.344733 12.121573
S 20.209299 -4.038416 14.815256
S 17.515616 -4.038416 17.508939
S 17.515616 -1.344733 20.202622
S 20.209299 -1.344733 17.508939
S 20.209299 -4.038416 20.202622
S 17.515616 -4.038416 22.896304
S 17.515616 -1.344733 25.589987
S 20.209299 -1.344733 22.896304
S 20.209299 -4.038416 25.589987
S 17.515616 -4.038416 28.283670
S 20.209299 -1.344733 28.283670
S 17.515616 4.042633 -28.283670
S 20.209299 1.348950 -28.283670
S 17.515616 1.348950 -25.589987
S 17.515616 4.042633 -22.896304
S 20.209299 4.042633 -25.589987
S 20.209299 1.348950 -22.896304
S 17.515616 1.348950 -20.202622
S 17.515616 4.042633 -17.508939
S 20.209299 4.042633 -20.202622
S 20.209299 1.348950 -17.508939
S 17.515616 1.348950 -14.815256
S 17.515616 4.042633 -12.121573
S 20.209299 4.042633 -14.815256
S 20.209299 1.348950 -12.121573
S 17.515616 1.348950 -9.427890
S 17.515616 4.042633 -6.734207
S 20.209299 4.042633 -9.427890
S 20.209299 1.348950 -6.734207
S 17.515616 1.348950 -4.040524
S 17.515616 4.042633 -1.346841
S 20.209299 4.042633 -4.040524
S 20.209299 1.348950 -1.346841
S 17.515616 1.348950 1.346841
S 17.515616 4.042633 4.040524
S 20.209299 4.042633 1.346841
S 20.209299 1.348950 4.040524
S 17.515616 1.348950 6.734207
S 17.515616 4.042633 9.427890
S 20.209299 4.042633 6.734207
S 20.209299 1.348950 9.427890
S 17.515616 1.348950 12.121573
S 17.515616 4.042633 14.815256
S 20.209299 4.042633 12.121573
S 20.209299 1.348950 14.815256
S 17.515616 1.348950 17.508939
S 17.515616 4.042633 20.202622
S 20.209299 4.042633 17.508939
S 20.209299 1.348950 20.202622
S 17.515616 1.348950 22.896304
S 17.515616 4.042633 25.589987
S 20.209299 4.042633 22.896304
S 20.209299 1.348950 25.589987
S 17.515616 1.348950 28.283670
S 17.515616 6.736316 -25.589987
S 17.515616 9.429999 -22.896304
S 20.209299 6.736316 -22.896304
S 17.515616 6.736316 -20.202622
S 17.515616 9.429999 -17.508939
S 20.209299 9.429999 -20.202622
S 20.209299 6.736316 -17.508939
S 17.515616 6.736316 -14.815256
S 17.515616 9.429999 -12.121573
S 20.209299 9.429999 -14.815256
S 20.209299 6.736316 -12.121573
S 17.515616 6.736316 -9.427890
S 17.515616 9.429999 -6.734207
S 20.209299 9.429999 -9.427890
S 20.209299 6.736316 -6.734207
S 17.515616 6.736316 -4.040524
S 17.515616 9.429999 -1.346841
S 20.209299 9.429999 -4.040524
S 20.209299 6.736316 -1.346841
S 17.515616 6.736316 1.346841
S 17.515616 9.429999 4.040524
S 20.209299 9.429999 1.346841
S 20.209299 6.736316 4.040524
S 17.515616 6.736316 6.734207
S 17.515616 9.429999 9.427890
S 20.209299 9.429999 6.734207
S 20.209299 6.736316 9.427890
S 17.515616 6.736316 12.121573
S 17.515616 9.429999 14.815256
S 20.209299 9.429999 12.121573
S 20.209299 6.736316 14.815256
S 17.515616 6.736316 17.508939
S 17.515616 9.429999 20.202622
S 20.209299 9.429999 17.508939
S 20.209299 6.736316 20.202622
S 17.515616 6.736316 22.896304
S 17.515616 12.123681 -20.202622
S 17.515616 14.817364 -17.508939
S 20.209299 12.123681 -17.508939
S 17.515616 12.123681 -14.815256
S 17.515616 14.817364 -12.121573
S 20.209299 14.817364 -14.815256
S 20.209299 12.123681 -12.121573
S 17.515616 12.123681 -9.427890
S 17.515616 14.817364 -6.734207
S 20.209299 14.817364 -9.427890
S 20.209299 12.123681 -6.734207
S 17.515616 12.123681 -4.040524
S 17.515616 14.817364 -1.346841
S 20.209299 14.817364 -4.040524
S 20.209299 12.123681 -1.346841
S 17.515616 12.123681 1.346841
S 17.515616 14.817364 4.040524
S 20.209299 14.817364 1.346841
S 20.209299 12.123681 4.040524
S 17.515616 12.123681 6.734207
S 17.515616 14.817364 9.427890
S 20.209299 14.817364 6.734207
S 20.209299 12.123681 9.427890
S 17.515616 12.123681 12.121573
S 17.515616 14.817364 14.815256
S 20.209299 14.817364 12.121573
S 20.209299 12.123681 14.815256
S 17.515616 12.123681 17.508939
S 17.515616 17.511047 -14.815256
S 17.515616 20.204730 -12.121573
S 20.209299 17.511047 -12.121573
S 17.515616 17.511047 -9.427890
S 17.515616 20.204730 -6.734207
S 20.209299 20.204730 -9.427890
S 20.209299 17.511047 -6.734207
S 17.515616 17.511047 -4.040524
S 17.515616 20.204730 -1.346841
S 20.209299 20.204730 -4.040524
S 20.209299 17.511047 -1.346841
S 17.515616 17.511047 1.346841
S 17.515616 20.204730 4.040524
S 20.209299 20.204730 1.346841
S 20.209299 17.511047 4.040524
S 17.515616 17.511047 6.734207
S 17.515616 20.204730 9.427890
S 20.209299 20.204730 6.734207
S 20.209299 17.511047 9.427890
S 17.515616 17.511047 12.121573
S 17.515616 22.898413 -9.427890
S 17.515616 25.592096 -6.734207
S 20.209299 22.898413 -6.734207
S 17.515616 22.898413 -4.040524
S 17.515616 25.592096 -1.346841
S 20.209299 25.592096 -4.040524
S 20.209299 22.898413 -1.346841
S 17.515616 22.898413 1.346841
S 17.515616 25.592096 4.040524
S 20.209299 25.592096 1.346841
S 20.209299 22.898413 4.040524
S 17.515616 22.898413 6.734207
S 17.515616 28.285779 -4.040524
S 20.209299 28.285779 -1.346841
S 17.515616 28.285779 1.346841
S 22.902982 -22.894196 -1.346841
S 22.902982 -25.587879 1.346841
S 22.902982 -22.894196 4.040524
S 25.596664 -22.894196 1.346841
S 22.902982 -17.506830 -6.734207
S 22.902982 -20.200513 -4.040524
S 22.902982 -17.506830 -1.346841
S 25.596664 -17.506830 -4.040524
S 25.596664 -20.200513 -1.346841
S 22.902982 -20.200513 1.346841
S 22.902982 -17.506830 4.040524
S 25.596664 -17.506830 1.346841
S 25.596664 -20.200513 4.040524
S 22.902982 -20.200513 6.734207
S 22.902982 -17.506830 9.427890
S 25.596664 -17.506830 6.734207
S 22.902982 -12.119464 -12.121573
S 22.902982 -14.813147 -9.427890
S 22.902982 -12.119464 -6.734207
S 25.596664 -12.119464 -9.427890
S 25.596664 -14.813147 -6.734207
S 22.902982 -14.813147 -4.040524
S 22.902982 -12.119464 -1.346841
S 25.596664 -12.119464 -4.040524
S 25.596664 -14.813147 -1.346841
S 22.902982 -14.813147 1.346841
S 22.902982 -12.119464 4.040524
S 25.596664 -12.119464 1.346841
S 25.596664 -14.813147 4.040524
S 22.902982 -14.813147 6.734207
S 22.902982 -12.119464 9.427890
S 25.596664 -12.119464 6.734207
S 25.596664 -14.813147 9.427890
S 22.902982 -14.813147 12.121573
S 22.902982 -12.119464 14.815256
S 25.596664 -12.119464 12.121573
S 22.902982 -6.732099 -17.508939
S 22.902982 -9.425782 -14.815256
S 22.902982 -6.732099 -12.121573
S 25.596664 -6.732099 -14.815256
S 25.596664 -9.425782 -12.121573
S 22.902982 -9.425782 -9.427890
S 22.902982 -6.732099 -6.734207
S 25.596664 -6.732099 -9.427890
S 25.596664 -9.425782 -6.734207
S 22.902982 -9.425782 -4.040524
S 22.902982 -6.732099 -1.346841
S 25.596664 -6.732099 -4.040524
S 25.596664 -9.425782 -1.346841
S 22.902982 -9.425782 1.346841
S 22.902982 -6.732099 4.040524
S 25.596664 -6.732099 1.346841
S 25.596664 -9.425782 4.040524
S 22.902982 -9.425782 6.734207
S 22.902982 -6.732099 9.427890
S 25.596664 -6.732099 6.734207
S 25.596664 -9.425782 9.427890
S 22.902982 -9.425782 12.121573
S 22.902982 -6.732099 14.815256
S 25.596664 -6.732099 12.121573
S 25.596664 -9.425782 14.815256
S 22.902982 -9.425782 17.508939
S 22.902982 -6.732099 20.202622
S 25.596664 -6.732099 17.508939
S 22.902982 -1.344733 -22.896304
S 22.902982 -4.038416 -20.202622
S 22.902982 -1.344733 -17.508939
S 25.596664 -1.344733 -20.202622
S 25.596664 -4.038416 -17.508939
S 22.902982 -4.038416 -14.815256
S 22.902982 -1.344733 -12.121573
S 25.596664 -1.344733 -14.815256
S 25.596664 -4.038416 -12.121573
S 22.902982 -4.038416 -9.427890
S 22.902982 -1.344733 -6.734207
S 25.596664 -1.344733 -9.427890
S 25.596664 -4.038416 -6.734207
S 22.902982 -4.038416 -4.040524
S 22.902982 -1.344733 -1.346841
S 25.596664 -1.344733 -4.040524
S 25.596664 -4.038416 -1.346841
S 22.902982 -4.038416 1.346841
S 22.902982 -1.344733 4.040524
S 25.596664 -1.344733 1.346841
S 25.596664 -4.038416 4.040524
S 22.902982 -4.038416 6.734207
S 22.902982 -1.344733 9.427890
S 25.596664 -1.344733 6.734207
S 25.596664 -4.038416 9.427890
S 22.902982 -4.038416 12.121573
S 22.902982 -1.344733 14.815256
S 25.596664 -1.344733 12.121573
S 25.596664 -4.038416 14.815256
S 22.902982 -4.038416 17.508939
S 22.902982 -1.344733 20.202622
S 25.596664 -1.344733 17.508939
S 25.596664 -4.038416 20.202622
S 22.902982 -4.038416 22.896304
S 22.902982 -1.344733 25.589987
S 25.596664 -1.344733 22.896304
S 22.902982 1.348950 -25.589987
S 22.902982 4.042633 -22.896304
S 25.596664 1.348950 -22.896304
S 22.902982 1.348950 -20.202622
S 22.902982 4.042633 -17.508939
S 25.596664 4.042633 -20.202622
S 25.596664 1.348950 -17.508939
S 22.902982 1.348950 -14.815256
S 22.902982 4.042633 -12.121573
S 25.596664 4.042633 -14.815256
S 25.596664 1.348950 -12.121573
S 22.902982 1.348950 -9.427890
S 22.902982 4.042633 -6.734207
S 25.596664 4.042633 -9.427890
S 25.596664 1.348950 -6.734207
S 22.902982 1.348950 -4.040524
S 22.902982 4.042633 -1.346841
S 25.596664 4.042633 -4.040524
S 25.596664 1.348950 -1.346841
S 22.902982 1.348950 1.346841
S 22.902982 4.042633 4.040524
S 25.596664 4.042633 1.346841
S 25.596664 1.348950 4.040524
S 22.902982 1.348950 6.734207
S 22.902982 4.042633 9.427890
S 25.596664 4.042633 6.734207
S 25.596664 1.348950 9.427890
S 22.902982 1.348950 12.121573
S 22.902982 4.042633 14.815256
S 25.596664 4.042633 12.121573
S 25.596664 1.348950 14.815256
S 22.902982 1.348950 17.508939
S 22.902982 4.042633 20.202622
S 25.596664 4.042633 17.508939
S 25.596664 1.348950 20.202622
S 22.902982 1.348950 22.896304
S 22.902982 6.736316 -20.202622
S 22.902982 9.429999 -17.508939
S 25.596664 6.736316 -17.508939
S 22.902982 6.736316 -14.815256
S 22.902982 9.429999 -12.121573
S 25.596664 9.429999 -14.815256
S 25.596664 6.736316 -12.121573
S 22.902982 6.736316 -9.427890
S 22.902982 9.429999 -6.734207
S 25.596664 9.429999 -9.427890
S 25.596664 6.736316 -6.734207
S 22.902982 6.736316 -4.040524
S 22.902982 9.429999 -1.346841
S 25.596664 9.429999 -4.040524
S 25.596664 6.736316 -1.346841
S 22.902982 6.736316 1.346841
S 22.902982 9.429999 4.040524
S 25.596664 9.429999 1.346841
S 25.596664 6.736316 4.040524
S 22.902982 6.736316 6.734207
S 22.902982 9.429999 9.427890
S 25.596664 9.429999 6.734207
S 25.596664 6.736316 9.427890
S 22.902982 6.736316 12.121573
S 22.902982 9.429999 14.815256
S 25.596664 9.429999 12.121573
S 25.596664 6.736316 14.815256
S 22.902982 6.736316 17.508939
S 22.902982 12.123681 -14.815256
S 22.902982 14.817364 -12.121573
S 25.596664 12.123681 -12.121573
S 22.902982 12.123681 -9.427890
S 22.902982 14.817364 -6.734207
S 25.596664 14.817364 -9.427890
S 25.596664 12.123681 -6.734207
S 22.902982 12.123681 -4.040524
S 22.902982 14.817364 -1.346841
S 25.596664 14.817364 -4.040524
S 25.596664 12.123681 -1.346841
S 22.902982 12.123681 1.346841
S 22.902982 14.817364 4.040524
S 25.596664 14.817364 1.346841
S 25.596664 12.123681 4.040524
S 22.902982 12.123681 6.734207
S 22.902982 14.817364 9.427890
S 25.596664 14.817364 6.734207
S 25.596664 12.123681 9.427890
S 22.902982 12.123681 12.121573
S 22.902982 17.511047 -9.427890
S 22.902982 20.204730 -6.734207
S 25.596664 17.511047 -6.734207
S 22.902982 17.511047 -4.040524
S 22.902982 20.204730 -1.346841
S 25.596664 20.204730 -4.040524
S 25.596664 17.511047 -1.346841
S 22.902982 17.511047 1.346841
S 22.902982 20.204730 4.040524
S 25.596664 20.204730 1.346841
S 25.596664 17.511047 4.040524
S 22.902982 17.511047 6.734207
S 22.902982 22.898413 -4.040524
S 22.902982 25.592096 -1.346841
S 25.596664 22.898413 -1.346841
S 22.902982 22.898413 1.346841
S 28.290347 -17.506830 -1.346841
S 28.290347 -20.200513 1.346841
S 28.290347 -17.506830 4.040524
S 28.290347 -12.119464 -6.734207
S 28.290347 -14.813147 -4.040524
S 28.290347 -12.119464 -1.346841
S 28.290347 -14.813147 1.346841
S 28.290347 -12.119464 4.040524
S 28.290347 -14.813147 6.734207
S 28.290347 -12.119464 9.427890
S 28.290347 -6.732099 -12.121573
S 28.290347 -9.425782 -9.427890
S 28.290347 -6.732099 -6.734207
S 28.290347 -9.425782 -4.040524
S 28.290347 -6.732099 -1.346841
S 28.290347 -9.425782 1.346841
S 28.290347 -6.732099 4.040524
S 28.290347 -9.425782 6.734207
S 28.290347 -6.732099 9.427890
S 28.290347 -9.425782 12.121573
S 28.290347 -6.732099 14.815256
S 28.290347 -1.344733 -17.508939
S 28.290347 -4.038416 -14.815256
S 28.290347 -1.344733 -12.121573
S 28.290347 -4.038416 -9.427890
S 28.290347 -1.344733 -6.734207
S 28.290347 -4.038416 -4.040524
S 28.290347 -1.344733 -1.346841
S 28.290347 -4.038416 1.346841
S 28.290347 -1.344733 4.040524
S 28.290347 -4.038416 6.734207
S 28.290347 -1.344733 9.427890
S 28.290347 -4.038416 12.121573
S 28.290347 -1.344733 14.815256
S 28.290347 -4.038416 17.508939
S 28.290347 -1.344733 20.202622
S 28.290347 1.348950 -20.202622
S 28.290347 4.042633 -17.508939
S 28.290347 1.348950 -14.815256
S 28.290347 4.042633 -12.121573
S 28.290347 1.348950 -9.427890
S 28.290347 4.042633 -6.734207
S 28.290347 1.348950 -4.040524
S 28.290347 4.042633 -1.346841
S 28.290347 1.348950 1.346841
S 28.290347 4.042633 4.040524
S 28.290347 1.348950 6.734207
S 28.290347 4.042633 9.427890
S 28.290347 1.348950 12.121573
S 28.290347 4.042633 14.815256
S 28.290347 1.348950 17.508939
S 28.290347 6.736316 -14.815256
S 28.290347 9.429999 -12.121573
S 28.290347 6.736316 -9.427890
S 28.290347 9.429999 -6.734207
S 28.290347 6.736316 -4.040524
S 28.290347 9.429999 -1.346841
S 28.290347 6.736316 1.346841
S 28.290347 9.429999 4.040524
S 28.290347 6.736316 6.734207
S 28.290347 9.429999 9.427890
S 28.290347 6.736316 12.121573
S 28.290347 12.123681 -9.427890
S 28.290347 14.817364 -6.734207
S 28.290347 12.123681 -4.040524
S 28.290347 14.817364 -1.346841
S 28.290347 12.123681 1.346841
S 28.290347 14.817364 4.040524
S 28.290347 12.123681 6.734207
S 28.290347 17.511047 -4.040524
S 28.290347 20.204730 -1.346841
S 28.290347 17.511047 1.346841
Cl -30.970676 -17.506830 -1.346841
Cl -30.970676 -12.119464 -6.734207
Cl -30.970676 -14.813147 -4.040524
Cl -30.970676 -12.119464 -1.346841
Cl -30.970676 -14.813147 1.346841
Cl -30.970676 -12.119464 4.040524
Cl -30.970676 -6.732099 -12.121573
Cl -30.970676 -9.425782 -9.427890
Cl -30.970676 -6.732099 -6.734207
Cl -30.970676 -9.425782 -4.040524
Cl -30.970676 -6.732099 -1.346841
Cl -30.970676 -9.425782 1.346841
Cl -30.970676 -6.732099 4.040524
Cl -30.970676 -9.425782 6.734207
Cl -30.970676 -6.732099 9.427890
Cl -30.970676 -1.344733 -17.508939
Cl -30.970676 -4.038416 -14.815256
Cl -30.970676 -1.344733 -12.121573
Cl -30.970676 -4.038416 -9.427890
Cl -30.970676 -1.344733 -6.734207
Cl -30.970676 -4.038416 -4.040524
Cl -30.970676 -1.344733 -1.346841
Cl -30.970676 -4.038416 1.346841
Cl -30.970676 -1.344733 4.040524
Cl -30.970676 -4.038416 6.734207
Cl -30.970676 -1.344733 9.427890
Cl -30.970676 -4.038416 12.121573
Cl -30.970676 -1.344733 14.815256
Cl -30.970676 1.348950 -14.815256
Cl -30.970676 4.042633 -12.121573
Cl -30.970676 1.348950 -9.427890
Cl -30.970676 4.042633 -6.734207
Cl -30.970676 1.348950 -4.040524
Cl -30.970676 4.042633 -1.346841
Cl -30.970676 1.348950 1.346841
Cl -30.970676 4.042633 4.040524
Cl -30.970676 1.348950 6.734207
Cl -30.970676 4.042633 9.427890
Cl -30.970676 1.348950 12.121573
Cl -30.970676 4.042633 14.815256
Cl -30.970676 1.348950 17.508939
Cl -30.970676 6.736316 -9.427890
Cl -30.970676 9.429999 -6.734207
Cl -30.970676 6.736316 -4.040524
Cl -30.970676 9.429999 -1.346841
Cl -30.970676 6.736316 1.346841
Cl -30.970676 9.429999 4.040524
Cl -30.970676 6.736316 6.734207
Cl -30.970676 9.429999 9.427890
Cl -30.970676 6.736316 12.121573
Cl -30.970676 12.123681 -4.040524
Cl -30.970676 14.817364 -1.346841
Cl -30.970676 12.123681 1.346841
Cl -30.970676 14.817364 4.040524
Cl -30.970676 12.123681 6.734207
Cl -30.970676 17.511047 1.346841
Cl -17.502262 -30.975245 -1.346841
Cl -17.502262 -1.344733 -30.977353
Cl -17.502262 1.348950 30.977353
Cl -17.502262 30.979462 1.346841
Cl -12.114896 -30.975245 -6.734207
Cl -14.808579 -30.975245 -4.040524
Cl -12.114896 -30.975245 -1.346841
Cl -14.808579 -30.975245 1.346841
Cl -12.114896 -30.975245 4.040524
Cl -12.114896 -6.732099 -30.977353
Cl -14.808579 -4.038416 -30.977353
Cl -12.114896 -1.344733 -30.977353
Cl -14.808579 -1.344733 30.977353
Cl -12.114896 -4.038416 30.977353
Cl -14.808579 1.348950 -30.977353
Cl -12.114896 4.042633 -30.977353
Cl -14.808579 4.042633 30.977353
Cl -12.114896 1.348950 30.977353
Cl -12.114896 6.736316 30.977353
Cl -14.808579 30.979462 -1.346841
Cl -12.114896 30.979462 -4.040524
Cl -14.808579 30.979462 4.040524
Cl -12.114896 30.979462 1.346841
Cl -12.114896 30.979462 6.734207
Cl -6.727530 -30.975245 -12.121573
Cl -9.421213 -30.975245 -9.427890
Cl -6.727530 -30.975245 -6.734207
Cl -9.421213 -30.975245 -4.040524
Cl -6.727530 -30.975245 -1.346841
Cl -9.421213 -30.975245 1.346841
Cl -6.727530 -30.975245 4.040524
Cl -9.421213 -30.975245 6.734207
Cl -6.727530 -30.975245 9.427890
Cl -6.727530 -12.119464 -30.977353
Cl -9.421213 -9.425782 -30.977353
Cl -6.727530 -6.732099 -30.977353
Cl -9.421213 -6.732099 30.977353
Cl -6.727530 -9.425782 30.977353
Cl -9.421213 -4.038416 -30.977353
Cl -6.727530 -1.344733 -30.977353
Cl -9.421213 -1.344733 30.977353
Cl -6.727530 -4.038416 30.977353
Cl -9.421213 1.348950 -30.977353
Cl -6.727530 4.042633 -30.977353
Cl -9.421213 4.042633 30.977353
Cl -6.727530 1.348950 30.977353
Cl -9.421213 6.736316 -30.977353
Cl -6.727530 9.429999 -30.977353
Cl -9.421213 9.429999 30.977353
Cl -6.727530 6.736316 30.977353
Cl -6.727530 12.123681 30.977353
Cl -9.421213 30.979462 -6.734207
Cl -6.727530 30.979462 -9.427890
Cl -9.421213 30.979462 -1.346841
Cl -6.727530 30.979462 -4.040524
Cl -9.421213 30.979462 4.040524
Cl -6.727530 30.979462 1.346841
Cl -9.421213 30.979462 9.427890
Cl -6.727530 30.979462 6.734207
Cl -6.727530 30.979462 12.121573
Cl -1.340164 -30.975245 -17.508939
Cl -4.033847 -30.975245 -14.815256
Cl -1.340164 -30.975245 -12.121573
Cl -4.033847 -30.975245 -9.427890
Cl -1.340164 -30.975245 -6.734207
Cl -4.033847 -30.975245 -4.040524
Cl -1.340164 -30.975245 -1.346841
Cl -4.033847 -30.975245 1.346841
Cl -1.340164 -30.975245 4.040524
Cl -4.033847 -30.975245 6.734207
Cl -1.340164 -30.975245 9.427890
Cl -4.033847 -30.975245 12.121573
Cl -1.340164 -30.975245 14.815256
Cl -1.340164 -17.506830 -30.977353
Cl -4.033847 -14.813147 -30.977353
Cl -1.340164 -12.119464 -30.977353
Cl -4.033847 -12.119464 30.977353
Cl -1.340164 -14.813147 30.977353
Cl -4.033847 -9.425782 -30.977353
Cl -1.340164 -6.732099 -30.977353
Cl -4.033847 -6.732099 30.977353
Cl -1.340164 -9.425782 30.977353
Cl -4.033847 -4.038416 -30.977353
Cl -1.340164 -1.344733 -30.977353
Cl -4.033847 -1.344733 30.977353
Cl -1.340164 -4.038416 30.977353
Cl -4.033847 1.348950 -30.977353
Cl -1.340164 4.042633 -30.977353
Cl -4.033847 4.042633 30.977353
Cl -1.340164 1.348950 30.977353
Cl -4.033847 6.736316 -30.977353
Cl -1.340164 9.429999 -30.977353
Cl -4.033847 9.429999 30.977353
Cl -1.340164 6.736316 30.977353
Cl -4.033847 12.123681 -30.977353
Cl -1.340164 14.817364 -30.977353
Cl -4.033847 14.817364 30.977353
Cl -1.340164 12.123681 30.977353
Cl -1.340164 17.511047 30.977353
Cl -4.033847 30.979462 -12.121573
Cl -1.340164 30.979462 -14.815256
Cl -4.033847 30.979462 -6.734207
Cl -1.340164 30.979462 -9.427890
Cl -4.033847 30.979462 -1.346841
Cl -1.340164 30.979462 -4.040524
Cl -4.033847 30.979462 4.040524
Cl -1.340164 30.979462 1.346841
Cl -4.033847 30.979462 9.427890
Cl -1.340164 30.979462 6.734207
Cl -4.033847 30.979462 14.815256
Cl -1.340164 30.979462 12.121573
Cl -1.340164 30.979462 17.508939
Cl 1.353519 -30.975245 -14.815256
Cl 4.047201 -30.975245 -12.121573
Cl 1.353519 -30.975245 -9.427890
Cl 4.047201 -30.975245 -6.734207
Cl 1.353519 -30.975245 -4.040524
Cl 4.047201 -30.975245 -1.346841
Cl 1.353519 -30.975245 1.346841
Cl 4.047201 -30.975245 4.040524
Cl 1.353519 -30.975245 6.734207
Cl 4.047201 -30.975245 9.427890
Cl 1.353519 -30.975245 12.121573
Cl 4.047201 -30.975245 14.815256
Cl 1.353519 -30.975245 17.508939
Cl 1.353519 -17.506830 30.977353
Cl 1.353519 -14.813147 -30.977353
Cl 4.047201 -12.119464 -30.977353
Cl 1.353519 -12.119464 30.977353
Cl 4.047201 -14.813147 30.977353
Cl 1.353519 -9.425782 -30.977353
Cl 4.047201 -6.732099 -30.977353
Cl 1.353519 -6.732099 30.977353
Cl 4.047201 -9.425782 30.977353
Cl 1.353519 -4.038416 -30.977353
Cl 4.047201 -1.344733 -30.977353
Cl 1.353519 -1.344733 30.977353
Cl 4.047201 -4.038416 30.977353
Cl 1.353519 1.348950 -30.977353
Cl 4.047201 4.042633 -30.977353
Cl 1.353519 4.042633 30.977353
Cl 4.047201 1.348950 30.977353
Cl 1.353519 6.736316 -30.977353
Cl 4.047201 9.429999 -30.977353
Cl 1.353519 9.429999 30.977353
Cl 4.047201 6.736316 30.977353
Cl 1.353519 12.123681 -30.977353
Cl 4.047201 14.817364 -30.977353
Cl 1.353519 14.817364 30.977353
Cl 4.047201 12.123681 30.977353
Cl 1.353519 17.511047 -30.977353
Cl 1.353519 30.979462 -17.508939
Cl 1.353519 30.979462 -12.121573
Cl 4.047201 30.979462 -14.815256
Cl 1.353519 30.979462 -6.734207
Cl 4.047201 30.979462 -9.427890
Cl 1.353519 30.979462 -1.346841
Cl 4.047201 30.979462 -4.040524
Cl 1.353519 30.979462 4.040524
Cl 4.047201 30.979462 1.346841
Cl 1.353519 30.979462 9.427890
Cl 4.047201 30.979462 6.734207
Cl 1.353519 30.979462 14.815256
Cl 4.047201 30.979462 12.121573
Cl 6.740884 -30.975245 -9.427890
Cl 9.434567 -30.975245 -6.734207
Cl 6.740884 -30.975245 -4.040524
Cl 9.434567 -30.975245 -1.346841
Cl 6.740884 -30.975245 1.346841
Cl 9.434567 -30.975245 4.040524
Cl 6.740884 -30.975245 6.734207
Cl 9.434567 -30.975245 9.427890
Cl 6.740884 -30.975245 12.121573
Cl 6.740884 -12.119464 30.977353
Cl 6.740884 -9.425782 -30.977353
Cl 9.434567 -6.732099 -30.977353
Cl 6.740884 -6.732099 30.977353
Cl 9.434567 -9.425782 30.977353
Cl 6.740884 -4.038416 -30.977353
Cl 9.434567 -1.344733 -30.977353
Cl 6.740884 -1.344733 30.977353
Cl 9.434567 -4.038416 30.977353
Cl 6.740884 1.348950 -30.977353
Cl 9.434567 4.042633 -30.977353
Cl 6.740884 4.042633 30.977353
Cl 9.434567 1.348950 30.977353
Cl 6.740884 6.736316 -30.977353
Cl 9.434567 9.429999 -30.977353
Cl 6.740884 9.429999 30.977353
Cl 9.434567 6.736316 30.977353
Cl 6.740884 12.123681 -30.977353
Cl 6.740884 30.979462 -12.121573
Cl 6.740884 30.979462 -6.734207
Cl 9.434567 30.979462 -9.427890
Cl 6.740884 30.979462 -1.346841
Cl 9.434567 30.979462 -4.040524
Cl 6.740884 30.979462 4.040524
Cl 9.434567 30.979462 1.346841
Cl 6.740884 30.979462 9.427890
Cl 9.434567 30.979462 6.734207
Cl 12.128250 -30.975245 -4.040524
Cl 14.821933 -30.975245 -1.346841
Cl 12.128250 -30.975245 1.346841
Cl 14.821933 -30.975245 4.040524
Cl 12.128250 -30.975245 6.734207
Cl 12.128250 -6.732099 30.977353
Cl 12.128250 -4.038416 -30.977353
Cl 14.821933 -1.344733 -30.977353
Cl 12.128250 -1.344733 30.977353
Cl 14.821933 -4.038416 30.977353
Cl 12.128250 1.348950 -30.977353
Cl 14.821933 4.042633 -30.977353
Cl 12.128250 4.042633 30.977353
Cl 14.821933 1.348950 30.977353
Cl 12.128250 6.736316 -30.977353
Cl 12.128250 30.979462 -6.734207
Cl 12.128250 30.979462 -1.346841
Cl 14.821933 30.979462 -4.040524
Cl 12.128250 30.979462 4.040524
Cl 14.821933 30.979462 1.346841
Cl 17.515616 -30.975245 1.346841
Cl 17.515616 -1.344733 30.977353
Cl 17.515616 1.348950 -30.977353
Cl 17.515616 30.979462 -1.346841
Cl 30.984030 -17.506830 1.346841
Cl 30.984030 -12.119464 -4.040524
Cl 30.984030 -14.813147 -1.346841
Cl 30.984030 -12.119464 1.346841
Cl 30.984030 -14.813147 4.040524
Cl 30.984030 -12.119464 6.734207
Cl 30.984030 -6.732099 -9.427890
Cl 30.984030 -9.425782 -6.734207
Cl 30.984030 -6.732099 -4.040524
Cl 30.984030 -9.425782 -1.346841
Cl 30.984030 -6.732099 1.346841
Cl 30.984030 -9.425782 4.040524
Cl 30.984030 -6.732099 6.734207
Cl 30.984030 -9.425782 9.427890
Cl 30.984030 -6.732099 12.121573
Cl 30.984030 -1.344733 -14.815256
Cl 30.984030 -4.038416 -12.121573
Cl 30.984030 -1.344733 -9.427890
Cl 30.984030 -4.038416 -6.734207
Cl 30.984030 -1.344733 -4.040524
Cl 30.984030 -4.038416 -1.346841
Cl 30.984030 -1.344733 1.346841
Cl 30.984030 -4.038416 4.040524
Cl 30.984030 -1.344733 6.734207
Cl 30.984030 -4.038416 9.427890
Cl 30.984030 -1.344733 12.121573
Cl 30.984030 -4.038416 14.815256
Cl 30.984030 -1.344733 17.508939
Cl 30.984030 1.348950 -17.508939
Cl 30.984030 4.042633 -14.815256
Cl 30.984030 1.348950 -12.121573
Cl 30.984030 4.042633 -9.427890
Cl 30.984030 1.348950 -6.734207
Cl 30.984030 4.042633 -4.040524
Cl 30.984030 1.348950 -1.346841
Cl 30.984030 4.042633 1.346841
Cl 30.984030 1.348950 4.040524
Cl 30.984030 4.042633 6.734207
Cl 30.984030 1.348950 9.427890
Cl 30.984030 4.042633 12.121573
Cl 30.984030 1.348950 14.815256
Cl 30.984030 6.736316 -12.121573
Cl 30.984030 9.429999 -9.427890
Cl 30.984030 6.736316 -6.734207
Cl 30.984030 9.429999 -4.040524
Cl 30.984030 6.736316 -1.346841
Cl 30.984030 9.429999 1.346841
Cl 30.984030 6.736316 4.040524
Cl 30.984030 9.429999 6.734207
Cl 30.984030 6.736316 9.427890
Cl 30.984030 12.123681 -6.734207
Cl 30.984030 14.817364 -4.040524
Cl 30.984030 12.123681 -1.346841
Cl 30.984030 14.817364 1.346841
Cl 30.984030 12.123681 4.040524
Cl 30.984030 17.511047 -1.346841
Cl -17.502262 -17.506830 14.815256
Cl -17.502262 14.817364 -17.508939
Cl 14.821933 -17.506830 -17.508939
Cl 14.821933 17.511047 17.508939
Cl -20.195944 -1.344733 28.283670
Cl -20.195944 28.285779 -1.346841
Cl 28.290347 -20.200513 -1.346841
Cl 28.290347 1.348950 20.202622
Cl -1.340164 -20.200513 28.283670
Cl -1.340164 28.285779 -20.202622
Cl 28.290347 -1.344733 -20.202622
Cl 28.290347 20.204730 1.346841
Cl -28.276993 -20.200513 1.346841
Cl -28.276993 1.348950 -20.202622
Cl 1.353519 -28.281562 -20.202622
Cl 1.353519 20.204730 28.283670
Cl -6.727530 -28.281562 14.815256
Cl -6.727530 14.817364 -28.283670
Cl 14.821933 -6.732099 -28.283670
Cl 14.821933 28.285779 6.734207
Cl -28.276993 -6.732099 14.815256
Cl -28.276993 14.817364 -6.734207
Cl 14.821933 -28.281562 -6.734207
Cl 14.821933 6.736316 28.283670
Cl -17.502262 -28.281562 4.040524
Cl -17.502262 4.042633 -28.283670
Cl 4.047201 -17.506830 -28.283670
Cl 4.047201 28.285779 17.508939
Cl -12.114896 -12.119464 25.589987
Cl -12.114896 25.592096 -12.121573
Cl 25.596664 -12.119464 -12.121573
Cl 25.596664 12.123681 12.121573
Cl -25.583310 -14.813147 9.427890
Cl -25.583310 9.429999 -14.815256
Cl 9.434567 -25.587879 -14.815256
Cl 9.434567 14.817364 25.589987
Cl -9.421213 -20.200513 20.202622
Cl -9.421213 20.204730 -20.202622
