92
GaP-Ga-Ga31P16Cl45-reconstructed
Ga -2.651742 -2.740627 -5.377554
Ga -2.651742 -5.466439 -2.651742
Ga -5.377554 -2.740627 -2.651742
Ga -2.651742 -2.740627 0.074071
Ga -2.651742 -0.014814 -2.651742
Ga -5.377554 -0.014814 0.074071
Ga -2.651742 2.710998 0.074071
Ga -2.651742 -0.014814 2.799883
Ga -5.377554 2.710998 2.799883
Ga -2.651742 2.710998 5.525696
Ga -2.651742 5.436811 2.799883
Ga 0.074071 -2.740627 -2.651742
Ga 0.074071 -5.466439 0.074071
Ga 2.799883 -2.740627 0.074071
Ga 2.799883 -5.466439 2.799883
Ga 0.074071 -2.740627 2.799883
Ga 2.799883 -2.740627 5.525696
Ga 0.074071 -0.014814 -5.377554
Ga 2.799883 2.710998 -5.377554
Ga 2.799883 -0.014814 -2.651742
Ga 0.074071 2.710998 -2.651742
Ga 0.074071 -0.014814 0.074071
Ga 2.799883 2.710998 0.074071
Ga 2.799883 -0.014814 2.799883
Ga 0.074071 2.710998 2.799883
Ga 0.074071 -0.014814 5.525696
Ga 2.799883 5.436811 -2.651742
Ga 0.074071 5.436811 0.074071
Ga 5.525696 -2.740627 2.799883
Ga 5.525696 2.710998 -2.651742
Ga 5.525696 -0.014814 0.074071
P -4.014648 -1.377720 -1.288835
P -1.288835 -1.377720 -4.014648
P -1.288835 -4.103533 -1.288835
P -1.288835 -1.377720 1.436977
P -1.288835 1.348092 -1.288835
P -4.014648 1.348092 1.436977
P -1.288835 4.073905 1.436977
P -1.288835 1.348092 4.162790
P 1.436977 -1.377720 -1.288835
P 1.436977 -4.103533 1.436977
P 1.436977 -1.377720 4.162790
P 4.162790 -1.377720 1.436977
P 1.436977 1.348092 -4.014648
P 1.436977 4.073905 -1.288835
P 4.162790 1.348092 -1.288835
P 1.436977 1.348092 1.436977
Cl -4.014648 -4.103533 -4.014648
Cl -4.014648 4.073905 4.162790
Cl 4.162790 -4.103533 4.162790
Cl 4.162790 4.073905 -4.014648
Cl 1.436977 -1.377720 -6.740460
Cl 6.888602 1.348092 1.436977
Cl -1.288835 6.799717 -1.288835
Cl -1.288835 6.799717 4.162790
Cl 4.162790 -6.829345 1.436977
Cl -1.288835 -4.103533 -6.740460
Cl 6.888602 -1.377720 4.162790
Cl -6.740460 -1.377720 -4.014648
Cl -4.014648 1.348092 6.888602
Cl -4.014648 -6.829345 -1.288835
Cl 4.162790 1.348092 -6.740460
Cl 1.436977 6.799717 -4.014648
Cl 6.888602 4.073905 -1.288835
Cl -6.740460 4.073905 1.436977
Cl 1.436977 -4.103533 6.888602
Cl 1.436977 -6.829345 -1.288835
Cl 1.436977 1.348092 6.888602
Cl -6.740460 -1.377720 1.436977
Cl -1.288835 1.348092 -6.740460
Cl 1.436977 -6.829345 4.162790
Cl 6.888602 -1.377720 -1.288835
Cl 4.162790 6.799717 -1.288835
Cl -6.740460 -4.103533 -1.288835
Cl -4.014648 -1.377720 -6.740460
Cl -1.288835 4.073905 6.888602
Cl -6.740460 1.348092 4.162790
Cl -4.014648 6.799717 1.436977
Cl 6.888602 -4.103533 1.436977
Cl 4.162790 -1.377720 6.888602
Cl 1.436977 4.073905 -6.740460
Cl -1.288835 -6.829345 -4.014648
Cl -1.288835 -6.829345 1.436977
Cl 6.888602 1.348092 -4.014648
Cl -6.740460 1.348092 -1.288835
Cl -1.288835 -1.377720 6.888602
Cl 1.436977 6.799717 1.436977
Cl -4.014648 -4.103533 1.436977
Cl -4.014648 1.348092 -4.014648
Cl 1.436977 -4.103533 -4.014648
Cl 4.162790 4.073905 1.436977
Cl -4.014648 4.073905 -1.288835
