364
AlSb-Al-Al149Sb116Cl99-clean
Al -9.297754 -9.280749 -6.185749
Al -9.297754 -6.185749 -9.280749
Al -12.392754 -6.185749 -6.185749
Al -9.297754 -3.090749 -6.185749
Al -9.297754 -6.185749 -3.090749
Al -12.392754 -3.090749 -3.090749
Al -9.297754 -3.090749 0.004251
Al -9.297754 0.004251 -3.090749
Al -12.392754 0.004251 0.004251
Al -9.297754 3.099251 0.004251
Al -9.297754 0.004251 3.099251
Al -12.392754 3.099251 3.099251
Al -9.297754 3.099251 6.194251
Al -9.297754 6.194251 3.099251
Al -12.392754 6.194251 6.194251
Al -9.297754 9.289251 6.194251
Al -9.297754 6.194251 9.289251
Al -6.202754 -9.280749 -9.280749
Al -6.202754 -12.375749 -6.185749
Al -3.107754 -9.280749 -6.185749
Al -3.107754 -12.375749 -3.090749
Al -6.202754 -9.280749 -3.090749
Al -3.107754 -9.280749 0.004251
Al -6.202754 -6.185749 -12.375749
Al -3.107754 -3.090749 -12.375749
Al -3.107754 -6.185749 -9.280749
Al -6.202754 -3.090749 -9.280749
Al -6.202754 -6.185749 -6.185749
Al -3.107754 -3.090749 -6.185749
Al -3.107754 -6.185749 -3.090749
Al -6.202754 -3.090749 -3.090749
Al -6.202754 -6.185749 0.004251
Al -3.107754 -3.090749 0.004251
Al -3.107754 -6.185749 3.099251
Al -6.202754 -3.090749 3.099251
Al -3.107754 -3.090749 6.194251
Al -3.107754 0.004251 -9.280749
Al -6.202754 0.004251 -6.185749
Al -3.107754 3.099251 -6.185749
Al -3.107754 0.004251 -3.090749
Al -6.202754 3.099251 -3.090749
Al -6.202754 0.004251 0.004251
Al -3.107754 3.099251 0.004251
Al -3.107754 0.004251 3.099251
Al -6.202754 3.099251 3.099251
Al -6.202754 0.004251 6.194251
Al -3.107754 3.099251 6.194251
Al -3.107754 0.004251 9.289251
Al -6.202754 3.099251 9.289251
Al -3.107754 3.099251 12.384251
Al -3.107754 6.194251 -3.090749
Al -6.202754 6.194251 0.004251
Al -3.107754 9.289251 0.004251
Al -3.107754 6.194251 3.099251
Al -6.202754 9.289251 3.099251
Al -6.202754 6.194251 6.194251
Al -3.107754 9.289251 6.194251
Al -3.107754 6.194251 9.289251
Al -6.202754 9.289251 9.289251
Al -6.202754 6.194251 12.384251
Al -3.107754 12.384251 3.099251
Al -6.202754 12.384251 6.194251
Al -0.012754 -9.280749 -3.090749
Al -0.012754 -12.375749 0.004251
Al 3.082246 -9.280749 0.004251
Al 3.082246 -12.375749 3.099251
Al -0.012754 -9.280749 3.099251
Al 3.082246 -9.280749 6.194251
Al -0.012754 -3.090749 -9.280749
Al -0.012754 -6.185749 -6.185749
Al 3.082246 -3.090749 -6.185749
Al 3.082246 -6.185749 -3.090749
Al -0.012754 -3.090749 -3.090749
Al -0.012754 -6.185749 0.004251
Al 3.082246 -3.090749 0.004251
Al 3.082246 -6.185749 3.099251
Al -0.012754 -3.090749 3.099251
Al -0.012754 -6.185749 6.194251
Al 3.082246 -3.090749 6.194251
Al 3.082246 -6.185749 9.289251
Al -0.012754 -3.090749 9.289251
Al 3.082246 -3.090749 12.384251
Al -0.012754 0.004251 -12.375749
Al 3.082246 3.099251 -12.375749
Al 3.082246 0.004251 -9.280749
Al -0.012754 3.099251 -9.280749
Al -0.012754 0.004251 -6.185749
Al 3.082246 3.099251 -6.185749
Al 3.082246 0.004251 -3.090749
Al -0.012754 3.099251 -3.090749
Al -0.012754 0.004251 0.004251
Al 3.082246 3.099251 0.004251
Al 3.082246 0.004251 3.099251
Al -0.012754 3.099251 3.099251
Al -0.012754 0.004251 6.194251
Al 3.082246 3.099251 6.194251
Al 3.082246 0.004251 9.289251
Al -0.012754 3.099251 9.289251
Al -0.012754 0.004251 12.384251
Al 3.082246 6.194251 -9.280749
Al -0.012754 6.194251 -6.185749
Al 3.082246 9.289251 -6.185749
Al 3.082246 6.194251 -3.090749
Al -0.012754 9.289251 -3.090749
Al -0.012754 6.194251 0.004251
Al 3.082246 9.289251 0.004251
Al 3.082246 6.194251 3.099251
Al -0.012754 9.289251 3.099251
Al -0.012754 6.194251 6.194251
Al 3.082246 12.384251 -3.090749
Al -0.012754 12.384251 0.004251
Al 6.177246 -9.280749 3.099251
Al 6.177246 -12.375749 6.194251
Al 9.272246 -9.280749 6.194251
Al 6.177246 -9.280749 9.289251
Al 6.177246 -3.090749 -3.090749
Al 6.177246 -6.185749 0.004251
Al 9.272246 -3.090749 0.004251
Al 9.272246 -6.185749 3.099251
Al 6.177246 -3.090749 3.099251
Al 6.177246 -6.185749 6.194251
Al 9.272246 -3.090749 6.194251
Al 9.272246 -6.185749 9.289251
Al 6.177246 -3.090749 9.289251
Al 6.177246 -6.185749 12.384251
Al 6.177246 3.099251 -9.280749
Al 6.177246 0.004251 -6.185749
Al 9.272246 3.099251 -6.185749
Al 9.272246 0.004251 -3.090749
Al 6.177246 3.099251 -3.090749
Al 6.177246 0.004251 0.004251
Al 9.272246 3.099251 0.004251
Al 9.272246 0.004251 3.099251
Al 6.177246 3.099251 3.099251
Al 6.177246 0.004251 6.194251
Al 6.177246 6.194251 -12.375749
Al 9.272246 6.194251 -9.280749
Al 6.177246 9.289251 -9.280749
Al 6.177246 6.194251 -6.185749
Al 9.272246 9.289251 -6.185749
Al 9.272246 6.194251 -3.090749
Al 6.177246 9.289251 -3.090749
Al 6.177246 6.194251 0.004251
Al 6.177246 12.384251 -6.185749
Al 12.367246 -3.090749 3.099251
Al 12.367246 -6.185749 6.194251
Al 12.367246 3.099251 -3.090749
Al 12.367246 0.004251 0.004251
Al 12.367246 6.194251 -6.185749
Sb -10.845254 -7.733249 -7.733249
Sb -7.750254 -7.733249 -10.828249
Sb -7.750254 -10.828249 -7.733249
Sb -7.750254 -7.733249 -4.638249
Sb -7.750254 -4.638249 -7.733249
Sb -10.845254 -4.638249 -4.638249
Sb -10.845254 -1.543249 -1.543249
Sb -7.750254 -1.543249 -4.638249
Sb -7.750254 -4.638249 -1.543249
Sb -7.750254 -1.543249 1.551751
Sb -7.750254 1.551751 -1.543249
Sb -10.845254 1.551751 1.551751
Sb -10.845254 4.646751 4.646751
Sb -7.750254 4.646751 1.551751
Sb -7.750254 1.551751 4.646751
Sb -7.750254 4.646751 7.741751
Sb -7.750254 7.741751 4.646751
Sb -10.845254 7.741751 7.741751
Sb -7.750254 10.836751 7.741751
Sb -7.750254 7.741751 10.836751
Sb -4.655254 -7.733249 -7.733249
Sb -4.655254 -10.828249 -4.638249
Sb -4.655254 -7.733249 -1.543249
Sb -1.560254 -7.733249 -4.638249
Sb -1.560254 -10.828249 -1.543249
Sb -1.560254 -7.733249 1.551751
Sb -4.655254 -4.638249 -10.828249
Sb -4.655254 -1.543249 -7.733249
Sb -1.560254 -1.543249 -10.828249
Sb -1.560254 -4.638249 -7.733249
Sb -4.655254 -4.638249 -4.638249
Sb -4.655254 -1.543249 -1.543249
Sb -1.560254 -1.543249 -4.638249
Sb -1.560254 -4.638249 -1.543249
Sb -4.655254 -4.638249 1.551751
Sb -4.655254 -1.543249 4.646751
Sb -1.560254 -1.543249 1.551751
Sb -1.560254 -4.638249 4.646751
Sb -1.560254 -1.543249 7.741751
Sb -1.560254 1.551751 -7.733249
Sb -4.655254 1.551751 -4.638249
Sb -4.655254 4.646751 -1.543249
Sb -1.560254 4.646751 -4.638249
Sb -1.560254 1.551751 -1.543249
Sb -4.655254 1.551751 1.551751
Sb -4.655254 4.646751 4.646751
Sb -1.560254 4.646751 1.551751
Sb -1.560254 1.551751 4.646751
Sb -4.655254 1.551751 7.741751
Sb -4.655254 4.646751 10.836751
Sb -1.560254 4.646751 7.741751
Sb -1.560254 1.551751 10.836751
Sb -1.560254 7.741751 -1.543249
Sb -4.655254 7.741751 1.551751
Sb -4.655254 10.836751 4.646751
Sb -1.560254 10.836751 1.551751
Sb -1.560254 7.741751 4.646751
Sb -4.655254 7.741751 7.741751
Sb 1.534746 -7.733249 -1.543249
Sb 1.534746 -10.828249 1.551751
Sb 1.534746 -7.733249 4.646751
Sb 4.629746 -7.733249 1.551751
Sb 4.629746 -10.828249 4.646751
Sb 4.629746 -7.733249 7.741751
Sb 1.534746 -1.543249 -7.733249
Sb 1.534746 -4.638249 -4.638249
Sb 1.534746 -1.543249 -1.543249
Sb 4.629746 -1.543249 -4.638249
Sb 4.629746 -4.638249 -1.543249
Sb 1.534746 -4.638249 1.551751
Sb 1.534746 -1.543249 4.646751
Sb 4.629746 -1.543249 1.551751
Sb 4.629746 -4.638249 4.646751
Sb 1.534746 -4.638249 7.741751
Sb 1.534746 -1.543249 10.836751
Sb 4.629746 -1.543249 7.741751
Sb 4.629746 -4.638249 10.836751
Sb 1.534746 1.551751 -10.828249
Sb 1.534746 4.646751 -7.733249
Sb 4.629746 4.646751 -10.828249
Sb 4.629746 1.551751 -7.733249
Sb 1.534746 1.551751 -4.638249
Sb 1.534746 4.646751 -1.543249
Sb 4.629746 4.646751 -4.638249
Sb 4.629746 1.551751 -1.543249
Sb 1.534746 1.551751 1.551751
Sb 1.534746 4.646751 4.646751
Sb 4.629746 4.646751 1.551751
Sb 4.629746 1.551751 4.646751
Sb 1.534746 1.551751 7.741751
Sb 4.629746 7.741751 -7.733249
Sb 1.534746 7.741751 -4.638249
Sb 1.534746 10.836751 -1.543249
Sb 4.629746 10.836751 -4.638249
Sb 4.629746 7.741751 -1.543249
Sb 1.534746 7.741751 1.551751
Sb 7.724746 -7.733249 4.646751
Sb 7.724746 -10.828249 7.741751
Sb 7.724746 -7.733249 10.836751
Sb 10.819746 -7.733249 7.741751
Sb 7.724746 -1.543249 -1.543249
Sb 7.724746 -4.638249 1.551751
Sb 7.724746 -1.543249 4.646751
Sb 10.819746 -1.543249 1.551751
Sb 10.819746 -4.638249 4.646751
Sb 7.724746 -4.638249 7.741751
Sb 7.724746 4.646751 -7.733249
Sb 7.724746 1.551751 -4.638249
Sb 7.724746 4.646751 -1.543249
Sb 10.819746 4.646751 -4.638249
Sb 10.819746 1.551751 -1.543249
Sb 7.724746 1.551751 1.551751
Sb 7.724746 7.741751 -10.828249
Sb 7.724746 10.836751 -7.733249
Sb 10.819746 7.741751 -7.733249
Sb 7.724746 7.741751 -4.638249
Cl -13.940254 -7.733249 -4.638249
Cl 13.914746 7.741751 -4.638249
Cl -7.750254 13.931751 4.646751
Cl 7.724746 -13.923249 4.646751
Cl -7.750254 -4.638249 -13.923249
Cl -4.655254 7.741751 13.931751
Cl 4.629746 -7.733249 13.931751
Cl 7.724746 4.646751 -13.923249
Cl -13.940254 4.646751 7.741751
Cl -4.655254 -13.923249 -7.733249
Cl 4.629746 13.931751 -7.733249
Cl 13.914746 -4.638249 7.741751
Cl -13.940254 1.551751 -1.543249
Cl -1.560254 -13.923249 1.551751
Cl 1.534746 13.931751 1.551751
Cl 13.914746 -1.543249 -1.543249
Cl -1.560254 -4.638249 -13.923249
Cl -4.655254 1.551751 13.931751
Cl 4.629746 -1.543249 13.931751
Cl 1.534746 4.646751 -13.923249
Cl -13.940254 -4.638249 -1.543249
Cl -4.655254 13.931751 1.551751
Cl 4.629746 -13.923249 1.551751
Cl 13.914746 4.646751 -1.543249
Cl -13.940254 4.646751 1.551751
Cl -4.655254 -13.923249 -1.543249
Cl 4.629746 13.931751 -1.543249
Cl 13.914746 -4.638249 1.551751
Cl -1.560254 1.551751 -13.923249
Cl -1.560254 -1.543249 13.931751
Cl -4.655254 13.931751 7.741751
Cl 13.914746 4.646751 -7.733249
Cl -13.940254 -4.638249 -7.733249
Cl 4.629746 -13.923249 7.741751
Cl 4.629746 -4.638249 -7.733249
Cl 4.629746 4.646751 7.741751
Cl -7.750254 -4.638249 4.646751
Cl -4.655254 7.741751 -4.638249
Cl 1.534746 -10.828249 -4.638249
Cl 10.819746 1.551751 4.646751
Cl -7.750254 1.551751 -7.733249
Cl -1.560254 -7.733249 7.741751
Cl 7.724746 -7.733249 -1.543249
Cl 7.724746 7.741751 1.551751
Cl -4.655254 -7.733249 -13.923249
Cl 7.724746 -4.638249 13.931751
Cl -7.750254 4.646751 13.931751
Cl 4.629746 7.741751 -13.923249
Cl -13.940254 7.741751 4.646751
Cl -7.750254 -13.923249 -4.638249
Cl -1.560254 4.646751 13.931751
Cl 4.629746 1.551751 -13.923249
Cl -13.940254 1.551751 4.646751
Cl 1.534746 13.931751 -4.638249
Cl 7.724746 13.931751 -4.638249
Cl 13.914746 -7.733249 4.646751
Cl -1.560254 10.836751 7.741751
Cl 10.819746 1.551751 -7.733249
Cl -7.750254 -7.733249 1.551751
Cl -7.750254 7.741751 -1.543249
Cl -7.750254 -1.543249 7.741751
Cl -1.560254 7.741751 -7.733249
Cl -1.560254 -13.923249 -4.638249
Cl 13.914746 -1.543249 4.646751
Cl -10.845254 -4.638249 -10.828249
Cl 4.629746 -10.828249 10.836751
Cl 1.534746 -1.543249 -13.923249
Cl 1.534746 1.551751 13.931751
Cl -4.655254 -10.828249 -10.828249
Cl 10.819746 -4.638249 10.836751
Cl -13.940254 -1.543249 -4.638249
Cl 1.534746 -13.923249 4.646751
Cl 10.819746 -10.828249 4.646751
Cl 10.819746 10.836751 -4.638249
Cl -10.845254 4.646751 10.836751
Cl 4.629746 10.836751 -10.828249
Cl -10.845254 -10.828249 -4.638249
Cl -10.845254 10.836751 4.646751
Cl 1.534746 7.741751 7.741751
Cl 7.724746 -1.543249 -7.733249
Cl -4.655254 -1.543249 -13.923249
Cl 1.534746 -4.638249 13.931751
Cl 1.534746 -7.733249 -7.733249
Cl 7.724746 1.551751 7.741751
Cl -13.940254 -1.543249 1.551751
Cl -1.560254 13.931751 -1.543249
Cl -1.560254 13.931751 4.646751
Cl 13.914746 1.551751 -4.638249
Cl 1.534746 -13.923249 -1.543249
Cl 13.914746 1.551751 1.551751
Cl -10.845254 1.551751 -4.638249
Cl -1.560254 -10.828249 4.646751
Cl -4.655254 10.836751 10.836751
Cl 10.819746 4.646751 -10.828249
Cl -4.655254 -1.543249 10.836751
Cl -1.560254 4.646751 -10.828249
Cl 4.629746 10.836751 1.551751
Cl 10.819746 -4.638249 -1.543249
Cl -10.845254 -7.733249 -1.543249
