1359
ZnTe-Te-Zn640Te561Cl158-clean
Zn -16.801383 -10.692403 -4.567683
Zn -16.801383 -13.748017 -1.512068
Zn -16.801383 -10.692403 1.543546
Zn -16.801383 -4.581173 -10.678912
Zn -16.801383 -7.636788 -7.623297
Zn -16.801383 -4.581173 -4.567683
Zn -16.801383 -7.636788 -1.512068
Zn -16.801383 -4.581173 1.543546
Zn -16.801383 -7.636788 4.599161
Zn -16.801383 -4.581173 7.654775
Zn -16.801383 -1.525559 -13.734527
Zn -16.801383 1.530056 -10.678912
Zn -16.801383 -1.525559 -7.623297
Zn -16.801383 1.530056 -4.567683
Zn -16.801383 -1.525559 -1.512068
Zn -16.801383 1.530056 1.543546
Zn -16.801383 -1.525559 4.599161
Zn -16.801383 1.530056 7.654775
Zn -16.801383 -1.525559 10.710390
Zn -16.801383 1.530056 13.766005
Zn -16.801383 4.585670 -7.623297
Zn -16.801383 7.641285 -4.567683
Zn -16.801383 4.585670 -1.512068
Zn -16.801383 7.641285 1.543546
Zn -16.801383 4.585670 4.599161
Zn -16.801383 7.641285 7.654775
Zn -16.801383 4.585670 10.710390
Zn -16.801383 10.696899 -1.512068
Zn -16.801383 13.752514 1.543546
Zn -16.801383 10.696899 4.599161
Zn -10.690154 -16.803632 -4.567683
Zn -13.745769 -16.803632 -1.512068
Zn -10.690154 -16.803632 1.543546
Zn -10.690154 -10.692403 -10.678912
Zn -13.745769 -13.748017 -4.567683
Zn -10.690154 -13.748017 -7.623297
Zn -13.745769 -10.692403 -7.623297
Zn -10.690154 -10.692403 -4.567683
Zn -13.745769 -13.748017 1.543546
Zn -10.690154 -13.748017 -1.512068
Zn -13.745769 -10.692403 -1.512068
Zn -10.690154 -10.692403 1.543546
Zn -10.690154 -13.748017 4.599161
Zn -13.745769 -10.692403 4.599161
Zn -10.690154 -10.692403 7.654775
Zn -10.690154 -4.581173 -16.790141
Zn -13.745769 -7.636788 -10.678912
Zn -10.690154 -7.636788 -13.734527
Zn -13.745769 -4.581173 -13.734527
Zn -10.690154 -4.581173 -10.678912
Zn -13.745769 -7.636788 -4.567683
Zn -10.690154 -7.636788 -7.623297
Zn -13.745769 -4.581173 -7.623297
Zn -10.690154 -4.581173 -4.567683
Zn -13.745769 -7.636788 1.543546
Zn -10.690154 -7.636788 -1.512068
Zn -13.745769 -4.581173 -1.512068
Zn -10.690154 -4.581173 1.543546
Zn -13.745769 -7.636788 7.654775
Zn -10.690154 -7.636788 4.599161
Zn -13.745769 -4.581173 4.599161
Zn -10.690154 -4.581173 7.654775
Zn -10.690154 -7.636788 10.710390
Zn -13.745769 -4.581173 10.710390
Zn -10.690154 -4.581173 13.766005
Zn -13.745769 -1.525559 -16.790141
Zn -10.690154 1.530056 -16.790141
Zn -13.745769 -1.525559 -10.678912
Zn -10.690154 -1.525559 -13.734527
Zn -13.745769 1.530056 -13.734527
Zn -10.690154 1.530056 -10.678912
Zn -13.745769 -1.525559 -4.567683
Zn -10.690154 -1.525559 -7.623297
Zn -13.745769 1.530056 -7.623297
Zn -10.690154 1.530056 -4.567683
Zn -13.745769 -1.525559 1.543546
Zn -10.690154 -1.525559 -1.512068
Zn -13.745769 1.530056 -1.512068
Zn -10.690154 1.530056 1.543546
Zn -13.745769 -1.525559 7.654775
Zn -10.690154 -1.525559 4.599161
Zn -13.745769 1.530056 4.599161
Zn -10.690154 1.530056 7.654775
Zn -13.745769 -1.525559 13.766005
Zn -10.690154 -1.525559 10.710390
Zn -13.745769 1.530056 10.710390
Zn -10.690154 1.530056 13.766005
Zn -10.690154 -1.525559 16.821619
Zn -13.745769 1.530056 16.821619
Zn -13.745769 4.585670 -10.678912
Zn -10.690154 4.585670 -13.734527
Zn -10.690154 7.641285 -10.678912
Zn -13.745769 4.585670 -4.567683
Zn -10.690154 4.585670 -7.623297
Zn -13.745769 7.641285 -7.623297
Zn -10.690154 7.641285 -4.567683
Zn -13.745769 4.585670 1.543546
Zn -10.690154 4.585670 -1.512068
Zn -13.745769 7.641285 -1.512068
Zn -10.690154 7.641285 1.543546
Zn -13.745769 4.585670 7.654775
Zn -10.690154 4.585670 4.599161
Zn -13.745769 7.641285 4.599161
Zn -10.690154 7.641285 7.654775
Zn -13.745769 4.585670 13.766005
Zn -10.690154 4.585670 10.710390
Zn -13.745769 7.641285 10.710390
Zn -10.690154 7.641285 13.766005
Zn -10.690154 4.585670 16.821619
Zn -13.745769 10.696899 -4.567683
Zn -10.690154 10.696899 -7.623297
Zn -10.690154 13.752514 -4.567683
Zn -13.745769 10.696899 1.543546
Zn -10.690154 10.696899 -1.512068
Zn -13.745769 13.752514 -1.512068
Zn -10.690154 13.752514 1.543546
Zn -13.745769 10.696899 7.654775
Zn -10.690154 10.696899 4.599161
Zn -13.745769 13.752514 4.599161
Zn -10.690154 13.752514 7.654775
Zn -10.690154 10.696899 10.710390
Zn -13.745769 16.808129 1.543546
Zn -10.690154 16.808129 -1.512068
Zn -10.690154 16.808129 4.599161
Zn -4.578925 -16.803632 -10.678912
Zn -7.634540 -16.803632 -7.623297
Zn -4.578925 -16.803632 -4.567683
Zn -7.634540 -16.803632 -1.512068
Zn -4.578925 -16.803632 1.543546
Zn -7.634540 -16.803632 4.599161
Zn -4.578925 -16.803632 7.654775
Zn -4.578925 -10.692403 -16.790141
Zn -7.634540 -13.748017 -10.678912
Zn -4.578925 -13.748017 -13.734527
Zn -7.634540 -10.692403 -13.734527
Zn -4.578925 -10.692403 -10.678912
Zn -7.634540 -13.748017 -4.567683
Zn -4.578925 -13.748017 -7.623297
Zn -7.634540 -10.692403 -7.623297
Zn -4.578925 -10.692403 -4.567683
Zn -7.634540 -13.748017 1.543546
Zn -4.578925 -13.748017 -1.512068
Zn -7.634540 -10.692403 -1.512068
Zn -4.578925 -10.692403 1.543546
Zn -7.634540 -13.748017 7.654775
Zn -4.578925 -13.748017 4.599161
Zn -7.634540 -10.692403 4.599161
Zn -4.578925 -10.692403 7.654775
Zn -4.578925 -13.748017 10.710390
Zn -7.634540 -10.692403 10.710390
Zn -4.578925 -10.692403 13.766005
Zn -7.634540 -7.636788 -16.790141
Zn -4.578925 -4.581173 -16.790141
Zn -7.634540 -7.636788 -10.678912
Zn -4.578925 -7.636788 -13.734527
Zn -7.634540 -4.581173 -13.734527
Zn -4.578925 -4.581173 -10.678912
Zn -7.634540 -7.636788 -4.567683
Zn -4.578925 -7.636788 -7.623297
Zn -7.634540 -4.581173 -7.623297
Zn -4.578925 -4.581173 -4.567683
Zn -7.634540 -7.636788 1.543546
Zn -4.578925 -7.636788 -1.512068
Zn -7.634540 -4.581173 -1.512068
Zn -4.578925 -4.581173 1.543546
Zn -7.634540 -7.636788 7.654775
Zn -4.578925 -7.636788 4.599161
Zn -7.634540 -4.581173 4.599161
Zn -4.578925 -4.581173 7.654775
Zn -7.634540 -7.636788 13.766005
Zn -4.578925 -7.636788 10.710390
Zn -7.634540 -4.581173 10.710390
Zn -4.578925 -4.581173 13.766005
Zn -4.578925 -7.636788 16.821619
Zn -7.634540 -4.581173 16.821619
Zn -7.634540 -1.525559 -16.790141
Zn -4.578925 1.530056 -16.790141
Zn -7.634540 -1.525559 -10.678912
Zn -4.578925 -1.525559 -13.734527
Zn -7.634540 1.530056 -13.734527
Zn -4.578925 1.530056 -10.678912
Zn -7.634540 -1.525559 -4.567683
Zn -4.578925 -1.525559 -7.623297
Zn -7.634540 1.530056 -7.623297
Zn -4.578925 1.530056 -4.567683
Zn -7.634540 -1.525559 1.543546
Zn -4.578925 -1.525559 -1.512068
Zn -7.634540 1.530056 -1.512068
Zn -4.578925 1.530056 1.543546
Zn -7.634540 -1.525559 7.654775
Zn -4.578925 -1.525559 4.599161
Zn -7.634540 1.530056 4.599161
Zn -4.578925 1.530056 7.654775
Zn -7.634540 -1.525559 13.766005
Zn -4.578925 -1.525559 10.710390
Zn -7.634540 1.530056 10.710390
Zn -4.578925 1.530056 13.766005
Zn -4.578925 -1.525559 16.821619
Zn -7.634540 1.530056 16.821619
Zn -7.634540 4.585670 -16.790141
Zn -4.578925 7.641285 -16.790141
Zn -7.634540 4.585670 -10.678912
Zn -4.578925 4.585670 -13.734527
Zn -7.634540 7.641285 -13.734527
Zn -4.578925 7.641285 -10.678912
Zn -7.634540 4.585670 -4.567683
Zn -4.578925 4.585670 -7.623297
Zn -7.634540 7.641285 -7.623297
Zn -4.578925 7.641285 -4.567683
Zn -7.634540 4.585670 1.543546
Zn -4.578925 4.585670 -1.512068
Zn -7.634540 7.641285 -1.512068
Zn -4.578925 7.641285 1.543546
Zn -7.634540 4.585670 7.654775
Zn -4.578925 4.585670 4.599161
Zn -7.634540 7.641285 4.599161
Zn -4.578925 7.641285 7.654775
Zn -7.634540 4.585670 13.766005
Zn -4.578925 4.585670 10.710390
Zn -7.634540 7.641285 10.710390
Zn -4.578925 7.641285 13.766005
Zn -4.578925 4.585670 16.821619
Zn -7.634540 7.641285 16.821619
Zn -7.634540 10.696899 -10.678912
Zn -4.578925 10.696899 -13.734527
Zn -4.578925 13.752514 -10.678912
Zn -7.634540 10.696899 -4.567683
Zn -4.578925 10.696899 -7.623297
Zn -7.634540 13.752514 -7.623297
Zn -4.578925 13.752514 -4.567683
Zn -7.634540 10.696899 1.543546
Zn -4.578925 10.696899 -1.512068
Zn -7.634540 13.752514 -1.512068
Zn -4.578925 13.752514 1.543546
Zn -7.634540 10.696899 7.654775
Zn -4.578925 10.696899 4.599161
Zn -7.634540 13.752514 4.599161
Zn -4.578925 13.752514 7.654775
Zn -7.634540 10.696899 13.766005
Zn -4.578925 10.696899 10.710390
Zn -7.634540 13.752514 10.710390
Zn -4.578925 13.752514 13.766005
Zn -4.578925 10.696899 16.821619
Zn -7.634540 16.808129 -4.567683
Zn -4.578925 16.808129 -7.623297
Zn -7.634540 16.808129 1.543546
Zn -4.578925 16.808129 -1.512068
Zn -7.634540 16.808129 7.654775
Zn -4.578925 16.808129 4.599161
Zn -4.578925 16.808129 10.710390
Zn -1.523310 -16.803632 -13.734527
Zn 1.532304 -16.803632 -10.678912
Zn -1.523310 -16.803632 -7.623297
Zn 1.532304 -16.803632 -4.567683
Zn -1.523310 -16.803632 -1.512068
Zn 1.532304 -16.803632 1.543546
Zn -1.523310 -16.803632 4.599161
Zn 1.532304 -16.803632 7.654775
Zn -1.523310 -16.803632 10.710390
Zn 1.532304 -16.803632 13.766005
Zn -1.523310 -13.748017 -16.790141
Zn 1.532304 -10.692403 -16.790141
Zn -1.523310 -13.748017 -10.678912
Zn 1.532304 -13.748017 -13.734527
Zn -1.523310 -10.692403 -13.734527
Zn 1.532304 -10.692403 -10.678912
Zn -1.523310 -13.748017 -4.567683
Zn 1.532304 -13.748017 -7.623297
Zn -1.523310 -10.692403 -7.623297
Zn 1.532304 -10.692403 -4.567683
Zn -1.523310 -13.748017 1.543546
Zn 1.532304 -13.748017 -1.512068
Zn -1.523310 -10.692403 -1.512068
Zn 1.532304 -10.692403 1.543546
Zn -1.523310 -13.748017 7.654775
Zn 1.532304 -13.748017 4.599161
Zn -1.523310 -10.692403 4.599161
Zn 1.532304 -10.692403 7.654775
Zn -1.523310 -13.748017 13.766005
Zn 1.532304 -13.748017 10.710390
Zn -1.523310 -10.692403 10.710390
Zn 1.532304 -10.692403 13.766005
Zn 1.532304 -13.748017 16.821619
Zn -1.523310 -10.692403 16.821619
Zn -1.523310 -7.636788 -16.790141
Zn 1.532304 -4.581173 -16.790141
Zn -1.523310 -7.636788 -10.678912
Zn 1.532304 -7.636788 -13.734527
Zn -1.523310 -4.581173 -13.734527
Zn 1.532304 -4.581173 -10.678912
Zn -1.523310 -7.636788 -4.567683
Zn 1.532304 -7.636788 -7.623297
Zn -1.523310 -4.581173 -7.623297
Zn 1.532304 -4.581173 -4.567683
Zn -1.523310 -7.636788 1.543546
Zn 1.532304 -7.636788 -1.512068
Zn -1.523310 -4.581173 -1.512068
Zn 1.532304 -4.581173 1.543546
Zn -1.523310 -7.636788 7.654775
Zn 1.532304 -7.636788 4.599161
Zn -1.523310 -4.581173 4.599161
Zn 1.532304 -4.581173 7.654775
Zn -1.523310 -7.636788 13.766005
Zn 1.532304 -7.636788 10.710390
Zn -1.523310 -4.581173 10.710390
Zn 1.532304 -4.581173 13.766005
Zn 1.532304 -7.636788 16.821619
Zn -1.523310 -4.581173 16.821619
Zn -1.523310 -1.525559 -16.790141
Zn 1.532304 1.530056 -16.790141
Zn -1.523310 -1.525559 -10.678912
Zn 1.532304 -1.525559 -13.734527
Zn -1.523310 1.530056 -13.734527
Zn 1.532304 1.530056 -10.678912
Zn -1.523310 -1.525559 -4.567683
Zn 1.532304 -1.525559 -7.623297
Zn -1.523310 1.530056 -7.623297
Zn 1.532304 1.530056 -4.567683
Zn -1.523310 -1.525559 1.543546
Zn 1.532304 -1.525559 -1.512068
Zn -1.523310 1.530056 -1.512068
Zn 1.532304 1.530056 1.543546
Zn -1.523310 -1.525559 7.654775
Zn 1.532304 -1.525559 4.599161
Zn -1.523310 1.530056 4.599161
Zn 1.532304 1.530056 7.654775
Zn -1.523310 -1.525559 13.766005
Zn 1.532304 -1.525559 10.710390
Zn -1.523310 1.530056 10.710390
Zn 1.532304 1.530056 13.766005
Zn 1.532304 -1.525559 16.821619
Zn -1.523310 1.530056 16.821619
Zn -1.523310 4.585670 -16.790141
Zn 1.532304 7.641285 -16.790141
Zn -1.523310 4.585670 -10.678912
Zn 1.532304 4.585670 -13.734527
Zn -1.523310 7.641285 -13.734527
Zn 1.532304 7.641285 -10.678912
Zn -1.523310 4.585670 -4.567683
Zn 1.532304 4.585670 -7.623297
Zn -1.523310 7.641285 -7.623297
Zn 1.532304 7.641285 -4.567683
Zn -1.523310 4.585670 1.543546
Zn 1.532304 4.585670 -1.512068
Zn -1.523310 7.641285 -1.512068
Zn 1.532304 7.641285 1.543546
Zn -1.523310 4.585670 7.654775
Zn 1.532304 4.585670 4.599161
Zn -1.523310 7.641285 4.599161
Zn 1.532304 7.641285 7.654775
Zn -1.523310 4.585670 13.766005
Zn 1.532304 4.585670 10.710390
Zn -1.523310 7.641285 10.710390
Zn 1.532304 7.641285 13.766005
Zn 1.532304 4.585670 16.821619
Zn -1.523310 7.641285 16.821619
Zn -1.523310 10.696899 -16.790141
Zn 1.532304 13.752514 -16.790141
Zn -1.523310 10.696899 -10.678912
Zn 1.532304 10.696899 -13.734527
Zn -1.523310 13.752514 -13.734527
Zn 1.532304 13.752514 -10.678912
Zn -1.523310 10.696899 -4.567683
Zn 1.532304 10.696899 -7.623297
Zn -1.523310 13.752514 -7.623297
Zn 1.532304 13.752514 -4.567683
Zn -1.523310 10.696899 1.543546
Zn 1.532304 10.696899 -1.512068
Zn -1.523310 13.752514 -1.512068
Zn 1.532304 13.752514 1.543546
Zn -1.523310 10.696899 7.654775
Zn 1.532304 10.696899 4.599161
Zn -1.523310 13.752514 4.599161
Zn 1.532304 13.752514 7.654775
Zn -1.523310 10.696899 13.766005
Zn 1.532304 10.696899 10.710390
Zn -1.523310 13.752514 10.710390
Zn 1.532304 13.752514 13.766005
Zn 1.532304 10.696899 16.821619
Zn -1.523310 13.752514 16.821619
Zn -1.523310 16.808129 -10.678912
Zn 1.532304 16.808129 -13.734527
Zn -1.523310 16.808129 -4.567683
Zn 1.532304 16.808129 -7.623297
Zn -1.523310 16.808129 1.543546
Zn 1.532304 16.808129 -1.512068
Zn -1.523310 16.808129 7.654775
Zn 1.532304 16.808129 4.599161
Zn -1.523310 16.808129 13.766005
Zn 1.532304 16.808129 10.710390
Zn 4.587919 -16.803632 -7.623297
Zn 7.643533 -16.803632 -4.567683
Zn 4.587919 -16.803632 -1.512068
Zn 7.643533 -16.803632 1.543546
Zn 4.587919 -16.803632 4.599161
Zn 7.643533 -16.803632 7.654775
Zn 4.587919 -16.803632 10.710390
Zn 4.587919 -13.748017 -10.678912
Zn 4.587919 -10.692403 -13.734527
Zn 7.643533 -10.692403 -10.678912
Zn 4.587919 -13.748017 -4.567683
Zn 7.643533 -13.748017 -7.623297
Zn 4.587919 -10.692403 -7.623297
Zn 7.643533 -10.692403 -4.567683
Zn 4.587919 -13.748017 1.543546
Zn 7.643533 -13.748017 -1.512068
Zn 4.587919 -10.692403 -1.512068
Zn 7.643533 -10.692403 1.543546
Zn 4.587919 -13.748017 7.654775
Zn 7.643533 -13.748017 4.599161
Zn 4.587919 -10.692403 4.599161
Zn 7.643533 -10.692403 7.654775
Zn 4.587919 -13.748017 13.766005
Zn 7.643533 -13.748017 10.710390
Zn 4.587919 -10.692403 10.710390
Zn 7.643533 -10.692403 13.766005
Zn 4.587919 -10.692403 16.821619
Zn 4.587919 -7.636788 -16.790141
Zn 7.643533 -4.581173 -16.790141
Zn 4.587919 -7.636788 -10.678912
Zn 7.643533 -7.636788 -13.734527
Zn 4.587919 -4.581173 -13.734527
Zn 7.643533 -4.581173 -10.678912
Zn 4.587919 -7.636788 -4.567683
Zn 7.643533 -7.636788 -7.623297
Zn 4.587919 -4.581173 -7.623297
Zn 7.643533 -4.581173 -4.567683
Zn 4.587919 -7.636788 1.543546
Zn 7.643533 -7.636788 -1.512068
Zn 4.587919 -4.581173 -1.512068
Zn 7.643533 -4.581173 1.543546
Zn 4.587919 -7.636788 7.654775
Zn 7.643533 -7.636788 4.599161
Zn 4.587919 -4.581173 4.599161
Zn 7.643533 -4.581173 7.654775
Zn 4.587919 -7.636788 13.766005
Zn 7.643533 -7.636788 10.710390
Zn 4.587919 -4.581173 10.710390
Zn 7.643533 -4.581173 13.766005
Zn 7.643533 -7.636788 16.821619
Zn 4.587919 -4.581173 16.821619
Zn 4.587919 -1.525559 -16.790141
Zn 7.643533 1.530056 -16.790141
Zn 4.587919 -1.525559 -10.678912
Zn 7.643533 -1.525559 -13.734527
Zn 4.587919 1.530056 -13.734527
Zn 7.643533 1.530056 -10.678912
Zn 4.587919 -1.525559 -4.567683
Zn 7.643533 -1.525559 -7.623297
Zn 4.587919 1.530056 -7.623297
Zn 7.643533 1.530056 -4.567683
Zn 4.587919 -1.525559 1.543546
Zn 7.643533 -1.525559 -1.512068
Zn 4.587919 1.530056 -1.512068
Zn 7.643533 1.530056 1.543546
Zn 4.587919 -1.525559 7.654775
Zn 7.643533 -1.525559 4.599161
Zn 4.587919 1.530056 4.599161
Zn 7.643533 1.530056 7.654775
Zn 4.587919 -1.525559 13.766005
Zn 7.643533 -1.525559 10.710390
Zn 4.587919 1.530056 10.710390
Zn 7.643533 1.530056 13.766005
Zn 7.643533 -1.525559 16.821619
Zn 4.587919 1.530056 16.821619
Zn 4.587919 4.585670 -16.790141
Zn 7.643533 7.641285 -16.790141
Zn 4.587919 4.585670 -10.678912
Zn 7.643533 4.585670 -13.734527
Zn 4.587919 7.641285 -13.734527
Zn 7.643533 7.641285 -10.678912
Zn 4.587919 4.585670 -4.567683
Zn 7.643533 4.585670 -7.623297
Zn 4.587919 7.641285 -7.623297
Zn 7.643533 7.641285 -4.567683
Zn 4.587919 4.585670 1.543546
Zn 7.643533 4.585670 -1.512068
Zn 4.587919 7.641285 -1.512068
Zn 7.643533 7.641285 1.543546
Zn 4.587919 4.585670 7.654775
Zn 7.643533 4.585670 4.599161
Zn 4.587919 7.641285 4.599161
Zn 7.643533 7.641285 7.654775
Zn 4.587919 4.585670 13.766005
Zn 7.643533 4.585670 10.710390
Zn 4.587919 7.641285 10.710390
Zn 7.643533 7.641285 13.766005
Zn 7.643533 4.585670 16.821619
Zn 4.587919 7.641285 16.821619
Zn 4.587919 10.696899 -16.790141
Zn 4.587919 10.696899 -10.678912
Zn 7.643533 10.696899 -13.734527
Zn 4.587919 13.752514 -13.734527
Zn 7.643533 13.752514 -10.678912
Zn 4.587919 10.696899 -4.567683
Zn 7.643533 10.696899 -7.623297
Zn 4.587919 13.752514 -7.623297
Zn 7.643533 13.752514 -4.567683
Zn 4.587919 10.696899 1.543546
Zn 7.643533 10.696899 -1.512068
Zn 4.587919 13.752514 -1.512068
Zn 7.643533 13.752514 1.543546
Zn 4.587919 10.696899 7.654775
Zn 7.643533 10.696899 4.599161
Zn 4.587919 13.752514 4.599161
Zn 7.643533 13.752514 7.654775
Zn 4.587919 10.696899 13.766005
Zn 7.643533 10.696899 10.710390
Zn 4.587919 13.752514 10.710390
Zn 4.587919 16.808129 -10.678912
Zn 4.587919 16.808129 -4.567683
Zn 7.643533 16.808129 -7.623297
Zn 4.587919 16.808129 1.543546
Zn 7.643533 16.808129 -1.512068
Zn 4.587919 16.808129 7.654775
Zn 7.643533 16.808129 4.599161
Zn 10.699148 -16.803632 -1.512068
Zn 13.754762 -16.803632 1.543546
Zn 10.699148 -16.803632 4.599161
Zn 10.699148 -13.748017 -4.567683
Zn 10.699148 -10.692403 -7.623297
Zn 13.754762 -10.692403 -4.567683
Zn 10.699148 -13.748017 1.543546
Zn 13.754762 -13.748017 -1.512068
Zn 10.699148 -10.692403 -1.512068
Zn 13.754762 -10.692403 1.543546
Zn 10.699148 -13.748017 7.654775
Zn 13.754762 -13.748017 4.599161
Zn 10.699148 -10.692403 4.599161
Zn 13.754762 -10.692403 7.654775
Zn 10.699148 -10.692403 10.710390
Zn 10.699148 -7.636788 -10.678912
Zn 10.699148 -4.581173 -13.734527
Zn 13.754762 -4.581173 -10.678912
Zn 10.699148 -7.636788 -4.567683
Zn 13.754762 -7.636788 -7.623297
Zn 10.699148 -4.581173 -7.623297
Zn 13.754762 -4.581173 -4.567683
Zn 10.699148 -7.636788 1.543546
Zn 13.754762 -7.636788 -1.512068
Zn 10.699148 -4.581173 -1.512068
Zn 13.754762 -4.581173 1.543546
Zn 10.699148 -7.636788 7.654775
Zn 13.754762 -7.636788 4.599161
Zn 10.699148 -4.581173 4.599161
Zn 13.754762 -4.581173 7.654775
Zn 10.699148 -7.636788 13.766005
Zn 13.754762 -7.636788 10.710390
Zn 10.699148 -4.581173 10.710390
Zn 13.754762 -4.581173 13.766005
Zn 10.699148 -4.581173 16.821619
Zn 10.699148 -1.525559 -16.790141
Zn 13.754762 1.530056 -16.790141
Zn 10.699148 -1.525559 -10.678912
Zn 13.754762 -1.525559 -13.734527
Zn 10.699148 1.530056 -13.734527
Zn 13.754762 1.530056 -10.678912
Zn 10.699148 -1.525559 -4.567683
Zn 13.754762 -1.525559 -7.623297
Zn 10.699148 1.530056 -7.623297
Zn 13.754762 1.530056 -4.567683
Zn 10.699148 -1.525559 1.543546
Zn 13.754762 -1.525559 -1.512068
Zn 10.699148 1.530056 -1.512068
Zn 13.754762 1.530056 1.543546
Zn 10.699148 -1.525559 7.654775
Zn 13.754762 -1.525559 4.599161
Zn 10.699148 1.530056 4.599161
Zn 13.754762 1.530056 7.654775
Zn 10.699148 -1.525559 13.766005
Zn 13.754762 -1.525559 10.710390
Zn 10.699148 1.530056 10.710390
Zn 13.754762 1.530056 13.766005
Zn 13.754762 -1.525559 16.821619
Zn 10.699148 1.530056 16.821619
Zn 10.699148 4.585670 -16.790141
Zn 10.699148 4.585670 -10.678912
Zn 13.754762 4.585670 -13.734527
Zn 10.699148 7.641285 -13.734527
Zn 13.754762 7.641285 -10.678912
Zn 10.699148 4.585670 -4.567683
Zn 13.754762 4.585670 -7.623297
Zn 10.699148 7.641285 -7.623297
Zn 13.754762 7.641285 -4.567683
Zn 10.699148 4.585670 1.543546
Zn 13.754762 4.585670 -1.512068
Zn 10.699148 7.641285 -1.512068
Zn 13.754762 7.641285 1.543546
Zn 10.699148 4.585670 7.654775
Zn 13.754762 4.585670 4.599161
Zn 10.699148 7.641285 4.599161
Zn 13.754762 7.641285 7.654775
Zn 10.699148 4.585670 13.766005
Zn 13.754762 4.585670 10.710390
Zn 10.699148 7.641285 10.710390
Zn 10.699148 10.696899 -10.678912
Zn 10.699148 10.696899 -4.567683
Zn 13.754762 10.696899 -7.623297
Zn 10.699148 13.752514 -7.623297
Zn 13.754762 13.752514 -4.567683
Zn 10.699148 10.696899 1.543546
Zn 13.754762 10.696899 -1.512068
Zn 10.699148 13.752514 -1.512068
Zn 13.754762 13.752514 1.543546
Zn 10.699148 10.696899 7.654775
Zn 13.754762 10.696899 4.599161
Zn 10.699148 13.752514 4.599161
Zn 10.699148 16.808129 -4.567683
Zn 10.699148 16.808129 1.543546
Zn 13.754762 16.808129 -1.512068
Zn 16.810377 -13.748017 1.543546
Zn 16.810377 -10.692403 -1.512068
Zn 16.810377 -10.692403 4.599161
Zn 16.810377 -7.636788 -4.567683
Zn 16.810377 -4.581173 -7.623297
Zn 16.810377 -7.636788 1.543546
Zn 16.810377 -4.581173 -1.512068
Zn 16.810377 -7.636788 7.654775
Zn 16.810377 -4.581173 4.599161
Zn 16.810377 -4.581173 10.710390
Zn 16.810377 -1.525559 -10.678912
Zn 16.810377 1.530056 -13.734527
Zn 16.810377 -1.525559 -4.567683
Zn 16.810377 1.530056 -7.623297
Zn 16.810377 -1.525559 1.543546
Zn 16.810377 1.530056 -1.512068
Zn 16.810377 -1.525559 7.654775
Zn 16.810377 1.530056 4.599161
Zn 16.810377 -1.525559 13.766005
Zn 16.810377 1.530056 10.710390
Zn 16.810377 4.585670 -10.678912
Zn 16.810377 4.585670 -4.567683
Zn 16.810377 7.641285 -7.623297
Zn 16.810377 4.585670 1.543546
Zn 16.810377 7.641285 -1.512068
Zn 16.810377 4.585670 7.654775
Zn 16.810377 7.641285 4.599161
Zn 16.810377 10.696899 -4.567683
Zn 16.810377 10.696899 1.543546
Zn 16.810377 13.752514 -1.512068
Te -15.273576 -15.275824 0.015739
Te -15.273576 -9.164595 -6.095490
Te -15.273576 -12.220210 -3.039876
Te -15.273576 -9.164595 0.015739
Te -15.273576 -12.220210 3.071354
Te -15.273576 -9.164595 6.126968
Te -15.273576 -3.053366 -12.206719
Te -15.273576 -6.108981 -9.151105
Te -15.273576 -3.053366 -6.095490
Te -15.273576 -6.108981 -3.039876
Te -15.273576 -3.053366 0.015739
Te -15.273576 -6.108981 3.071354
Te -15.273576 -3.053366 6.126968
Te -15.273576 -6.108981 9.182583
Te -15.273576 -3.053366 12.238197
Te -15.273576 0.002248 -15.262334
Te -15.273576 3.057863 -12.206719
Te -15.273576 0.002248 -9.151105
Te -15.273576 3.057863 -6.095490
Te -15.273576 0.002248 -3.039876
Te -15.273576 3.057863 0.015739
Te -15.273576 0.002248 3.071354
Te -15.273576 3.057863 6.126968
Te -15.273576 0.002248 9.182583
Te -15.273576 3.057863 12.238197
Te -15.273576 0.002248 15.293812
Te -15.273576 6.113478 -9.151105
Te -15.273576 9.169092 -6.095490
Te -15.273576 6.113478 -3.039876
Te -15.273576 9.169092 0.015739
Te -15.273576 6.113478 3.071354
Te -15.273576 9.169092 6.126968
Te -15.273576 6.113478 9.182583
Te -15.273576 12.224707 -3.039876
Te -15.273576 15.280321 0.015739
Te -15.273576 12.224707 3.071354
Te -12.217961 -15.275824 -3.039876
Te -9.162347 -15.275824 -6.095490
Te -12.217961 -15.275824 3.071354
Te -9.162347 -15.275824 0.015739
Te -9.162347 -15.275824 6.126968
Te -12.217961 -9.164595 -9.151105
Te -9.162347 -9.164595 -12.206719
Te -9.162347 -12.220210 -9.151105
Te -12.217961 -12.220210 -6.095490
Te -12.217961 -9.164595 -3.039876
Te -9.162347 -9.164595 -6.095490
Te -9.162347 -12.220210 -3.039876
Te -12.217961 -12.220210 0.015739
Te -12.217961 -9.164595 3.071354
Te -9.162347 -9.164595 0.015739
Te -9.162347 -12.220210 3.071354
Te -12.217961 -12.220210 6.126968
Te -12.217961 -9.164595 9.182583
Te -9.162347 -9.164595 6.126968
Te -9.162347 -12.220210 9.182583
Te -9.162347 -9.164595 12.238197
Te -12.217961 -3.053366 -15.262334
Te -9.162347 -6.108981 -15.262334
Te -12.217961 -6.108981 -12.206719
Te -12.217961 -3.053366 -9.151105
Te -9.162347 -3.053366 -12.206719
Te -9.162347 -6.108981 -9.151105
Te -12.217961 -6.108981 -6.095490
Te -12.217961 -3.053366 -3.039876
Te -9.162347 -3.053366 -6.095490
Te -9.162347 -6.108981 -3.039876
Te -12.217961 -6.108981 0.015739
Te -12.217961 -3.053366 3.071354
Te -9.162347 -3.053366 0.015739
Te -9.162347 -6.108981 3.071354
Te -12.217961 -6.108981 6.126968
Te -12.217961 -3.053366 9.182583
Te -9.162347 -3.053366 6.126968
Te -9.162347 -6.108981 9.182583
Te -12.217961 -6.108981 12.238197
Te -12.217961 -3.053366 15.293812
Te -9.162347 -3.053366 12.238197
Te -9.162347 -6.108981 15.293812
Te -12.217961 3.057863 -15.262334
Te -9.162347 0.002248 -15.262334
Te -12.217961 0.002248 -12.206719
Te -12.217961 3.057863 -9.151105
Te -9.162347 3.057863 -12.206719
Te -9.162347 0.002248 -9.151105
Te -12.217961 0.002248 -6.095490
Te -12.217961 3.057863 -3.039876
Te -9.162347 3.057863 -6.095490
Te -9.162347 0.002248 -3.039876
Te -12.217961 0.002248 0.015739
Te -12.217961 3.057863 3.071354
Te -9.162347 3.057863 0.015739
Te -9.162347 0.002248 3.071354
Te -12.217961 0.002248 6.126968
Te -12.217961 3.057863 9.182583
Te -9.162347 3.057863 6.126968
Te -9.162347 0.002248 9.182583
Te -12.217961 0.002248 12.238197
Te -12.217961 3.057863 15.293812
Te -9.162347 3.057863 12.238197
Te -9.162347 0.002248 15.293812
Te -9.162347 6.113478 -15.262334
Te -12.217961 6.113478 -12.206719
Te -12.217961 9.169092 -9.151105
Te -9.162347 9.169092 -12.206719
Te -9.162347 6.113478 -9.151105
Te -12.217961 6.113478 -6.095490
Te -12.217961 9.169092 -3.039876
Te -9.162347 9.169092 -6.095490
Te -9.162347 6.113478 -3.039876
Te -12.217961 6.113478 0.015739
Te -12.217961 9.169092 3.071354
Te -9.162347 9.169092 0.015739
Te -9.162347 6.113478 3.071354
Te -12.217961 6.113478 6.126968
Te -12.217961 9.169092 9.182583
Te -9.162347 9.169092 6.126968
Te -9.162347 6.113478 9.182583
Te -12.217961 6.113478 12.238197
Te -9.162347 9.169092 12.238197
Te -9.162347 6.113478 15.293812
Te -9.162347 12.224707 -9.151105
Te -12.217961 12.224707 -6.095490
Te -12.217961 15.280321 -3.039876
Te -9.162347 15.280321 -6.095490
Te -9.162347 12.224707 -3.039876
Te -12.217961 12.224707 0.015739
Te -12.217961 15.280321 3.071354
Te -9.162347 15.280321 0.015739
Te -9.162347 12.224707 3.071354
Te -12.217961 12.224707 6.126968
Te -9.162347 15.280321 6.126968
Te -9.162347 12.224707 9.182583
Te -6.106732 -15.275824 -9.151105
Te -3.051118 -15.275824 -12.206719
Te -6.106732 -15.275824 -3.039876
Te -3.051118 -15.275824 -6.095490
Te -6.106732 -15.275824 3.071354
Te -3.051118 -15.275824 0.015739
Te -6.106732 -15.275824 9.182583
Te -3.051118 -15.275824 6.126968
Te -3.051118 -15.275824 12.238197
Te -6.106732 -9.164595 -15.262334
Te -3.051118 -12.220210 -15.262334
Te -6.106732 -12.220210 -12.206719
Te -6.106732 -9.164595 -9.151105
Te -3.051118 -9.164595 -12.206719
Te -3.051118 -12.220210 -9.151105
Te -6.106732 -12.220210 -6.095490
Te -6.106732 -9.164595 -3.039876
Te -3.051118 -9.164595 -6.095490
Te -3.051118 -12.220210 -3.039876
Te -6.106732 -12.220210 0.015739
Te -6.106732 -9.164595 3.071354
Te -3.051118 -9.164595 0.015739
Te -3.051118 -12.220210 3.071354
Te -6.106732 -12.220210 6.126968
Te -6.106732 -9.164595 9.182583
Te -3.051118 -9.164595 6.126968
Te -3.051118 -12.220210 9.182583
Te -6.106732 -12.220210 12.238197
Te -6.106732 -9.164595 15.293812
Te -3.051118 -9.164595 12.238197
Te -3.051118 -12.220210 15.293812
Te -6.106732 -3.053366 -15.262334
Te -3.051118 -6.108981 -15.262334
Te -6.106732 -6.108981 -12.206719
Te -6.106732 -3.053366 -9.151105
Te -3.051118 -3.053366 -12.206719
Te -3.051118 -6.108981 -9.151105
Te -6.106732 -6.108981 -6.095490
Te -6.106732 -3.053366 -3.039876
Te -3.051118 -3.053366 -6.095490
Te -3.051118 -6.108981 -3.039876
Te -6.106732 -6.108981 0.015739
Te -6.106732 -3.053366 3.071354
Te -3.051118 -3.053366 0.015739
Te -3.051118 -6.108981 3.071354
Te -6.106732 -6.108981 6.126968
Te -6.106732 -3.053366 9.182583
Te -3.051118 -3.053366 6.126968
Te -3.051118 -6.108981 9.182583
Te -6.106732 -6.108981 12.238197
Te -6.106732 -3.053366 15.293812
Te -3.051118 -3.053366 12.238197
Te -3.051118 -6.108981 15.293812
Te -6.106732 3.057863 -15.262334
Te -3.051118 0.002248 -15.262334
Te -6.106732 0.002248 -12.206719
Te -6.106732 3.057863 -9.151105
Te -3.051118 3.057863 -12.206719
Te -3.051118 0.002248 -9.151105
Te -6.106732 0.002248 -6.095490
Te -6.106732 3.057863 -3.039876
Te -3.051118 3.057863 -6.095490
Te -3.051118 0.002248 -3.039876
Te -6.106732 0.002248 0.015739
Te -6.106732 3.057863 3.071354
Te -3.051118 3.057863 0.015739
Te -3.051118 0.002248 3.071354
Te -6.106732 0.002248 6.126968
Te -6.106732 3.057863 9.182583
Te -3.051118 3.057863 6.126968
Te -3.051118 0.002248 9.182583
Te -6.106732 0.002248 12.238197
Te -6.106732 3.057863 15.293812
Te -3.051118 3.057863 12.238197
Te -3.051118 0.002248 15.293812
Te -6.106732 9.169092 -15.262334
Te -3.051118 6.113478 -15.262334
Te -6.106732 6.113478 -12.206719
Te -6.106732 9.169092 -9.151105
Te -3.051118 9.169092 -12.206719
Te -3.051118 6.113478 -9.151105
Te -6.106732 6.113478 -6.095490
Te -6.106732 9.169092 -3.039876
Te -3.051118 9.169092 -6.095490
Te -3.051118 6.113478 -3.039876
Te -6.106732 6.113478 0.015739
Te -6.106732 9.169092 3.071354
Te -3.051118 9.169092 0.015739
Te -3.051118 6.113478 3.071354
Te -6.106732 6.113478 6.126968
Te -6.106732 9.169092 9.182583
Te -3.051118 9.169092 6.126968
Te -3.051118 6.113478 9.182583
Te -6.106732 6.113478 12.238197
Te -6.106732 9.169092 15.293812
Te -3.051118 9.169092 12.238197
Te -3.051118 6.113478 15.293812
Te -3.051118 12.224707 -15.262334
Te -6.106732 12.224707 -12.206719
Te -6.106732 15.280321 -9.151105
Te -3.051118 15.280321 -12.206719
Te -3.051118 12.224707 -9.151105
Te -6.106732 12.224707 -6.095490
Te -6.106732 15.280321 -3.039876
Te -3.051118 15.280321 -6.095490
Te -3.051118 12.224707 -3.039876
Te -6.106732 12.224707 0.015739
Te -6.106732 15.280321 3.071354
Te -3.051118 15.280321 0.015739
Te -3.051118 12.224707 3.071354
Te -6.106732 12.224707 6.126968
Te -6.106732 15.280321 9.182583
Te -3.051118 15.280321 6.126968
Te -3.051118 12.224707 9.182583
Te -6.106732 12.224707 12.238197
Te -3.051118 15.280321 12.238197
Te -3.051118 12.224707 15.293812
Te 0.004497 -15.275824 -15.262334
Te 0.004497 -15.275824 -9.151105
Te 3.060111 -15.275824 -12.206719
Te 0.004497 -15.275824 -3.039876
Te 3.060111 -15.275824 -6.095490
Te 0.004497 -15.275824 3.071354
Te 3.060111 -15.275824 0.015739
Te 0.004497 -15.275824 9.182583
Te 3.060111 -15.275824 6.126968
Te 0.004497 -15.275824 15.293812
Te 3.060111 -15.275824 12.238197
Te 0.004497 -9.164595 -15.262334
Te 3.060111 -12.220210 -15.262334
Te 0.004497 -12.220210 -12.206719
Te 0.004497 -9.164595 -9.151105
Te 3.060111 -9.164595 -12.206719
Te 3.060111 -12.220210 -9.151105
Te 0.004497 -12.220210 -6.095490
Te 0.004497 -9.164595 -3.039876
Te 3.060111 -9.164595 -6.095490
Te 3.060111 -12.220210 -3.039876
Te 0.004497 -12.220210 0.015739
Te 0.004497 -9.164595 3.071354
Te 3.060111 -9.164595 0.015739
Te 3.060111 -12.220210 3.071354
Te 0.004497 -12.220210 6.126968
Te 0.004497 -9.164595 9.182583
Te 3.060111 -9.164595 6.126968
Te 3.060111 -12.220210 9.182583
Te 0.004497 -12.220210 12.238197
Te 0.004497 -9.164595 15.293812
Te 3.060111 -9.164595 12.238197
Te 3.060111 -12.220210 15.293812
Te 0.004497 -3.053366 -15.262334
Te 3.060111 -6.108981 -15.262334
Te 0.004497 -6.108981 -12.206719
Te 0.004497 -3.053366 -9.151105
Te 3.060111 -3.053366 -12.206719
Te 3.060111 -6.108981 -9.151105
Te 0.004497 -6.108981 -6.095490
Te 0.004497 -3.053366 -3.039876
Te 3.060111 -3.053366 -6.095490
Te 3.060111 -6.108981 -3.039876
Te 0.004497 -6.108981 0.015739
Te 0.004497 -3.053366 3.071354
Te 3.060111 -3.053366 0.015739
Te 3.060111 -6.108981 3.071354
Te 0.004497 -6.108981 6.126968
Te 0.004497 -3.053366 9.182583
Te 3.060111 -3.053366 6.126968
Te 3.060111 -6.108981 9.182583
Te 0.004497 -6.108981 12.238197
Te 0.004497 -3.053366 15.293812
Te 3.060111 -3.053366 12.238197
Te 3.060111 -6.108981 15.293812
Te 0.004497 3.057863 -15.262334
Te 3.060111 0.002248 -15.262334
Te 0.004497 0.002248 -12.206719
Te 0.004497 3.057863 -9.151105
Te 3.060111 3.057863 -12.206719
Te 3.060111 0.002248 -9.151105
Te 0.004497 0.002248 -6.095490
Te 0.004497 3.057863 -3.039876
Te 3.060111 3.057863 -6.095490
Te 3.060111 0.002248 -3.039876
Te 0.004497 0.002248 0.015739
Te 0.004497 3.057863 3.071354
Te 3.060111 3.057863 0.015739
Te 3.060111 0.002248 3.071354
Te 0.004497 0.002248 6.126968
Te 0.004497 3.057863 9.182583
Te 3.060111 3.057863 6.126968
Te 3.060111 0.002248 9.182583
Te 0.004497 0.002248 12.238197
Te 0.004497 3.057863 15.293812
Te 3.060111 3.057863 12.238197
Te 3.060111 0.002248 15.293812
Te 0.004497 9.169092 -15.262334
Te 3.060111 6.113478 -15.262334
Te 0.004497 6.113478 -12.206719
Te 0.004497 9.169092 -9.151105
Te 3.060111 9.169092 -12.206719
Te 3.060111 6.113478 -9.151105
Te 0.004497 6.113478 -6.095490
Te 0.004497 9.169092 -3.039876
Te 3.060111 9.169092 -6.095490
Te 3.060111 6.113478 -3.039876
Te 0.004497 6.113478 0.015739
Te 0.004497 9.169092 3.071354
Te 3.060111 9.169092 0.015739
Te 3.060111 6.113478 3.071354
Te 0.004497 6.113478 6.126968
Te 0.004497 9.169092 9.182583
Te 3.060111 9.169092 6.126968
Te 3.060111 6.113478 9.182583
Te 0.004497 6.113478 12.238197
Te 0.004497 9.169092 15.293812
Te 3.060111 9.169092 12.238197
Te 3.060111 6.113478 15.293812
Te 0.004497 15.280321 -15.262334
Te 3.060111 12.224707 -15.262334
Te 0.004497 12.224707 -12.206719
Te 0.004497 15.280321 -9.151105
Te 3.060111 15.280321 -12.206719
Te 3.060111 12.224707 -9.151105
Te 0.004497 12.224707 -6.095490
Te 0.004497 15.280321 -3.039876
Te 3.060111 15.280321 -6.095490
Te 3.060111 12.224707 -3.039876
Te 0.004497 12.224707 0.015739
Te 0.004497 15.280321 3.071354
Te 3.060111 15.280321 0.015739
Te 3.060111 12.224707 3.071354
Te 0.004497 12.224707 6.126968
Te 0.004497 15.280321 9.182583
Te 3.060111 15.280321 6.126968
Te 3.060111 12.224707 9.182583
Te 0.004497 12.224707 12.238197
Te 0.004497 15.280321 15.293812
Te 3.060111 15.280321 12.238197
Te 3.060111 12.224707 15.293812
Te 6.115726 -15.275824 -9.151105
Te 6.115726 -15.275824 -3.039876
Te 9.171341 -15.275824 -6.095490
Te 6.115726 -15.275824 3.071354
Te 9.171341 -15.275824 0.015739
Te 6.115726 -15.275824 9.182583
Te 9.171341 -15.275824 6.126968
Te 6.115726 -9.164595 -15.262334
Te 6.115726 -12.220210 -12.206719
Te 6.115726 -9.164595 -9.151105
Te 9.171341 -9.164595 -12.206719
Te 9.171341 -12.220210 -9.151105
Te 6.115726 -12.220210 -6.095490
Te 6.115726 -9.164595 -3.039876
Te 9.171341 -9.164595 -6.095490
Te 9.171341 -12.220210 -3.039876
Te 6.115726 -12.220210 0.015739
Te 6.115726 -9.164595 3.071354
Te 9.171341 -9.164595 0.015739
Te 9.171341 -12.220210 3.071354
Te 6.115726 -12.220210 6.126968
Te 6.115726 -9.164595 9.182583
Te 9.171341 -9.164595 6.126968
Te 9.171341 -12.220210 9.182583
Te 6.115726 -12.220210 12.238197
Te 6.115726 -9.164595 15.293812
Te 9.171341 -9.164595 12.238197
Te 6.115726 -3.053366 -15.262334
Te 9.171341 -6.108981 -15.262334
Te 6.115726 -6.108981 -12.206719
Te 6.115726 -3.053366 -9.151105
Te 9.171341 -3.053366 -12.206719
Te 9.171341 -6.108981 -9.151105
Te 6.115726 -6.108981 -6.095490
Te 6.115726 -3.053366 -3.039876
Te 9.171341 -3.053366 -6.095490
Te 9.171341 -6.108981 -3.039876
Te 6.115726 -6.108981 0.015739
Te 6.115726 -3.053366 3.071354
Te 9.171341 -3.053366 0.015739
Te 9.171341 -6.108981 3.071354
Te 6.115726 -6.108981 6.126968
Te 6.115726 -3.053366 9.182583
Te 9.171341 -3.053366 6.126968
Te 9.171341 -6.108981 9.182583
Te 6.115726 -6.108981 12.238197
Te 6.115726 -3.053366 15.293812
Te 9.171341 -3.053366 12.238197
Te 9.171341 -6.108981 15.293812
Te 6.115726 3.057863 -15.262334
Te 9.171341 0.002248 -15.262334
Te 6.115726 0.002248 -12.206719
Te 6.115726 3.057863 -9.151105
Te 9.171341 3.057863 -12.206719
Te 9.171341 0.002248 -9.151105
Te 6.115726 0.002248 -6.095490
Te 6.115726 3.057863 -3.039876
Te 9.171341 3.057863 -6.095490
Te 9.171341 0.002248 -3.039876
Te 6.115726 0.002248 0.015739
Te 6.115726 3.057863 3.071354
Te 9.171341 3.057863 0.015739
Te 9.171341 0.002248 3.071354
Te 6.115726 0.002248 6.126968
Te 6.115726 3.057863 9.182583
Te 9.171341 3.057863 6.126968
Te 9.171341 0.002248 9.182583
Te 6.115726 0.002248 12.238197
Te 6.115726 3.057863 15.293812
Te 9.171341 3.057863 12.238197
Te 9.171341 0.002248 15.293812
Te 6.115726 9.169092 -15.262334
Te 9.171341 6.113478 -15.262334
Te 6.115726 6.113478 -12.206719
Te 6.115726 9.169092 -9.151105
Te 9.171341 9.169092 -12.206719
Te 9.171341 6.113478 -9.151105
Te 6.115726 6.113478 -6.095490
Te 6.115726 9.169092 -3.039876
Te 9.171341 9.169092 -6.095490
Te 9.171341 6.113478 -3.039876
Te 6.115726 6.113478 0.015739
Te 6.115726 9.169092 3.071354
Te 9.171341 9.169092 0.015739
Te 9.171341 6.113478 3.071354
Te 6.115726 6.113478 6.126968
Te 6.115726 9.169092 9.182583
Te 9.171341 9.169092 6.126968
Te 9.171341 6.113478 9.182583
Te 6.115726 6.113478 12.238197
Te 6.115726 9.169092 15.293812
Te 9.171341 9.169092 12.238197
Te 9.171341 6.113478 15.293812
Te 6.115726 12.224707 -12.206719
Te 6.115726 15.280321 -9.151105
Te 9.171341 12.224707 -9.151105
Te 6.115726 12.224707 -6.095490
Te 6.115726 15.280321 -3.039876
Te 9.171341 15.280321 -6.095490
Te 9.171341 12.224707 -3.039876
Te 6.115726 12.224707 0.015739
Te 6.115726 15.280321 3.071354
Te 9.171341 15.280321 0.015739
Te 9.171341 12.224707 3.071354
Te 6.115726 12.224707 6.126968
Te 6.115726 15.280321 9.182583
Te 9.171341 15.280321 6.126968
Te 9.171341 12.224707 9.182583
Te 6.115726 12.224707 12.238197
Te 12.226955 -15.275824 -3.039876
Te 12.226955 -15.275824 3.071354
Te 15.282570 -15.275824 0.015739
Te 12.226955 -9.164595 -9.151105
Te 12.226955 -12.220210 -6.095490
Te 12.226955 -9.164595 -3.039876
Te 15.282570 -9.164595 -6.095490
Te 15.282570 -12.220210 -3.039876
Te 12.226955 -12.220210 0.015739
Te 12.226955 -9.164595 3.071354
Te 15.282570 -9.164595 0.015739
Te 15.282570 -12.220210 3.071354
Te 12.226955 -12.220210 6.126968
Te 12.226955 -9.164595 9.182583
Te 15.282570 -9.164595 6.126968
Te 12.226955 -3.053366 -15.262334
Te 12.226955 -6.108981 -12.206719
Te 12.226955 -3.053366 -9.151105
Te 15.282570 -3.053366 -12.206719
Te 15.282570 -6.108981 -9.151105
Te 12.226955 -6.108981 -6.095490
Te 12.226955 -3.053366 -3.039876
Te 15.282570 -3.053366 -6.095490
Te 15.282570 -6.108981 -3.039876
Te 12.226955 -6.108981 0.015739
Te 12.226955 -3.053366 3.071354
Te 15.282570 -3.053366 0.015739
Te 15.282570 -6.108981 3.071354
Te 12.226955 -6.108981 6.126968
Te 12.226955 -3.053366 9.182583
Te 15.282570 -3.053366 6.126968
Te 15.282570 -6.108981 9.182583
Te 12.226955 -6.108981 12.238197
Te 12.226955 -3.053366 15.293812
Te 15.282570 -3.053366 12.238197
Te 12.226955 3.057863 -15.262334
Te 15.282570 0.002248 -15.262334
Te 12.226955 0.002248 -12.206719
Te 12.226955 3.057863 -9.151105
Te 15.282570 3.057863 -12.206719
Te 15.282570 0.002248 -9.151105
Te 12.226955 0.002248 -6.095490
Te 12.226955 3.057863 -3.039876
Te 15.282570 3.057863 -6.095490
Te 15.282570 0.002248 -3.039876
Te 12.226955 0.002248 0.015739
Te 12.226955 3.057863 3.071354
Te 15.282570 3.057863 0.015739
Te 15.282570 0.002248 3.071354
Te 12.226955 0.002248 6.126968
Te 12.226955 3.057863 9.182583
Te 15.282570 3.057863 6.126968
Te 15.282570 0.002248 9.182583
Te 12.226955 0.002248 12.238197
Te 12.226955 3.057863 15.293812
Te 15.282570 3.057863 12.238197
Te 15.282570 0.002248 15.293812
Te 12.226955 6.113478 -12.206719
Te 12.226955 9.169092 -9.151105
Te 15.282570 6.113478 -9.151105
Te 12.226955 6.113478 -6.095490
Te 12.226955 9.169092 -3.039876
Te 15.282570 9.169092 -6.095490
Te 15.282570 6.113478 -3.039876
Te 12.226955 6.113478 0.015739
Te 12.226955 9.169092 3.071354
Te 15.282570 9.169092 0.015739
Te 15.282570 6.113478 3.071354
Te 12.226955 6.113478 6.126968
Te 12.226955 9.169092 9.182583
Te 15.282570 9.169092 6.126968
Te 15.282570 6.113478 9.182583
Te 12.226955 6.113478 12.238197
Te 12.226955 12.224707 -6.095490
Te 12.226955 15.280321 -3.039876
Te 15.282570 12.224707 -3.039876
Te 12.226955 12.224707 0.015739
Te 12.226955 15.280321 3.071354
Te 15.282570 15.280321 0.015739
Te 15.282570 12.224707 3.071354
Te 12.226955 12.224707 6.126968
Cl -18.329191 -9.164595 -3.039876
Cl -18.329191 -12.220210 0.015739
Cl -18.329191 -9.164595 3.071354
Cl -18.329191 -3.053366 -9.151105
Cl -18.329191 -6.108981 -6.095490
Cl -18.329191 -3.053366 -3.039876
Cl -18.329191 -6.108981 0.015739
Cl -18.329191 -3.053366 3.071354
Cl -18.329191 -6.108981 6.126968
Cl -18.329191 -3.053366 9.182583
Cl -18.329191 0.002248 -12.206719
Cl -18.329191 3.057863 -9.151105
Cl -18.329191 0.002248 -6.095490
Cl -18.329191 3.057863 -3.039876
Cl -18.329191 0.002248 0.015739
Cl -18.329191 3.057863 3.071354
Cl -18.329191 0.002248 6.126968
Cl -18.329191 3.057863 9.182583
Cl -18.329191 0.002248 12.238197
Cl -18.329191 6.113478 -6.095490
Cl -18.329191 9.169092 -3.039876
Cl -18.329191 6.113478 0.015739
Cl -18.329191 9.169092 3.071354
Cl -18.329191 6.113478 6.126968
Cl -18.329191 12.224707 0.015739
Cl -9.162347 -18.331439 -3.039876
Cl -12.217961 -18.331439 0.015739
Cl -9.162347 -18.331439 3.071354
Cl -9.162347 -3.053366 -18.317948
Cl -9.162347 -3.053366 18.349426
Cl -12.217961 0.002248 -18.317948
Cl -9.162347 3.057863 -18.317948
Cl -12.217961 0.002248 18.349426
Cl -9.162347 3.057863 18.349426
Cl -9.162347 18.335936 -3.039876
Cl -12.217961 18.335936 0.015739
Cl -9.162347 18.335936 3.071354
Cl -3.051118 -18.331439 -9.151105
Cl -6.106732 -18.331439 -6.095490
Cl -3.051118 -18.331439 -3.039876
Cl -6.106732 -18.331439 0.015739
Cl -3.051118 -18.331439 3.071354
Cl -6.106732 -18.331439 6.126968
Cl -3.051118 -18.331439 9.182583
Cl -3.051118 -9.164595 -18.317948
Cl -3.051118 -9.164595 18.349426
Cl -6.106732 -6.108981 -18.317948
Cl -3.051118 -3.053366 -18.317948
Cl -6.106732 -6.108981 18.349426
Cl -3.051118 -3.053366 18.349426
Cl -6.106732 0.002248 -18.317948
Cl -3.051118 3.057863 -18.317948
Cl -6.106732 0.002248 18.349426
Cl -3.051118 3.057863 18.349426
Cl -6.106732 6.113478 -18.317948
Cl -3.051118 9.169092 -18.317948
Cl -6.106732 6.113478 18.349426
Cl -3.051118 9.169092 18.349426
Cl -3.051118 18.335936 -9.151105
Cl -6.106732 18.335936 -6.095490
Cl -3.051118 18.335936 -3.039876
Cl -6.106732 18.335936 0.015739
Cl -3.051118 18.335936 3.071354
Cl -6.106732 18.335936 6.126968
Cl -3.051118 18.335936 9.182583
Cl 0.004497 -18.331439 -12.206719
Cl 3.060111 -18.331439 -9.151105
Cl 0.004497 -18.331439 -6.095490
Cl 3.060111 -18.331439 -3.039876
Cl 0.004497 -18.331439 0.015739
Cl 3.060111 -18.331439 3.071354
Cl 0.004497 -18.331439 6.126968
Cl 3.060111 -18.331439 9.182583
Cl 0.004497 -18.331439 12.238197
Cl 0.004497 -12.220210 -18.317948
Cl 3.060111 -9.164595 -18.317948
Cl 0.004497 -12.220210 18.349426
Cl 3.060111 -9.164595 18.349426
Cl 0.004497 -6.108981 -18.317948
Cl 3.060111 -3.053366 -18.317948
Cl 0.004497 -6.108981 18.349426
Cl 3.060111 -3.053366 18.349426
Cl 0.004497 0.002248 -18.317948
Cl 3.060111 3.057863 -18.317948
Cl 0.004497 0.002248 18.349426
Cl 3.060111 3.057863 18.349426
Cl 0.004497 6.113478 -18.317948
Cl 3.060111 9.169092 -18.317948
Cl 0.004497 6.113478 18.349426
Cl 3.060111 9.169092 18.349426
Cl 0.004497 12.224707 -18.317948
Cl 0.004497 12.224707 18.349426
Cl 0.004497 18.335936 -12.206719
Cl 3.060111 18.335936 -9.151105
Cl 0.004497 18.335936 -6.095490
Cl 3.060111 18.335936 -3.039876
Cl 0.004497 18.335936 0.015739
Cl 3.060111 18.335936 3.071354
Cl 0.004497 18.335936 6.126968
Cl 3.060111 18.335936 9.182583
Cl 0.004497 18.335936 12.238197
Cl 6.115726 -18.331439 -6.095490
Cl 9.171341 -18.331439 -3.039876
Cl 6.115726 -18.331439 0.015739
Cl 9.171341 -18.331439 3.071354
Cl 6.115726 -18.331439 6.126968
Cl 6.115726 -6.108981 -18.317948
Cl 9.171341 -3.053366 -18.317948
Cl 6.115726 -6.108981 18.349426
Cl 9.171341 -3.053366 18.349426
Cl 6.115726 0.002248 -18.317948
Cl 9.171341 3.057863 -18.317948
Cl 6.115726 0.002248 18.349426
Cl 9.171341 3.057863 18.349426
Cl 6.115726 6.113478 -18.317948
Cl 6.115726 6.113478 18.349426
Cl 6.115726 18.335936 -6.095490
Cl 9.171341 18.335936 -3.039876
Cl 6.115726 18.335936 0.015739
Cl 9.171341 18.335936 3.071354
Cl 6.115726 18.335936 6.126968
Cl 12.226955 -18.331439 0.015739
Cl 12.226955 0.002248 -18.317948
Cl 12.226955 0.002248 18.349426
Cl 12.226955 18.335936 0.015739
Cl 18.338184 -9.164595 -3.039876
Cl 18.338184 -12.220210 0.015739
Cl 18.338184 -9.164595 3.071354
Cl 18.338184 -3.053366 -9.151105
Cl 18.338184 -6.108981 -6.095490
Cl 18.338184 -3.053366 -3.039876
Cl 18.338184 -6.108981 0.015739
Cl 18.338184 -3.053366 3.071354
Cl 18.338184 -6.108981 6.126968
Cl 18.338184 -3.053366 9.182583
Cl 18.338184 0.002248 -12.206719
Cl 18.338184 3.057863 -9.151105
Cl 18.338184 0.002248 -6.095490
Cl 18.338184 3.057863 -3.039876
Cl 18.338184 0.002248 0.015739
Cl 18.338184 3.057863 3.071354
Cl 18.338184 0.002248 6.126968
Cl 18.338184 3.057863 9.182583
Cl 18.338184 0.002248 12.238197
Cl 18.338184 6.113478 -6.095490
Cl 18.338184 9.169092 -3.039876
Cl 18.338184 6.113478 0.015739
Cl 18.338184 9.169092 3.071354
Cl 18.338184 6.113478 6.126968
Cl 18.338184 12.224707 0.015739
Cl -12.217961 -12.220210 -9.151105
Cl -12.217961 9.169092 12.238197
Cl 9.171341 -12.220210 12.238197
Cl 9.171341 12.224707 -12.206719
Cl -15.273576 -3.053366 -15.262334
Cl -15.273576 15.280321 3.071354
Cl 15.282570 -15.275824 3.071354
Cl 15.282570 3.057863 -15.262334
