6461
HgSe-Se-Hg3168Se3043Cl250-clean
Hg -29.414618 -17.028835 -10.836662
Hg -29.414618 -17.028835 -4.644010
Hg -29.414618 -17.028835 1.548642
Hg -29.414618 -17.028835 7.741294
Hg -29.414618 -10.836183 -17.029314
Hg -29.414618 -13.932509 -13.932988
Hg -32.510944 -10.836183 -13.932988
Hg -32.510944 -13.932509 -10.836662
Hg -29.414618 -10.836183 -10.836662
Hg -29.414618 -13.932509 -7.740336
Hg -32.510944 -10.836183 -7.740336
Hg -32.510944 -13.932509 -4.644010
Hg -29.414618 -10.836183 -4.644010
Hg -29.414618 -13.932509 -1.547684
Hg -32.510944 -10.836183 -1.547684
Hg -32.510944 -13.932509 1.548642
Hg -29.414618 -10.836183 1.548642
Hg -29.414618 -13.932509 4.644968
Hg -32.510944 -10.836183 4.644968
Hg -32.510944 -13.932509 7.741294
Hg -29.414618 -10.836183 7.741294
Hg -29.414618 -13.932509 10.837620
Hg -32.510944 -10.836183 10.837620
Hg -29.414618 -10.836183 13.933946
Hg -29.414618 -4.643531 -17.029314
Hg -29.414618 -7.739857 -13.932988
Hg -32.510944 -4.643531 -13.932988
Hg -32.510944 -7.739857 -10.836662
Hg -29.414618 -4.643531 -10.836662
Hg -29.414618 -7.739857 -7.740336
Hg -32.510944 -4.643531 -7.740336
Hg -32.510944 -7.739857 -4.644010
Hg -29.414618 -4.643531 -4.644010
Hg -29.414618 -7.739857 -1.547684
Hg -32.510944 -4.643531 -1.547684
Hg -32.510944 -7.739857 1.548642
Hg -29.414618 -4.643531 1.548642
Hg -29.414618 -7.739857 4.644968
Hg -32.510944 -4.643531 4.644968
Hg -32.510944 -7.739857 7.741294
Hg -29.414618 -4.643531 7.741294
Hg -29.414618 -7.739857 10.837620
Hg -32.510944 -4.643531 10.837620
Hg -32.510944 -7.739857 13.933946
Hg -29.414618 -4.643531 13.933946
Hg -29.414618 -7.739857 17.030272
Hg -29.414618 1.549121 -17.029314
Hg -29.414618 -1.547205 -13.932988
Hg -32.510944 1.549121 -13.932988
Hg -32.510944 -1.547205 -10.836662
Hg -29.414618 1.549121 -10.836662
Hg -29.414618 -1.547205 -7.740336
Hg -32.510944 1.549121 -7.740336
Hg -32.510944 -1.547205 -4.644010
Hg -29.414618 1.549121 -4.644010
Hg -29.414618 -1.547205 -1.547684
Hg -32.510944 1.549121 -1.547684
Hg -32.510944 -1.547205 1.548642
Hg -29.414618 1.549121 1.548642
Hg -29.414618 -1.547205 4.644968
Hg -32.510944 1.549121 4.644968
Hg -32.510944 -1.547205 7.741294
Hg -29.414618 1.549121 7.741294
Hg -29.414618 -1.547205 10.837620
Hg -32.510944 1.549121 10.837620
Hg -32.510944 -1.547205 13.933946
Hg -29.414618 1.549121 13.933946
Hg -29.414618 -1.547205 17.030272
Hg -29.414618 7.741773 -17.029314
Hg -29.414618 4.645447 -13.932988
Hg -32.510944 7.741773 -13.932988
Hg -32.510944 4.645447 -10.836662
Hg -29.414618 7.741773 -10.836662
Hg -29.414618 4.645447 -7.740336
Hg -32.510944 7.741773 -7.740336
Hg -32.510944 4.645447 -4.644010
Hg -29.414618 7.741773 -4.644010
Hg -29.414618 4.645447 -1.547684
Hg -32.510944 7.741773 -1.547684
Hg -32.510944 4.645447 1.548642
Hg -29.414618 7.741773 1.548642
Hg -29.414618 4.645447 4.644968
Hg -32.510944 7.741773 4.644968
Hg -32.510944 4.645447 7.741294
Hg -29.414618 7.741773 7.741294
Hg -29.414618 4.645447 10.837620
Hg -32.510944 7.741773 10.837620
Hg -32.510944 4.645447 13.933946
Hg -29.414618 7.741773 13.933946
Hg -29.414618 4.645447 17.030272
Hg -29.414618 10.838100 -13.932988
Hg -32.510944 10.838100 -10.836662
Hg -29.414618 13.934426 -10.836662
Hg -29.414618 10.838100 -7.740336
Hg -32.510944 13.934426 -7.740336
Hg -32.510944 10.838100 -4.644010
Hg -29.414618 13.934426 -4.644010
Hg -29.414618 10.838100 -1.547684
Hg -32.510944 13.934426 -1.547684
Hg -32.510944 10.838100 1.548642
Hg -29.414618 13.934426 1.548642
Hg -29.414618 10.838100 4.644968
Hg -32.510944 13.934426 4.644968
Hg -32.510944 10.838100 7.741294
Hg -29.414618 13.934426 7.741294
Hg -29.414618 10.838100 10.837620
Hg -32.510944 13.934426 10.837620
Hg -32.510944 10.838100 13.933946
Hg -29.414618 13.934426 13.933946
Hg -29.414618 10.838100 17.030272
Hg -29.414618 17.030752 -7.740336
Hg -29.414618 17.030752 -1.547684
Hg -29.414618 17.030752 4.644968
Hg -29.414618 17.030752 10.837620
Hg -23.221966 -23.221487 -10.836662
Hg -23.221966 -23.221487 -4.644010
Hg -23.221966 -23.221487 1.548642
Hg -23.221966 -23.221487 7.741294
Hg -23.221966 -17.028835 -17.029314
Hg -23.221966 -20.125161 -13.932988
Hg -26.318292 -17.028835 -13.932988
Hg -26.318292 -20.125161 -10.836662
Hg -23.221966 -17.028835 -10.836662
Hg -23.221966 -20.125161 -7.740336
Hg -26.318292 -17.028835 -7.740336
Hg -26.318292 -20.125161 -4.644010
Hg -23.221966 -17.028835 -4.644010
Hg -23.221966 -20.125161 -1.547684
Hg -26.318292 -17.028835 -1.547684
Hg -26.318292 -20.125161 1.548642
Hg -23.221966 -17.028835 1.548642
Hg -23.221966 -20.125161 4.644968
Hg -26.318292 -17.028835 4.644968
Hg -26.318292 -20.125161 7.741294
Hg -23.221966 -17.028835 7.741294
Hg -23.221966 -20.125161 10.837620
Hg -26.318292 -17.028835 10.837620
Hg -23.221966 -17.028835 13.933946
Hg -23.221966 -10.836183 -23.221966
Hg -23.221966 -13.932509 -20.125640
Hg -26.318292 -10.836183 -20.125640
Hg -26.318292 -13.932509 -17.029314
Hg -23.221966 -10.836183 -17.029314
Hg -23.221966 -13.932509 -13.932988
Hg -26.318292 -10.836183 -13.932988
Hg -26.318292 -13.932509 -10.836662
Hg -23.221966 -10.836183 -10.836662
Hg -23.221966 -13.932509 -7.740336
Hg -26.318292 -10.836183 -7.740336
Hg -26.318292 -13.932509 -4.644010
Hg -23.221966 -10.836183 -4.644010
Hg -23.221966 -13.932509 -1.547684
Hg -26.318292 -10.836183 -1.547684
Hg -26.318292 -13.932509 1.548642
Hg -23.221966 -10.836183 1.548642
Hg -23.221966 -13.932509 4.644968
Hg -26.318292 -10.836183 4.644968
Hg -26.318292 -13.932509 7.741294
Hg -23.221966 -10.836183 7.741294
Hg -23.221966 -13.932509 10.837620
Hg -26.318292 -10.836183 10.837620
Hg -26.318292 -13.932509 13.933946
Hg -23.221966 -10.836183 13.933946
Hg -23.221966 -13.932509 17.030272
Hg -26.318292 -10.836183 17.030272
Hg -23.221966 -10.836183 20.126598
Hg -23.221966 -4.643531 -23.221966
Hg -23.221966 -7.739857 -20.125640
Hg -26.318292 -4.643531 -20.125640
Hg -26.318292 -7.739857 -17.029314
Hg -23.221966 -4.643531 -17.029314
Hg -23.221966 -7.739857 -13.932988
Hg -26.318292 -4.643531 -13.932988
Hg -26.318292 -7.739857 -10.836662
Hg -23.221966 -4.643531 -10.836662
Hg -23.221966 -7.739857 -7.740336
Hg -26.318292 -4.643531 -7.740336
Hg -26.318292 -7.739857 -4.644010
Hg -23.221966 -4.643531 -4.644010
Hg -23.221966 -7.739857 -1.547684
Hg -26.318292 -4.643531 -1.547684
Hg -26.318292 -7.739857 1.548642
Hg -23.221966 -4.643531 1.548642
Hg -23.221966 -7.739857 4.644968
Hg -26.318292 -4.643531 4.644968
Hg -26.318292 -7.739857 7.741294
Hg -23.221966 -4.643531 7.741294
Hg -23.221966 -7.739857 10.837620
Hg -26.318292 -4.643531 10.837620
Hg -26.318292 -7.739857 13.933946
Hg -23.221966 -4.643531 13.933946
Hg -23.221966 -7.739857 17.030272
Hg -26.318292 -4.643531 17.030272
Hg -26.318292 -7.739857 20.126598
Hg -23.221966 -4.643531 20.126598
Hg -23.221966 -7.739857 23.222924
Hg -23.221966 1.549121 -23.221966
Hg -23.221966 -1.547205 -20.125640
Hg -26.318292 1.549121 -20.125640
Hg -26.318292 -1.547205 -17.029314
Hg -23.221966 1.549121 -17.029314
Hg -23.221966 -1.547205 -13.932988
Hg -26.318292 1.549121 -13.932988
Hg -26.318292 -1.547205 -10.836662
Hg -23.221966 1.549121 -10.836662
Hg -23.221966 -1.547205 -7.740336
Hg -26.318292 1.549121 -7.740336
Hg -26.318292 -1.547205 -4.644010
Hg -23.221966 1.549121 -4.644010
Hg -23.221966 -1.547205 -1.547684
Hg -26.318292 1.549121 -1.547684
Hg -26.318292 -1.547205 1.548642
Hg -23.221966 1.549121 1.548642
Hg -23.221966 -1.547205 4.644968
Hg -26.318292 1.549121 4.644968
Hg -26.318292 -1.547205 7.741294
Hg -23.221966 1.549121 7.741294
Hg -23.221966 -1.547205 10.837620
Hg -26.318292 1.549121 10.837620
Hg -26.318292 -1.547205 13.933946
Hg -23.221966 1.549121 13.933946
Hg -23.221966 -1.547205 17.030272
Hg -26.318292 1.549121 17.030272
Hg -26.318292 -1.547205 20.126598
Hg -23.221966 1.549121 20.126598
Hg -23.221966 -1.547205 23.222924
Hg -23.221966 7.741773 -23.221966
Hg -23.221966 4.645447 -20.125640
Hg -26.318292 7.741773 -20.125640
Hg -26.318292 4.645447 -17.029314
Hg -23.221966 7.741773 -17.029314
Hg -23.221966 4.645447 -13.932988
Hg -26.318292 7.741773 -13.932988
Hg -26.318292 4.645447 -10.836662
Hg -23.221966 7.741773 -10.836662
Hg -23.221966 4.645447 -7.740336
Hg -26.318292 7.741773 -7.740336
Hg -26.318292 4.645447 -4.644010
Hg -23.221966 7.741773 -4.644010
Hg -23.221966 4.645447 -1.547684
Hg -26.318292 7.741773 -1.547684
Hg -26.318292 4.645447 1.548642
Hg -23.221966 7.741773 1.548642
Hg -23.221966 4.645447 4.644968
Hg -26.318292 7.741773 4.644968
Hg -26.318292 4.645447 7.741294
Hg -23.221966 7.741773 7.741294
Hg -23.221966 4.645447 10.837620
Hg -26.318292 7.741773 10.837620
Hg -26.318292 4.645447 13.933946
Hg -23.221966 7.741773 13.933946
Hg -23.221966 4.645447 17.030272
Hg -26.318292 7.741773 17.030272
Hg -26.318292 4.645447 20.126598
Hg -23.221966 7.741773 20.126598
Hg -23.221966 4.645447 23.222924
Hg -23.221966 10.838100 -20.125640
Hg -26.318292 10.838100 -17.029314
Hg -23.221966 13.934426 -17.029314
Hg -23.221966 10.838100 -13.932988
Hg -26.318292 13.934426 -13.932988
Hg -26.318292 10.838100 -10.836662
Hg -23.221966 13.934426 -10.836662
Hg -23.221966 10.838100 -7.740336
Hg -26.318292 13.934426 -7.740336
Hg -26.318292 10.838100 -4.644010
Hg -23.221966 13.934426 -4.644010
Hg -23.221966 10.838100 -1.547684
Hg -26.318292 13.934426 -1.547684
Hg -26.318292 10.838100 1.548642
Hg -23.221966 13.934426 1.548642
Hg -23.221966 10.838100 4.644968
Hg -26.318292 13.934426 4.644968
Hg -26.318292 10.838100 7.741294
Hg -23.221966 13.934426 7.741294
Hg -23.221966 10.838100 10.837620
Hg -26.318292 13.934426 10.837620
Hg -26.318292 10.838100 13.933946
Hg -23.221966 13.934426 13.933946
Hg -23.221966 10.838100 17.030272
Hg -26.318292 13.934426 17.030272
Hg -26.318292 10.838100 20.126598
Hg -23.221966 13.934426 20.126598
Hg -23.221966 10.838100 23.222924
Hg -23.221966 17.030752 -13.932988
Hg -26.318292 17.030752 -10.836662
Hg -23.221966 20.127078 -10.836662
Hg -23.221966 17.030752 -7.740336
Hg -26.318292 20.127078 -7.740336
Hg -26.318292 17.030752 -4.644010
Hg -23.221966 20.127078 -4.644010
Hg -23.221966 17.030752 -1.547684
Hg -26.318292 20.127078 -1.547684
Hg -26.318292 17.030752 1.548642
Hg -23.221966 20.127078 1.548642
Hg -23.221966 17.030752 4.644968
Hg -26.318292 20.127078 4.644968
Hg -26.318292 17.030752 7.741294
Hg -23.221966 20.127078 7.741294
Hg -23.221966 17.030752 10.837620
Hg -26.318292 20.127078 10.837620
Hg -26.318292 17.030752 13.933946
Hg -23.221966 20.127078 13.933946
Hg -23.221966 17.030752 17.030272
Hg -23.221966 23.223404 -7.740336
Hg -23.221966 23.223404 -1.547684
Hg -23.221966 23.223404 4.644968
Hg -23.221966 23.223404 10.837620
Hg -17.029314 -29.414139 -10.836662
Hg -17.029314 -29.414139 -4.644010
Hg -17.029314 -29.414139 1.548642
Hg -17.029314 -29.414139 7.741294
Hg -17.029314 -23.221487 -17.029314
Hg -17.029314 -26.317813 -13.932988
Hg -20.125640 -23.221487 -13.932988
Hg -20.125640 -26.317813 -10.836662
Hg -17.029314 -23.221487 -10.836662
Hg -17.029314 -26.317813 -7.740336
Hg -20.125640 -23.221487 -7.740336
Hg -20.125640 -26.317813 -4.644010
Hg -17.029314 -23.221487 -4.644010
Hg -17.029314 -26.317813 -1.547684
Hg -20.125640 -23.221487 -1.547684
Hg -20.125640 -26.317813 1.548642
Hg -17.029314 -23.221487 1.548642
Hg -17.029314 -26.317813 4.644968
Hg -20.125640 -23.221487 4.644968
Hg -20.125640 -26.317813 7.741294
Hg -17.029314 -23.221487 7.741294
Hg -17.029314 -26.317813 10.837620
Hg -20.125640 -23.221487 10.837620
Hg -17.029314 -23.221487 13.933946
Hg -17.029314 -17.028835 -23.221966
Hg -17.029314 -20.125161 -20.125640
Hg -20.125640 -17.028835 -20.125640
Hg -20.125640 -20.125161 -17.029314
Hg -17.029314 -17.028835 -17.029314
Hg -17.029314 -20.125161 -13.932988
Hg -20.125640 -17.028835 -13.932988
Hg -20.125640 -20.125161 -10.836662
Hg -17.029314 -17.028835 -10.836662
Hg -17.029314 -20.125161 -7.740336
Hg -20.125640 -17.028835 -7.740336
Hg -20.125640 -20.125161 -4.644010
Hg -17.029314 -17.028835 -4.644010
Hg -17.029314 -20.125161 -1.547684
Hg -20.125640 -17.028835 -1.547684
Hg -20.125640 -20.125161 1.548642
Hg -17.029314 -17.028835 1.548642
Hg -17.029314 -20.125161 4.644968
Hg -20.125640 -17.028835 4.644968
Hg -20.125640 -20.125161 7.741294
Hg -17.029314 -17.028835 7.741294
Hg -17.029314 -20.125161 10.837620
Hg -20.125640 -17.028835 10.837620
Hg -20.125640 -20.125161 13.933946
Hg -17.029314 -17.028835 13.933946
Hg -17.029314 -20.125161 17.030272
Hg -20.125640 -17.028835 17.030272
Hg -17.029314 -17.028835 20.126598
Hg -17.029314 -10.836183 -29.414618
Hg -17.029314 -13.932509 -26.318292
Hg -20.125640 -10.836183 -26.318292
Hg -20.125640 -13.932509 -23.221966
Hg -17.029314 -10.836183 -23.221966
Hg -17.029314 -13.932509 -20.125640
Hg -20.125640 -10.836183 -20.125640
Hg -20.125640 -13.932509 -17.029314
Hg -17.029314 -10.836183 -17.029314
Hg -17.029314 -13.932509 -13.932988
Hg -20.125640 -10.836183 -13.932988
Hg -20.125640 -13.932509 -10.836662
Hg -17.029314 -10.836183 -10.836662
Hg -17.029314 -13.932509 -7.740336
Hg -20.125640 -10.836183 -7.740336
Hg -20.125640 -13.932509 -4.644010
Hg -17.029314 -10.836183 -4.644010
Hg -17.029314 -13.932509 -1.547684
Hg -20.125640 -10.836183 -1.547684
Hg -20.125640 -13.932509 1.548642
Hg -17.029314 -10.836183 1.548642
Hg -17.029314 -13.932509 4.644968
Hg -20.125640 -10.836183 4.644968
Hg -20.125640 -13.932509 7.741294
Hg -17.029314 -10.836183 7.741294
Hg -17.029314 -13.932509 10.837620
Hg -20.125640 -10.836183 10.837620
Hg -20.125640 -13.932509 13.933946
Hg -17.029314 -10.836183 13.933946
Hg -17.029314 -13.932509 17.030272
Hg -20.125640 -10.836183 17.030272
Hg -20.125640 -13.932509 20.126598
Hg -17.029314 -10.836183 20.126598
Hg -17.029314 -13.932509 23.222924
Hg -20.125640 -10.836183 23.222924
Hg -17.029314 -10.836183 26.319250
Hg -17.029314 -4.643531 -29.414618
Hg -17.029314 -7.739857 -26.318292
Hg -20.125640 -4.643531 -26.318292
Hg -20.125640 -7.739857 -23.221966
Hg -17.029314 -4.643531 -23.221966
Hg -17.029314 -7.739857 -20.125640
Hg -20.125640 -4.643531 -20.125640
Hg -20.125640 -7.739857 -17.029314
Hg -17.029314 -4.643531 -17.029314
Hg -17.029314 -7.739857 -13.932988
Hg -20.125640 -4.643531 -13.932988
Hg -20.125640 -7.739857 -10.836662
Hg -17.029314 -4.643531 -10.836662
Hg -17.029314 -7.739857 -7.740336
Hg -20.125640 -4.643531 -7.740336
Hg -20.125640 -7.739857 -4.644010
Hg -17.029314 -4.643531 -4.644010
Hg -17.029314 -7.739857 -1.547684
Hg -20.125640 -4.643531 -1.547684
Hg -20.125640 -7.739857 1.548642
Hg -17.029314 -4.643531 1.548642
Hg -17.029314 -7.739857 4.644968
Hg -20.125640 -4.643531 4.644968
Hg -20.125640 -7.739857 7.741294
Hg -17.029314 -4.643531 7.741294
Hg -17.029314 -7.739857 10.837620
Hg -20.125640 -4.643531 10.837620
Hg -20.125640 -7.739857 13.933946
Hg -17.029314 -4.643531 13.933946
Hg -17.029314 -7.739857 17.030272
Hg -20.125640 -4.643531 17.030272
Hg -20.125640 -7.739857 20.126598
Hg -17.029314 -4.643531 20.126598
Hg -17.029314 -7.739857 23.222924
Hg -20.125640 -4.643531 23.222924
Hg -20.125640 -7.739857 26.319250
Hg -17.029314 -4.643531 26.319250
Hg -17.029314 -7.739857 29.415576
Hg -17.029314 1.549121 -29.414618
Hg -17.029314 -1.547205 -26.318292
Hg -20.125640 1.549121 -26.318292
Hg -20.125640 -1.547205 -23.221966
Hg -17.029314 1.549121 -23.221966
Hg -17.029314 -1.547205 -20.125640
Hg -20.125640 1.549121 -20.125640
Hg -20.125640 -1.547205 -17.029314
Hg -17.029314 1.549121 -17.029314
Hg -17.029314 -1.547205 -13.932988
Hg -20.125640 1.549121 -13.932988
Hg -20.125640 -1.547205 -10.836662
Hg -17.029314 1.549121 -10.836662
Hg -17.029314 -1.547205 -7.740336
Hg -20.125640 1.549121 -7.740336
Hg -20.125640 -1.547205 -4.644010
Hg -17.029314 1.549121 -4.644010
Hg -17.029314 -1.547205 -1.547684
Hg -20.125640 1.549121 -1.547684
Hg -20.125640 -1.547205 1.548642
Hg -17.029314 1.549121 1.548642
Hg -17.029314 -1.547205 4.644968
Hg -20.125640 1.549121 4.644968
Hg -20.125640 -1.547205 7.741294
Hg -17.029314 1.549121 7.741294
Hg -17.029314 -1.547205 10.837620
Hg -20.125640 1.549121 10.837620
Hg -20.125640 -1.547205 13.933946
Hg -17.029314 1.549121 13.933946
Hg -17.029314 -1.547205 17.030272
Hg -20.125640 1.549121 17.030272
Hg -20.125640 -1.547205 20.126598
Hg -17.029314 1.549121 20.126598
Hg -17.029314 -1.547205 23.222924
Hg -20.125640 1.549121 23.222924
Hg -20.125640 -1.547205 26.319250
Hg -17.029314 1.549121 26.319250
Hg -17.029314 -1.547205 29.415576
Hg -17.029314 7.741773 -29.414618
Hg -17.029314 4.645447 -26.318292
Hg -20.125640 7.741773 -26.318292
Hg -20.125640 4.645447 -23.221966
Hg -17.029314 7.741773 -23.221966
Hg -17.029314 4.645447 -20.125640
Hg -20.125640 7.741773 -20.125640
Hg -20.125640 4.645447 -17.029314
Hg -17.029314 7.741773 -17.029314
Hg -17.029314 4.645447 -13.932988
Hg -20.125640 7.741773 -13.932988
Hg -20.125640 4.645447 -10.836662
Hg -17.029314 7.741773 -10.836662
Hg -17.029314 4.645447 -7.740336
Hg -20.125640 7.741773 -7.740336
Hg -20.125640 4.645447 -4.644010
Hg -17.029314 7.741773 -4.644010
Hg -17.029314 4.645447 -1.547684
Hg -20.125640 7.741773 -1.547684
Hg -20.125640 4.645447 1.548642
Hg -17.029314 7.741773 1.548642
Hg -17.029314 4.645447 4.644968
Hg -20.125640 7.741773 4.644968
Hg -20.125640 4.645447 7.741294
Hg -17.029314 7.741773 7.741294
Hg -17.029314 4.645447 10.837620
Hg -20.125640 7.741773 10.837620
Hg -20.125640 4.645447 13.933946
Hg -17.029314 7.741773 13.933946
Hg -17.029314 4.645447 17.030272
Hg -20.125640 7.741773 17.030272
Hg -20.125640 4.645447 20.126598
Hg -17.029314 7.741773 20.126598
Hg -17.029314 4.645447 23.222924
Hg -20.125640 7.741773 23.222924
Hg -20.125640 4.645447 26.319250
Hg -17.029314 7.741773 26.319250
Hg -17.029314 4.645447 29.415576
Hg -17.029314 10.838100 -26.318292
Hg -20.125640 10.838100 -23.221966
Hg -17.029314 13.934426 -23.221966
Hg -17.029314 10.838100 -20.125640
Hg -20.125640 13.934426 -20.125640
Hg -20.125640 10.838100 -17.029314
Hg -17.029314 13.934426 -17.029314
Hg -17.029314 10.838100 -13.932988
Hg -20.125640 13.934426 -13.932988
Hg -20.125640 10.838100 -10.836662
Hg -17.029314 13.934426 -10.836662
Hg -17.029314 10.838100 -7.740336
Hg -20.125640 13.934426 -7.740336
Hg -20.125640 10.838100 -4.644010
Hg -17.029314 13.934426 -4.644010
Hg -17.029314 10.838100 -1.547684
Hg -20.125640 13.934426 -1.547684
Hg -20.125640 10.838100 1.548642
Hg -17.029314 13.934426 1.548642
Hg -17.029314 10.838100 4.644968
Hg -20.125640 13.934426 4.644968
Hg -20.125640 10.838100 7.741294
Hg -17.029314 13.934426 7.741294
Hg -17.029314 10.838100 10.837620
Hg -20.125640 13.934426 10.837620
Hg -20.125640 10.838100 13.933946
Hg -17.029314 13.934426 13.933946
Hg -17.029314 10.838100 17.030272
Hg -20.125640 13.934426 17.030272
Hg -20.125640 10.838100 20.126598
Hg -17.029314 13.934426 20.126598
Hg -17.029314 10.838100 23.222924
Hg -20.125640 13.934426 23.222924
Hg -20.125640 10.838100 26.319250
Hg -17.029314 13.934426 26.319250
Hg -17.029314 10.838100 29.415576
Hg -17.029314 17.030752 -20.125640
Hg -20.125640 17.030752 -17.029314
Hg -17.029314 20.127078 -17.029314
Hg -17.029314 17.030752 -13.932988
Hg -20.125640 20.127078 -13.932988
Hg -20.125640 17.030752 -10.836662
Hg -17.029314 20.127078 -10.836662
Hg -17.029314 17.030752 -7.740336
Hg -20.125640 20.127078 -7.740336
Hg -20.125640 17.030752 -4.644010
Hg -17.029314 20.127078 -4.644010
Hg -17.029314 17.030752 -1.547684
Hg -20.125640 20.127078 -1.547684
Hg -20.125640 17.030752 1.548642
Hg -17.029314 20.127078 1.548642
Hg -17.029314 17.030752 4.644968
Hg -20.125640 20.127078 4.644968
Hg -20.125640 17.030752 7.741294
Hg -17.029314 20.127078 7.741294
Hg -17.029314 17.030752 10.837620
Hg -20.125640 20.127078 10.837620
Hg -20.125640 17.030752 13.933946
Hg -17.029314 20.127078 13.933946
Hg -17.029314 17.030752 17.030272
Hg -20.125640 20.127078 17.030272
Hg -20.125640 17.030752 20.126598
Hg -17.029314 20.127078 20.126598
Hg -17.029314 17.030752 23.222924
Hg -17.029314 23.223404 -13.932988
Hg -20.125640 23.223404 -10.836662
Hg -17.029314 26.319730 -10.836662
Hg -17.029314 23.223404 -7.740336
Hg -20.125640 26.319730 -7.740336
Hg -20.125640 23.223404 -4.644010
Hg -17.029314 26.319730 -4.644010
Hg -17.029314 23.223404 -1.547684
Hg -20.125640 26.319730 -1.547684
Hg -20.125640 23.223404 1.548642
Hg -17.029314 26.319730 1.548642
Hg -17.029314 23.223404 4.644968
Hg -20.125640 26.319730 4.644968
Hg -20.125640 23.223404 7.741294
Hg -17.029314 26.319730 7.741294
Hg -17.029314 23.223404 10.837620
Hg -20.125640 26.319730 10.837620
Hg -20.125640 23.223404 13.933946
Hg -17.029314 26.319730 13.933946
Hg -17.029314 23.223404 17.030272
Hg -17.029314 29.416056 -7.740336
Hg -17.029314 29.416056 -1.547684
Hg -17.029314 29.416056 4.644968
Hg -17.029314 29.416056 10.837620
Hg -10.836662 -29.414139 -17.029314
Hg -10.836662 -32.510465 -13.932988
Hg -13.932988 -29.414139 -13.932988
Hg -13.932988 -32.510465 -10.836662
Hg -10.836662 -29.414139 -10.836662
Hg -10.836662 -32.510465 -7.740336
Hg -13.932988 -29.414139 -7.740336
Hg -13.932988 -32.510465 -4.644010
Hg -10.836662 -29.414139 -4.644010
Hg -10.836662 -32.510465 -1.547684
Hg -13.932988 -29.414139 -1.547684
Hg -13.932988 -32.510465 1.548642
Hg -10.836662 -29.414139 1.548642
Hg -10.836662 -32.510465 4.644968
Hg -13.932988 -29.414139 4.644968
Hg -13.932988 -32.510465 7.741294
Hg -10.836662 -29.414139 7.741294
Hg -10.836662 -32.510465 10.837620
Hg -13.932988 -29.414139 10.837620
Hg -10.836662 -29.414139 13.933946
Hg -10.836662 -23.221487 -23.221966
Hg -10.836662 -26.317813 -20.125640
Hg -13.932988 -23.221487 -20.125640
Hg -13.932988 -26.317813 -17.029314
Hg -10.836662 -23.221487 -17.029314
Hg -10.836662 -26.317813 -13.932988
Hg -13.932988 -23.221487 -13.932988
Hg -13.932988 -26.317813 -10.836662
Hg -10.836662 -23.221487 -10.836662
Hg -10.836662 -26.317813 -7.740336
Hg -13.932988 -23.221487 -7.740336
Hg -13.932988 -26.317813 -4.644010
Hg -10.836662 -23.221487 -4.644010
Hg -10.836662 -26.317813 -1.547684
Hg -13.932988 -23.221487 -1.547684
Hg -13.932988 -26.317813 1.548642
Hg -10.836662 -23.221487 1.548642
Hg -10.836662 -26.317813 4.644968
Hg -13.932988 -23.221487 4.644968
Hg -13.932988 -26.317813 7.741294
Hg -10.836662 -23.221487 7.741294
Hg -10.836662 -26.317813 10.837620
Hg -13.932988 -23.221487 10.837620
Hg -13.932988 -26.317813 13.933946
Hg -10.836662 -23.221487 13.933946
Hg -10.836662 -26.317813 17.030272
Hg -13.932988 -23.221487 17.030272
Hg -10.836662 -23.221487 20.126598
Hg -10.836662 -17.028835 -29.414618
Hg -10.836662 -20.125161 -26.318292
Hg -13.932988 -17.028835 -26.318292
Hg -13.932988 -20.125161 -23.221966
Hg -10.836662 -17.028835 -23.221966
Hg -10.836662 -20.125161 -20.125640
Hg -13.932988 -17.028835 -20.125640
Hg -13.932988 -20.125161 -17.029314
Hg -10.836662 -17.028835 -17.029314
Hg -10.836662 -20.125161 -13.932988
Hg -13.932988 -17.028835 -13.932988
Hg -13.932988 -20.125161 -10.836662
Hg -10.836662 -17.028835 -10.836662
Hg -10.836662 -20.125161 -7.740336
Hg -13.932988 -17.028835 -7.740336
Hg -13.932988 -20.125161 -4.644010
Hg -10.836662 -17.028835 -4.644010
Hg -10.836662 -20.125161 -1.547684
Hg -13.932988 -17.028835 -1.547684
Hg -13.932988 -20.125161 1.548642
Hg -10.836662 -17.028835 1.548642
Hg -10.836662 -20.125161 4.644968
Hg -13.932988 -17.028835 4.644968
Hg -13.932988 -20.125161 7.741294
Hg -10.836662 -17.028835 7.741294
Hg -10.836662 -20.125161 10.837620
Hg -13.932988 -17.028835 10.837620
Hg -13.932988 -20.125161 13.933946
Hg -10.836662 -17.028835 13.933946
Hg -10.836662 -20.125161 17.030272
Hg -13.932988 -17.028835 17.030272
Hg -13.932988 -20.125161 20.126598
Hg -10.836662 -17.028835 20.126598
Hg -10.836662 -20.125161 23.222924
Hg -13.932988 -17.028835 23.222924
Hg -10.836662 -17.028835 26.319250
Hg -10.836662 -13.932509 -32.510944
Hg -13.932988 -10.836183 -32.510944
Hg -13.932988 -13.932509 -29.414618
Hg -10.836662 -10.836183 -29.414618
Hg -10.836662 -13.932509 -26.318292
Hg -13.932988 -10.836183 -26.318292
Hg -13.932988 -13.932509 -23.221966
Hg -10.836662 -10.836183 -23.221966
Hg -10.836662 -13.932509 -20.125640
Hg -13.932988 -10.836183 -20.125640
Hg -13.932988 -13.932509 -17.029314
Hg -10.836662 -10.836183 -17.029314
Hg -10.836662 -13.932509 -13.932988
Hg -13.932988 -10.836183 -13.932988
Hg -13.932988 -13.932509 -10.836662
Hg -10.836662 -10.836183 -10.836662
Hg -10.836662 -13.932509 -7.740336
Hg -13.932988 -10.836183 -7.740336
Hg -13.932988 -13.932509 -4.644010
Hg -10.836662 -10.836183 -4.644010
Hg -10.836662 -13.932509 -1.547684
Hg -13.932988 -10.836183 -1.547684
Hg -13.932988 -13.932509 1.548642
Hg -10.836662 -10.836183 1.548642
Hg -10.836662 -13.932509 4.644968
Hg -13.932988 -10.836183 4.644968
Hg -13.932988 -13.932509 7.741294
Hg -10.836662 -10.836183 7.741294
Hg -10.836662 -13.932509 10.837620
Hg -13.932988 -10.836183 10.837620
Hg -13.932988 -13.932509 13.933946
Hg -10.836662 -10.836183 13.933946
Hg -10.836662 -13.932509 17.030272
Hg -13.932988 -10.836183 17.030272
Hg -13.932988 -13.932509 20.126598
Hg -10.836662 -10.836183 20.126598
Hg -10.836662 -13.932509 23.222924
Hg -13.932988 -10.836183 23.222924
Hg -13.932988 -13.932509 26.319250
Hg -10.836662 -10.836183 26.319250
Hg -10.836662 -13.932509 29.415576
Hg -13.932988 -10.836183 29.415576
Hg -10.836662 -10.836183 32.511902
Hg -10.836662 -7.739857 -32.510944
Hg -13.932988 -4.643531 -32.510944
Hg -13.932988 -7.739857 -29.414618
Hg -10.836662 -4.643531 -29.414618
Hg -10.836662 -7.739857 -26.318292
Hg -13.932988 -4.643531 -26.318292
Hg -13.932988 -7.739857 -23.221966
Hg -10.836662 -4.643531 -23.221966
Hg -10.836662 -7.739857 -20.125640
Hg -13.932988 -4.643531 -20.125640
Hg -13.932988 -7.739857 -17.029314
Hg -10.836662 -4.643531 -17.029314
Hg -10.836662 -7.739857 -13.932988
Hg -13.932988 -4.643531 -13.932988
Hg -13.932988 -7.739857 -10.836662
Hg -10.836662 -4.643531 -10.836662
Hg -10.836662 -7.739857 -7.740336
Hg -13.932988 -4.643531 -7.740336
Hg -13.932988 -7.739857 -4.644010
Hg -10.836662 -4.643531 -4.644010
Hg -10.836662 -7.739857 -1.547684
Hg -13.932988 -4.643531 -1.547684
Hg -13.932988 -7.739857 1.548642
Hg -10.836662 -4.643531 1.548642
Hg -10.836662 -7.739857 4.644968
Hg -13.932988 -4.643531 4.644968
Hg -13.932988 -7.739857 7.741294
Hg -10.836662 -4.643531 7.741294
Hg -10.836662 -7.739857 10.837620
Hg -13.932988 -4.643531 10.837620
Hg -13.932988 -7.739857 13.933946
Hg -10.836662 -4.643531 13.933946
Hg -10.836662 -7.739857 17.030272
Hg -13.932988 -4.643531 17.030272
Hg -13.932988 -7.739857 20.126598
Hg -10.836662 -4.643531 20.126598
Hg -10.836662 -7.739857 23.222924
Hg -13.932988 -4.643531 23.222924
Hg -13.932988 -7.739857 26.319250
Hg -10.836662 -4.643531 26.319250
Hg -10.836662 -7.739857 29.415576
Hg -13.932988 -4.643531 29.415576
Hg -13.932988 -7.739857 32.511902
Hg -10.836662 -4.643531 32.511902
Hg -10.836662 -1.547205 -32.510944
Hg -13.932988 1.549121 -32.510944
Hg -13.932988 -1.547205 -29.414618
Hg -10.836662 1.549121 -29.414618
Hg -10.836662 -1.547205 -26.318292
Hg -13.932988 1.549121 -26.318292
Hg -13.932988 -1.547205 -23.221966
Hg -10.836662 1.549121 -23.221966
Hg -10.836662 -1.547205 -20.125640
Hg -13.932988 1.549121 -20.125640
Hg -13.932988 -1.547205 -17.029314
Hg -10.836662 1.549121 -17.029314
Hg -10.836662 -1.547205 -13.932988
Hg -13.932988 1.549121 -13.932988
Hg -13.932988 -1.547205 -10.836662
Hg -10.836662 1.549121 -10.836662
Hg -10.836662 -1.547205 -7.740336
Hg -13.932988 1.549121 -7.740336
Hg -13.932988 -1.547205 -4.644010
Hg -10.836662 1.549121 -4.644010
Hg -10.836662 -1.547205 -1.547684
Hg -13.932988 1.549121 -1.547684
Hg -13.932988 -1.547205 1.548642
Hg -10.836662 1.549121 1.548642
Hg -10.836662 -1.547205 4.644968
Hg -13.932988 1.549121 4.644968
Hg -13.932988 -1.547205 7.741294
Hg -10.836662 1.549121 7.741294
Hg -10.836662 -1.547205 10.837620
Hg -13.932988 1.549121 10.837620
Hg -13.932988 -1.547205 13.933946
Hg -10.836662 1.549121 13.933946
Hg -10.836662 -1.547205 17.030272
Hg -13.932988 1.549121 17.030272
Hg -13.932988 -1.547205 20.126598
Hg -10.836662 1.549121 20.126598
Hg -10.836662 -1.547205 23.222924
Hg -13.932988 1.549121 23.222924
Hg -13.932988 -1.547205 26.319250
Hg -10.836662 1.549121 26.319250
Hg -10.836662 -1.547205 29.415576
Hg -13.932988 1.549121 29.415576
Hg -13.932988 -1.547205 32.511902
Hg -10.836662 1.549121 32.511902
Hg -10.836662 4.645447 -32.510944
Hg -13.932988 7.741773 -32.510944
Hg -13.932988 4.645447 -29.414618
Hg -10.836662 7.741773 -29.414618
Hg -10.836662 4.645447 -26.318292
Hg -13.932988 7.741773 -26.318292
Hg -13.932988 4.645447 -23.221966
Hg -10.836662 7.741773 -23.221966
Hg -10.836662 4.645447 -20.125640
Hg -13.932988 7.741773 -20.125640
Hg -13.932988 4.645447 -17.029314
Hg -10.836662 7.741773 -17.029314
Hg -10.836662 4.645447 -13.932988
Hg -13.932988 7.741773 -13.932988
Hg -13.932988 4.645447 -10.836662
Hg -10.836662 7.741773 -10.836662
Hg -10.836662 4.645447 -7.740336
Hg -13.932988 7.741773 -7.740336
Hg -13.932988 4.645447 -4.644010
Hg -10.836662 7.741773 -4.644010
Hg -10.836662 4.645447 -1.547684
Hg -13.932988 7.741773 -1.547684
Hg -13.932988 4.645447 1.548642
Hg -10.836662 7.741773 1.548642
Hg -10.836662 4.645447 4.644968
Hg -13.932988 7.741773 4.644968
Hg -13.932988 4.645447 7.741294
Hg -10.836662 7.741773 7.741294
Hg -10.836662 4.645447 10.837620
Hg -13.932988 7.741773 10.837620
Hg -13.932988 4.645447 13.933946
Hg -10.836662 7.741773 13.933946
Hg -10.836662 4.645447 17.030272
Hg -13.932988 7.741773 17.030272
Hg -13.932988 4.645447 20.126598
Hg -10.836662 7.741773 20.126598
Hg -10.836662 4.645447 23.222924
Hg -13.932988 7.741773 23.222924
Hg -13.932988 4.645447 26.319250
Hg -10.836662 7.741773 26.319250
Hg -10.836662 4.645447 29.415576
Hg -13.932988 7.741773 29.415576
Hg -13.932988 4.645447 32.511902
Hg -10.836662 7.741773 32.511902
Hg -10.836662 10.838100 -32.510944
Hg -13.932988 10.838100 -29.414618
Hg -10.836662 13.934426 -29.414618
Hg -10.836662 10.838100 -26.318292
Hg -13.932988 13.934426 -26.318292
Hg -13.932988 10.838100 -23.221966
Hg -10.836662 13.934426 -23.221966
Hg -10.836662 10.838100 -20.125640
Hg -13.932988 13.934426 -20.125640
Hg -13.932988 10.838100 -17.029314
Hg -10.836662 13.934426 -17.029314
Hg -10.836662 10.838100 -13.932988
Hg -13.932988 13.934426 -13.932988
Hg -13.932988 10.838100 -10.836662
Hg -10.836662 13.934426 -10.836662
Hg -10.836662 10.838100 -7.740336
Hg -13.932988 13.934426 -7.740336
Hg -13.932988 10.838100 -4.644010
Hg -10.836662 13.934426 -4.644010
Hg -10.836662 10.838100 -1.547684
Hg -13.932988 13.934426 -1.547684
Hg -13.932988 10.838100 1.548642
Hg -10.836662 13.934426 1.548642
Hg -10.836662 10.838100 4.644968
Hg -13.932988 13.934426 4.644968
Hg -13.932988 10.838100 7.741294
Hg -10.836662 13.934426 7.741294
Hg -10.836662 10.838100 10.837620
Hg -13.932988 13.934426 10.837620
Hg -13.932988 10.838100 13.933946
Hg -10.836662 13.934426 13.933946
Hg -10.836662 10.838100 17.030272
Hg -13.932988 13.934426 17.030272
Hg -13.932988 10.838100 20.126598
Hg -10.836662 13.934426 20.126598
Hg -10.836662 10.838100 23.222924
Hg -13.932988 13.934426 23.222924
Hg -13.932988 10.838100 26.319250
Hg -10.836662 13.934426 26.319250
Hg -10.836662 10.838100 29.415576
Hg -13.932988 13.934426 29.415576
Hg -13.932988 10.838100 32.511902
Hg -10.836662 13.934426 32.511902
Hg -10.836662 17.030752 -26.318292
Hg -13.932988 17.030752 -23.221966
Hg -10.836662 20.127078 -23.221966
Hg -10.836662 17.030752 -20.125640
Hg -13.932988 20.127078 -20.125640
Hg -13.932988 17.030752 -17.029314
Hg -10.836662 20.127078 -17.029314
Hg -10.836662 17.030752 -13.932988
Hg -13.932988 20.127078 -13.932988
Hg -13.932988 17.030752 -10.836662
Hg -10.836662 20.127078 -10.836662
Hg -10.836662 17.030752 -7.740336
Hg -13.932988 20.127078 -7.740336
Hg -13.932988 17.030752 -4.644010
Hg -10.836662 20.127078 -4.644010
Hg -10.836662 17.030752 -1.547684
Hg -13.932988 20.127078 -1.547684
Hg -13.932988 17.030752 1.548642
Hg -10.836662 20.127078 1.548642
Hg -10.836662 17.030752 4.644968
Hg -13.932988 20.127078 4.644968
Hg -13.932988 17.030752 7.741294
Hg -10.836662 20.127078 7.741294
Hg -10.836662 17.030752 10.837620
Hg -13.932988 20.127078 10.837620
Hg -13.932988 17.030752 13.933946
Hg -10.836662 20.127078 13.933946
Hg -10.836662 17.030752 17.030272
Hg -13.932988 20.127078 17.030272
Hg -13.932988 17.030752 20.126598
Hg -10.836662 20.127078 20.126598
Hg -10.836662 17.030752 23.222924
Hg -13.932988 20.127078 23.222924
Hg -13.932988 17.030752 26.319250
Hg -10.836662 20.127078 26.319250
Hg -10.836662 17.030752 29.415576
Hg -10.836662 23.223404 -20.125640
Hg -13.932988 23.223404 -17.029314
Hg -10.836662 26.319730 -17.029314
Hg -10.836662 23.223404 -13.932988
Hg -13.932988 26.319730 -13.932988
Hg -13.932988 23.223404 -10.836662
Hg -10.836662 26.319730 -10.836662
Hg -10.836662 23.223404 -7.740336
Hg -13.932988 26.319730 -7.740336
Hg -13.932988 23.223404 -4.644010
Hg -10.836662 26.319730 -4.644010
Hg -10.836662 23.223404 -1.547684
Hg -13.932988 26.319730 -1.547684
Hg -13.932988 23.223404 1.548642
Hg -10.836662 26.319730 1.548642
Hg -10.836662 23.223404 4.644968
Hg -13.932988 26.319730 4.644968
Hg -13.932988 23.223404 7.741294
Hg -10.836662 26.319730 7.741294
Hg -10.836662 23.223404 10.837620
Hg -13.932988 26.319730 10.837620
Hg -13.932988 23.223404 13.933946
Hg -10.836662 26.319730 13.933946
Hg -10.836662 23.223404 17.030272
Hg -13.932988 26.319730 17.030272
Hg -13.932988 23.223404 20.126598
Hg -10.836662 26.319730 20.126598
Hg -10.836662 23.223404 23.222924
Hg -10.836662 29.416056 -13.932988
Hg -13.932988 29.416056 -10.836662
Hg -10.836662 32.512382 -10.836662
Hg -10.836662 29.416056 -7.740336
Hg -13.932988 32.512382 -7.740336
Hg -13.932988 29.416056 -4.644010
Hg -10.836662 32.512382 -4.644010
Hg -10.836662 29.416056 -1.547684
Hg -13.932988 32.512382 -1.547684
Hg -13.932988 29.416056 1.548642
Hg -10.836662 32.512382 1.548642
Hg -10.836662 29.416056 4.644968
Hg -13.932988 32.512382 4.644968
Hg -13.932988 29.416056 7.741294
Hg -10.836662 32.512382 7.741294
Hg -10.836662 29.416056 10.837620
Hg -13.932988 32.512382 10.837620
Hg -13.932988 29.416056 13.933946
Hg -10.836662 32.512382 13.933946
Hg -10.836662 29.416056 17.030272
Hg -4.644010 -29.414139 -17.029314
Hg -4.644010 -32.510465 -13.932988
Hg -7.740336 -29.414139 -13.932988
Hg -7.740336 -32.510465 -10.836662
Hg -4.644010 -29.414139 -10.836662
Hg -4.644010 -32.510465 -7.740336
Hg -7.740336 -29.414139 -7.740336
Hg -7.740336 -32.510465 -4.644010
Hg -4.644010 -29.414139 -4.644010
Hg -4.644010 -32.510465 -1.547684
Hg -7.740336 -29.414139 -1.547684
Hg -7.740336 -32.510465 1.548642
Hg -4.644010 -29.414139 1.548642
Hg -4.644010 -32.510465 4.644968
Hg -7.740336 -29.414139 4.644968
Hg -7.740336 -32.510465 7.741294
Hg -4.644010 -29.414139 7.741294
Hg -4.644010 -32.510465 10.837620
Hg -7.740336 -29.414139 10.837620
Hg -7.740336 -32.510465 13.933946
Hg -4.644010 -29.414139 13.933946
Hg -7.740336 -29.414139 17.030272
Hg -4.644010 -23.221487 -23.221966
Hg -4.644010 -26.317813 -20.125640
Hg -7.740336 -23.221487 -20.125640
Hg -7.740336 -26.317813 -17.029314
Hg -4.644010 -23.221487 -17.029314
Hg -4.644010 -26.317813 -13.932988
Hg -7.740336 -23.221487 -13.932988
Hg -7.740336 -26.317813 -10.836662
Hg -4.644010 -23.221487 -10.836662
Hg -4.644010 -26.317813 -7.740336
Hg -7.740336 -23.221487 -7.740336
Hg -7.740336 -26.317813 -4.644010
Hg -4.644010 -23.221487 -4.644010
Hg -4.644010 -26.317813 -1.547684
Hg -7.740336 -23.221487 -1.547684
Hg -7.740336 -26.317813 1.548642
Hg -4.644010 -23.221487 1.548642
Hg -4.644010 -26.317813 4.644968
Hg -7.740336 -23.221487 4.644968
Hg -7.740336 -26.317813 7.741294
Hg -4.644010 -23.221487 7.741294
Hg -4.644010 -26.317813 10.837620
Hg -7.740336 -23.221487 10.837620
Hg -7.740336 -26.317813 13.933946
Hg -4.644010 -23.221487 13.933946
Hg -4.644010 -26.317813 17.030272
Hg -7.740336 -23.221487 17.030272
Hg -7.740336 -26.317813 20.126598
Hg -4.644010 -23.221487 20.126598
Hg -7.740336 -23.221487 23.222924
Hg -4.644010 -17.028835 -29.414618
Hg -4.644010 -20.125161 -26.318292
Hg -7.740336 -17.028835 -26.318292
Hg -7.740336 -20.125161 -23.221966
Hg -4.644010 -17.028835 -23.221966
Hg -4.644010 -20.125161 -20.125640
Hg -7.740336 -17.028835 -20.125640
Hg -7.740336 -20.125161 -17.029314
Hg -4.644010 -17.028835 -17.029314
Hg -4.644010 -20.125161 -13.932988
Hg -7.740336 -17.028835 -13.932988
Hg -7.740336 -20.125161 -10.836662
Hg -4.644010 -17.028835 -10.836662
Hg -4.644010 -20.125161 -7.740336
Hg -7.740336 -17.028835 -7.740336
Hg -7.740336 -20.125161 -4.644010
Hg -4.644010 -17.028835 -4.644010
Hg -4.644010 -20.125161 -1.547684
Hg -7.740336 -17.028835 -1.547684
Hg -7.740336 -20.125161 1.548642
Hg -4.644010 -17.028835 1.548642
Hg -4.644010 -20.125161 4.644968
Hg -7.740336 -17.028835 4.644968
Hg -7.740336 -20.125161 7.741294
Hg -4.644010 -17.028835 7.741294
Hg -4.644010 -20.125161 10.837620
Hg -7.740336 -17.028835 10.837620
Hg -7.740336 -20.125161 13.933946
Hg -4.644010 -17.028835 13.933946
Hg -4.644010 -20.125161 17.030272
Hg -7.740336 -17.028835 17.030272
Hg -7.740336 -20.125161 20.126598
Hg -4.644010 -17.028835 20.126598
Hg -4.644010 -20.125161 23.222924
Hg -7.740336 -17.028835 23.222924
Hg -7.740336 -20.125161 26.319250
Hg -4.644010 -17.028835 26.319250
Hg -7.740336 -17.028835 29.415576
Hg -4.644010 -13.932509 -32.510944
Hg -7.740336 -10.836183 -32.510944
Hg -7.740336 -13.932509 -29.414618
Hg -4.644010 -10.836183 -29.414618
Hg -4.644010 -13.932509 -26.318292
Hg -7.740336 -10.836183 -26.318292
Hg -7.740336 -13.932509 -23.221966
Hg -4.644010 -10.836183 -23.221966
Hg -4.644010 -13.932509 -20.125640
Hg -7.740336 -10.836183 -20.125640
Hg -7.740336 -13.932509 -17.029314
Hg -4.644010 -10.836183 -17.029314
Hg -4.644010 -13.932509 -13.932988
Hg -7.740336 -10.836183 -13.932988
Hg -7.740336 -13.932509 -10.836662
Hg -4.644010 -10.836183 -10.836662
Hg -4.644010 -13.932509 -7.740336
Hg -7.740336 -10.836183 -7.740336
Hg -7.740336 -13.932509 -4.644010
Hg -4.644010 -10.836183 -4.644010
Hg -4.644010 -13.932509 -1.547684
Hg -7.740336 -10.836183 -1.547684
Hg -7.740336 -13.932509 1.548642
Hg -4.644010 -10.836183 1.548642
Hg -4.644010 -13.932509 4.644968
Hg -7.740336 -10.836183 4.644968
Hg -7.740336 -13.932509 7.741294
Hg -4.644010 -10.836183 7.741294
Hg -4.644010 -13.932509 10.837620
Hg -7.740336 -10.836183 10.837620
Hg -7.740336 -13.932509 13.933946
Hg -4.644010 -10.836183 13.933946
Hg -4.644010 -13.932509 17.030272
Hg -7.740336 -10.836183 17.030272
Hg -7.740336 -13.932509 20.126598
Hg -4.644010 -10.836183 20.126598
Hg -4.644010 -13.932509 23.222924
Hg -7.740336 -10.836183 23.222924
Hg -7.740336 -13.932509 26.319250
Hg -4.644010 -10.836183 26.319250
Hg -4.644010 -13.932509 29.415576
Hg -7.740336 -10.836183 29.415576
Hg -7.740336 -13.932509 32.511902
Hg -4.644010 -10.836183 32.511902
Hg -4.644010 -7.739857 -32.510944
Hg -7.740336 -4.643531 -32.510944
Hg -7.740336 -7.739857 -29.414618
Hg -4.644010 -4.643531 -29.414618
Hg -4.644010 -7.739857 -26.318292
Hg -7.740336 -4.643531 -26.318292
Hg -7.740336 -7.739857 -23.221966
Hg -4.644010 -4.643531 -23.221966
Hg -4.644010 -7.739857 -20.125640
Hg -7.740336 -4.643531 -20.125640
Hg -7.740336 -7.739857 -17.029314
Hg -4.644010 -4.643531 -17.029314
Hg -4.644010 -7.739857 -13.932988
Hg -7.740336 -4.643531 -13.932988
Hg -7.740336 -7.739857 -10.836662
Hg -4.644010 -4.643531 -10.836662
Hg -4.644010 -7.739857 -7.740336
Hg -7.740336 -4.643531 -7.740336
Hg -7.740336 -7.739857 -4.644010
Hg -4.644010 -4.643531 -4.644010
Hg -4.644010 -7.739857 -1.547684
Hg -7.740336 -4.643531 -1.547684
Hg -7.740336 -7.739857 1.548642
Hg -4.644010 -4.643531 1.548642
Hg -4.644010 -7.739857 4.644968
Hg -7.740336 -4.643531 4.644968
Hg -7.740336 -7.739857 7.741294
Hg -4.644010 -4.643531 7.741294
Hg -4.644010 -7.739857 10.837620
Hg -7.740336 -4.643531 10.837620
Hg -7.740336 -7.739857 13.933946
Hg -4.644010 -4.643531 13.933946
Hg -4.644010 -7.739857 17.030272
Hg -7.740336 -4.643531 17.030272
Hg -7.740336 -7.739857 20.126598
Hg -4.644010 -4.643531 20.126598
Hg -4.644010 -7.739857 23.222924
Hg -7.740336 -4.643531 23.222924
Hg -7.740336 -7.739857 26.319250
Hg -4.644010 -4.643531 26.319250
Hg -4.644010 -7.739857 29.415576
Hg -7.740336 -4.643531 29.415576
Hg -7.740336 -7.739857 32.511902
Hg -4.644010 -4.643531 32.511902
Hg -4.644010 -1.547205 -32.510944
Hg -7.740336 1.549121 -32.510944
Hg -7.740336 -1.547205 -29.414618
Hg -4.644010 1.549121 -29.414618
Hg -4.644010 -1.547205 -26.318292
Hg -7.740336 1.549121 -26.318292
Hg -7.740336 -1.547205 -23.221966
Hg -4.644010 1.549121 -23.221966
Hg -4.644010 -1.547205 -20.125640
Hg -7.740336 1.549121 -20.125640
Hg -7.740336 -1.547205 -17.029314
Hg -4.644010 1.549121 -17.029314
Hg -4.644010 -1.547205 -13.932988
Hg -7.740336 1.549121 -13.932988
Hg -7.740336 -1.547205 -10.836662
Hg -4.644010 1.549121 -10.836662
Hg -4.644010 -1.547205 -7.740336
Hg -7.740336 1.549121 -7.740336
Hg -7.740336 -1.547205 -4.644010
Hg -4.644010 1.549121 -4.644010
Hg -4.644010 -1.547205 -1.547684
Hg -7.740336 1.549121 -1.547684
Hg -7.740336 -1.547205 1.548642
Hg -4.644010 1.549121 1.548642
Hg -4.644010 -1.547205 4.644968
Hg -7.740336 1.549121 4.644968
Hg -7.740336 -1.547205 7.741294
Hg -4.644010 1.549121 7.741294
Hg -4.644010 -1.547205 10.837620
Hg -7.740336 1.549121 10.837620
Hg -7.740336 -1.547205 13.933946
Hg -4.644010 1.549121 13.933946
Hg -4.644010 -1.547205 17.030272
Hg -7.740336 1.549121 17.030272
Hg -7.740336 -1.547205 20.126598
Hg -4.644010 1.549121 20.126598
Hg -4.644010 -1.547205 23.222924
Hg -7.740336 1.549121 23.222924
Hg -7.740336 -1.547205 26.319250
Hg -4.644010 1.549121 26.319250
Hg -4.644010 -1.547205 29.415576
Hg -7.740336 1.549121 29.415576
Hg -7.740336 -1.547205 32.511902
Hg -4.644010 1.549121 32.511902
Hg -4.644010 4.645447 -32.510944
Hg -7.740336 7.741773 -32.510944
Hg -7.740336 4.645447 -29.414618
Hg -4.644010 7.741773 -29.414618
Hg -4.644010 4.645447 -26.318292
Hg -7.740336 7.741773 -26.318292
Hg -7.740336 4.645447 -23.221966
Hg -4.644010 7.741773 -23.221966
Hg -4.644010 4.645447 -20.125640
Hg -7.740336 7.741773 -20.125640
Hg -7.740336 4.645447 -17.029314
Hg -4.644010 7.741773 -17.029314
Hg -4.644010 4.645447 -13.932988
Hg -7.740336 7.741773 -13.932988
Hg -7.740336 4.645447 -10.836662
Hg -4.644010 7.741773 -10.836662
Hg -4.644010 4.645447 -7.740336
Hg -7.740336 7.741773 -7.740336
Hg -7.740336 4.645447 -4.644010
Hg -4.644010 7.741773 -4.644010
Hg -4.644010 4.645447 -1.547684
Hg -7.740336 7.741773 -1.547684
Hg -7.740336 4.645447 1.548642
Hg -4.644010 7.741773 1.548642
Hg -4.644010 4.645447 4.644968
Hg -7.740336 7.741773 4.644968
Hg -7.740336 4.645447 7.741294
Hg -4.644010 7.741773 7.741294
Hg -4.644010 4.645447 10.837620
Hg -7.740336 7.741773 10.837620
Hg -7.740336 4.645447 13.933946
Hg -4.644010 7.741773 13.933946
Hg -4.644010 4.645447 17.030272
Hg -7.740336 7.741773 17.030272
Hg -7.740336 4.645447 20.126598
Hg -4.644010 7.741773 20.126598
Hg -4.644010 4.645447 23.222924
Hg -7.740336 7.741773 23.222924
Hg -7.740336 4.645447 26.319250
Hg -4.644010 7.741773 26.319250
Hg -4.644010 4.645447 29.415576
Hg -7.740336 7.741773 29.415576
Hg -7.740336 4.645447 32.511902
Hg -4.644010 7.741773 32.511902
Hg -4.644010 10.838100 -32.510944
Hg -7.740336 13.934426 -32.510944
Hg -7.740336 10.838100 -29.414618
Hg -4.644010 13.934426 -29.414618
Hg -4.644010 10.838100 -26.318292
Hg -7.740336 13.934426 -26.318292
Hg -7.740336 10.838100 -23.221966
Hg -4.644010 13.934426 -23.221966
Hg -4.644010 10.838100 -20.125640
Hg -7.740336 13.934426 -20.125640
Hg -7.740336 10.838100 -17.029314
Hg -4.644010 13.934426 -17.029314
Hg -4.644010 10.838100 -13.932988
Hg -7.740336 13.934426 -13.932988
Hg -7.740336 10.838100 -10.836662
Hg -4.644010 13.934426 -10.836662
Hg -4.644010 10.838100 -7.740336
Hg -7.740336 13.934426 -7.740336
Hg -7.740336 10.838100 -4.644010
Hg -4.644010 13.934426 -4.644010
Hg -4.644010 10.838100 -1.547684
Hg -7.740336 13.934426 -1.547684
Hg -7.740336 10.838100 1.548642
Hg -4.644010 13.934426 1.548642
Hg -4.644010 10.838100 4.644968
Hg -7.740336 13.934426 4.644968
Hg -7.740336 10.838100 7.741294
Hg -4.644010 13.934426 7.741294
Hg -4.644010 10.838100 10.837620
Hg -7.740336 13.934426 10.837620
Hg -7.740336 10.838100 13.933946
Hg -4.644010 13.934426 13.933946
Hg -4.644010 10.838100 17.030272
Hg -7.740336 13.934426 17.030272
Hg -7.740336 10.838100 20.126598
Hg -4.644010 13.934426 20.126598
Hg -4.644010 10.838100 23.222924
Hg -7.740336 13.934426 23.222924
Hg -7.740336 10.838100 26.319250
Hg -4.644010 13.934426 26.319250
Hg -4.644010 10.838100 29.415576
Hg -7.740336 13.934426 29.415576
Hg -7.740336 10.838100 32.511902
Hg -4.644010 13.934426 32.511902
Hg -7.740336 17.030752 -29.414618
Hg -4.644010 17.030752 -26.318292
Hg -7.740336 20.127078 -26.318292
Hg -7.740336 17.030752 -23.221966
Hg -4.644010 20.127078 -23.221966
Hg -4.644010 17.030752 -20.125640
Hg -7.740336 20.127078 -20.125640
Hg -7.740336 17.030752 -17.029314
Hg -4.644010 20.127078 -17.029314
Hg -4.644010 17.030752 -13.932988
Hg -7.740336 20.127078 -13.932988
Hg -7.740336 17.030752 -10.836662
Hg -4.644010 20.127078 -10.836662
Hg -4.644010 17.030752 -7.740336
Hg -7.740336 20.127078 -7.740336
Hg -7.740336 17.030752 -4.644010
Hg -4.644010 20.127078 -4.644010
Hg -4.644010 17.030752 -1.547684
Hg -7.740336 20.127078 -1.547684
Hg -7.740336 17.030752 1.548642
Hg -4.644010 20.127078 1.548642
Hg -4.644010 17.030752 4.644968
Hg -7.740336 20.127078 4.644968
Hg -7.740336 17.030752 7.741294
Hg -4.644010 20.127078 7.741294
Hg -4.644010 17.030752 10.837620
Hg -7.740336 20.127078 10.837620
Hg -7.740336 17.030752 13.933946
Hg -4.644010 20.127078 13.933946
Hg -4.644010 17.030752 17.030272
Hg -7.740336 20.127078 17.030272
Hg -7.740336 17.030752 20.126598
Hg -4.644010 20.127078 20.126598
Hg -4.644010 17.030752 23.222924
Hg -7.740336 20.127078 23.222924
Hg -7.740336 17.030752 26.319250
Hg -4.644010 20.127078 26.319250
Hg -4.644010 17.030752 29.415576
Hg -7.740336 23.223404 -23.221966
Hg -4.644010 23.223404 -20.125640
Hg -7.740336 26.319730 -20.125640
Hg -7.740336 23.223404 -17.029314
Hg -4.644010 26.319730 -17.029314
Hg -4.644010 23.223404 -13.932988
Hg -7.740336 26.319730 -13.932988
Hg -7.740336 23.223404 -10.836662
Hg -4.644010 26.319730 -10.836662
Hg -4.644010 23.223404 -7.740336
Hg -7.740336 26.319730 -7.740336
Hg -7.740336 23.223404 -4.644010
Hg -4.644010 26.319730 -4.644010
Hg -4.644010 23.223404 -1.547684
Hg -7.740336 26.319730 -1.547684
Hg -7.740336 23.223404 1.548642
Hg -4.644010 26.319730 1.548642
Hg -4.644010 23.223404 4.644968
Hg -7.740336 26.319730 4.644968
Hg -7.740336 23.223404 7.741294
Hg -4.644010 26.319730 7.741294
Hg -4.644010 23.223404 10.837620
Hg -7.740336 26.319730 10.837620
Hg -7.740336 23.223404 13.933946
Hg -4.644010 26.319730 13.933946
Hg -4.644010 23.223404 17.030272
Hg -7.740336 26.319730 17.030272
Hg -7.740336 23.223404 20.126598
Hg -4.644010 26.319730 20.126598
Hg -4.644010 23.223404 23.222924
Hg -7.740336 29.416056 -17.029314
Hg -4.644010 29.416056 -13.932988
Hg -7.740336 32.512382 -13.932988
Hg -7.740336 29.416056 -10.836662
Hg -4.644010 32.512382 -10.836662
Hg -4.644010 29.416056 -7.740336
Hg -7.740336 32.512382 -7.740336
Hg -7.740336 29.416056 -4.644010
Hg -4.644010 32.512382 -4.644010
Hg -4.644010 29.416056 -1.547684
Hg -7.740336 32.512382 -1.547684
Hg -7.740336 29.416056 1.548642
Hg -4.644010 32.512382 1.548642
Hg -4.644010 29.416056 4.644968
Hg -7.740336 32.512382 4.644968
Hg -7.740336 29.416056 7.741294
Hg -4.644010 32.512382 7.741294
Hg -4.644010 29.416056 10.837620
Hg -7.740336 32.512382 10.837620
Hg -7.740336 29.416056 13.933946
Hg -4.644010 32.512382 13.933946
Hg -4.644010 29.416056 17.030272
Hg 1.548642 -29.414139 -17.029314
Hg 1.548642 -32.510465 -13.932988
Hg -1.547684 -29.414139 -13.932988
Hg -1.547684 -32.510465 -10.836662
Hg 1.548642 -29.414139 -10.836662
Hg 1.548642 -32.510465 -7.740336
Hg -1.547684 -29.414139 -7.740336
Hg -1.547684 -32.510465 -4.644010
Hg 1.548642 -29.414139 -4.644010
Hg 1.548642 -32.510465 -1.547684
Hg -1.547684 -29.414139 -1.547684
Hg -1.547684 -32.510465 1.548642
Hg 1.548642 -29.414139 1.548642
Hg 1.548642 -32.510465 4.644968
Hg -1.547684 -29.414139 4.644968
Hg -1.547684 -32.510465 7.741294
Hg 1.548642 -29.414139 7.741294
Hg 1.548642 -32.510465 10.837620
Hg -1.547684 -29.414139 10.837620
Hg -1.547684 -32.510465 13.933946
Hg 1.548642 -29.414139 13.933946
Hg -1.547684 -29.414139 17.030272
Hg 1.548642 -23.221487 -23.221966
Hg 1.548642 -26.317813 -20.125640
Hg -1.547684 -23.221487 -20.125640
Hg -1.547684 -26.317813 -17.029314
Hg 1.548642 -23.221487 -17.029314
Hg 1.548642 -26.317813 -13.932988
Hg -1.547684 -23.221487 -13.932988
Hg -1.547684 -26.317813 -10.836662
Hg 1.548642 -23.221487 -10.836662
Hg 1.548642 -26.317813 -7.740336
Hg -1.547684 -23.221487 -7.740336
Hg -1.547684 -26.317813 -4.644010
Hg 1.548642 -23.221487 -4.644010
Hg 1.548642 -26.317813 -1.547684
Hg -1.547684 -23.221487 -1.547684
Hg -1.547684 -26.317813 1.548642
Hg 1.548642 -23.221487 1.548642
Hg 1.548642 -26.317813 4.644968
Hg -1.547684 -23.221487 4.644968
Hg -1.547684 -26.317813 7.741294
Hg 1.548642 -23.221487 7.741294
Hg 1.548642 -26.317813 10.837620
Hg -1.547684 -23.221487 10.837620
Hg -1.547684 -26.317813 13.933946
Hg 1.548642 -23.221487 13.933946
Hg 1.548642 -26.317813 17.030272
Hg -1.547684 -23.221487 17.030272
Hg -1.547684 -26.317813 20.126598
Hg 1.548642 -23.221487 20.126598
Hg -1.547684 -23.221487 23.222924
Hg 1.548642 -17.028835 -29.414618
Hg 1.548642 -20.125161 -26.318292
Hg -1.547684 -17.028835 -26.318292
Hg -1.547684 -20.125161 -23.221966
Hg 1.548642 -17.028835 -23.221966
Hg 1.548642 -20.125161 -20.125640
Hg -1.547684 -17.028835 -20.125640
Hg -1.547684 -20.125161 -17.029314
Hg 1.548642 -17.028835 -17.029314
Hg 1.548642 -20.125161 -13.932988
Hg -1.547684 -17.028835 -13.932988
Hg -1.547684 -20.125161 -10.836662
Hg 1.548642 -17.028835 -10.836662
Hg 1.548642 -20.125161 -7.740336
Hg -1.547684 -17.028835 -7.740336
Hg -1.547684 -20.125161 -4.644010
Hg 1.548642 -17.028835 -4.644010
Hg 1.548642 -20.125161 -1.547684
Hg -1.547684 -17.028835 -1.547684
Hg -1.547684 -20.125161 1.548642
Hg 1.548642 -17.028835 1.548642
Hg 1.548642 -20.125161 4.644968
Hg -1.547684 -17.028835 4.644968
Hg -1.547684 -20.125161 7.741294
Hg 1.548642 -17.028835 7.741294
Hg 1.548642 -20.125161 10.837620
Hg -1.547684 -17.028835 10.837620
Hg -1.547684 -20.125161 13.933946
Hg 1.548642 -17.028835 13.933946
Hg 1.548642 -20.125161 17.030272
Hg -1.547684 -17.028835 17.030272
Hg -1.547684 -20.125161 20.126598
Hg 1.548642 -17.028835 20.126598
Hg 1.548642 -20.125161 23.222924
Hg -1.547684 -17.028835 23.222924
Hg -1.547684 -20.125161 26.319250
Hg 1.548642 -17.028835 26.319250
Hg -1.547684 -17.028835 29.415576
Hg 1.548642 -13.932509 -32.510944
Hg -1.547684 -10.836183 -32.510944
Hg -1.547684 -13.932509 -29.414618
Hg 1.548642 -10.836183 -29.414618
Hg 1.548642 -13.932509 -26.318292
Hg -1.547684 -10.836183 -26.318292
Hg -1.547684 -13.932509 -23.221966
Hg 1.548642 -10.836183 -23.221966
Hg 1.548642 -13.932509 -20.125640
Hg -1.547684 -10.836183 -20.125640
Hg -1.547684 -13.932509 -17.029314
Hg 1.548642 -10.836183 -17.029314
Hg 1.548642 -13.932509 -13.932988
Hg -1.547684 -10.836183 -13.932988
Hg -1.547684 -13.932509 -10.836662
Hg 1.548642 -10.836183 -10.836662
Hg 1.548642 -13.932509 -7.740336
Hg -1.547684 -10.836183 -7.740336
Hg -1.547684 -13.932509 -4.644010
Hg 1.548642 -10.836183 -4.644010
Hg 1.548642 -13.932509 -1.547684
Hg -1.547684 -10.836183 -1.547684
Hg -1.547684 -13.932509 1.548642
Hg 1.548642 -10.836183 1.548642
Hg 1.548642 -13.932509 4.644968
Hg -1.547684 -10.836183 4.644968
Hg -1.547684 -13.932509 7.741294
Hg 1.548642 -10.836183 7.741294
Hg 1.548642 -13.932509 10.837620
Hg -1.547684 -10.836183 10.837620
Hg -1.547684 -13.932509 13.933946
Hg 1.548642 -10.836183 13.933946
Hg 1.548642 -13.932509 17.030272
Hg -1.547684 -10.836183 17.030272
Hg -1.547684 -13.932509 20.126598
Hg 1.548642 -10.836183 20.126598
Hg 1.548642 -13.932509 23.222924
Hg -1.547684 -10.836183 23.222924
Hg -1.547684 -13.932509 26.319250
Hg 1.548642 -10.836183 26.319250
Hg 1.548642 -13.932509 29.415576
Hg -1.547684 -10.836183 29.415576
Hg -1.547684 -13.932509 32.511902
Hg 1.548642 -10.836183 32.511902
Hg 1.548642 -7.739857 -32.510944
Hg -1.547684 -4.643531 -32.510944
Hg -1.547684 -7.739857 -29.414618
Hg 1.548642 -4.643531 -29.414618
Hg 1.548642 -7.739857 -26.318292
Hg -1.547684 -4.643531 -26.318292
Hg -1.547684 -7.739857 -23.221966
Hg 1.548642 -4.643531 -23.221966
Hg 1.548642 -7.739857 -20.125640
Hg -1.547684 -4.643531 -20.125640
Hg -1.547684 -7.739857 -17.029314
Hg 1.548642 -4.643531 -17.029314
Hg 1.548642 -7.739857 -13.932988
Hg -1.547684 -4.643531 -13.932988
Hg -1.547684 -7.739857 -10.836662
Hg 1.548642 -4.643531 -10.836662
Hg 1.548642 -7.739857 -7.740336
Hg -1.547684 -4.643531 -7.740336
Hg -1.547684 -7.739857 -4.644010
Hg 1.548642 -4.643531 -4.644010
Hg 1.548642 -7.739857 -1.547684
Hg -1.547684 -4.643531 -1.547684
Hg -1.547684 -7.739857 1.548642
Hg 1.548642 -4.643531 1.548642
Hg 1.548642 -7.739857 4.644968
Hg -1.547684 -4.643531 4.644968
Hg -1.547684 -7.739857 7.741294
Hg 1.548642 -4.643531 7.741294
Hg 1.548642 -7.739857 10.837620
Hg -1.547684 -4.643531 10.837620
Hg -1.547684 -7.739857 13.933946
Hg 1.548642 -4.643531 13.933946
Hg 1.548642 -7.739857 17.030272
Hg -1.547684 -4.643531 17.030272
Hg -1.547684 -7.739857 20.126598
Hg 1.548642 -4.643531 20.126598
Hg 1.548642 -7.739857 23.222924
Hg -1.547684 -4.643531 23.222924
Hg -1.547684 -7.739857 26.319250
Hg 1.548642 -4.643531 26.319250
Hg 1.548642 -7.739857 29.415576
Hg -1.547684 -4.643531 29.415576
Hg -1.547684 -7.739857 32.511902
Hg 1.548642 -4.643531 32.511902
Hg 1.548642 -1.547205 -32.510944
Hg -1.547684 1.549121 -32.510944
Hg -1.547684 -1.547205 -29.414618
Hg 1.548642 1.549121 -29.414618
Hg 1.548642 -1.547205 -26.318292
Hg -1.547684 1.549121 -26.318292
Hg -1.547684 -1.547205 -23.221966
Hg 1.548642 1.549121 -23.221966
Hg 1.548642 -1.547205 -20.125640
Hg -1.547684 1.549121 -20.125640
Hg -1.547684 -1.547205 -17.029314
Hg 1.548642 1.549121 -17.029314
Hg 1.548642 -1.547205 -13.932988
Hg -1.547684 1.549121 -13.932988
Hg -1.547684 -1.547205 -10.836662
Hg 1.548642 1.549121 -10.836662
Hg 1.548642 -1.547205 -7.740336
Hg -1.547684 1.549121 -7.740336
Hg -1.547684 -1.547205 -4.644010
Hg 1.548642 1.549121 -4.644010
Hg 1.548642 -1.547205 -1.547684
Hg -1.547684 1.549121 -1.547684
Hg -1.547684 -1.547205 1.548642
Hg 1.548642 1.549121 1.548642
Hg 1.548642 -1.547205 4.644968
Hg -1.547684 1.549121 4.644968
Hg -1.547684 -1.547205 7.741294
Hg 1.548642 1.549121 7.741294
Hg 1.548642 -1.547205 10.837620
Hg -1.547684 1.549121 10.837620
Hg -1.547684 -1.547205 13.933946
Hg 1.548642 1.549121 13.933946
Hg 1.548642 -1.547205 17.030272
Hg -1.547684 1.549121 17.030272
Hg -1.547684 -1.547205 20.126598
Hg 1.548642 1.549121 20.126598
Hg 1.548642 -1.547205 23.222924
Hg -1.547684 1.549121 23.222924
Hg -1.547684 -1.547205 26.319250
Hg 1.548642 1.549121 26.319250
Hg 1.548642 -1.547205 29.415576
Hg -1.547684 1.549121 29.415576
Hg -1.547684 -1.547205 32.511902
Hg 1.548642 1.549121 32.511902
Hg 1.548642 4.645447 -32.510944
Hg -1.547684 7.741773 -32.510944
Hg -1.547684 4.645447 -29.414618
Hg 1.548642 7.741773 -29.414618
Hg 1.548642 4.645447 -26.318292
Hg -1.547684 7.741773 -26.318292
Hg -1.547684 4.645447 -23.221966
Hg 1.548642 7.741773 -23.221966
Hg 1.548642 4.645447 -20.125640
Hg -1.547684 7.741773 -20.125640
Hg -1.547684 4.645447 -17.029314
Hg 1.548642 7.741773 -17.029314
Hg 1.548642 4.645447 -13.932988
Hg -1.547684 7.741773 -13.932988
Hg -1.547684 4.645447 -10.836662
Hg 1.548642 7.741773 -10.836662
Hg 1.548642 4.645447 -7.740336
Hg -1.547684 7.741773 -7.740336
Hg -1.547684 4.645447 -4.644010
Hg 1.548642 7.741773 -4.644010
Hg 1.548642 4.645447 -1.547684
Hg -1.547684 7.741773 -1.547684
Hg -1.547684 4.645447 1.548642
Hg 1.548642 7.741773 1.548642
Hg 1.548642 4.645447 4.644968
Hg -1.547684 7.741773 4.644968
Hg -1.547684 4.645447 7.741294
Hg 1.548642 7.741773 7.741294
Hg 1.548642 4.645447 10.837620
Hg -1.547684 7.741773 10.837620
Hg -1.547684 4.645447 13.933946
Hg 1.548642 7.741773 13.933946
Hg 1.548642 4.645447 17.030272
Hg -1.547684 7.741773 17.030272
Hg -1.547684 4.645447 20.126598
Hg 1.548642 7.741773 20.126598
Hg 1.548642 4.645447 23.222924
Hg -1.547684 7.741773 23.222924
Hg -1.547684 4.645447 26.319250
Hg 1.548642 7.741773 26.319250
Hg 1.548642 4.645447 29.415576
Hg -1.547684 7.741773 29.415576
Hg -1.547684 4.645447 32.511902
Hg 1.548642 7.741773 32.511902
Hg 1.548642 10.838100 -32.510944
Hg -1.547684 13.934426 -32.510944
Hg -1.547684 10.838100 -29.414618
Hg 1.548642 13.934426 -29.414618
Hg 1.548642 10.838100 -26.318292
Hg -1.547684 13.934426 -26.318292
Hg -1.547684 10.838100 -23.221966
Hg 1.548642 13.934426 -23.221966
Hg 1.548642 10.838100 -20.125640
Hg -1.547684 13.934426 -20.125640
Hg -1.547684 10.838100 -17.029314
Hg 1.548642 13.934426 -17.029314
Hg 1.548642 10.838100 -13.932988
Hg -1.547684 13.934426 -13.932988
Hg -1.547684 10.838100 -10.836662
Hg 1.548642 13.934426 -10.836662
Hg 1.548642 10.838100 -7.740336
Hg -1.547684 13.934426 -7.740336
Hg -1.547684 10.838100 -4.644010
Hg 1.548642 13.934426 -4.644010
Hg 1.548642 10.838100 -1.547684
Hg -1.547684 13.934426 -1.547684
Hg -1.547684 10.838100 1.548642
Hg 1.548642 13.934426 1.548642
Hg 1.548642 10.838100 4.644968
Hg -1.547684 13.934426 4.644968
Hg -1.547684 10.838100 7.741294
Hg 1.548642 13.934426 7.741294
Hg 1.548642 10.838100 10.837620
Hg -1.547684 13.934426 10.837620
Hg -1.547684 10.838100 13.933946
Hg 1.548642 13.934426 13.933946
Hg 1.548642 10.838100 17.030272
Hg -1.547684 13.934426 17.030272
Hg -1.547684 10.838100 20.126598
Hg 1.548642 13.934426 20.126598
Hg 1.548642 10.838100 23.222924
Hg -1.547684 13.934426 23.222924
Hg -1.547684 10.838100 26.319250
Hg 1.548642 13.934426 26.319250
Hg 1.548642 10.838100 29.415576
Hg -1.547684 13.934426 29.415576
Hg -1.547684 10.838100 32.511902
Hg 1.548642 13.934426 32.511902
Hg -1.547684 17.030752 -29.414618
Hg 1.548642 17.030752 -26.318292
Hg -1.547684 20.127078 -26.318292
Hg -1.547684 17.030752 -23.221966
Hg 1.548642 20.127078 -23.221966
Hg 1.548642 17.030752 -20.125640
Hg -1.547684 20.127078 -20.125640
Hg -1.547684 17.030752 -17.029314
Hg 1.548642 20.127078 -17.029314
Hg 1.548642 17.030752 -13.932988
Hg -1.547684 20.127078 -13.932988
Hg -1.547684 17.030752 -10.836662
Hg 1.548642 20.127078 -10.836662
Hg 1.548642 17.030752 -7.740336
Hg -1.547684 20.127078 -7.740336
Hg -1.547684 17.030752 -4.644010
Hg 1.548642 20.127078 -4.644010
Hg 1.548642 17.030752 -1.547684
Hg -1.547684 20.127078 -1.547684
Hg -1.547684 17.030752 1.548642
Hg 1.548642 20.127078 1.548642
Hg 1.548642 17.030752 4.644968
Hg -1.547684 20.127078 4.644968
Hg -1.547684 17.030752 7.741294
Hg 1.548642 20.127078 7.741294
Hg 1.548642 17.030752 10.837620
Hg -1.547684 20.127078 10.837620
Hg -1.547684 17.030752 13.933946
Hg 1.548642 20.127078 13.933946
Hg 1.548642 17.030752 17.030272
Hg -1.547684 20.127078 17.030272
Hg -1.547684 17.030752 20.126598
Hg 1.548642 20.127078 20.126598
Hg 1.548642 17.030752 23.222924
Hg -1.547684 20.127078 23.222924
Hg -1.547684 17.030752 26.319250
Hg 1.548642 20.127078 26.319250
Hg 1.548642 17.030752 29.415576
Hg -1.547684 23.223404 -23.221966
Hg 1.548642 23.223404 -20.125640
Hg -1.547684 26.319730 -20.125640
Hg -1.547684 23.223404 -17.029314
Hg 1.548642 26.319730 -17.029314
Hg 1.548642 23.223404 -13.932988
Hg -1.547684 26.319730 -13.932988
Hg -1.547684 23.223404 -10.836662
Hg 1.548642 26.319730 -10.836662
Hg 1.548642 23.223404 -7.740336
Hg -1.547684 26.319730 -7.740336
Hg -1.547684 23.223404 -4.644010
Hg 1.548642 26.319730 -4.644010
Hg 1.548642 23.223404 -1.547684
Hg -1.547684 26.319730 -1.547684
Hg -1.547684 23.223404 1.548642
Hg 1.548642 26.319730 1.548642
Hg 1.548642 23.223404 4.644968
Hg -1.547684 26.319730 4.644968
Hg -1.547684 23.223404 7.741294
Hg 1.548642 26.319730 7.741294
Hg 1.548642 23.223404 10.837620
Hg -1.547684 26.319730 10.837620
Hg -1.547684 23.223404 13.933946
Hg 1.548642 26.319730 13.933946
Hg 1.548642 23.223404 17.030272
Hg -1.547684 26.319730 17.030272
Hg -1.547684 23.223404 20.126598
Hg 1.548642 26.319730 20.126598
Hg 1.548642 23.223404 23.222924
Hg -1.547684 29.416056 -17.029314
Hg 1.548642 29.416056 -13.932988
Hg -1.547684 32.512382 -13.932988
Hg -1.547684 29.416056 -10.836662
Hg 1.548642 32.512382 -10.836662
Hg 1.548642 29.416056 -7.740336
Hg -1.547684 32.512382 -7.740336
Hg -1.547684 29.416056 -4.644010
Hg 1.548642 32.512382 -4.644010
Hg 1.548642 29.416056 -1.547684
Hg -1.547684 32.512382 -1.547684
Hg -1.547684 29.416056 1.548642
Hg 1.548642 32.512382 1.548642
Hg 1.548642 29.416056 4.644968
Hg -1.547684 32.512382 4.644968
Hg -1.547684 29.416056 7.741294
Hg 1.548642 32.512382 7.741294
Hg 1.548642 29.416056 10.837620
Hg -1.547684 32.512382 10.837620
Hg -1.547684 29.416056 13.933946
Hg 1.548642 32.512382 13.933946
Hg 1.548642 29.416056 17.030272
Hg 7.741294 -29.414139 -17.029314
Hg 7.741294 -32.510465 -13.932988
Hg 4.644968 -29.414139 -13.932988
Hg 4.644968 -32.510465 -10.836662
Hg 7.741294 -29.414139 -10.836662
Hg 7.741294 -32.510465 -7.740336
Hg 4.644968 -29.414139 -7.740336
Hg 4.644968 -32.510465 -4.644010
Hg 7.741294 -29.414139 -4.644010
Hg 7.741294 -32.510465 -1.547684
Hg 4.644968 -29.414139 -1.547684
Hg 4.644968 -32.510465 1.548642
Hg 7.741294 -29.414139 1.548642
Hg 7.741294 -32.510465 4.644968
Hg 4.644968 -29.414139 4.644968
Hg 4.644968 -32.510465 7.741294
Hg 7.741294 -29.414139 7.741294
Hg 7.741294 -32.510465 10.837620
Hg 4.644968 -29.414139 10.837620
Hg 4.644968 -32.510465 13.933946
Hg 7.741294 -29.414139 13.933946
Hg 4.644968 -29.414139 17.030272
Hg 7.741294 -23.221487 -23.221966
Hg 7.741294 -26.317813 -20.125640
Hg 4.644968 -23.221487 -20.125640
Hg 4.644968 -26.317813 -17.029314
Hg 7.741294 -23.221487 -17.029314
Hg 7.741294 -26.317813 -13.932988
Hg 4.644968 -23.221487 -13.932988
Hg 4.644968 -26.317813 -10.836662
Hg 7.741294 -23.221487 -10.836662
Hg 7.741294 -26.317813 -7.740336
Hg 4.644968 -23.221487 -7.740336
Hg 4.644968 -26.317813 -4.644010
Hg 7.741294 -23.221487 -4.644010
Hg 7.741294 -26.317813 -1.547684
Hg 4.644968 -23.221487 -1.547684
Hg 4.644968 -26.317813 1.548642
Hg 7.741294 -23.221487 1.548642
Hg 7.741294 -26.317813 4.644968
Hg 4.644968 -23.221487 4.644968
Hg 4.644968 -26.317813 7.741294
Hg 7.741294 -23.221487 7.741294
Hg 7.741294 -26.317813 10.837620
Hg 4.644968 -23.221487 10.837620
Hg 4.644968 -26.317813 13.933946
Hg 7.741294 -23.221487 13.933946
Hg 7.741294 -26.317813 17.030272
Hg 4.644968 -23.221487 17.030272
Hg 4.644968 -26.317813 20.126598
Hg 7.741294 -23.221487 20.126598
Hg 4.644968 -23.221487 23.222924
Hg 7.741294 -17.028835 -29.414618
Hg 7.741294 -20.125161 -26.318292
Hg 4.644968 -17.028835 -26.318292
Hg 4.644968 -20.125161 -23.221966
Hg 7.741294 -17.028835 -23.221966
Hg 7.741294 -20.125161 -20.125640
Hg 4.644968 -17.028835 -20.125640
Hg 4.644968 -20.125161 -17.029314
Hg 7.741294 -17.028835 -17.029314
Hg 7.741294 -20.125161 -13.932988
Hg 4.644968 -17.028835 -13.932988
Hg 4.644968 -20.125161 -10.836662
Hg 7.741294 -17.028835 -10.836662
Hg 7.741294 -20.125161 -7.740336
Hg 4.644968 -17.028835 -7.740336
Hg 4.644968 -20.125161 -4.644010
Hg 7.741294 -17.028835 -4.644010
Hg 7.741294 -20.125161 -1.547684
Hg 4.644968 -17.028835 -1.547684
Hg 4.644968 -20.125161 1.548642
Hg 7.741294 -17.028835 1.548642
Hg 7.741294 -20.125161 4.644968
Hg 4.644968 -17.028835 4.644968
Hg 4.644968 -20.125161 7.741294
Hg 7.741294 -17.028835 7.741294
Hg 7.741294 -20.125161 10.837620
Hg 4.644968 -17.028835 10.837620
Hg 4.644968 -20.125161 13.933946
Hg 7.741294 -17.028835 13.933946
Hg 7.741294 -20.125161 17.030272
Hg 4.644968 -17.028835 17.030272
Hg 4.644968 -20.125161 20.126598
Hg 7.741294 -17.028835 20.126598
Hg 7.741294 -20.125161 23.222924
Hg 4.644968 -17.028835 23.222924
Hg 4.644968 -20.125161 26.319250
Hg 7.741294 -17.028835 26.319250
Hg 4.644968 -17.028835 29.415576
Hg 7.741294 -13.932509 -32.510944
Hg 4.644968 -10.836183 -32.510944
Hg 4.644968 -13.932509 -29.414618
Hg 7.741294 -10.836183 -29.414618
Hg 7.741294 -13.932509 -26.318292
Hg 4.644968 -10.836183 -26.318292
Hg 4.644968 -13.932509 -23.221966
Hg 7.741294 -10.836183 -23.221966
Hg 7.741294 -13.932509 -20.125640
Hg 4.644968 -10.836183 -20.125640
Hg 4.644968 -13.932509 -17.029314
Hg 7.741294 -10.836183 -17.029314
Hg 7.741294 -13.932509 -13.932988
Hg 4.644968 -10.836183 -13.932988
Hg 4.644968 -13.932509 -10.836662
Hg 7.741294 -10.836183 -10.836662
Hg 7.741294 -13.932509 -7.740336
Hg 4.644968 -10.836183 -7.740336
Hg 4.644968 -13.932509 -4.644010
Hg 7.741294 -10.836183 -4.644010
Hg 7.741294 -13.932509 -1.547684
Hg 4.644968 -10.836183 -1.547684
Hg 4.644968 -13.932509 1.548642
Hg 7.741294 -10.836183 1.548642
Hg 7.741294 -13.932509 4.644968
Hg 4.644968 -10.836183 4.644968
Hg 4.644968 -13.932509 7.741294
Hg 7.741294 -10.836183 7.741294
Hg 7.741294 -13.932509 10.837620
Hg 4.644968 -10.836183 10.837620
Hg 4.644968 -13.932509 13.933946
Hg 7.741294 -10.836183 13.933946
Hg 7.741294 -13.932509 17.030272
Hg 4.644968 -10.836183 17.030272
Hg 4.644968 -13.932509 20.126598
Hg 7.741294 -10.836183 20.126598
Hg 7.741294 -13.932509 23.222924
Hg 4.644968 -10.836183 23.222924
Hg 4.644968 -13.932509 26.319250
Hg 7.741294 -10.836183 26.319250
Hg 7.741294 -13.932509 29.415576
Hg 4.644968 -10.836183 29.415576
Hg 4.644968 -13.932509 32.511902
Hg 7.741294 -10.836183 32.511902
Hg 7.741294 -7.739857 -32.510944
Hg 4.644968 -4.643531 -32.510944
Hg 4.644968 -7.739857 -29.414618
Hg 7.741294 -4.643531 -29.414618
Hg 7.741294 -7.739857 -26.318292
Hg 4.644968 -4.643531 -26.318292
Hg 4.644968 -7.739857 -23.221966
Hg 7.741294 -4.643531 -23.221966
Hg 7.741294 -7.739857 -20.125640
Hg 4.644968 -4.643531 -20.125640
Hg 4.644968 -7.739857 -17.029314
Hg 7.741294 -4.643531 -17.029314
Hg 7.741294 -7.739857 -13.932988
Hg 4.644968 -4.643531 -13.932988
Hg 4.644968 -7.739857 -10.836662
Hg 7.741294 -4.643531 -10.836662
Hg 7.741294 -7.739857 -7.740336
Hg 4.644968 -4.643531 -7.740336
Hg 4.644968 -7.739857 -4.644010
Hg 7.741294 -4.643531 -4.644010
Hg 7.741294 -7.739857 -1.547684
Hg 4.644968 -4.643531 -1.547684
Hg 4.644968 -7.739857 1.548642
Hg 7.741294 -4.643531 1.548642
Hg 7.741294 -7.739857 4.644968
Hg 4.644968 -4.643531 4.644968
Hg 4.644968 -7.739857 7.741294
Hg 7.741294 -4.643531 7.741294
Hg 7.741294 -7.739857 10.837620
Hg 4.644968 -4.643531 10.837620
Hg 4.644968 -7.739857 13.933946
Hg 7.741294 -4.643531 13.933946
Hg 7.741294 -7.739857 17.030272
Hg 4.644968 -4.643531 17.030272
Hg 4.644968 -7.739857 20.126598
Hg 7.741294 -4.643531 20.126598
Hg 7.741294 -7.739857 23.222924
Hg 4.644968 -4.643531 23.222924
Hg 4.644968 -7.739857 26.319250
Hg 7.741294 -4.643531 26.319250
Hg 7.741294 -7.739857 29.415576
Hg 4.644968 -4.643531 29.415576
Hg 4.644968 -7.739857 32.511902
Hg 7.741294 -4.643531 32.511902
Hg 7.741294 -1.547205 -32.510944
Hg 4.644968 1.549121 -32.510944
Hg 4.644968 -1.547205 -29.414618
Hg 7.741294 1.549121 -29.414618
Hg 7.741294 -1.547205 -26.318292
Hg 4.644968 1.549121 -26.318292
Hg 4.644968 -1.547205 -23.221966
Hg 7.741294 1.549121 -23.221966
Hg 7.741294 -1.547205 -20.125640
Hg 4.644968 1.549121 -20.125640
Hg 4.644968 -1.547205 -17.029314
Hg 7.741294 1.549121 -17.029314
Hg 7.741294 -1.547205 -13.932988
Hg 4.644968 1.549121 -13.932988
Hg 4.644968 -1.547205 -10.836662
Hg 7.741294 1.549121 -10.836662
Hg 7.741294 -1.547205 -7.740336
Hg 4.644968 1.549121 -7.740336
Hg 4.644968 -1.547205 -4.644010
Hg 7.741294 1.549121 -4.644010
Hg 7.741294 -1.547205 -1.547684
Hg 4.644968 1.549121 -1.547684
Hg 4.644968 -1.547205 1.548642
Hg 7.741294 1.549121 1.548642
Hg 7.741294 -1.547205 4.644968
Hg 4.644968 1.549121 4.644968
Hg 4.644968 -1.547205 7.741294
Hg 7.741294 1.549121 7.741294
Hg 7.741294 -1.547205 10.837620
Hg 4.644968 1.549121 10.837620
Hg 4.644968 -1.547205 13.933946
Hg 7.741294 1.549121 13.933946
Hg 7.741294 -1.547205 17.030272
Hg 4.644968 1.549121 17.030272
Hg 4.644968 -1.547205 20.126598
Hg 7.741294 1.549121 20.126598
Hg 7.741294 -1.547205 23.222924
Hg 4.644968 1.549121 23.222924
Hg 4.644968 -1.547205 26.319250
Hg 7.741294 1.549121 26.319250
Hg 7.741294 -1.547205 29.415576
Hg 4.644968 1.549121 29.415576
Hg 4.644968 -1.547205 32.511902
Hg 7.741294 1.549121 32.511902
Hg 7.741294 4.645447 -32.510944
Hg 4.644968 7.741773 -32.510944
Hg 4.644968 4.645447 -29.414618
Hg 7.741294 7.741773 -29.414618
Hg 7.741294 4.645447 -26.318292
Hg 4.644968 7.741773 -26.318292
Hg 4.644968 4.645447 -23.221966
Hg 7.741294 7.741773 -23.221966
Hg 7.741294 4.645447 -20.125640
Hg 4.644968 7.741773 -20.125640
Hg 4.644968 4.645447 -17.029314
Hg 7.741294 7.741773 -17.029314
Hg 7.741294 4.645447 -13.932988
Hg 4.644968 7.741773 -13.932988
Hg 4.644968 4.645447 -10.836662
Hg 7.741294 7.741773 -10.836662
Hg 7.741294 4.645447 -7.740336
Hg 4.644968 7.741773 -7.740336
Hg 4.644968 4.645447 -4.644010
Hg 7.741294 7.741773 -4.644010
Hg 7.741294 4.645447 -1.547684
Hg 4.644968 7.741773 -1.547684
Hg 4.644968 4.645447 1.548642
Hg 7.741294 7.741773 1.548642
Hg 7.741294 4.645447 4.644968
Hg 4.644968 7.741773 4.644968
Hg 4.644968 4.645447 7.741294
Hg 7.741294 7.741773 7.741294
Hg 7.741294 4.645447 10.837620
Hg 4.644968 7.741773 10.837620
Hg 4.644968 4.645447 13.933946
Hg 7.741294 7.741773 13.933946
Hg 7.741294 4.645447 17.030272
Hg 4.644968 7.741773 17.030272
Hg 4.644968 4.645447 20.126598
Hg 7.741294 7.741773 20.126598
Hg 7.741294 4.645447 23.222924
Hg 4.644968 7.741773 23.222924
Hg 4.644968 4.645447 26.319250
Hg 7.741294 7.741773 26.319250
Hg 7.741294 4.645447 29.415576
Hg 4.644968 7.741773 29.415576
Hg 4.644968 4.645447 32.511902
Hg 7.741294 7.741773 32.511902
Hg 7.741294 10.838100 -32.510944
Hg 4.644968 13.934426 -32.510944
Hg 4.644968 10.838100 -29.414618
Hg 7.741294 13.934426 -29.414618
Hg 7.741294 10.838100 -26.318292
Hg 4.644968 13.934426 -26.318292
Hg 4.644968 10.838100 -23.221966
Hg 7.741294 13.934426 -23.221966
Hg 7.741294 10.838100 -20.125640
Hg 4.644968 13.934426 -20.125640
Hg 4.644968 10.838100 -17.029314
Hg 7.741294 13.934426 -17.029314
Hg 7.741294 10.838100 -13.932988
Hg 4.644968 13.934426 -13.932988
Hg 4.644968 10.838100 -10.836662
Hg 7.741294 13.934426 -10.836662
Hg 7.741294 10.838100 -7.740336
Hg 4.644968 13.934426 -7.740336
Hg 4.644968 10.838100 -4.644010
Hg 7.741294 13.934426 -4.644010
Hg 7.741294 10.838100 -1.547684
Hg 4.644968 13.934426 -1.547684
Hg 4.644968 10.838100 1.548642
Hg 7.741294 13.934426 1.548642
Hg 7.741294 10.838100 4.644968
Hg 4.644968 13.934426 4.644968
Hg 4.644968 10.838100 7.741294
Hg 7.741294 13.934426 7.741294
Hg 7.741294 10.838100 10.837620
Hg 4.644968 13.934426 10.837620
Hg 4.644968 10.838100 13.933946
Hg 7.741294 13.934426 13.933946
Hg 7.741294 10.838100 17.030272
Hg 4.644968 13.934426 17.030272
Hg 4.644968 10.838100 20.126598
Hg 7.741294 13.934426 20.126598
Hg 7.741294 10.838100 23.222924
Hg 4.644968 13.934426 23.222924
Hg 4.644968 10.838100 26.319250
Hg 7.741294 13.934426 26.319250
Hg 7.741294 10.838100 29.415576
Hg 4.644968 13.934426 29.415576
Hg 4.644968 10.838100 32.511902
Hg 7.741294 13.934426 32.511902
Hg 4.644968 17.030752 -29.414618
Hg 7.741294 17.030752 -26.318292
Hg 4.644968 20.127078 -26.318292
Hg 4.644968 17.030752 -23.221966
Hg 7.741294 20.127078 -23.221966
Hg 7.741294 17.030752 -20.125640
Hg 4.644968 20.127078 -20.125640
Hg 4.644968 17.030752 -17.029314
Hg 7.741294 20.127078 -17.029314
Hg 7.741294 17.030752 -13.932988
Hg 4.644968 20.127078 -13.932988
Hg 4.644968 17.030752 -10.836662
Hg 7.741294 20.127078 -10.836662
Hg 7.741294 17.030752 -7.740336
Hg 4.644968 20.127078 -7.740336
Hg 4.644968 17.030752 -4.644010
Hg 7.741294 20.127078 -4.644010
Hg 7.741294 17.030752 -1.547684
Hg 4.644968 20.127078 -1.547684
Hg 4.644968 17.030752 1.548642
Hg 7.741294 20.127078 1.548642
Hg 7.741294 17.030752 4.644968
Hg 4.644968 20.127078 4.644968
Hg 4.644968 17.030752 7.741294
Hg 7.741294 20.127078 7.741294
Hg 7.741294 17.030752 10.837620
Hg 4.644968 20.127078 10.837620
Hg 4.644968 17.030752 13.933946
Hg 7.741294 20.127078 13.933946
Hg 7.741294 17.030752 17.030272
Hg 4.644968 20.127078 17.030272
Hg 4.644968 17.030752 20.126598
Hg 7.741294 20.127078 20.126598
Hg 7.741294 17.030752 23.222924
Hg 4.644968 20.127078 23.222924
Hg 4.644968 17.030752 26.319250
Hg 7.741294 20.127078 26.319250
Hg 7.741294 17.030752 29.415576
Hg 4.644968 23.223404 -23.221966
Hg 7.741294 23.223404 -20.125640
Hg 4.644968 26.319730 -20.125640
Hg 4.644968 23.223404 -17.029314
Hg 7.741294 26.319730 -17.029314
Hg 7.741294 23.223404 -13.932988
Hg 4.644968 26.319730 -13.932988
Hg 4.644968 23.223404 -10.836662
Hg 7.741294 26.319730 -10.836662
Hg 7.741294 23.223404 -7.740336
Hg 4.644968 26.319730 -7.740336
Hg 4.644968 23.223404 -4.644010
Hg 7.741294 26.319730 -4.644010
Hg 7.741294 23.223404 -1.547684
Hg 4.644968 26.319730 -1.547684
Hg 4.644968 23.223404 1.548642
Hg 7.741294 26.319730 1.548642
Hg 7.741294 23.223404 4.644968
Hg 4.644968 26.319730 4.644968
Hg 4.644968 23.223404 7.741294
Hg 7.741294 26.319730 7.741294
Hg 7.741294 23.223404 10.837620
Hg 4.644968 26.319730 10.837620
Hg 4.644968 23.223404 13.933946
Hg 7.741294 26.319730 13.933946
Hg 7.741294 23.223404 17.030272
Hg 4.644968 26.319730 17.030272
Hg 4.644968 23.223404 20.126598
Hg 7.741294 26.319730 20.126598
Hg 7.741294 23.223404 23.222924
Hg 4.644968 29.416056 -17.029314
Hg 7.741294 29.416056 -13.932988
Hg 4.644968 32.512382 -13.932988
Hg 4.644968 29.416056 -10.836662
Hg 7.741294 32.512382 -10.836662
Hg 7.741294 29.416056 -7.740336
Hg 4.644968 32.512382 -7.740336
Hg 4.644968 29.416056 -4.644010
Hg 7.741294 32.512382 -4.644010
Hg 7.741294 29.416056 -1.547684
Hg 4.644968 32.512382 -1.547684
Hg 4.644968 29.416056 1.548642
Hg 7.741294 32.512382 1.548642
Hg 7.741294 29.416056 4.644968
Hg 4.644968 32.512382 4.644968
Hg 4.644968 29.416056 7.741294
Hg 7.741294 32.512382 7.741294
Hg 7.741294 29.416056 10.837620
Hg 4.644968 32.512382 10.837620
Hg 4.644968 29.416056 13.933946
Hg 7.741294 32.512382 13.933946
Hg 7.741294 29.416056 17.030272
Hg 10.837620 -29.414139 -13.932988
Hg 10.837620 -32.510465 -10.836662
Hg 13.933946 -29.414139 -10.836662
Hg 13.933946 -32.510465 -7.740336
Hg 10.837620 -29.414139 -7.740336
Hg 10.837620 -32.510465 -4.644010
Hg 13.933946 -29.414139 -4.644010
Hg 13.933946 -32.510465 -1.547684
Hg 10.837620 -29.414139 -1.547684
Hg 10.837620 -32.510465 1.548642
Hg 13.933946 -29.414139 1.548642
Hg 13.933946 -32.510465 4.644968
Hg 10.837620 -29.414139 4.644968
Hg 10.837620 -32.510465 7.741294
Hg 13.933946 -29.414139 7.741294
Hg 13.933946 -32.510465 10.837620
Hg 10.837620 -29.414139 10.837620
Hg 10.837620 -32.510465 13.933946
Hg 13.933946 -29.414139 13.933946
Hg 10.837620 -29.414139 17.030272
Hg 10.837620 -23.221487 -20.125640
Hg 10.837620 -26.317813 -17.029314
Hg 13.933946 -23.221487 -17.029314
Hg 13.933946 -26.317813 -13.932988
Hg 10.837620 -23.221487 -13.932988
Hg 10.837620 -26.317813 -10.836662
Hg 13.933946 -23.221487 -10.836662
Hg 13.933946 -26.317813 -7.740336
Hg 10.837620 -23.221487 -7.740336
Hg 10.837620 -26.317813 -4.644010
Hg 13.933946 -23.221487 -4.644010
Hg 13.933946 -26.317813 -1.547684
Hg 10.837620 -23.221487 -1.547684
Hg 10.837620 -26.317813 1.548642
Hg 13.933946 -23.221487 1.548642
Hg 13.933946 -26.317813 4.644968
Hg 10.837620 -23.221487 4.644968
Hg 10.837620 -26.317813 7.741294
Hg 13.933946 -23.221487 7.741294
Hg 13.933946 -26.317813 10.837620
Hg 10.837620 -23.221487 10.837620
Hg 10.837620 -26.317813 13.933946
Hg 13.933946 -23.221487 13.933946
Hg 13.933946 -26.317813 17.030272
Hg 10.837620 -23.221487 17.030272
Hg 10.837620 -26.317813 20.126598
Hg 13.933946 -23.221487 20.126598
Hg 10.837620 -23.221487 23.222924
Hg 10.837620 -17.028835 -26.318292
Hg 10.837620 -20.125161 -23.221966
Hg 13.933946 -17.028835 -23.221966
Hg 13.933946 -20.125161 -20.125640
Hg 10.837620 -17.028835 -20.125640
Hg 10.837620 -20.125161 -17.029314
Hg 13.933946 -17.028835 -17.029314
Hg 13.933946 -20.125161 -13.932988
Hg 10.837620 -17.028835 -13.932988
Hg 10.837620 -20.125161 -10.836662
Hg 13.933946 -17.028835 -10.836662
Hg 13.933946 -20.125161 -7.740336
Hg 10.837620 -17.028835 -7.740336
Hg 10.837620 -20.125161 -4.644010
Hg 13.933946 -17.028835 -4.644010
Hg 13.933946 -20.125161 -1.547684
Hg 10.837620 -17.028835 -1.547684
Hg 10.837620 -20.125161 1.548642
Hg 13.933946 -17.028835 1.548642
Hg 13.933946 -20.125161 4.644968
Hg 10.837620 -17.028835 4.644968
Hg 10.837620 -20.125161 7.741294
Hg 13.933946 -17.028835 7.741294
Hg 13.933946 -20.125161 10.837620
Hg 10.837620 -17.028835 10.837620
Hg 10.837620 -20.125161 13.933946
Hg 13.933946 -17.028835 13.933946
Hg 13.933946 -20.125161 17.030272
Hg 10.837620 -17.028835 17.030272
Hg 10.837620 -20.125161 20.126598
Hg 13.933946 -17.028835 20.126598
Hg 13.933946 -20.125161 23.222924
Hg 10.837620 -17.028835 23.222924
Hg 10.837620 -20.125161 26.319250
Hg 13.933946 -17.028835 26.319250
Hg 10.837620 -17.028835 29.415576
Hg 10.837620 -10.836183 -32.510944
Hg 10.837620 -13.932509 -29.414618
Hg 13.933946 -10.836183 -29.414618
Hg 13.933946 -13.932509 -26.318292
Hg 10.837620 -10.836183 -26.318292
Hg 10.837620 -13.932509 -23.221966
Hg 13.933946 -10.836183 -23.221966
Hg 13.933946 -13.932509 -20.125640
Hg 10.837620 -10.836183 -20.125640
Hg 10.837620 -13.932509 -17.029314
Hg 13.933946 -10.836183 -17.029314
Hg 13.933946 -13.932509 -13.932988
Hg 10.837620 -10.836183 -13.932988
Hg 10.837620 -13.932509 -10.836662
Hg 13.933946 -10.836183 -10.836662
Hg 13.933946 -13.932509 -7.740336
Hg 10.837620 -10.836183 -7.740336
Hg 10.837620 -13.932509 -4.644010
Hg 13.933946 -10.836183 -4.644010
Hg 13.933946 -13.932509 -1.547684
Hg 10.837620 -10.836183 -1.547684
Hg 10.837620 -13.932509 1.548642
Hg 13.933946 -10.836183 1.548642
Hg 13.933946 -13.932509 4.644968
Hg 10.837620 -10.836183 4.644968
Hg 10.837620 -13.932509 7.741294
Hg 13.933946 -10.836183 7.741294
Hg 13.933946 -13.932509 10.837620
Hg 10.837620 -10.836183 10.837620
Hg 10.837620 -13.932509 13.933946
Hg 13.933946 -10.836183 13.933946
Hg 13.933946 -13.932509 17.030272
Hg 10.837620 -10.836183 17.030272
Hg 10.837620 -13.932509 20.126598
Hg 13.933946 -10.836183 20.126598
Hg 13.933946 -13.932509 23.222924
Hg 10.837620 -10.836183 23.222924
Hg 10.837620 -13.932509 26.319250
Hg 13.933946 -10.836183 26.319250
Hg 13.933946 -13.932509 29.415576
Hg 10.837620 -10.836183 29.415576
Hg 10.837620 -13.932509 32.511902
Hg 13.933946 -10.836183 32.511902
Hg 13.933946 -7.739857 -32.510944
Hg 10.837620 -4.643531 -32.510944
Hg 10.837620 -7.739857 -29.414618
Hg 13.933946 -4.643531 -29.414618
Hg 13.933946 -7.739857 -26.318292
Hg 10.837620 -4.643531 -26.318292
Hg 10.837620 -7.739857 -23.221966
Hg 13.933946 -4.643531 -23.221966
Hg 13.933946 -7.739857 -20.125640
Hg 10.837620 -4.643531 -20.125640
Hg 10.837620 -7.739857 -17.029314
Hg 13.933946 -4.643531 -17.029314
Hg 13.933946 -7.739857 -13.932988
Hg 10.837620 -4.643531 -13.932988
Hg 10.837620 -7.739857 -10.836662
Hg 13.933946 -4.643531 -10.836662
Hg 13.933946 -7.739857 -7.740336
Hg 10.837620 -4.643531 -7.740336
Hg 10.837620 -7.739857 -4.644010
Hg 13.933946 -4.643531 -4.644010
Hg 13.933946 -7.739857 -1.547684
Hg 10.837620 -4.643531 -1.547684
Hg 10.837620 -7.739857 1.548642
Hg 13.933946 -4.643531 1.548642
Hg 13.933946 -7.739857 4.644968
Hg 10.837620 -4.643531 4.644968
Hg 10.837620 -7.739857 7.741294
Hg 13.933946 -4.643531 7.741294
Hg 13.933946 -7.739857 10.837620
Hg 10.837620 -4.643531 10.837620
Hg 10.837620 -7.739857 13.933946
Hg 13.933946 -4.643531 13.933946
Hg 13.933946 -7.739857 17.030272
Hg 10.837620 -4.643531 17.030272
Hg 10.837620 -7.739857 20.126598
Hg 13.933946 -4.643531 20.126598
Hg 13.933946 -7.739857 23.222924
Hg 10.837620 -4.643531 23.222924
Hg 10.837620 -7.739857 26.319250
Hg 13.933946 -4.643531 26.319250
Hg 13.933946 -7.739857 29.415576
Hg 10.837620 -4.643531 29.415576
Hg 10.837620 -7.739857 32.511902
Hg 13.933946 -4.643531 32.511902
Hg 13.933946 -1.547205 -32.510944
Hg 10.837620 1.549121 -32.510944
Hg 10.837620 -1.547205 -29.414618
Hg 13.933946 1.549121 -29.414618
Hg 13.933946 -1.547205 -26.318292
Hg 10.837620 1.549121 -26.318292
Hg 10.837620 -1.547205 -23.221966
Hg 13.933946 1.549121 -23.221966
Hg 13.933946 -1.547205 -20.125640
Hg 10.837620 1.549121 -20.125640
Hg 10.837620 -1.547205 -17.029314
Hg 13.933946 1.549121 -17.029314
Hg 13.933946 -1.547205 -13.932988
Hg 10.837620 1.549121 -13.932988
Hg 10.837620 -1.547205 -10.836662
Hg 13.933946 1.549121 -10.836662
Hg 13.933946 -1.547205 -7.740336
Hg 10.837620 1.549121 -7.740336
Hg 10.837620 -1.547205 -4.644010
Hg 13.933946 1.549121 -4.644010
Hg 13.933946 -1.547205 -1.547684
Hg 10.837620 1.549121 -1.547684
Hg 10.837620 -1.547205 1.548642
Hg 13.933946 1.549121 1.548642
Hg 13.933946 -1.547205 4.644968
Hg 10.837620 1.549121 4.644968
Hg 10.837620 -1.547205 7.741294
Hg 13.933946 1.549121 7.741294
Hg 13.933946 -1.547205 10.837620
Hg 10.837620 1.549121 10.837620
Hg 10.837620 -1.547205 13.933946
Hg 13.933946 1.549121 13.933946
Hg 13.933946 -1.547205 17.030272
Hg 10.837620 1.549121 17.030272
Hg 10.837620 -1.547205 20.126598
Hg 13.933946 1.549121 20.126598
Hg 13.933946 -1.547205 23.222924
Hg 10.837620 1.549121 23.222924
Hg 10.837620 -1.547205 26.319250
Hg 13.933946 1.549121 26.319250
Hg 13.933946 -1.547205 29.415576
Hg 10.837620 1.549121 29.415576
Hg 10.837620 -1.547205 32.511902
Hg 13.933946 1.549121 32.511902
Hg 13.933946 4.645447 -32.510944
Hg 10.837620 7.741773 -32.510944
Hg 10.837620 4.645447 -29.414618
Hg 13.933946 7.741773 -29.414618
Hg 13.933946 4.645447 -26.318292
Hg 10.837620 7.741773 -26.318292
Hg 10.837620 4.645447 -23.221966
Hg 13.933946 7.741773 -23.221966
Hg 13.933946 4.645447 -20.125640
Hg 10.837620 7.741773 -20.125640
Hg 10.837620 4.645447 -17.029314
Hg 13.933946 7.741773 -17.029314
Hg 13.933946 4.645447 -13.932988
Hg 10.837620 7.741773 -13.932988
Hg 10.837620 4.645447 -10.836662
Hg 13.933946 7.741773 -10.836662
Hg 13.933946 4.645447 -7.740336
Hg 10.837620 7.741773 -7.740336
Hg 10.837620 4.645447 -4.644010
Hg 13.933946 7.741773 -4.644010
Hg 13.933946 4.645447 -1.547684
Hg 10.837620 7.741773 -1.547684
Hg 10.837620 4.645447 1.548642
Hg 13.933946 7.741773 1.548642
Hg 13.933946 4.645447 4.644968
Hg 10.837620 7.741773 4.644968
Hg 10.837620 4.645447 7.741294
Hg 13.933946 7.741773 7.741294
Hg 13.933946 4.645447 10.837620
Hg 10.837620 7.741773 10.837620
Hg 10.837620 4.645447 13.933946
Hg 13.933946 7.741773 13.933946
Hg 13.933946 4.645447 17.030272
Hg 10.837620 7.741773 17.030272
Hg 10.837620 4.645447 20.126598
Hg 13.933946 7.741773 20.126598
Hg 13.933946 4.645447 23.222924
Hg 10.837620 7.741773 23.222924
Hg 10.837620 4.645447 26.319250
Hg 13.933946 7.741773 26.319250
Hg 13.933946 4.645447 29.415576
Hg 10.837620 7.741773 29.415576
Hg 10.837620 4.645447 32.511902
Hg 13.933946 7.741773 32.511902
Hg 13.933946 10.838100 -32.510944
Hg 10.837620 13.934426 -32.510944
Hg 10.837620 10.838100 -29.414618
Hg 13.933946 13.934426 -29.414618
Hg 13.933946 10.838100 -26.318292
Hg 10.837620 13.934426 -26.318292
Hg 10.837620 10.838100 -23.221966
Hg 13.933946 13.934426 -23.221966
Hg 13.933946 10.838100 -20.125640
Hg 10.837620 13.934426 -20.125640
Hg 10.837620 10.838100 -17.029314
Hg 13.933946 13.934426 -17.029314
Hg 13.933946 10.838100 -13.932988
Hg 10.837620 13.934426 -13.932988
Hg 10.837620 10.838100 -10.836662
Hg 13.933946 13.934426 -10.836662
Hg 13.933946 10.838100 -7.740336
Hg 10.837620 13.934426 -7.740336
Hg 10.837620 10.838100 -4.644010
Hg 13.933946 13.934426 -4.644010
Hg 13.933946 10.838100 -1.547684
Hg 10.837620 13.934426 -1.547684
Hg 10.837620 10.838100 1.548642
Hg 13.933946 13.934426 1.548642
Hg 13.933946 10.838100 4.644968
Hg 10.837620 13.934426 4.644968
Hg 10.837620 10.838100 7.741294
Hg 13.933946 13.934426 7.741294
Hg 13.933946 10.838100 10.837620
Hg 10.837620 13.934426 10.837620
Hg 10.837620 10.838100 13.933946
Hg 13.933946 13.934426 13.933946
Hg 13.933946 10.838100 17.030272
Hg 10.837620 13.934426 17.030272
Hg 10.837620 10.838100 20.126598
Hg 13.933946 13.934426 20.126598
Hg 13.933946 10.838100 23.222924
Hg 10.837620 13.934426 23.222924
Hg 10.837620 10.838100 26.319250
Hg 13.933946 13.934426 26.319250
Hg 13.933946 10.838100 29.415576
Hg 10.837620 13.934426 29.415576
Hg 10.837620 10.838100 32.511902
Hg 10.837620 17.030752 -29.414618
Hg 13.933946 17.030752 -26.318292
Hg 10.837620 20.127078 -26.318292
Hg 10.837620 17.030752 -23.221966
Hg 13.933946 20.127078 -23.221966
Hg 13.933946 17.030752 -20.125640
Hg 10.837620 20.127078 -20.125640
Hg 10.837620 17.030752 -17.029314
Hg 13.933946 20.127078 -17.029314
Hg 13.933946 17.030752 -13.932988
Hg 10.837620 20.127078 -13.932988
Hg 10.837620 17.030752 -10.836662
Hg 13.933946 20.127078 -10.836662
Hg 13.933946 17.030752 -7.740336
Hg 10.837620 20.127078 -7.740336
Hg 10.837620 17.030752 -4.644010
Hg 13.933946 20.127078 -4.644010
Hg 13.933946 17.030752 -1.547684
Hg 10.837620 20.127078 -1.547684
Hg 10.837620 17.030752 1.548642
Hg 13.933946 20.127078 1.548642
Hg 13.933946 17.030752 4.644968
Hg 10.837620 20.127078 4.644968
Hg 10.837620 17.030752 7.741294
Hg 13.933946 20.127078 7.741294
Hg 13.933946 17.030752 10.837620
Hg 10.837620 20.127078 10.837620
Hg 10.837620 17.030752 13.933946
Hg 13.933946 20.127078 13.933946
Hg 13.933946 17.030752 17.030272
Hg 10.837620 20.127078 17.030272
Hg 10.837620 17.030752 20.126598
Hg 13.933946 20.127078 20.126598
Hg 13.933946 17.030752 23.222924
Hg 10.837620 20.127078 23.222924
Hg 10.837620 17.030752 26.319250
Hg 10.837620 23.223404 -23.221966
Hg 13.933946 23.223404 -20.125640
Hg 10.837620 26.319730 -20.125640
Hg 10.837620 23.223404 -17.029314
Hg 13.933946 26.319730 -17.029314
Hg 13.933946 23.223404 -13.932988
Hg 10.837620 26.319730 -13.932988
Hg 10.837620 23.223404 -10.836662
Hg 13.933946 26.319730 -10.836662
Hg 13.933946 23.223404 -7.740336
Hg 10.837620 26.319730 -7.740336
Hg 10.837620 23.223404 -4.644010
Hg 13.933946 26.319730 -4.644010
Hg 13.933946 23.223404 -1.547684
Hg 10.837620 26.319730 -1.547684
Hg 10.837620 23.223404 1.548642
Hg 13.933946 26.319730 1.548642
Hg 13.933946 23.223404 4.644968
Hg 10.837620 26.319730 4.644968
Hg 10.837620 23.223404 7.741294
Hg 13.933946 26.319730 7.741294
Hg 13.933946 23.223404 10.837620
Hg 10.837620 26.319730 10.837620
Hg 10.837620 23.223404 13.933946
Hg 13.933946 26.319730 13.933946
Hg 13.933946 23.223404 17.030272
Hg 10.837620 26.319730 17.030272
Hg 10.837620 23.223404 20.126598
Hg 10.837620 29.416056 -17.029314
Hg 13.933946 29.416056 -13.932988
Hg 10.837620 32.512382 -13.932988
Hg 10.837620 29.416056 -10.836662
Hg 13.933946 32.512382 -10.836662
Hg 13.933946 29.416056 -7.740336
Hg 10.837620 32.512382 -7.740336
Hg 10.837620 29.416056 -4.644010
Hg 13.933946 32.512382 -4.644010
Hg 13.933946 29.416056 -1.547684
Hg 10.837620 32.512382 -1.547684
Hg 10.837620 29.416056 1.548642
Hg 13.933946 32.512382 1.548642
Hg 13.933946 29.416056 4.644968
Hg 10.837620 32.512382 4.644968
Hg 10.837620 29.416056 7.741294
Hg 13.933946 32.512382 7.741294
Hg 13.933946 29.416056 10.837620
Hg 10.837620 32.512382 10.837620
Hg 10.837620 29.416056 13.933946
Hg 17.030272 -29.414139 -7.740336
Hg 17.030272 -29.414139 -1.547684
Hg 17.030272 -29.414139 4.644968
Hg 17.030272 -29.414139 10.837620
Hg 17.030272 -23.221487 -13.932988
Hg 17.030272 -26.317813 -10.836662
Hg 20.126598 -23.221487 -10.836662
Hg 20.126598 -26.317813 -7.740336
Hg 17.030272 -23.221487 -7.740336
Hg 17.030272 -26.317813 -4.644010
Hg 20.126598 -23.221487 -4.644010
Hg 20.126598 -26.317813 -1.547684
Hg 17.030272 -23.221487 -1.547684
Hg 17.030272 -26.317813 1.548642
Hg 20.126598 -23.221487 1.548642
Hg 20.126598 -26.317813 4.644968
Hg 17.030272 -23.221487 4.644968
Hg 17.030272 -26.317813 7.741294
Hg 20.126598 -23.221487 7.741294
Hg 20.126598 -26.317813 10.837620
Hg 17.030272 -23.221487 10.837620
Hg 17.030272 -26.317813 13.933946
Hg 20.126598 -23.221487 13.933946
Hg 17.030272 -23.221487 17.030272
Hg 17.030272 -17.028835 -20.125640
Hg 17.030272 -20.125161 -17.029314
Hg 20.126598 -17.028835 -17.029314
Hg 20.126598 -20.125161 -13.932988
Hg 17.030272 -17.028835 -13.932988
Hg 17.030272 -20.125161 -10.836662
Hg 20.126598 -17.028835 -10.836662
Hg 20.126598 -20.125161 -7.740336
Hg 17.030272 -17.028835 -7.740336
Hg 17.030272 -20.125161 -4.644010
Hg 20.126598 -17.028835 -4.644010
Hg 20.126598 -20.125161 -1.547684
Hg 17.030272 -17.028835 -1.547684
Hg 17.030272 -20.125161 1.548642
Hg 20.126598 -17.028835 1.548642
Hg 20.126598 -20.125161 4.644968
Hg 17.030272 -17.028835 4.644968
Hg 17.030272 -20.125161 7.741294
Hg 20.126598 -17.028835 7.741294
Hg 20.126598 -20.125161 10.837620
Hg 17.030272 -17.028835 10.837620
Hg 17.030272 -20.125161 13.933946
Hg 20.126598 -17.028835 13.933946
Hg 20.126598 -20.125161 17.030272
Hg 17.030272 -17.028835 17.030272
Hg 17.030272 -20.125161 20.126598
Hg 20.126598 -17.028835 20.126598
Hg 17.030272 -17.028835 23.222924
Hg 17.030272 -10.836183 -26.318292
Hg 17.030272 -13.932509 -23.221966
Hg 20.126598 -10.836183 -23.221966
Hg 20.126598 -13.932509 -20.125640
Hg 17.030272 -10.836183 -20.125640
Hg 17.030272 -13.932509 -17.029314
Hg 20.126598 -10.836183 -17.029314
Hg 20.126598 -13.932509 -13.932988
Hg 17.030272 -10.836183 -13.932988
Hg 17.030272 -13.932509 -10.836662
Hg 20.126598 -10.836183 -10.836662
Hg 20.126598 -13.932509 -7.740336
Hg 17.030272 -10.836183 -7.740336
Hg 17.030272 -13.932509 -4.644010
Hg 20.126598 -10.836183 -4.644010
Hg 20.126598 -13.932509 -1.547684
Hg 17.030272 -10.836183 -1.547684
Hg 17.030272 -13.932509 1.548642
Hg 20.126598 -10.836183 1.548642
Hg 20.126598 -13.932509 4.644968
Hg 17.030272 -10.836183 4.644968
Hg 17.030272 -13.932509 7.741294
Hg 20.126598 -10.836183 7.741294
Hg 20.126598 -13.932509 10.837620
Hg 17.030272 -10.836183 10.837620
Hg 17.030272 -13.932509 13.933946
Hg 20.126598 -10.836183 13.933946
Hg 20.126598 -13.932509 17.030272
Hg 17.030272 -10.836183 17.030272
Hg 17.030272 -13.932509 20.126598
Hg 20.126598 -10.836183 20.126598
Hg 20.126598 -13.932509 23.222924
Hg 17.030272 -10.836183 23.222924
Hg 17.030272 -13.932509 26.319250
Hg 20.126598 -10.836183 26.319250
Hg 17.030272 -10.836183 29.415576
Hg 17.030272 -7.739857 -29.414618
Hg 20.126598 -7.739857 -26.318292
Hg 17.030272 -4.643531 -26.318292
Hg 17.030272 -7.739857 -23.221966
Hg 20.126598 -4.643531 -23.221966
Hg 20.126598 -7.739857 -20.125640
Hg 17.030272 -4.643531 -20.125640
Hg 17.030272 -7.739857 -17.029314
Hg 20.126598 -4.643531 -17.029314
Hg 20.126598 -7.739857 -13.932988
Hg 17.030272 -4.643531 -13.932988
Hg 17.030272 -7.739857 -10.836662
Hg 20.126598 -4.643531 -10.836662
Hg 20.126598 -7.739857 -7.740336
Hg 17.030272 -4.643531 -7.740336
Hg 17.030272 -7.739857 -4.644010
Hg 20.126598 -4.643531 -4.644010
Hg 20.126598 -7.739857 -1.547684
Hg 17.030272 -4.643531 -1.547684
Hg 17.030272 -7.739857 1.548642
Hg 20.126598 -4.643531 1.548642
Hg 20.126598 -7.739857 4.644968
Hg 17.030272 -4.643531 4.644968
Hg 17.030272 -7.739857 7.741294
Hg 20.126598 -4.643531 7.741294
Hg 20.126598 -7.739857 10.837620
Hg 17.030272 -4.643531 10.837620
Hg 17.030272 -7.739857 13.933946
Hg 20.126598 -4.643531 13.933946
Hg 20.126598 -7.739857 17.030272
Hg 17.030272 -4.643531 17.030272
Hg 17.030272 -7.739857 20.126598
Hg 20.126598 -4.643531 20.126598
Hg 20.126598 -7.739857 23.222924
Hg 17.030272 -4.643531 23.222924
Hg 17.030272 -7.739857 26.319250
Hg 20.126598 -4.643531 26.319250
Hg 17.030272 -4.643531 29.415576
Hg 17.030272 -1.547205 -29.414618
Hg 20.126598 -1.547205 -26.318292
Hg 17.030272 1.549121 -26.318292
Hg 17.030272 -1.547205 -23.221966
Hg 20.126598 1.549121 -23.221966
Hg 20.126598 -1.547205 -20.125640
Hg 17.030272 1.549121 -20.125640
Hg 17.030272 -1.547205 -17.029314
Hg 20.126598 1.549121 -17.029314
Hg 20.126598 -1.547205 -13.932988
Hg 17.030272 1.549121 -13.932988
Hg 17.030272 -1.547205 -10.836662
Hg 20.126598 1.549121 -10.836662
Hg 20.126598 -1.547205 -7.740336
Hg 17.030272 1.549121 -7.740336
Hg 17.030272 -1.547205 -4.644010
Hg 20.126598 1.549121 -4.644010
Hg 20.126598 -1.547205 -1.547684
Hg 17.030272 1.549121 -1.547684
Hg 17.030272 -1.547205 1.548642
Hg 20.126598 1.549121 1.548642
Hg 20.126598 -1.547205 4.644968
Hg 17.030272 1.549121 4.644968
Hg 17.030272 -1.547205 7.741294
Hg 20.126598 1.549121 7.741294
Hg 20.126598 -1.547205 10.837620
Hg 17.030272 1.549121 10.837620
Hg 17.030272 -1.547205 13.933946
Hg 20.126598 1.549121 13.933946
Hg 20.126598 -1.547205 17.030272
Hg 17.030272 1.549121 17.030272
Hg 17.030272 -1.547205 20.126598
Hg 20.126598 1.549121 20.126598
Hg 20.126598 -1.547205 23.222924
Hg 17.030272 1.549121 23.222924
Hg 17.030272 -1.547205 26.319250
Hg 20.126598 1.549121 26.319250
Hg 17.030272 1.549121 29.415576
Hg 17.030272 4.645447 -29.414618
Hg 20.126598 4.645447 -26.318292
Hg 17.030272 7.741773 -26.318292
Hg 17.030272 4.645447 -23.221966
Hg 20.126598 7.741773 -23.221966
Hg 20.126598 4.645447 -20.125640
Hg 17.030272 7.741773 -20.125640
Hg 17.030272 4.645447 -17.029314
Hg 20.126598 7.741773 -17.029314
Hg 20.126598 4.645447 -13.932988
Hg 17.030272 7.741773 -13.932988
Hg 17.030272 4.645447 -10.836662
Hg 20.126598 7.741773 -10.836662
Hg 20.126598 4.645447 -7.740336
Hg 17.030272 7.741773 -7.740336
Hg 17.030272 4.645447 -4.644010
Hg 20.126598 7.741773 -4.644010
Hg 20.126598 4.645447 -1.547684
Hg 17.030272 7.741773 -1.547684
Hg 17.030272 4.645447 1.548642
Hg 20.126598 7.741773 1.548642
Hg 20.126598 4.645447 4.644968
Hg 17.030272 7.741773 4.644968
Hg 17.030272 4.645447 7.741294
Hg 20.126598 7.741773 7.741294
Hg 20.126598 4.645447 10.837620
Hg 17.030272 7.741773 10.837620
Hg 17.030272 4.645447 13.933946
Hg 20.126598 7.741773 13.933946
Hg 20.126598 4.645447 17.030272
Hg 17.030272 7.741773 17.030272
Hg 17.030272 4.645447 20.126598
Hg 20.126598 7.741773 20.126598
Hg 20.126598 4.645447 23.222924
Hg 17.030272 7.741773 23.222924
Hg 17.030272 4.645447 26.319250
Hg 20.126598 7.741773 26.319250
Hg 17.030272 7.741773 29.415576
Hg 17.030272 10.838100 -29.414618
Hg 20.126598 10.838100 -26.318292
Hg 17.030272 13.934426 -26.318292
Hg 17.030272 10.838100 -23.221966
Hg 20.126598 13.934426 -23.221966
Hg 20.126598 10.838100 -20.125640
Hg 17.030272 13.934426 -20.125640
Hg 17.030272 10.838100 -17.029314
Hg 20.126598 13.934426 -17.029314
Hg 20.126598 10.838100 -13.932988
Hg 17.030272 13.934426 -13.932988
Hg 17.030272 10.838100 -10.836662
Hg 20.126598 13.934426 -10.836662
Hg 20.126598 10.838100 -7.740336
Hg 17.030272 13.934426 -7.740336
Hg 17.030272 10.838100 -4.644010
Hg 20.126598 13.934426 -4.644010
Hg 20.126598 10.838100 -1.547684
Hg 17.030272 13.934426 -1.547684
Hg 17.030272 10.838100 1.548642
Hg 20.126598 13.934426 1.548642
Hg 20.126598 10.838100 4.644968
Hg 17.030272 13.934426 4.644968
Hg 17.030272 10.838100 7.741294
Hg 20.126598 13.934426 7.741294
Hg 20.126598 10.838100 10.837620
Hg 17.030272 13.934426 10.837620
Hg 17.030272 10.838100 13.933946
Hg 20.126598 13.934426 13.933946
Hg 20.126598 10.838100 17.030272
Hg 17.030272 13.934426 17.030272
Hg 17.030272 10.838100 20.126598
Hg 20.126598 13.934426 20.126598
Hg 20.126598 10.838100 23.222924
Hg 17.030272 13.934426 23.222924
Hg 17.030272 10.838100 26.319250
Hg 17.030272 17.030752 -23.221966
Hg 20.126598 17.030752 -20.125640
Hg 17.030272 20.127078 -20.125640
Hg 17.030272 17.030752 -17.029314
Hg 20.126598 20.127078 -17.029314
Hg 20.126598 17.030752 -13.932988
Hg 17.030272 20.127078 -13.932988
Hg 17.030272 17.030752 -10.836662
Hg 20.126598 20.127078 -10.836662
Hg 20.126598 17.030752 -7.740336
Hg 17.030272 20.127078 -7.740336
Hg 17.030272 17.030752 -4.644010
Hg 20.126598 20.127078 -4.644010
Hg 20.126598 17.030752 -1.547684
Hg 17.030272 20.127078 -1.547684
Hg 17.030272 17.030752 1.548642
Hg 20.126598 20.127078 1.548642
Hg 20.126598 17.030752 4.644968
Hg 17.030272 20.127078 4.644968
Hg 17.030272 17.030752 7.741294
Hg 20.126598 20.127078 7.741294
Hg 20.126598 17.030752 10.837620
Hg 17.030272 20.127078 10.837620
Hg 17.030272 17.030752 13.933946
Hg 20.126598 20.127078 13.933946
Hg 20.126598 17.030752 17.030272
Hg 17.030272 20.127078 17.030272
Hg 17.030272 17.030752 20.126598
Hg 17.030272 23.223404 -17.029314
Hg 20.126598 23.223404 -13.932988
Hg 17.030272 26.319730 -13.932988
Hg 17.030272 23.223404 -10.836662
Hg 20.126598 26.319730 -10.836662
Hg 20.126598 23.223404 -7.740336
Hg 17.030272 26.319730 -7.740336
Hg 17.030272 23.223404 -4.644010
Hg 20.126598 26.319730 -4.644010
Hg 20.126598 23.223404 -1.547684
Hg 17.030272 26.319730 -1.547684
Hg 17.030272 23.223404 1.548642
Hg 20.126598 26.319730 1.548642
Hg 20.126598 23.223404 4.644968
Hg 17.030272 26.319730 4.644968
Hg 17.030272 23.223404 7.741294
Hg 20.126598 26.319730 7.741294
Hg 20.126598 23.223404 10.837620
Hg 17.030272 26.319730 10.837620
Hg 17.030272 23.223404 13.933946
Hg 17.030272 29.416056 -10.836662
Hg 17.030272 29.416056 -4.644010
Hg 17.030272 29.416056 1.548642
Hg 17.030272 29.416056 7.741294
Hg 23.222924 -23.221487 -7.740336
Hg 23.222924 -23.221487 -1.547684
Hg 23.222924 -23.221487 4.644968
Hg 23.222924 -23.221487 10.837620
Hg 23.222924 -17.028835 -13.932988
Hg 23.222924 -20.125161 -10.836662
Hg 26.319250 -17.028835 -10.836662
Hg 26.319250 -20.125161 -7.740336
Hg 23.222924 -17.028835 -7.740336
Hg 23.222924 -20.125161 -4.644010
Hg 26.319250 -17.028835 -4.644010
Hg 26.319250 -20.125161 -1.547684
Hg 23.222924 -17.028835 -1.547684
Hg 23.222924 -20.125161 1.548642
Hg 26.319250 -17.028835 1.548642
Hg 26.319250 -20.125161 4.644968
Hg 23.222924 -17.028835 4.644968
Hg 23.222924 -20.125161 7.741294
Hg 26.319250 -17.028835 7.741294
Hg 26.319250 -20.125161 10.837620
Hg 23.222924 -17.028835 10.837620
Hg 23.222924 -20.125161 13.933946
Hg 26.319250 -17.028835 13.933946
Hg 23.222924 -17.028835 17.030272
Hg 23.222924 -10.836183 -20.125640
Hg 23.222924 -13.932509 -17.029314
Hg 26.319250 -10.836183 -17.029314
Hg 26.319250 -13.932509 -13.932988
Hg 23.222924 -10.836183 -13.932988
Hg 23.222924 -13.932509 -10.836662
Hg 26.319250 -10.836183 -10.836662
Hg 26.319250 -13.932509 -7.740336
Hg 23.222924 -10.836183 -7.740336
Hg 23.222924 -13.932509 -4.644010
Hg 26.319250 -10.836183 -4.644010
Hg 26.319250 -13.932509 -1.547684
Hg 23.222924 -10.836183 -1.547684
Hg 23.222924 -13.932509 1.548642
Hg 26.319250 -10.836183 1.548642
Hg 26.319250 -13.932509 4.644968
Hg 23.222924 -10.836183 4.644968
Hg 23.222924 -13.932509 7.741294
Hg 26.319250 -10.836183 7.741294
Hg 26.319250 -13.932509 10.837620
Hg 23.222924 -10.836183 10.837620
Hg 23.222924 -13.932509 13.933946
Hg 26.319250 -10.836183 13.933946
Hg 26.319250 -13.932509 17.030272
Hg 23.222924 -10.836183 17.030272
Hg 23.222924 -13.932509 20.126598
Hg 26.319250 -10.836183 20.126598
Hg 23.222924 -10.836183 23.222924
Hg 23.222924 -7.739857 -23.221966
Hg 26.319250 -7.739857 -20.125640
Hg 23.222924 -4.643531 -20.125640
Hg 23.222924 -7.739857 -17.029314
Hg 26.319250 -4.643531 -17.029314
Hg 26.319250 -7.739857 -13.932988
Hg 23.222924 -4.643531 -13.932988
Hg 23.222924 -7.739857 -10.836662
Hg 26.319250 -4.643531 -10.836662
Hg 26.319250 -7.739857 -7.740336
Hg 23.222924 -4.643531 -7.740336
Hg 23.222924 -7.739857 -4.644010
Hg 26.319250 -4.643531 -4.644010
Hg 26.319250 -7.739857 -1.547684
Hg 23.222924 -4.643531 -1.547684
Hg 23.222924 -7.739857 1.548642
Hg 26.319250 -4.643531 1.548642
Hg 26.319250 -7.739857 4.644968
Hg 23.222924 -4.643531 4.644968
Hg 23.222924 -7.739857 7.741294
Hg 26.319250 -4.643531 7.741294
Hg 26.319250 -7.739857 10.837620
Hg 23.222924 -4.643531 10.837620
Hg 23.222924 -7.739857 13.933946
Hg 26.319250 -4.643531 13.933946
Hg 26.319250 -7.739857 17.030272
Hg 23.222924 -4.643531 17.030272
Hg 23.222924 -7.739857 20.126598
Hg 26.319250 -4.643531 20.126598
Hg 23.222924 -4.643531 23.222924
Hg 23.222924 -1.547205 -23.221966
Hg 26.319250 -1.547205 -20.125640
Hg 23.222924 1.549121 -20.125640
Hg 23.222924 -1.547205 -17.029314
Hg 26.319250 1.549121 -17.029314
Hg 26.319250 -1.547205 -13.932988
Hg 23.222924 1.549121 -13.932988
Hg 23.222924 -1.547205 -10.836662
Hg 26.319250 1.549121 -10.836662
Hg 26.319250 -1.547205 -7.740336
Hg 23.222924 1.549121 -7.740336
Hg 23.222924 -1.547205 -4.644010
Hg 26.319250 1.549121 -4.644010
Hg 26.319250 -1.547205 -1.547684
Hg 23.222924 1.549121 -1.547684
Hg 23.222924 -1.547205 1.548642
Hg 26.319250 1.549121 1.548642
Hg 26.319250 -1.547205 4.644968
Hg 23.222924 1.549121 4.644968
Hg 23.222924 -1.547205 7.741294
Hg 26.319250 1.549121 7.741294
Hg 26.319250 -1.547205 10.837620
Hg 23.222924 1.549121 10.837620
Hg 23.222924 -1.547205 13.933946
Hg 26.319250 1.549121 13.933946
Hg 26.319250 -1.547205 17.030272
Hg 23.222924 1.549121 17.030272
Hg 23.222924 -1.547205 20.126598
Hg 26.319250 1.549121 20.126598
Hg 23.222924 1.549121 23.222924
Hg 23.222924 4.645447 -23.221966
Hg 26.319250 4.645447 -20.125640
Hg 23.222924 7.741773 -20.125640
Hg 23.222924 4.645447 -17.029314
Hg 26.319250 7.741773 -17.029314
Hg 26.319250 4.645447 -13.932988
Hg 23.222924 7.741773 -13.932988
Hg 23.222924 4.645447 -10.836662
Hg 26.319250 7.741773 -10.836662
Hg 26.319250 4.645447 -7.740336
Hg 23.222924 7.741773 -7.740336
Hg 23.222924 4.645447 -4.644010
Hg 26.319250 7.741773 -4.644010
Hg 26.319250 4.645447 -1.547684
Hg 23.222924 7.741773 -1.547684
Hg 23.222924 4.645447 1.548642
Hg 26.319250 7.741773 1.548642
Hg 26.319250 4.645447 4.644968
Hg 23.222924 7.741773 4.644968
Hg 23.222924 4.645447 7.741294
Hg 26.319250 7.741773 7.741294
Hg 26.319250 4.645447 10.837620
Hg 23.222924 7.741773 10.837620
Hg 23.222924 4.645447 13.933946
Hg 26.319250 7.741773 13.933946
Hg 26.319250 4.645447 17.030272
Hg 23.222924 7.741773 17.030272
Hg 23.222924 4.645447 20.126598
Hg 26.319250 7.741773 20.126598
Hg 23.222924 7.741773 23.222924
Hg 23.222924 10.838100 -23.221966
Hg 26.319250 10.838100 -20.125640
Hg 23.222924 13.934426 -20.125640
Hg 23.222924 10.838100 -17.029314
Hg 26.319250 13.934426 -17.029314
Hg 26.319250 10.838100 -13.932988
Hg 23.222924 13.934426 -13.932988
Hg 23.222924 10.838100 -10.836662
Hg 26.319250 13.934426 -10.836662
Hg 26.319250 10.838100 -7.740336
Hg 23.222924 13.934426 -7.740336
Hg 23.222924 10.838100 -4.644010
Hg 26.319250 13.934426 -4.644010
Hg 26.319250 10.838100 -1.547684
Hg 23.222924 13.934426 -1.547684
Hg 23.222924 10.838100 1.548642
Hg 26.319250 13.934426 1.548642
Hg 26.319250 10.838100 4.644968
Hg 23.222924 13.934426 4.644968
Hg 23.222924 10.838100 7.741294
Hg 26.319250 13.934426 7.741294
Hg 26.319250 10.838100 10.837620
Hg 23.222924 13.934426 10.837620
Hg 23.222924 10.838100 13.933946
Hg 26.319250 13.934426 13.933946
Hg 26.319250 10.838100 17.030272
Hg 23.222924 13.934426 17.030272
Hg 23.222924 10.838100 20.126598
Hg 23.222924 17.030752 -17.029314
Hg 26.319250 17.030752 -13.932988
Hg 23.222924 20.127078 -13.932988
Hg 23.222924 17.030752 -10.836662
Hg 26.319250 20.127078 -10.836662
Hg 26.319250 17.030752 -7.740336
Hg 23.222924 20.127078 -7.740336
Hg 23.222924 17.030752 -4.644010
Hg 26.319250 20.127078 -4.644010
Hg 26.319250 17.030752 -1.547684
Hg 23.222924 20.127078 -1.547684
Hg 23.222924 17.030752 1.548642
Hg 26.319250 20.127078 1.548642
Hg 26.319250 17.030752 4.644968
Hg 23.222924 20.127078 4.644968
Hg 23.222924 17.030752 7.741294
Hg 26.319250 20.127078 7.741294
Hg 26.319250 17.030752 10.837620
Hg 23.222924 20.127078 10.837620
Hg 23.222924 17.030752 13.933946
Hg 23.222924 23.223404 -10.836662
Hg 23.222924 23.223404 -4.644010
Hg 23.222924 23.223404 1.548642
Hg 23.222924 23.223404 7.741294
Hg 29.415576 -17.028835 -7.740336
Hg 29.415576 -17.028835 -1.547684
Hg 29.415576 -17.028835 4.644968
Hg 29.415576 -17.028835 10.837620
Hg 29.415576 -10.836183 -13.932988
Hg 29.415576 -13.932509 -10.836662
Hg 32.511902 -10.836183 -10.836662
Hg 32.511902 -13.932509 -7.740336
Hg 29.415576 -10.836183 -7.740336
Hg 29.415576 -13.932509 -4.644010
Hg 32.511902 -10.836183 -4.644010
Hg 32.511902 -13.932509 -1.547684
Hg 29.415576 -10.836183 -1.547684
Hg 29.415576 -13.932509 1.548642
Hg 32.511902 -10.836183 1.548642
Hg 32.511902 -13.932509 4.644968
Hg 29.415576 -10.836183 4.644968
Hg 29.415576 -13.932509 7.741294
Hg 32.511902 -10.836183 7.741294
Hg 32.511902 -13.932509 10.837620
Hg 29.415576 -10.836183 10.837620
Hg 29.415576 -13.932509 13.933946
Hg 32.511902 -10.836183 13.933946
Hg 29.415576 -10.836183 17.030272
Hg 29.415576 -7.739857 -17.029314
Hg 32.511902 -7.739857 -13.932988
Hg 29.415576 -4.643531 -13.932988
Hg 29.415576 -7.739857 -10.836662
Hg 32.511902 -4.643531 -10.836662
Hg 32.511902 -7.739857 -7.740336
Hg 29.415576 -4.643531 -7.740336
Hg 29.415576 -7.739857 -4.644010
Hg 32.511902 -4.643531 -4.644010
Hg 32.511902 -7.739857 -1.547684
Hg 29.415576 -4.643531 -1.547684
Hg 29.415576 -7.739857 1.548642
Hg 32.511902 -4.643531 1.548642
Hg 32.511902 -7.739857 4.644968
Hg 29.415576 -4.643531 4.644968
Hg 29.415576 -7.739857 7.741294
Hg 32.511902 -4.643531 7.741294
Hg 32.511902 -7.739857 10.837620
Hg 29.415576 -4.643531 10.837620
Hg 29.415576 -7.739857 13.933946
Hg 32.511902 -4.643531 13.933946
Hg 29.415576 -4.643531 17.030272
Hg 29.415576 -1.547205 -17.029314
Hg 32.511902 -1.547205 -13.932988
Hg 29.415576 1.549121 -13.932988
Hg 29.415576 -1.547205 -10.836662
Hg 32.511902 1.549121 -10.836662
Hg 32.511902 -1.547205 -7.740336
Hg 29.415576 1.549121 -7.740336
Hg 29.415576 -1.547205 -4.644010
Hg 32.511902 1.549121 -4.644010
Hg 32.511902 -1.547205 -1.547684
Hg 29.415576 1.549121 -1.547684
Hg 29.415576 -1.547205 1.548642
Hg 32.511902 1.549121 1.548642
Hg 32.511902 -1.547205 4.644968
Hg 29.415576 1.549121 4.644968
Hg 29.415576 -1.547205 7.741294
Hg 32.511902 1.549121 7.741294
Hg 32.511902 -1.547205 10.837620
Hg 29.415576 1.549121 10.837620
Hg 29.415576 -1.547205 13.933946
Hg 32.511902 1.549121 13.933946
Hg 29.415576 1.549121 17.030272
Hg 29.415576 4.645447 -17.029314
Hg 32.511902 4.645447 -13.932988
Hg 29.415576 7.741773 -13.932988
Hg 29.415576 4.645447 -10.836662
Hg 32.511902 7.741773 -10.836662
Hg 32.511902 4.645447 -7.740336
Hg 29.415576 7.741773 -7.740336
Hg 29.415576 4.645447 -4.644010
Hg 32.511902 7.741773 -4.644010
Hg 32.511902 4.645447 -1.547684
Hg 29.415576 7.741773 -1.547684
Hg 29.415576 4.645447 1.548642
Hg 32.511902 7.741773 1.548642
Hg 32.511902 4.645447 4.644968
Hg 29.415576 7.741773 4.644968
Hg 29.415576 4.645447 7.741294
Hg 32.511902 7.741773 7.741294
Hg 32.511902 4.645447 10.837620
Hg 29.415576 7.741773 10.837620
Hg 29.415576 4.645447 13.933946
Hg 32.511902 7.741773 13.933946
Hg 29.415576 7.741773 17.030272
Hg 29.415576 10.838100 -17.029314
Hg 32.511902 10.838100 -13.932988
Hg 29.415576 13.934426 -13.932988
Hg 29.415576 10.838100 -10.836662
Hg 32.511902 13.934426 -10.836662
Hg 32.511902 10.838100 -7.740336
Hg 29.415576 13.934426 -7.740336
Hg 29.415576 10.838100 -4.644010
Hg 32.511902 13.934426 -4.644010
Hg 32.511902 10.838100 -1.547684
Hg 29.415576 13.934426 -1.547684
Hg 29.415576 10.838100 1.548642
Hg 32.511902 13.934426 1.548642
Hg 32.511902 10.838100 4.644968
Hg 29.415576 13.934426 4.644968
Hg 29.415576 10.838100 7.741294
Hg 32.511902 13.934426 7.741294
Hg 32.511902 10.838100 10.837620
Hg 29.415576 13.934426 10.837620
Hg 29.415576 10.838100 13.933946
Hg 29.415576 17.030752 -10.836662
Hg 29.415576 17.030752 -4.644010
Hg 29.415576 17.030752 1.548642
Hg 29.415576 17.030752 7.741294
Se -27.866455 -15.480672 -12.384825
Se -30.962781 -15.480672 -9.288499
Se -27.866455 -15.480672 -6.192173
Se -27.866455 -18.576998 -9.288499
Se -30.962781 -15.480672 -3.095847
Se -27.866455 -15.480672 0.000479
Se -27.866455 -18.576998 -3.095847
Se -30.962781 -15.480672 3.096805
Se -27.866455 -15.480672 6.193131
Se -27.866455 -18.576998 3.096805
Se -30.962781 -15.480672 9.289457
Se -27.866455 -15.480672 12.385783
Se -27.866455 -18.576998 9.289457
Se -27.866455 -9.288020 -18.577477
Se -30.962781 -12.384346 -12.384825
Se -30.962781 -9.288020 -15.481151
Se -27.866455 -9.288020 -12.384825
Se -27.866455 -12.384346 -15.481151
Se -30.962781 -12.384346 -6.192173
Se -30.962781 -9.288020 -9.288499
Se -27.866455 -9.288020 -6.192173
Se -27.866455 -12.384346 -9.288499
Se -30.962781 -12.384346 0.000479
Se -30.962781 -9.288020 -3.095847
Se -27.866455 -9.288020 0.000479
Se -27.866455 -12.384346 -3.095847
Se -30.962781 -12.384346 6.193131
Se -30.962781 -9.288020 3.096805
Se -27.866455 -9.288020 6.193131
Se -27.866455 -12.384346 3.096805
Se -30.962781 -12.384346 12.385783
Se -30.962781 -9.288020 9.289457
Se -27.866455 -9.288020 12.385783
Se -27.866455 -12.384346 9.289457
Se -30.962781 -9.288020 15.482109
Se -27.866455 -9.288020 18.578435
Se -27.866455 -12.384346 15.482109
Se -27.866455 -3.095368 -18.577477
Se -30.962781 -6.191694 -12.384825
Se -30.962781 -3.095368 -15.481151
Se -27.866455 -3.095368 -12.384825
Se -27.866455 -6.191694 -15.481151
Se -30.962781 -6.191694 -6.192173
Se -30.962781 -3.095368 -9.288499
Se -27.866455 -3.095368 -6.192173
Se -27.866455 -6.191694 -9.288499
Se -30.962781 -6.191694 0.000479
Se -30.962781 -3.095368 -3.095847
Se -27.866455 -3.095368 0.000479
Se -27.866455 -6.191694 -3.095847
Se -30.962781 -6.191694 6.193131
Se -30.962781 -3.095368 3.096805
Se -27.866455 -3.095368 6.193131
Se -27.866455 -6.191694 3.096805
Se -30.962781 -6.191694 12.385783
Se -30.962781 -3.095368 9.289457
Se -27.866455 -3.095368 12.385783
Se -27.866455 -6.191694 9.289457
Se -30.962781 -3.095368 15.482109
Se -27.866455 -3.095368 18.578435
Se -27.866455 -6.191694 15.482109
Se -27.866455 3.097284 -18.577477
Se -30.962781 0.000958 -12.384825
Se -30.962781 3.097284 -15.481151
Se -27.866455 3.097284 -12.384825
Se -27.866455 0.000958 -15.481151
Se -30.962781 0.000958 -6.192173
Se -30.962781 3.097284 -9.288499
Se -27.866455 3.097284 -6.192173
Se -27.866455 0.000958 -9.288499
Se -30.962781 0.000958 0.000479
Se -30.962781 3.097284 -3.095847
Se -27.866455 3.097284 0.000479
Se -27.866455 0.000958 -3.095847
Se -30.962781 0.000958 6.193131
Se -30.962781 3.097284 3.096805
Se -27.866455 3.097284 6.193131
Se -27.866455 0.000958 3.096805
Se -30.962781 0.000958 12.385783
Se -30.962781 3.097284 9.289457
Se -27.866455 3.097284 12.385783
Se -27.866455 0.000958 9.289457
Se -30.962781 3.097284 15.482109
Se -27.866455 3.097284 18.578435
Se -27.866455 0.000958 15.482109
Se -27.866455 9.289936 -18.577477
Se -30.962781 6.193610 -12.384825
Se -30.962781 9.289936 -15.481151
Se -27.866455 9.289936 -12.384825
Se -27.866455 6.193610 -15.481151
Se -30.962781 6.193610 -6.192173
Se -30.962781 9.289936 -9.288499
Se -27.866455 9.289936 -6.192173
Se -27.866455 6.193610 -9.288499
Se -30.962781 6.193610 0.000479
Se -30.962781 9.289936 -3.095847
Se -27.866455 9.289936 0.000479
Se -27.866455 6.193610 -3.095847
Se -30.962781 6.193610 6.193131
Se -30.962781 9.289936 3.096805
Se -27.866455 9.289936 6.193131
Se -27.866455 6.193610 3.096805
Se -30.962781 6.193610 12.385783
Se -30.962781 9.289936 9.289457
Se -27.866455 9.289936 12.385783
Se -27.866455 6.193610 9.289457
Se -30.962781 9.289936 15.482109
Se -27.866455 9.289936 18.578435
Se -27.866455 6.193610 15.482109
Se -30.962781 12.386263 -12.384825
Se -27.866455 15.482589 -12.384825
Se -27.866455 12.386263 -15.481151
Se -30.962781 12.386263 -6.192173
Se -30.962781 15.482589 -9.288499
Se -27.866455 15.482589 -6.192173
Se -27.866455 12.386263 -9.288499
Se -30.962781 12.386263 0.000479
Se -30.962781 15.482589 -3.095847
Se -27.866455 15.482589 0.000479
Se -27.866455 12.386263 -3.095847
Se -30.962781 12.386263 6.193131
Se -30.962781 15.482589 3.096805
Se -27.866455 15.482589 6.193131
Se -27.866455 12.386263 3.096805
Se -30.962781 12.386263 12.385783
Se -30.962781 15.482589 9.289457
Se -27.866455 15.482589 12.385783
Se -27.866455 12.386263 9.289457
Se -27.866455 12.386263 15.482109
Se -27.866455 18.578915 -9.288499
Se -27.866455 18.578915 -3.095847
Se -27.866455 18.578915 3.096805
Se -27.866455 18.578915 9.289457
Se -21.673803 -21.673324 -12.384825
Se -24.770129 -21.673324 -9.288499
Se -21.673803 -21.673324 -6.192173
Se -21.673803 -24.769650 -9.288499
Se -24.770129 -21.673324 -3.095847
Se -21.673803 -21.673324 0.000479
Se -21.673803 -24.769650 -3.095847
Se -24.770129 -21.673324 3.096805
Se -21.673803 -21.673324 6.193131
Se -21.673803 -24.769650 3.096805
Se -24.770129 -21.673324 9.289457
Se -21.673803 -21.673324 12.385783
Se -21.673803 -24.769650 9.289457
Se -21.673803 -15.480672 -18.577477
Se -24.770129 -18.576998 -12.384825
Se -24.770129 -15.480672 -15.481151
Se -21.673803 -15.480672 -12.384825
Se -21.673803 -18.576998 -15.481151
Se -24.770129 -18.576998 -6.192173
Se -24.770129 -15.480672 -9.288499
Se -21.673803 -15.480672 -6.192173
Se -21.673803 -18.576998 -9.288499
Se -24.770129 -18.576998 0.000479
Se -24.770129 -15.480672 -3.095847
Se -21.673803 -15.480672 0.000479
Se -21.673803 -18.576998 -3.095847
Se -24.770129 -18.576998 6.193131
Se -24.770129 -15.480672 3.096805
Se -21.673803 -15.480672 6.193131
Se -21.673803 -18.576998 3.096805
Se -24.770129 -18.576998 12.385783
Se -24.770129 -15.480672 9.289457
Se -21.673803 -15.480672 12.385783
Se -21.673803 -18.576998 9.289457
Se -24.770129 -15.480672 15.482109
Se -21.673803 -15.480672 18.578435
Se -21.673803 -18.576998 15.482109
Se -21.673803 -9.288020 -24.770129
Se -24.770129 -12.384346 -18.577477
Se -24.770129 -9.288020 -21.673803
Se -21.673803 -9.288020 -18.577477
Se -21.673803 -12.384346 -21.673803
Se -24.770129 -12.384346 -12.384825
Se -24.770129 -9.288020 -15.481151
Se -21.673803 -9.288020 -12.384825
Se -21.673803 -12.384346 -15.481151
Se -24.770129 -12.384346 -6.192173
Se -24.770129 -9.288020 -9.288499
Se -21.673803 -9.288020 -6.192173
Se -21.673803 -12.384346 -9.288499
Se -24.770129 -12.384346 0.000479
Se -24.770129 -9.288020 -3.095847
Se -21.673803 -9.288020 0.000479
Se -21.673803 -12.384346 -3.095847
Se -24.770129 -12.384346 6.193131
Se -24.770129 -9.288020 3.096805
Se -21.673803 -9.288020 6.193131
Se -21.673803 -12.384346 3.096805
Se -24.770129 -12.384346 12.385783
Se -24.770129 -9.288020 9.289457
Se -21.673803 -9.288020 12.385783
Se -21.673803 -12.384346 9.289457
Se -24.770129 -12.384346 18.578435
Se -24.770129 -9.288020 15.482109
Se -21.673803 -9.288020 18.578435
Se -21.673803 -12.384346 15.482109
Se -24.770129 -9.288020 21.674761
Se -21.673803 -9.288020 24.771087
Se -21.673803 -12.384346 21.674761
Se -21.673803 -3.095368 -24.770129
Se -24.770129 -6.191694 -18.577477
Se -24.770129 -3.095368 -21.673803
Se -21.673803 -3.095368 -18.577477
Se -21.673803 -6.191694 -21.673803
Se -24.770129 -6.191694 -12.384825
Se -24.770129 -3.095368 -15.481151
Se -21.673803 -3.095368 -12.384825
Se -21.673803 -6.191694 -15.481151
Se -24.770129 -6.191694 -6.192173
Se -24.770129 -3.095368 -9.288499
Se -21.673803 -3.095368 -6.192173
Se -21.673803 -6.191694 -9.288499
Se -24.770129 -6.191694 0.000479
Se -24.770129 -3.095368 -3.095847
Se -21.673803 -3.095368 0.000479
Se -21.673803 -6.191694 -3.095847
Se -24.770129 -6.191694 6.193131
Se -24.770129 -3.095368 3.096805
Se -21.673803 -3.095368 6.193131
Se -21.673803 -6.191694 3.096805
Se -24.770129 -6.191694 12.385783
Se -24.770129 -3.095368 9.289457
Se -21.673803 -3.095368 12.385783
Se -21.673803 -6.191694 9.289457
Se -24.770129 -6.191694 18.578435
Se -24.770129 -3.095368 15.482109
Se -21.673803 -3.095368 18.578435
Se -21.673803 -6.191694 15.482109
Se -24.770129 -3.095368 21.674761
Se -21.673803 -3.095368 24.771087
Se -21.673803 -6.191694 21.674761
Se -21.673803 3.097284 -24.770129
Se -24.770129 0.000958 -18.577477
Se -24.770129 3.097284 -21.673803
Se -21.673803 3.097284 -18.577477
Se -21.673803 0.000958 -21.673803
Se -24.770129 0.000958 -12.384825
Se -24.770129 3.097284 -15.481151
Se -21.673803 3.097284 -12.384825
Se -21.673803 0.000958 -15.481151
Se -24.770129 0.000958 -6.192173
Se -24.770129 3.097284 -9.288499
Se -21.673803 3.097284 -6.192173
Se -21.673803 0.000958 -9.288499
Se -24.770129 0.000958 0.000479
Se -24.770129 3.097284 -3.095847
Se -21.673803 3.097284 0.000479
Se -21.673803 0.000958 -3.095847
Se -24.770129 0.000958 6.193131
Se -24.770129 3.097284 3.096805
Se -21.673803 3.097284 6.193131
Se -21.673803 0.000958 3.096805
Se -24.770129 0.000958 12.385783
Se -24.770129 3.097284 9.289457
Se -21.673803 3.097284 12.385783
Se -21.673803 0.000958 9.289457
Se -24.770129 0.000958 18.578435
Se -24.770129 3.097284 15.482109
Se -21.673803 3.097284 18.578435
Se -21.673803 0.000958 15.482109
Se -24.770129 3.097284 21.674761
Se -21.673803 3.097284 24.771087
Se -21.673803 0.000958 21.674761
Se -21.673803 9.289936 -24.770129
Se -24.770129 6.193610 -18.577477
Se -24.770129 9.289936 -21.673803
Se -21.673803 9.289936 -18.577477
Se -21.673803 6.193610 -21.673803
Se -24.770129 6.193610 -12.384825
Se -24.770129 9.289936 -15.481151
Se -21.673803 9.289936 -12.384825
Se -21.673803 6.193610 -15.481151
Se -24.770129 6.193610 -6.192173
Se -24.770129 9.289936 -9.288499
Se -21.673803 9.289936 -6.192173
Se -21.673803 6.193610 -9.288499
Se -24.770129 6.193610 0.000479
Se -24.770129 9.289936 -3.095847
Se -21.673803 9.289936 0.000479
Se -21.673803 6.193610 -3.095847
Se -24.770129 6.193610 6.193131
Se -24.770129 9.289936 3.096805
Se -21.673803 9.289936 6.193131
Se -21.673803 6.193610 3.096805
Se -24.770129 6.193610 12.385783
Se -24.770129 9.289936 9.289457
Se -21.673803 9.289936 12.385783
Se -21.673803 6.193610 9.289457
Se -24.770129 6.193610 18.578435
Se -24.770129 9.289936 15.482109
Se -21.673803 9.289936 18.578435
Se -21.673803 6.193610 15.482109
Se -24.770129 9.289936 21.674761
Se -21.673803 9.289936 24.771087
Se -21.673803 6.193610 21.674761
Se -24.770129 12.386263 -18.577477
Se -21.673803 15.482589 -18.577477
Se -21.673803 12.386263 -21.673803
Se -24.770129 12.386263 -12.384825
Se -24.770129 15.482589 -15.481151
Se -21.673803 15.482589 -12.384825
Se -21.673803 12.386263 -15.481151
Se -24.770129 12.386263 -6.192173
Se -24.770129 15.482589 -9.288499
Se -21.673803 15.482589 -6.192173
Se -21.673803 12.386263 -9.288499
Se -24.770129 12.386263 0.000479
Se -24.770129 15.482589 -3.095847
Se -21.673803 15.482589 0.000479
Se -21.673803 12.386263 -3.095847
Se -24.770129 12.386263 6.193131
Se -24.770129 15.482589 3.096805
Se -21.673803 15.482589 6.193131
Se -21.673803 12.386263 3.096805
Se -24.770129 12.386263 12.385783
Se -24.770129 15.482589 9.289457
Se -21.673803 15.482589 12.385783
Se -21.673803 12.386263 9.289457
Se -24.770129 12.386263 18.578435
Se -24.770129 15.482589 15.482109
Se -21.673803 15.482589 18.578435
Se -21.673803 12.386263 15.482109
Se -21.673803 12.386263 21.674761
Se -24.770129 18.578915 -12.384825
Se -21.673803 21.675241 -12.384825
Se -21.673803 18.578915 -15.481151
Se -24.770129 18.578915 -6.192173
Se -24.770129 21.675241 -9.288499
Se -21.673803 21.675241 -6.192173
Se -21.673803 18.578915 -9.288499
Se -24.770129 18.578915 0.000479
Se -24.770129 21.675241 -3.095847
Se -21.673803 21.675241 0.000479
Se -21.673803 18.578915 -3.095847
Se -24.770129 18.578915 6.193131
Se -24.770129 21.675241 3.096805
Se -21.673803 21.675241 6.193131
Se -21.673803 18.578915 3.096805
Se -24.770129 18.578915 12.385783
Se -24.770129 21.675241 9.289457
Se -21.673803 21.675241 12.385783
Se -21.673803 18.578915 9.289457
Se -21.673803 18.578915 15.482109
Se -21.673803 24.771567 -9.288499
Se -21.673803 24.771567 -3.095847
Se -21.673803 24.771567 3.096805
Se -21.673803 24.771567 9.289457
Se -15.481151 -27.865976 -12.384825
Se -18.577477 -27.865976 -9.288499
Se -15.481151 -27.865976 -6.192173
Se -15.481151 -30.962302 -9.288499
Se -18.577477 -27.865976 -3.095847
Se -15.481151 -27.865976 0.000479
Se -15.481151 -30.962302 -3.095847
Se -18.577477 -27.865976 3.096805
Se -15.481151 -27.865976 6.193131
Se -15.481151 -30.962302 3.096805
Se -18.577477 -27.865976 9.289457
Se -15.481151 -27.865976 12.385783
Se -15.481151 -30.962302 9.289457
Se -15.481151 -21.673324 -18.577477
Se -18.577477 -24.769650 -12.384825
Se -18.577477 -21.673324 -15.481151
Se -15.481151 -21.673324 -12.384825
Se -15.481151 -24.769650 -15.481151
Se -18.577477 -24.769650 -6.192173
Se -18.577477 -21.673324 -9.288499
Se -15.481151 -21.673324 -6.192173
Se -15.481151 -24.769650 -9.288499
Se -18.577477 -24.769650 0.000479
Se -18.577477 -21.673324 -3.095847
Se -15.481151 -21.673324 0.000479
Se -15.481151 -24.769650 -3.095847
Se -18.577477 -24.769650 6.193131
Se -18.577477 -21.673324 3.096805
Se -15.481151 -21.673324 6.193131
Se -15.481151 -24.769650 3.096805
Se -18.577477 -24.769650 12.385783
Se -18.577477 -21.673324 9.289457
Se -15.481151 -21.673324 12.385783
Se -15.481151 -24.769650 9.289457
Se -18.577477 -21.673324 15.482109
Se -15.481151 -21.673324 18.578435
Se -15.481151 -24.769650 15.482109
Se -15.481151 -15.480672 -24.770129
Se -18.577477 -18.576998 -18.577477
Se -18.577477 -15.480672 -21.673803
Se -15.481151 -15.480672 -18.577477
Se -15.481151 -18.576998 -21.673803
Se -18.577477 -18.576998 -12.384825
Se -18.577477 -15.480672 -15.481151
Se -15.481151 -15.480672 -12.384825
Se -15.481151 -18.576998 -15.481151
Se -18.577477 -18.576998 -6.192173
Se -18.577477 -15.480672 -9.288499
Se -15.481151 -15.480672 -6.192173
Se -15.481151 -18.576998 -9.288499
Se -18.577477 -18.576998 0.000479
Se -18.577477 -15.480672 -3.095847
Se -15.481151 -15.480672 0.000479
Se -15.481151 -18.576998 -3.095847
Se -18.577477 -18.576998 6.193131
Se -18.577477 -15.480672 3.096805
Se -15.481151 -15.480672 6.193131
Se -15.481151 -18.576998 3.096805
Se -18.577477 -18.576998 12.385783
Se -18.577477 -15.480672 9.289457
Se -15.481151 -15.480672 12.385783
Se -15.481151 -18.576998 9.289457
Se -18.577477 -18.576998 18.578435
Se -18.577477 -15.480672 15.482109
Se -15.481151 -15.480672 18.578435
Se -15.481151 -18.576998 15.482109
Se -18.577477 -15.480672 21.674761
Se -15.481151 -15.480672 24.771087
Se -15.481151 -18.576998 21.674761
Se -15.481151 -9.288020 -30.962781
Se -18.577477 -12.384346 -24.770129
Se -18.577477 -9.288020 -27.866455
Se -15.481151 -9.288020 -24.770129
Se -15.481151 -12.384346 -27.866455
Se -18.577477 -12.384346 -18.577477
Se -18.577477 -9.288020 -21.673803
Se -15.481151 -9.288020 -18.577477
Se -15.481151 -12.384346 -21.673803
Se -18.577477 -12.384346 -12.384825
Se -18.577477 -9.288020 -15.481151
Se -15.481151 -9.288020 -12.384825
Se -15.481151 -12.384346 -15.481151
Se -18.577477 -12.384346 -6.192173
Se -18.577477 -9.288020 -9.288499
Se -15.481151 -9.288020 -6.192173
Se -15.481151 -12.384346 -9.288499
Se -18.577477 -12.384346 0.000479
Se -18.577477 -9.288020 -3.095847
Se -15.481151 -9.288020 0.000479
Se -15.481151 -12.384346 -3.095847
Se -18.577477 -12.384346 6.193131
Se -18.577477 -9.288020 3.096805
Se -15.481151 -9.288020 6.193131
Se -15.481151 -12.384346 3.096805
Se -18.577477 -12.384346 12.385783
Se -18.577477 -9.288020 9.289457
Se -15.481151 -9.288020 12.385783
Se -15.481151 -12.384346 9.289457
Se -18.577477 -12.384346 18.578435
Se -18.577477 -9.288020 15.482109
Se -15.481151 -9.288020 18.578435
Se -15.481151 -12.384346 15.482109
Se -18.577477 -12.384346 24.771087
Se -18.577477 -9.288020 21.674761
Se -15.481151 -9.288020 24.771087
Se -15.481151 -12.384346 21.674761
Se -18.577477 -9.288020 27.867413
Se -15.481151 -9.288020 30.963739
Se -15.481151 -12.384346 27.867413
Se -15.481151 -3.095368 -30.962781
Se -18.577477 -6.191694 -24.770129
Se -18.577477 -3.095368 -27.866455
Se -15.481151 -3.095368 -24.770129
Se -15.481151 -6.191694 -27.866455
Se -18.577477 -6.191694 -18.577477
Se -18.577477 -3.095368 -21.673803
Se -15.481151 -3.095368 -18.577477
Se -15.481151 -6.191694 -21.673803
Se -18.577477 -6.191694 -12.384825
Se -18.577477 -3.095368 -15.481151
Se -15.481151 -3.095368 -12.384825
Se -15.481151 -6.191694 -15.481151
Se -18.577477 -6.191694 -6.192173
Se -18.577477 -3.095368 -9.288499
Se -15.481151 -3.095368 -6.192173
Se -15.481151 -6.191694 -9.288499
Se -18.577477 -6.191694 0.000479
Se -18.577477 -3.095368 -3.095847
Se -15.481151 -3.095368 0.000479
Se -15.481151 -6.191694 -3.095847
Se -18.577477 -6.191694 6.193131
Se -18.577477 -3.095368 3.096805
Se -15.481151 -3.095368 6.193131
Se -15.481151 -6.191694 3.096805
Se -18.577477 -6.191694 12.385783
Se -18.577477 -3.095368 9.289457
Se -15.481151 -3.095368 12.385783
Se -15.481151 -6.191694 9.289457
Se -18.577477 -6.191694 18.578435
Se -18.577477 -3.095368 15.482109
Se -15.481151 -3.095368 18.578435
Se -15.481151 -6.191694 15.482109
Se -18.577477 -6.191694 24.771087
Se -18.577477 -3.095368 21.674761
Se -15.481151 -3.095368 24.771087
Se -15.481151 -6.191694 21.674761
Se -18.577477 -3.095368 27.867413
Se -15.481151 -3.095368 30.963739
Se -15.481151 -6.191694 27.867413
Se -15.481151 3.097284 -30.962781
Se -18.577477 0.000958 -24.770129
Se -18.577477 3.097284 -27.866455
Se -15.481151 3.097284 -24.770129
Se -15.481151 0.000958 -27.866455
Se -18.577477 0.000958 -18.577477
Se -18.577477 3.097284 -21.673803
Se -15.481151 3.097284 -18.577477
Se -15.481151 0.000958 -21.673803
Se -18.577477 0.000958 -12.384825
Se -18.577477 3.097284 -15.481151
Se -15.481151 3.097284 -12.384825
Se -15.481151 0.000958 -15.481151
Se -18.577477 0.000958 -6.192173
Se -18.577477 3.097284 -9.288499
Se -15.481151 3.097284 -6.192173
Se -15.481151 0.000958 -9.288499
Se -18.577477 0.000958 0.000479
Se -18.577477 3.097284 -3.095847
Se -15.481151 3.097284 0.000479
Se -15.481151 0.000958 -3.095847
Se -18.577477 0.000958 6.193131
Se -18.577477 3.097284 3.096805
Se -15.481151 3.097284 6.193131
Se -15.481151 0.000958 3.096805
Se -18.577477 0.000958 12.385783
Se -18.577477 3.097284 9.289457
Se -15.481151 3.097284 12.385783
Se -15.481151 0.000958 9.289457
Se -18.577477 0.000958 18.578435
Se -18.577477 3.097284 15.482109
Se -15.481151 3.097284 18.578435
Se -15.481151 0.000958 15.482109
Se -18.577477 0.000958 24.771087
Se -18.577477 3.097284 21.674761
Se -15.481151 3.097284 24.771087
Se -15.481151 0.000958 21.674761
Se -18.577477 3.097284 27.867413
Se -15.481151 3.097284 30.963739
Se -15.481151 0.000958 27.867413
Se -15.481151 9.289936 -30.962781
Se -18.577477 6.193610 -24.770129
Se -18.577477 9.289936 -27.866455
Se -15.481151 9.289936 -24.770129
Se -15.481151 6.193610 -27.866455
Se -18.577477 6.193610 -18.577477
Se -18.577477 9.289936 -21.673803
Se -15.481151 9.289936 -18.577477
Se -15.481151 6.193610 -21.673803
Se -18.577477 6.193610 -12.384825
Se -18.577477 9.289936 -15.481151
Se -15.481151 9.289936 -12.384825
Se -15.481151 6.193610 -15.481151
Se -18.577477 6.193610 -6.192173
Se -18.577477 9.289936 -9.288499
Se -15.481151 9.289936 -6.192173
Se -15.481151 6.193610 -9.288499
Se -18.577477 6.193610 0.000479
Se -18.577477 9.289936 -3.095847
Se -15.481151 9.289936 0.000479
Se -15.481151 6.193610 -3.095847
Se -18.577477 6.193610 6.193131
Se -18.577477 9.289936 3.096805
Se -15.481151 9.289936 6.193131
Se -15.481151 6.193610 3.096805
Se -18.577477 6.193610 12.385783
Se -18.577477 9.289936 9.289457
Se -15.481151 9.289936 12.385783
Se -15.481151 6.193610 9.289457
Se -18.577477 6.193610 18.578435
Se -18.577477 9.289936 15.482109
Se -15.481151 9.289936 18.578435
Se -15.481151 6.193610 15.482109
Se -18.577477 6.193610 24.771087
Se -18.577477 9.289936 21.674761
Se -15.481151 9.289936 24.771087
Se -15.481151 6.193610 21.674761
Se -18.577477 9.289936 27.867413
Se -15.481151 9.289936 30.963739
Se -15.481151 6.193610 27.867413
Se -18.577477 12.386263 -24.770129
Se -15.481151 15.482589 -24.770129
Se -15.481151 12.386263 -27.866455
Se -18.577477 12.386263 -18.577477
Se -18.577477 15.482589 -21.673803
Se -15.481151 15.482589 -18.577477
Se -15.481151 12.386263 -21.673803
Se -18.577477 12.386263 -12.384825
Se -18.577477 15.482589 -15.481151
Se -15.481151 15.482589 -12.384825
Se -15.481151 12.386263 -15.481151
Se -18.577477 12.386263 -6.192173
Se -18.577477 15.482589 -9.288499
Se -15.481151 15.482589 -6.192173
Se -15.481151 12.386263 -9.288499
Se -18.577477 12.386263 0.000479
Se -18.577477 15.482589 -3.095847
Se -15.481151 15.482589 0.000479
Se -15.481151 12.386263 -3.095847
Se -18.577477 12.386263 6.193131
Se -18.577477 15.482589 3.096805
Se -15.481151 15.482589 6.193131
Se -15.481151 12.386263 3.096805
Se -18.577477 12.386263 12.385783
Se -18.577477 15.482589 9.289457
Se -15.481151 15.482589 12.385783
Se -15.481151 12.386263 9.289457
Se -18.577477 12.386263 18.578435
Se -18.577477 15.482589 15.482109
Se -15.481151 15.482589 18.578435
Se -15.481151 12.386263 15.482109
Se -18.577477 12.386263 24.771087
Se -18.577477 15.482589 21.674761
Se -15.481151 15.482589 24.771087
Se -15.481151 12.386263 21.674761
Se -15.481151 12.386263 27.867413
Se -18.577477 18.578915 -18.577477
Se -15.481151 21.675241 -18.577477
Se -15.481151 18.578915 -21.673803
Se -18.577477 18.578915 -12.384825
Se -18.577477 21.675241 -15.481151
Se -15.481151 21.675241 -12.384825
Se -15.481151 18.578915 -15.481151
Se -18.577477 18.578915 -6.192173
Se -18.577477 21.675241 -9.288499
Se -15.481151 21.675241 -6.192173
Se -15.481151 18.578915 -9.288499
Se -18.577477 18.578915 0.000479
Se -18.577477 21.675241 -3.095847
Se -15.481151 21.675241 0.000479
Se -15.481151 18.578915 -3.095847
Se -18.577477 18.578915 6.193131
Se -18.577477 21.675241 3.096805
Se -15.481151 21.675241 6.193131
Se -15.481151 18.578915 3.096805
Se -18.577477 18.578915 12.385783
Se -18.577477 21.675241 9.289457
Se -15.481151 21.675241 12.385783
Se -15.481151 18.578915 9.289457
Se -18.577477 18.578915 18.578435
Se -18.577477 21.675241 15.482109
Se -15.481151 21.675241 18.578435
Se -15.481151 18.578915 15.482109
Se -15.481151 18.578915 21.674761
Se -18.577477 24.771567 -12.384825
Se -15.481151 27.867893 -12.384825
Se -15.481151 24.771567 -15.481151
Se -18.577477 24.771567 -6.192173
Se -18.577477 27.867893 -9.288499
Se -15.481151 27.867893 -6.192173
Se -15.481151 24.771567 -9.288499
Se -18.577477 24.771567 0.000479
Se -18.577477 27.867893 -3.095847
Se -15.481151 27.867893 0.000479
Se -15.481151 24.771567 -3.095847
Se -18.577477 24.771567 6.193131
Se -18.577477 27.867893 3.096805
Se -15.481151 27.867893 6.193131
Se -15.481151 24.771567 3.096805
Se -18.577477 24.771567 12.385783
Se -18.577477 27.867893 9.289457
Se -15.481151 27.867893 12.385783
Se -15.481151 24.771567 9.289457
Se -15.481151 24.771567 15.482109
Se -15.481151 30.964219 -9.288499
Se -15.481151 30.964219 -3.095847
Se -15.481151 30.964219 3.096805
Se -15.481151 30.964219 9.289457
Se -9.288499 -27.865976 -18.577477
Se -12.384825 -30.962302 -12.384825
Se -12.384825 -27.865976 -15.481151
Se -9.288499 -27.865976 -12.384825
Se -9.288499 -30.962302 -15.481151
Se -12.384825 -30.962302 -6.192173
Se -12.384825 -27.865976 -9.288499
Se -9.288499 -27.865976 -6.192173
Se -9.288499 -30.962302 -9.288499
Se -12.384825 -30.962302 0.000479
Se -12.384825 -27.865976 -3.095847
Se -9.288499 -27.865976 0.000479
Se -9.288499 -30.962302 -3.095847
Se -12.384825 -30.962302 6.193131
Se -12.384825 -27.865976 3.096805
Se -9.288499 -27.865976 6.193131
Se -9.288499 -30.962302 3.096805
Se -12.384825 -30.962302 12.385783
Se -12.384825 -27.865976 9.289457
Se -9.288499 -27.865976 12.385783
Se -9.288499 -30.962302 9.289457
Se -12.384825 -27.865976 15.482109
Se -9.288499 -27.865976 18.578435
Se -9.288499 -30.962302 15.482109
Se -9.288499 -21.673324 -24.770129
Se -12.384825 -24.769650 -18.577477
Se -12.384825 -21.673324 -21.673803
Se -9.288499 -21.673324 -18.577477
Se -9.288499 -24.769650 -21.673803
Se -12.384825 -24.769650 -12.384825
Se -12.384825 -21.673324 -15.481151
Se -9.288499 -21.673324 -12.384825
Se -9.288499 -24.769650 -15.481151
Se -12.384825 -24.769650 -6.192173
Se -12.384825 -21.673324 -9.288499
Se -9.288499 -21.673324 -6.192173
Se -9.288499 -24.769650 -9.288499
Se -12.384825 -24.769650 0.000479
Se -12.384825 -21.673324 -3.095847
Se -9.288499 -21.673324 0.000479
Se -9.288499 -24.769650 -3.095847
Se -12.384825 -24.769650 6.193131
Se -12.384825 -21.673324 3.096805
Se -9.288499 -21.673324 6.193131
Se -9.288499 -24.769650 3.096805
Se -12.384825 -24.769650 12.385783
Se -12.384825 -21.673324 9.289457
Se -9.288499 -21.673324 12.385783
Se -9.288499 -24.769650 9.289457
Se -12.384825 -24.769650 18.578435
Se -12.384825 -21.673324 15.482109
Se -9.288499 -21.673324 18.578435
Se -9.288499 -24.769650 15.482109
Se -12.384825 -21.673324 21.674761
Se -9.288499 -21.673324 24.771087
Se -9.288499 -24.769650 21.674761
Se -9.288499 -15.480672 -30.962781
Se -12.384825 -18.576998 -24.770129
Se -12.384825 -15.480672 -27.866455
Se -9.288499 -15.480672 -24.770129
Se -9.288499 -18.576998 -27.866455
Se -12.384825 -18.576998 -18.577477
Se -12.384825 -15.480672 -21.673803
Se -9.288499 -15.480672 -18.577477
Se -9.288499 -18.576998 -21.673803
Se -12.384825 -18.576998 -12.384825
Se -12.384825 -15.480672 -15.481151
Se -9.288499 -15.480672 -12.384825
Se -9.288499 -18.576998 -15.481151
Se -12.384825 -18.576998 -6.192173
Se -12.384825 -15.480672 -9.288499
Se -9.288499 -15.480672 -6.192173
Se -9.288499 -18.576998 -9.288499
Se -12.384825 -18.576998 0.000479
Se -12.384825 -15.480672 -3.095847
Se -9.288499 -15.480672 0.000479
Se -9.288499 -18.576998 -3.095847
Se -12.384825 -18.576998 6.193131
Se -12.384825 -15.480672 3.096805
Se -9.288499 -15.480672 6.193131
Se -9.288499 -18.576998 3.096805
Se -12.384825 -18.576998 12.385783
Se -12.384825 -15.480672 9.289457
Se -9.288499 -15.480672 12.385783
Se -9.288499 -18.576998 9.289457
Se -12.384825 -18.576998 18.578435
Se -12.384825 -15.480672 15.482109
Se -9.288499 -15.480672 18.578435
Se -9.288499 -18.576998 15.482109
Se -12.384825 -18.576998 24.771087
Se -12.384825 -15.480672 21.674761
Se -9.288499 -15.480672 24.771087
Se -9.288499 -18.576998 21.674761
Se -12.384825 -15.480672 27.867413
Se -9.288499 -15.480672 30.963739
Se -9.288499 -18.576998 27.867413
Se -12.384825 -12.384346 -30.962781
Se -9.288499 -9.288020 -30.962781
Se -12.384825 -12.384346 -24.770129
Se -12.384825 -9.288020 -27.866455
Se -9.288499 -9.288020 -24.770129
Se -9.288499 -12.384346 -27.866455
Se -12.384825 -12.384346 -18.577477
Se -12.384825 -9.288020 -21.673803
Se -9.288499 -9.288020 -18.577477
Se -9.288499 -12.384346 -21.673803
Se -12.384825 -12.384346 -12.384825
Se -12.384825 -9.288020 -15.481151
Se -9.288499 -9.288020 -12.384825
Se -9.288499 -12.384346 -15.481151
Se -12.384825 -12.384346 -6.192173
Se -12.384825 -9.288020 -9.288499
Se -9.288499 -9.288020 -6.192173
Se -9.288499 -12.384346 -9.288499
Se -12.384825 -12.384346 0.000479
Se -12.384825 -9.288020 -3.095847
Se -9.288499 -9.288020 0.000479
Se -9.288499 -12.384346 -3.095847
Se -12.384825 -12.384346 6.193131
Se -12.384825 -9.288020 3.096805
Se -9.288499 -9.288020 6.193131
Se -9.288499 -12.384346 3.096805
Se -12.384825 -12.384346 12.385783
Se -12.384825 -9.288020 9.289457
Se -9.288499 -9.288020 12.385783
Se -9.288499 -12.384346 9.289457
Se -12.384825 -12.384346 18.578435
Se -12.384825 -9.288020 15.482109
Se -9.288499 -9.288020 18.578435
Se -9.288499 -12.384346 15.482109
Se -12.384825 -12.384346 24.771087
Se -12.384825 -9.288020 21.674761
Se -9.288499 -9.288020 24.771087
Se -9.288499 -12.384346 21.674761
Se -12.384825 -12.384346 30.963739
Se -12.384825 -9.288020 27.867413
Se -9.288499 -9.288020 30.963739
Se -9.288499 -12.384346 27.867413
Se -12.384825 -6.191694 -30.962781
Se -9.288499 -3.095368 -30.962781
Se -12.384825 -6.191694 -24.770129
Se -12.384825 -3.095368 -27.866455
Se -9.288499 -3.095368 -24.770129
Se -9.288499 -6.191694 -27.866455
Se -12.384825 -6.191694 -18.577477
Se -12.384825 -3.095368 -21.673803
Se -9.288499 -3.095368 -18.577477
Se -9.288499 -6.191694 -21.673803
Se -12.384825 -6.191694 -12.384825
Se -12.384825 -3.095368 -15.481151
Se -9.288499 -3.095368 -12.384825
Se -9.288499 -6.191694 -15.481151
Se -12.384825 -6.191694 -6.192173
Se -12.384825 -3.095368 -9.288499
Se -9.288499 -3.095368 -6.192173
Se -9.288499 -6.191694 -9.288499
Se -12.384825 -6.191694 0.000479
Se -12.384825 -3.095368 -3.095847
Se -9.288499 -3.095368 0.000479
Se -9.288499 -6.191694 -3.095847
Se -12.384825 -6.191694 6.193131
Se -12.384825 -3.095368 3.096805
Se -9.288499 -3.095368 6.193131
Se -9.288499 -6.191694 3.096805
Se -12.384825 -6.191694 12.385783
Se -12.384825 -3.095368 9.289457
Se -9.288499 -3.095368 12.385783
Se -9.288499 -6.191694 9.289457
Se -12.384825 -6.191694 18.578435
Se -12.384825 -3.095368 15.482109
Se -9.288499 -3.095368 18.578435
Se -9.288499 -6.191694 15.482109
Se -12.384825 -6.191694 24.771087
Se -12.384825 -3.095368 21.674761
Se -9.288499 -3.095368 24.771087
Se -9.288499 -6.191694 21.674761
Se -12.384825 -6.191694 30.963739
Se -12.384825 -3.095368 27.867413
Se -9.288499 -3.095368 30.963739
Se -9.288499 -6.191694 27.867413
Se -12.384825 0.000958 -30.962781
Se -9.288499 3.097284 -30.962781
Se -12.384825 0.000958 -24.770129
Se -12.384825 3.097284 -27.866455
Se -9.288499 3.097284 -24.770129
Se -9.288499 0.000958 -27.866455
Se -12.384825 0.000958 -18.577477
Se -12.384825 3.097284 -21.673803
Se -9.288499 3.097284 -18.577477
Se -9.288499 0.000958 -21.673803
Se -12.384825 0.000958 -12.384825
Se -12.384825 3.097284 -15.481151
Se -9.288499 3.097284 -12.384825
Se -9.288499 0.000958 -15.481151
Se -12.384825 0.000958 -6.192173
Se -12.384825 3.097284 -9.288499
Se -9.288499 3.097284 -6.192173
Se -9.288499 0.000958 -9.288499
Se -12.384825 0.000958 0.000479
Se -12.384825 3.097284 -3.095847
Se -9.288499 3.097284 0.000479
Se -9.288499 0.000958 -3.095847
Se -12.384825 0.000958 6.193131
Se -12.384825 3.097284 3.096805
Se -9.288499 3.097284 6.193131
Se -9.288499 0.000958 3.096805
Se -12.384825 0.000958 12.385783
Se -12.384825 3.097284 9.289457
Se -9.288499 3.097284 12.385783
Se -9.288499 0.000958 9.289457
Se -12.384825 0.000958 18.578435
Se -12.384825 3.097284 15.482109
Se -9.288499 3.097284 18.578435
Se -9.288499 0.000958 15.482109
Se -12.384825 0.000958 24.771087
Se -12.384825 3.097284 21.674761
Se -9.288499 3.097284 24.771087
Se -9.288499 0.000958 21.674761
Se -12.384825 0.000958 30.963739
Se -12.384825 3.097284 27.867413
Se -9.288499 3.097284 30.963739
Se -9.288499 0.000958 27.867413
Se -12.384825 6.193610 -30.962781
Se -9.288499 9.289936 -30.962781
Se -12.384825 6.193610 -24.770129
Se -12.384825 9.289936 -27.866455
Se -9.288499 9.289936 -24.770129
Se -9.288499 6.193610 -27.866455
Se -12.384825 6.193610 -18.577477
Se -12.384825 9.289936 -21.673803
Se -9.288499 9.289936 -18.577477
Se -9.288499 6.193610 -21.673803
Se -12.384825 6.193610 -12.384825
Se -12.384825 9.289936 -15.481151
Se -9.288499 9.289936 -12.384825
Se -9.288499 6.193610 -15.481151
Se -12.384825 6.193610 -6.192173
Se -12.384825 9.289936 -9.288499
Se -9.288499 9.289936 -6.192173
Se -9.288499 6.193610 -9.288499
Se -12.384825 6.193610 0.000479
Se -12.384825 9.289936 -3.095847
Se -9.288499 9.289936 0.000479
Se -9.288499 6.193610 -3.095847
Se -12.384825 6.193610 6.193131
Se -12.384825 9.289936 3.096805
Se -9.288499 9.289936 6.193131
Se -9.288499 6.193610 3.096805
Se -12.384825 6.193610 12.385783
Se -12.384825 9.289936 9.289457
Se -9.288499 9.289936 12.385783
Se -9.288499 6.193610 9.289457
Se -12.384825 6.193610 18.578435
Se -12.384825 9.289936 15.482109
Se -9.288499 9.289936 18.578435
Se -9.288499 6.193610 15.482109
Se -12.384825 6.193610 24.771087
Se -12.384825 9.289936 21.674761
Se -9.288499 9.289936 24.771087
Se -9.288499 6.193610 21.674761
Se -12.384825 6.193610 30.963739
Se -12.384825 9.289936 27.867413
Se -9.288499 9.289936 30.963739
Se -9.288499 6.193610 27.867413
Se -12.384825 12.386263 -30.962781
Se -9.288499 15.482589 -30.962781
Se -12.384825 12.386263 -24.770129
Se -12.384825 15.482589 -27.866455
Se -9.288499 15.482589 -24.770129
Se -9.288499 12.386263 -27.866455
Se -12.384825 12.386263 -18.577477
Se -12.384825 15.482589 -21.673803
Se -9.288499 15.482589 -18.577477
Se -9.288499 12.386263 -21.673803
Se -12.384825 12.386263 -12.384825
Se -12.384825 15.482589 -15.481151
Se -9.288499 15.482589 -12.384825
Se -9.288499 12.386263 -15.481151
Se -12.384825 12.386263 -6.192173
Se -12.384825 15.482589 -9.288499
Se -9.288499 15.482589 -6.192173
Se -9.288499 12.386263 -9.288499
Se -12.384825 12.386263 0.000479
Se -12.384825 15.482589 -3.095847
Se -9.288499 15.482589 0.000479
Se -9.288499 12.386263 -3.095847
Se -12.384825 12.386263 6.193131
Se -12.384825 15.482589 3.096805
Se -9.288499 15.482589 6.193131
Se -9.288499 12.386263 3.096805
Se -12.384825 12.386263 12.385783
Se -12.384825 15.482589 9.289457
Se -9.288499 15.482589 12.385783
Se -9.288499 12.386263 9.289457
Se -12.384825 12.386263 18.578435
Se -12.384825 15.482589 15.482109
Se -9.288499 15.482589 18.578435
Se -9.288499 12.386263 15.482109
Se -12.384825 12.386263 24.771087
Se -12.384825 15.482589 21.674761
Se -9.288499 15.482589 24.771087
Se -9.288499 12.386263 21.674761
Se -12.384825 12.386263 30.963739
Se -12.384825 15.482589 27.867413
Se -9.288499 15.482589 30.963739
Se -9.288499 12.386263 27.867413
Se -12.384825 18.578915 -24.770129
Se -9.288499 21.675241 -24.770129
Se -9.288499 18.578915 -27.866455
Se -12.384825 18.578915 -18.577477
Se -12.384825 21.675241 -21.673803
Se -9.288499 21.675241 -18.577477
Se -9.288499 18.578915 -21.673803
Se -12.384825 18.578915 -12.384825
Se -12.384825 21.675241 -15.481151
Se -9.288499 21.675241 -12.384825
Se -9.288499 18.578915 -15.481151
Se -12.384825 18.578915 -6.192173
Se -12.384825 21.675241 -9.288499
Se -9.288499 21.675241 -6.192173
Se -9.288499 18.578915 -9.288499
Se -12.384825 18.578915 0.000479
Se -12.384825 21.675241 -3.095847
Se -9.288499 21.675241 0.000479
Se -9.288499 18.578915 -3.095847
Se -12.384825 18.578915 6.193131
Se -12.384825 21.675241 3.096805
Se -9.288499 21.675241 6.193131
Se -9.288499 18.578915 3.096805
Se -12.384825 18.578915 12.385783
Se -12.384825 21.675241 9.289457
Se -9.288499 21.675241 12.385783
Se -9.288499 18.578915 9.289457
Se -12.384825 18.578915 18.578435
Se -12.384825 21.675241 15.482109
Se -9.288499 21.675241 18.578435
Se -9.288499 18.578915 15.482109
Se -12.384825 18.578915 24.771087
Se -12.384825 21.675241 21.674761
Se -9.288499 21.675241 24.771087
Se -9.288499 18.578915 21.674761
Se -9.288499 18.578915 27.867413
Se -12.384825 24.771567 -18.577477
Se -9.288499 27.867893 -18.577477
Se -9.288499 24.771567 -21.673803
Se -12.384825 24.771567 -12.384825
Se -12.384825 27.867893 -15.481151
Se -9.288499 27.867893 -12.384825
Se -9.288499 24.771567 -15.481151
Se -12.384825 24.771567 -6.192173
Se -12.384825 27.867893 -9.288499
Se -9.288499 27.867893 -6.192173
Se -9.288499 24.771567 -9.288499
Se -12.384825 24.771567 0.000479
Se -12.384825 27.867893 -3.095847
Se -9.288499 27.867893 0.000479
Se -9.288499 24.771567 -3.095847
Se -12.384825 24.771567 6.193131
Se -12.384825 27.867893 3.096805
Se -9.288499 27.867893 6.193131
Se -9.288499 24.771567 3.096805
Se -12.384825 24.771567 12.385783
Se -12.384825 27.867893 9.289457
Se -9.288499 27.867893 12.385783
Se -9.288499 24.771567 9.289457
Se -12.384825 24.771567 18.578435
Se -12.384825 27.867893 15.482109
Se -9.288499 27.867893 18.578435
Se -9.288499 24.771567 15.482109
Se -9.288499 24.771567 21.674761
Se -12.384825 30.964219 -12.384825
Se -9.288499 30.964219 -15.481151
Se -12.384825 30.964219 -6.192173
Se -9.288499 30.964219 -9.288499
Se -12.384825 30.964219 0.000479
Se -9.288499 30.964219 -3.095847
Se -12.384825 30.964219 6.193131
Se -9.288499 30.964219 3.096805
Se -12.384825 30.964219 12.385783
Se -9.288499 30.964219 9.289457
Se -9.288499 30.964219 15.482109
Se -3.095847 -27.865976 -18.577477
Se -6.192173 -30.962302 -12.384825
Se -6.192173 -27.865976 -15.481151
Se -3.095847 -27.865976 -12.384825
Se -3.095847 -30.962302 -15.481151
Se -6.192173 -30.962302 -6.192173
Se -6.192173 -27.865976 -9.288499
Se -3.095847 -27.865976 -6.192173
Se -3.095847 -30.962302 -9.288499
Se -6.192173 -30.962302 0.000479
Se -6.192173 -27.865976 -3.095847
Se -3.095847 -27.865976 0.000479
Se -3.095847 -30.962302 -3.095847
Se -6.192173 -30.962302 6.193131
Se -6.192173 -27.865976 3.096805
Se -3.095847 -27.865976 6.193131
Se -3.095847 -30.962302 3.096805
Se -6.192173 -30.962302 12.385783
Se -6.192173 -27.865976 9.289457
Se -3.095847 -27.865976 12.385783
Se -3.095847 -30.962302 9.289457
Se -6.192173 -27.865976 15.482109
Se -3.095847 -27.865976 18.578435
Se -3.095847 -30.962302 15.482109
Se -3.095847 -21.673324 -24.770129
Se -6.192173 -24.769650 -18.577477
Se -6.192173 -21.673324 -21.673803
Se -3.095847 -21.673324 -18.577477
Se -3.095847 -24.769650 -21.673803
Se -6.192173 -24.769650 -12.384825
Se -6.192173 -21.673324 -15.481151
Se -3.095847 -21.673324 -12.384825
Se -3.095847 -24.769650 -15.481151
Se -6.192173 -24.769650 -6.192173
Se -6.192173 -21.673324 -9.288499
Se -3.095847 -21.673324 -6.192173
Se -3.095847 -24.769650 -9.288499
Se -6.192173 -24.769650 0.000479
Se -6.192173 -21.673324 -3.095847
Se -3.095847 -21.673324 0.000479
Se -3.095847 -24.769650 -3.095847
Se -6.192173 -24.769650 6.193131
Se -6.192173 -21.673324 3.096805
Se -3.095847 -21.673324 6.193131
Se -3.095847 -24.769650 3.096805
Se -6.192173 -24.769650 12.385783
Se -6.192173 -21.673324 9.289457
Se -3.095847 -21.673324 12.385783
Se -3.095847 -24.769650 9.289457
Se -6.192173 -24.769650 18.578435
Se -6.192173 -21.673324 15.482109
Se -3.095847 -21.673324 18.578435
Se -3.095847 -24.769650 15.482109
Se -6.192173 -21.673324 21.674761
Se -3.095847 -21.673324 24.771087
Se -3.095847 -24.769650 21.674761
Se -3.095847 -15.480672 -30.962781
Se -6.192173 -18.576998 -24.770129
Se -6.192173 -15.480672 -27.866455
Se -3.095847 -15.480672 -24.770129
Se -3.095847 -18.576998 -27.866455
Se -6.192173 -18.576998 -18.577477
Se -6.192173 -15.480672 -21.673803
Se -3.095847 -15.480672 -18.577477
Se -3.095847 -18.576998 -21.673803
Se -6.192173 -18.576998 -12.384825
Se -6.192173 -15.480672 -15.481151
Se -3.095847 -15.480672 -12.384825
Se -3.095847 -18.576998 -15.481151
Se -6.192173 -18.576998 -6.192173
Se -6.192173 -15.480672 -9.288499
Se -3.095847 -15.480672 -6.192173
Se -3.095847 -18.576998 -9.288499
Se -6.192173 -18.576998 0.000479
Se -6.192173 -15.480672 -3.095847
Se -3.095847 -15.480672 0.000479
Se -3.095847 -18.576998 -3.095847
Se -6.192173 -18.576998 6.193131
Se -6.192173 -15.480672 3.096805
Se -3.095847 -15.480672 6.193131
Se -3.095847 -18.576998 3.096805
Se -6.192173 -18.576998 12.385783
Se -6.192173 -15.480672 9.289457
Se -3.095847 -15.480672 12.385783
Se -3.095847 -18.576998 9.289457
Se -6.192173 -18.576998 18.578435
Se -6.192173 -15.480672 15.482109
Se -3.095847 -15.480672 18.578435
Se -3.095847 -18.576998 15.482109
Se -6.192173 -18.576998 24.771087
Se -6.192173 -15.480672 21.674761
Se -3.095847 -15.480672 24.771087
Se -3.095847 -18.576998 21.674761
Se -6.192173 -15.480672 27.867413
Se -3.095847 -15.480672 30.963739
Se -3.095847 -18.576998 27.867413
Se -6.192173 -12.384346 -30.962781
Se -3.095847 -9.288020 -30.962781
Se -6.192173 -12.384346 -24.770129
Se -6.192173 -9.288020 -27.866455
Se -3.095847 -9.288020 -24.770129
Se -3.095847 -12.384346 -27.866455
Se -6.192173 -12.384346 -18.577477
Se -6.192173 -9.288020 -21.673803
Se -3.095847 -9.288020 -18.577477
Se -3.095847 -12.384346 -21.673803
Se -6.192173 -12.384346 -12.384825
Se -6.192173 -9.288020 -15.481151
Se -3.095847 -9.288020 -12.384825
Se -3.095847 -12.384346 -15.481151
Se -6.192173 -12.384346 -6.192173
Se -6.192173 -9.288020 -9.288499
Se -3.095847 -9.288020 -6.192173
Se -3.095847 -12.384346 -9.288499
Se -6.192173 -12.384346 0.000479
Se -6.192173 -9.288020 -3.095847
Se -3.095847 -9.288020 0.000479
Se -3.095847 -12.384346 -3.095847
Se -6.192173 -12.384346 6.193131
Se -6.192173 -9.288020 3.096805
Se -3.095847 -9.288020 6.193131
Se -3.095847 -12.384346 3.096805
Se -6.192173 -12.384346 12.385783
Se -6.192173 -9.288020 9.289457
Se -3.095847 -9.288020 12.385783
Se -3.095847 -12.384346 9.289457
Se -6.192173 -12.384346 18.578435
Se -6.192173 -9.288020 15.482109
Se -3.095847 -9.288020 18.578435
Se -3.095847 -12.384346 15.482109
Se -6.192173 -12.384346 24.771087
Se -6.192173 -9.288020 21.674761
Se -3.095847 -9.288020 24.771087
Se -3.095847 -12.384346 21.674761
Se -6.192173 -12.384346 30.963739
Se -6.192173 -9.288020 27.867413
Se -3.095847 -9.288020 30.963739
Se -3.095847 -12.384346 27.867413
Se -6.192173 -6.191694 -30.962781
Se -3.095847 -3.095368 -30.962781
Se -6.192173 -6.191694 -24.770129
Se -6.192173 -3.095368 -27.866455
Se -3.095847 -3.095368 -24.770129
Se -3.095847 -6.191694 -27.866455
Se -6.192173 -6.191694 -18.577477
Se -6.192173 -3.095368 -21.673803
Se -3.095847 -3.095368 -18.577477
Se -3.095847 -6.191694 -21.673803
Se -6.192173 -6.191694 -12.384825
Se -6.192173 -3.095368 -15.481151
Se -3.095847 -3.095368 -12.384825
Se -3.095847 -6.191694 -15.481151
Se -6.192173 -6.191694 -6.192173
Se -6.192173 -3.095368 -9.288499
Se -3.095847 -3.095368 -6.192173
Se -3.095847 -6.191694 -9.288499
Se -6.192173 -6.191694 0.000479
Se -6.192173 -3.095368 -3.095847
Se -3.095847 -3.095368 0.000479
Se -3.095847 -6.191694 -3.095847
Se -6.192173 -6.191694 6.193131
Se -6.192173 -3.095368 3.096805
Se -3.095847 -3.095368 6.193131
Se -3.095847 -6.191694 3.096805
Se -6.192173 -6.191694 12.385783
Se -6.192173 -3.095368 9.289457
Se -3.095847 -3.095368 12.385783
Se -3.095847 -6.191694 9.289457
Se -6.192173 -6.191694 18.578435
Se -6.192173 -3.095368 15.482109
Se -3.095847 -3.095368 18.578435
Se -3.095847 -6.191694 15.482109
Se -6.192173 -6.191694 24.771087
Se -6.192173 -3.095368 21.674761
Se -3.095847 -3.095368 24.771087
Se -3.095847 -6.191694 21.674761
Se -6.192173 -6.191694 30.963739
Se -6.192173 -3.095368 27.867413
Se -3.095847 -3.095368 30.963739
Se -3.095847 -6.191694 27.867413
Se -6.192173 0.000958 -30.962781
Se -3.095847 3.097284 -30.962781
Se -6.192173 0.000958 -24.770129
Se -6.192173 3.097284 -27.866455
Se -3.095847 3.097284 -24.770129
Se -3.095847 0.000958 -27.866455
Se -6.192173 0.000958 -18.577477
Se -6.192173 3.097284 -21.673803
Se -3.095847 3.097284 -18.577477
Se -3.095847 0.000958 -21.673803
Se -6.192173 0.000958 -12.384825
Se -6.192173 3.097284 -15.481151
Se -3.095847 3.097284 -12.384825
Se -3.095847 0.000958 -15.481151
Se -6.192173 0.000958 -6.192173
Se -6.192173 3.097284 -9.288499
Se -3.095847 3.097284 -6.192173
Se -3.095847 0.000958 -9.288499
Se -6.192173 0.000958 0.000479
Se -6.192173 3.097284 -3.095847
Se -3.095847 3.097284 0.000479
Se -3.095847 0.000958 -3.095847
Se -6.192173 0.000958 6.193131
Se -6.192173 3.097284 3.096805
Se -3.095847 3.097284 6.193131
Se -3.095847 0.000958 3.096805
Se -6.192173 0.000958 12.385783
Se -6.192173 3.097284 9.289457
Se -3.095847 3.097284 12.385783
Se -3.095847 0.000958 9.289457
Se -6.192173 0.000958 18.578435
Se -6.192173 3.097284 15.482109
Se -3.095847 3.097284 18.578435
Se -3.095847 0.000958 15.482109
Se -6.192173 0.000958 24.771087
Se -6.192173 3.097284 21.674761
Se -3.095847 3.097284 24.771087
Se -3.095847 0.000958 21.674761
Se -6.192173 0.000958 30.963739
Se -6.192173 3.097284 27.867413
Se -3.095847 3.097284 30.963739
Se -3.095847 0.000958 27.867413
Se -6.192173 6.193610 -30.962781
Se -3.095847 9.289936 -30.962781
Se -6.192173 6.193610 -24.770129
Se -6.192173 9.289936 -27.866455
Se -3.095847 9.289936 -24.770129
Se -3.095847 6.193610 -27.866455
Se -6.192173 6.193610 -18.577477
Se -6.192173 9.289936 -21.673803
Se -3.095847 9.289936 -18.577477
Se -3.095847 6.193610 -21.673803
Se -6.192173 6.193610 -12.384825
Se -6.192173 9.289936 -15.481151
Se -3.095847 9.289936 -12.384825
Se -3.095847 6.193610 -15.481151
Se -6.192173 6.193610 -6.192173
Se -6.192173 9.289936 -9.288499
Se -3.095847 9.289936 -6.192173
Se -3.095847 6.193610 -9.288499
Se -6.192173 6.193610 0.000479
Se -6.192173 9.289936 -3.095847
Se -3.095847 9.289936 0.000479
Se -3.095847 6.193610 -3.095847
Se -6.192173 6.193610 6.193131
Se -6.192173 9.289936 3.096805
Se -3.095847 9.289936 6.193131
Se -3.095847 6.193610 3.096805
Se -6.192173 6.193610 12.385783
Se -6.192173 9.289936 9.289457
Se -3.095847 9.289936 12.385783
Se -3.095847 6.193610 9.289457
Se -6.192173 6.193610 18.578435
Se -6.192173 9.289936 15.482109
Se -3.095847 9.289936 18.578435
Se -3.095847 6.193610 15.482109
Se -6.192173 6.193610 24.771087
Se -6.192173 9.289936 21.674761
Se -3.095847 9.289936 24.771087
Se -3.095847 6.193610 21.674761
Se -6.192173 6.193610 30.963739
Se -6.192173 9.289936 27.867413
Se -3.095847 9.289936 30.963739
Se -3.095847 6.193610 27.867413
Se -6.192173 12.386263 -30.962781
Se -3.095847 15.482589 -30.962781
Se -6.192173 12.386263 -24.770129
Se -6.192173 15.482589 -27.866455
Se -3.095847 15.482589 -24.770129
Se -3.095847 12.386263 -27.866455
Se -6.192173 12.386263 -18.577477
Se -6.192173 15.482589 -21.673803
Se -3.095847 15.482589 -18.577477
Se -3.095847 12.386263 -21.673803
Se -6.192173 12.386263 -12.384825
Se -6.192173 15.482589 -15.481151
Se -3.095847 15.482589 -12.384825
Se -3.095847 12.386263 -15.481151
Se -6.192173 12.386263 -6.192173
Se -6.192173 15.482589 -9.288499
Se -3.095847 15.482589 -6.192173
Se -3.095847 12.386263 -9.288499
Se -6.192173 12.386263 0.000479
Se -6.192173 15.482589 -3.095847
Se -3.095847 15.482589 0.000479
Se -3.095847 12.386263 -3.095847
Se -6.192173 12.386263 6.193131
Se -6.192173 15.482589 3.096805
Se -3.095847 15.482589 6.193131
Se -3.095847 12.386263 3.096805
Se -6.192173 12.386263 12.385783
Se -6.192173 15.482589 9.289457
Se -3.095847 15.482589 12.385783
Se -3.095847 12.386263 9.289457
Se -6.192173 12.386263 18.578435
Se -6.192173 15.482589 15.482109
Se -3.095847 15.482589 18.578435
Se -3.095847 12.386263 15.482109
Se -6.192173 12.386263 24.771087
Se -6.192173 15.482589 21.674761
Se -3.095847 15.482589 24.771087
Se -3.095847 12.386263 21.674761
Se -6.192173 12.386263 30.963739
Se -6.192173 15.482589 27.867413
Se -3.095847 15.482589 30.963739
Se -3.095847 12.386263 27.867413
Se -6.192173 18.578915 -24.770129
Se -3.095847 21.675241 -24.770129
Se -3.095847 18.578915 -27.866455
Se -6.192173 18.578915 -18.577477
Se -6.192173 21.675241 -21.673803
Se -3.095847 21.675241 -18.577477
Se -3.095847 18.578915 -21.673803
Se -6.192173 18.578915 -12.384825
Se -6.192173 21.675241 -15.481151
Se -3.095847 21.675241 -12.384825
Se -3.095847 18.578915 -15.481151
Se -6.192173 18.578915 -6.192173
Se -6.192173 21.675241 -9.288499
Se -3.095847 21.675241 -6.192173
Se -3.095847 18.578915 -9.288499
Se -6.192173 18.578915 0.000479
Se -6.192173 21.675241 -3.095847
Se -3.095847 21.675241 0.000479
Se -3.095847 18.578915 -3.095847
Se -6.192173 18.578915 6.193131
Se -6.192173 21.675241 3.096805
Se -3.095847 21.675241 6.193131
Se -3.095847 18.578915 3.096805
Se -6.192173 18.578915 12.385783
Se -6.192173 21.675241 9.289457
Se -3.095847 21.675241 12.385783
Se -3.095847 18.578915 9.289457
Se -6.192173 18.578915 18.578435
Se -6.192173 21.675241 15.482109
Se -3.095847 21.675241 18.578435
Se -3.095847 18.578915 15.482109
Se -6.192173 18.578915 24.771087
Se -6.192173 21.675241 21.674761
Se -3.095847 21.675241 24.771087
Se -3.095847 18.578915 21.674761
Se -3.095847 18.578915 27.867413
Se -6.192173 24.771567 -18.577477
Se -3.095847 27.867893 -18.577477
Se -3.095847 24.771567 -21.673803
Se -6.192173 24.771567 -12.384825
Se -6.192173 27.867893 -15.481151
Se -3.095847 27.867893 -12.384825
Se -3.095847 24.771567 -15.481151
Se -6.192173 24.771567 -6.192173
Se -6.192173 27.867893 -9.288499
Se -3.095847 27.867893 -6.192173
Se -3.095847 24.771567 -9.288499
Se -6.192173 24.771567 0.000479
Se -6.192173 27.867893 -3.095847
Se -3.095847 27.867893 0.000479
Se -3.095847 24.771567 -3.095847
Se -6.192173 24.771567 6.193131
Se -6.192173 27.867893 3.096805
Se -3.095847 27.867893 6.193131
Se -3.095847 24.771567 3.096805
Se -6.192173 24.771567 12.385783
Se -6.192173 27.867893 9.289457
Se -3.095847 27.867893 12.385783
Se -3.095847 24.771567 9.289457
Se -6.192173 24.771567 18.578435
Se -6.192173 27.867893 15.482109
Se -3.095847 27.867893 18.578435
Se -3.095847 24.771567 15.482109
Se -3.095847 24.771567 21.674761
Se -6.192173 30.964219 -12.384825
Se -3.095847 30.964219 -15.481151
Se -6.192173 30.964219 -6.192173
Se -3.095847 30.964219 -9.288499
Se -6.192173 30.964219 0.000479
Se -3.095847 30.964219 -3.095847
Se -6.192173 30.964219 6.193131
Se -3.095847 30.964219 3.096805
Se -6.192173 30.964219 12.385783
Se -3.095847 30.964219 9.289457
Se -3.095847 30.964219 15.482109
Se 3.096805 -27.865976 -18.577477
Se 0.000479 -30.962302 -12.384825
Se 0.000479 -27.865976 -15.481151
Se 3.096805 -27.865976 -12.384825
Se 3.096805 -30.962302 -15.481151
Se 0.000479 -30.962302 -6.192173
Se 0.000479 -27.865976 -9.288499
Se 3.096805 -27.865976 -6.192173
Se 3.096805 -30.962302 -9.288499
Se 0.000479 -30.962302 0.000479
Se 0.000479 -27.865976 -3.095847
Se 3.096805 -27.865976 0.000479
Se 3.096805 -30.962302 -3.095847
Se 0.000479 -30.962302 6.193131
Se 0.000479 -27.865976 3.096805
Se 3.096805 -27.865976 6.193131
Se 3.096805 -30.962302 3.096805
Se 0.000479 -30.962302 12.385783
Se 0.000479 -27.865976 9.289457
Se 3.096805 -27.865976 12.385783
Se 3.096805 -30.962302 9.289457
Se 0.000479 -27.865976 15.482109
Se 3.096805 -27.865976 18.578435
Se 3.096805 -30.962302 15.482109
Se 3.096805 -21.673324 -24.770129
Se 0.000479 -24.769650 -18.577477
Se 0.000479 -21.673324 -21.673803
Se 3.096805 -21.673324 -18.577477
Se 3.096805 -24.769650 -21.673803
Se 0.000479 -24.769650 -12.384825
Se 0.000479 -21.673324 -15.481151
Se 3.096805 -21.673324 -12.384825
Se 3.096805 -24.769650 -15.481151
Se 0.000479 -24.769650 -6.192173
Se 0.000479 -21.673324 -9.288499
Se 3.096805 -21.673324 -6.192173
Se 3.096805 -24.769650 -9.288499
Se 0.000479 -24.769650 0.000479
Se 0.000479 -21.673324 -3.095847
Se 3.096805 -21.673324 0.000479
Se 3.096805 -24.769650 -3.095847
Se 0.000479 -24.769650 6.193131
Se 0.000479 -21.673324 3.096805
Se 3.096805 -21.673324 6.193131
Se 3.096805 -24.769650 3.096805
Se 0.000479 -24.769650 12.385783
Se 0.000479 -21.673324 9.289457
Se 3.096805 -21.673324 12.385783
Se 3.096805 -24.769650 9.289457
Se 0.000479 -24.769650 18.578435
Se 0.000479 -21.673324 15.482109
Se 3.096805 -21.673324 18.578435
Se 3.096805 -24.769650 15.482109
Se 0.000479 -21.673324 21.674761
Se 3.096805 -21.673324 24.771087
Se 3.096805 -24.769650 21.674761
Se 3.096805 -15.480672 -30.962781
Se 0.000479 -18.576998 -24.770129
Se 0.000479 -15.480672 -27.866455
Se 3.096805 -15.480672 -24.770129
Se 3.096805 -18.576998 -27.866455
Se 0.000479 -18.576998 -18.577477
Se 0.000479 -15.480672 -21.673803
Se 3.096805 -15.480672 -18.577477
Se 3.096805 -18.576998 -21.673803
Se 0.000479 -18.576998 -12.384825
Se 0.000479 -15.480672 -15.481151
Se 3.096805 -15.480672 -12.384825
Se 3.096805 -18.576998 -15.481151
Se 0.000479 -18.576998 -6.192173
Se 0.000479 -15.480672 -9.288499
Se 3.096805 -15.480672 -6.192173
Se 3.096805 -18.576998 -9.288499
Se 0.000479 -18.576998 0.000479
Se 0.000479 -15.480672 -3.095847
Se 3.096805 -15.480672 0.000479
Se 3.096805 -18.576998 -3.095847
Se 0.000479 -18.576998 6.193131
Se 0.000479 -15.480672 3.096805
Se 3.096805 -15.480672 6.193131
Se 3.096805 -18.576998 3.096805
Se 0.000479 -18.576998 12.385783
Se 0.000479 -15.480672 9.289457
Se 3.096805 -15.480672 12.385783
Se 3.096805 -18.576998 9.289457
Se 0.000479 -18.576998 18.578435
Se 0.000479 -15.480672 15.482109
Se 3.096805 -15.480672 18.578435
Se 3.096805 -18.576998 15.482109
Se 0.000479 -18.576998 24.771087
Se 0.000479 -15.480672 21.674761
Se 3.096805 -15.480672 24.771087
Se 3.096805 -18.576998 21.674761
Se 0.000479 -15.480672 27.867413
Se 3.096805 -15.480672 30.963739
Se 3.096805 -18.576998 27.867413
Se 0.000479 -12.384346 -30.962781
Se 3.096805 -9.288020 -30.962781
Se 0.000479 -12.384346 -24.770129
Se 0.000479 -9.288020 -27.866455
Se 3.096805 -9.288020 -24.770129
Se 3.096805 -12.384346 -27.866455
Se 0.000479 -12.384346 -18.577477
Se 0.000479 -9.288020 -21.673803
Se 3.096805 -9.288020 -18.577477
Se 3.096805 -12.384346 -21.673803
Se 0.000479 -12.384346 -12.384825
Se 0.000479 -9.288020 -15.481151
Se 3.096805 -9.288020 -12.384825
Se 3.096805 -12.384346 -15.481151
Se 0.000479 -12.384346 -6.192173
Se 0.000479 -9.288020 -9.288499
Se 3.096805 -9.288020 -6.192173
Se 3.096805 -12.384346 -9.288499
Se 0.000479 -12.384346 0.000479
Se 0.000479 -9.288020 -3.095847
Se 3.096805 -9.288020 0.000479
Se 3.096805 -12.384346 -3.095847
Se 0.000479 -12.384346 6.193131
Se 0.000479 -9.288020 3.096805
Se 3.096805 -9.288020 6.193131
Se 3.096805 -12.384346 3.096805
Se 0.000479 -12.384346 12.385783
Se 0.000479 -9.288020 9.289457
Se 3.096805 -9.288020 12.385783
Se 3.096805 -12.384346 9.289457
Se 0.000479 -12.384346 18.578435
Se 0.000479 -9.288020 15.482109
Se 3.096805 -9.288020 18.578435
Se 3.096805 -12.384346 15.482109
Se 0.000479 -12.384346 24.771087
Se 0.000479 -9.288020 21.674761
Se 3.096805 -9.288020 24.771087
Se 3.096805 -12.384346 21.674761
Se 0.000479 -12.384346 30.963739
Se 0.000479 -9.288020 27.867413
Se 3.096805 -9.288020 30.963739
Se 3.096805 -12.384346 27.867413
Se 0.000479 -6.191694 -30.962781
Se 3.096805 -3.095368 -30.962781
Se 0.000479 -6.191694 -24.770129
Se 0.000479 -3.095368 -27.866455
Se 3.096805 -3.095368 -24.770129
Se 3.096805 -6.191694 -27.866455
Se 0.000479 -6.191694 -18.577477
Se 0.000479 -3.095368 -21.673803
Se 3.096805 -3.095368 -18.577477
Se 3.096805 -6.191694 -21.673803
Se 0.000479 -6.191694 -12.384825
Se 0.000479 -3.095368 -15.481151
Se 3.096805 -3.095368 -12.384825
Se 3.096805 -6.191694 -15.481151
Se 0.000479 -6.191694 -6.192173
Se 0.000479 -3.095368 -9.288499
Se 3.096805 -3.095368 -6.192173
Se 3.096805 -6.191694 -9.288499
Se 0.000479 -6.191694 0.000479
Se 0.000479 -3.095368 -3.095847
Se 3.096805 -3.095368 0.000479
Se 3.096805 -6.191694 -3.095847
Se 0.000479 -6.191694 6.193131
Se 0.000479 -3.095368 3.096805
Se 3.096805 -3.095368 6.193131
Se 3.096805 -6.191694 3.096805
Se 0.000479 -6.191694 12.385783
Se 0.000479 -3.095368 9.289457
Se 3.096805 -3.095368 12.385783
Se 3.096805 -6.191694 9.289457
Se 0.000479 -6.191694 18.578435
Se 0.000479 -3.095368 15.482109
Se 3.096805 -3.095368 18.578435
Se 3.096805 -6.191694 15.482109
Se 0.000479 -6.191694 24.771087
Se 0.000479 -3.095368 21.674761
Se 3.096805 -3.095368 24.771087
Se 3.096805 -6.191694 21.674761
Se 0.000479 -6.191694 30.963739
Se 0.000479 -3.095368 27.867413
Se 3.096805 -3.095368 30.963739
Se 3.096805 -6.191694 27.867413
Se 0.000479 0.000958 -30.962781
Se 3.096805 3.097284 -30.962781
Se 0.000479 0.000958 -24.770129
Se 0.000479 3.097284 -27.866455
Se 3.096805 3.097284 -24.770129
Se 3.096805 0.000958 -27.866455
Se 0.000479 0.000958 -18.577477
Se 0.000479 3.097284 -21.673803
Se 3.096805 3.097284 -18.577477
Se 3.096805 0.000958 -21.673803
Se 0.000479 0.000958 -12.384825
Se 0.000479 3.097284 -15.481151
Se 3.096805 3.097284 -12.384825
Se 3.096805 0.000958 -15.481151
Se 0.000479 0.000958 -6.192173
Se 0.000479 3.097284 -9.288499
Se 3.096805 3.097284 -6.192173
Se 3.096805 0.000958 -9.288499
Se 0.000479 0.000958 0.000479
Se 0.000479 3.097284 -3.095847
Se 3.096805 3.097284 0.000479
Se 3.096805 0.000958 -3.095847
Se 0.000479 0.000958 6.193131
Se 0.000479 3.097284 3.096805
Se 3.096805 3.097284 6.193131
Se 3.096805 0.000958 3.096805
Se 0.000479 0.000958 12.385783
Se 0.000479 3.097284 9.289457
Se 3.096805 3.097284 12.385783
Se 3.096805 0.000958 9.289457
Se 0.000479 0.000958 18.578435
Se 0.000479 3.097284 15.482109
Se 3.096805 3.097284 18.578435
Se 3.096805 0.000958 15.482109
Se 0.000479 0.000958 24.771087
Se 0.000479 3.097284 21.674761
Se 3.096805 3.097284 24.771087
Se 3.096805 0.000958 21.674761
Se 0.000479 0.000958 30.963739
Se 0.000479 3.097284 27.867413
Se 3.096805 3.097284 30.963739
Se 3.096805 0.000958 27.867413
Se 0.000479 6.193610 -30.962781
Se 3.096805 9.289936 -30.962781
Se 0.000479 6.193610 -24.770129
Se 0.000479 9.289936 -27.866455
Se 3.096805 9.289936 -24.770129
Se 3.096805 6.193610 -27.866455
Se 0.000479 6.193610 -18.577477
Se 0.000479 9.289936 -21.673803
Se 3.096805 9.289936 -18.577477
Se 3.096805 6.193610 -21.673803
Se 0.000479 6.193610 -12.384825
Se 0.000479 9.289936 -15.481151
Se 3.096805 9.289936 -12.384825
Se 3.096805 6.193610 -15.481151
Se 0.000479 6.193610 -6.192173
Se 0.000479 9.289936 -9.288499
Se 3.096805 9.289936 -6.192173
Se 3.096805 6.193610 -9.288499
Se 0.000479 6.193610 0.000479
Se 0.000479 9.289936 -3.095847
Se 3.096805 9.289936 0.000479
Se 3.096805 6.193610 -3.095847
Se 0.000479 6.193610 6.193131
Se 0.000479 9.289936 3.096805
Se 3.096805 9.289936 6.193131
Se 3.096805 6.193610 3.096805
Se 0.000479 6.193610 12.385783
Se 0.000479 9.289936 9.289457
Se 3.096805 9.289936 12.385783
Se 3.096805 6.193610 9.289457
Se 0.000479 6.193610 18.578435
Se 0.000479 9.289936 15.482109
Se 3.096805 9.289936 18.578435
Se 3.096805 6.193610 15.482109
Se 0.000479 6.193610 24.771087
Se 0.000479 9.289936 21.674761
Se 3.096805 9.289936 24.771087
Se 3.096805 6.193610 21.674761
Se 0.000479 6.193610 30.963739
Se 0.000479 9.289936 27.867413
Se 3.096805 9.289936 30.963739
Se 3.096805 6.193610 27.867413
Se 0.000479 12.386263 -30.962781
Se 3.096805 15.482589 -30.962781
Se 0.000479 12.386263 -24.770129
Se 0.000479 15.482589 -27.866455
Se 3.096805 15.482589 -24.770129
Se 3.096805 12.386263 -27.866455
Se 0.000479 12.386263 -18.577477
Se 0.000479 15.482589 -21.673803
Se 3.096805 15.482589 -18.577477
Se 3.096805 12.386263 -21.673803
Se 0.000479 12.386263 -12.384825
Se 0.000479 15.482589 -15.481151
Se 3.096805 15.482589 -12.384825
Se 3.096805 12.386263 -15.481151
Se 0.000479 12.386263 -6.192173
Se 0.000479 15.482589 -9.288499
Se 3.096805 15.482589 -6.192173
Se 3.096805 12.386263 -9.288499
Se 0.000479 12.386263 0.000479
Se 0.000479 15.482589 -3.095847
Se 3.096805 15.482589 0.000479
Se 3.096805 12.386263 -3.095847
Se 0.000479 12.386263 6.193131
Se 0.000479 15.482589 3.096805
Se 3.096805 15.482589 6.193131
Se 3.096805 12.386263 3.096805
Se 0.000479 12.386263 12.385783
Se 0.000479 15.482589 9.289457
Se 3.096805 15.482589 12.385783
Se 3.096805 12.386263 9.289457
Se 0.000479 12.386263 18.578435
Se 0.000479 15.482589 15.482109
Se 3.096805 15.482589 18.578435
Se 3.096805 12.386263 15.482109
Se 0.000479 12.386263 24.771087
Se 0.000479 15.482589 21.674761
Se 3.096805 15.482589 24.771087
Se 3.096805 12.386263 21.674761
Se 0.000479 12.386263 30.963739
Se 0.000479 15.482589 27.867413
Se 3.096805 15.482589 30.963739
Se 3.096805 12.386263 27.867413
Se 0.000479 18.578915 -24.770129
Se 3.096805 21.675241 -24.770129
Se 3.096805 18.578915 -27.866455
Se 0.000479 18.578915 -18.577477
Se 0.000479 21.675241 -21.673803
Se 3.096805 21.675241 -18.577477
Se 3.096805 18.578915 -21.673803
Se 0.000479 18.578915 -12.384825
Se 0.000479 21.675241 -15.481151
Se 3.096805 21.675241 -12.384825
Se 3.096805 18.578915 -15.481151
Se 0.000479 18.578915 -6.192173
Se 0.000479 21.675241 -9.288499
Se 3.096805 21.675241 -6.192173
Se 3.096805 18.578915 -9.288499
Se 0.000479 18.578915 0.000479
Se 0.000479 21.675241 -3.095847
Se 3.096805 21.675241 0.000479
Se 3.096805 18.578915 -3.095847
Se 0.000479 18.578915 6.193131
Se 0.000479 21.675241 3.096805
Se 3.096805 21.675241 6.193131
Se 3.096805 18.578915 3.096805
Se 0.000479 18.578915 12.385783
Se 0.000479 21.675241 9.289457
Se 3.096805 21.675241 12.385783
Se 3.096805 18.578915 9.289457
Se 0.000479 18.578915 18.578435
Se 0.000479 21.675241 15.482109
Se 3.096805 21.675241 18.578435
Se 3.096805 18.578915 15.482109
Se 0.000479 18.578915 24.771087
Se 0.000479 21.675241 21.674761
Se 3.096805 21.675241 24.771087
Se 3.096805 18.578915 21.674761
Se 3.096805 18.578915 27.867413
Se 0.000479 24.771567 -18.577477
Se 3.096805 27.867893 -18.577477
Se 3.096805 24.771567 -21.673803
Se 0.000479 24.771567 -12.384825
Se 0.000479 27.867893 -15.481151
Se 3.096805 27.867893 -12.384825
Se 3.096805 24.771567 -15.481151
Se 0.000479 24.771567 -6.192173
Se 0.000479 27.867893 -9.288499
Se 3.096805 27.867893 -6.192173
Se 3.096805 24.771567 -9.288499
Se 0.000479 24.771567 0.000479
Se 0.000479 27.867893 -3.095847
Se 3.096805 27.867893 0.000479
Se 3.096805 24.771567 -3.095847
Se 0.000479 24.771567 6.193131
Se 0.000479 27.867893 3.096805
Se 3.096805 27.867893 6.193131
Se 3.096805 24.771567 3.096805
Se 0.000479 24.771567 12.385783
Se 0.000479 27.867893 9.289457
Se 3.096805 27.867893 12.385783
Se 3.096805 24.771567 9.289457
Se 0.000479 24.771567 18.578435
Se 0.000479 27.867893 15.482109
Se 3.096805 27.867893 18.578435
Se 3.096805 24.771567 15.482109
Se 3.096805 24.771567 21.674761
Se 0.000479 30.964219 -12.384825
Se 3.096805 30.964219 -15.481151
Se 0.000479 30.964219 -6.192173
Se 3.096805 30.964219 -9.288499
Se 0.000479 30.964219 0.000479
Se 3.096805 30.964219 -3.095847
Se 0.000479 30.964219 6.193131
Se 3.096805 30.964219 3.096805
Se 0.000479 30.964219 12.385783
Se 3.096805 30.964219 9.289457
Se 3.096805 30.964219 15.482109
Se 9.289457 -27.865976 -18.577477
Se 6.193131 -30.962302 -12.384825
Se 6.193131 -27.865976 -15.481151
Se 9.289457 -27.865976 -12.384825
Se 9.289457 -30.962302 -15.481151
Se 6.193131 -30.962302 -6.192173
Se 6.193131 -27.865976 -9.288499
Se 9.289457 -27.865976 -6.192173
Se 9.289457 -30.962302 -9.288499
Se 6.193131 -30.962302 0.000479
Se 6.193131 -27.865976 -3.095847
Se 9.289457 -27.865976 0.000479
Se 9.289457 -30.962302 -3.095847
Se 6.193131 -30.962302 6.193131
Se 6.193131 -27.865976 3.096805
Se 9.289457 -27.865976 6.193131
Se 9.289457 -30.962302 3.096805
Se 6.193131 -30.962302 12.385783
Se 6.193131 -27.865976 9.289457
Se 9.289457 -27.865976 12.385783
Se 9.289457 -30.962302 9.289457
Se 6.193131 -27.865976 15.482109
Se 9.289457 -27.865976 18.578435
Se 9.289457 -30.962302 15.482109
Se 9.289457 -21.673324 -24.770129
Se 6.193131 -24.769650 -18.577477
Se 6.193131 -21.673324 -21.673803
Se 9.289457 -21.673324 -18.577477
Se 9.289457 -24.769650 -21.673803
Se 6.193131 -24.769650 -12.384825
Se 6.193131 -21.673324 -15.481151
Se 9.289457 -21.673324 -12.384825
Se 9.289457 -24.769650 -15.481151
Se 6.193131 -24.769650 -6.192173
Se 6.193131 -21.673324 -9.288499
Se 9.289457 -21.673324 -6.192173
Se 9.289457 -24.769650 -9.288499
Se 6.193131 -24.769650 0.000479
Se 6.193131 -21.673324 -3.095847
Se 9.289457 -21.673324 0.000479
Se 9.289457 -24.769650 -3.095847
Se 6.193131 -24.769650 6.193131
Se 6.193131 -21.673324 3.096805
Se 9.289457 -21.673324 6.193131
Se 9.289457 -24.769650 3.096805
Se 6.193131 -24.769650 12.385783
Se 6.193131 -21.673324 9.289457
Se 9.289457 -21.673324 12.385783
Se 9.289457 -24.769650 9.289457
Se 6.193131 -24.769650 18.578435
Se 6.193131 -21.673324 15.482109
Se 9.289457 -21.673324 18.578435
Se 9.289457 -24.769650 15.482109
Se 6.193131 -21.673324 21.674761
Se 9.289457 -21.673324 24.771087
Se 9.289457 -24.769650 21.674761
Se 9.289457 -15.480672 -30.962781
Se 6.193131 -18.576998 -24.770129
Se 6.193131 -15.480672 -27.866455
Se 9.289457 -15.480672 -24.770129
Se 9.289457 -18.576998 -27.866455
Se 6.193131 -18.576998 -18.577477
Se 6.193131 -15.480672 -21.673803
Se 9.289457 -15.480672 -18.577477
Se 9.289457 -18.576998 -21.673803
Se 6.193131 -18.576998 -12.384825
Se 6.193131 -15.480672 -15.481151
Se 9.289457 -15.480672 -12.384825
Se 9.289457 -18.576998 -15.481151
Se 6.193131 -18.576998 -6.192173
Se 6.193131 -15.480672 -9.288499
Se 9.289457 -15.480672 -6.192173
Se 9.289457 -18.576998 -9.288499
Se 6.193131 -18.576998 0.000479
Se 6.193131 -15.480672 -3.095847
Se 9.289457 -15.480672 0.000479
Se 9.289457 -18.576998 -3.095847
Se 6.193131 -18.576998 6.193131
Se 6.193131 -15.480672 3.096805
Se 9.289457 -15.480672 6.193131
Se 9.289457 -18.576998 3.096805
Se 6.193131 -18.576998 12.385783
Se 6.193131 -15.480672 9.289457
Se 9.289457 -15.480672 12.385783
Se 9.289457 -18.576998 9.289457
Se 6.193131 -18.576998 18.578435
Se 6.193131 -15.480672 15.482109
Se 9.289457 -15.480672 18.578435
Se 9.289457 -18.576998 15.482109
Se 6.193131 -18.576998 24.771087
Se 6.193131 -15.480672 21.674761
Se 9.289457 -15.480672 24.771087
Se 9.289457 -18.576998 21.674761
Se 6.193131 -15.480672 27.867413
Se 9.289457 -15.480672 30.963739
Se 9.289457 -18.576998 27.867413
Se 6.193131 -12.384346 -30.962781
Se 9.289457 -9.288020 -30.962781
Se 6.193131 -12.384346 -24.770129
Se 6.193131 -9.288020 -27.866455
Se 9.289457 -9.288020 -24.770129
Se 9.289457 -12.384346 -27.866455
Se 6.193131 -12.384346 -18.577477
Se 6.193131 -9.288020 -21.673803
Se 9.289457 -9.288020 -18.577477
Se 9.289457 -12.384346 -21.673803
Se 6.193131 -12.384346 -12.384825
Se 6.193131 -9.288020 -15.481151
Se 9.289457 -9.288020 -12.384825
Se 9.289457 -12.384346 -15.481151
Se 6.193131 -12.384346 -6.192173
Se 6.193131 -9.288020 -9.288499
Se 9.289457 -9.288020 -6.192173
Se 9.289457 -12.384346 -9.288499
Se 6.193131 -12.384346 0.000479
Se 6.193131 -9.288020 -3.095847
Se 9.289457 -9.288020 0.000479
Se 9.289457 -12.384346 -3.095847
Se 6.193131 -12.384346 6.193131
Se 6.193131 -9.288020 3.096805
Se 9.289457 -9.288020 6.193131
Se 9.289457 -12.384346 3.096805
Se 6.193131 -12.384346 12.385783
Se 6.193131 -9.288020 9.289457
Se 9.289457 -9.288020 12.385783
Se 9.289457 -12.384346 9.289457
Se 6.193131 -12.384346 18.578435
Se 6.193131 -9.288020 15.482109
Se 9.289457 -9.288020 18.578435
Se 9.289457 -12.384346 15.482109
Se 6.193131 -12.384346 24.771087
Se 6.193131 -9.288020 21.674761
Se 9.289457 -9.288020 24.771087
Se 9.289457 -12.384346 21.674761
Se 6.193131 -12.384346 30.963739
Se 6.193131 -9.288020 27.867413
Se 9.289457 -9.288020 30.963739
Se 9.289457 -12.384346 27.867413
Se 6.193131 -6.191694 -30.962781
Se 9.289457 -3.095368 -30.962781
Se 6.193131 -6.191694 -24.770129
Se 6.193131 -3.095368 -27.866455
Se 9.289457 -3.095368 -24.770129
Se 9.289457 -6.191694 -27.866455
Se 6.193131 -6.191694 -18.577477
Se 6.193131 -3.095368 -21.673803
Se 9.289457 -3.095368 -18.577477
Se 9.289457 -6.191694 -21.673803
Se 6.193131 -6.191694 -12.384825
Se 6.193131 -3.095368 -15.481151
Se 9.289457 -3.095368 -12.384825
Se 9.289457 -6.191694 -15.481151
Se 6.193131 -6.191694 -6.192173
Se 6.193131 -3.095368 -9.288499
Se 9.289457 -3.095368 -6.192173
Se 9.289457 -6.191694 -9.288499
Se 6.193131 -6.191694 0.000479
Se 6.193131 -3.095368 -3.095847
Se 9.289457 -3.095368 0.000479
Se 9.289457 -6.191694 -3.095847
Se 6.193131 -6.191694 6.193131
Se 6.193131 -3.095368 3.096805
Se 9.289457 -3.095368 6.193131
Se 9.289457 -6.191694 3.096805
Se 6.193131 -6.191694 12.385783
Se 6.193131 -3.095368 9.289457
Se 9.289457 -3.095368 12.385783
Se 9.289457 -6.191694 9.289457
Se 6.193131 -6.191694 18.578435
Se 6.193131 -3.095368 15.482109
Se 9.289457 -3.095368 18.578435
Se 9.289457 -6.191694 15.482109
Se 6.193131 -6.191694 24.771087
Se 6.193131 -3.095368 21.674761
Se 9.289457 -3.095368 24.771087
Se 9.289457 -6.191694 21.674761
Se 6.193131 -6.191694 30.963739
Se 6.193131 -3.095368 27.867413
Se 9.289457 -3.095368 30.963739
Se 9.289457 -6.191694 27.867413
Se 6.193131 0.000958 -30.962781
Se 9.289457 3.097284 -30.962781
Se 6.193131 0.000958 -24.770129
Se 6.193131 3.097284 -27.866455
Se 9.289457 3.097284 -24.770129
Se 9.289457 0.000958 -27.866455
Se 6.193131 0.000958 -18.577477
Se 6.193131 3.097284 -21.673803
Se 9.289457 3.097284 -18.577477
Se 9.289457 0.000958 -21.673803
Se 6.193131 0.000958 -12.384825
Se 6.193131 3.097284 -15.481151
Se 9.289457 3.097284 -12.384825
Se 9.289457 0.000958 -15.481151
Se 6.193131 0.000958 -6.192173
Se 6.193131 3.097284 -9.288499
Se 9.289457 3.097284 -6.192173
Se 9.289457 0.000958 -9.288499
Se 6.193131 0.000958 0.000479
Se 6.193131 3.097284 -3.095847
Se 9.289457 3.097284 0.000479
Se 9.289457 0.000958 -3.095847
Se 6.193131 0.000958 6.193131
Se 6.193131 3.097284 3.096805
Se 9.289457 3.097284 6.193131
Se 9.289457 0.000958 3.096805
Se 6.193131 0.000958 12.385783
Se 6.193131 3.097284 9.289457
Se 9.289457 3.097284 12.385783
Se 9.289457 0.000958 9.289457
Se 6.193131 0.000958 18.578435
Se 6.193131 3.097284 15.482109
Se 9.289457 3.097284 18.578435
Se 9.289457 0.000958 15.482109
Se 6.193131 0.000958 24.771087
Se 6.193131 3.097284 21.674761
Se 9.289457 3.097284 24.771087
Se 9.289457 0.000958 21.674761
Se 6.193131 0.000958 30.963739
Se 6.193131 3.097284 27.867413
Se 9.289457 3.097284 30.963739
Se 9.289457 0.000958 27.867413
Se 6.193131 6.193610 -30.962781
Se 9.289457 9.289936 -30.962781
Se 6.193131 6.193610 -24.770129
Se 6.193131 9.289936 -27.866455
Se 9.289457 9.289936 -24.770129
Se 9.289457 6.193610 -27.866455
Se 6.193131 6.193610 -18.577477
Se 6.193131 9.289936 -21.673803
Se 9.289457 9.289936 -18.577477
Se 9.289457 6.193610 -21.673803
Se 6.193131 6.193610 -12.384825
Se 6.193131 9.289936 -15.481151
Se 9.289457 9.289936 -12.384825
Se 9.289457 6.193610 -15.481151
Se 6.193131 6.193610 -6.192173
Se 6.193131 9.289936 -9.288499
Se 9.289457 9.289936 -6.192173
Se 9.289457 6.193610 -9.288499
Se 6.193131 6.193610 0.000479
Se 6.193131 9.289936 -3.095847
Se 9.289457 9.289936 0.000479
Se 9.289457 6.193610 -3.095847
Se 6.193131 6.193610 6.193131
Se 6.193131 9.289936 3.096805
Se 9.289457 9.289936 6.193131
Se 9.289457 6.193610 3.096805
Se 6.193131 6.193610 12.385783
Se 6.193131 9.289936 9.289457
Se 9.289457 9.289936 12.385783
Se 9.289457 6.193610 9.289457
Se 6.193131 6.193610 18.578435
Se 6.193131 9.289936 15.482109
Se 9.289457 9.289936 18.578435
Se 9.289457 6.193610 15.482109
Se 6.193131 6.193610 24.771087
Se 6.193131 9.289936 21.674761
Se 9.289457 9.289936 24.771087
Se 9.289457 6.193610 21.674761
Se 6.193131 6.193610 30.963739
Se 6.193131 9.289936 27.867413
Se 9.289457 9.289936 30.963739
Se 9.289457 6.193610 27.867413
Se 6.193131 12.386263 -30.962781
Se 9.289457 15.482589 -30.962781
Se 6.193131 12.386263 -24.770129
Se 6.193131 15.482589 -27.866455
Se 9.289457 15.482589 -24.770129
Se 9.289457 12.386263 -27.866455
Se 6.193131 12.386263 -18.577477
Se 6.193131 15.482589 -21.673803
Se 9.289457 15.482589 -18.577477
Se 9.289457 12.386263 -21.673803
Se 6.193131 12.386263 -12.384825
Se 6.193131 15.482589 -15.481151
Se 9.289457 15.482589 -12.384825
Se 9.289457 12.386263 -15.481151
Se 6.193131 12.386263 -6.192173
Se 6.193131 15.482589 -9.288499
Se 9.289457 15.482589 -6.192173
Se 9.289457 12.386263 -9.288499
Se 6.193131 12.386263 0.000479
Se 6.193131 15.482589 -3.095847
Se 9.289457 15.482589 0.000479
Se 9.289457 12.386263 -3.095847
Se 6.193131 12.386263 6.193131
Se 6.193131 15.482589 3.096805
Se 9.289457 15.482589 6.193131
Se 9.289457 12.386263 3.096805
Se 6.193131 12.386263 12.385783
Se 6.193131 15.482589 9.289457
Se 9.289457 15.482589 12.385783
Se 9.289457 12.386263 9.289457
Se 6.193131 12.386263 18.578435
Se 6.193131 15.482589 15.482109
Se 9.289457 15.482589 18.578435
Se 9.289457 12.386263 15.482109
Se 6.193131 12.386263 24.771087
Se 6.193131 15.482589 21.674761
Se 9.289457 15.482589 24.771087
Se 9.289457 12.386263 21.674761
Se 6.193131 12.386263 30.963739
Se 6.193131 15.482589 27.867413
Se 9.289457 15.482589 30.963739
Se 9.289457 12.386263 27.867413
Se 6.193131 18.578915 -24.770129
Se 9.289457 21.675241 -24.770129
Se 9.289457 18.578915 -27.866455
Se 6.193131 18.578915 -18.577477
Se 6.193131 21.675241 -21.673803
Se 9.289457 21.675241 -18.577477
Se 9.289457 18.578915 -21.673803
Se 6.193131 18.578915 -12.384825
Se 6.193131 21.675241 -15.481151
Se 9.289457 21.675241 -12.384825
Se 9.289457 18.578915 -15.481151
Se 6.193131 18.578915 -6.192173
Se 6.193131 21.675241 -9.288499
Se 9.289457 21.675241 -6.192173
Se 9.289457 18.578915 -9.288499
Se 6.193131 18.578915 0.000479
Se 6.193131 21.675241 -3.095847
Se 9.289457 21.675241 0.000479
Se 9.289457 18.578915 -3.095847
Se 6.193131 18.578915 6.193131
Se 6.193131 21.675241 3.096805
Se 9.289457 21.675241 6.193131
Se 9.289457 18.578915 3.096805
Se 6.193131 18.578915 12.385783
Se 6.193131 21.675241 9.289457
Se 9.289457 21.675241 12.385783
Se 9.289457 18.578915 9.289457
Se 6.193131 18.578915 18.578435
Se 6.193131 21.675241 15.482109
Se 9.289457 21.675241 18.578435
Se 9.289457 18.578915 15.482109
Se 6.193131 18.578915 24.771087
Se 6.193131 21.675241 21.674761
Se 9.289457 21.675241 24.771087
Se 9.289457 18.578915 21.674761
Se 9.289457 18.578915 27.867413
Se 6.193131 24.771567 -18.577477
Se 9.289457 27.867893 -18.577477
Se 9.289457 24.771567 -21.673803
Se 6.193131 24.771567 -12.384825
Se 6.193131 27.867893 -15.481151
Se 9.289457 27.867893 -12.384825
Se 9.289457 24.771567 -15.481151
Se 6.193131 24.771567 -6.192173
Se 6.193131 27.867893 -9.288499
Se 9.289457 27.867893 -6.192173
Se 9.289457 24.771567 -9.288499
Se 6.193131 24.771567 0.000479
Se 6.193131 27.867893 -3.095847
Se 9.289457 27.867893 0.000479
Se 9.289457 24.771567 -3.095847
Se 6.193131 24.771567 6.193131
Se 6.193131 27.867893 3.096805
Se 9.289457 27.867893 6.193131
Se 9.289457 24.771567 3.096805
Se 6.193131 24.771567 12.385783
Se 6.193131 27.867893 9.289457
Se 9.289457 27.867893 12.385783
Se 9.289457 24.771567 9.289457
Se 6.193131 24.771567 18.578435
Se 6.193131 27.867893 15.482109
Se 9.289457 27.867893 18.578435
Se 9.289457 24.771567 15.482109
Se 9.289457 24.771567 21.674761
Se 6.193131 30.964219 -12.384825
Se 9.289457 30.964219 -15.481151
Se 6.193131 30.964219 -6.192173
Se 9.289457 30.964219 -9.288499
Se 6.193131 30.964219 0.000479
Se 9.289457 30.964219 -3.095847
Se 6.193131 30.964219 6.193131
Se 9.289457 30.964219 3.096805
Se 6.193131 30.964219 12.385783
Se 9.289457 30.964219 9.289457
Se 9.289457 30.964219 15.482109
Se 12.385783 -30.962302 -12.384825
Se 12.385783 -27.865976 -15.481151
Se 15.482109 -27.865976 -12.384825
Se 12.385783 -30.962302 -6.192173
Se 12.385783 -27.865976 -9.288499
Se 15.482109 -27.865976 -6.192173
Se 15.482109 -30.962302 -9.288499
Se 12.385783 -30.962302 0.000479
Se 12.385783 -27.865976 -3.095847
Se 15.482109 -27.865976 0.000479
Se 15.482109 -30.962302 -3.095847
Se 12.385783 -30.962302 6.193131
Se 12.385783 -27.865976 3.096805
Se 15.482109 -27.865976 6.193131
Se 15.482109 -30.962302 3.096805
Se 12.385783 -30.962302 12.385783
Se 12.385783 -27.865976 9.289457
Se 15.482109 -27.865976 12.385783
Se 15.482109 -30.962302 9.289457
Se 12.385783 -27.865976 15.482109
Se 12.385783 -24.769650 -18.577477
Se 12.385783 -21.673324 -21.673803
Se 15.482109 -21.673324 -18.577477
Se 12.385783 -24.769650 -12.384825
Se 12.385783 -21.673324 -15.481151
Se 15.482109 -21.673324 -12.384825
Se 15.482109 -24.769650 -15.481151
Se 12.385783 -24.769650 -6.192173
Se 12.385783 -21.673324 -9.288499
Se 15.482109 -21.673324 -6.192173
Se 15.482109 -24.769650 -9.288499
Se 12.385783 -24.769650 0.000479
Se 12.385783 -21.673324 -3.095847
Se 15.482109 -21.673324 0.000479
Se 15.482109 -24.769650 -3.095847
Se 12.385783 -24.769650 6.193131
Se 12.385783 -21.673324 3.096805
Se 15.482109 -21.673324 6.193131
Se 15.482109 -24.769650 3.096805
Se 12.385783 -24.769650 12.385783
Se 12.385783 -21.673324 9.289457
Se 15.482109 -21.673324 12.385783
Se 15.482109 -24.769650 9.289457
Se 12.385783 -24.769650 18.578435
Se 12.385783 -21.673324 15.482109
Se 15.482109 -21.673324 18.578435
Se 15.482109 -24.769650 15.482109
Se 12.385783 -21.673324 21.674761
Se 12.385783 -18.576998 -24.770129
Se 12.385783 -15.480672 -27.866455
Se 15.482109 -15.480672 -24.770129
Se 12.385783 -18.576998 -18.577477
Se 12.385783 -15.480672 -21.673803
Se 15.482109 -15.480672 -18.577477
Se 15.482109 -18.576998 -21.673803
Se 12.385783 -18.576998 -12.384825
Se 12.385783 -15.480672 -15.481151
Se 15.482109 -15.480672 -12.384825
Se 15.482109 -18.576998 -15.481151
Se 12.385783 -18.576998 -6.192173
Se 12.385783 -15.480672 -9.288499
Se 15.482109 -15.480672 -6.192173
Se 15.482109 -18.576998 -9.288499
Se 12.385783 -18.576998 0.000479
Se 12.385783 -15.480672 -3.095847
Se 15.482109 -15.480672 0.000479
Se 15.482109 -18.576998 -3.095847
Se 12.385783 -18.576998 6.193131
Se 12.385783 -15.480672 3.096805
Se 15.482109 -15.480672 6.193131
Se 15.482109 -18.576998 3.096805
Se 12.385783 -18.576998 12.385783
Se 12.385783 -15.480672 9.289457
Se 15.482109 -15.480672 12.385783
Se 15.482109 -18.576998 9.289457
Se 12.385783 -18.576998 18.578435
Se 12.385783 -15.480672 15.482109
Se 15.482109 -15.480672 18.578435
Se 15.482109 -18.576998 15.482109
Se 12.385783 -18.576998 24.771087
Se 12.385783 -15.480672 21.674761
Se 15.482109 -15.480672 24.771087
Se 15.482109 -18.576998 21.674761
Se 12.385783 -15.480672 27.867413
Se 12.385783 -12.384346 -30.962781
Se 15.482109 -9.288020 -30.962781
Se 12.385783 -12.384346 -24.770129
Se 12.385783 -9.288020 -27.866455
Se 15.482109 -9.288020 -24.770129
Se 15.482109 -12.384346 -27.866455
Se 12.385783 -12.384346 -18.577477
Se 12.385783 -9.288020 -21.673803
Se 15.482109 -9.288020 -18.577477
Se 15.482109 -12.384346 -21.673803
Se 12.385783 -12.384346 -12.384825
Se 12.385783 -9.288020 -15.481151
Se 15.482109 -9.288020 -12.384825
Se 15.482109 -12.384346 -15.481151
Se 12.385783 -12.384346 -6.192173
Se 12.385783 -9.288020 -9.288499
Se 15.482109 -9.288020 -6.192173
Se 15.482109 -12.384346 -9.288499
Se 12.385783 -12.384346 0.000479
Se 12.385783 -9.288020 -3.095847
Se 15.482109 -9.288020 0.000479
Se 15.482109 -12.384346 -3.095847
Se 12.385783 -12.384346 6.193131
Se 12.385783 -9.288020 3.096805
Se 15.482109 -9.288020 6.193131
Se 15.482109 -12.384346 3.096805
Se 12.385783 -12.384346 12.385783
Se 12.385783 -9.288020 9.289457
Se 15.482109 -9.288020 12.385783
Se 15.482109 -12.384346 9.289457
Se 12.385783 -12.384346 18.578435
Se 12.385783 -9.288020 15.482109
Se 15.482109 -9.288020 18.578435
Se 15.482109 -12.384346 15.482109
Se 12.385783 -12.384346 24.771087
Se 12.385783 -9.288020 21.674761
Se 15.482109 -9.288020 24.771087
Se 15.482109 -12.384346 21.674761
Se 12.385783 -12.384346 30.963739
Se 12.385783 -9.288020 27.867413
Se 15.482109 -9.288020 30.963739
Se 15.482109 -12.384346 27.867413
Se 12.385783 -6.191694 -30.962781
Se 15.482109 -3.095368 -30.962781
Se 12.385783 -6.191694 -24.770129
Se 12.385783 -3.095368 -27.866455
Se 15.482109 -3.095368 -24.770129
Se 15.482109 -6.191694 -27.866455
Se 12.385783 -6.191694 -18.577477
Se 12.385783 -3.095368 -21.673803
Se 15.482109 -3.095368 -18.577477
Se 15.482109 -6.191694 -21.673803
Se 12.385783 -6.191694 -12.384825
Se 12.385783 -3.095368 -15.481151
Se 15.482109 -3.095368 -12.384825
Se 15.482109 -6.191694 -15.481151
Se 12.385783 -6.191694 -6.192173
Se 12.385783 -3.095368 -9.288499
Se 15.482109 -3.095368 -6.192173
Se 15.482109 -6.191694 -9.288499
Se 12.385783 -6.191694 0.000479
Se 12.385783 -3.095368 -3.095847
Se 15.482109 -3.095368 0.000479
Se 15.482109 -6.191694 -3.095847
Se 12.385783 -6.191694 6.193131
Se 12.385783 -3.095368 3.096805
Se 15.482109 -3.095368 6.193131
Se 15.482109 -6.191694 3.096805
Se 12.385783 -6.191694 12.385783
Se 12.385783 -3.095368 9.289457
Se 15.482109 -3.095368 12.385783
Se 15.482109 -6.191694 9.289457
Se 12.385783 -6.191694 18.578435
Se 12.385783 -3.095368 15.482109
Se 15.482109 -3.095368 18.578435
Se 15.482109 -6.191694 15.482109
Se 12.385783 -6.191694 24.771087
Se 12.385783 -3.095368 21.674761
Se 15.482109 -3.095368 24.771087
Se 15.482109 -6.191694 21.674761
Se 12.385783 -6.191694 30.963739
Se 12.385783 -3.095368 27.867413
Se 15.482109 -3.095368 30.963739
Se 15.482109 -6.191694 27.867413
Se 12.385783 0.000958 -30.962781
Se 15.482109 3.097284 -30.962781
Se 12.385783 0.000958 -24.770129
Se 12.385783 3.097284 -27.866455
Se 15.482109 3.097284 -24.770129
Se 15.482109 0.000958 -27.866455
Se 12.385783 0.000958 -18.577477
Se 12.385783 3.097284 -21.673803
Se 15.482109 3.097284 -18.577477
Se 15.482109 0.000958 -21.673803
Se 12.385783 0.000958 -12.384825
Se 12.385783 3.097284 -15.481151
Se 15.482109 3.097284 -12.384825
Se 15.482109 0.000958 -15.481151
Se 12.385783 0.000958 -6.192173
Se 12.385783 3.097284 -9.288499
Se 15.482109 3.097284 -6.192173
Se 15.482109 0.000958 -9.288499
Se 12.385783 0.000958 0.000479
Se 12.385783 3.097284 -3.095847
Se 15.482109 3.097284 0.000479
Se 15.482109 0.000958 -3.095847
Se 12.385783 0.000958 6.193131
Se 12.385783 3.097284 3.096805
Se 15.482109 3.097284 6.193131
Se 15.482109 0.000958 3.096805
Se 12.385783 0.000958 12.385783
Se 12.385783 3.097284 9.289457
Se 15.482109 3.097284 12.385783
Se 15.482109 0.000958 9.289457
Se 12.385783 0.000958 18.578435
Se 12.385783 3.097284 15.482109
Se 15.482109 3.097284 18.578435
Se 15.482109 0.000958 15.482109
Se 12.385783 0.000958 24.771087
Se 12.385783 3.097284 21.674761
Se 15.482109 3.097284 24.771087
Se 15.482109 0.000958 21.674761
Se 12.385783 0.000958 30.963739
Se 12.385783 3.097284 27.867413
Se 15.482109 3.097284 30.963739
Se 15.482109 0.000958 27.867413
Se 12.385783 6.193610 -30.962781
Se 15.482109 9.289936 -30.962781
Se 12.385783 6.193610 -24.770129
Se 12.385783 9.289936 -27.866455
Se 15.482109 9.289936 -24.770129
Se 15.482109 6.193610 -27.866455
Se 12.385783 6.193610 -18.577477
Se 12.385783 9.289936 -21.673803
Se 15.482109 9.289936 -18.577477
Se 15.482109 6.193610 -21.673803
Se 12.385783 6.193610 -12.384825
Se 12.385783 9.289936 -15.481151
Se 15.482109 9.289936 -12.384825
Se 15.482109 6.193610 -15.481151
Se 12.385783 6.193610 -6.192173
Se 12.385783 9.289936 -9.288499
Se 15.482109 9.289936 -6.192173
Se 15.482109 6.193610 -9.288499
Se 12.385783 6.193610 0.000479
Se 12.385783 9.289936 -3.095847
Se 15.482109 9.289936 0.000479
Se 15.482109 6.193610 -3.095847
Se 12.385783 6.193610 6.193131
Se 12.385783 9.289936 3.096805
Se 15.482109 9.289936 6.193131
Se 15.482109 6.193610 3.096805
Se 12.385783 6.193610 12.385783
Se 12.385783 9.289936 9.289457
Se 15.482109 9.289936 12.385783
Se 15.482109 6.193610 9.289457
Se 12.385783 6.193610 18.578435
Se 12.385783 9.289936 15.482109
Se 15.482109 9.289936 18.578435
Se 15.482109 6.193610 15.482109
Se 12.385783 6.193610 24.771087
Se 12.385783 9.289936 21.674761
Se 15.482109 9.289936 24.771087
Se 15.482109 6.193610 21.674761
Se 12.385783 6.193610 30.963739
Se 12.385783 9.289936 27.867413
Se 15.482109 9.289936 30.963739
Se 15.482109 6.193610 27.867413
Se 12.385783 12.386263 -30.962781
Se 12.385783 12.386263 -24.770129
Se 12.385783 15.482589 -27.866455
Se 15.482109 15.482589 -24.770129
Se 15.482109 12.386263 -27.866455
Se 12.385783 12.386263 -18.577477
Se 12.385783 15.482589 -21.673803
Se 15.482109 15.482589 -18.577477
Se 15.482109 12.386263 -21.673803
Se 12.385783 12.386263 -12.384825
Se 12.385783 15.482589 -15.481151
Se 15.482109 15.482589 -12.384825
Se 15.482109 12.386263 -15.481151
Se 12.385783 12.386263 -6.192173
Se 12.385783 15.482589 -9.288499
Se 15.482109 15.482589 -6.192173
Se 15.482109 12.386263 -9.288499
Se 12.385783 12.386263 0.000479
Se 12.385783 15.482589 -3.095847
Se 15.482109 15.482589 0.000479
Se 15.482109 12.386263 -3.095847
Se 12.385783 12.386263 6.193131
Se 12.385783 15.482589 3.096805
Se 15.482109 15.482589 6.193131
Se 15.482109 12.386263 3.096805
Se 12.385783 12.386263 12.385783
Se 12.385783 15.482589 9.289457
Se 15.482109 15.482589 12.385783
Se 15.482109 12.386263 9.289457
Se 12.385783 12.386263 18.578435
Se 12.385783 15.482589 15.482109
Se 15.482109 15.482589 18.578435
Se 15.482109 12.386263 15.482109
Se 12.385783 12.386263 24.771087
Se 12.385783 15.482589 21.674761
Se 15.482109 15.482589 24.771087
Se 15.482109 12.386263 21.674761
Se 12.385783 12.386263 30.963739
Se 12.385783 15.482589 27.867413
Se 15.482109 12.386263 27.867413
Se 12.385783 18.578915 -24.770129
Se 12.385783 18.578915 -18.577477
Se 12.385783 21.675241 -21.673803
Se 15.482109 21.675241 -18.577477
Se 15.482109 18.578915 -21.673803
Se 12.385783 18.578915 -12.384825
Se 12.385783 21.675241 -15.481151
Se 15.482109 21.675241 -12.384825
Se 15.482109 18.578915 -15.481151
Se 12.385783 18.578915 -6.192173
Se 12.385783 21.675241 -9.288499
Se 15.482109 21.675241 -6.192173
Se 15.482109 18.578915 -9.288499
Se 12.385783 18.578915 0.000479
Se 12.385783 21.675241 -3.095847
Se 15.482109 21.675241 0.000479
Se 15.482109 18.578915 -3.095847
Se 12.385783 18.578915 6.193131
Se 12.385783 21.675241 3.096805
Se 15.482109 21.675241 6.193131
Se 15.482109 18.578915 3.096805
Se 12.385783 18.578915 12.385783
Se 12.385783 21.675241 9.289457
Se 15.482109 21.675241 12.385783
Se 15.482109 18.578915 9.289457
Se 12.385783 18.578915 18.578435
Se 12.385783 21.675241 15.482109
Se 15.482109 21.675241 18.578435
Se 15.482109 18.578915 15.482109
Se 12.385783 18.578915 24.771087
Se 12.385783 21.675241 21.674761
Se 15.482109 18.578915 21.674761
Se 12.385783 24.771567 -18.577477
Se 12.385783 24.771567 -12.384825
Se 12.385783 27.867893 -15.481151
Se 15.482109 27.867893 -12.384825
Se 15.482109 24.771567 -15.481151
Se 12.385783 24.771567 -6.192173
Se 12.385783 27.867893 -9.288499
Se 15.482109 27.867893 -6.192173
Se 15.482109 24.771567 -9.288499
Se 12.385783 24.771567 0.000479
Se 12.385783 27.867893 -3.095847
Se 15.482109 27.867893 0.000479
Se 15.482109 24.771567 -3.095847
Se 12.385783 24.771567 6.193131
Se 12.385783 27.867893 3.096805
Se 15.482109 27.867893 6.193131
Se 15.482109 24.771567 3.096805
Se 12.385783 24.771567 12.385783
Se 12.385783 27.867893 9.289457
Se 15.482109 27.867893 12.385783
Se 15.482109 24.771567 9.289457
Se 12.385783 24.771567 18.578435
Se 12.385783 27.867893 15.482109
Se 15.482109 24.771567 15.482109
Se 12.385783 30.964219 -12.384825
Se 12.385783 30.964219 -6.192173
Se 15.482109 30.964219 -9.288499
Se 12.385783 30.964219 0.000479
Se 15.482109 30.964219 -3.095847
Se 12.385783 30.964219 6.193131
Se 15.482109 30.964219 3.096805
Se 12.385783 30.964219 12.385783
Se 15.482109 30.964219 9.289457
Se 18.578435 -27.865976 -9.288499
Se 18.578435 -27.865976 -3.095847
Se 18.578435 -27.865976 3.096805
Se 18.578435 -27.865976 9.289457
Se 18.578435 -24.769650 -12.384825
Se 18.578435 -21.673324 -15.481151
Se 21.674761 -21.673324 -12.384825
Se 18.578435 -24.769650 -6.192173
Se 18.578435 -21.673324 -9.288499
Se 21.674761 -21.673324 -6.192173
Se 21.674761 -24.769650 -9.288499
Se 18.578435 -24.769650 0.000479
Se 18.578435 -21.673324 -3.095847
Se 21.674761 -21.673324 0.000479
Se 21.674761 -24.769650 -3.095847
Se 18.578435 -24.769650 6.193131
Se 18.578435 -21.673324 3.096805
Se 21.674761 -21.673324 6.193131
Se 21.674761 -24.769650 3.096805
Se 18.578435 -24.769650 12.385783
Se 18.578435 -21.673324 9.289457
Se 21.674761 -21.673324 12.385783
Se 21.674761 -24.769650 9.289457
Se 18.578435 -21.673324 15.482109
Se 18.578435 -18.576998 -18.577477
Se 18.578435 -15.480672 -21.673803
Se 21.674761 -15.480672 -18.577477
Se 18.578435 -18.576998 -12.384825
Se 18.578435 -15.480672 -15.481151
Se 21.674761 -15.480672 -12.384825
Se 21.674761 -18.576998 -15.481151
Se 18.578435 -18.576998 -6.192173
Se 18.578435 -15.480672 -9.288499
Se 21.674761 -15.480672 -6.192173
Se 21.674761 -18.576998 -9.288499
Se 18.578435 -18.576998 0.000479
Se 18.578435 -15.480672 -3.095847
Se 21.674761 -15.480672 0.000479
Se 21.674761 -18.576998 -3.095847
Se 18.578435 -18.576998 6.193131
Se 18.578435 -15.480672 3.096805
Se 21.674761 -15.480672 6.193131
Se 21.674761 -18.576998 3.096805
Se 18.578435 -18.576998 12.385783
Se 18.578435 -15.480672 9.289457
Se 21.674761 -15.480672 12.385783
Se 21.674761 -18.576998 9.289457
Se 18.578435 -18.576998 18.578435
Se 18.578435 -15.480672 15.482109
Se 21.674761 -15.480672 18.578435
Se 21.674761 -18.576998 15.482109
Se 18.578435 -15.480672 21.674761
Se 18.578435 -12.384346 -24.770129
Se 18.578435 -9.288020 -27.866455
Se 21.674761 -9.288020 -24.770129
Se 18.578435 -12.384346 -18.577477
Se 18.578435 -9.288020 -21.673803
Se 21.674761 -9.288020 -18.577477
Se 21.674761 -12.384346 -21.673803
Se 18.578435 -12.384346 -12.384825
Se 18.578435 -9.288020 -15.481151
Se 21.674761 -9.288020 -12.384825
Se 21.674761 -12.384346 -15.481151
Se 18.578435 -12.384346 -6.192173
Se 18.578435 -9.288020 -9.288499
Se 21.674761 -9.288020 -6.192173
Se 21.674761 -12.384346 -9.288499
Se 18.578435 -12.384346 0.000479
Se 18.578435 -9.288020 -3.095847
Se 21.674761 -9.288020 0.000479
Se 21.674761 -12.384346 -3.095847
Se 18.578435 -12.384346 6.193131
Se 18.578435 -9.288020 3.096805
Se 21.674761 -9.288020 6.193131
Se 21.674761 -12.384346 3.096805
Se 18.578435 -12.384346 12.385783
Se 18.578435 -9.288020 9.289457
Se 21.674761 -9.288020 12.385783
Se 21.674761 -12.384346 9.289457
Se 18.578435 -12.384346 18.578435
Se 18.578435 -9.288020 15.482109
Se 21.674761 -9.288020 18.578435
Se 21.674761 -12.384346 15.482109
Se 18.578435 -12.384346 24.771087
Se 18.578435 -9.288020 21.674761
Se 21.674761 -9.288020 24.771087
Se 21.674761 -12.384346 21.674761
Se 18.578435 -9.288020 27.867413
Se 18.578435 -6.191694 -24.770129
Se 18.578435 -3.095368 -27.866455
Se 21.674761 -3.095368 -24.770129
Se 18.578435 -6.191694 -18.577477
Se 18.578435 -3.095368 -21.673803
Se 21.674761 -3.095368 -18.577477
Se 21.674761 -6.191694 -21.673803
Se 18.578435 -6.191694 -12.384825
Se 18.578435 -3.095368 -15.481151
Se 21.674761 -3.095368 -12.384825
Se 21.674761 -6.191694 -15.481151
Se 18.578435 -6.191694 -6.192173
Se 18.578435 -3.095368 -9.288499
Se 21.674761 -3.095368 -6.192173
Se 21.674761 -6.191694 -9.288499
Se 18.578435 -6.191694 0.000479
Se 18.578435 -3.095368 -3.095847
Se 21.674761 -3.095368 0.000479
Se 21.674761 -6.191694 -3.095847
Se 18.578435 -6.191694 6.193131
Se 18.578435 -3.095368 3.096805
Se 21.674761 -3.095368 6.193131
Se 21.674761 -6.191694 3.096805
Se 18.578435 -6.191694 12.385783
Se 18.578435 -3.095368 9.289457
Se 21.674761 -3.095368 12.385783
Se 21.674761 -6.191694 9.289457
Se 18.578435 -6.191694 18.578435
Se 18.578435 -3.095368 15.482109
Se 21.674761 -3.095368 18.578435
Se 21.674761 -6.191694 15.482109
Se 18.578435 -6.191694 24.771087
Se 18.578435 -3.095368 21.674761
Se 21.674761 -3.095368 24.771087
Se 21.674761 -6.191694 21.674761
Se 18.578435 -3.095368 27.867413
Se 18.578435 0.000958 -24.770129
Se 18.578435 3.097284 -27.866455
Se 21.674761 3.097284 -24.770129
Se 18.578435 0.000958 -18.577477
Se 18.578435 3.097284 -21.673803
Se 21.674761 3.097284 -18.577477
Se 21.674761 0.000958 -21.673803
Se 18.578435 0.000958 -12.384825
Se 18.578435 3.097284 -15.481151
Se 21.674761 3.097284 -12.384825
Se 21.674761 0.000958 -15.481151
Se 18.578435 0.000958 -6.192173
Se 18.578435 3.097284 -9.288499
Se 21.674761 3.097284 -6.192173
Se 21.674761 0.000958 -9.288499
Se 18.578435 0.000958 0.000479
Se 18.578435 3.097284 -3.095847
Se 21.674761 3.097284 0.000479
Se 21.674761 0.000958 -3.095847
Se 18.578435 0.000958 6.193131
Se 18.578435 3.097284 3.096805
Se 21.674761 3.097284 6.193131
Se 21.674761 0.000958 3.096805
Se 18.578435 0.000958 12.385783
Se 18.578435 3.097284 9.289457
Se 21.674761 3.097284 12.385783
Se 21.674761 0.000958 9.289457
Se 18.578435 0.000958 18.578435
Se 18.578435 3.097284 15.482109
Se 21.674761 3.097284 18.578435
Se 21.674761 0.000958 15.482109
Se 18.578435 0.000958 24.771087
Se 18.578435 3.097284 21.674761
Se 21.674761 3.097284 24.771087
Se 21.674761 0.000958 21.674761
Se 18.578435 3.097284 27.867413
Se 18.578435 6.193610 -24.770129
Se 18.578435 9.289936 -27.866455
Se 21.674761 9.289936 -24.770129
Se 18.578435 6.193610 -18.577477
Se 18.578435 9.289936 -21.673803
Se 21.674761 9.289936 -18.577477
Se 21.674761 6.193610 -21.673803
Se 18.578435 6.193610 -12.384825
Se 18.578435 9.289936 -15.481151
Se 21.674761 9.289936 -12.384825
Se 21.674761 6.193610 -15.481151
Se 18.578435 6.193610 -6.192173
Se 18.578435 9.289936 -9.288499
Se 21.674761 9.289936 -6.192173
Se 21.674761 6.193610 -9.288499
Se 18.578435 6.193610 0.000479
Se 18.578435 9.289936 -3.095847
Se 21.674761 9.289936 0.000479
Se 21.674761 6.193610 -3.095847
Se 18.578435 6.193610 6.193131
Se 18.578435 9.289936 3.096805
Se 21.674761 9.289936 6.193131
Se 21.674761 6.193610 3.096805
Se 18.578435 6.193610 12.385783
Se 18.578435 9.289936 9.289457
Se 21.674761 9.289936 12.385783
Se 21.674761 6.193610 9.289457
Se 18.578435 6.193610 18.578435
Se 18.578435 9.289936 15.482109
Se 21.674761 9.289936 18.578435
Se 21.674761 6.193610 15.482109
Se 18.578435 6.193610 24.771087
Se 18.578435 9.289936 21.674761
Se 21.674761 9.289936 24.771087
Se 21.674761 6.193610 21.674761
Se 18.578435 9.289936 27.867413
Se 18.578435 12.386263 -24.770129
Se 18.578435 12.386263 -18.577477
Se 18.578435 15.482589 -21.673803
Se 21.674761 15.482589 -18.577477
Se 21.674761 12.386263 -21.673803
Se 18.578435 12.386263 -12.384825
Se 18.578435 15.482589 -15.481151
Se 21.674761 15.482589 -12.384825
Se 21.674761 12.386263 -15.481151
Se 18.578435 12.386263 -6.192173
Se 18.578435 15.482589 -9.288499
Se 21.674761 15.482589 -6.192173
Se 21.674761 12.386263 -9.288499
Se 18.578435 12.386263 0.000479
Se 18.578435 15.482589 -3.095847
Se 21.674761 15.482589 0.000479
Se 21.674761 12.386263 -3.095847
Se 18.578435 12.386263 6.193131
Se 18.578435 15.482589 3.096805
Se 21.674761 15.482589 6.193131
Se 21.674761 12.386263 3.096805
Se 18.578435 12.386263 12.385783
Se 18.578435 15.482589 9.289457
Se 21.674761 15.482589 12.385783
Se 21.674761 12.386263 9.289457
Se 18.578435 12.386263 18.578435
Se 18.578435 15.482589 15.482109
Se 21.674761 15.482589 18.578435
Se 21.674761 12.386263 15.482109
Se 18.578435 12.386263 24.771087
Se 18.578435 15.482589 21.674761
Se 21.674761 12.386263 21.674761
Se 18.578435 18.578915 -18.577477
Se 18.578435 18.578915 -12.384825
Se 18.578435 21.675241 -15.481151
Se 21.674761 21.675241 -12.384825
Se 21.674761 18.578915 -15.481151
Se 18.578435 18.578915 -6.192173
Se 18.578435 21.675241 -9.288499
Se 21.674761 21.675241 -6.192173
Se 21.674761 18.578915 -9.288499
Se 18.578435 18.578915 0.000479
Se 18.578435 21.675241 -3.095847
Se 21.674761 21.675241 0.000479
Se 21.674761 18.578915 -3.095847
Se 18.578435 18.578915 6.193131
Se 18.578435 21.675241 3.096805
Se 21.674761 21.675241 6.193131
Se 21.674761 18.578915 3.096805
Se 18.578435 18.578915 12.385783
Se 18.578435 21.675241 9.289457
Se 21.674761 21.675241 12.385783
Se 21.674761 18.578915 9.289457
Se 18.578435 18.578915 18.578435
Se 18.578435 21.675241 15.482109
Se 21.674761 18.578915 15.482109
Se 18.578435 24.771567 -12.384825
Se 18.578435 24.771567 -6.192173
Se 18.578435 27.867893 -9.288499
Se 21.674761 24.771567 -9.288499
Se 18.578435 24.771567 0.000479
Se 18.578435 27.867893 -3.095847
Se 21.674761 24.771567 -3.095847
Se 18.578435 24.771567 6.193131
Se 18.578435 27.867893 3.096805
Se 21.674761 24.771567 3.096805
Se 18.578435 24.771567 12.385783
Se 18.578435 27.867893 9.289457
Se 21.674761 24.771567 9.289457
Se 24.771087 -21.673324 -9.288499
Se 24.771087 -21.673324 -3.095847
Se 24.771087 -21.673324 3.096805
Se 24.771087 -21.673324 9.289457
Se 24.771087 -18.576998 -12.384825
Se 24.771087 -15.480672 -15.481151
Se 27.867413 -15.480672 -12.384825
Se 24.771087 -18.576998 -6.192173
Se 24.771087 -15.480672 -9.288499
Se 27.867413 -15.480672 -6.192173
Se 27.867413 -18.576998 -9.288499
Se 24.771087 -18.576998 0.000479
Se 24.771087 -15.480672 -3.095847
Se 27.867413 -15.480672 0.000479
Se 27.867413 -18.576998 -3.095847
Se 24.771087 -18.576998 6.193131
Se 24.771087 -15.480672 3.096805
Se 27.867413 -15.480672 6.193131
Se 27.867413 -18.576998 3.096805
Se 24.771087 -18.576998 12.385783
Se 24.771087 -15.480672 9.289457
Se 27.867413 -15.480672 12.385783
Se 27.867413 -18.576998 9.289457
Se 24.771087 -15.480672 15.482109
Se 24.771087 -12.384346 -18.577477
Se 24.771087 -9.288020 -21.673803
Se 27.867413 -9.288020 -18.577477
Se 24.771087 -12.384346 -12.384825
Se 24.771087 -9.288020 -15.481151
Se 27.867413 -9.288020 -12.384825
Se 27.867413 -12.384346 -15.481151
Se 24.771087 -12.384346 -6.192173
Se 24.771087 -9.288020 -9.288499
Se 27.867413 -9.288020 -6.192173
Se 27.867413 -12.384346 -9.288499
Se 24.771087 -12.384346 0.000479
Se 24.771087 -9.288020 -3.095847
Se 27.867413 -9.288020 0.000479
Se 27.867413 -12.384346 -3.095847
Se 24.771087 -12.384346 6.193131
Se 24.771087 -9.288020 3.096805
Se 27.867413 -9.288020 6.193131
Se 27.867413 -12.384346 3.096805
Se 24.771087 -12.384346 12.385783
Se 24.771087 -9.288020 9.289457
Se 27.867413 -9.288020 12.385783
Se 27.867413 -12.384346 9.289457
Se 24.771087 -12.384346 18.578435
Se 24.771087 -9.288020 15.482109
Se 27.867413 -9.288020 18.578435
Se 27.867413 -12.384346 15.482109
Se 24.771087 -9.288020 21.674761
Se 24.771087 -6.191694 -18.577477
Se 24.771087 -3.095368 -21.673803
Se 27.867413 -3.095368 -18.577477
Se 24.771087 -6.191694 -12.384825
Se 24.771087 -3.095368 -15.481151
Se 27.867413 -3.095368 -12.384825
Se 27.867413 -6.191694 -15.481151
Se 24.771087 -6.191694 -6.192173
Se 24.771087 -3.095368 -9.288499
Se 27.867413 -3.095368 -6.192173
Se 27.867413 -6.191694 -9.288499
Se 24.771087 -6.191694 0.000479
Se 24.771087 -3.095368 -3.095847
Se 27.867413 -3.095368 0.000479
Se 27.867413 -6.191694 -3.095847
Se 24.771087 -6.191694 6.193131
Se 24.771087 -3.095368 3.096805
Se 27.867413 -3.095368 6.193131
Se 27.867413 -6.191694 3.096805
Se 24.771087 -6.191694 12.385783
Se 24.771087 -3.095368 9.289457
Se 27.867413 -3.095368 12.385783
Se 27.867413 -6.191694 9.289457
Se 24.771087 -6.191694 18.578435
Se 24.771087 -3.095368 15.482109
Se 27.867413 -3.095368 18.578435
Se 27.867413 -6.191694 15.482109
Se 24.771087 -3.095368 21.674761
Se 24.771087 0.000958 -18.577477
Se 24.771087 3.097284 -21.673803
Se 27.867413 3.097284 -18.577477
Se 24.771087 0.000958 -12.384825
Se 24.771087 3.097284 -15.481151
Se 27.867413 3.097284 -12.384825
Se 27.867413 0.000958 -15.481151
Se 24.771087 0.000958 -6.192173
Se 24.771087 3.097284 -9.288499
Se 27.867413 3.097284 -6.192173
Se 27.867413 0.000958 -9.288499
Se 24.771087 0.000958 0.000479
Se 24.771087 3.097284 -3.095847
Se 27.867413 3.097284 0.000479
Se 27.867413 0.000958 -3.095847
Se 24.771087 0.000958 6.193131
Se 24.771087 3.097284 3.096805
Se 27.867413 3.097284 6.193131
Se 27.867413 0.000958 3.096805
Se 24.771087 0.000958 12.385783
Se 24.771087 3.097284 9.289457
Se 27.867413 3.097284 12.385783
Se 27.867413 0.000958 9.289457
Se 24.771087 0.000958 18.578435
Se 24.771087 3.097284 15.482109
Se 27.867413 3.097284 18.578435
Se 27.867413 0.000958 15.482109
Se 24.771087 3.097284 21.674761
Se 24.771087 6.193610 -18.577477
Se 24.771087 9.289936 -21.673803
Se 27.867413 9.289936 -18.577477
Se 24.771087 6.193610 -12.384825
Se 24.771087 9.289936 -15.481151
Se 27.867413 9.289936 -12.384825
Se 27.867413 6.193610 -15.481151
Se 24.771087 6.193610 -6.192173
Se 24.771087 9.289936 -9.288499
Se 27.867413 9.289936 -6.192173
Se 27.867413 6.193610 -9.288499
Se 24.771087 6.193610 0.000479
Se 24.771087 9.289936 -3.095847
Se 27.867413 9.289936 0.000479
Se 27.867413 6.193610 -3.095847
Se 24.771087 6.193610 6.193131
Se 24.771087 9.289936 3.096805
Se 27.867413 9.289936 6.193131
Se 27.867413 6.193610 3.096805
Se 24.771087 6.193610 12.385783
Se 24.771087 9.289936 9.289457
Se 27.867413 9.289936 12.385783
Se 27.867413 6.193610 9.289457
Se 24.771087 6.193610 18.578435
Se 24.771087 9.289936 15.482109
Se 27.867413 9.289936 18.578435
Se 27.867413 6.193610 15.482109
Se 24.771087 9.289936 21.674761
Se 24.771087 12.386263 -18.577477
Se 24.771087 12.386263 -12.384825
Se 24.771087 15.482589 -15.481151
Se 27.867413 15.482589 -12.384825
Se 27.867413 12.386263 -15.481151
Se 24.771087 12.386263 -6.192173
Se 24.771087 15.482589 -9.288499
Se 27.867413 15.482589 -6.192173
Se 27.867413 12.386263 -9.288499
Se 24.771087 12.386263 0.000479
Se 24.771087 15.482589 -3.095847
Se 27.867413 15.482589 0.000479
Se 27.867413 12.386263 -3.095847
Se 24.771087 12.386263 6.193131
Se 24.771087 15.482589 3.096805
Se 27.867413 15.482589 6.193131
Se 27.867413 12.386263 3.096805
Se 24.771087 12.386263 12.385783
Se 24.771087 15.482589 9.289457
Se 27.867413 15.482589 12.385783
Se 27.867413 12.386263 9.289457
Se 24.771087 12.386263 18.578435
Se 24.771087 15.482589 15.482109
Se 27.867413 12.386263 15.482109
Se 24.771087 18.578915 -12.384825
Se 24.771087 18.578915 -6.192173
Se 24.771087 21.675241 -9.288499
Se 27.867413 18.578915 -9.288499
Se 24.771087 18.578915 0.000479
Se 24.771087 21.675241 -3.095847
Se 27.867413 18.578915 -3.095847
Se 24.771087 18.578915 6.193131
Se 24.771087 21.675241 3.096805
Se 27.867413 18.578915 3.096805
Se 24.771087 18.578915 12.385783
Se 24.771087 21.675241 9.289457
Se 27.867413 18.578915 9.289457
Se 30.963739 -15.480672 -9.288499
Se 30.963739 -15.480672 -3.095847
Se 30.963739 -15.480672 3.096805
Se 30.963739 -15.480672 9.289457
Se 30.963739 -12.384346 -12.384825
Se 30.963739 -9.288020 -15.481151
Se 30.963739 -12.384346 -6.192173
Se 30.963739 -9.288020 -9.288499
Se 30.963739 -12.384346 0.000479
Se 30.963739 -9.288020 -3.095847
Se 30.963739 -12.384346 6.193131
Se 30.963739 -9.288020 3.096805
Se 30.963739 -12.384346 12.385783
Se 30.963739 -9.288020 9.289457
Se 30.963739 -9.288020 15.482109
Se 30.963739 -6.191694 -12.384825
Se 30.963739 -3.095368 -15.481151
Se 30.963739 -6.191694 -6.192173
Se 30.963739 -3.095368 -9.288499
Se 30.963739 -6.191694 0.000479
Se 30.963739 -3.095368 -3.095847
Se 30.963739 -6.191694 6.193131
Se 30.963739 -3.095368 3.096805
Se 30.963739 -6.191694 12.385783
Se 30.963739 -3.095368 9.289457
Se 30.963739 -3.095368 15.482109
Se 30.963739 0.000958 -12.384825
Se 30.963739 3.097284 -15.481151
Se 30.963739 0.000958 -6.192173
Se 30.963739 3.097284 -9.288499
Se 30.963739 0.000958 0.000479
Se 30.963739 3.097284 -3.095847
Se 30.963739 0.000958 6.193131
Se 30.963739 3.097284 3.096805
Se 30.963739 0.000958 12.385783
Se 30.963739 3.097284 9.289457
Se 30.963739 3.097284 15.482109
Se 30.963739 6.193610 -12.384825
Se 30.963739 9.289936 -15.481151
Se 30.963739 6.193610 -6.192173
Se 30.963739 9.289936 -9.288499
Se 30.963739 6.193610 0.000479
Se 30.963739 9.289936 -3.095847
Se 30.963739 6.193610 6.193131
Se 30.963739 9.289936 3.096805
Se 30.963739 6.193610 12.385783
Se 30.963739 9.289936 9.289457
Se 30.963739 9.289936 15.482109
Se 30.963739 12.386263 -12.384825
Se 30.963739 12.386263 -6.192173
Se 30.963739 15.482589 -9.288499
Se 30.963739 12.386263 0.000479
Se 30.963739 15.482589 -3.095847
Se 30.963739 12.386263 6.193131
Se 30.963739 15.482589 3.096805
Se 30.963739 12.386263 12.385783
Se 30.963739 15.482589 9.289457
Cl -34.059107 -9.288020 -12.384825
Cl -34.059107 -9.288020 -6.192173
Cl -34.059107 -12.384346 -9.288499
Cl -34.059107 -9.288020 0.000479
Cl -34.059107 -12.384346 -3.095847
Cl -34.059107 -9.288020 6.193131
Cl -34.059107 -12.384346 3.096805
Cl -34.059107 -9.288020 12.385783
Cl -34.059107 -12.384346 9.289457
Cl -34.059107 -3.095368 -12.384825
Cl -34.059107 -3.095368 -6.192173
Cl -34.059107 -6.191694 -9.288499
Cl -34.059107 -3.095368 0.000479
Cl -34.059107 -6.191694 -3.095847
Cl -34.059107 -3.095368 6.193131
Cl -34.059107 -6.191694 3.096805
Cl -34.059107 -3.095368 12.385783
Cl -34.059107 -6.191694 9.289457
Cl -34.059107 3.097284 -12.384825
Cl -34.059107 3.097284 -6.192173
Cl -34.059107 0.000958 -9.288499
Cl -34.059107 3.097284 0.000479
Cl -34.059107 0.000958 -3.095847
Cl -34.059107 3.097284 6.193131
Cl -34.059107 0.000958 3.096805
Cl -34.059107 3.097284 12.385783
Cl -34.059107 0.000958 9.289457
Cl -34.059107 9.289936 -12.384825
Cl -34.059107 9.289936 -6.192173
Cl -34.059107 6.193610 -9.288499
Cl -34.059107 9.289936 0.000479
Cl -34.059107 6.193610 -3.095847
Cl -34.059107 9.289936 6.193131
Cl -34.059107 6.193610 3.096805
Cl -34.059107 9.289936 12.385783
Cl -34.059107 6.193610 9.289457
Cl -34.059107 12.386263 -9.288499
Cl -34.059107 12.386263 -3.095847
Cl -34.059107 12.386263 3.096805
Cl -34.059107 12.386263 9.289457
Cl -9.288499 -34.058628 -12.384825
Cl -12.384825 -34.058628 -9.288499
Cl -9.288499 -34.058628 -6.192173
Cl -12.384825 -34.058628 -3.095847
Cl -9.288499 -34.058628 0.000479
Cl -12.384825 -34.058628 3.096805
Cl -9.288499 -34.058628 6.193131
Cl -12.384825 -34.058628 9.289457
Cl -9.288499 -34.058628 12.385783
Cl -12.384825 -9.288020 -34.059107
Cl -9.288499 -12.384346 -34.059107
Cl -12.384825 -9.288020 34.060065
Cl -9.288499 -12.384346 34.060065
Cl -12.384825 -3.095368 -34.059107
Cl -9.288499 -6.191694 -34.059107
Cl -12.384825 -3.095368 34.060065
Cl -9.288499 -6.191694 34.060065
Cl -12.384825 3.097284 -34.059107
Cl -9.288499 0.000958 -34.059107
Cl -12.384825 3.097284 34.060065
Cl -9.288499 0.000958 34.060065
Cl -12.384825 9.289936 -34.059107
Cl -9.288499 6.193610 -34.059107
Cl -12.384825 9.289936 34.060065
Cl -9.288499 6.193610 34.060065
Cl -9.288499 12.386263 -34.059107
Cl -9.288499 12.386263 34.060065
Cl -9.288499 34.060545 -12.384825
Cl -12.384825 34.060545 -9.288499
Cl -9.288499 34.060545 -6.192173
Cl -12.384825 34.060545 -3.095847
Cl -9.288499 34.060545 0.000479
Cl -12.384825 34.060545 3.096805
Cl -9.288499 34.060545 6.193131
Cl -12.384825 34.060545 9.289457
Cl -9.288499 34.060545 12.385783
Cl -3.095847 -34.058628 -12.384825
Cl -6.192173 -34.058628 -9.288499
Cl -3.095847 -34.058628 -6.192173
Cl -6.192173 -34.058628 -3.095847
Cl -3.095847 -34.058628 0.000479
Cl -6.192173 -34.058628 3.096805
Cl -3.095847 -34.058628 6.193131
Cl -6.192173 -34.058628 9.289457
Cl -3.095847 -34.058628 12.385783
Cl -6.192173 -9.288020 -34.059107
Cl -3.095847 -12.384346 -34.059107
Cl -6.192173 -9.288020 34.060065
Cl -3.095847 -12.384346 34.060065
Cl -6.192173 -3.095368 -34.059107
Cl -3.095847 -6.191694 -34.059107
Cl -6.192173 -3.095368 34.060065
Cl -3.095847 -6.191694 34.060065
Cl -6.192173 3.097284 -34.059107
Cl -3.095847 0.000958 -34.059107
Cl -6.192173 3.097284 34.060065
Cl -3.095847 0.000958 34.060065
Cl -6.192173 9.289936 -34.059107
Cl -3.095847 6.193610 -34.059107
Cl -6.192173 9.289936 34.060065
Cl -3.095847 6.193610 34.060065
Cl -3.095847 12.386263 -34.059107
Cl -3.095847 12.386263 34.060065
Cl -3.095847 34.060545 -12.384825
Cl -6.192173 34.060545 -9.288499
Cl -3.095847 34.060545 -6.192173
Cl -6.192173 34.060545 -3.095847
Cl -3.095847 34.060545 0.000479
Cl -6.192173 34.060545 3.096805
Cl -3.095847 34.060545 6.193131
Cl -6.192173 34.060545 9.289457
Cl -3.095847 34.060545 12.385783
Cl 3.096805 -34.058628 -12.384825
Cl 0.000479 -34.058628 -9.288499
Cl 3.096805 -34.058628 -6.192173
Cl 0.000479 -34.058628 -3.095847
Cl 3.096805 -34.058628 0.000479
Cl 0.000479 -34.058628 3.096805
Cl 3.096805 -34.058628 6.193131
Cl 0.000479 -34.058628 9.289457
Cl 3.096805 -34.058628 12.385783
Cl 0.000479 -9.288020 -34.059107
Cl 3.096805 -12.384346 -34.059107
Cl 0.000479 -9.288020 34.060065
Cl 3.096805 -12.384346 34.060065
Cl 0.000479 -3.095368 -34.059107
Cl 3.096805 -6.191694 -34.059107
Cl 0.000479 -3.095368 34.060065
Cl 3.096805 -6.191694 34.060065
Cl 0.000479 3.097284 -34.059107
Cl 3.096805 0.000958 -34.059107
Cl 0.000479 3.097284 34.060065
Cl 3.096805 0.000958 34.060065
Cl 0.000479 9.289936 -34.059107
Cl 3.096805 6.193610 -34.059107
Cl 0.000479 9.289936 34.060065
Cl 3.096805 6.193610 34.060065
Cl 3.096805 12.386263 -34.059107
Cl 3.096805 12.386263 34.060065
Cl 3.096805 34.060545 -12.384825
Cl 0.000479 34.060545 -9.288499
Cl 3.096805 34.060545 -6.192173
Cl 0.000479 34.060545 -3.095847
Cl 3.096805 34.060545 0.000479
Cl 0.000479 34.060545 3.096805
Cl 3.096805 34.060545 6.193131
Cl 0.000479 34.060545 9.289457
Cl 3.096805 34.060545 12.385783
Cl 9.289457 -34.058628 -12.384825
Cl 6.193131 -34.058628 -9.288499
Cl 9.289457 -34.058628 -6.192173
Cl 6.193131 -34.058628 -3.095847
Cl 9.289457 -34.058628 0.000479
Cl 6.193131 -34.058628 3.096805
Cl 9.289457 -34.058628 6.193131
Cl 6.193131 -34.058628 9.289457
Cl 9.289457 -34.058628 12.385783
Cl 6.193131 -9.288020 -34.059107
Cl 9.289457 -12.384346 -34.059107
Cl 6.193131 -9.288020 34.060065
Cl 9.289457 -12.384346 34.060065
Cl 6.193131 -3.095368 -34.059107
Cl 9.289457 -6.191694 -34.059107
Cl 6.193131 -3.095368 34.060065
Cl 9.289457 -6.191694 34.060065
Cl 6.193131 3.097284 -34.059107
Cl 9.289457 0.000958 -34.059107
Cl 6.193131 3.097284 34.060065
Cl 9.289457 0.000958 34.060065
Cl 6.193131 9.289936 -34.059107
Cl 9.289457 6.193610 -34.059107
Cl 6.193131 9.289936 34.060065
Cl 9.289457 6.193610 34.060065
Cl 9.289457 12.386263 -34.059107
Cl 9.289457 12.386263 34.060065
Cl 9.289457 34.060545 -12.384825
Cl 6.193131 34.060545 -9.288499
Cl 9.289457 34.060545 -6.192173
Cl 6.193131 34.060545 -3.095847
Cl 9.289457 34.060545 0.000479
Cl 6.193131 34.060545 3.096805
Cl 9.289457 34.060545 6.193131
Cl 6.193131 34.060545 9.289457
Cl 9.289457 34.060545 12.385783
Cl 12.385783 -34.058628 -9.288499
Cl 12.385783 -34.058628 -3.095847
Cl 12.385783 -34.058628 3.096805
Cl 12.385783 -34.058628 9.289457
Cl 12.385783 -9.288020 -34.059107
Cl 12.385783 -9.288020 34.060065
Cl 12.385783 -3.095368 -34.059107
Cl 12.385783 -3.095368 34.060065
Cl 12.385783 3.097284 -34.059107
Cl 12.385783 3.097284 34.060065
Cl 12.385783 9.289936 -34.059107
Cl 12.385783 9.289936 34.060065
Cl 12.385783 34.060545 -9.288499
Cl 12.385783 34.060545 -3.095847
Cl 12.385783 34.060545 3.096805
Cl 12.385783 34.060545 9.289457
Cl 34.060065 -9.288020 -12.384825
Cl 34.060065 -9.288020 -6.192173
Cl 34.060065 -12.384346 -9.288499
Cl 34.060065 -9.288020 0.000479
Cl 34.060065 -12.384346 -3.095847
Cl 34.060065 -9.288020 6.193131
Cl 34.060065 -12.384346 3.096805
Cl 34.060065 -9.288020 12.385783
Cl 34.060065 -12.384346 9.289457
Cl 34.060065 -3.095368 -12.384825
Cl 34.060065 -3.095368 -6.192173
Cl 34.060065 -6.191694 -9.288499
Cl 34.060065 -3.095368 0.000479
Cl 34.060065 -6.191694 -3.095847
Cl 34.060065 -3.095368 6.193131
Cl 34.060065 -6.191694 3.096805
Cl 34.060065 -3.095368 12.385783
Cl 34.060065 -6.191694 9.289457
Cl 34.060065 3.097284 -12.384825
Cl 34.060065 3.097284 -6.192173
Cl 34.060065 0.000958 -9.288499
Cl 34.060065 3.097284 0.000479
Cl 34.060065 0.000958 -3.095847
Cl 34.060065 3.097284 6.193131
Cl 34.060065 0.000958 3.096805
Cl 34.060065 3.097284 12.385783
Cl 34.060065 0.000958 9.289457
Cl 34.060065 9.289936 -12.384825
Cl 34.060065 9.289936 -6.192173
Cl 34.060065 6.193610 -9.288499
Cl 34.060065 9.289936 0.000479
Cl 34.060065 6.193610 -3.095847
Cl 34.060065 9.289936 6.193131
Cl 34.060065 6.193610 3.096805
Cl 34.060065 9.289936 12.385783
Cl 34.060065 6.193610 9.289457
Cl 34.060065 12.386263 -9.288499
Cl 34.060065 12.386263 -3.095847
Cl 34.060065 12.386263 3.096805
Cl 34.060065 12.386263 9.289457
Cl -21.673803 -18.576998 -18.577477
Cl -21.673803 15.482589 21.674761
Cl 15.482109 -21.673324 21.674761
Cl 15.482109 21.675241 -21.673803
Cl -15.481151 30.964219 12.385783
Cl 30.963739 -15.480672 12.385783
Cl 30.963739 12.386263 -15.481151
Cl -12.384825 -30.962302 -15.481151
Cl -12.384825 -15.480672 -30.962781
Cl -12.384825 15.482589 30.963739
