96
CdSe-Cd-Cd42Se30Cl24-reconstructed
Cd -8.692171 0.130688 -1.369630
Cd -2.173043 -6.142346 -4.914550
Cd -2.173043 -6.142346 2.175290
Cd -0.000000 -7.396953 -1.369630
Cd -0.000000 -7.396953 5.720210
Cd -4.346085 -2.378526 -4.914550
Cd -4.346085 -2.378526 2.175290
Cd -2.173043 -3.633132 -1.369630
Cd -2.173043 -3.633132 5.720210
Cd -6.519128 1.385295 -4.914550
Cd -6.519128 1.385295 2.175290
Cd -4.346085 0.130688 -1.369630
Cd -4.346085 0.130688 5.720210
Cd -6.519128 3.894508 -1.369630
Cd 2.173043 -6.142346 -4.914550
Cd 2.173043 -6.142346 2.175290
Cd -0.000000 -2.378526 2.175290
Cd 2.173043 -3.633132 -1.369630
Cd 2.173043 -3.633132 5.720210
Cd -2.173043 1.385295 -4.914550
Cd -2.173043 1.385295 2.175290
Cd -0.000000 0.130688 -1.369630
Cd -4.346085 5.149115 -4.914550
Cd -4.346085 5.149115 2.175290
Cd -2.173043 3.894508 -1.369630
Cd -2.173043 3.894508 5.720210
Cd 4.346085 -2.378526 -4.914550
Cd 4.346085 -2.378526 2.175290
Cd 2.173043 1.385295 -4.914550
Cd 2.173043 1.385295 2.175290
Cd 4.346085 0.130688 -1.369630
Cd 4.346085 0.130688 5.720210
Cd -0.000000 5.149115 -4.914550
Cd -0.000000 5.149115 2.175290
Cd 2.173043 3.894508 -1.369630
Cd 2.173043 3.894508 5.720210
Cd 6.519128 1.385295 -4.914550
Cd 6.519128 1.385295 2.175290
Cd 8.692171 0.130688 -1.369630
Cd 4.346085 5.149115 -4.914550
Cd 4.346085 5.149115 2.175290
Cd 6.519128 3.894508 -1.369630
Se -2.173043 -6.142346 -2.249101
Se -0.000000 -7.396953 1.295819
Se -2.173043 -6.142346 4.840738
Se -2.173043 -3.633132 1.295819
Se -4.346085 -2.378526 4.840738
Se -4.346085 0.130688 -5.794021
Se -6.519128 1.385295 -2.249101
Se -4.346085 0.130688 1.295819
Se -6.519128 3.894508 1.295819
Se 2.173043 -6.142346 -2.249101
Se 2.173043 -6.142346 4.840738
Se -0.000000 -2.378526 -2.249101
Se 2.173043 -3.633132 1.295819
Se -0.000000 -2.378526 4.840738
Se -2.173043 1.385295 -2.249101
Se -0.000000 0.130688 1.295819
Se -2.173043 1.385295 4.840738
Se -4.346085 5.149115 -2.249101
Se -2.173043 3.894508 1.295819
Se 4.346085 -2.378526 4.840738
Se 4.346085 0.130688 -5.794021
Se 2.173043 1.385295 -2.249101
Se 4.346085 0.130688 1.295819
Se 2.173043 1.385295 4.840738
Se -0.000000 5.149115 -2.249101
Se 2.173043 3.894508 1.295819
Se -0.000000 5.149115 4.840738
Se 6.519128 1.385295 -2.249101
Se 4.346085 5.149115 -2.249101
Se 6.519128 3.894508 1.295819
Cl -8.692171 0.130688 1.295819
Cl -0.000000 -7.396953 -5.794021
Cl -2.173043 -3.633132 -5.794021
Cl -4.346085 -2.378526 -2.249101
Cl -6.519128 1.385295 4.840738
Cl -6.519128 3.894508 -5.794021
Cl 2.173043 -3.633132 -5.794021
Cl -0.000000 0.130688 -5.794021
Cl -2.173043 3.894508 -5.794021
Cl -4.346085 5.149115 4.840738
Cl 4.346085 -2.378526 -2.249101
Cl 2.173043 3.894508 -5.794021
Cl 8.692171 0.130688 1.295819
Cl 6.519128 1.385295 4.840738
Cl 6.519128 3.894508 -5.794021
Cl 4.346085 5.149115 4.840738
Cl -0.000000 -7.396953 8.385658
Cl -10.865213 1.385295 -2.249101
Cl 10.865213 1.385295 -2.249101
Cl -0.000000 7.658329 -5.794021
Cl -0.000000 -9.906166 -2.249101
Cl -0.000000 2.639438 6.599020
Cl -2.172641 -1.123687 6.599020
Cl 2.172641 -1.123687 6.599020
