2406
InP-P-In1052P901Cl453-reconstructed
In -22.132461 -16.235870 -13.288801
In -22.132461 -13.283894 -16.240778
In -25.084438 -13.283894 -13.288801
In -22.132461 -10.331917 -13.288801
In -22.132461 -13.283894 -10.336825
In -25.084438 -10.331917 -10.336825
In -22.132461 -10.331917 -7.384849
In -22.132461 -7.379941 -10.336825
In -25.084438 -7.379941 -7.384849
In -22.132461 -4.427965 -7.384849
In -22.132461 -7.379941 -4.432872
In -25.084438 -4.427965 -4.432872
In -22.132461 -4.427965 -1.480896
In -22.132461 -1.475988 -4.432872
In -25.084438 -1.475988 -1.480896
In -22.132461 1.475988 -1.480896
In -22.132461 -1.475988 1.471081
In -25.084438 1.475988 1.471081
In -22.132461 1.475988 4.423057
In -22.132461 4.427965 1.471081
In -25.084438 4.427965 4.423057
In -22.132461 7.379941 4.423057
In -22.132461 4.427965 7.375033
In -25.084438 7.379941 7.375033
In -22.132461 7.379941 10.327010
In -22.132461 10.331917 7.375033
In -25.084438 10.331917 10.327010
In -22.132461 13.283894 10.327010
In -22.132461 10.331917 13.278986
In -25.084438 13.283894 13.278986
In -22.132461 13.283894 16.230962
In -22.132461 16.235870 13.278986
In -16.228509 -22.139823 -13.288801
In -16.228509 -19.187847 -16.240778
In -19.180485 -16.235870 -16.240778
In -19.180485 -19.187847 -13.288801
In -16.228509 -16.235870 -13.288801
In -16.228509 -19.187847 -10.336825
In -19.180485 -16.235870 -10.336825
In -16.228509 -16.235870 -7.384849
In -16.228509 -13.283894 -22.144731
In -19.180485 -13.283894 -19.192754
In -16.228509 -10.331917 -19.192754
In -16.228509 -13.283894 -16.240778
In -19.180485 -10.331917 -16.240778
In -19.180485 -13.283894 -13.288801
In -16.228509 -10.331917 -13.288801
In -16.228509 -13.283894 -10.336825
In -19.180485 -10.331917 -10.336825
In -19.180485 -13.283894 -7.384849
In -16.228509 -10.331917 -7.384849
In -16.228509 -13.283894 -4.432872
In -19.180485 -10.331917 -4.432872
In -16.228509 -10.331917 -1.480896
In -16.228509 -7.379941 -16.240778
In -19.180485 -7.379941 -13.288801
In -16.228509 -4.427965 -13.288801
In -16.228509 -7.379941 -10.336825
In -19.180485 -4.427965 -10.336825
In -19.180485 -7.379941 -7.384849
In -16.228509 -4.427965 -7.384849
In -16.228509 -7.379941 -4.432872
In -19.180485 -4.427965 -4.432872
In -19.180485 -7.379941 -1.480896
In -16.228509 -4.427965 -1.480896
In -16.228509 -7.379941 1.471081
In -19.180485 -4.427965 1.471081
In -16.228509 -4.427965 4.423057
In -16.228509 -1.475988 -10.336825
In -19.180485 -1.475988 -7.384849
In -16.228509 1.475988 -7.384849
In -16.228509 -1.475988 -4.432872
In -19.180485 1.475988 -4.432872
In -19.180485 -1.475988 -1.480896
In -16.228509 1.475988 -1.480896
In -16.228509 -1.475988 1.471081
In -19.180485 1.475988 1.471081
In -19.180485 -1.475988 4.423057
In -16.228509 1.475988 4.423057
In -16.228509 -1.475988 7.375033
In -19.180485 1.475988 7.375033
In -16.228509 1.475988 10.327010
In -16.228509 4.427965 -4.432872
In -19.180485 4.427965 -1.480896
In -16.228509 7.379941 -1.480896
In -16.228509 4.427965 1.471081
In -19.180485 7.379941 1.471081
In -19.180485 4.427965 4.423057
In -16.228509 7.379941 4.423057
In -16.228509 4.427965 7.375033
In -19.180485 7.379941 7.375033
In -19.180485 4.427965 10.327010
In -16.228509 7.379941 10.327010
In -16.228509 4.427965 13.278986
In -19.180485 7.379941 13.278986
In -16.228509 7.379941 16.230962
In -16.228509 10.331917 1.471081
In -19.180485 10.331917 4.423057
In -16.228509 13.283894 4.423057
In -16.228509 10.331917 7.375033
In -19.180485 13.283894 7.375033
In -19.180485 10.331917 10.327010
In -16.228509 13.283894 10.327010
In -16.228509 10.331917 13.278986
In -19.180485 13.283894 13.278986
In -19.180485 10.331917 16.230962
In -16.228509 13.283894 16.230962
In -16.228509 10.331917 19.182939
In -19.180485 13.283894 19.182939
In -16.228509 13.283894 22.134915
In -16.228509 16.235870 7.375033
In -19.180485 16.235870 10.327010
In -16.228509 19.187847 10.327010
In -16.228509 16.235870 13.278986
In -19.180485 19.187847 13.278986
In -19.180485 16.235870 16.230962
In -16.228509 19.187847 16.230962
In -16.228509 22.139823 13.278986
In -13.276532 -22.139823 -16.240778
In -13.276532 -25.091799 -13.288801
In -10.324556 -22.139823 -13.288801
In -10.324556 -25.091799 -10.336825
In -13.276532 -22.139823 -10.336825
In -10.324556 -22.139823 -7.384849
In -13.276532 -16.235870 -22.144731
In -13.276532 -19.187847 -19.192754
In -10.324556 -16.235870 -19.192754
In -10.324556 -19.187847 -16.240778
In -13.276532 -16.235870 -16.240778
In -13.276532 -19.187847 -13.288801
In -10.324556 -16.235870 -13.288801
In -10.324556 -19.187847 -10.336825
In -13.276532 -16.235870 -10.336825
In -13.276532 -19.187847 -7.384849
In -10.324556 -16.235870 -7.384849
In -10.324556 -19.187847 -4.432872
In -13.276532 -16.235870 -4.432872
In -10.324556 -16.235870 -1.480896
In -13.276532 -13.283894 -25.096707
In -10.324556 -10.331917 -25.096707
In -13.276532 -10.331917 -22.144731
In -13.276532 -13.283894 -19.192754
In -10.324556 -10.331917 -19.192754
In -10.324556 -13.283894 -16.240778
In -13.276532 -10.331917 -16.240778
In -13.276532 -13.283894 -13.288801
In -10.324556 -10.331917 -13.288801
In -10.324556 -13.283894 -10.336825
In -13.276532 -10.331917 -10.336825
In -13.276532 -13.283894 -7.384849
In -10.324556 -10.331917 -7.384849
In -10.324556 -13.283894 -4.432872
In -13.276532 -10.331917 -4.432872
In -13.276532 -13.283894 -1.480896
In -10.324556 -10.331917 -1.480896
In -10.324556 -13.283894 1.471081
In -13.276532 -10.331917 1.471081
In -10.324556 -10.331917 4.423057
In -10.324556 -7.379941 -22.144731
In -13.276532 -7.379941 -19.192754
In -10.324556 -4.427965 -19.192754
In -10.324556 -7.379941 -16.240778
In -13.276532 -4.427965 -16.240778
In -13.276532 -7.379941 -13.288801
In -10.324556 -4.427965 -13.288801
In -10.324556 -7.379941 -10.336825
In -13.276532 -4.427965 -10.336825
In -13.276532 -7.379941 -7.384849
In -10.324556 -4.427965 -7.384849
In -10.324556 -7.379941 -4.432872
In -13.276532 -4.427965 -4.432872
In -13.276532 -7.379941 -1.480896
In -10.324556 -4.427965 -1.480896
In -10.324556 -7.379941 1.471081
In -13.276532 -4.427965 1.471081
In -13.276532 -7.379941 4.423057
In -10.324556 -4.427965 4.423057
In -10.324556 -7.379941 7.375033
In -13.276532 -4.427965 7.375033
In -10.324556 -4.427965 10.327010
In -10.324556 -1.475988 -16.240778
In -13.276532 -1.475988 -13.288801
In -10.324556 1.475988 -13.288801
In -10.324556 -1.475988 -10.336825
In -13.276532 1.475988 -10.336825
In -13.276532 -1.475988 -7.384849
In -10.324556 1.475988 -7.384849
In -10.324556 -1.475988 -4.432872
In -13.276532 1.475988 -4.432872
In -13.276532 -1.475988 -1.480896
In -10.324556 1.475988 -1.480896
In -10.324556 -1.475988 1.471081
In -13.276532 1.475988 1.471081
In -13.276532 -1.475988 4.423057
In -10.324556 1.475988 4.423057
In -10.324556 -1.475988 7.375033
In -13.276532 1.475988 7.375033
In -13.276532 -1.475988 10.327010
In -10.324556 1.475988 10.327010
In -10.324556 -1.475988 13.278986
In -13.276532 1.475988 13.278986
In -10.324556 1.475988 16.230962
In -10.324556 4.427965 -10.336825
In -13.276532 4.427965 -7.384849
In -10.324556 7.379941 -7.384849
In -10.324556 4.427965 -4.432872
In -13.276532 7.379941 -4.432872
In -13.276532 4.427965 -1.480896
In -10.324556 7.379941 -1.480896
In -10.324556 4.427965 1.471081
In -13.276532 7.379941 1.471081
In -13.276532 4.427965 4.423057
In -10.324556 7.379941 4.423057
In -10.324556 4.427965 7.375033
In -13.276532 7.379941 7.375033
In -13.276532 4.427965 10.327010
In -10.324556 7.379941 10.327010
In -10.324556 4.427965 13.278986
In -13.276532 7.379941 13.278986
In -13.276532 4.427965 16.230962
In -10.324556 7.379941 16.230962
In -10.324556 4.427965 19.182939
In -13.276532 7.379941 19.182939
In -10.324556 7.379941 22.134915
In -10.324556 10.331917 -4.432872
In -13.276532 10.331917 -1.480896
In -10.324556 13.283894 -1.480896
In -10.324556 10.331917 1.471081
In -13.276532 13.283894 1.471081
In -13.276532 10.331917 4.423057
In -10.324556 13.283894 4.423057
In -10.324556 10.331917 7.375033
In -13.276532 13.283894 7.375033
In -13.276532 10.331917 10.327010
In -10.324556 13.283894 10.327010
In -10.324556 10.331917 13.278986
In -13.276532 13.283894 13.278986
In -13.276532 10.331917 16.230962
In -10.324556 13.283894 16.230962
In -10.324556 10.331917 19.182939
In -13.276532 13.283894 19.182939
In -13.276532 10.331917 22.134915
In -10.324556 10.331917 25.086892
In -13.276532 13.283894 25.086892
In -10.324556 16.235870 1.471081
In -13.276532 16.235870 4.423057
In -10.324556 19.187847 4.423057
In -10.324556 16.235870 7.375033
In -13.276532 19.187847 7.375033
In -13.276532 16.235870 10.327010
In -10.324556 19.187847 10.327010
In -10.324556 16.235870 13.278986
In -13.276532 19.187847 13.278986
In -13.276532 16.235870 16.230962
In -10.324556 19.187847 16.230962
In -10.324556 16.235870 19.182939
In -13.276532 19.187847 19.182939
In -13.276532 16.235870 22.134915
In -10.324556 22.139823 7.375033
In -13.276532 22.139823 10.327010
In -10.324556 25.091799 10.327010
In -10.324556 22.139823 13.278986
In -13.276532 25.091799 13.278986
In -13.276532 22.139823 16.230962
In -7.372579 -22.139823 -10.336825
In -7.372579 -25.091799 -7.384849
In -4.420603 -22.139823 -7.384849
In -4.420603 -25.091799 -4.432872
In -7.372579 -22.139823 -4.432872
In -4.420603 -22.139823 -1.480896
In -7.372579 -16.235870 -16.240778
In -7.372579 -19.187847 -13.288801
In -4.420603 -16.235870 -13.288801
In -4.420603 -19.187847 -10.336825
In -7.372579 -16.235870 -10.336825
In -7.372579 -19.187847 -7.384849
In -4.420603 -16.235870 -7.384849
In -4.420603 -19.187847 -4.432872
In -7.372579 -16.235870 -4.432872
In -7.372579 -19.187847 -1.480896
In -4.420603 -16.235870 -1.480896
In -4.420603 -19.187847 1.471081
In -7.372579 -16.235870 1.471081
In -4.420603 -16.235870 4.423057
In -7.372579 -10.331917 -22.144731
In -7.372579 -13.283894 -19.192754
In -4.420603 -10.331917 -19.192754
In -4.420603 -13.283894 -16.240778
In -7.372579 -10.331917 -16.240778
In -7.372579 -13.283894 -13.288801
In -4.420603 -10.331917 -13.288801
In -4.420603 -13.283894 -10.336825
In -7.372579 -10.331917 -10.336825
In -7.372579 -13.283894 -7.384849
In -4.420603 -10.331917 -7.384849
In -4.420603 -13.283894 -4.432872
In -7.372579 -10.331917 -4.432872
In -7.372579 -13.283894 -1.480896
In -4.420603 -10.331917 -1.480896
In -4.420603 -13.283894 1.471081
In -7.372579 -10.331917 1.471081
In -7.372579 -13.283894 4.423057
In -4.420603 -10.331917 4.423057
In -4.420603 -13.283894 7.375033
In -7.372579 -10.331917 7.375033
In -4.420603 -10.331917 10.327010
In -7.372579 -7.379941 -25.096707
In -4.420603 -4.427965 -25.096707
In -4.420603 -7.379941 -22.144731
In -7.372579 -4.427965 -22.144731
In -7.372579 -7.379941 -19.192754
In -4.420603 -4.427965 -19.192754
In -4.420603 -7.379941 -16.240778
In -7.372579 -4.427965 -16.240778
In -7.372579 -7.379941 -13.288801
In -4.420603 -4.427965 -13.288801
In -4.420603 -7.379941 -10.336825
In -7.372579 -4.427965 -10.336825
In -7.372579 -7.379941 -7.384849
In -4.420603 -4.427965 -7.384849
In -4.420603 -7.379941 -4.432872
In -7.372579 -4.427965 -4.432872
In -7.372579 -7.379941 -1.480896
In -4.420603 -4.427965 -1.480896
In -4.420603 -7.379941 1.471081
In -7.372579 -4.427965 1.471081
In -7.372579 -7.379941 4.423057
In -4.420603 -4.427965 4.423057
In -4.420603 -7.379941 7.375033
In -7.372579 -4.427965 7.375033
In -7.372579 -7.379941 10.327010
In -4.420603 -4.427965 10.327010
In -4.420603 -7.379941 13.278986
In -7.372579 -4.427965 13.278986
In -4.420603 -4.427965 16.230962
In -4.420603 -1.475988 -22.144731
In -7.372579 -1.475988 -19.192754
In -4.420603 1.475988 -19.192754
In -4.420603 -1.475988 -16.240778
In -7.372579 1.475988 -16.240778
In -7.372579 -1.475988 -13.288801
In -4.420603 1.475988 -13.288801
In -4.420603 -1.475988 -10.336825
In -7.372579 1.475988 -10.336825
In -7.372579 -1.475988 -7.384849
In -4.420603 1.475988 -7.384849
In -4.420603 -1.475988 -4.432872
In -7.372579 1.475988 -4.432872
In -7.372579 -1.475988 -1.480896
In -4.420603 1.475988 -1.480896
In -4.420603 -1.475988 1.471081
In -7.372579 1.475988 1.471081
In -7.372579 -1.475988 4.423057
In -4.420603 1.475988 4.423057
In -4.420603 -1.475988 7.375033
In -7.372579 1.475988 7.375033
In -7.372579 -1.475988 10.327010
In -4.420603 1.475988 10.327010
In -4.420603 -1.475988 13.278986
In -7.372579 1.475988 13.278986
In -7.372579 -1.475988 16.230962
In -4.420603 1.475988 16.230962
In -4.420603 -1.475988 19.182939
In -7.372579 1.475988 19.182939
In -4.420603 1.475988 22.134915
In -4.420603 4.427965 -16.240778
In -7.372579 4.427965 -13.288801
In -4.420603 7.379941 -13.288801
In -4.420603 4.427965 -10.336825
In -7.372579 7.379941 -10.336825
In -7.372579 4.427965 -7.384849
In -4.420603 7.379941 -7.384849
In -4.420603 4.427965 -4.432872
In -7.372579 7.379941 -4.432872
In -7.372579 4.427965 -1.480896
In -4.420603 7.379941 -1.480896
In -4.420603 4.427965 1.471081
In -7.372579 7.379941 1.471081
In -7.372579 4.427965 4.423057
In -4.420603 7.379941 4.423057
In -4.420603 4.427965 7.375033
In -7.372579 7.379941 7.375033
In -7.372579 4.427965 10.327010
In -4.420603 7.379941 10.327010
In -4.420603 4.427965 13.278986
In -7.372579 7.379941 13.278986
In -7.372579 4.427965 16.230962
In -4.420603 7.379941 16.230962
In -4.420603 4.427965 19.182939
In -7.372579 7.379941 19.182939
In -7.372579 4.427965 22.134915
In -4.420603 7.379941 22.134915
In -4.420603 4.427965 25.086892
In -7.372579 7.379941 25.086892
In -4.420603 10.331917 -10.336825
In -7.372579 10.331917 -7.384849
In -4.420603 13.283894 -7.384849
In -4.420603 10.331917 -4.432872
In -7.372579 13.283894 -4.432872
In -7.372579 10.331917 -1.480896
In -4.420603 13.283894 -1.480896
In -4.420603 10.331917 1.471081
In -7.372579 13.283894 1.471081
In -7.372579 10.331917 4.423057
In -4.420603 13.283894 4.423057
In -4.420603 10.331917 7.375033
In -7.372579 13.283894 7.375033
In -7.372579 10.331917 10.327010
In -4.420603 13.283894 10.327010
In -4.420603 10.331917 13.278986
In -7.372579 13.283894 13.278986
In -7.372579 10.331917 16.230962
In -4.420603 13.283894 16.230962
In -4.420603 10.331917 19.182939
In -7.372579 13.283894 19.182939
In -7.372579 10.331917 22.134915
In -4.420603 16.235870 -4.432872
In -7.372579 16.235870 -1.480896
In -4.420603 19.187847 -1.480896
In -4.420603 16.235870 1.471081
In -7.372579 19.187847 1.471081
In -7.372579 16.235870 4.423057
In -4.420603 19.187847 4.423057
In -4.420603 16.235870 7.375033
In -7.372579 19.187847 7.375033
In -7.372579 16.235870 10.327010
In -4.420603 19.187847 10.327010
In -4.420603 16.235870 13.278986
In -7.372579 19.187847 13.278986
In -7.372579 16.235870 16.230962
In -4.420603 22.139823 1.471081
In -7.372579 22.139823 4.423057
In -4.420603 25.091799 4.423057
In -4.420603 22.139823 7.375033
In -7.372579 25.091799 7.375033
In -7.372579 22.139823 10.327010
In -1.468627 -22.139823 -4.432872
In -1.468627 -25.091799 -1.480896
In 1.483350 -22.139823 -1.480896
In 1.483350 -25.091799 1.471081
In -1.468627 -22.139823 1.471081
In 1.483350 -22.139823 4.423057
In -1.468627 -16.235870 -10.336825
In -1.468627 -19.187847 -7.384849
In 1.483350 -16.235870 -7.384849
In 1.483350 -19.187847 -4.432872
In -1.468627 -16.235870 -4.432872
In -1.468627 -19.187847 -1.480896
In 1.483350 -16.235870 -1.480896
In 1.483350 -19.187847 1.471081
In -1.468627 -16.235870 1.471081
In -1.468627 -19.187847 4.423057
In 1.483350 -16.235870 4.423057
In 1.483350 -19.187847 7.375033
In -1.468627 -16.235870 7.375033
In 1.483350 -16.235870 10.327010
In -1.468627 -10.331917 -16.240778
In -1.468627 -13.283894 -13.288801
In 1.483350 -10.331917 -13.288801
In 1.483350 -13.283894 -10.336825
In -1.468627 -10.331917 -10.336825
In -1.468627 -13.283894 -7.384849
In 1.483350 -10.331917 -7.384849
In 1.483350 -13.283894 -4.432872
In -1.468627 -10.331917 -4.432872
In -1.468627 -13.283894 -1.480896
In 1.483350 -10.331917 -1.480896
In 1.483350 -13.283894 1.471081
In -1.468627 -10.331917 1.471081
In -1.468627 -13.283894 4.423057
In 1.483350 -10.331917 4.423057
In 1.483350 -13.283894 7.375033
In -1.468627 -10.331917 7.375033
In -1.468627 -13.283894 10.327010
In 1.483350 -10.331917 10.327010
In 1.483350 -13.283894 13.278986
In -1.468627 -10.331917 13.278986
In 1.483350 -10.331917 16.230962
In -1.468627 -4.427965 -22.144731
In -1.468627 -7.379941 -19.192754
In 1.483350 -4.427965 -19.192754
In 1.483350 -7.379941 -16.240778
In -1.468627 -4.427965 -16.240778
In -1.468627 -7.379941 -13.288801
In 1.483350 -4.427965 -13.288801
In 1.483350 -7.379941 -10.336825
In -1.468627 -4.427965 -10.336825
In -1.468627 -7.379941 -7.384849
In 1.483350 -4.427965 -7.384849
In 1.483350 -7.379941 -4.432872
In -1.468627 -4.427965 -4.432872
In -1.468627 -7.379941 -1.480896
In 1.483350 -4.427965 -1.480896
In 1.483350 -7.379941 1.471081
In -1.468627 -4.427965 1.471081
In -1.468627 -7.379941 4.423057
In 1.483350 -4.427965 4.423057
In 1.483350 -7.379941 7.375033
In -1.468627 -4.427965 7.375033
In -1.468627 -7.379941 10.327010
In 1.483350 -4.427965 10.327010
In 1.483350 -7.379941 13.278986
In -1.468627 -4.427965 13.278986
In -1.468627 -7.379941 16.230962
In 1.483350 -4.427965 16.230962
In 1.483350 -7.379941 19.182939
In -1.468627 -4.427965 19.182939
In 1.483350 -4.427965 22.134915
In -1.468627 -1.475988 -25.096707
In 1.483350 1.475988 -25.096707
In 1.483350 -1.475988 -22.144731
In -1.468627 1.475988 -22.144731
In -1.468627 -1.475988 -19.192754
In 1.483350 1.475988 -19.192754
In 1.483350 -1.475988 -16.240778
In -1.468627 1.475988 -16.240778
In -1.468627 -1.475988 -13.288801
In 1.483350 1.475988 -13.288801
In 1.483350 -1.475988 -10.336825
In -1.468627 1.475988 -10.336825
In -1.468627 -1.475988 -7.384849
In 1.483350 1.475988 -7.384849
In 1.483350 -1.475988 -4.432872
In -1.468627 1.475988 -4.432872
In -1.468627 -1.475988 -1.480896
In 1.483350 1.475988 -1.480896
In 1.483350 -1.475988 1.471081
In -1.468627 1.475988 1.471081
In -1.468627 -1.475988 4.423057
In 1.483350 1.475988 4.423057
In 1.483350 -1.475988 7.375033
In -1.468627 1.475988 7.375033
In -1.468627 -1.475988 10.327010
In 1.483350 1.475988 10.327010
In 1.483350 -1.475988 13.278986
In -1.468627 1.475988 13.278986
In -1.468627 -1.475988 16.230962
In 1.483350 1.475988 16.230962
In 1.483350 -1.475988 19.182939
In -1.468627 1.475988 19.182939
In -1.468627 -1.475988 22.134915
In 1.483350 1.475988 22.134915
In 1.483350 -1.475988 25.086892
In -1.468627 1.475988 25.086892
In 1.483350 4.427965 -22.144731
In -1.468627 4.427965 -19.192754
In 1.483350 7.379941 -19.192754
In 1.483350 4.427965 -16.240778
In -1.468627 7.379941 -16.240778
In -1.468627 4.427965 -13.288801
In 1.483350 7.379941 -13.288801
In 1.483350 4.427965 -10.336825
In -1.468627 7.379941 -10.336825
In -1.468627 4.427965 -7.384849
In 1.483350 7.379941 -7.384849
In 1.483350 4.427965 -4.432872
In -1.468627 7.379941 -4.432872
In -1.468627 4.427965 -1.480896
In 1.483350 7.379941 -1.480896
In 1.483350 4.427965 1.471081
In -1.468627 7.379941 1.471081
In -1.468627 4.427965 4.423057
In 1.483350 7.379941 4.423057
In 1.483350 4.427965 7.375033
In -1.468627 7.379941 7.375033
In -1.468627 4.427965 10.327010
In 1.483350 7.379941 10.327010
In 1.483350 4.427965 13.278986
In -1.468627 7.379941 13.278986
In -1.468627 4.427965 16.230962
In 1.483350 7.379941 16.230962
In 1.483350 4.427965 19.182939
In -1.468627 7.379941 19.182939
In -1.468627 4.427965 22.134915
In 1.483350 10.331917 -16.240778
In -1.468627 10.331917 -13.288801
In 1.483350 13.283894 -13.288801
In 1.483350 10.331917 -10.336825
In -1.468627 13.283894 -10.336825
In -1.468627 10.331917 -7.384849
In 1.483350 13.283894 -7.384849
In 1.483350 10.331917 -4.432872
In -1.468627 13.283894 -4.432872
In -1.468627 10.331917 -1.480896
In 1.483350 13.283894 -1.480896
In 1.483350 10.331917 1.471081
In -1.468627 13.283894 1.471081
In -1.468627 10.331917 4.423057
In 1.483350 13.283894 4.423057
In 1.483350 10.331917 7.375033
In -1.468627 13.283894 7.375033
In -1.468627 10.331917 10.327010
In 1.483350 13.283894 10.327010
In 1.483350 10.331917 13.278986
In -1.468627 13.283894 13.278986
In -1.468627 10.331917 16.230962
In 1.483350 16.235870 -10.336825
In -1.468627 16.235870 -7.384849
In 1.483350 19.187847 -7.384849
In 1.483350 16.235870 -4.432872
In -1.468627 19.187847 -4.432872
In -1.468627 16.235870 -1.480896
In 1.483350 19.187847 -1.480896
In 1.483350 16.235870 1.471081
In -1.468627 19.187847 1.471081
In -1.468627 16.235870 4.423057
In 1.483350 19.187847 4.423057
In 1.483350 16.235870 7.375033
In -1.468627 19.187847 7.375033
In -1.468627 16.235870 10.327010
In 1.483350 22.139823 -4.432872
In -1.468627 22.139823 -1.480896
In 1.483350 25.091799 -1.480896
In 1.483350 22.139823 1.471081
In -1.468627 25.091799 1.471081
In -1.468627 22.139823 4.423057
In 4.435326 -22.139823 1.471081
In 4.435326 -25.091799 4.423057
In 7.387302 -22.139823 4.423057
In 7.387302 -25.091799 7.375033
In 4.435326 -22.139823 7.375033
In 7.387302 -22.139823 10.327010
In 4.435326 -16.235870 -4.432872
In 4.435326 -19.187847 -1.480896
In 7.387302 -16.235870 -1.480896
In 7.387302 -19.187847 1.471081
In 4.435326 -16.235870 1.471081
In 4.435326 -19.187847 4.423057
In 7.387302 -16.235870 4.423057
In 7.387302 -19.187847 7.375033
In 4.435326 -16.235870 7.375033
In 4.435326 -19.187847 10.327010
In 7.387302 -16.235870 10.327010
In 7.387302 -19.187847 13.278986
In 4.435326 -16.235870 13.278986
In 7.387302 -16.235870 16.230962
In 4.435326 -10.331917 -10.336825
In 4.435326 -13.283894 -7.384849
In 7.387302 -10.331917 -7.384849
In 7.387302 -13.283894 -4.432872
In 4.435326 -10.331917 -4.432872
In 4.435326 -13.283894 -1.480896
In 7.387302 -10.331917 -1.480896
In 7.387302 -13.283894 1.471081
In 4.435326 -10.331917 1.471081
In 4.435326 -13.283894 4.423057
In 7.387302 -10.331917 4.423057
In 7.387302 -13.283894 7.375033
In 4.435326 -10.331917 7.375033
In 4.435326 -13.283894 10.327010
In 7.387302 -10.331917 10.327010
In 7.387302 -13.283894 13.278986
In 4.435326 -10.331917 13.278986
In 4.435326 -13.283894 16.230962
In 7.387302 -10.331917 16.230962
In 7.387302 -13.283894 19.182939
In 4.435326 -10.331917 19.182939
In 7.387302 -10.331917 22.134915
In 4.435326 -4.427965 -16.240778
In 4.435326 -7.379941 -13.288801
In 7.387302 -4.427965 -13.288801
In 7.387302 -7.379941 -10.336825
In 4.435326 -4.427965 -10.336825
In 4.435326 -7.379941 -7.384849
In 7.387302 -4.427965 -7.384849
In 7.387302 -7.379941 -4.432872
In 4.435326 -4.427965 -4.432872
In 4.435326 -7.379941 -1.480896
In 7.387302 -4.427965 -1.480896
In 7.387302 -7.379941 1.471081
In 4.435326 -4.427965 1.471081
In 4.435326 -7.379941 4.423057
In 7.387302 -4.427965 4.423057
In 7.387302 -7.379941 7.375033
In 4.435326 -4.427965 7.375033
In 4.435326 -7.379941 10.327010
In 7.387302 -4.427965 10.327010
In 7.387302 -7.379941 13.278986
In 4.435326 -4.427965 13.278986
In 4.435326 -7.379941 16.230962
In 7.387302 -4.427965 16.230962
In 7.387302 -7.379941 19.182939
In 4.435326 -4.427965 19.182939
In 4.435326 -7.379941 22.134915
In 7.387302 -4.427965 22.134915
In 7.387302 -7.379941 25.086892
In 4.435326 -4.427965 25.086892
In 4.435326 1.475988 -22.144731
In 4.435326 -1.475988 -19.192754
In 7.387302 1.475988 -19.192754
In 7.387302 -1.475988 -16.240778
In 4.435326 1.475988 -16.240778
In 4.435326 -1.475988 -13.288801
In 7.387302 1.475988 -13.288801
In 7.387302 -1.475988 -10.336825
In 4.435326 1.475988 -10.336825
In 4.435326 -1.475988 -7.384849
In 7.387302 1.475988 -7.384849
In 7.387302 -1.475988 -4.432872
In 4.435326 1.475988 -4.432872
In 4.435326 -1.475988 -1.480896
In 7.387302 1.475988 -1.480896
In 7.387302 -1.475988 1.471081
In 4.435326 1.475988 1.471081
In 4.435326 -1.475988 4.423057
In 7.387302 1.475988 4.423057
In 7.387302 -1.475988 7.375033
In 4.435326 1.475988 7.375033
In 4.435326 -1.475988 10.327010
In 7.387302 1.475988 10.327010
In 7.387302 -1.475988 13.278986
In 4.435326 1.475988 13.278986
In 4.435326 -1.475988 16.230962
In 7.387302 1.475988 16.230962
In 7.387302 -1.475988 19.182939
In 4.435326 1.475988 19.182939
In 4.435326 -1.475988 22.134915
In 4.435326 4.427965 -25.096707
In 7.387302 7.379941 -25.096707
In 7.387302 4.427965 -22.144731
In 4.435326 7.379941 -22.144731
In 4.435326 4.427965 -19.192754
In 7.387302 7.379941 -19.192754
In 7.387302 4.427965 -16.240778
In 4.435326 7.379941 -16.240778
In 4.435326 4.427965 -13.288801
In 7.387302 7.379941 -13.288801
In 7.387302 4.427965 -10.336825
In 4.435326 7.379941 -10.336825
In 4.435326 4.427965 -7.384849
In 7.387302 7.379941 -7.384849
In 7.387302 4.427965 -4.432872
In 4.435326 7.379941 -4.432872
In 4.435326 4.427965 -1.480896
In 7.387302 7.379941 -1.480896
In 7.387302 4.427965 1.471081
In 4.435326 7.379941 1.471081
In 4.435326 4.427965 4.423057
In 7.387302 7.379941 4.423057
In 7.387302 4.427965 7.375033
In 4.435326 7.379941 7.375033
In 4.435326 4.427965 10.327010
In 7.387302 7.379941 10.327010
In 7.387302 4.427965 13.278986
In 4.435326 7.379941 13.278986
In 4.435326 4.427965 16.230962
In 7.387302 10.331917 -22.144731
In 4.435326 10.331917 -19.192754
In 7.387302 13.283894 -19.192754
In 7.387302 10.331917 -16.240778
In 4.435326 13.283894 -16.240778
In 4.435326 10.331917 -13.288801
In 7.387302 13.283894 -13.288801
In 7.387302 10.331917 -10.336825
In 4.435326 13.283894 -10.336825
In 4.435326 10.331917 -7.384849
In 7.387302 13.283894 -7.384849
In 7.387302 10.331917 -4.432872
In 4.435326 13.283894 -4.432872
In 4.435326 10.331917 -1.480896
In 7.387302 13.283894 -1.480896
In 7.387302 10.331917 1.471081
In 4.435326 13.283894 1.471081
In 4.435326 10.331917 4.423057
In 7.387302 13.283894 4.423057
In 7.387302 10.331917 7.375033
In 4.435326 13.283894 7.375033
In 4.435326 10.331917 10.327010
In 7.387302 16.235870 -16.240778
In 4.435326 16.235870 -13.288801
In 7.387302 19.187847 -13.288801
In 7.387302 16.235870 -10.336825
In 4.435326 19.187847 -10.336825
In 4.435326 16.235870 -7.384849
In 7.387302 19.187847 -7.384849
In 7.387302 16.235870 -4.432872
In 4.435326 19.187847 -4.432872
In 4.435326 16.235870 -1.480896
In 7.387302 19.187847 -1.480896
In 7.387302 16.235870 1.471081
In 4.435326 19.187847 1.471081
In 4.435326 16.235870 4.423057
In 7.387302 22.139823 -10.336825
In 4.435326 22.139823 -7.384849
In 7.387302 25.091799 -7.384849
In 7.387302 22.139823 -4.432872
In 4.435326 25.091799 -4.432872
In 4.435326 22.139823 -1.480896
In 10.339279 -22.139823 7.375033
In 10.339279 -25.091799 10.327010
In 13.291255 -22.139823 10.327010
In 13.291255 -25.091799 13.278986
In 10.339279 -22.139823 13.278986
In 13.291255 -22.139823 16.230962
In 10.339279 -16.235870 1.471081
In 10.339279 -19.187847 4.423057
In 13.291255 -16.235870 4.423057
In 13.291255 -19.187847 7.375033
In 10.339279 -16.235870 7.375033
In 10.339279 -19.187847 10.327010
In 13.291255 -16.235870 10.327010
In 13.291255 -19.187847 13.278986
In 10.339279 -16.235870 13.278986
In 10.339279 -19.187847 16.230962
In 13.291255 -16.235870 16.230962
In 13.291255 -19.187847 19.182939
In 10.339279 -16.235870 19.182939
In 13.291255 -16.235870 22.134915
In 10.339279 -10.331917 -4.432872
In 10.339279 -13.283894 -1.480896
In 13.291255 -10.331917 -1.480896
In 13.291255 -13.283894 1.471081
In 10.339279 -10.331917 1.471081
In 10.339279 -13.283894 4.423057
In 13.291255 -10.331917 4.423057
In 13.291255 -13.283894 7.375033
In 10.339279 -10.331917 7.375033
In 10.339279 -13.283894 10.327010
In 13.291255 -10.331917 10.327010
In 13.291255 -13.283894 13.278986
In 10.339279 -10.331917 13.278986
In 10.339279 -13.283894 16.230962
In 13.291255 -10.331917 16.230962
In 13.291255 -13.283894 19.182939
In 10.339279 -10.331917 19.182939
In 13.291255 -10.331917 22.134915
In 13.291255 -13.283894 25.086892
In 10.339279 -10.331917 25.086892
In 10.339279 -4.427965 -10.336825
In 10.339279 -7.379941 -7.384849
In 13.291255 -4.427965 -7.384849
In 13.291255 -7.379941 -4.432872
In 10.339279 -4.427965 -4.432872
In 10.339279 -7.379941 -1.480896
In 13.291255 -4.427965 -1.480896
In 13.291255 -7.379941 1.471081
In 10.339279 -4.427965 1.471081
In 10.339279 -7.379941 4.423057
In 13.291255 -4.427965 4.423057
In 13.291255 -7.379941 7.375033
In 10.339279 -4.427965 7.375033
In 10.339279 -7.379941 10.327010
In 13.291255 -4.427965 10.327010
In 13.291255 -7.379941 13.278986
In 10.339279 -4.427965 13.278986
In 10.339279 -7.379941 16.230962
In 13.291255 -4.427965 16.230962
In 13.291255 -7.379941 19.182939
In 10.339279 -4.427965 19.182939
In 10.339279 -7.379941 22.134915
In 10.339279 1.475988 -16.240778
In 10.339279 -1.475988 -13.288801
In 13.291255 1.475988 -13.288801
In 13.291255 -1.475988 -10.336825
In 10.339279 1.475988 -10.336825
In 10.339279 -1.475988 -7.384849
In 13.291255 1.475988 -7.384849
In 13.291255 -1.475988 -4.432872
In 10.339279 1.475988 -4.432872
In 10.339279 -1.475988 -1.480896
In 13.291255 1.475988 -1.480896
In 13.291255 -1.475988 1.471081
In 10.339279 1.475988 1.471081
In 10.339279 -1.475988 4.423057
In 13.291255 1.475988 4.423057
In 13.291255 -1.475988 7.375033
In 10.339279 1.475988 7.375033
In 10.339279 -1.475988 10.327010
In 13.291255 1.475988 10.327010
In 13.291255 -1.475988 13.278986
In 10.339279 1.475988 13.278986
In 10.339279 -1.475988 16.230962
In 10.339279 7.379941 -22.144731
In 10.339279 4.427965 -19.192754
In 13.291255 7.379941 -19.192754
In 13.291255 4.427965 -16.240778
In 10.339279 7.379941 -16.240778
In 10.339279 4.427965 -13.288801
In 13.291255 7.379941 -13.288801
In 13.291255 4.427965 -10.336825
In 10.339279 7.379941 -10.336825
In 10.339279 4.427965 -7.384849
In 13.291255 7.379941 -7.384849
In 13.291255 4.427965 -4.432872
In 10.339279 7.379941 -4.432872
In 10.339279 4.427965 -1.480896
In 13.291255 7.379941 -1.480896
In 13.291255 4.427965 1.471081
In 10.339279 7.379941 1.471081
In 10.339279 4.427965 4.423057
In 13.291255 7.379941 4.423057
In 13.291255 4.427965 7.375033
In 10.339279 7.379941 7.375033
In 10.339279 4.427965 10.327010
In 10.339279 10.331917 -25.096707
In 13.291255 13.283894 -25.096707
In 13.291255 10.331917 -22.144731
In 10.339279 10.331917 -19.192754
In 13.291255 13.283894 -19.192754
In 13.291255 10.331917 -16.240778
In 10.339279 13.283894 -16.240778
In 10.339279 10.331917 -13.288801
In 13.291255 13.283894 -13.288801
In 13.291255 10.331917 -10.336825
In 10.339279 13.283894 -10.336825
In 10.339279 10.331917 -7.384849
In 13.291255 13.283894 -7.384849
In 13.291255 10.331917 -4.432872
In 10.339279 13.283894 -4.432872
In 10.339279 10.331917 -1.480896
In 13.291255 13.283894 -1.480896
In 13.291255 10.331917 1.471081
In 10.339279 13.283894 1.471081
In 10.339279 10.331917 4.423057
In 13.291255 16.235870 -22.144731
In 10.339279 16.235870 -19.192754
In 13.291255 19.187847 -19.192754
In 13.291255 16.235870 -16.240778
In 10.339279 19.187847 -16.240778
In 10.339279 16.235870 -13.288801
In 13.291255 19.187847 -13.288801
In 13.291255 16.235870 -10.336825
In 10.339279 19.187847 -10.336825
In 10.339279 16.235870 -7.384849
In 13.291255 19.187847 -7.384849
In 13.291255 16.235870 -4.432872
In 10.339279 19.187847 -4.432872
In 10.339279 16.235870 -1.480896
In 13.291255 22.139823 -16.240778
In 10.339279 22.139823 -13.288801
In 13.291255 25.091799 -13.288801
In 13.291255 22.139823 -10.336825
In 10.339279 25.091799 -10.336825
In 10.339279 22.139823 -7.384849
In 16.243232 -22.139823 13.278986
In 16.243232 -16.235870 7.375033
In 16.243232 -19.187847 10.327010
In 19.195208 -16.235870 10.327010
In 19.195208 -19.187847 13.278986
In 16.243232 -16.235870 13.278986
In 16.243232 -19.187847 16.230962
In 19.195208 -16.235870 16.230962
In 16.243232 -10.331917 1.471081
In 16.243232 -13.283894 4.423057
In 19.195208 -10.331917 4.423057
In 19.195208 -13.283894 7.375033
In 16.243232 -10.331917 7.375033
In 16.243232 -13.283894 10.327010
In 19.195208 -10.331917 10.327010
In 19.195208 -13.283894 13.278986
In 16.243232 -10.331917 13.278986
In 16.243232 -13.283894 16.230962
In 19.195208 -10.331917 16.230962
In 19.195208 -13.283894 19.182939
In 16.243232 -10.331917 19.182939
In 16.243232 -13.283894 22.134915
In 16.243232 -4.427965 -4.432872
In 16.243232 -7.379941 -1.480896
In 19.195208 -4.427965 -1.480896
In 19.195208 -7.379941 1.471081
In 16.243232 -4.427965 1.471081
In 16.243232 -7.379941 4.423057
In 19.195208 -4.427965 4.423057
In 19.195208 -7.379941 7.375033
In 16.243232 -4.427965 7.375033
In 16.243232 -7.379941 10.327010
In 19.195208 -4.427965 10.327010
In 19.195208 -7.379941 13.278986
In 16.243232 -4.427965 13.278986
In 16.243232 -7.379941 16.230962
In 16.243232 1.475988 -10.336825
In 16.243232 -1.475988 -7.384849
In 19.195208 1.475988 -7.384849
In 19.195208 -1.475988 -4.432872
In 16.243232 1.475988 -4.432872
In 16.243232 -1.475988 -1.480896
In 19.195208 1.475988 -1.480896
In 19.195208 -1.475988 1.471081
In 16.243232 1.475988 1.471081
In 16.243232 -1.475988 4.423057
In 19.195208 1.475988 4.423057
In 19.195208 -1.475988 7.375033
In 16.243232 1.475988 7.375033
In 16.243232 -1.475988 10.327010
In 16.243232 7.379941 -16.240778
In 16.243232 4.427965 -13.288801
In 19.195208 7.379941 -13.288801
In 19.195208 4.427965 -10.336825
In 16.243232 7.379941 -10.336825
In 16.243232 4.427965 -7.384849
In 19.195208 7.379941 -7.384849
In 19.195208 4.427965 -4.432872
In 16.243232 7.379941 -4.432872
In 16.243232 4.427965 -1.480896
In 19.195208 7.379941 -1.480896
In 19.195208 4.427965 1.471081
In 16.243232 7.379941 1.471081
In 16.243232 4.427965 4.423057
In 16.243232 13.283894 -22.144731
In 16.243232 10.331917 -19.192754
In 19.195208 13.283894 -19.192754
In 19.195208 10.331917 -16.240778
In 16.243232 13.283894 -16.240778
In 16.243232 10.331917 -13.288801
In 19.195208 13.283894 -13.288801
In 19.195208 10.331917 -10.336825
In 16.243232 13.283894 -10.336825
In 16.243232 10.331917 -7.384849
In 19.195208 13.283894 -7.384849
In 19.195208 10.331917 -4.432872
In 16.243232 13.283894 -4.432872
In 16.243232 10.331917 -1.480896
In 19.195208 16.235870 -16.240778
In 16.243232 19.187847 -16.240778
In 16.243232 16.235870 -13.288801
In 19.195208 19.187847 -13.288801
In 19.195208 16.235870 -10.336825
In 16.243232 19.187847 -10.336825
In 16.243232 16.235870 -7.384849
In 16.243232 22.139823 -13.288801
In 22.147184 -16.235870 13.278986
In 22.147184 -10.331917 7.375033
In 22.147184 -13.283894 10.327010
In 25.099161 -10.331917 10.327010
In 25.099161 -13.283894 13.278986
In 22.147184 -10.331917 13.278986
In 22.147184 -13.283894 16.230962
In 22.147184 -4.427965 1.471081
In 22.147184 -7.379941 4.423057
In 25.099161 -4.427965 4.423057
In 25.099161 -7.379941 7.375033
In 22.147184 -4.427965 7.375033
In 22.147184 -7.379941 10.327010
In 22.147184 1.475988 -4.432872
In 22.147184 -1.475988 -1.480896
In 25.099161 1.475988 -1.480896
In 25.099161 -1.475988 1.471081
In 22.147184 1.475988 1.471081
In 22.147184 -1.475988 4.423057
In 22.147184 7.379941 -10.336825
In 22.147184 4.427965 -7.384849
In 25.099161 7.379941 -7.384849
In 25.099161 4.427965 -4.432872
In 22.147184 7.379941 -4.432872
In 22.147184 4.427965 -1.480896
In 22.147184 13.283894 -16.240778
In 22.147184 10.331917 -13.288801
In 25.099161 13.283894 -13.288801
In 25.099161 10.331917 -10.336825
In 22.147184 13.283894 -10.336825
In 22.147184 10.331917 -7.384849
In 22.147184 16.235870 -13.288801
P -23.608450 -14.759882 -14.764790
P -20.656473 -14.759882 -11.812813
P -20.656473 -11.807906 -14.764790
P -23.608450 -11.807906 -11.812813
P -23.608450 -8.855929 -8.860837
P -20.656473 -8.855929 -11.812813
P -20.656473 -11.807906 -8.860837
P -20.656473 -8.855929 -5.908860
P -20.656473 -5.903953 -8.860837
P -23.608450 -5.903953 -5.908860
P -23.608450 -2.951976 -2.956884
P -20.656473 -2.951976 -5.908860
P -20.656473 -5.903953 -2.956884
P -20.656473 -2.951976 -0.004908
P -20.656473 0.000000 -2.956884
P -23.608450 0.000000 -0.004908
P -23.608450 2.951976 2.947069
P -20.656473 2.951976 -0.004908
P -20.656473 0.000000 2.947069
P -20.656473 2.951976 5.899045
P -20.656473 5.903953 2.947069
P -23.608450 5.903953 5.899045
P -23.608450 8.855929 8.851021
P -20.656473 8.855929 5.899045
P -20.656473 5.903953 8.851021
P -20.656473 8.855929 11.802998
P -20.656473 11.807906 8.851021
P -23.608450 11.807906 11.802998
P -23.608450 14.759882 14.754974
P -20.656473 14.759882 11.802998
P -20.656473 11.807906 14.754974
P -17.704497 -20.663835 -14.764790
P -14.752520 -20.663835 -11.812813
P -14.752520 -14.759882 -23.620719
P -17.704497 -14.759882 -14.764790
P -14.752520 -14.759882 -17.716766
P -14.752520 -17.711858 -14.764790
P -17.704497 -17.711858 -11.812813
P -17.704497 -14.759882 -8.860837
P -14.752520 -14.759882 -11.812813
P -14.752520 -17.711858 -8.860837
P -14.752520 -14.759882 -5.908860
P -14.752520 -11.807906 -20.668742
P -17.704497 -11.807906 -17.716766
P -17.704497 -8.855929 -14.764790
P -14.752520 -8.855929 -17.716766
P -14.752520 -11.807906 -14.764790
P -17.704497 -11.807906 -11.812813
P -17.704497 -8.855929 -8.860837
P -14.752520 -8.855929 -11.812813
P -14.752520 -11.807906 -8.860837
P -17.704497 -11.807906 -5.908860
P -17.704497 -8.855929 -2.956884
P -14.752520 -8.855929 -5.908860
P -14.752520 -11.807906 -2.956884
P -14.752520 -8.855929 -0.004908
P -14.752520 -5.903953 -14.764790
P -17.704497 -5.903953 -11.812813
P -17.704497 -2.951976 -8.860837
P -14.752520 -2.951976 -11.812813
P -14.752520 -5.903953 -8.860837
P -17.704497 -5.903953 -5.908860
P -17.704497 -2.951976 -2.956884
P -14.752520 -2.951976 -5.908860
P -14.752520 -5.903953 -2.956884
P -17.704497 -5.903953 -0.004908
P -17.704497 -2.951976 2.947069
P -14.752520 -2.951976 -0.004908
P -14.752520 -5.903953 2.947069
P -14.752520 -2.951976 5.899045
P -14.752520 0.000000 -8.860837
P -17.704497 0.000000 -5.908860
P -17.704497 2.951976 -2.956884
P -14.752520 2.951976 -5.908860
P -14.752520 0.000000 -2.956884
P -17.704497 0.000000 -0.004908
P -17.704497 2.951976 2.947069
P -14.752520 2.951976 -0.004908
P -14.752520 0.000000 2.947069
P -17.704497 0.000000 5.899045
P -17.704497 2.951976 8.851021
P -14.752520 2.951976 5.899045
P -14.752520 0.000000 8.851021
P -14.752520 2.951976 11.802998
P -14.752520 5.903953 -2.956884
P -17.704497 5.903953 -0.004908
P -17.704497 8.855929 2.947069
P -14.752520 8.855929 -0.004908
P -14.752520 5.903953 2.947069
P -17.704497 5.903953 5.899045
P -17.704497 8.855929 8.851021
P -14.752520 8.855929 5.899045
P -14.752520 5.903953 8.851021
P -17.704497 5.903953 11.802998
P -17.704497 8.855929 14.754974
P -14.752520 8.855929 11.802998
P -14.752520 5.903953 14.754974
P -14.752520 8.855929 17.706951
P -14.752520 11.807906 2.947069
P -17.704497 11.807906 5.899045
P -17.704497 14.759882 8.851021
P -14.752520 14.759882 5.899045
P -14.752520 11.807906 8.851021
P -17.704497 11.807906 11.802998
P -17.704497 14.759882 14.754974
P -14.752520 14.759882 11.802998
P -14.752520 11.807906 14.754974
P -17.704497 11.807906 17.706951
P -14.752520 14.759882 17.706951
P -14.752520 11.807906 20.658927
P -14.752520 14.759882 23.610903
P -14.752520 17.711858 8.851021
P -17.704497 17.711858 11.802998
P -17.704497 20.663835 14.754974
P -14.752520 20.663835 11.802998
P -14.752520 17.711858 14.754974
P -11.800544 -20.663835 -14.764790
P -11.800544 -23.615811 -11.812813
P -11.800544 -20.663835 -8.860837
P -8.848568 -20.663835 -11.812813
P -8.848568 -23.615811 -8.860837
P -8.848568 -20.663835 -5.908860
P -11.800544 -14.759882 -20.668742
P -11.800544 -17.711858 -17.716766
P -11.800544 -14.759882 -14.764790
P -8.848568 -14.759882 -17.716766
P -8.848568 -17.711858 -14.764790
P -11.800544 -17.711858 -11.812813
P -11.800544 -14.759882 -8.860837
P -8.848568 -14.759882 -11.812813
P -8.848568 -17.711858 -8.860837
P -11.800544 -17.711858 -5.908860
P -11.800544 -14.759882 -2.956884
P -8.848568 -14.759882 -5.908860
P -8.848568 -17.711858 -2.956884
P -8.848568 -14.759882 -0.004908
P -11.800544 -11.807906 -23.620719
P -11.800544 -8.855929 -20.668742
P -8.848568 -8.855929 -23.620719
P -8.848568 -11.807906 -20.668742
P -11.800544 -11.807906 -17.716766
P -11.800544 -8.855929 -14.764790
P -8.848568 -8.855929 -17.716766
P -8.848568 -11.807906 -14.764790
P -11.800544 -11.807906 -11.812813
P -11.800544 -8.855929 -8.860837
P -8.848568 -8.855929 -11.812813
P -8.848568 -11.807906 -8.860837
P -11.800544 -11.807906 -5.908860
P -11.800544 -8.855929 -2.956884
P -8.848568 -8.855929 -5.908860
P -8.848568 -11.807906 -2.956884
P -11.800544 -11.807906 -0.004908
P -11.800544 -8.855929 2.947069
P -8.848568 -8.855929 -0.004908
P -8.848568 -11.807906 2.947069
P -8.848568 -8.855929 5.899045
P -8.848568 -5.903953 -20.668742
P -11.800544 -5.903953 -17.716766
P -11.800544 -2.951976 -14.764790
P -8.848568 -2.951976 -17.716766
P -8.848568 -5.903953 -14.764790
P -11.800544 -5.903953 -11.812813
P -11.800544 -2.951976 -8.860837
P -8.848568 -2.951976 -11.812813
P -8.848568 -5.903953 -8.860837
P -11.800544 -5.903953 -5.908860
P -11.800544 -2.951976 -2.956884
P -8.848568 -2.951976 -5.908860
P -8.848568 -5.903953 -2.956884
P -11.800544 -5.903953 -0.004908
P -11.800544 -2.951976 2.947069
P -8.848568 -2.951976 -0.004908
P -8.848568 -5.903953 2.947069
P -11.800544 -5.903953 5.899045
P -11.800544 -2.951976 8.851021
P -8.848568 -2.951976 5.899045
P -8.848568 -5.903953 8.851021
P -8.848568 -2.951976 11.802998
P -8.848568 0.000000 -14.764790
P -11.800544 0.000000 -11.812813
P -11.800544 2.951976 -8.860837
P -8.848568 2.951976 -11.812813
P -8.848568 0.000000 -8.860837
P -11.800544 0.000000 -5.908860
P -11.800544 2.951976 -2.956884
P -8.848568 2.951976 -5.908860
P -8.848568 0.000000 -2.956884
P -11.800544 0.000000 -0.004908
P -11.800544 2.951976 2.947069
P -8.848568 2.951976 -0.004908
P -8.848568 0.000000 2.947069
P -11.800544 0.000000 5.899045
P -11.800544 2.951976 8.851021
P -8.848568 2.951976 5.899045
P -8.848568 0.000000 8.851021
P -11.800544 0.000000 11.802998
P -11.800544 2.951976 14.754974
P -8.848568 2.951976 11.802998
P -8.848568 0.000000 14.754974
P -8.848568 2.951976 17.706951
P -8.848568 5.903953 -8.860837
P -11.800544 5.903953 -5.908860
P -11.800544 8.855929 -2.956884
P -8.848568 8.855929 -5.908860
P -8.848568 5.903953 -2.956884
P -11.800544 5.903953 -0.004908
P -11.800544 8.855929 2.947069
P -8.848568 8.855929 -0.004908
P -8.848568 5.903953 2.947069
P -11.800544 5.903953 5.899045
P -11.800544 8.855929 8.851021
P -8.848568 8.855929 5.899045
P -8.848568 5.903953 8.851021
P -11.800544 5.903953 11.802998
P -11.800544 8.855929 14.754974
P -8.848568 8.855929 11.802998
P -8.848568 5.903953 14.754974
P -11.800544 5.903953 17.706951
P -11.800544 8.855929 20.658927
P -8.848568 8.855929 17.706951
P -8.848568 5.903953 20.658927
P -8.848568 8.855929 23.610903
P -8.848568 11.807906 -2.956884
P -11.800544 11.807906 -0.004908
P -11.800544 14.759882 2.947069
P -8.848568 14.759882 -0.004908
P -8.848568 11.807906 2.947069
P -11.800544 11.807906 5.899045
P -11.800544 14.759882 8.851021
P -8.848568 14.759882 5.899045
P -8.848568 11.807906 8.851021
P -11.800544 11.807906 11.802998
P -11.800544 14.759882 14.754974
P -8.848568 14.759882 11.802998
P -8.848568 11.807906 14.754974
P -11.800544 11.807906 17.706951
P -11.800544 14.759882 20.658927
P -8.848568 14.759882 17.706951
P -8.848568 11.807906 20.658927
P -11.800544 11.807906 23.610903
P -8.848568 17.711858 2.947069
P -11.800544 17.711858 5.899045
P -11.800544 20.663835 8.851021
P -8.848568 20.663835 5.899045
P -8.848568 17.711858 8.851021
P -11.800544 17.711858 11.802998
P -11.800544 20.663835 14.754974
P -8.848568 20.663835 11.802998
P -8.848568 17.711858 14.754974
P -11.800544 17.711858 17.706951
P -8.848568 23.615811 8.851021
P -11.800544 23.615811 11.802998
P -5.896591 -20.663835 -8.860837
P -5.896591 -23.615811 -5.908860
P -5.896591 -20.663835 -2.956884
P -2.944615 -20.663835 -5.908860
P -2.944615 -23.615811 -2.956884
P -2.944615 -20.663835 -0.004908
P -5.896591 -14.759882 -14.764790
P -5.896591 -17.711858 -11.812813
P -5.896591 -14.759882 -8.860837
P -2.944615 -14.759882 -11.812813
P -2.944615 -17.711858 -8.860837
P -5.896591 -17.711858 -5.908860
P -5.896591 -14.759882 -2.956884
P -2.944615 -14.759882 -5.908860
P -2.944615 -17.711858 -2.956884
P -5.896591 -17.711858 -0.004908
P -5.896591 -14.759882 2.947069
P -2.944615 -14.759882 -0.004908
P -2.944615 -17.711858 2.947069
P -2.944615 -14.759882 5.899045
P -5.896591 -8.855929 -20.668742
P -5.896591 -11.807906 -17.716766
P -5.896591 -8.855929 -14.764790
P -2.944615 -8.855929 -17.716766
P -2.944615 -11.807906 -14.764790
P -5.896591 -11.807906 -11.812813
P -5.896591 -8.855929 -8.860837
P -2.944615 -8.855929 -11.812813
P -2.944615 -11.807906 -8.860837
P -5.896591 -11.807906 -5.908860
P -5.896591 -8.855929 -2.956884
P -2.944615 -8.855929 -5.908860
P -2.944615 -11.807906 -2.956884
P -5.896591 -11.807906 -0.004908
P -5.896591 -8.855929 2.947069
P -2.944615 -8.855929 -0.004908
P -2.944615 -11.807906 2.947069
P -5.896591 -11.807906 5.899045
P -5.896591 -8.855929 8.851021
P -2.944615 -8.855929 5.899045
P -2.944615 -11.807906 8.851021
P -2.944615 -8.855929 11.802998
P -5.896591 -5.903953 -23.620719
P -5.896591 -2.951976 -20.668742
P -2.944615 -2.951976 -23.620719
P -2.944615 -5.903953 -20.668742
P -5.896591 -5.903953 -17.716766
P -5.896591 -2.951976 -14.764790
P -2.944615 -2.951976 -17.716766
P -2.944615 -5.903953 -14.764790
P -5.896591 -5.903953 -11.812813
P -5.896591 -2.951976 -8.860837
P -2.944615 -2.951976 -11.812813
P -2.944615 -5.903953 -8.860837
P -5.896591 -5.903953 -5.908860
P -5.896591 -2.951976 -2.956884
P -2.944615 -2.951976 -5.908860
P -2.944615 -5.903953 -2.956884
P -5.896591 -5.903953 -0.004908
P -5.896591 -2.951976 2.947069
P -2.944615 -2.951976 -0.004908
P -2.944615 -5.903953 2.947069
P -5.896591 -5.903953 5.899045
P -5.896591 -2.951976 8.851021
P -2.944615 -2.951976 5.899045
P -2.944615 -5.903953 8.851021
P -5.896591 -5.903953 11.802998
P -5.896591 -2.951976 14.754974
P -2.944615 -2.951976 11.802998
P -2.944615 -5.903953 14.754974
P -2.944615 -2.951976 17.706951
P -2.944615 0.000000 -20.668742
P -5.896591 0.000000 -17.716766
P -5.896591 2.951976 -14.764790
P -2.944615 2.951976 -17.716766
P -2.944615 0.000000 -14.764790
P -5.896591 0.000000 -11.812813
P -5.896591 2.951976 -8.860837
P -2.944615 2.951976 -11.812813
P -2.944615 0.000000 -8.860837
P -5.896591 0.000000 -5.908860
P -5.896591 2.951976 -2.956884
P -2.944615 2.951976 -5.908860
P -2.944615 0.000000 -2.956884
P -5.896591 0.000000 -0.004908
P -5.896591 2.951976 2.947069
P -2.944615 2.951976 -0.004908
P -2.944615 0.000000 2.947069
P -5.896591 0.000000 5.899045
P -5.896591 2.951976 8.851021
P -2.944615 2.951976 5.899045
P -2.944615 0.000000 8.851021
P -5.896591 0.000000 11.802998
P -5.896591 2.951976 14.754974
P -2.944615 2.951976 11.802998
P -2.944615 0.000000 14.754974
P -5.896591 0.000000 17.706951
P -5.896591 2.951976 20.658927
P -2.944615 2.951976 17.706951
P -2.944615 0.000000 20.658927
P -2.944615 2.951976 23.610903
P -2.944615 5.903953 -14.764790
P -5.896591 5.903953 -11.812813
P -5.896591 8.855929 -8.860837
P -2.944615 8.855929 -11.812813
P -2.944615 5.903953 -8.860837
P -5.896591 5.903953 -5.908860
P -5.896591 8.855929 -2.956884
P -2.944615 8.855929 -5.908860
P -2.944615 5.903953 -2.956884
P -5.896591 5.903953 -0.004908
P -5.896591 8.855929 2.947069
P -2.944615 8.855929 -0.004908
P -2.944615 5.903953 2.947069
P -5.896591 5.903953 5.899045
P -5.896591 8.855929 8.851021
P -2.944615 8.855929 5.899045
P -2.944615 5.903953 8.851021
P -5.896591 5.903953 11.802998
P -5.896591 8.855929 14.754974
P -2.944615 8.855929 11.802998
P -2.944615 5.903953 14.754974
P -5.896591 5.903953 17.706951
P -5.896591 8.855929 20.658927
P -2.944615 8.855929 17.706951
P -2.944615 5.903953 20.658927
P -5.896591 5.903953 23.610903
P -2.944615 11.807906 -8.860837
P -5.896591 11.807906 -5.908860
P -5.896591 14.759882 -2.956884
P -2.944615 14.759882 -5.908860
P -2.944615 11.807906 -2.956884
P -5.896591 11.807906 -0.004908
P -5.896591 14.759882 2.947069
P -2.944615 14.759882 -0.004908
P -2.944615 11.807906 2.947069
P -5.896591 11.807906 5.899045
P -5.896591 14.759882 8.851021
P -2.944615 14.759882 5.899045
P -2.944615 11.807906 8.851021
P -5.896591 11.807906 11.802998
P -5.896591 14.759882 14.754974
P -2.944615 14.759882 11.802998
P -2.944615 11.807906 14.754974
P -5.896591 11.807906 17.706951
P -2.944615 17.711858 -2.956884
P -5.896591 17.711858 -0.004908
P -5.896591 20.663835 2.947069
P -2.944615 20.663835 -0.004908
P -2.944615 17.711858 2.947069
P -5.896591 17.711858 5.899045
P -5.896591 20.663835 8.851021
P -2.944615 20.663835 5.899045
P -2.944615 17.711858 8.851021
P -5.896591 17.711858 11.802998
P -2.944615 23.615811 2.947069
P -5.896591 23.615811 5.899045
P 0.007362 -20.663835 -2.956884
P 0.007362 -23.615811 -0.004908
P 0.007362 -20.663835 2.947069
P 2.959338 -20.663835 -0.004908
P 2.959338 -23.615811 2.947069
P 2.959338 -20.663835 5.899045
P 0.007362 -14.759882 -8.860837
P 0.007362 -17.711858 -5.908860
P 0.007362 -14.759882 -2.956884
P 2.959338 -14.759882 -5.908860
P 2.959338 -17.711858 -2.956884
P 0.007362 -17.711858 -0.004908
P 0.007362 -14.759882 2.947069
P 2.959338 -14.759882 -0.004908
P 2.959338 -17.711858 2.947069
P 0.007362 -17.711858 5.899045
P 0.007362 -14.759882 8.851021
P 2.959338 -14.759882 5.899045
P 2.959338 -17.711858 8.851021
P 2.959338 -14.759882 11.802998
P 0.007362 -8.855929 -14.764790
P 0.007362 -11.807906 -11.812813
P 0.007362 -8.855929 -8.860837
P 2.959338 -8.855929 -11.812813
P 2.959338 -11.807906 -8.860837
P 0.007362 -11.807906 -5.908860
P 0.007362 -8.855929 -2.956884
P 2.959338 -8.855929 -5.908860
P 2.959338 -11.807906 -2.956884
P 0.007362 -11.807906 -0.004908
P 0.007362 -8.855929 2.947069
P 2.959338 -8.855929 -0.004908
P 2.959338 -11.807906 2.947069
P 0.007362 -11.807906 5.899045
P 0.007362 -8.855929 8.851021
P 2.959338 -8.855929 5.899045
P 2.959338 -11.807906 8.851021
P 0.007362 -11.807906 11.802998
P 0.007362 -8.855929 14.754974
P 2.959338 -8.855929 11.802998
P 2.959338 -11.807906 14.754974
P 2.959338 -8.855929 17.706951
P 0.007362 -2.951976 -20.668742
P 0.007362 -5.903953 -17.716766
P 0.007362 -2.951976 -14.764790
P 2.959338 -2.951976 -17.716766
P 2.959338 -5.903953 -14.764790
P 0.007362 -5.903953 -11.812813
P 0.007362 -2.951976 -8.860837
P 2.959338 -2.951976 -11.812813
P 2.959338 -5.903953 -8.860837
P 0.007362 -5.903953 -5.908860
P 0.007362 -2.951976 -2.956884
P 2.959338 -2.951976 -5.908860
P 2.959338 -5.903953 -2.956884
P 0.007362 -5.903953 -0.004908
P 0.007362 -2.951976 2.947069
P 2.959338 -2.951976 -0.004908
P 2.959338 -5.903953 2.947069
P 0.007362 -5.903953 5.899045
P 0.007362 -2.951976 8.851021
P 2.959338 -2.951976 5.899045
P 2.959338 -5.903953 8.851021
P 0.007362 -5.903953 11.802998
P 0.007362 -2.951976 14.754974
P 2.959338 -2.951976 11.802998
P 2.959338 -5.903953 14.754974
P 0.007362 -5.903953 17.706951
P 0.007362 -2.951976 20.658927
P 2.959338 -2.951976 17.706951
P 2.959338 -5.903953 20.658927
P 2.959338 -2.951976 23.610903
P 0.007362 0.000000 -23.620719
P 0.007362 2.951976 -20.668742
P 2.959338 2.951976 -23.620719
P 2.959338 0.000000 -20.668742
P 0.007362 0.000000 -17.716766
P 0.007362 2.951976 -14.764790
P 2.959338 2.951976 -17.716766
P 2.959338 0.000000 -14.764790
P 0.007362 0.000000 -11.812813
P 0.007362 2.951976 -8.860837
P 2.959338 2.951976 -11.812813
P 2.959338 0.000000 -8.860837
P 0.007362 0.000000 -5.908860
P 0.007362 2.951976 -2.956884
P 2.959338 2.951976 -5.908860
P 2.959338 0.000000 -2.956884
P 0.007362 0.000000 -0.004908
P 0.007362 2.951976 2.947069
P 2.959338 2.951976 -0.004908
P 2.959338 0.000000 2.947069
P 0.007362 0.000000 5.899045
P 0.007362 2.951976 8.851021
P 2.959338 2.951976 5.899045
P 2.959338 0.000000 8.851021
P 0.007362 0.000000 11.802998
P 0.007362 2.951976 14.754974
P 2.959338 2.951976 11.802998
P 2.959338 0.000000 14.754974
P 0.007362 0.000000 17.706951
P 0.007362 2.951976 20.658927
P 2.959338 2.951976 17.706951
P 2.959338 0.000000 20.658927
P 0.007362 0.000000 23.610903
P 2.959338 5.903953 -20.668742
P 0.007362 5.903953 -17.716766
P 0.007362 8.855929 -14.764790
P 2.959338 8.855929 -17.716766
P 2.959338 5.903953 -14.764790
P 0.007362 5.903953 -11.812813
P 0.007362 8.855929 -8.860837
P 2.959338 8.855929 -11.812813
P 2.959338 5.903953 -8.860837
P 0.007362 5.903953 -5.908860
P 0.007362 8.855929 -2.956884
P 2.959338 8.855929 -5.908860
P 2.959338 5.903953 -2.956884
P 0.007362 5.903953 -0.004908
P 0.007362 8.855929 2.947069
P 2.959338 8.855929 -0.004908
P 2.959338 5.903953 2.947069
P 0.007362 5.903953 5.899045
P 0.007362 8.855929 8.851021
P 2.959338 8.855929 5.899045
P 2.959338 5.903953 8.851021
P 0.007362 5.903953 11.802998
P 0.007362 8.855929 14.754974
P 2.959338 8.855929 11.802998
P 2.959338 5.903953 14.754974
P 0.007362 5.903953 17.706951
P 2.959338 11.807906 -14.764790
P 0.007362 11.807906 -11.812813
P 0.007362 14.759882 -8.860837
P 2.959338 14.759882 -11.812813
P 2.959338 11.807906 -8.860837
P 0.007362 11.807906 -5.908860
P 0.007362 14.759882 -2.956884
P 2.959338 14.759882 -5.908860
P 2.959338 11.807906 -2.956884
P 0.007362 11.807906 -0.004908
P 0.007362 14.759882 2.947069
P 2.959338 14.759882 -0.004908
P 2.959338 11.807906 2.947069
P 0.007362 11.807906 5.899045
P 0.007362 14.759882 8.851021
P 2.959338 14.759882 5.899045
P 2.959338 11.807906 8.851021
P 0.007362 11.807906 11.802998
P 2.959338 17.711858 -8.860837
P 0.007362 17.711858 -5.908860
P 0.007362 20.663835 -2.956884
P 2.959338 20.663835 -5.908860
P 2.959338 17.711858 -2.956884
P 0.007362 17.711858 -0.004908
P 0.007362 20.663835 2.947069
P 2.959338 20.663835 -0.004908
P 2.959338 17.711858 2.947069
P 0.007362 17.711858 5.899045
P 2.959338 23.615811 -2.956884
P 0.007362 23.615811 -0.004908
P 5.911314 -20.663835 2.947069
P 5.911314 -23.615811 5.899045
P 5.911314 -20.663835 8.851021
P 8.863291 -20.663835 5.899045
P 8.863291 -23.615811 8.851021
P 8.863291 -20.663835 11.802998
P 5.911314 -14.759882 -2.956884
P 5.911314 -17.711858 -0.004908
P 5.911314 -14.759882 2.947069
P 8.863291 -14.759882 -0.004908
P 8.863291 -17.711858 2.947069
P 5.911314 -17.711858 5.899045
P 5.911314 -14.759882 8.851021
P 8.863291 -14.759882 5.899045
P 8.863291 -17.711858 8.851021
P 5.911314 -17.711858 11.802998
P 5.911314 -14.759882 14.754974
P 8.863291 -14.759882 11.802998
P 8.863291 -17.711858 14.754974
P 8.863291 -14.759882 17.706951
P 5.911314 -8.855929 -8.860837
P 5.911314 -11.807906 -5.908860
P 5.911314 -8.855929 -2.956884
P 8.863291 -8.855929 -5.908860
P 8.863291 -11.807906 -2.956884
P 5.911314 -11.807906 -0.004908
P 5.911314 -8.855929 2.947069
P 8.863291 -8.855929 -0.004908
P 8.863291 -11.807906 2.947069
P 5.911314 -11.807906 5.899045
P 5.911314 -8.855929 8.851021
P 8.863291 -8.855929 5.899045
P 8.863291 -11.807906 8.851021
P 5.911314 -11.807906 11.802998
P 5.911314 -8.855929 14.754974
P 8.863291 -8.855929 11.802998
P 8.863291 -11.807906 14.754974
P 5.911314 -11.807906 17.706951
P 5.911314 -8.855929 20.658927
P 8.863291 -8.855929 17.706951
P 8.863291 -11.807906 20.658927
P 8.863291 -8.855929 23.610903
P 5.911314 -2.951976 -14.764790
P 5.911314 -5.903953 -11.812813
P 5.911314 -2.951976 -8.860837
P 8.863291 -2.951976 -11.812813
P 8.863291 -5.903953 -8.860837
P 5.911314 -5.903953 -5.908860
P 5.911314 -2.951976 -2.956884
P 8.863291 -2.951976 -5.908860
P 8.863291 -5.903953 -2.956884
P 5.911314 -5.903953 -0.004908
P 5.911314 -2.951976 2.947069
P 8.863291 -2.951976 -0.004908
P 8.863291 -5.903953 2.947069
P 5.911314 -5.903953 5.899045
P 5.911314 -2.951976 8.851021
P 8.863291 -2.951976 5.899045
P 8.863291 -5.903953 8.851021
P 5.911314 -5.903953 11.802998
P 5.911314 -2.951976 14.754974
P 8.863291 -2.951976 11.802998
P 8.863291 -5.903953 14.754974
P 5.911314 -5.903953 17.706951
P 5.911314 -2.951976 20.658927
P 8.863291 -2.951976 17.706951
P 8.863291 -5.903953 20.658927
P 5.911314 -5.903953 23.610903
P 5.911314 2.951976 -20.668742
P 5.911314 0.000000 -17.716766
P 5.911314 2.951976 -14.764790
P 8.863291 2.951976 -17.716766
P 8.863291 0.000000 -14.764790
P 5.911314 0.000000 -11.812813
P 5.911314 2.951976 -8.860837
P 8.863291 2.951976 -11.812813
P 8.863291 0.000000 -8.860837
P 5.911314 0.000000 -5.908860
P 5.911314 2.951976 -2.956884
P 8.863291 2.951976 -5.908860
P 8.863291 0.000000 -2.956884
P 5.911314 0.000000 -0.004908
P 5.911314 2.951976 2.947069
P 8.863291 2.951976 -0.004908
P 8.863291 0.000000 2.947069
P 5.911314 0.000000 5.899045
P 5.911314 2.951976 8.851021
P 8.863291 2.951976 5.899045
P 8.863291 0.000000 8.851021
P 5.911314 0.000000 11.802998
P 5.911314 2.951976 14.754974
P 8.863291 2.951976 11.802998
P 8.863291 0.000000 14.754974
P 5.911314 0.000000 17.706951
P 5.911314 5.903953 -23.620719
P 5.911314 8.855929 -20.668742
P 8.863291 8.855929 -23.620719
P 8.863291 5.903953 -20.668742
P 5.911314 5.903953 -17.716766
P 5.911314 8.855929 -14.764790
P 8.863291 8.855929 -17.716766
P 8.863291 5.903953 -14.764790
P 5.911314 5.903953 -11.812813
P 5.911314 8.855929 -8.860837
P 8.863291 8.855929 -11.812813
P 8.863291 5.903953 -8.860837
P 5.911314 5.903953 -5.908860
P 5.911314 8.855929 -2.956884
P 8.863291 8.855929 -5.908860
P 8.863291 5.903953 -2.956884
P 5.911314 5.903953 -0.004908
P 5.911314 8.855929 2.947069
P 8.863291 8.855929 -0.004908
P 8.863291 5.903953 2.947069
P 5.911314 5.903953 5.899045
P 5.911314 8.855929 8.851021
P 8.863291 8.855929 5.899045
P 8.863291 5.903953 8.851021
P 5.911314 5.903953 11.802998
P 8.863291 11.807906 -20.668742
P 5.911314 11.807906 -17.716766
P 5.911314 14.759882 -14.764790
P 8.863291 14.759882 -17.716766
P 8.863291 11.807906 -14.764790
P 5.911314 11.807906 -11.812813
P 5.911314 14.759882 -8.860837
P 8.863291 14.759882 -11.812813
P 8.863291 11.807906 -8.860837
P 5.911314 11.807906 -5.908860
P 5.911314 14.759882 -2.956884
P 8.863291 14.759882 -5.908860
P 8.863291 11.807906 -2.956884
P 5.911314 11.807906 -0.004908
P 5.911314 14.759882 2.947069
P 8.863291 14.759882 -0.004908
P 8.863291 11.807906 2.947069
P 5.911314 11.807906 5.899045
P 8.863291 17.711858 -14.764790
P 5.911314 17.711858 -11.812813
P 5.911314 20.663835 -8.860837
P 8.863291 20.663835 -11.812813
P 8.863291 17.711858 -8.860837
P 5.911314 17.711858 -5.908860
P 5.911314 20.663835 -2.956884
P 8.863291 20.663835 -5.908860
P 8.863291 17.711858 -2.956884
P 5.911314 17.711858 -0.004908
P 8.863291 23.615811 -8.860837
P 5.911314 23.615811 -5.908860
P 11.815267 -20.663835 8.851021
P 11.815267 -23.615811 11.802998
P 11.815267 -20.663835 14.754974
P 14.767243 -20.663835 11.802998
P 11.815267 -14.759882 2.947069
P 11.815267 -17.711858 5.899045
P 11.815267 -14.759882 8.851021
P 14.767243 -14.759882 5.899045
P 14.767243 -17.711858 8.851021
P 11.815267 -17.711858 11.802998
P 11.815267 -14.759882 14.754974
P 14.767243 -14.759882 11.802998
P 14.767243 -17.711858 14.754974
P 11.815267 -17.711858 17.706951
P 11.815267 -14.759882 20.658927
P 14.767243 -14.759882 17.706951
P 14.767243 -14.759882 23.610903
P 11.815267 -8.855929 -2.956884
P 11.815267 -11.807906 -0.004908
P 11.815267 -8.855929 2.947069
P 14.767243 -8.855929 -0.004908
P 14.767243 -11.807906 2.947069
P 11.815267 -11.807906 5.899045
P 11.815267 -8.855929 8.851021
P 14.767243 -8.855929 5.899045
P 14.767243 -11.807906 8.851021
P 11.815267 -11.807906 11.802998
P 11.815267 -8.855929 14.754974
P 14.767243 -8.855929 11.802998
P 14.767243 -11.807906 14.754974
P 11.815267 -11.807906 17.706951
P 11.815267 -8.855929 20.658927
P 14.767243 -8.855929 17.706951
P 14.767243 -11.807906 20.658927
P 11.815267 -11.807906 23.610903
P 11.815267 -2.951976 -8.860837
P 11.815267 -5.903953 -5.908860
P 11.815267 -2.951976 -2.956884
P 14.767243 -2.951976 -5.908860
P 14.767243 -5.903953 -2.956884
P 11.815267 -5.903953 -0.004908
P 11.815267 -2.951976 2.947069
P 14.767243 -2.951976 -0.004908
P 14.767243 -5.903953 2.947069
P 11.815267 -5.903953 5.899045
P 11.815267 -2.951976 8.851021
P 14.767243 -2.951976 5.899045
P 14.767243 -5.903953 8.851021
P 11.815267 -5.903953 11.802998
P 11.815267 -2.951976 14.754974
P 14.767243 -2.951976 11.802998
P 14.767243 -5.903953 14.754974
P 11.815267 -5.903953 17.706951
P 11.815267 2.951976 -14.764790
P 11.815267 0.000000 -11.812813
P 11.815267 2.951976 -8.860837
P 14.767243 2.951976 -11.812813
P 14.767243 0.000000 -8.860837
P 11.815267 0.000000 -5.908860
P 11.815267 2.951976 -2.956884
P 14.767243 2.951976 -5.908860
P 14.767243 0.000000 -2.956884
P 11.815267 0.000000 -0.004908
P 11.815267 2.951976 2.947069
P 14.767243 2.951976 -0.004908
P 14.767243 0.000000 2.947069
P 11.815267 0.000000 5.899045
P 11.815267 2.951976 8.851021
P 14.767243 2.951976 5.899045
P 14.767243 0.000000 8.851021
P 11.815267 0.000000 11.802998
P 11.815267 8.855929 -20.668742
P 11.815267 5.903953 -17.716766
P 11.815267 8.855929 -14.764790
P 14.767243 8.855929 -17.716766
P 14.767243 5.903953 -14.764790
P 11.815267 5.903953 -11.812813
P 11.815267 8.855929 -8.860837
P 14.767243 8.855929 -11.812813
P 14.767243 5.903953 -8.860837
P 11.815267 5.903953 -5.908860
P 11.815267 8.855929 -2.956884
P 14.767243 8.855929 -5.908860
P 14.767243 5.903953 -2.956884
P 11.815267 5.903953 -0.004908
P 11.815267 8.855929 2.947069
P 14.767243 8.855929 -0.004908
P 14.767243 5.903953 2.947069
P 11.815267 5.903953 5.899045
P 11.815267 11.807906 -23.620719
P 11.815267 14.759882 -20.668742
P 14.767243 14.759882 -23.620719
P 14.767243 11.807906 -20.668742
P 11.815267 11.807906 -17.716766
P 11.815267 14.759882 -14.764790
P 14.767243 14.759882 -17.716766
P 14.767243 11.807906 -14.764790
P 11.815267 11.807906 -11.812813
P 11.815267 14.759882 -8.860837
P 14.767243 14.759882 -11.812813
P 14.767243 11.807906 -8.860837
P 11.815267 11.807906 -5.908860
P 11.815267 14.759882 -2.956884
P 14.767243 14.759882 -5.908860
P 14.767243 11.807906 -2.956884
P 11.815267 11.807906 -0.004908
P 11.815267 17.711858 -17.716766
P 11.815267 20.663835 -14.764790
P 14.767243 17.711858 -14.764790
P 11.815267 17.711858 -11.812813
P 11.815267 20.663835 -8.860837
P 14.767243 20.663835 -11.812813
P 14.767243 17.711858 -8.860837
P 11.815267 17.711858 -5.908860
P 11.815267 23.615811 -11.812813
P 17.719220 -20.663835 14.754974
P 17.719220 -14.759882 8.851021
P 17.719220 -17.711858 11.802998
P 17.719220 -14.759882 14.754974
P 20.671196 -14.759882 11.802998
P 17.719220 -8.855929 2.947069
P 17.719220 -11.807906 5.899045
P 17.719220 -8.855929 8.851021
P 20.671196 -8.855929 5.899045
P 20.671196 -11.807906 8.851021
P 17.719220 -11.807906 11.802998
P 17.719220 -8.855929 14.754974
P 20.671196 -8.855929 11.802998
P 20.671196 -11.807906 14.754974
P 17.719220 -11.807906 17.706951
P 17.719220 -2.951976 -2.956884
P 17.719220 -5.903953 -0.004908
P 17.719220 -2.951976 2.947069
P 20.671196 -2.951976 -0.004908
P 20.671196 -5.903953 2.947069
P 17.719220 -5.903953 5.899045
P 17.719220 -2.951976 8.851021
P 20.671196 -2.951976 5.899045
P 20.671196 -5.903953 8.851021
P 17.719220 -5.903953 11.802998
P 17.719220 2.951976 -8.860837
P 17.719220 0.000000 -5.908860
P 17.719220 2.951976 -2.956884
P 20.671196 2.951976 -5.908860
P 20.671196 0.000000 -2.956884
P 17.719220 0.000000 -0.004908
P 17.719220 2.951976 2.947069
P 20.671196 2.951976 -0.004908
P 20.671196 0.000000 2.947069
P 17.719220 0.000000 5.899045
P 17.719220 8.855929 -14.764790
P 17.719220 5.903953 -11.812813
P 17.719220 8.855929 -8.860837
P 20.671196 8.855929 -11.812813
P 20.671196 5.903953 -8.860837
P 17.719220 5.903953 -5.908860
P 17.719220 8.855929 -2.956884
P 20.671196 8.855929 -5.908860
P 20.671196 5.903953 -2.956884
P 17.719220 5.903953 -0.004908
P 17.719220 11.807906 -17.716766
P 17.719220 14.759882 -14.764790
P 20.671196 11.807906 -14.764790
P 17.719220 11.807906 -11.812813
P 17.719220 14.759882 -8.860837
P 20.671196 14.759882 -11.812813
P 20.671196 11.807906 -8.860837
P 17.719220 11.807906 -5.908860
P 17.719220 20.663835 -14.764790
P 17.719220 17.711858 -11.812813
P 23.623173 -14.759882 14.754974
P 23.623173 -8.855929 8.851021
P 23.623173 -11.807906 11.802998
P 23.623173 -2.951976 2.947069
P 23.623173 -5.903953 5.899045
P 23.623173 2.951976 -2.956884
P 23.623173 0.000000 -0.004908
P 23.623173 8.855929 -8.860837
P 23.623173 5.903953 -5.908860
P 23.623173 14.759882 -14.764790
P 23.623173 11.807906 -11.812813
Cl -20.656473 -14.759882 -17.716766
Cl -20.656473 -17.711858 -14.764790
Cl -20.656473 14.759882 17.706951
Cl -20.656473 17.711858 14.754974
Cl -14.752520 -20.663835 -17.716766
Cl -14.752520 -23.615811 -14.764790
Cl -17.704497 -14.759882 -20.668742
Cl -14.752520 -17.711858 -20.668742
Cl -17.704497 -17.711858 -17.716766
Cl -17.704497 14.759882 20.658927
Cl -17.704497 17.711858 17.706951
Cl -14.752520 20.663835 17.706951
Cl -14.752520 17.711858 20.658927
Cl -14.752520 23.615811 14.754974
Cl 14.767243 -23.615811 14.754974
Cl 14.767243 -20.663835 17.706951
Cl 14.767243 -17.711858 20.658927
Cl 14.767243 17.711858 -20.668742
Cl 14.767243 20.663835 -17.716766
Cl 14.767243 23.615811 -14.764790
Cl 20.671196 -17.711858 14.754974
Cl 17.719220 -17.711858 17.706951
Cl 17.719220 -14.759882 20.658927
Cl 20.671196 -14.759882 17.706951
Cl 17.719220 14.759882 -20.668742
Cl 20.671196 14.759882 -17.716766
Cl 17.719220 17.711858 -17.716766
Cl 20.671196 17.711858 -14.764790
Cl -26.560426 14.759882 11.802998
Cl -14.752520 -26.567787 -11.812813
Cl 14.767243 26.567787 -11.812813
Cl 26.575149 -14.759882 11.802998
Cl -11.800544 -14.759882 -26.572695
Cl -14.752520 11.807906 26.562880
Cl 14.767243 -11.807906 26.562880
Cl 11.815267 14.759882 -26.572695
Cl -26.560426 -11.807906 -14.764790
Cl -11.800544 26.567787 14.754974
Cl 11.815267 -26.567787 14.754974
Cl 26.575149 11.807906 -14.764790
Cl -26.560426 -5.903953 -2.956884
Cl -5.896591 26.567787 2.947069
Cl 5.911314 -26.567787 2.947069
Cl 26.575149 5.903953 -2.956884
Cl -26.560426 8.855929 11.802998
Cl -8.848568 -26.567787 -11.812813
Cl 8.863291 26.567787 -11.812813
Cl 26.575149 -8.855929 11.802998
Cl -11.800544 -8.855929 -26.572695
Cl -8.848568 11.807906 26.562880
Cl 8.863291 -11.807906 26.562880
Cl 11.815267 8.855929 -26.572695
Cl -26.560426 -11.807906 -8.860837
Cl -11.800544 26.567787 8.851021
Cl 11.815267 -26.567787 8.851021
Cl 26.575149 11.807906 -8.860837
Cl 0.007362 -2.951976 -26.572695
Cl 0.007362 2.951976 -26.572695
Cl 2.959338 0.000000 26.562880
Cl -2.944615 0.000000 26.562880
Cl -26.560426 8.855929 5.899045
Cl -8.848568 -26.567787 -5.908860
Cl 8.863291 26.567787 -5.908860
Cl 26.575149 -8.855929 5.899045
Cl -26.560426 2.951976 5.899045
Cl -2.944615 -26.567787 -5.908860
Cl 2.959338 26.567787 -5.908860
Cl 26.575149 -2.951976 5.899045
Cl -5.896591 -8.855929 -26.572695
Cl -8.848568 5.903953 26.562880
Cl 8.863291 -5.903953 26.562880
Cl 5.911314 8.855929 -26.572695
Cl -26.560426 -2.951976 -0.004908
Cl 2.959338 -26.567787 -0.004908
Cl -2.944615 26.567787 -0.004908
Cl 26.575149 2.951976 -0.004908
Cl -5.896591 -2.951976 -26.572695
Cl -2.944615 5.903953 26.562880
Cl 2.959338 -5.903953 26.562880
Cl 5.911314 2.951976 -26.572695
Cl -26.560426 -5.903953 -8.860837
Cl -5.896591 26.567787 8.851021
Cl 5.911314 -26.567787 8.851021
Cl 26.575149 5.903953 -8.860837
Cl -26.560426 2.951976 -0.004908
Cl -2.944615 -26.567787 -0.004908
Cl 2.959338 26.567787 -0.004908
Cl 26.575149 -2.951976 -0.004908
Cl -11.800544 8.855929 -8.860837
Cl -8.848568 -11.807906 8.851021
Cl 8.863291 11.807906 8.851021
Cl 11.815267 -8.855929 -8.860837
Cl -14.752520 0.000000 14.754974
Cl 14.767243 0.000000 14.754974
Cl 0.007362 -14.759882 -14.764790
Cl 0.007362 14.759882 -14.764790
Cl -14.752520 0.000000 -14.764790
Cl 0.007362 -14.759882 14.754974
Cl 0.007362 14.759882 14.754974
Cl 14.767243 0.000000 -14.764790
Cl -14.752520 -14.759882 -0.004908
Cl -14.752520 14.759882 -0.004908
Cl 14.767243 -14.759882 -0.004908
Cl 14.767243 14.759882 -0.004908
Cl -5.896591 -5.903953 17.706951
Cl -5.896591 5.903953 -17.716766
Cl 5.911314 -5.903953 -17.716766
Cl 5.911314 5.903953 17.706951
Cl -17.704497 -5.903953 5.899045
Cl -5.896591 17.711858 -5.908860
Cl 5.911314 -17.711858 -5.908860
Cl 17.719220 5.903953 5.899045
Cl -20.656473 -11.807906 -20.668742
Cl -11.800544 20.663835 20.658927
Cl 11.815267 -20.663835 20.658927
Cl 20.671196 11.807906 -20.668742
Cl -20.656473 -20.663835 -11.812813
Cl -20.656473 20.663835 11.802998
Cl 20.671196 -20.663835 11.802998
Cl 20.671196 20.663835 -11.812813
Cl -20.656473 11.807906 20.658927
Cl -11.800544 -20.663835 -20.668742
Cl 11.815267 20.663835 -20.668742
Cl 20.671196 -11.807906 20.658927
Cl -20.656473 2.951976 -5.908860
Cl -2.944615 -20.663835 5.899045
Cl 2.959338 20.663835 5.899045
Cl 20.671196 -2.951976 -5.908860
Cl -20.656473 14.759882 5.899045
Cl -14.752520 -20.663835 -5.908860
Cl 14.767243 20.663835 -5.908860
Cl 20.671196 -14.759882 5.899045
Cl -14.752520 5.903953 20.658927
Cl 14.767243 -5.903953 20.658927
Cl -5.896591 -14.759882 -20.668742
Cl 5.911314 14.759882 -20.668742
Cl -20.656473 -5.903953 -14.764790
Cl -5.896591 20.663835 14.754974
Cl 5.911314 -20.663835 14.754974
Cl 20.671196 5.903953 -14.764790
Cl -20.656473 8.855929 -0.004908
Cl -8.848568 -20.663835 -0.004908
Cl 8.863291 20.663835 -0.004908
Cl 20.671196 -8.855929 -0.004908
Cl -20.656473 2.951976 11.802998
Cl -2.944615 -20.663835 -11.812813
Cl 2.959338 20.663835 -11.812813
Cl 20.671196 -2.951976 11.802998
Cl -11.800544 -2.951976 -20.668742
Cl -2.944615 11.807906 20.658927
Cl 2.959338 -11.807906 20.658927
Cl 11.815267 2.951976 -20.668742
Cl -20.656473 -11.807906 -2.956884
Cl -11.800544 20.663835 2.947069
Cl 11.815267 -20.663835 2.947069
Cl 20.671196 11.807906 -2.956884
Cl -8.848568 0.000000 20.658927
Cl 0.007362 -8.855929 -20.668742
Cl 0.007362 8.855929 -20.668742
Cl 8.863291 0.000000 20.658927
Cl -11.800544 -5.903953 11.802998
Cl -5.896591 11.807906 -11.812813
Cl 5.911314 -11.807906 -11.812813
Cl 11.815267 5.903953 11.802998
Cl -14.752520 -11.807906 -26.572695
Cl -11.800544 14.759882 26.562880
Cl 11.815267 -14.759882 26.562880
Cl 14.767243 11.807906 -26.572695
Cl -26.560426 11.807906 14.754974
Cl -11.800544 -26.567787 -14.764790
Cl 11.815267 26.567787 -14.764790
Cl 26.575149 -11.807906 14.754974
Cl -26.560426 -14.759882 -11.812813
Cl -14.752520 26.567787 11.802998
Cl 14.767243 -26.567787 11.802998
Cl 26.575149 14.759882 -11.812813
Cl -26.560426 -2.951976 -5.908860
Cl -2.944615 26.567787 5.899045
Cl 2.959338 -26.567787 5.899045
Cl 26.575149 2.951976 -5.908860
Cl -14.752520 5.903953 -8.860837
Cl -5.896591 -14.759882 8.851021
Cl 5.911314 14.759882 8.851021
Cl 14.767243 -5.903953 -8.860837
Cl -20.656473 -2.951976 5.899045
Cl 2.959338 -20.663835 -5.908860
Cl -2.944615 20.663835 -5.908860
Cl 20.671196 2.951976 5.899045
Cl -5.896591 2.951976 -20.668742
Cl -2.944615 -5.903953 20.658927
Cl 2.959338 5.903953 20.658927
Cl 5.911314 -2.951976 -20.668742
Cl -20.656473 -17.711858 -8.860837
Cl -17.704497 20.663835 8.851021
Cl 17.719220 -20.663835 8.851021
Cl 20.671196 17.711858 -8.860837
Cl -17.704497 -8.855929 -20.668742
Cl -8.848568 17.711858 20.658927
Cl 8.863291 -17.711858 20.658927
Cl 17.719220 8.855929 -20.668742
Cl -20.656473 8.855929 17.706951
Cl -8.848568 -20.663835 -17.716766
Cl 8.863291 20.663835 -17.716766
Cl 20.671196 -8.855929 17.706951
Cl -14.752520 -11.807906 2.947069
Cl -11.800544 14.759882 -2.956884
Cl 11.815267 -14.759882 -2.956884
Cl 14.767243 11.807906 2.947069
Cl -20.656473 0.000000 -8.860837
Cl 0.007362 -20.663835 8.851021
Cl 0.007362 20.663835 8.851021
Cl 20.671196 0.000000 -8.860837
Cl -11.800544 2.951976 -14.764790
Cl -2.944615 -11.807906 14.754974
Cl 2.959338 11.807906 14.754974
Cl 11.815267 -2.951976 -14.764790
Cl -20.656473 -8.855929 -0.004908
Cl -8.848568 20.663835 -0.004908
Cl 8.863291 -20.663835 -0.004908
Cl 20.671196 8.855929 -0.004908
Cl -17.704497 8.855929 -2.956884
Cl -8.848568 -17.711858 2.947069
Cl 8.863291 17.711858 2.947069
Cl 17.719220 -8.855929 -2.956884
Cl -8.848568 -11.807906 -26.572695
Cl -11.800544 8.855929 26.562880
Cl 11.815267 -8.855929 26.562880
Cl 8.863291 11.807906 -26.572695
Cl -26.560426 11.807906 8.851021
Cl -11.800544 -26.567787 -8.860837
Cl 11.815267 26.567787 -8.860837
Cl 26.575149 -11.807906 8.851021
Cl -2.944615 0.000000 -26.572695
Cl 2.959338 0.000000 -26.572695
Cl 0.007362 -2.951976 26.562880
Cl 0.007362 2.951976 26.562880
Cl -26.560426 -8.855929 -11.812813
Cl -8.848568 26.567787 11.802998
Cl 8.863291 -26.567787 11.802998
Cl 26.575149 8.855929 -11.812813
Cl -26.560426 5.903953 8.851021
Cl -5.896591 -26.567787 -8.860837
Cl 5.911314 26.567787 -8.860837
Cl 26.575149 -5.903953 8.851021
Cl -26.560426 5.903953 2.947069
Cl -5.896591 -26.567787 -2.956884
Cl 5.911314 26.567787 -2.956884
Cl 26.575149 -5.903953 2.947069
Cl -8.848568 -5.903953 -26.572695
Cl -5.896591 8.855929 26.562880
Cl 5.911314 -8.855929 26.562880
Cl 8.863291 5.903953 -26.572695
Cl -2.944615 -5.903953 -26.572695
Cl -5.896591 2.951976 26.562880
Cl 5.911314 -2.951976 26.562880
Cl 2.959338 5.903953 -26.572695
Cl -26.560426 0.000000 2.947069
Cl 0.007362 -26.567787 -2.956884
Cl 0.007362 26.567787 -2.956884
Cl 26.575149 0.000000 2.947069
Cl -17.704497 11.807906 23.610903
Cl -11.800544 -17.711858 -23.620719
Cl 11.815267 17.711858 -23.620719
Cl 17.719220 -11.807906 23.610903
Cl -23.608450 17.711858 11.802998
Cl -17.704497 -23.615811 -11.812813
Cl 17.719220 23.615811 -11.812813
Cl 23.623173 -17.711858 11.802998
Cl -23.608450 -11.807906 -17.716766
Cl -11.800544 23.615811 17.706951
Cl 11.815267 -23.615811 17.706951
Cl 23.623173 11.807906 -17.716766
Cl -26.560426 -8.855929 -5.908860
Cl -8.848568 26.567787 5.899045
Cl 8.863291 -26.567787 5.899045
Cl 26.575149 8.855929 -5.908860
Cl -26.560426 0.000000 -2.956884
Cl 0.007362 -26.567787 2.947069
Cl 0.007362 26.567787 2.947069
Cl 26.575149 0.000000 -2.956884
Cl -14.752520 -2.951976 11.802998
Cl 2.959338 -14.759882 -11.812813
Cl -2.944615 14.759882 -11.812813
Cl 14.767243 2.951976 11.802998
Cl -14.752520 2.951976 17.706951
Cl -2.944615 -14.759882 -17.716766
Cl 2.959338 14.759882 -17.716766
Cl 14.767243 -2.951976 17.706951
Cl -17.704497 -2.951976 -14.764790
Cl -2.944615 17.711858 14.754974
Cl 2.959338 -17.711858 14.754974
Cl 17.719220 2.951976 -14.764790
Cl -17.704497 14.759882 2.947069
Cl -14.752520 -17.711858 -2.956884
Cl 14.767243 17.711858 -2.956884
Cl 17.719220 -14.759882 2.947069
Cl -8.848568 -5.903953 14.754974
Cl -5.896591 8.855929 -14.764790
Cl 5.911314 -8.855929 -14.764790
Cl 8.863291 5.903953 14.754974
Cl -14.752520 -5.903953 -20.668742
Cl -5.896591 14.759882 20.658927
Cl 5.911314 -14.759882 20.658927
Cl 14.767243 5.903953 -20.668742
Cl -20.656473 5.903953 14.754974
Cl -5.896591 -20.663835 -14.764790
Cl 5.911314 20.663835 -14.764790
Cl 20.671196 -5.903953 14.754974
Cl -20.656473 -14.759882 -5.908860
Cl -14.752520 20.663835 5.899045
Cl 14.767243 -20.663835 5.899045
Cl 20.671196 14.759882 -5.908860
Cl -14.752520 -8.855929 5.899045
Cl -8.848568 14.759882 -5.908860
Cl 8.863291 -14.759882 -5.908860
Cl 14.767243 8.855929 5.899045
Cl -8.848568 0.000000 -20.668742
Cl 0.007362 -8.855929 20.658927
Cl 0.007362 8.855929 20.658927
Cl 8.863291 0.000000 -20.668742
Cl -20.656473 0.000000 8.851021
Cl 0.007362 -20.663835 -8.860837
Cl 0.007362 20.663835 -8.860837
Cl 20.671196 0.000000 8.851021
Cl -17.704497 -11.807906 -23.620719
Cl -11.800544 17.711858 23.610903
Cl 11.815267 -17.711858 23.610903
Cl 17.719220 11.807906 -23.620719
Cl -23.608450 -17.711858 -11.812813
Cl -17.704497 23.615811 11.802998
Cl 17.719220 -23.615811 11.802998
Cl 23.623173 17.711858 -11.812813
Cl -23.608450 11.807906 17.706951
Cl -11.800544 -23.615811 -17.716766
Cl 11.815267 23.615811 -17.716766
Cl 23.623173 -11.807906 17.706951
Cl -2.944615 -8.855929 -23.620719
Cl -8.848568 2.951976 23.610903
Cl 8.863291 -2.951976 23.610903
Cl 2.959338 8.855929 -23.620719
Cl -23.608450 8.855929 2.947069
Cl -8.848568 -23.615811 -2.956884
Cl 8.863291 23.615811 -2.956884
Cl 23.623173 -8.855929 2.947069
Cl -23.608450 -5.903953 -11.812813
Cl -5.896591 23.615811 11.802998
Cl 5.911314 -23.615811 11.802998
Cl 23.623173 5.903953 -11.812813
Cl -17.704497 2.951976 -8.860837
Cl -2.944615 -17.711858 8.851021
Cl 2.959338 17.711858 8.851021
Cl 17.719220 -2.951976 -8.860837
Cl -23.608450 -5.903953 -0.004908
Cl -5.896591 23.615811 -0.004908
Cl 5.911314 -23.615811 -0.004908
Cl 23.623173 5.903953 -0.004908
Cl 2.959338 -2.951976 -23.620719
Cl -2.944615 2.951976 -23.620719
Cl -2.944615 -2.951976 23.610903
Cl 2.959338 2.951976 23.610903
Cl -23.608450 2.951976 -2.956884
Cl -2.944615 -23.615811 2.947069
Cl 2.959338 23.615811 2.947069
Cl 23.623173 -2.951976 -2.956884
Cl -8.848568 -8.855929 11.802998
Cl -8.848568 8.855929 -11.812813
Cl 8.863291 -8.855929 -11.812813
Cl 8.863291 8.855929 11.802998
Cl -11.800544 -14.759882 2.947069
Cl -14.752520 11.807906 -2.956884
Cl 14.767243 -11.807906 -2.956884
Cl 11.815267 14.759882 2.947069
Cl -11.800544 0.000000 17.706951
Cl 0.007362 -11.807906 -17.716766
Cl 0.007362 11.807906 -17.716766
Cl 11.815267 0.000000 17.706951
Cl -23.608450 14.759882 8.851021
Cl -14.752520 -23.615811 -8.860837
Cl 14.767243 23.615811 -8.860837
Cl 23.623173 -14.759882 8.851021
Cl -14.752520 8.855929 23.610903
Cl 14.767243 -8.855929 23.610903
Cl -8.848568 -17.711858 -20.668742
Cl 8.863291 17.711858 -20.668742
Cl -23.608450 2.951976 8.851021
Cl 23.623173 -2.951976 8.851021
Cl -11.800544 -5.903953 -23.620719
Cl 11.815267 5.903953 -23.620719
Cl -5.896591 11.807906 23.610903
Cl 5.911314 -11.807906 23.610903
Cl -2.944615 -23.615811 -8.860837
Cl 2.959338 23.615811 -8.860837
Cl -23.608450 -11.807906 -5.908860
Cl 23.623173 11.807906 -5.908860
Cl -11.800544 23.615811 5.899045
Cl 11.815267 -23.615811 5.899045
Cl -20.656473 -8.855929 -17.716766
Cl 20.671196 8.855929 -17.716766
Cl -8.848568 20.663835 17.706951
Cl 8.863291 -20.663835 17.706951
Cl -23.608450 -2.951976 -8.860837
Cl 23.623173 2.951976 -8.860837
Cl -2.944615 23.615811 8.851021
Cl 2.959338 -23.615811 8.851021
Cl -5.896591 -11.807906 -23.620719
Cl 5.911314 11.807906 -23.620719
Cl -23.608450 -2.951976 2.947069
Cl 23.623173 2.951976 2.947069
Cl 2.959338 -23.615811 -2.956884
Cl -2.944615 23.615811 -2.956884
Cl -2.944615 -8.855929 17.706951
Cl 2.959338 8.855929 17.706951
Cl -11.800544 0.000000 -17.716766
Cl 11.815267 0.000000 -17.716766
Cl -17.704497 5.903953 17.706951
Cl 17.719220 -5.903953 17.706951
Cl -20.656473 11.807906 2.947069
Cl 20.671196 -11.807906 2.947069
Cl -11.800544 -20.663835 -2.956884
Cl 11.815267 20.663835 -2.956884
Cl -5.896591 14.759882 -8.860837
Cl 5.911314 -14.759882 -8.860837
Cl -8.848568 -14.759882 5.899045
Cl 8.863291 14.759882 5.899045
Cl -14.752520 8.855929 -5.908860
Cl 14.767243 -8.855929 -5.908860
Cl -14.752520 -5.903953 8.851021
Cl 14.767243 5.903953 8.851021
Cl 2.959338 -5.903953 -20.668742
Cl -2.944615 5.903953 -20.668742
Cl -17.704497 -17.711858 -5.908860
Cl 17.719220 17.711858 -5.908860
Cl -17.704497 17.711858 5.899045
Cl 17.719220 -17.711858 5.899045
Cl -2.944615 -14.759882 11.802998
Cl 2.959338 14.759882 11.802998
Cl -5.896591 -2.951976 20.658927
Cl 5.911314 2.951976 20.658927
Cl -2.944615 -17.711858 -14.764790
Cl 2.959338 17.711858 -14.764790
Cl -14.752520 2.951976 -11.812813
Cl 14.767243 -2.951976 -11.812813
Cl -2.944615 14.759882 17.706951
Cl 2.959338 -14.759882 17.706951
Cl -17.704497 -11.807906 -0.004908
Cl 17.719220 11.807906 -0.004908
Cl -11.800544 17.711858 -0.004908
Cl 11.815267 -17.711858 -0.004908
Cl -20.656473 5.903953 -2.956884
Cl 20.671196 -5.903953 -2.956884
Cl -5.896591 -20.663835 2.947069
Cl 5.911314 20.663835 2.947069
Cl -17.704497 0.000000 11.802998
