1493
CdTe-Cd-Cd711Te640Cl142-clean
Cd -16.392981 -16.412766 -0.004397
Cd -16.392981 -9.848539 -6.568624
Cd -16.392981 -13.130653 -3.286510
Cd -19.675095 -9.848539 -3.286510
Cd -19.675095 -13.130653 -0.004397
Cd -16.392981 -9.848539 -0.004397
Cd -16.392981 -13.130653 3.277717
Cd -19.675095 -9.848539 3.277717
Cd -16.392981 -9.848539 6.559830
Cd -16.392981 -3.284312 -13.132851
Cd -16.392981 -6.566425 -9.850737
Cd -19.675095 -3.284312 -9.850737
Cd -19.675095 -6.566425 -6.568624
Cd -16.392981 -3.284312 -6.568624
Cd -16.392981 -6.566425 -3.286510
Cd -19.675095 -3.284312 -3.286510
Cd -19.675095 -6.566425 -0.004397
Cd -16.392981 -3.284312 -0.004397
Cd -16.392981 -6.566425 3.277717
Cd -19.675095 -3.284312 3.277717
Cd -19.675095 -6.566425 6.559830
Cd -16.392981 -3.284312 6.559830
Cd -16.392981 -6.566425 9.841944
Cd -19.675095 -3.284312 9.841944
Cd -16.392981 -3.284312 13.124058
Cd -16.392981 -0.002198 -16.414964
Cd -19.675095 -0.002198 -13.132851
Cd -16.392981 3.279915 -13.132851
Cd -16.392981 -0.002198 -9.850737
Cd -19.675095 3.279915 -9.850737
Cd -19.675095 -0.002198 -6.568624
Cd -16.392981 3.279915 -6.568624
Cd -16.392981 -0.002198 -3.286510
Cd -19.675095 3.279915 -3.286510
Cd -19.675095 -0.002198 -0.004397
Cd -16.392981 3.279915 -0.004397
Cd -16.392981 -0.002198 3.277717
Cd -19.675095 3.279915 3.277717
Cd -19.675095 -0.002198 6.559830
Cd -16.392981 3.279915 6.559830
Cd -16.392981 -0.002198 9.841944
Cd -19.675095 3.279915 9.841944
Cd -19.675095 -0.002198 13.124058
Cd -16.392981 3.279915 13.124058
Cd -16.392981 -0.002198 16.406171
Cd -16.392981 6.562029 -9.850737
Cd -19.675095 6.562029 -6.568624
Cd -16.392981 9.844142 -6.568624
Cd -16.392981 6.562029 -3.286510
Cd -19.675095 9.844142 -3.286510
Cd -19.675095 6.562029 -0.004397
Cd -16.392981 9.844142 -0.004397
Cd -16.392981 6.562029 3.277717
Cd -19.675095 9.844142 3.277717
Cd -19.675095 6.562029 6.559830
Cd -16.392981 9.844142 6.559830
Cd -16.392981 6.562029 9.841944
Cd -16.392981 13.126256 -3.286510
Cd -19.675095 13.126256 -0.004397
Cd -16.392981 16.408369 -0.004397
Cd -16.392981 13.126256 3.277717
Cd -9.828754 -16.412766 -6.568624
Cd -9.828754 -19.694880 -3.286510
Cd -13.110868 -16.412766 -3.286510
Cd -13.110868 -19.694880 -0.004397
Cd -9.828754 -16.412766 -0.004397
Cd -9.828754 -19.694880 3.277717
Cd -13.110868 -16.412766 3.277717
Cd -9.828754 -16.412766 6.559830
Cd -9.828754 -9.848539 -13.132851
Cd -9.828754 -13.130653 -9.850737
Cd -13.110868 -9.848539 -9.850737
Cd -13.110868 -13.130653 -6.568624
Cd -9.828754 -9.848539 -6.568624
Cd -9.828754 -13.130653 -3.286510
Cd -13.110868 -9.848539 -3.286510
Cd -13.110868 -13.130653 -0.004397
Cd -9.828754 -9.848539 -0.004397
Cd -9.828754 -13.130653 3.277717
Cd -13.110868 -9.848539 3.277717
Cd -13.110868 -13.130653 6.559830
Cd -9.828754 -9.848539 6.559830
Cd -9.828754 -13.130653 9.841944
Cd -13.110868 -9.848539 9.841944
Cd -9.828754 -9.848539 13.124058
Cd -9.828754 -3.284312 -19.697078
Cd -9.828754 -6.566425 -16.414964
Cd -13.110868 -3.284312 -16.414964
Cd -13.110868 -6.566425 -13.132851
Cd -9.828754 -3.284312 -13.132851
Cd -9.828754 -6.566425 -9.850737
Cd -13.110868 -3.284312 -9.850737
Cd -13.110868 -6.566425 -6.568624
Cd -9.828754 -3.284312 -6.568624
Cd -9.828754 -6.566425 -3.286510
Cd -13.110868 -3.284312 -3.286510
Cd -13.110868 -6.566425 -0.004397
Cd -9.828754 -3.284312 -0.004397
Cd -9.828754 -6.566425 3.277717
Cd -13.110868 -3.284312 3.277717
Cd -13.110868 -6.566425 6.559830
Cd -9.828754 -3.284312 6.559830
Cd -9.828754 -6.566425 9.841944
Cd -13.110868 -3.284312 9.841944
Cd -13.110868 -6.566425 13.124058
Cd -9.828754 -3.284312 13.124058
Cd -9.828754 -6.566425 16.406171
Cd -13.110868 -3.284312 16.406171
Cd -9.828754 -3.284312 19.688285
Cd -13.110868 -0.002198 -19.697078
Cd -9.828754 3.279915 -19.697078
Cd -9.828754 -0.002198 -16.414964
Cd -13.110868 3.279915 -16.414964
Cd -13.110868 -0.002198 -13.132851
Cd -9.828754 3.279915 -13.132851
Cd -9.828754 -0.002198 -9.850737
Cd -13.110868 3.279915 -9.850737
Cd -13.110868 -0.002198 -6.568624
Cd -9.828754 3.279915 -6.568624
Cd -9.828754 -0.002198 -3.286510
Cd -13.110868 3.279915 -3.286510
Cd -13.110868 -0.002198 -0.004397
Cd -9.828754 3.279915 -0.004397
Cd -9.828754 -0.002198 3.277717
Cd -13.110868 3.279915 3.277717
Cd -13.110868 -0.002198 6.559830
Cd -9.828754 3.279915 6.559830
Cd -9.828754 -0.002198 9.841944
Cd -13.110868 3.279915 9.841944
Cd -13.110868 -0.002198 13.124058
Cd -9.828754 3.279915 13.124058
Cd -9.828754 -0.002198 16.406171
Cd -13.110868 3.279915 16.406171
Cd -13.110868 -0.002198 19.688285
Cd -9.828754 3.279915 19.688285
Cd -9.828754 6.562029 -16.414964
Cd -13.110868 6.562029 -13.132851
Cd -9.828754 9.844142 -13.132851
Cd -9.828754 6.562029 -9.850737
Cd -13.110868 9.844142 -9.850737
Cd -13.110868 6.562029 -6.568624
Cd -9.828754 9.844142 -6.568624
Cd -9.828754 6.562029 -3.286510
Cd -13.110868 9.844142 -3.286510
Cd -13.110868 6.562029 -0.004397
Cd -9.828754 9.844142 -0.004397
Cd -9.828754 6.562029 3.277717
Cd -13.110868 9.844142 3.277717
Cd -13.110868 6.562029 6.559830
Cd -9.828754 9.844142 6.559830
Cd -9.828754 6.562029 9.841944
Cd -13.110868 9.844142 9.841944
Cd -13.110868 6.562029 13.124058
Cd -9.828754 9.844142 13.124058
Cd -9.828754 6.562029 16.406171
Cd -9.828754 13.126256 -9.850737
Cd -13.110868 13.126256 -6.568624
Cd -9.828754 16.408369 -6.568624
Cd -9.828754 13.126256 -3.286510
Cd -13.110868 16.408369 -3.286510
Cd -13.110868 13.126256 -0.004397
Cd -9.828754 16.408369 -0.004397
Cd -9.828754 13.126256 3.277717
Cd -13.110868 16.408369 3.277717
Cd -13.110868 13.126256 6.559830
Cd -9.828754 16.408369 6.559830
Cd -9.828754 13.126256 9.841944
Cd -9.828754 19.690483 -3.286510
Cd -13.110868 19.690483 -0.004397
Cd -9.828754 19.690483 3.277717
Cd -3.264527 -16.412766 -13.132851
Cd -3.264527 -19.694880 -9.850737
Cd -6.546640 -16.412766 -9.850737
Cd -6.546640 -19.694880 -6.568624
Cd -3.264527 -16.412766 -6.568624
Cd -3.264527 -19.694880 -3.286510
Cd -6.546640 -16.412766 -3.286510
Cd -6.546640 -19.694880 -0.004397
Cd -3.264527 -16.412766 -0.004397
Cd -3.264527 -19.694880 3.277717
Cd -6.546640 -16.412766 3.277717
Cd -6.546640 -19.694880 6.559830
Cd -3.264527 -16.412766 6.559830
Cd -3.264527 -19.694880 9.841944
Cd -6.546640 -16.412766 9.841944
Cd -3.264527 -16.412766 13.124058
Cd -3.264527 -9.848539 -19.697078
Cd -3.264527 -13.130653 -16.414964
Cd -6.546640 -9.848539 -16.414964
Cd -6.546640 -13.130653 -13.132851
Cd -3.264527 -9.848539 -13.132851
Cd -3.264527 -13.130653 -9.850737
Cd -6.546640 -9.848539 -9.850737
Cd -6.546640 -13.130653 -6.568624
Cd -3.264527 -9.848539 -6.568624
Cd -3.264527 -13.130653 -3.286510
Cd -6.546640 -9.848539 -3.286510
Cd -6.546640 -13.130653 -0.004397
Cd -3.264527 -9.848539 -0.004397
Cd -3.264527 -13.130653 3.277717
Cd -6.546640 -9.848539 3.277717
Cd -6.546640 -13.130653 6.559830
Cd -3.264527 -9.848539 6.559830
Cd -3.264527 -13.130653 9.841944
Cd -6.546640 -9.848539 9.841944
Cd -6.546640 -13.130653 13.124058
Cd -3.264527 -9.848539 13.124058
Cd -3.264527 -13.130653 16.406171
Cd -6.546640 -9.848539 16.406171
Cd -3.264527 -9.848539 19.688285
Cd -6.546640 -6.566425 -19.697078
Cd -3.264527 -3.284312 -19.697078
Cd -3.264527 -6.566425 -16.414964
Cd -6.546640 -3.284312 -16.414964
Cd -6.546640 -6.566425 -13.132851
Cd -3.264527 -3.284312 -13.132851
Cd -3.264527 -6.566425 -9.850737
Cd -6.546640 -3.284312 -9.850737
Cd -6.546640 -6.566425 -6.568624
Cd -3.264527 -3.284312 -6.568624
Cd -3.264527 -6.566425 -3.286510
Cd -6.546640 -3.284312 -3.286510
Cd -6.546640 -6.566425 -0.004397
Cd -3.264527 -3.284312 -0.004397
Cd -3.264527 -6.566425 3.277717
Cd -6.546640 -3.284312 3.277717
Cd -6.546640 -6.566425 6.559830
Cd -3.264527 -3.284312 6.559830
Cd -3.264527 -6.566425 9.841944
Cd -6.546640 -3.284312 9.841944
Cd -6.546640 -6.566425 13.124058
Cd -3.264527 -3.284312 13.124058
Cd -3.264527 -6.566425 16.406171
Cd -6.546640 -3.284312 16.406171
Cd -6.546640 -6.566425 19.688285
Cd -3.264527 -3.284312 19.688285
Cd -6.546640 -0.002198 -19.697078
Cd -3.264527 3.279915 -19.697078
Cd -3.264527 -0.002198 -16.414964
Cd -6.546640 3.279915 -16.414964
Cd -6.546640 -0.002198 -13.132851
Cd -3.264527 3.279915 -13.132851
Cd -3.264527 -0.002198 -9.850737
Cd -6.546640 3.279915 -9.850737
Cd -6.546640 -0.002198 -6.568624
Cd -3.264527 3.279915 -6.568624
Cd -3.264527 -0.002198 -3.286510
Cd -6.546640 3.279915 -3.286510
Cd -6.546640 -0.002198 -0.004397
Cd -3.264527 3.279915 -0.004397
Cd -3.264527 -0.002198 3.277717
Cd -6.546640 3.279915 3.277717
Cd -6.546640 -0.002198 6.559830
Cd -3.264527 3.279915 6.559830
Cd -3.264527 -0.002198 9.841944
Cd -6.546640 3.279915 9.841944
Cd -6.546640 -0.002198 13.124058
Cd -3.264527 3.279915 13.124058
Cd -3.264527 -0.002198 16.406171
Cd -6.546640 3.279915 16.406171
Cd -6.546640 -0.002198 19.688285
Cd -3.264527 3.279915 19.688285
Cd -6.546640 6.562029 -19.697078
Cd -3.264527 9.844142 -19.697078
Cd -3.264527 6.562029 -16.414964
Cd -6.546640 9.844142 -16.414964
Cd -6.546640 6.562029 -13.132851
Cd -3.264527 9.844142 -13.132851
Cd -3.264527 6.562029 -9.850737
Cd -6.546640 9.844142 -9.850737
Cd -6.546640 6.562029 -6.568624
Cd -3.264527 9.844142 -6.568624
Cd -3.264527 6.562029 -3.286510
Cd -6.546640 9.844142 -3.286510
Cd -6.546640 6.562029 -0.004397
Cd -3.264527 9.844142 -0.004397
Cd -3.264527 6.562029 3.277717
Cd -6.546640 9.844142 3.277717
Cd -6.546640 6.562029 6.559830
Cd -3.264527 9.844142 6.559830
Cd -3.264527 6.562029 9.841944
Cd -6.546640 9.844142 9.841944
Cd -6.546640 6.562029 13.124058
Cd -3.264527 9.844142 13.124058
Cd -3.264527 6.562029 16.406171
Cd -6.546640 9.844142 16.406171
Cd -6.546640 6.562029 19.688285
Cd -3.264527 9.844142 19.688285
Cd -3.264527 13.126256 -16.414964
Cd -6.546640 13.126256 -13.132851
Cd -3.264527 16.408369 -13.132851
Cd -3.264527 13.126256 -9.850737
Cd -6.546640 16.408369 -9.850737
Cd -6.546640 13.126256 -6.568624
Cd -3.264527 16.408369 -6.568624
Cd -3.264527 13.126256 -3.286510
Cd -6.546640 16.408369 -3.286510
Cd -6.546640 13.126256 -0.004397
Cd -3.264527 16.408369 -0.004397
Cd -3.264527 13.126256 3.277717
Cd -6.546640 16.408369 3.277717
Cd -6.546640 13.126256 6.559830
Cd -3.264527 16.408369 6.559830
Cd -3.264527 13.126256 9.841944
Cd -6.546640 16.408369 9.841944
Cd -6.546640 13.126256 13.124058
Cd -3.264527 16.408369 13.124058
Cd -3.264527 13.126256 16.406171
Cd -3.264527 19.690483 -9.850737
Cd -6.546640 19.690483 -6.568624
Cd -3.264527 19.690483 -3.286510
Cd -6.546640 19.690483 -0.004397
Cd -3.264527 19.690483 3.277717
Cd -6.546640 19.690483 6.559830
Cd -3.264527 19.690483 9.841944
Cd 0.017587 -16.412766 -16.414964
Cd 0.017587 -19.694880 -13.132851
Cd 3.299700 -16.412766 -13.132851
Cd 3.299700 -19.694880 -9.850737
Cd 0.017587 -16.412766 -9.850737
Cd 0.017587 -19.694880 -6.568624
Cd 3.299700 -16.412766 -6.568624
Cd 3.299700 -19.694880 -3.286510
Cd 0.017587 -16.412766 -3.286510
Cd 0.017587 -19.694880 -0.004397
Cd 3.299700 -16.412766 -0.004397
Cd 3.299700 -19.694880 3.277717
Cd 0.017587 -16.412766 3.277717
Cd 0.017587 -19.694880 6.559830
Cd 3.299700 -16.412766 6.559830
Cd 3.299700 -19.694880 9.841944
Cd 0.017587 -16.412766 9.841944
Cd 0.017587 -19.694880 13.124058
Cd 3.299700 -16.412766 13.124058
Cd 0.017587 -16.412766 16.406171
Cd 0.017587 -13.130653 -19.697078
Cd 3.299700 -9.848539 -19.697078
Cd 3.299700 -13.130653 -16.414964
Cd 0.017587 -9.848539 -16.414964
Cd 0.017587 -13.130653 -13.132851
Cd 3.299700 -9.848539 -13.132851
Cd 3.299700 -13.130653 -9.850737
Cd 0.017587 -9.848539 -9.850737
Cd 0.017587 -13.130653 -6.568624
Cd 3.299700 -9.848539 -6.568624
Cd 3.299700 -13.130653 -3.286510
Cd 0.017587 -9.848539 -3.286510
Cd 0.017587 -13.130653 -0.004397
Cd 3.299700 -9.848539 -0.004397
Cd 3.299700 -13.130653 3.277717
Cd 0.017587 -9.848539 3.277717
Cd 0.017587 -13.130653 6.559830
Cd 3.299700 -9.848539 6.559830
Cd 3.299700 -13.130653 9.841944
Cd 0.017587 -9.848539 9.841944
Cd 0.017587 -13.130653 13.124058
Cd 3.299700 -9.848539 13.124058
Cd 3.299700 -13.130653 16.406171
Cd 0.017587 -9.848539 16.406171
Cd 0.017587 -13.130653 19.688285
Cd 3.299700 -9.848539 19.688285
Cd 0.017587 -6.566425 -19.697078
Cd 3.299700 -3.284312 -19.697078
Cd 3.299700 -6.566425 -16.414964
Cd 0.017587 -3.284312 -16.414964
Cd 0.017587 -6.566425 -13.132851
Cd 3.299700 -3.284312 -13.132851
Cd 3.299700 -6.566425 -9.850737
Cd 0.017587 -3.284312 -9.850737
Cd 0.017587 -6.566425 -6.568624
Cd 3.299700 -3.284312 -6.568624
Cd 3.299700 -6.566425 -3.286510
Cd 0.017587 -3.284312 -3.286510
Cd 0.017587 -6.566425 -0.004397
Cd 3.299700 -3.284312 -0.004397
Cd 3.299700 -6.566425 3.277717
Cd 0.017587 -3.284312 3.277717
Cd 0.017587 -6.566425 6.559830
Cd 3.299700 -3.284312 6.559830
Cd 3.299700 -6.566425 9.841944
Cd 0.017587 -3.284312 9.841944
Cd 0.017587 -6.566425 13.124058
Cd 3.299700 -3.284312 13.124058
Cd 3.299700 -6.566425 16.406171
Cd 0.017587 -3.284312 16.406171
Cd 0.017587 -6.566425 19.688285
Cd 3.299700 -3.284312 19.688285
Cd 0.017587 -0.002198 -19.697078
Cd 3.299700 3.279915 -19.697078
Cd 3.299700 -0.002198 -16.414964
Cd 0.017587 3.279915 -16.414964
Cd 0.017587 -0.002198 -13.132851
Cd 3.299700 3.279915 -13.132851
Cd 3.299700 -0.002198 -9.850737
Cd 0.017587 3.279915 -9.850737
Cd 0.017587 -0.002198 -6.568624
Cd 3.299700 3.279915 -6.568624
Cd 3.299700 -0.002198 -3.286510
Cd 0.017587 3.279915 -3.286510
Cd 0.017587 -0.002198 -0.004397
Cd 3.299700 3.279915 -0.004397
Cd 3.299700 -0.002198 3.277717
Cd 0.017587 3.279915 3.277717
Cd 0.017587 -0.002198 6.559830
Cd 3.299700 3.279915 6.559830
Cd 3.299700 -0.002198 9.841944
Cd 0.017587 3.279915 9.841944
Cd 0.017587 -0.002198 13.124058
Cd 3.299700 3.279915 13.124058
Cd 3.299700 -0.002198 16.406171
Cd 0.017587 3.279915 16.406171
Cd 0.017587 -0.002198 19.688285
Cd 3.299700 3.279915 19.688285
Cd 0.017587 6.562029 -19.697078
Cd 3.299700 9.844142 -19.697078
Cd 3.299700 6.562029 -16.414964
Cd 0.017587 9.844142 -16.414964
Cd 0.017587 6.562029 -13.132851
Cd 3.299700 9.844142 -13.132851
Cd 3.299700 6.562029 -9.850737
Cd 0.017587 9.844142 -9.850737
Cd 0.017587 6.562029 -6.568624
Cd 3.299700 9.844142 -6.568624
Cd 3.299700 6.562029 -3.286510
Cd 0.017587 9.844142 -3.286510
Cd 0.017587 6.562029 -0.004397
Cd 3.299700 9.844142 -0.004397
Cd 3.299700 6.562029 3.277717
Cd 0.017587 9.844142 3.277717
Cd 0.017587 6.562029 6.559830
Cd 3.299700 9.844142 6.559830
Cd 3.299700 6.562029 9.841944
Cd 0.017587 9.844142 9.841944
Cd 0.017587 6.562029 13.124058
Cd 3.299700 9.844142 13.124058
Cd 3.299700 6.562029 16.406171
Cd 0.017587 9.844142 16.406171
Cd 0.017587 6.562029 19.688285
Cd 3.299700 9.844142 19.688285
Cd 0.017587 13.126256 -19.697078
Cd 3.299700 13.126256 -16.414964
Cd 0.017587 16.408369 -16.414964
Cd 0.017587 13.126256 -13.132851
Cd 3.299700 16.408369 -13.132851
Cd 3.299700 13.126256 -9.850737
Cd 0.017587 16.408369 -9.850737
Cd 0.017587 13.126256 -6.568624
Cd 3.299700 16.408369 -6.568624
Cd 3.299700 13.126256 -3.286510
Cd 0.017587 16.408369 -3.286510
Cd 0.017587 13.126256 -0.004397
Cd 3.299700 16.408369 -0.004397
Cd 3.299700 13.126256 3.277717
Cd 0.017587 16.408369 3.277717
Cd 0.017587 13.126256 6.559830
Cd 3.299700 16.408369 6.559830
Cd 3.299700 13.126256 9.841944
Cd 0.017587 16.408369 9.841944
Cd 0.017587 13.126256 13.124058
Cd 3.299700 16.408369 13.124058
Cd 3.299700 13.126256 16.406171
Cd 0.017587 16.408369 16.406171
Cd 0.017587 13.126256 19.688285
Cd 0.017587 19.690483 -13.132851
Cd 3.299700 19.690483 -9.850737
Cd 0.017587 19.690483 -6.568624
Cd 3.299700 19.690483 -3.286510
Cd 0.017587 19.690483 -0.004397
Cd 3.299700 19.690483 3.277717
Cd 0.017587 19.690483 6.559830
Cd 3.299700 19.690483 9.841944
Cd 0.017587 19.690483 13.124058
Cd 6.581814 -16.412766 -9.850737
Cd 6.581814 -19.694880 -6.568624
Cd 9.863927 -16.412766 -6.568624
Cd 9.863927 -19.694880 -3.286510
Cd 6.581814 -16.412766 -3.286510
Cd 6.581814 -19.694880 -0.004397
Cd 9.863927 -16.412766 -0.004397
Cd 9.863927 -19.694880 3.277717
Cd 6.581814 -16.412766 3.277717
Cd 6.581814 -19.694880 6.559830
Cd 9.863927 -16.412766 6.559830
Cd 6.581814 -16.412766 9.841944
Cd 6.581814 -9.848539 -16.414964
Cd 6.581814 -13.130653 -13.132851
Cd 9.863927 -9.848539 -13.132851
Cd 9.863927 -13.130653 -9.850737
Cd 6.581814 -9.848539 -9.850737
Cd 6.581814 -13.130653 -6.568624
Cd 9.863927 -9.848539 -6.568624
Cd 9.863927 -13.130653 -3.286510
Cd 6.581814 -9.848539 -3.286510
Cd 6.581814 -13.130653 -0.004397
Cd 9.863927 -9.848539 -0.004397
Cd 9.863927 -13.130653 3.277717
Cd 6.581814 -9.848539 3.277717
Cd 6.581814 -13.130653 6.559830
Cd 9.863927 -9.848539 6.559830
Cd 9.863927 -13.130653 9.841944
Cd 6.581814 -9.848539 9.841944
Cd 6.581814 -13.130653 13.124058
Cd 9.863927 -9.848539 13.124058
Cd 6.581814 -9.848539 16.406171
Cd 6.581814 -6.566425 -19.697078
Cd 9.863927 -3.284312 -19.697078
Cd 9.863927 -6.566425 -16.414964
Cd 6.581814 -3.284312 -16.414964
Cd 6.581814 -6.566425 -13.132851
Cd 9.863927 -3.284312 -13.132851
Cd 9.863927 -6.566425 -9.850737
Cd 6.581814 -3.284312 -9.850737
Cd 6.581814 -6.566425 -6.568624
Cd 9.863927 -3.284312 -6.568624
Cd 9.863927 -6.566425 -3.286510
Cd 6.581814 -3.284312 -3.286510
Cd 6.581814 -6.566425 -0.004397
Cd 9.863927 -3.284312 -0.004397
Cd 9.863927 -6.566425 3.277717
Cd 6.581814 -3.284312 3.277717
Cd 6.581814 -6.566425 6.559830
Cd 9.863927 -3.284312 6.559830
Cd 9.863927 -6.566425 9.841944
Cd 6.581814 -3.284312 9.841944
Cd 6.581814 -6.566425 13.124058
Cd 9.863927 -3.284312 13.124058
Cd 9.863927 -6.566425 16.406171
Cd 6.581814 -3.284312 16.406171
Cd 6.581814 -6.566425 19.688285
Cd 9.863927 -3.284312 19.688285
Cd 6.581814 -0.002198 -19.697078
Cd 9.863927 3.279915 -19.697078
Cd 9.863927 -0.002198 -16.414964
Cd 6.581814 3.279915 -16.414964
Cd 6.581814 -0.002198 -13.132851
Cd 9.863927 3.279915 -13.132851
Cd 9.863927 -0.002198 -9.850737
Cd 6.581814 3.279915 -9.850737
Cd 6.581814 -0.002198 -6.568624
Cd 9.863927 3.279915 -6.568624
Cd 9.863927 -0.002198 -3.286510
Cd 6.581814 3.279915 -3.286510
Cd 6.581814 -0.002198 -0.004397
Cd 9.863927 3.279915 -0.004397
Cd 9.863927 -0.002198 3.277717
Cd 6.581814 3.279915 3.277717
Cd 6.581814 -0.002198 6.559830
Cd 9.863927 3.279915 6.559830
Cd 9.863927 -0.002198 9.841944
Cd 6.581814 3.279915 9.841944
Cd 6.581814 -0.002198 13.124058
Cd 9.863927 3.279915 13.124058
Cd 9.863927 -0.002198 16.406171
Cd 6.581814 3.279915 16.406171
Cd 6.581814 -0.002198 19.688285
Cd 9.863927 3.279915 19.688285
Cd 6.581814 6.562029 -19.697078
Cd 9.863927 6.562029 -16.414964
Cd 6.581814 9.844142 -16.414964
Cd 6.581814 6.562029 -13.132851
Cd 9.863927 9.844142 -13.132851
Cd 9.863927 6.562029 -9.850737
Cd 6.581814 9.844142 -9.850737
Cd 6.581814 6.562029 -6.568624
Cd 9.863927 9.844142 -6.568624
Cd 9.863927 6.562029 -3.286510
Cd 6.581814 9.844142 -3.286510
Cd 6.581814 6.562029 -0.004397
Cd 9.863927 9.844142 -0.004397
Cd 9.863927 6.562029 3.277717
Cd 6.581814 9.844142 3.277717
Cd 6.581814 6.562029 6.559830
Cd 9.863927 9.844142 6.559830
Cd 9.863927 6.562029 9.841944
Cd 6.581814 9.844142 9.841944
Cd 6.581814 6.562029 13.124058
Cd 9.863927 9.844142 13.124058
Cd 9.863927 6.562029 16.406171
Cd 6.581814 9.844142 16.406171
Cd 6.581814 6.562029 19.688285
Cd 6.581814 13.126256 -13.132851
Cd 9.863927 13.126256 -9.850737
Cd 6.581814 16.408369 -9.850737
Cd 6.581814 13.126256 -6.568624
Cd 9.863927 16.408369 -6.568624
Cd 9.863927 13.126256 -3.286510
Cd 6.581814 16.408369 -3.286510
Cd 6.581814 13.126256 -0.004397
Cd 9.863927 16.408369 -0.004397
Cd 9.863927 13.126256 3.277717
Cd 6.581814 16.408369 3.277717
Cd 6.581814 13.126256 6.559830
Cd 9.863927 16.408369 6.559830
Cd 9.863927 13.126256 9.841944
Cd 6.581814 16.408369 9.841944
Cd 6.581814 13.126256 13.124058
Cd 6.581814 19.690483 -6.568624
Cd 9.863927 19.690483 -3.286510
Cd 6.581814 19.690483 -0.004397
Cd 9.863927 19.690483 3.277717
Cd 6.581814 19.690483 6.559830
Cd 13.146041 -16.412766 -3.286510
Cd 13.146041 -19.694880 -0.004397
Cd 16.428154 -16.412766 -0.004397
Cd 13.146041 -16.412766 3.277717
Cd 13.146041 -9.848539 -9.850737
Cd 13.146041 -13.130653 -6.568624
Cd 16.428154 -9.848539 -6.568624
Cd 16.428154 -13.130653 -3.286510
Cd 13.146041 -9.848539 -3.286510
Cd 13.146041 -13.130653 -0.004397
Cd 16.428154 -9.848539 -0.004397
Cd 16.428154 -13.130653 3.277717
Cd 13.146041 -9.848539 3.277717
Cd 13.146041 -13.130653 6.559830
Cd 16.428154 -9.848539 6.559830
Cd 13.146041 -9.848539 9.841944
Cd 13.146041 -3.284312 -16.414964
Cd 13.146041 -6.566425 -13.132851
Cd 16.428154 -3.284312 -13.132851
Cd 16.428154 -6.566425 -9.850737
Cd 13.146041 -3.284312 -9.850737
Cd 13.146041 -6.566425 -6.568624
Cd 16.428154 -3.284312 -6.568624
Cd 16.428154 -6.566425 -3.286510
Cd 13.146041 -3.284312 -3.286510
Cd 13.146041 -6.566425 -0.004397
Cd 16.428154 -3.284312 -0.004397
Cd 16.428154 -6.566425 3.277717
Cd 13.146041 -3.284312 3.277717
Cd 13.146041 -6.566425 6.559830
Cd 16.428154 -3.284312 6.559830
Cd 16.428154 -6.566425 9.841944
Cd 13.146041 -3.284312 9.841944
Cd 13.146041 -6.566425 13.124058
Cd 16.428154 -3.284312 13.124058
Cd 13.146041 -3.284312 16.406171
Cd 13.146041 -0.002198 -19.697078
Cd 16.428154 -0.002198 -16.414964
Cd 13.146041 3.279915 -16.414964
Cd 13.146041 -0.002198 -13.132851
Cd 16.428154 3.279915 -13.132851
Cd 16.428154 -0.002198 -9.850737
Cd 13.146041 3.279915 -9.850737
Cd 13.146041 -0.002198 -6.568624
Cd 16.428154 3.279915 -6.568624
Cd 16.428154 -0.002198 -3.286510
Cd 13.146041 3.279915 -3.286510
Cd 13.146041 -0.002198 -0.004397
Cd 16.428154 3.279915 -0.004397
Cd 16.428154 -0.002198 3.277717
Cd 13.146041 3.279915 3.277717
Cd 13.146041 -0.002198 6.559830
Cd 16.428154 3.279915 6.559830
Cd 16.428154 -0.002198 9.841944
Cd 13.146041 3.279915 9.841944
Cd 13.146041 -0.002198 13.124058
Cd 16.428154 3.279915 13.124058
Cd 16.428154 -0.002198 16.406171
Cd 13.146041 3.279915 16.406171
Cd 13.146041 -0.002198 19.688285
Cd 13.146041 6.562029 -13.132851
Cd 16.428154 6.562029 -9.850737
Cd 13.146041 9.844142 -9.850737
Cd 13.146041 6.562029 -6.568624
Cd 16.428154 9.844142 -6.568624
Cd 16.428154 6.562029 -3.286510
Cd 13.146041 9.844142 -3.286510
Cd 13.146041 6.562029 -0.004397
Cd 16.428154 9.844142 -0.004397
Cd 16.428154 6.562029 3.277717
Cd 13.146041 9.844142 3.277717
Cd 13.146041 6.562029 6.559830
Cd 16.428154 9.844142 6.559830
Cd 16.428154 6.562029 9.841944
Cd 13.146041 9.844142 9.841944
Cd 13.146041 6.562029 13.124058
Cd 13.146041 13.126256 -6.568624
Cd 16.428154 13.126256 -3.286510
Cd 13.146041 16.408369 -3.286510
Cd 13.146041 13.126256 -0.004397
Cd 16.428154 16.408369 -0.004397
Cd 16.428154 13.126256 3.277717
Cd 13.146041 16.408369 3.277717
Cd 13.146041 13.126256 6.559830
Cd 13.146041 19.690483 -0.004397
Cd 19.710268 -9.848539 -3.286510
Cd 19.710268 -13.130653 -0.004397
Cd 19.710268 -9.848539 3.277717
Cd 19.710268 -3.284312 -9.850737
Cd 19.710268 -6.566425 -6.568624
Cd 19.710268 -3.284312 -3.286510
Cd 19.710268 -6.566425 -0.004397
Cd 19.710268 -3.284312 3.277717
Cd 19.710268 -6.566425 6.559830
Cd 19.710268 -3.284312 9.841944
Cd 19.710268 -0.002198 -13.132851
Cd 19.710268 3.279915 -9.850737
Cd 19.710268 -0.002198 -6.568624
Cd 19.710268 3.279915 -3.286510
Cd 19.710268 -0.002198 -0.004397
Cd 19.710268 3.279915 3.277717
Cd 19.710268 -0.002198 6.559830
Cd 19.710268 3.279915 9.841944
Cd 19.710268 -0.002198 13.124058
Cd 19.710268 6.562029 -6.568624
Cd 19.710268 9.844142 -3.286510
Cd 19.710268 6.562029 -0.004397
Cd 19.710268 9.844142 3.277717
Cd 19.710268 6.562029 6.559830
Cd 19.710268 13.126256 -0.004397
Te -18.034038 -14.771709 -1.645453
Te -14.751924 -14.771709 -4.927567
Te -14.751924 -18.053823 -1.645453
Te -14.751924 -14.771709 1.636660
Te -18.034038 -8.207482 -8.209681
Te -14.751924 -8.207482 -11.491794
Te -14.751924 -11.489596 -8.209681
Te -18.034038 -11.489596 -4.927567
Te -18.034038 -8.207482 -1.645453
Te -14.751924 -8.207482 -4.927567
Te -14.751924 -11.489596 -1.645453
Te -18.034038 -11.489596 1.636660
Te -18.034038 -8.207482 4.918774
Te -14.751924 -8.207482 1.636660
Te -14.751924 -11.489596 4.918774
Te -14.751924 -8.207482 8.200887
Te -18.034038 -1.643255 -14.773908
Te -14.751924 -1.643255 -18.056021
Te -14.751924 -4.925369 -14.773908
Te -18.034038 -4.925369 -11.491794
Te -18.034038 -1.643255 -8.209681
Te -14.751924 -1.643255 -11.491794
Te -14.751924 -4.925369 -8.209681
Te -18.034038 -4.925369 -4.927567
Te -18.034038 -1.643255 -1.645453
Te -14.751924 -1.643255 -4.927567
Te -14.751924 -4.925369 -1.645453
Te -18.034038 -4.925369 1.636660
Te -18.034038 -1.643255 4.918774
Te -14.751924 -1.643255 1.636660
Te -14.751924 -4.925369 4.918774
Te -18.034038 -4.925369 8.200887
Te -18.034038 -1.643255 11.483001
Te -14.751924 -1.643255 8.200887
Te -14.751924 -4.925369 11.483001
Te -14.751924 -1.643255 14.765114
Te -14.751924 1.638858 -14.773908
Te -18.034038 1.638858 -11.491794
Te -18.034038 4.920972 -8.209681
Te -14.751924 4.920972 -11.491794
Te -14.751924 1.638858 -8.209681
Te -18.034038 1.638858 -4.927567
Te -18.034038 4.920972 -1.645453
Te -14.751924 4.920972 -4.927567
Te -14.751924 1.638858 -1.645453
Te -18.034038 1.638858 1.636660
Te -18.034038 4.920972 4.918774
Te -14.751924 4.920972 1.636660
Te -14.751924 1.638858 4.918774
Te -18.034038 1.638858 8.200887
Te -18.034038 4.920972 11.483001
Te -14.751924 4.920972 8.200887
Te -14.751924 1.638858 11.483001
Te -18.034038 1.638858 14.765114
Te -14.751924 4.920972 14.765114
Te -14.751924 1.638858 18.047228
Te -14.751924 8.203086 -8.209681
Te -18.034038 8.203086 -4.927567
Te -18.034038 11.485199 -1.645453
Te -14.751924 11.485199 -4.927567
Te -14.751924 8.203086 -1.645453
Te -18.034038 8.203086 1.636660
Te -18.034038 11.485199 4.918774
Te -14.751924 11.485199 1.636660
Te -14.751924 8.203086 4.918774
Te -18.034038 8.203086 8.200887
Te -14.751924 11.485199 8.200887
Te -14.751924 8.203086 11.483001
Te -14.751924 14.767313 -1.645453
Te -18.034038 14.767313 1.636660
Te -14.751924 18.049426 1.636660
Te -14.751924 14.767313 4.918774
Te -11.469811 -14.771709 -8.209681
Te -8.187697 -14.771709 -11.491794
Te -8.187697 -18.053823 -8.209681
Te -11.469811 -18.053823 -4.927567
Te -11.469811 -14.771709 -1.645453
Te -8.187697 -14.771709 -4.927567
Te -8.187697 -18.053823 -1.645453
Te -11.469811 -18.053823 1.636660
Te -11.469811 -14.771709 4.918774
Te -8.187697 -14.771709 1.636660
Te -8.187697 -18.053823 4.918774
Te -8.187697 -14.771709 8.200887
Te -11.469811 -8.207482 -14.773908
Te -8.187697 -8.207482 -18.056021
Te -8.187697 -11.489596 -14.773908
Te -11.469811 -11.489596 -11.491794
Te -11.469811 -8.207482 -8.209681
Te -8.187697 -8.207482 -11.491794
Te -8.187697 -11.489596 -8.209681
Te -11.469811 -11.489596 -4.927567
Te -11.469811 -8.207482 -1.645453
Te -8.187697 -8.207482 -4.927567
Te -8.187697 -11.489596 -1.645453
Te -11.469811 -11.489596 1.636660
Te -11.469811 -8.207482 4.918774
Te -8.187697 -8.207482 1.636660
Te -8.187697 -11.489596 4.918774
Te -11.469811 -11.489596 8.200887
Te -11.469811 -8.207482 11.483001
Te -8.187697 -8.207482 8.200887
Te -8.187697 -11.489596 11.483001
Te -8.187697 -8.207482 14.765114
Te -11.469811 -4.925369 -18.056021
Te -11.469811 -1.643255 -14.773908
Te -8.187697 -1.643255 -18.056021
Te -8.187697 -4.925369 -14.773908
Te -11.469811 -4.925369 -11.491794
Te -11.469811 -1.643255 -8.209681
Te -8.187697 -1.643255 -11.491794
Te -8.187697 -4.925369 -8.209681
Te -11.469811 -4.925369 -4.927567
Te -11.469811 -1.643255 -1.645453
Te -8.187697 -1.643255 -4.927567
Te -8.187697 -4.925369 -1.645453
Te -11.469811 -4.925369 1.636660
Te -11.469811 -1.643255 4.918774
Te -8.187697 -1.643255 1.636660
Te -8.187697 -4.925369 4.918774
Te -11.469811 -4.925369 8.200887
Te -11.469811 -1.643255 11.483001
Te -8.187697 -1.643255 8.200887
Te -8.187697 -4.925369 11.483001
Te -11.469811 -4.925369 14.765114
Te -11.469811 -1.643255 18.047228
Te -8.187697 -1.643255 14.765114
Te -8.187697 -4.925369 18.047228
Te -11.469811 1.638858 -18.056021
Te -11.469811 4.920972 -14.773908
Te -8.187697 4.920972 -18.056021
Te -8.187697 1.638858 -14.773908
Te -11.469811 1.638858 -11.491794
Te -11.469811 4.920972 -8.209681
Te -8.187697 4.920972 -11.491794
Te -8.187697 1.638858 -8.209681
Te -11.469811 1.638858 -4.927567
Te -11.469811 4.920972 -1.645453
Te -8.187697 4.920972 -4.927567
Te -8.187697 1.638858 -1.645453
Te -11.469811 1.638858 1.636660
Te -11.469811 4.920972 4.918774
Te -8.187697 4.920972 1.636660
Te -8.187697 1.638858 4.918774
Te -11.469811 1.638858 8.200887
Te -11.469811 4.920972 11.483001
Te -8.187697 4.920972 8.200887
Te -8.187697 1.638858 11.483001
Te -11.469811 1.638858 14.765114
Te -11.469811 4.920972 18.047228
Te -8.187697 4.920972 14.765114
Te -8.187697 1.638858 18.047228
Te -8.187697 8.203086 -14.773908
Te -11.469811 8.203086 -11.491794
Te -11.469811 11.485199 -8.209681
Te -8.187697 11.485199 -11.491794
Te -8.187697 8.203086 -8.209681
Te -11.469811 8.203086 -4.927567
Te -11.469811 11.485199 -1.645453
Te -8.187697 11.485199 -4.927567
Te -8.187697 8.203086 -1.645453
Te -11.469811 8.203086 1.636660
Te -11.469811 11.485199 4.918774
Te -8.187697 11.485199 1.636660
Te -8.187697 8.203086 4.918774
Te -11.469811 8.203086 8.200887
Te -11.469811 11.485199 11.483001
Te -8.187697 11.485199 8.200887
Te -8.187697 8.203086 11.483001
Te -11.469811 8.203086 14.765114
Te -8.187697 11.485199 14.765114
Te -8.187697 8.203086 18.047228
Te -8.187697 14.767313 -8.209681
Te -11.469811 14.767313 -4.927567
Te -11.469811 18.049426 -1.645453
Te -8.187697 18.049426 -4.927567
Te -8.187697 14.767313 -1.645453
Te -11.469811 14.767313 1.636660
Te -11.469811 18.049426 4.918774
Te -8.187697 18.049426 1.636660
Te -8.187697 14.767313 4.918774
Te -11.469811 14.767313 8.200887
Te -8.187697 18.049426 8.200887
Te -8.187697 14.767313 11.483001
Te -4.905584 -14.771709 -14.773908
Te -1.623470 -14.771709 -18.056021
Te -1.623470 -18.053823 -14.773908
Te -4.905584 -18.053823 -11.491794
Te -4.905584 -14.771709 -8.209681
Te -1.623470 -14.771709 -11.491794
Te -1.623470 -18.053823 -8.209681
Te -4.905584 -18.053823 -4.927567
Te -4.905584 -14.771709 -1.645453
Te -1.623470 -14.771709 -4.927567
Te -1.623470 -18.053823 -1.645453
Te -4.905584 -18.053823 1.636660
Te -4.905584 -14.771709 4.918774
Te -1.623470 -14.771709 1.636660
Te -1.623470 -18.053823 4.918774
Te -4.905584 -18.053823 8.200887
Te -4.905584 -14.771709 11.483001
Te -1.623470 -14.771709 8.200887
Te -1.623470 -18.053823 11.483001
Te -1.623470 -14.771709 14.765114
Te -4.905584 -11.489596 -18.056021
Te -4.905584 -8.207482 -14.773908
Te -1.623470 -8.207482 -18.056021
Te -1.623470 -11.489596 -14.773908
Te -4.905584 -11.489596 -11.491794
Te -4.905584 -8.207482 -8.209681
Te -1.623470 -8.207482 -11.491794
Te -1.623470 -11.489596 -8.209681
Te -4.905584 -11.489596 -4.927567
Te -4.905584 -8.207482 -1.645453
Te -1.623470 -8.207482 -4.927567
Te -1.623470 -11.489596 -1.645453
Te -4.905584 -11.489596 1.636660
Te -4.905584 -8.207482 4.918774
Te -1.623470 -8.207482 1.636660
Te -1.623470 -11.489596 4.918774
Te -4.905584 -11.489596 8.200887
Te -4.905584 -8.207482 11.483001
Te -1.623470 -8.207482 8.200887
Te -1.623470 -11.489596 11.483001
Te -4.905584 -11.489596 14.765114
Te -4.905584 -8.207482 18.047228
Te -1.623470 -8.207482 14.765114
Te -1.623470 -11.489596 18.047228
Te -4.905584 -4.925369 -18.056021
Te -4.905584 -1.643255 -14.773908
Te -1.623470 -1.643255 -18.056021
Te -1.623470 -4.925369 -14.773908
Te -4.905584 -4.925369 -11.491794
Te -4.905584 -1.643255 -8.209681
Te -1.623470 -1.643255 -11.491794
Te -1.623470 -4.925369 -8.209681
Te -4.905584 -4.925369 -4.927567
Te -4.905584 -1.643255 -1.645453
Te -1.623470 -1.643255 -4.927567
Te -1.623470 -4.925369 -1.645453
Te -4.905584 -4.925369 1.636660
Te -4.905584 -1.643255 4.918774
Te -1.623470 -1.643255 1.636660
Te -1.623470 -4.925369 4.918774
Te -4.905584 -4.925369 8.200887
Te -4.905584 -1.643255 11.483001
Te -1.623470 -1.643255 8.200887
Te -1.623470 -4.925369 11.483001
Te -4.905584 -4.925369 14.765114
Te -4.905584 -1.643255 18.047228
Te -1.623470 -1.643255 14.765114
Te -1.623470 -4.925369 18.047228
Te -4.905584 1.638858 -18.056021
Te -4.905584 4.920972 -14.773908
Te -1.623470 4.920972 -18.056021
Te -1.623470 1.638858 -14.773908
Te -4.905584 1.638858 -11.491794
Te -4.905584 4.920972 -8.209681
Te -1.623470 4.920972 -11.491794
Te -1.623470 1.638858 -8.209681
Te -4.905584 1.638858 -4.927567
Te -4.905584 4.920972 -1.645453
Te -1.623470 4.920972 -4.927567
Te -1.623470 1.638858 -1.645453
Te -4.905584 1.638858 1.636660
Te -4.905584 4.920972 4.918774
Te -1.623470 4.920972 1.636660
Te -1.623470 1.638858 4.918774
Te -4.905584 1.638858 8.200887
Te -4.905584 4.920972 11.483001
Te -1.623470 4.920972 8.200887
Te -1.623470 1.638858 11.483001
Te -4.905584 1.638858 14.765114
Te -4.905584 4.920972 18.047228
Te -1.623470 4.920972 14.765114
Te -1.623470 1.638858 18.047228
Te -4.905584 8.203086 -18.056021
Te -4.905584 11.485199 -14.773908
Te -1.623470 11.485199 -18.056021
Te -1.623470 8.203086 -14.773908
Te -4.905584 8.203086 -11.491794
Te -4.905584 11.485199 -8.209681
Te -1.623470 11.485199 -11.491794
Te -1.623470 8.203086 -8.209681
Te -4.905584 8.203086 -4.927567
Te -4.905584 11.485199 -1.645453
Te -1.623470 11.485199 -4.927567
Te -1.623470 8.203086 -1.645453
Te -4.905584 8.203086 1.636660
Te -4.905584 11.485199 4.918774
Te -1.623470 11.485199 1.636660
Te -1.623470 8.203086 4.918774
Te -4.905584 8.203086 8.200887
Te -4.905584 11.485199 11.483001
Te -1.623470 11.485199 8.200887
Te -1.623470 8.203086 11.483001
Te -4.905584 8.203086 14.765114
Te -4.905584 11.485199 18.047228
Te -1.623470 11.485199 14.765114
Te -1.623470 8.203086 18.047228
Te -1.623470 14.767313 -14.773908
Te -4.905584 14.767313 -11.491794
Te -4.905584 18.049426 -8.209681
Te -1.623470 18.049426 -11.491794
Te -1.623470 14.767313 -8.209681
Te -4.905584 14.767313 -4.927567
Te -4.905584 18.049426 -1.645453
Te -1.623470 18.049426 -4.927567
Te -1.623470 14.767313 -1.645453
Te -4.905584 14.767313 1.636660
Te -4.905584 18.049426 4.918774
Te -1.623470 18.049426 1.636660
Te -1.623470 14.767313 4.918774
Te -4.905584 14.767313 8.200887
Te -4.905584 18.049426 11.483001
Te -1.623470 18.049426 8.200887
Te -1.623470 14.767313 11.483001
Te -4.905584 14.767313 14.765114
Te -1.623470 18.049426 14.765114
Te -1.623470 14.767313 18.047228
Te 1.658643 -14.771709 -14.773908
Te 1.658643 -18.053823 -11.491794
Te 1.658643 -14.771709 -8.209681
Te 4.940757 -14.771709 -11.491794
Te 4.940757 -18.053823 -8.209681
Te 1.658643 -18.053823 -4.927567
Te 1.658643 -14.771709 -1.645453
Te 4.940757 -14.771709 -4.927567
Te 4.940757 -18.053823 -1.645453
Te 1.658643 -18.053823 1.636660
Te 1.658643 -14.771709 4.918774
Te 4.940757 -14.771709 1.636660
Te 4.940757 -18.053823 4.918774
Te 1.658643 -18.053823 8.200887
Te 1.658643 -14.771709 11.483001
Te 4.940757 -14.771709 8.200887
Te 4.940757 -18.053823 11.483001
Te 1.658643 -18.053823 14.765114
Te 1.658643 -14.771709 18.047228
Te 4.940757 -14.771709 14.765114
Te 1.658643 -11.489596 -18.056021
Te 1.658643 -8.207482 -14.773908
Te 4.940757 -8.207482 -18.056021
Te 4.940757 -11.489596 -14.773908
Te 1.658643 -11.489596 -11.491794
Te 1.658643 -8.207482 -8.209681
Te 4.940757 -8.207482 -11.491794
Te 4.940757 -11.489596 -8.209681
Te 1.658643 -11.489596 -4.927567
Te 1.658643 -8.207482 -1.645453
Te 4.940757 -8.207482 -4.927567
Te 4.940757 -11.489596 -1.645453
Te 1.658643 -11.489596 1.636660
Te 1.658643 -8.207482 4.918774
Te 4.940757 -8.207482 1.636660
Te 4.940757 -11.489596 4.918774
Te 1.658643 -11.489596 8.200887
Te 1.658643 -8.207482 11.483001
Te 4.940757 -8.207482 8.200887
Te 4.940757 -11.489596 11.483001
Te 1.658643 -11.489596 14.765114
Te 1.658643 -8.207482 18.047228
Te 4.940757 -8.207482 14.765114
Te 4.940757 -11.489596 18.047228
Te 1.658643 -4.925369 -18.056021
Te 1.658643 -1.643255 -14.773908
Te 4.940757 -1.643255 -18.056021
Te 4.940757 -4.925369 -14.773908
Te 1.658643 -4.925369 -11.491794
Te 1.658643 -1.643255 -8.209681
Te 4.940757 -1.643255 -11.491794
Te 4.940757 -4.925369 -8.209681
Te 1.658643 -4.925369 -4.927567
Te 1.658643 -1.643255 -1.645453
Te 4.940757 -1.643255 -4.927567
Te 4.940757 -4.925369 -1.645453
Te 1.658643 -4.925369 1.636660
Te 1.658643 -1.643255 4.918774
Te 4.940757 -1.643255 1.636660
Te 4.940757 -4.925369 4.918774
Te 1.658643 -4.925369 8.200887
Te 1.658643 -1.643255 11.483001
Te 4.940757 -1.643255 8.200887
Te 4.940757 -4.925369 11.483001
Te 1.658643 -4.925369 14.765114
Te 1.658643 -1.643255 18.047228
Te 4.940757 -1.643255 14.765114
Te 4.940757 -4.925369 18.047228
Te 1.658643 1.638858 -18.056021
Te 1.658643 4.920972 -14.773908
Te 4.940757 4.920972 -18.056021
Te 4.940757 1.638858 -14.773908
Te 1.658643 1.638858 -11.491794
Te 1.658643 4.920972 -8.209681
Te 4.940757 4.920972 -11.491794
Te 4.940757 1.638858 -8.209681
Te 1.658643 1.638858 -4.927567
Te 1.658643 4.920972 -1.645453
Te 4.940757 4.920972 -4.927567
Te 4.940757 1.638858 -1.645453
Te 1.658643 1.638858 1.636660
Te 1.658643 4.920972 4.918774
Te 4.940757 4.920972 1.636660
Te 4.940757 1.638858 4.918774
Te 1.658643 1.638858 8.200887
Te 1.658643 4.920972 11.483001
Te 4.940757 4.920972 8.200887
Te 4.940757 1.638858 11.483001
Te 1.658643 1.638858 14.765114
Te 1.658643 4.920972 18.047228
Te 4.940757 4.920972 14.765114
Te 4.940757 1.638858 18.047228
Te 1.658643 8.203086 -18.056021
Te 1.658643 11.485199 -14.773908
Te 4.940757 11.485199 -18.056021
Te 4.940757 8.203086 -14.773908
Te 1.658643 8.203086 -11.491794
Te 1.658643 11.485199 -8.209681
Te 4.940757 11.485199 -11.491794
Te 4.940757 8.203086 -8.209681
Te 1.658643 8.203086 -4.927567
Te 1.658643 11.485199 -1.645453
Te 4.940757 11.485199 -4.927567
Te 4.940757 8.203086 -1.645453
Te 1.658643 8.203086 1.636660
Te 1.658643 11.485199 4.918774
Te 4.940757 11.485199 1.636660
Te 4.940757 8.203086 4.918774
Te 1.658643 8.203086 8.200887
Te 1.658643 11.485199 11.483001
Te 4.940757 11.485199 8.200887
Te 4.940757 8.203086 11.483001
Te 1.658643 8.203086 14.765114
Te 1.658643 11.485199 18.047228
Te 4.940757 11.485199 14.765114
Te 4.940757 8.203086 18.047228
Te 1.658643 14.767313 -18.056021
Te 1.658643 18.049426 -14.773908
Te 4.940757 14.767313 -14.773908
Te 1.658643 14.767313 -11.491794
Te 1.658643 18.049426 -8.209681
Te 4.940757 18.049426 -11.491794
Te 4.940757 14.767313 -8.209681
Te 1.658643 14.767313 -4.927567
Te 1.658643 18.049426 -1.645453
Te 4.940757 18.049426 -4.927567
Te 4.940757 14.767313 -1.645453
Te 1.658643 14.767313 1.636660
Te 1.658643 18.049426 4.918774
Te 4.940757 18.049426 1.636660
Te 4.940757 14.767313 4.918774
Te 1.658643 14.767313 8.200887
Te 1.658643 18.049426 11.483001
Te 4.940757 18.049426 8.200887
Te 4.940757 14.767313 11.483001
Te 1.658643 14.767313 14.765114
Te 8.222871 -14.771709 -8.209681
Te 8.222871 -18.053823 -4.927567
Te 8.222871 -14.771709 -1.645453
Te 11.504984 -14.771709 -4.927567
Te 11.504984 -18.053823 -1.645453
Te 8.222871 -18.053823 1.636660
Te 8.222871 -14.771709 4.918774
Te 11.504984 -14.771709 1.636660
Te 11.504984 -18.053823 4.918774
Te 8.222871 -18.053823 8.200887
Te 8.222871 -14.771709 11.483001
Te 11.504984 -14.771709 8.200887
Te 8.222871 -8.207482 -14.773908
Te 8.222871 -11.489596 -11.491794
Te 8.222871 -8.207482 -8.209681
Te 11.504984 -8.207482 -11.491794
Te 11.504984 -11.489596 -8.209681
Te 8.222871 -11.489596 -4.927567
Te 8.222871 -8.207482 -1.645453
Te 11.504984 -8.207482 -4.927567
Te 11.504984 -11.489596 -1.645453
Te 8.222871 -11.489596 1.636660
Te 8.222871 -8.207482 4.918774
Te 11.504984 -8.207482 1.636660
Te 11.504984 -11.489596 4.918774
Te 8.222871 -11.489596 8.200887
Te 8.222871 -8.207482 11.483001
Te 11.504984 -8.207482 8.200887
Te 11.504984 -11.489596 11.483001
Te 8.222871 -11.489596 14.765114
Te 8.222871 -8.207482 18.047228
Te 11.504984 -8.207482 14.765114
Te 8.222871 -4.925369 -18.056021
Te 8.222871 -1.643255 -14.773908
Te 11.504984 -1.643255 -18.056021
Te 11.504984 -4.925369 -14.773908
Te 8.222871 -4.925369 -11.491794
Te 8.222871 -1.643255 -8.209681
Te 11.504984 -1.643255 -11.491794
Te 11.504984 -4.925369 -8.209681
Te 8.222871 -4.925369 -4.927567
Te 8.222871 -1.643255 -1.645453
Te 11.504984 -1.643255 -4.927567
Te 11.504984 -4.925369 -1.645453
Te 8.222871 -4.925369 1.636660
Te 8.222871 -1.643255 4.918774
Te 11.504984 -1.643255 1.636660
Te 11.504984 -4.925369 4.918774
Te 8.222871 -4.925369 8.200887
Te 8.222871 -1.643255 11.483001
Te 11.504984 -1.643255 8.200887
Te 11.504984 -4.925369 11.483001
Te 8.222871 -4.925369 14.765114
Te 8.222871 -1.643255 18.047228
Te 11.504984 -1.643255 14.765114
Te 11.504984 -4.925369 18.047228
Te 8.222871 1.638858 -18.056021
Te 8.222871 4.920972 -14.773908
Te 11.504984 4.920972 -18.056021
Te 11.504984 1.638858 -14.773908
Te 8.222871 1.638858 -11.491794
Te 8.222871 4.920972 -8.209681
Te 11.504984 4.920972 -11.491794
Te 11.504984 1.638858 -8.209681
Te 8.222871 1.638858 -4.927567
Te 8.222871 4.920972 -1.645453
Te 11.504984 4.920972 -4.927567
Te 11.504984 1.638858 -1.645453
Te 8.222871 1.638858 1.636660
Te 8.222871 4.920972 4.918774
Te 11.504984 4.920972 1.636660
Te 11.504984 1.638858 4.918774
Te 8.222871 1.638858 8.200887
Te 8.222871 4.920972 11.483001
Te 11.504984 4.920972 8.200887
Te 11.504984 1.638858 11.483001
Te 8.222871 1.638858 14.765114
Te 8.222871 4.920972 18.047228
Te 11.504984 4.920972 14.765114
Te 11.504984 1.638858 18.047228
Te 8.222871 8.203086 -18.056021
Te 8.222871 11.485199 -14.773908
Te 11.504984 8.203086 -14.773908
Te 8.222871 8.203086 -11.491794
Te 8.222871 11.485199 -8.209681
Te 11.504984 11.485199 -11.491794
Te 11.504984 8.203086 -8.209681
Te 8.222871 8.203086 -4.927567
Te 8.222871 11.485199 -1.645453
Te 11.504984 11.485199 -4.927567
Te 11.504984 8.203086 -1.645453
Te 8.222871 8.203086 1.636660
Te 8.222871 11.485199 4.918774
Te 11.504984 11.485199 1.636660
Te 11.504984 8.203086 4.918774
Te 8.222871 8.203086 8.200887
Te 8.222871 11.485199 11.483001
Te 11.504984 11.485199 8.200887
Te 11.504984 8.203086 11.483001
Te 8.222871 8.203086 14.765114
Te 8.222871 14.767313 -11.491794
Te 8.222871 18.049426 -8.209681
Te 11.504984 14.767313 -8.209681
Te 8.222871 14.767313 -4.927567
Te 8.222871 18.049426 -1.645453
Te 11.504984 18.049426 -4.927567
Te 11.504984 14.767313 -1.645453
Te 8.222871 14.767313 1.636660
Te 8.222871 18.049426 4.918774
Te 11.504984 18.049426 1.636660
Te 11.504984 14.767313 4.918774
Te 8.222871 14.767313 8.200887
Te 14.787098 -14.771709 -1.645453
Te 14.787098 -18.053823 1.636660
Te 14.787098 -14.771709 4.918774
Te 18.069211 -14.771709 1.636660
Te 14.787098 -8.207482 -8.209681
Te 14.787098 -11.489596 -4.927567
Te 14.787098 -8.207482 -1.645453
Te 18.069211 -8.207482 -4.927567
Te 18.069211 -11.489596 -1.645453
Te 14.787098 -11.489596 1.636660
Te 14.787098 -8.207482 4.918774
Te 18.069211 -8.207482 1.636660
Te 18.069211 -11.489596 4.918774
Te 14.787098 -11.489596 8.200887
Te 14.787098 -8.207482 11.483001
Te 18.069211 -8.207482 8.200887
Te 14.787098 -1.643255 -14.773908
Te 14.787098 -4.925369 -11.491794
Te 14.787098 -1.643255 -8.209681
Te 18.069211 -1.643255 -11.491794
Te 18.069211 -4.925369 -8.209681
Te 14.787098 -4.925369 -4.927567
Te 14.787098 -1.643255 -1.645453
Te 18.069211 -1.643255 -4.927567
Te 18.069211 -4.925369 -1.645453
Te 14.787098 -4.925369 1.636660
Te 14.787098 -1.643255 4.918774
Te 18.069211 -1.643255 1.636660
Te 18.069211 -4.925369 4.918774
Te 14.787098 -4.925369 8.200887
Te 14.787098 -1.643255 11.483001
Te 18.069211 -1.643255 8.200887
Te 18.069211 -4.925369 11.483001
Te 14.787098 -4.925369 14.765114
Te 14.787098 -1.643255 18.047228
Te 18.069211 -1.643255 14.765114
Te 14.787098 1.638858 -18.056021
Te 14.787098 4.920972 -14.773908
Te 18.069211 1.638858 -14.773908
Te 14.787098 1.638858 -11.491794
Te 14.787098 4.920972 -8.209681
Te 18.069211 4.920972 -11.491794
Te 18.069211 1.638858 -8.209681
Te 14.787098 1.638858 -4.927567
Te 14.787098 4.920972 -1.645453
Te 18.069211 4.920972 -4.927567
Te 18.069211 1.638858 -1.645453
Te 14.787098 1.638858 1.636660
Te 14.787098 4.920972 4.918774
Te 18.069211 4.920972 1.636660
Te 18.069211 1.638858 4.918774
Te 14.787098 1.638858 8.200887
Te 14.787098 4.920972 11.483001
Te 18.069211 4.920972 8.200887
Te 18.069211 1.638858 11.483001
Te 14.787098 1.638858 14.765114
Te 14.787098 8.203086 -11.491794
Te 14.787098 11.485199 -8.209681
Te 18.069211 8.203086 -8.209681
Te 14.787098 8.203086 -4.927567
Te 14.787098 11.485199 -1.645453
Te 18.069211 11.485199 -4.927567
Te 18.069211 8.203086 -1.645453
Te 14.787098 8.203086 1.636660
Te 14.787098 11.485199 4.918774
Te 18.069211 11.485199 1.636660
Te 18.069211 8.203086 4.918774
Te 14.787098 8.203086 8.200887
Te 14.787098 14.767313 -4.927567
Te 14.787098 18.049426 -1.645453
Te 18.069211 14.767313 -1.645453
Te 14.787098 14.767313 1.636660
Cl -21.316151 -8.207482 -4.927567
Cl -21.316151 -11.489596 -1.645453
Cl -21.316151 -8.207482 1.636660
Cl -21.316151 -1.643255 -11.491794
Cl -21.316151 -4.925369 -8.209681
Cl -21.316151 -1.643255 -4.927567
Cl -21.316151 -4.925369 -1.645453
Cl -21.316151 -1.643255 1.636660
Cl -21.316151 -4.925369 4.918774
Cl -21.316151 -1.643255 8.200887
Cl -21.316151 1.638858 -8.209681
Cl -21.316151 4.920972 -4.927567
Cl -21.316151 1.638858 -1.645453
Cl -21.316151 4.920972 1.636660
Cl -21.316151 1.638858 4.918774
Cl -21.316151 4.920972 8.200887
Cl -21.316151 1.638858 11.483001
Cl -21.316151 8.203086 -1.645453
Cl -21.316151 11.485199 1.636660
Cl -21.316151 8.203086 4.918774
Cl -11.469811 -21.335936 -1.645453
Cl -8.187697 -21.335936 -4.927567
Cl -8.187697 -21.335936 1.636660
Cl -11.469811 -1.643255 -21.338135
Cl -8.187697 -4.925369 -21.338135
Cl -8.187697 -1.643255 21.329341
Cl -8.187697 1.638858 -21.338135
Cl -11.469811 1.638858 21.329341
Cl -8.187697 4.920972 21.329341
Cl -8.187697 21.331540 -1.645453
Cl -11.469811 21.331540 1.636660
Cl -8.187697 21.331540 4.918774
Cl -4.905584 -21.335936 -8.209681
Cl -1.623470 -21.335936 -11.491794
Cl -4.905584 -21.335936 -1.645453
Cl -1.623470 -21.335936 -4.927567
Cl -4.905584 -21.335936 4.918774
Cl -1.623470 -21.335936 1.636660
Cl -1.623470 -21.335936 8.200887
Cl -4.905584 -8.207482 -21.338135
Cl -1.623470 -11.489596 -21.338135
Cl -1.623470 -8.207482 21.329341
Cl -4.905584 -1.643255 -21.338135
Cl -1.623470 -4.925369 -21.338135
Cl -4.905584 -4.925369 21.329341
Cl -1.623470 -1.643255 21.329341
Cl -4.905584 4.920972 -21.338135
Cl -1.623470 1.638858 -21.338135
Cl -4.905584 1.638858 21.329341
Cl -1.623470 4.920972 21.329341
Cl -1.623470 8.203086 -21.338135
Cl -4.905584 8.203086 21.329341
Cl -1.623470 11.485199 21.329341
Cl -1.623470 21.331540 -8.209681
Cl -4.905584 21.331540 -4.927567
Cl -1.623470 21.331540 -1.645453
Cl -4.905584 21.331540 1.636660
Cl -1.623470 21.331540 4.918774
Cl -4.905584 21.331540 8.200887
Cl -1.623470 21.331540 11.483001
Cl 1.658643 -21.335936 -8.209681
Cl 1.658643 -21.335936 -1.645453
Cl 4.940757 -21.335936 -4.927567
Cl 1.658643 -21.335936 4.918774
Cl 4.940757 -21.335936 1.636660
Cl 1.658643 -21.335936 11.483001
Cl 4.940757 -21.335936 8.200887
Cl 1.658643 -8.207482 -21.338135
Cl 1.658643 -11.489596 21.329341
Cl 4.940757 -8.207482 21.329341
Cl 1.658643 -1.643255 -21.338135
Cl 4.940757 -4.925369 -21.338135
Cl 1.658643 -4.925369 21.329341
Cl 4.940757 -1.643255 21.329341
Cl 1.658643 4.920972 -21.338135
Cl 4.940757 1.638858 -21.338135
Cl 1.658643 1.638858 21.329341
Cl 4.940757 4.920972 21.329341
Cl 1.658643 11.485199 -21.338135
Cl 4.940757 8.203086 -21.338135
Cl 1.658643 8.203086 21.329341
Cl 1.658643 21.331540 -11.491794
Cl 4.940757 21.331540 -8.209681
Cl 1.658643 21.331540 -4.927567
Cl 4.940757 21.331540 -1.645453
Cl 1.658643 21.331540 1.636660
Cl 4.940757 21.331540 4.918774
Cl 1.658643 21.331540 8.200887
Cl 8.222871 -21.335936 -1.645453
Cl 8.222871 -21.335936 4.918774
Cl 11.504984 -21.335936 1.636660
Cl 8.222871 -1.643255 -21.338135
Cl 8.222871 -4.925369 21.329341
Cl 11.504984 -1.643255 21.329341
Cl 8.222871 4.920972 -21.338135
Cl 11.504984 1.638858 -21.338135
Cl 8.222871 1.638858 21.329341
Cl 8.222871 21.331540 -4.927567
Cl 11.504984 21.331540 -1.645453
Cl 8.222871 21.331540 1.636660
Cl 21.351325 -8.207482 -1.645453
Cl 21.351325 -11.489596 1.636660
Cl 21.351325 -8.207482 4.918774
Cl 21.351325 -1.643255 -8.209681
Cl 21.351325 -4.925369 -4.927567
Cl 21.351325 -1.643255 -1.645453
Cl 21.351325 -4.925369 1.636660
Cl 21.351325 -1.643255 4.918774
Cl 21.351325 -4.925369 8.200887
Cl 21.351325 -1.643255 11.483001
Cl 21.351325 1.638858 -11.491794
Cl 21.351325 4.920972 -8.209681
Cl 21.351325 1.638858 -4.927567
Cl 21.351325 4.920972 -1.645453
Cl 21.351325 1.638858 1.636660
Cl 21.351325 4.920972 4.918774
Cl 21.351325 1.638858 8.200887
Cl 21.351325 8.203086 -4.927567
Cl 21.351325 11.485199 -1.645453
Cl 21.351325 8.203086 1.636660
Cl -11.469811 -11.489596 11.483001
Cl -11.469811 11.485199 -11.491794
Cl 11.504984 -11.489596 -11.491794
Cl 11.504984 11.485199 11.483001
Cl -18.034038 -14.771709 1.636660
Cl -18.034038 1.638858 -14.773908
Cl 1.658643 -18.053823 -14.773908
Cl 1.658643 18.049426 14.765114
Cl -1.623470 -14.771709 18.047228
Cl -1.623470 18.049426 -14.773908
Cl 18.069211 -1.643255 -14.773908
Cl 18.069211 1.638858 14.765114
Cl -18.034038 -1.643255 14.765114
Cl -18.034038 14.767313 -1.645453
Cl 14.787098 -18.053823 -1.645453
Cl 18.069211 14.767313 1.636660
Cl -8.187697 -18.053823 8.200887
Cl -8.187697 8.203086 -18.056021
Cl 8.222871 -8.207482 -18.056021
Cl 8.222871 8.203086 18.047228
Cl -11.469811 -4.925369 18.047228
Cl -11.469811 18.049426 -4.927567
