719
PbSe-Se-Pb314Se223Cl182-clean
Pb -15.454118 -3.090824 -3.090824
Pb -15.454118 -6.181647 -0.000000
Pb -15.454118 -3.090824 3.090824
Pb -15.454118 0.000000 -6.181647
Pb -15.454118 3.090824 -3.090824
Pb -15.454118 0.000000 -0.000000
Pb -15.454118 3.090824 3.090824
Pb -15.454118 0.000000 6.181647
Pb -15.454118 6.181647 -0.000000
Pb -9.272471 -9.272471 -3.090824
Pb -9.272471 -12.363294 -0.000000
Pb -12.363294 -9.272471 -0.000000
Pb -9.272471 -9.272471 3.090824
Pb -9.272471 -3.090824 -9.272471
Pb -9.272471 -6.181647 -6.181647
Pb -12.363294 -3.090824 -6.181647
Pb -12.363294 -6.181647 -3.090824
Pb -9.272471 -3.090824 -3.090824
Pb -9.272471 -6.181647 -0.000000
Pb -12.363294 -3.090824 -0.000000
Pb -12.363294 -6.181647 3.090824
Pb -9.272471 -3.090824 3.090824
Pb -9.272471 -6.181647 6.181647
Pb -12.363294 -3.090824 6.181647
Pb -9.272471 -3.090824 9.272471
Pb -9.272471 0.000000 -12.363294
Pb -12.363294 0.000000 -9.272471
Pb -9.272471 3.090824 -9.272471
Pb -9.272471 0.000000 -6.181647
Pb -12.363294 3.090824 -6.181647
Pb -12.363294 0.000000 -3.090824
Pb -9.272471 3.090824 -3.090824
Pb -9.272471 0.000000 -0.000000
Pb -12.363294 3.090824 -0.000000
Pb -12.363294 0.000000 3.090824
Pb -9.272471 3.090824 3.090824
Pb -9.272471 0.000000 6.181647
Pb -12.363294 3.090824 6.181647
Pb -12.363294 0.000000 9.272471
Pb -9.272471 3.090824 9.272471
Pb -9.272471 0.000000 12.363294
Pb -9.272471 6.181647 -6.181647
Pb -12.363294 6.181647 -3.090824
Pb -9.272471 9.272471 -3.090824
Pb -9.272471 6.181647 -0.000000
Pb -12.363294 9.272471 -0.000000
Pb -12.363294 6.181647 3.090824
Pb -9.272471 9.272471 3.090824
Pb -9.272471 6.181647 6.181647
Pb -9.272471 12.363294 0.000000
Pb -3.090824 -15.454118 -3.090824
Pb -6.181647 -15.454118 -0.000000
Pb -3.090824 -15.454118 3.090824
Pb -3.090824 -9.272471 -9.272471
Pb -3.090824 -12.363294 -6.181647
Pb -6.181647 -9.272471 -6.181647
Pb -6.181647 -12.363294 -3.090824
Pb -3.090824 -9.272471 -3.090824
Pb -3.090824 -12.363294 -0.000000
Pb -6.181647 -9.272471 -0.000000
Pb -6.181647 -12.363294 3.090824
Pb -3.090824 -9.272471 3.090824
Pb -3.090824 -12.363294 6.181647
Pb -6.181647 -9.272471 6.181647
Pb -3.090824 -9.272471 9.272471
Pb -3.090824 -3.090824 -15.454118
Pb -3.090824 -6.181647 -12.363294
Pb -6.181647 -3.090824 -12.363294
Pb -6.181647 -6.181647 -9.272471
Pb -3.090824 -3.090824 -9.272471
Pb -3.090824 -6.181647 -6.181647
Pb -6.181647 -3.090824 -6.181647
Pb -6.181647 -6.181647 -3.090824
Pb -3.090824 -3.090824 -3.090824
Pb -3.090824 -6.181647 -0.000000
Pb -6.181647 -3.090824 -0.000000
Pb -6.181647 -6.181647 3.090824
Pb -3.090824 -3.090824 3.090824
Pb -3.090824 -6.181647 6.181647
Pb -6.181647 -3.090824 6.181647
Pb -6.181647 -6.181647 9.272471
Pb -3.090824 -3.090824 9.272471
Pb -3.090824 -6.181647 12.363294
Pb -6.181647 -3.090824 12.363294
Pb -3.090824 -3.090824 15.454118
Pb -6.181647 0.000000 -15.454118
Pb -3.090824 3.090824 -15.454118
Pb -3.090824 0.000000 -12.363294
Pb -6.181647 3.090824 -12.363294
Pb -6.181647 0.000000 -9.272471
Pb -3.090824 3.090824 -9.272471
Pb -3.090824 0.000000 -6.181647
Pb -6.181647 3.090824 -6.181647
Pb -6.181647 0.000000 -3.090824
Pb -3.090824 3.090824 -3.090824
Pb -3.090824 0.000000 -0.000000
Pb -6.181647 3.090824 -0.000000
Pb -6.181647 0.000000 3.090824
Pb -3.090824 3.090824 3.090824
Pb -3.090824 0.000000 6.181647
Pb -6.181647 3.090824 6.181647
Pb -6.181647 0.000000 9.272471
Pb -3.090824 3.090824 9.272471
Pb -3.090824 0.000000 12.363294
Pb -6.181647 3.090824 12.363294
Pb -6.181647 0.000000 15.454118
Pb -3.090824 3.090824 15.454118
Pb -3.090824 6.181647 -12.363294
Pb -6.181647 6.181647 -9.272471
Pb -3.090824 9.272471 -9.272471
Pb -3.090824 6.181647 -6.181647
Pb -6.181647 9.272471 -6.181647
Pb -6.181647 6.181647 -3.090824
Pb -3.090824 9.272471 -3.090824
Pb -3.090824 6.181647 0.000000
Pb -6.181647 9.272471 0.000000
Pb -6.181647 6.181647 3.090824
Pb -3.090824 9.272471 3.090824
Pb -3.090824 6.181647 6.181647
Pb -6.181647 9.272471 6.181647
Pb -6.181647 6.181647 9.272471
Pb -3.090824 9.272471 9.272471
Pb -3.090824 6.181647 12.363294
Pb -3.090824 12.363294 -6.181647
Pb -6.181647 12.363294 -3.090824
Pb -3.090824 15.454118 -3.090824
Pb -3.090824 12.363294 0.000000
Pb -6.181647 15.454118 0.000000
Pb -6.181647 12.363294 3.090824
Pb -3.090824 15.454118 3.090824
Pb -3.090824 12.363294 6.181647
Pb 0.000000 -15.454118 -6.181647
Pb 3.090824 -15.454118 -3.090824
Pb 0.000000 -15.454118 -0.000000
Pb 3.090824 -15.454118 3.090824
Pb 0.000000 -15.454118 6.181647
Pb 0.000000 -9.272471 -12.363294
Pb 0.000000 -12.363294 -9.272471
Pb 3.090824 -9.272471 -9.272471
Pb 3.090824 -12.363294 -6.181647
Pb 0.000000 -9.272471 -6.181647
Pb 0.000000 -12.363294 -3.090824
Pb 3.090824 -9.272471 -3.090824
Pb 3.090824 -12.363294 -0.000000
Pb 0.000000 -9.272471 -0.000000
Pb 0.000000 -12.363294 3.090824
Pb 3.090824 -9.272471 3.090824
Pb 3.090824 -12.363294 6.181647
Pb 0.000000 -9.272471 6.181647
Pb 0.000000 -12.363294 9.272471
Pb 3.090824 -9.272471 9.272471
Pb 0.000000 -9.272471 12.363294
Pb 0.000000 -6.181647 -15.454118
Pb 3.090824 -3.090824 -15.454118
Pb 3.090824 -6.181647 -12.363294
Pb 0.000000 -3.090824 -12.363294
Pb 0.000000 -6.181647 -9.272471
Pb 3.090824 -3.090824 -9.272471
Pb 3.090824 -6.181647 -6.181647
Pb 0.000000 -3.090824 -6.181647
Pb 0.000000 -6.181647 -3.090824
Pb 3.090824 -3.090824 -3.090824
Pb 3.090824 -6.181647 -0.000000
Pb 0.000000 -3.090824 -0.000000
Pb 0.000000 -6.181647 3.090824
Pb 3.090824 -3.090824 3.090824
Pb 3.090824 -6.181647 6.181647
Pb 0.000000 -3.090824 6.181647
Pb 0.000000 -6.181647 9.272471
Pb 3.090824 -3.090824 9.272471
Pb 3.090824 -6.181647 12.363294
Pb 0.000000 -3.090824 12.363294
Pb 0.000000 -6.181647 15.454118
Pb 3.090824 -3.090824 15.454118
Pb 0.000000 0.000000 -15.454118
Pb 3.090824 3.090824 -15.454118
Pb 3.090824 0.000000 -12.363294
Pb 0.000000 3.090824 -12.363294
Pb 0.000000 0.000000 -9.272471
Pb 3.090824 3.090824 -9.272471
Pb 3.090824 0.000000 -6.181647
Pb 0.000000 3.090824 -6.181647
Pb 0.000000 0.000000 -3.090824
Pb 3.090824 3.090824 -3.090824
Pb 3.090824 0.000000 0.000000
Pb 0.000000 3.090824 0.000000
Pb 0.000000 0.000000 3.090824
Pb 3.090824 3.090824 3.090824
Pb 3.090824 0.000000 6.181647
Pb 0.000000 3.090824 6.181647
Pb 0.000000 0.000000 9.272471
Pb 3.090824 3.090824 9.272471
Pb 3.090824 0.000000 12.363294
Pb 0.000000 3.090824 12.363294
Pb 0.000000 0.000000 15.454118
Pb 3.090824 3.090824 15.454118
Pb 0.000000 6.181647 -15.454118
Pb 3.090824 6.181647 -12.363294
Pb 0.000000 9.272471 -12.363294
Pb 0.000000 6.181647 -9.272471
Pb 3.090824 9.272471 -9.272471
Pb 3.090824 6.181647 -6.181647
Pb 0.000000 9.272471 -6.181647
Pb 0.000000 6.181647 -3.090824
Pb 3.090824 9.272471 -3.090824
Pb 3.090824 6.181647 0.000000
Pb 0.000000 9.272471 0.000000
Pb 0.000000 6.181647 3.090824
Pb 3.090824 9.272471 3.090824
Pb 3.090824 6.181647 6.181647
Pb 0.000000 9.272471 6.181647
Pb 0.000000 6.181647 9.272471
Pb 3.090824 9.272471 9.272471
Pb 3.090824 6.181647 12.363294
Pb 0.000000 9.272471 12.363294
Pb 0.000000 6.181647 15.454118
Pb 0.000000 12.363294 -9.272471
Pb 3.090824 12.363294 -6.181647
Pb 0.000000 15.454118 -6.181647
Pb 0.000000 12.363294 -3.090824
Pb 3.090824 15.454118 -3.090824
Pb 3.090824 12.363294 0.000000
Pb 0.000000 15.454118 0.000000
Pb 0.000000 12.363294 3.090824
Pb 3.090824 15.454118 3.090824
Pb 3.090824 12.363294 6.181647
Pb 0.000000 15.454118 6.181647
Pb 0.000000 12.363294 9.272471
Pb 6.181647 -15.454118 -0.000000
Pb 6.181647 -9.272471 -6.181647
Pb 6.181647 -12.363294 -3.090824
Pb 9.272471 -9.272471 -3.090824
Pb 9.272471 -12.363294 -0.000000
Pb 6.181647 -9.272471 -0.000000
Pb 6.181647 -12.363294 3.090824
Pb 9.272471 -9.272471 3.090824
Pb 6.181647 -9.272471 6.181647
Pb 6.181647 -3.090824 -12.363294
Pb 6.181647 -6.181647 -9.272471
Pb 9.272471 -3.090824 -9.272471
Pb 9.272471 -6.181647 -6.181647
Pb 6.181647 -3.090824 -6.181647
Pb 6.181647 -6.181647 -3.090824
Pb 9.272471 -3.090824 -3.090824
Pb 9.272471 -6.181647 0.000000
Pb 6.181647 -3.090824 0.000000
Pb 6.181647 -6.181647 3.090824
Pb 9.272471 -3.090824 3.090824
Pb 9.272471 -6.181647 6.181647
Pb 6.181647 -3.090824 6.181647
Pb 6.181647 -6.181647 9.272471
Pb 9.272471 -3.090824 9.272471
Pb 6.181647 -3.090824 12.363294
Pb 6.181647 0.000000 -15.454118
Pb 9.272471 0.000000 -12.363294
Pb 6.181647 3.090824 -12.363294
Pb 6.181647 0.000000 -9.272471
Pb 9.272471 3.090824 -9.272471
Pb 9.272471 0.000000 -6.181647
Pb 6.181647 3.090824 -6.181647
Pb 6.181647 0.000000 -3.090824
Pb 9.272471 3.090824 -3.090824
Pb 9.272471 0.000000 0.000000
Pb 6.181647 3.090824 0.000000
Pb 6.181647 0.000000 3.090824
Pb 9.272471 3.090824 3.090824
Pb 9.272471 0.000000 6.181647
Pb 6.181647 3.090824 6.181647
Pb 6.181647 0.000000 9.272471
Pb 9.272471 3.090824 9.272471
Pb 9.272471 0.000000 12.363294
Pb 6.181647 3.090824 12.363294
Pb 6.181647 0.000000 15.454118
Pb 6.181647 6.181647 -9.272471
Pb 9.272471 6.181647 -6.181647
Pb 6.181647 9.272471 -6.181647
Pb 6.181647 6.181647 -3.090824
Pb 9.272471 9.272471 -3.090824
Pb 9.272471 6.181647 0.000000
Pb 6.181647 9.272471 0.000000
Pb 6.181647 6.181647 3.090824
Pb 9.272471 9.272471 3.090824
Pb 9.272471 6.181647 6.181647
Pb 6.181647 9.272471 6.181647
Pb 6.181647 6.181647 9.272471
Pb 6.181647 12.363294 -3.090824
Pb 9.272471 12.363294 0.000000
Pb 6.181647 15.454118 0.000000
Pb 6.181647 12.363294 3.090824
Pb 12.363294 -9.272471 0.000000
Pb 12.363294 -3.090824 -6.181647
Pb 12.363294 -6.181647 -3.090824
Pb 15.454118 -3.090824 -3.090824
Pb 15.454118 -6.181647 0.000000
Pb 12.363294 -3.090824 0.000000
Pb 12.363294 -6.181647 3.090824
Pb 15.454118 -3.090824 3.090824
Pb 12.363294 -3.090824 6.181647
Pb 12.363294 0.000000 -9.272471
Pb 15.454118 0.000000 -6.181647
Pb 12.363294 3.090824 -6.181647
Pb 12.363294 0.000000 -3.090824
Pb 15.454118 3.090824 -3.090824
Pb 15.454118 0.000000 0.000000
Pb 12.363294 3.090824 0.000000
Pb 12.363294 0.000000 3.090824
Pb 15.454118 3.090824 3.090824
Pb 15.454118 0.000000 6.181647
Pb 12.363294 3.090824 6.181647
Pb 12.363294 0.000000 9.272471
Pb 12.363294 6.181647 -3.090824
Pb 15.454118 6.181647 0.000000
Pb 12.363294 9.272471 0.000000
Pb 12.363294 6.181647 3.090824
Se -15.454118 -3.090824 -0.000000
Se -15.454118 0.000000 -3.090824
Se -15.454118 0.000000 3.090824
Se -9.272471 -9.272471 -0.000000
Se -9.272471 -3.090824 -6.181647
Se -12.363294 -6.181647 -0.000000
Se -9.272471 -6.181647 -3.090824
Se -12.363294 -3.090824 -3.090824
Se -9.272471 -3.090824 -0.000000
Se -9.272471 -6.181647 3.090824
Se -12.363294 -3.090824 3.090824
Se -9.272471 -3.090824 6.181647
Se -12.363294 0.000000 -6.181647
Se -9.272471 0.000000 -9.272471
Se -9.272471 3.090824 -6.181647
Se -12.363294 0.000000 -0.000000
Se -9.272471 0.000000 -3.090824
Se -12.363294 3.090824 -3.090824
Se -9.272471 3.090824 -0.000000
Se -12.363294 0.000000 6.181647
Se -9.272471 0.000000 3.090824
Se -12.363294 3.090824 3.090824
Se -9.272471 3.090824 6.181647
Se -9.272471 0.000000 9.272471
Se -12.363294 6.181647 -0.000000
Se -9.272471 6.181647 -3.090824
Se -9.272471 9.272471 0.000000
Se -9.272471 6.181647 3.090824
Se -3.090824 -15.454118 -0.000000
Se -3.090824 -9.272471 -6.181647
Se -6.181647 -12.363294 -0.000000
Se -3.090824 -12.363294 -3.090824
Se -6.181647 -9.272471 -3.090824
Se -3.090824 -9.272471 -0.000000
Se -3.090824 -12.363294 3.090824
Se -6.181647 -9.272471 3.090824
Se -3.090824 -9.272471 6.181647
Se -3.090824 -3.090824 -12.363294
Se -6.181647 -6.181647 -6.181647
Se -3.090824 -6.181647 -9.272471
Se -6.181647 -3.090824 -9.272471
Se -3.090824 -3.090824 -6.181647
Se -6.181647 -6.181647 -0.000000
Se -3.090824 -6.181647 -3.090824
Se -6.181647 -3.090824 -3.090824
Se -3.090824 -3.090824 -0.000000
Se -6.181647 -6.181647 6.181647
Se -3.090824 -6.181647 3.090824
Se -6.181647 -3.090824 3.090824
Se -3.090824 -3.090824 6.181647
Se -3.090824 -6.181647 9.272471
Se -6.181647 -3.090824 9.272471
Se -3.090824 -3.090824 12.363294
Se -6.181647 0.000000 -12.363294
Se -3.090824 3.090824 -12.363294
Se -6.181647 0.000000 -6.181647
Se -3.090824 0.000000 -9.272471
Se -6.181647 3.090824 -9.272471
Se -3.090824 3.090824 -6.181647
Se -6.181647 0.000000 -0.000000
Se -3.090824 0.000000 -3.090824
Se -6.181647 3.090824 -3.090824
Se -3.090824 3.090824 0.000000
Se -6.181647 0.000000 6.181647
Se -3.090824 0.000000 3.090824
Se -6.181647 3.090824 3.090824
Se -3.090824 3.090824 6.181647
Se -6.181647 0.000000 12.363294
Se -3.090824 0.000000 9.272471
Se -6.181647 3.090824 9.272471
Se -3.090824 3.090824 12.363294
Se -3.090824 0.000000 15.454118
Se -6.181647 6.181647 -6.181647
Se -3.090824 6.181647 -9.272471
Se -3.090824 9.272471 -6.181647
Se -6.181647 6.181647 0.000000
Se -3.090824 6.181647 -3.090824
Se -6.181647 9.272471 -3.090824
Se -3.090824 9.272471 0.000000
Se -6.181647 6.181647 6.181647
Se -3.090824 6.181647 3.090824
Se -6.181647 9.272471 3.090824
Se -3.090824 9.272471 6.181647
Se -3.090824 6.181647 9.272471
Se -6.181647 12.363294 0.000000
Se -3.090824 12.363294 -3.090824
Se -3.090824 15.454118 0.000000
Se -3.090824 12.363294 3.090824
Se 0.000000 -15.454118 -3.090824
Se 3.090824 -15.454118 -0.000000
Se 0.000000 -15.454118 3.090824
Se 0.000000 -12.363294 -6.181647
Se 0.000000 -9.272471 -9.272471
Se 3.090824 -9.272471 -6.181647
Se 0.000000 -12.363294 -0.000000
Se 3.090824 -12.363294 -3.090824
Se 0.000000 -9.272471 -3.090824
Se 3.090824 -9.272471 -0.000000
Se 0.000000 -12.363294 6.181647
Se 3.090824 -12.363294 3.090824
Se 0.000000 -9.272471 3.090824
Se 3.090824 -9.272471 6.181647
Se 0.000000 -9.272471 9.272471
Se 0.000000 -6.181647 -12.363294
Se 0.000000 -3.090824 -15.454118
Se 3.090824 -3.090824 -12.363294
Se 0.000000 -6.181647 -6.181647
Se 3.090824 -6.181647 -9.272471
Se 0.000000 -3.090824 -9.272471
Se 3.090824 -3.090824 -6.181647
Se 0.000000 -6.181647 -0.000000
Se 3.090824 -6.181647 -3.090824
Se 0.000000 -3.090824 -3.090824
Se 3.090824 -3.090824 0.000000
Se 0.000000 -6.181647 6.181647
Se 3.090824 -6.181647 3.090824
Se 0.000000 -3.090824 3.090824
Se 3.090824 -3.090824 6.181647
Se 0.000000 -6.181647 12.363294
Se 3.090824 -6.181647 9.272471
Se 0.000000 -3.090824 9.272471
Se 3.090824 -3.090824 12.363294
Se 0.000000 -3.090824 15.454118
Se 0.000000 0.000000 -12.363294
Se 3.090824 0.000000 -15.454118
Se 0.000000 3.090824 -15.454118
Se 3.090824 3.090824 -12.363294
Se 0.000000 0.000000 -6.181647
Se 3.090824 0.000000 -9.272471
Se 0.000000 3.090824 -9.272471
Se 3.090824 3.090824 -6.181647
Se 0.000000 0.000000 0.000000
Se 3.090824 0.000000 -3.090824
Se 0.000000 3.090824 -3.090824
Se 3.090824 3.090824 0.000000
Se 0.000000 0.000000 6.181647
Se 3.090824 0.000000 3.090824
Se 0.000000 3.090824 3.090824
Se 3.090824 3.090824 6.181647
Se 0.000000 0.000000 12.363294
Se 3.090824 0.000000 9.272471
Se 0.000000 3.090824 9.272471
Se 3.090824 3.090824 12.363294
Se 3.090824 0.000000 15.454118
Se 0.000000 3.090824 15.454118
Se 0.000000 6.181647 -12.363294
Se 0.000000 6.181647 -6.181647
Se 3.090824 6.181647 -9.272471
Se 0.000000 9.272471 -9.272471
Se 3.090824 9.272471 -6.181647
Se 0.000000 6.181647 0.000000
Se 3.090824 6.181647 -3.090824
Se 0.000000 9.272471 -3.090824
Se 3.090824 9.272471 0.000000
Se 0.000000 6.181647 6.181647
Se 3.090824 6.181647 3.090824
Se 0.000000 9.272471 3.090824
Se 3.090824 9.272471 6.181647
Se 0.000000 6.181647 12.363294
Se 3.090824 6.181647 9.272471
Se 0.000000 9.272471 9.272471
Se 0.000000 12.363294 -6.181647
Se 0.000000 12.363294 0.000000
Se 3.090824 12.363294 -3.090824
Se 0.000000 15.454118 -3.090824
Se 3.090824 15.454118 0.000000
Se 0.000000 12.363294 6.181647
Se 3.090824 12.363294 3.090824
Se 0.000000 15.454118 3.090824
Se 6.181647 -12.363294 -0.000000
Se 6.181647 -9.272471 -3.090824
Se 9.272471 -9.272471 0.000000
Se 6.181647 -9.272471 3.090824
Se 6.181647 -6.181647 -6.181647
Se 6.181647 -3.090824 -9.272471
Se 9.272471 -3.090824 -6.181647
Se 6.181647 -6.181647 0.000000
Se 9.272471 -6.181647 -3.090824
Se 6.181647 -3.090824 -3.090824
Se 9.272471 -3.090824 0.000000
Se 6.181647 -6.181647 6.181647
Se 9.272471 -6.181647 3.090824
Se 6.181647 -3.090824 3.090824
Se 9.272471 -3.090824 6.181647
Se 6.181647 -3.090824 9.272471
Se 6.181647 0.000000 -12.363294
Se 6.181647 0.000000 -6.181647
Se 9.272471 0.000000 -9.272471
Se 6.181647 3.090824 -9.272471
Se 9.272471 3.090824 -6.181647
Se 6.181647 0.000000 0.000000
Se 9.272471 0.000000 -3.090824
Se 6.181647 3.090824 -3.090824
Se 9.272471 3.090824 0.000000
Se 6.181647 0.000000 6.181647
Se 9.272471 0.000000 3.090824
Se 6.181647 3.090824 3.090824
Se 9.272471 3.090824 6.181647
Se 6.181647 0.000000 12.363294
Se 9.272471 0.000000 9.272471
Se 6.181647 3.090824 9.272471
Se 6.181647 6.181647 -6.181647
Se 6.181647 6.181647 0.000000
Se 9.272471 6.181647 -3.090824
Se 6.181647 9.272471 -3.090824
Se 9.272471 9.272471 0.000000
Se 6.181647 6.181647 6.181647
Se 9.272471 6.181647 3.090824
Se 6.181647 9.272471 3.090824
Se 6.181647 12.363294 0.000000
Se 12.363294 -6.181647 0.000000
Se 12.363294 -3.090824 -3.090824
Se 15.454118 -3.090824 0.000000
Se 12.363294 -3.090824 3.090824
Se 12.363294 0.000000 -6.181647
Se 12.363294 0.000000 0.000000
Se 15.454118 0.000000 -3.090824
Se 12.363294 3.090824 -3.090824
Se 15.454118 3.090824 0.000000
Se 12.363294 0.000000 6.181647
Se 15.454118 0.000000 3.090824
Se 12.363294 3.090824 3.090824
Se 12.363294 6.181647 0.000000
Cl -15.454118 -9.272471 -0.000000
Cl -15.454118 -3.090824 -6.181647
Cl -15.454118 -6.181647 -3.090824
Cl -15.454118 -6.181647 3.090824
Cl -15.454118 -3.090824 6.181647
Cl -15.454118 0.000000 -9.272471
Cl -15.454118 3.090824 -6.181647
Cl -15.454118 3.090824 -0.000000
Cl -15.454118 3.090824 6.181647
Cl -15.454118 0.000000 9.272471
Cl -15.454118 6.181647 -3.090824
Cl -15.454118 9.272471 -0.000000
Cl -15.454118 6.181647 3.090824
Cl -9.272471 -15.454118 -0.000000
Cl -9.272471 -9.272471 -6.181647
Cl -12.363294 -12.363294 -0.000000
Cl -9.272471 -12.363294 -3.090824
Cl -12.363294 -9.272471 -3.090824
Cl -9.272471 -12.363294 3.090824
Cl -12.363294 -9.272471 3.090824
Cl -9.272471 -9.272471 6.181647
Cl -9.272471 -3.090824 -12.363294
Cl -12.363294 -6.181647 -6.181647
Cl -9.272471 -6.181647 -9.272471
Cl -12.363294 -3.090824 -9.272471
Cl -12.363294 -6.181647 6.181647
Cl -9.272471 -6.181647 9.272471
Cl -12.363294 -3.090824 9.272471
Cl -9.272471 -3.090824 12.363294
Cl -12.363294 0.000000 -12.363294
Cl -9.272471 0.000000 -15.454118
Cl -9.272471 3.090824 -12.363294
Cl -12.363294 3.090824 -9.272471
Cl -12.363294 0.000000 12.363294
Cl -12.363294 3.090824 9.272471
Cl -9.272471 3.090824 12.363294
Cl -9.272471 0.000000 15.454118
Cl -12.363294 6.181647 -6.181647
Cl -9.272471 6.181647 -9.272471
Cl -9.272471 9.272471 -6.181647
Cl -12.363294 9.272471 -3.090824
Cl -12.363294 6.181647 6.181647
Cl -12.363294 9.272471 3.090824
Cl -9.272471 9.272471 6.181647
Cl -9.272471 6.181647 9.272471
Cl -12.363294 12.363294 0.000000
Cl -9.272471 12.363294 -3.090824
Cl -9.272471 15.454118 0.000000
Cl -9.272471 12.363294 3.090824
Cl -3.090824 -15.454118 -6.181647
Cl -6.181647 -15.454118 -3.090824
Cl -6.181647 -15.454118 3.090824
Cl -3.090824 -15.454118 6.181647
Cl -3.090824 -9.272471 -12.363294
Cl -6.181647 -12.363294 -6.181647
Cl -3.090824 -12.363294 -9.272471
Cl -6.181647 -9.272471 -9.272471
Cl -6.181647 -12.363294 6.181647
Cl -3.090824 -12.363294 9.272471
Cl -6.181647 -9.272471 9.272471
Cl -3.090824 -9.272471 12.363294
Cl -6.181647 -6.181647 -12.363294
Cl -3.090824 -6.181647 -15.454118
Cl -6.181647 -3.090824 -15.454118
Cl -6.181647 -6.181647 12.363294
Cl -3.090824 -6.181647 15.454118
Cl -6.181647 -3.090824 15.454118
Cl -3.090824 0.000000 -15.454118
Cl -6.181647 3.090824 -15.454118
Cl -6.181647 3.090824 15.454118
Cl -6.181647 6.181647 -12.363294
Cl -3.090824 6.181647 -15.454118
Cl -3.090824 9.272471 -12.363294
Cl -6.181647 9.272471 -9.272471
Cl -6.181647 6.181647 12.363294
Cl -6.181647 9.272471 9.272471
Cl -3.090824 9.272471 12.363294
Cl -3.090824 6.181647 15.454118
Cl -6.181647 12.363294 -6.181647
Cl -3.090824 12.363294 -9.272471
Cl -3.090824 15.454118 -6.181647
Cl -6.181647 15.454118 -3.090824
Cl -6.181647 12.363294 6.181647
Cl -6.181647 15.454118 3.090824
Cl -3.090824 15.454118 6.181647
Cl -3.090824 12.363294 9.272471
Cl 0.000000 -15.454118 -9.272471
Cl 3.090824 -15.454118 -6.181647
Cl 3.090824 -15.454118 6.181647
Cl 0.000000 -15.454118 9.272471
Cl 0.000000 -12.363294 -12.363294
Cl 0.000000 -9.272471 -15.454118
Cl 3.090824 -9.272471 -12.363294
Cl 3.090824 -12.363294 -9.272471
Cl 0.000000 -12.363294 12.363294
Cl 3.090824 -12.363294 9.272471
Cl 3.090824 -9.272471 12.363294
Cl 0.000000 -9.272471 15.454118
Cl 3.090824 -6.181647 -15.454118
Cl 3.090824 -6.181647 15.454118
Cl 3.090824 6.181647 -15.454118
Cl 0.000000 9.272471 -15.454118
Cl 3.090824 9.272471 -12.363294
Cl 3.090824 9.272471 12.363294
Cl 3.090824 6.181647 15.454118
Cl 0.000000 9.272471 15.454118
Cl 0.000000 12.363294 -12.363294
Cl 3.090824 12.363294 -9.272471
Cl 0.000000 15.454118 -9.272471
Cl 3.090824 15.454118 -6.181647
Cl 3.090824 15.454118 6.181647
Cl 0.000000 12.363294 12.363294
Cl 3.090824 12.363294 9.272471
Cl 0.000000 15.454118 9.272471
Cl 6.181647 -15.454118 -3.090824
Cl 9.272471 -15.454118 -0.000000
Cl 6.181647 -15.454118 3.090824
Cl 6.181647 -12.363294 -6.181647
Cl 6.181647 -9.272471 -9.272471
Cl 9.272471 -9.272471 -6.181647
Cl 9.272471 -12.363294 -3.090824
Cl 6.181647 -12.363294 6.181647
Cl 9.272471 -12.363294 3.090824
Cl 9.272471 -9.272471 6.181647
Cl 6.181647 -9.272471 9.272471
Cl 6.181647 -6.181647 -12.363294
Cl 6.181647 -3.090824 -15.454118
Cl 9.272471 -3.090824 -12.363294
Cl 9.272471 -6.181647 -9.272471
Cl 6.181647 -6.181647 12.363294
Cl 9.272471 -6.181647 9.272471
Cl 9.272471 -3.090824 12.363294
Cl 6.181647 -3.090824 15.454118
Cl 9.272471 0.000000 -15.454118
Cl 6.181647 3.090824 -15.454118
Cl 9.272471 3.090824 -12.363294
Cl 9.272471 3.090824 12.363294
Cl 9.272471 0.000000 15.454118
Cl 6.181647 3.090824 15.454118
Cl 6.181647 6.181647 -12.363294
Cl 9.272471 6.181647 -9.272471
Cl 6.181647 9.272471 -9.272471
Cl 9.272471 9.272471 -6.181647
Cl 9.272471 9.272471 6.181647
Cl 6.181647 6.181647 12.363294
Cl 9.272471 6.181647 9.272471
Cl 6.181647 9.272471 9.272471
Cl 6.181647 12.363294 -6.181647
Cl 9.272471 12.363294 -3.090824
Cl 6.181647 15.454118 -3.090824
Cl 9.272471 15.454118 0.000000
Cl 6.181647 12.363294 6.181647
Cl 9.272471 12.363294 3.090824
Cl 6.181647 15.454118 3.090824
Cl 12.363294 -12.363294 0.000000
Cl 12.363294 -9.272471 -3.090824
Cl 15.454118 -9.272471 0.000000
Cl 12.363294 -9.272471 3.090824
Cl 12.363294 -6.181647 -6.181647
Cl 12.363294 -3.090824 -9.272471
Cl 15.454118 -3.090824 -6.181647
Cl 15.454118 -6.181647 -3.090824
Cl 12.363294 -6.181647 6.181647
Cl 15.454118 -6.181647 3.090824
Cl 15.454118 -3.090824 6.181647
Cl 12.363294 -3.090824 9.272471
Cl 12.363294 0.000000 -12.363294
Cl 15.454118 0.000000 -9.272471
Cl 12.363294 3.090824 -9.272471
Cl 15.454118 3.090824 -6.181647
Cl 15.454118 3.090824 6.181647
Cl 12.363294 0.000000 12.363294
Cl 15.454118 0.000000 9.272471
Cl 12.363294 3.090824 9.272471
Cl 12.363294 6.181647 -6.181647
Cl 15.454118 6.181647 -3.090824
Cl 12.363294 9.272471 -3.090824
Cl 15.454118 9.272471 0.000000
Cl 12.363294 6.181647 6.181647
Cl 15.454118 6.181647 3.090824
Cl 12.363294 9.272471 3.090824
Cl 12.363294 12.363294 0.000000
