364
InSb-In-In149Sb116Cl99-clean
In -9.963499 -9.945276 -6.628666
In -9.963499 -6.628666 -9.945276
In -13.280110 -6.628666 -6.628666
In -9.963499 -3.312055 -6.628666
In -9.963499 -6.628666 -3.312055
In -13.280110 -3.312055 -3.312055
In -9.963499 -3.312055 0.004556
In -9.963499 0.004556 -3.312055
In -13.280110 0.004556 0.004556
In -9.963499 3.321166 0.004556
In -9.963499 0.004556 3.321166
In -13.280110 3.321166 3.321166
In -9.963499 3.321166 6.637777
In -9.963499 6.637777 3.321166
In -13.280110 6.637777 6.637777
In -9.963499 9.954388 6.637777
In -9.963499 6.637777 9.954388
In -6.646889 -9.945276 -9.945276
In -6.646889 -13.261887 -6.628666
In -3.330278 -9.945276 -6.628666
In -3.330278 -13.261887 -3.312055
In -6.646889 -9.945276 -3.312055
In -3.330278 -9.945276 0.004556
In -6.646889 -6.628666 -13.261887
In -3.330278 -3.312055 -13.261887
In -3.330278 -6.628666 -9.945276
In -6.646889 -3.312055 -9.945276
In -6.646889 -6.628666 -6.628666
In -3.330278 -3.312055 -6.628666
In -3.330278 -6.628666 -3.312055
In -6.646889 -3.312055 -3.312055
In -6.646889 -6.628666 0.004556
In -3.330278 -3.312055 0.004556
In -3.330278 -6.628666 3.321166
In -6.646889 -3.312055 3.321166
In -3.330278 -3.312055 6.637777
In -3.330278 0.004556 -9.945276
In -6.646889 0.004556 -6.628666
In -3.330278 3.321166 -6.628666
In -3.330278 0.004556 -3.312055
In -6.646889 3.321166 -3.312055
In -6.646889 0.004556 0.004556
In -3.330278 3.321166 0.004556
In -3.330278 0.004556 3.321166
In -6.646889 3.321166 3.321166
In -6.646889 0.004556 6.637777
In -3.330278 3.321166 6.637777
In -3.330278 0.004556 9.954388
In -6.646889 3.321166 9.954388
In -3.330278 3.321166 13.270999
In -3.330278 6.637777 -3.312055
In -6.646889 6.637777 0.004556
In -3.330278 9.954388 0.004556
In -3.330278 6.637777 3.321166
In -6.646889 9.954388 3.321166
In -6.646889 6.637777 6.637777
In -3.330278 9.954388 6.637777
In -3.330278 6.637777 9.954388
In -6.646889 9.954388 9.954388
In -6.646889 6.637777 13.270999
In -3.330278 13.270999 3.321166
In -6.646889 13.270999 6.637777
In -0.013667 -9.945276 -3.312055
In -0.013667 -13.261887 0.004556
In 3.302943 -9.945276 0.004556
In 3.302943 -13.261887 3.321166
In -0.013667 -9.945276 3.321166
In 3.302943 -9.945276 6.637777
In -0.013667 -3.312055 -9.945276
In -0.013667 -6.628666 -6.628666
In 3.302943 -3.312055 -6.628666
In 3.302943 -6.628666 -3.312055
In -0.013667 -3.312055 -3.312055
In -0.013667 -6.628666 0.004556
In 3.302943 -3.312055 0.004556
In 3.302943 -6.628666 3.321166
In -0.013667 -3.312055 3.321166
In -0.013667 -6.628666 6.637777
In 3.302943 -3.312055 6.637777
In 3.302943 -6.628666 9.954388
In -0.013667 -3.312055 9.954388
In 3.302943 -3.312055 13.270999
In -0.013667 0.004556 -13.261887
In 3.302943 3.321166 -13.261887
In 3.302943 0.004556 -9.945276
In -0.013667 3.321166 -9.945276
In -0.013667 0.004556 -6.628666
In 3.302943 3.321166 -6.628666
In 3.302943 0.004556 -3.312055
In -0.013667 3.321166 -3.312055
In -0.013667 0.004556 0.004556
In 3.302943 3.321166 0.004556
In 3.302943 0.004556 3.321166
In -0.013667 3.321166 3.321166
In -0.013667 0.004556 6.637777
In 3.302943 3.321166 6.637777
In 3.302943 0.004556 9.954388
In -0.013667 3.321166 9.954388
In -0.013667 0.004556 13.270999
In 3.302943 6.637777 -9.945276
In -0.013667 6.637777 -6.628666
In 3.302943 9.954388 -6.628666
In 3.302943 6.637777 -3.312055
In -0.013667 9.954388 -3.312055
In -0.013667 6.637777 0.004556
In 3.302943 9.954388 0.004556
In 3.302943 6.637777 3.321166
In -0.013667 9.954388 3.321166
In -0.013667 6.637777 6.637777
In 3.302943 13.270999 -3.312055
In -0.013667 13.270999 0.004556
In 6.619554 -9.945276 3.321166
In 6.619554 -13.261887 6.637777
In 9.936165 -9.945276 6.637777
In 6.619554 -9.945276 9.954388
In 6.619554 -3.312055 -3.312055
In 6.619554 -6.628666 0.004556
In 9.936165 -3.312055 0.004556
In 9.936165 -6.628666 3.321166
In 6.619554 -3.312055 3.321166
In 6.619554 -6.628666 6.637777
In 9.936165 -3.312055 6.637777
In 9.936165 -6.628666 9.954388
In 6.619554 -3.312055 9.954388
In 6.619554 -6.628666 13.270999
In 6.619554 3.321166 -9.945276
In 6.619554 0.004556 -6.628666
In 9.936165 3.321166 -6.628666
In 9.936165 0.004556 -3.312055
In 6.619554 3.321166 -3.312055
In 6.619554 0.004556 0.004556
In 9.936165 3.321166 0.004556
In 9.936165 0.004556 3.321166
In 6.619554 3.321166 3.321166
In 6.619554 0.004556 6.637777
In 6.619554 6.637777 -13.261887
In 9.936165 6.637777 -9.945276
In 6.619554 9.954388 -9.945276
In 6.619554 6.637777 -6.628666
In 9.936165 9.954388 -6.628666
In 9.936165 6.637777 -3.312055
In 6.619554 9.954388 -3.312055
In 6.619554 6.637777 0.004556
In 6.619554 13.270999 -6.628666
In 13.252775 -3.312055 3.321166
In 13.252775 -6.628666 6.637777
In 13.252775 3.321166 -3.312055
In 13.252775 0.004556 0.004556
In 13.252775 6.637777 -6.628666
Sb -11.621805 -8.286971 -8.286971
Sb -8.305194 -8.286971 -11.603582
Sb -8.305194 -11.603582 -8.286971
Sb -8.305194 -8.286971 -4.970360
Sb -8.305194 -4.970360 -8.286971
Sb -11.621805 -4.970360 -4.970360
Sb -11.621805 -1.653750 -1.653750
Sb -8.305194 -1.653750 -4.970360
Sb -8.305194 -4.970360 -1.653750
Sb -8.305194 -1.653750 1.662861
Sb -8.305194 1.662861 -1.653750
Sb -11.621805 1.662861 1.662861
Sb -11.621805 4.979472 4.979472
Sb -8.305194 4.979472 1.662861
Sb -8.305194 1.662861 4.979472
Sb -8.305194 4.979472 8.296083
Sb -8.305194 8.296083 4.979472
Sb -11.621805 8.296083 8.296083
Sb -8.305194 11.612693 8.296083
Sb -8.305194 8.296083 11.612693
Sb -4.988583 -8.286971 -8.286971
Sb -4.988583 -11.603582 -4.970360
Sb -4.988583 -8.286971 -1.653750
Sb -1.671973 -8.286971 -4.970360
Sb -1.671973 -11.603582 -1.653750
Sb -1.671973 -8.286971 1.662861
Sb -4.988583 -4.970360 -11.603582
Sb -4.988583 -1.653750 -8.286971
Sb -1.671973 -1.653750 -11.603582
Sb -1.671973 -4.970360 -8.286971
Sb -4.988583 -4.970360 -4.970360
Sb -4.988583 -1.653750 -1.653750
Sb -1.671973 -1.653750 -4.970360
Sb -1.671973 -4.970360 -1.653750
Sb -4.988583 -4.970360 1.662861
Sb -4.988583 -1.653750 4.979472
Sb -1.671973 -1.653750 1.662861
Sb -1.671973 -4.970360 4.979472
Sb -1.671973 -1.653750 8.296083
Sb -1.671973 1.662861 -8.286971
Sb -4.988583 1.662861 -4.970360
Sb -4.988583 4.979472 -1.653750
Sb -1.671973 4.979472 -4.970360
Sb -1.671973 1.662861 -1.653750
Sb -4.988583 1.662861 1.662861
Sb -4.988583 4.979472 4.979472
Sb -1.671973 4.979472 1.662861
Sb -1.671973 1.662861 4.979472
Sb -4.988583 1.662861 8.296083
Sb -4.988583 4.979472 11.612693
Sb -1.671973 4.979472 8.296083
Sb -1.671973 1.662861 11.612693
Sb -1.671973 8.296083 -1.653750
Sb -4.988583 8.296083 1.662861
Sb -4.988583 11.612693 4.979472
Sb -1.671973 11.612693 1.662861
Sb -1.671973 8.296083 4.979472
Sb -4.988583 8.296083 8.296083
Sb 1.644638 -8.286971 -1.653750
Sb 1.644638 -11.603582 1.662861
Sb 1.644638 -8.286971 4.979472
Sb 4.961249 -8.286971 1.662861
Sb 4.961249 -11.603582 4.979472
Sb 4.961249 -8.286971 8.296083
Sb 1.644638 -1.653750 -8.286971
Sb 1.644638 -4.970360 -4.970360
Sb 1.644638 -1.653750 -1.653750
Sb 4.961249 -1.653750 -4.970360
Sb 4.961249 -4.970360 -1.653750
Sb 1.644638 -4.970360 1.662861
Sb 1.644638 -1.653750 4.979472
Sb 4.961249 -1.653750 1.662861
Sb 4.961249 -4.970360 4.979472
Sb 1.644638 -4.970360 8.296083
Sb 1.644638 -1.653750 11.612693
Sb 4.961249 -1.653750 8.296083
Sb 4.961249 -4.970360 11.612693
Sb 1.644638 1.662861 -11.603582
Sb 1.644638 4.979472 -8.286971
Sb 4.961249 4.979472 -11.603582
Sb 4.961249 1.662861 -8.286971
Sb 1.644638 1.662861 -4.970360
Sb 1.644638 4.979472 -1.653750
Sb 4.961249 4.979472 -4.970360
Sb 4.961249 1.662861 -1.653750
Sb 1.644638 1.662861 1.662861
Sb 1.644638 4.979472 4.979472
Sb 4.961249 4.979472 1.662861
Sb 4.961249 1.662861 4.979472
Sb 1.644638 1.662861 8.296083
Sb 4.961249 8.296083 -8.286971
Sb 1.644638 8.296083 -4.970360
Sb 1.644638 11.612693 -1.653750
Sb 4.961249 11.612693 -4.970360
Sb 4.961249 8.296083 -1.653750
Sb 1.644638 8.296083 1.662861
Sb 8.277859 -8.286971 4.979472
Sb 8.277859 -11.603582 8.296083
Sb 8.277859 -8.286971 11.612693
Sb 11.594470 -8.286971 8.296083
Sb 8.277859 -1.653750 -1.653750
Sb 8.277859 -4.970360 1.662861
Sb 8.277859 -1.653750 4.979472
Sb 11.594470 -1.653750 1.662861
Sb 11.594470 -4.970360 4.979472
Sb 8.277859 -4.970360 8.296083
Sb 8.277859 4.979472 -8.286971
Sb 8.277859 1.662861 -4.970360
Sb 8.277859 4.979472 -1.653750
Sb 11.594470 4.979472 -4.970360
Sb 11.594470 1.662861 -1.653750
Sb 8.277859 1.662861 1.662861
Sb 8.277859 8.296083 -11.603582
Sb 8.277859 11.612693 -8.286971
Sb 11.594470 8.296083 -8.286971
Sb 8.277859 8.296083 -4.970360
Cl -14.938416 -8.286971 -4.970360
Cl 14.911081 8.296083 -4.970360
Cl -8.305194 14.929304 4.979472
Cl 8.277859 -14.920192 4.979472
Cl -8.305194 -4.970360 -14.920192
Cl -4.988583 8.296083 14.929304
Cl 4.961249 -8.286971 14.929304
Cl 8.277859 4.979472 -14.920192
Cl -14.938416 4.979472 8.296083
Cl -4.988583 -14.920192 -8.286971
Cl 4.961249 14.929304 -8.286971
Cl 14.911081 -4.970360 8.296083
Cl -14.938416 1.662861 -1.653750
Cl -1.671973 -14.920192 1.662861
Cl 1.644638 14.929304 1.662861
Cl 14.911081 -1.653750 -1.653750
Cl -1.671973 -4.970360 -14.920192
Cl -4.988583 1.662861 14.929304
Cl 4.961249 -1.653750 14.929304
Cl 1.644638 4.979472 -14.920192
Cl -14.938416 -4.970360 -1.653750
Cl -4.988583 14.929304 1.662861
Cl 4.961249 -14.920192 1.662861
Cl 14.911081 4.979472 -1.653750
Cl -14.938416 4.979472 1.662861
Cl -4.988583 -14.920192 -1.653750
Cl 4.961249 14.929304 -1.653750
Cl 14.911081 -4.970360 1.662861
Cl -1.671973 1.662861 -14.920192
Cl -1.671973 -1.653750 14.929304
Cl -4.988583 14.929304 8.296083
Cl 14.911081 4.979472 -8.286971
Cl -14.938416 -4.970360 -8.286971
Cl 4.961249 -14.920192 8.296083
Cl 4.961249 -4.970360 -8.286971
Cl 4.961249 4.979472 8.296083
Cl -8.305194 -4.970360 4.979472
Cl -4.988583 8.296083 -4.970360
Cl 1.644638 -11.603582 -4.970360
Cl 11.594470 1.662861 4.979472
Cl -8.305194 1.662861 -8.286971
Cl -1.671973 -8.286971 8.296083
Cl 8.277859 -8.286971 -1.653750
Cl 8.277859 8.296083 1.662861
Cl -4.988583 -8.286971 -14.920192
Cl 8.277859 -4.970360 14.929304
Cl -8.305194 4.979472 14.929304
Cl 4.961249 8.296083 -14.920192
Cl -14.938416 8.296083 4.979472
Cl -8.305194 -14.920192 -4.970360
Cl -1.671973 4.979472 14.929304
Cl 4.961249 1.662861 -14.920192
Cl -14.938416 1.662861 4.979472
Cl 1.644638 14.929304 -4.970360
Cl 8.277859 14.929304 -4.970360
Cl 14.911081 -8.286971 4.979472
Cl -1.671973 11.612693 8.296083
Cl 11.594470 1.662861 -8.286971
Cl -8.305194 -8.286971 1.662861
Cl -8.305194 8.296083 -1.653750
Cl -8.305194 -1.653750 8.296083
Cl -1.671973 8.296083 -8.286971
Cl -1.671973 -14.920192 -4.970360
Cl 14.911081 -1.653750 4.979472
Cl -11.621805 -4.970360 -11.603582
Cl 4.961249 -11.603582 11.612693
Cl 1.644638 -1.653750 -14.920192
Cl 1.644638 1.662861 14.929304
Cl -4.988583 -11.603582 -11.603582
Cl 11.594470 -4.970360 11.612693
Cl -14.938416 -1.653750 -4.970360
Cl 1.644638 -14.920192 4.979472
Cl 11.594470 -11.603582 4.979472
Cl 11.594470 11.612693 -4.970360
Cl -11.621805 4.979472 11.612693
Cl 4.961249 11.612693 -11.603582
Cl -11.621805 -11.603582 -4.970360
Cl -11.621805 11.612693 4.979472
Cl 1.644638 8.296083 8.296083
Cl 8.277859 -1.653750 -8.286971
Cl -4.988583 -1.653750 -14.920192
Cl 1.644638 -4.970360 14.929304
Cl 1.644638 -8.286971 -8.286971
Cl 8.277859 1.662861 8.296083
Cl -14.938416 -1.653750 1.662861
Cl -1.671973 14.929304 -1.653750
Cl -1.671973 14.929304 4.979472
Cl 14.911081 1.662861 -4.970360
Cl 1.644638 -14.920192 -1.653750
Cl 14.911081 1.662861 1.662861
Cl -11.621805 1.662861 -4.970360
Cl -1.671973 -11.603582 4.979472
Cl -4.988583 11.612693 11.612693
Cl 11.594470 4.979472 -11.603582
Cl -4.988583 -1.653750 11.612693
Cl -1.671973 4.979472 -11.603582
Cl 4.961249 11.612693 1.662861
Cl 11.594470 -4.970360 -1.653750
Cl -11.621805 -8.286971 -1.653750
