321
HgS-S-Hg152S135Cl34-clean
Hg -10.384568 -4.445243 -1.484831
Hg -10.384568 -4.445243 4.454494
Hg -10.384568 -1.475580 -4.454494
Hg -10.384568 1.494083 -1.484831
Hg -10.384568 -1.475580 1.484831
Hg -10.384568 1.494083 4.454494
Hg -10.384568 4.463745 -4.454494
Hg -10.384568 4.463745 1.484831
Hg -4.445243 -10.384568 -1.484831
Hg -4.445243 -10.384568 4.454494
Hg -4.445243 -4.445243 -7.424156
Hg -4.445243 -7.414905 -4.454494
Hg -7.414905 -4.445243 -4.454494
Hg -7.414905 -7.414905 -1.484831
Hg -4.445243 -4.445243 -1.484831
Hg -4.445243 -7.414905 1.484831
Hg -7.414905 -4.445243 1.484831
Hg -7.414905 -7.414905 4.454494
Hg -4.445243 -4.445243 4.454494
Hg -4.445243 -7.414905 7.424156
Hg -7.414905 -4.445243 7.424156
Hg -4.445243 -4.445243 10.393819
Hg -4.445243 -1.475580 -10.393819
Hg -7.414905 -1.475580 -7.424156
Hg -4.445243 1.494083 -7.424156
Hg -4.445243 -1.475580 -4.454494
Hg -7.414905 1.494083 -4.454494
Hg -7.414905 -1.475580 -1.484831
Hg -4.445243 1.494083 -1.484831
Hg -4.445243 -1.475580 1.484831
Hg -7.414905 1.494083 1.484831
Hg -7.414905 -1.475580 4.454494
Hg -4.445243 1.494083 4.454494
Hg -4.445243 -1.475580 7.424156
Hg -7.414905 1.494083 7.424156
Hg -4.445243 1.494083 10.393819
Hg -4.445243 4.463745 -10.393819
Hg -7.414905 4.463745 -7.424156
Hg -4.445243 7.433408 -7.424156
Hg -4.445243 4.463745 -4.454494
Hg -7.414905 7.433408 -4.454494
Hg -7.414905 4.463745 -1.484831
Hg -4.445243 7.433408 -1.484831
Hg -4.445243 4.463745 1.484831
Hg -7.414905 7.433408 1.484831
Hg -7.414905 4.463745 4.454494
Hg -4.445243 7.433408 4.454494
Hg -4.445243 4.463745 7.424156
Hg -4.445243 10.403070 -4.454494
Hg -4.445243 10.403070 1.484831
Hg -1.475580 -10.384568 -4.454494
Hg 1.494083 -10.384568 -1.484831
Hg -1.475580 -10.384568 1.484831
Hg 1.494083 -10.384568 4.454494
Hg -1.475580 -4.445243 -10.393819
Hg -1.475580 -7.414905 -7.424156
Hg 1.494083 -4.445243 -7.424156
Hg 1.494083 -7.414905 -4.454494
Hg -1.475580 -4.445243 -4.454494
Hg -1.475580 -7.414905 -1.484831
Hg 1.494083 -4.445243 -1.484831
Hg 1.494083 -7.414905 1.484831
Hg -1.475580 -4.445243 1.484831
Hg -1.475580 -7.414905 4.454494
Hg 1.494083 -4.445243 4.454494
Hg 1.494083 -7.414905 7.424156
Hg -1.475580 -4.445243 7.424156
Hg 1.494083 -4.445243 10.393819
Hg 1.494083 -1.475580 -10.393819
Hg -1.475580 1.494083 -10.393819
Hg -1.475580 -1.475580 -7.424156
Hg 1.494083 1.494083 -7.424156
Hg 1.494083 -1.475580 -4.454494
Hg -1.475580 1.494083 -4.454494
Hg -1.475580 -1.475580 -1.484831
Hg 1.494083 1.494083 -1.484831
Hg 1.494083 -1.475580 1.484831
Hg -1.475580 1.494083 1.484831
Hg -1.475580 -1.475580 4.454494
Hg 1.494083 1.494083 4.454494
Hg 1.494083 -1.475580 7.424156
Hg -1.475580 1.494083 7.424156
Hg -1.475580 -1.475580 10.393819
Hg 1.494083 1.494083 10.393819
Hg 1.494083 4.463745 -10.393819
Hg -1.475580 4.463745 -7.424156
Hg 1.494083 7.433408 -7.424156
Hg 1.494083 4.463745 -4.454494
Hg -1.475580 7.433408 -4.454494
Hg -1.475580 4.463745 -1.484831
Hg 1.494083 7.433408 -1.484831
Hg 1.494083 4.463745 1.484831
Hg -1.475580 7.433408 1.484831
Hg -1.475580 4.463745 4.454494
Hg 1.494083 7.433408 4.454494
Hg 1.494083 4.463745 7.424156
Hg -1.475580 7.433408 7.424156
Hg -1.475580 4.463745 10.393819
Hg 1.494083 10.403070 -4.454494
Hg -1.475580 10.403070 -1.484831
Hg 1.494083 10.403070 1.484831
Hg -1.475580 10.403070 4.454494
Hg 4.463745 -10.384568 -4.454494
Hg 4.463745 -10.384568 1.484831
Hg 4.463745 -4.445243 -10.393819
Hg 4.463745 -7.414905 -7.424156
Hg 7.433408 -4.445243 -7.424156
Hg 7.433408 -7.414905 -4.454494
Hg 4.463745 -4.445243 -4.454494
Hg 4.463745 -7.414905 -1.484831
Hg 7.433408 -4.445243 -1.484831
Hg 7.433408 -7.414905 1.484831
Hg 4.463745 -4.445243 1.484831
Hg 4.463745 -7.414905 4.454494
Hg 7.433408 -4.445243 4.454494
Hg 4.463745 -4.445243 7.424156
Hg 4.463745 1.494083 -10.393819
Hg 4.463745 -1.475580 -7.424156
Hg 7.433408 1.494083 -7.424156
Hg 7.433408 -1.475580 -4.454494
Hg 4.463745 1.494083 -4.454494
Hg 4.463745 -1.475580 -1.484831
Hg 7.433408 1.494083 -1.484831
Hg 7.433408 -1.475580 1.484831
Hg 4.463745 1.494083 1.484831
Hg 4.463745 -1.475580 4.454494
Hg 7.433408 1.494083 4.454494
Hg 7.433408 -1.475580 7.424156
Hg 4.463745 1.494083 7.424156
Hg 4.463745 -1.475580 10.393819
Hg 4.463745 4.463745 -7.424156
Hg 7.433408 4.463745 -4.454494
Hg 4.463745 7.433408 -4.454494
Hg 4.463745 4.463745 -1.484831
Hg 7.433408 7.433408 -1.484831
Hg 7.433408 4.463745 1.484831
Hg 4.463745 7.433408 1.484831
Hg 4.463745 4.463745 4.454494
Hg 7.433408 7.433408 4.454494
Hg 7.433408 4.463745 7.424156
Hg 4.463745 7.433408 7.424156
Hg 4.463745 4.463745 10.393819
Hg 4.463745 10.403070 -1.484831
Hg 4.463745 10.403070 4.454494
Hg 10.403070 -4.445243 -4.454494
Hg 10.403070 -4.445243 1.484831
Hg 10.403070 1.494083 -4.454494
Hg 10.403070 -1.475580 -1.484831
Hg 10.403070 1.494083 1.484831
Hg 10.403070 -1.475580 4.454494
Hg 10.403070 4.463745 -1.484831
Hg 10.403070 4.463745 4.454494
S -8.899736 -2.960411 -5.939325
S -8.899736 -5.930074 -2.969663
S -8.899736 -2.960411 -0.000000
S -8.899736 -5.930074 2.969663
S -8.899736 -2.960411 5.939325
S -8.899736 2.978914 -5.939325
S -8.899736 0.009251 -2.969663
S -8.899736 2.978914 -0.000000
S -8.899736 0.009251 2.969663
S -8.899736 2.978914 5.939325
S -8.899736 5.948576 -2.969663
S -8.899736 5.948576 2.969663
S -5.930074 -8.899736 -2.969663
S -2.960411 -8.899736 -5.939325
S -5.930074 -8.899736 2.969663
S -2.960411 -8.899736 -0.000000
S -2.960411 -8.899736 5.939325
S -5.930074 -2.960411 -8.908988
S -2.960411 -5.930074 -8.908988
S -5.930074 -5.930074 -5.939325
S -5.930074 -2.960411 -2.969663
S -2.960411 -2.960411 -5.939325
S -2.960411 -5.930074 -2.969663
S -5.930074 -5.930074 -0.000000
S -5.930074 -2.960411 2.969663
S -2.960411 -2.960411 -0.000000
S -2.960411 -5.930074 2.969663
S -5.930074 -5.930074 5.939325
S -5.930074 -2.960411 8.908988
S -2.960411 -2.960411 5.939325
S -2.960411 -5.930074 8.908988
S -5.930074 2.978914 -8.908988
S -2.960411 0.009251 -8.908988
S -5.930074 0.009251 -5.939325
S -5.930074 2.978914 -2.969663
S -2.960411 2.978914 -5.939325
S -2.960411 0.009251 -2.969663
S -5.930074 0.009251 -0.000000
S -5.930074 2.978914 2.969663
S -2.960411 2.978914 -0.000000
S -2.960411 0.009251 2.969663
S -5.930074 0.009251 5.939325
S -5.930074 2.978914 8.908988
S -2.960411 2.978914 5.939325
S -2.960411 0.009251 8.908988
S -2.960411 5.948576 -8.908988
S -5.930074 5.948576 -5.939325
S -5.930074 8.918239 -2.969663
S -2.960411 8.918239 -5.939325
S -2.960411 5.948576 -2.969663
S -5.930074 5.948576 0.000000
S -5.930074 8.918239 2.969663
S -2.960411 8.918239 0.000000
S -2.960411 5.948576 2.969663
S -5.930074 5.948576 5.939325
S -2.960411 8.918239 5.939325
S -2.960411 5.948576 8.908988
S 0.009251 -8.899736 -2.969663
S 2.978914 -8.899736 -5.939325
S 0.009251 -8.899736 2.969663
S 2.978914 -8.899736 -0.000000
S 2.978914 -8.899736 5.939325
S 0.009251 -2.960411 -8.908988
S 2.978914 -5.930074 -8.908988
S 0.009251 -5.930074 -5.939325
S 0.009251 -2.960411 -2.969663
S 2.978914 -2.960411 -5.939325
S 2.978914 -5.930074 -2.969663
S 0.009251 -5.930074 -0.000000
S 0.009251 -2.960411 2.969663
S 2.978914 -2.960411 -0.000000
S 2.978914 -5.930074 2.969663
S 0.009251 -5.930074 5.939325
S 0.009251 -2.960411 8.908988
S 2.978914 -2.960411 5.939325
S 2.978914 -5.930074 8.908988
S 0.009251 2.978914 -8.908988
S 2.978914 0.009251 -8.908988
S 0.009251 0.009251 -5.939325
S 0.009251 2.978914 -2.969663
S 2.978914 2.978914 -5.939325
S 2.978914 0.009251 -2.969663
S 0.009251 0.009251 0.000000
S 0.009251 2.978914 2.969663
S 2.978914 2.978914 0.000000
S 2.978914 0.009251 2.969663
S 0.009251 0.009251 5.939325
S 0.009251 2.978914 8.908988
S 2.978914 2.978914 5.939325
S 2.978914 0.009251 8.908988
S 2.978914 5.948576 -8.908988
S 0.009251 5.948576 -5.939325
S 0.009251 8.918239 -2.969663
S 2.978914 8.918239 -5.939325
S 2.978914 5.948576 -2.969663
S 0.009251 5.948576 0.000000
S 0.009251 8.918239 2.969663
S 2.978914 8.918239 0.000000
S 2.978914 5.948576 2.969663
S 0.009251 5.948576 5.939325
S 2.978914 8.918239 5.939325
S 2.978914 5.948576 8.908988
S 5.948576 -8.899736 -2.969663
S 5.948576 -8.899736 2.969663
S 5.948576 -2.960411 -8.908988
S 5.948576 -5.930074 -5.939325
S 5.948576 -2.960411 -2.969663
S 8.918239 -2.960411 -5.939325
S 8.918239 -5.930074 -2.969663
S 5.948576 -5.930074 0.000000
S 5.948576 -2.960411 2.969663
S 8.918239 -2.960411 0.000000
S 8.918239 -5.930074 2.969663
S 5.948576 -5.930074 5.939325
S 5.948576 -2.960411 8.908988
S 8.918239 -2.960411 5.939325
S 5.948576 2.978914 -8.908988
S 5.948576 0.009251 -5.939325
S 5.948576 2.978914 -2.969663
S 8.918239 2.978914 -5.939325
S 8.918239 0.009251 -2.969663
S 5.948576 0.009251 0.000000
S 5.948576 2.978914 2.969663
S 8.918239 2.978914 0.000000
S 8.918239 0.009251 2.969663
S 5.948576 0.009251 5.939325
S 5.948576 2.978914 8.908988
S 8.918239 2.978914 5.939325
S 5.948576 5.948576 -5.939325
S 5.948576 8.918239 -2.969663
S 8.918239 5.948576 -2.969663
S 5.948576 5.948576 0.000000
S 5.948576 8.918239 2.969663
S 8.918239 5.948576 2.969663
S 5.948576 5.948576 5.939325
Cl -11.869399 -2.960411 -2.969663
Cl -11.869399 -2.960411 2.969663
Cl -11.869399 2.978914 -2.969663
Cl -11.869399 0.009251 -0.000000
Cl -11.869399 2.978914 2.969663
Cl -2.960411 -11.869399 -2.969663
Cl -2.960411 -11.869399 2.969663
Cl -2.960411 -2.960411 -11.878650
Cl -2.960411 -2.960411 11.878650
Cl -2.960411 2.978914 -11.878650
Cl -2.960411 2.978914 11.878650
Cl -2.960411 11.887901 -2.969663
Cl -2.960411 11.887901 2.969663
Cl 2.978914 -11.869399 -2.969663
Cl 0.009251 -11.869399 -0.000000
Cl 2.978914 -11.869399 2.969663
Cl 2.978914 -2.960411 -11.878650
Cl 2.978914 -2.960411 11.878650
Cl 0.009251 0.009251 -11.878650
Cl 2.978914 2.978914 -11.878650
Cl 0.009251 0.009251 11.878650
Cl 2.978914 2.978914 11.878650
Cl 2.978914 11.887901 -2.969663
Cl 0.009251 11.887901 0.000000
Cl 2.978914 11.887901 2.969663
Cl 11.887901 -2.960411 -2.969663
Cl 11.887901 -2.960411 2.969663
Cl 11.887901 2.978914 -2.969663
Cl 11.887901 0.009251 0.000000
Cl 11.887901 2.978914 2.969663
Cl -8.899736 -5.930074 5.939325
Cl -8.899736 5.948576 -5.939325
Cl 5.948576 -8.899736 -5.939325
Cl 8.918239 5.948576 5.939325
