764
InP-P-In348P314Cl102-clean
In -16.212687 -10.316462 10.316462
In -16.212687 -4.412509 4.412509
In -16.212687 -7.364486 7.364486
In -16.212687 1.491444 -1.491444
In -16.212687 -1.460533 1.460533
In -16.212687 7.395396 -7.395396
In -16.212687 4.443420 -4.443420
In -16.212687 10.347373 -10.347373
In -10.308734 -16.220415 10.316462
In -10.308734 -10.316462 4.412509
In -10.308734 -13.268438 7.364486
In -13.260711 -10.316462 7.364486
In -13.260711 -13.268438 10.316462
In -10.308734 -10.316462 10.316462
In -10.308734 -13.268438 13.268438
In -13.260711 -10.316462 13.268438
In -10.308734 -10.316462 16.220415
In -10.308734 -4.412509 -1.491444
In -10.308734 -7.364486 1.460533
In -13.260711 -4.412509 1.460533
In -13.260711 -7.364486 4.412509
In -10.308734 -4.412509 4.412509
In -10.308734 -7.364486 7.364486
In -13.260711 -4.412509 7.364486
In -13.260711 -7.364486 10.316462
In -10.308734 -4.412509 10.316462
In -10.308734 -7.364486 13.268438
In -10.308734 1.491444 -7.395396
In -10.308734 -1.460533 -4.443420
In -13.260711 1.491444 -4.443420
In -13.260711 -1.460533 -1.491444
In -10.308734 1.491444 -1.491444
In -10.308734 -1.460533 1.460533
In -13.260711 1.491444 1.460533
In -13.260711 -1.460533 4.412509
In -10.308734 1.491444 4.412509
In -10.308734 -1.460533 7.364486
In -10.308734 7.395396 -13.299349
In -10.308734 4.443420 -10.347373
In -13.260711 7.395396 -10.347373
In -13.260711 4.443420 -7.395396
In -10.308734 7.395396 -7.395396
In -10.308734 4.443420 -4.443420
In -13.260711 7.395396 -4.443420
In -13.260711 4.443420 -1.491444
In -10.308734 7.395396 -1.491444
In -10.308734 4.443420 1.460533
In -10.308734 10.347373 -16.251325
In -13.260711 10.347373 -13.299349
In -10.308734 13.299349 -13.299349
In -10.308734 10.347373 -10.347373
In -13.260711 13.299349 -10.347373
In -13.260711 10.347373 -7.395396
In -10.308734 13.299349 -7.395396
In -10.308734 10.347373 -4.443420
In -10.308734 16.251325 -10.347373
In -4.404782 -16.220415 4.412509
In -7.356758 -16.220415 7.364486
In -4.404782 -10.316462 -1.491444
In -4.404782 -13.268438 1.460533
In -7.356758 -10.316462 1.460533
In -7.356758 -13.268438 4.412509
In -4.404782 -10.316462 4.412509
In -4.404782 -13.268438 7.364486
In -7.356758 -10.316462 7.364486
In -7.356758 -13.268438 10.316462
In -4.404782 -10.316462 10.316462
In -7.356758 -10.316462 13.268438
In -4.404782 -4.412509 -7.395396
In -4.404782 -7.364486 -4.443420
In -7.356758 -4.412509 -4.443420
In -7.356758 -7.364486 -1.491444
In -4.404782 -4.412509 -1.491444
In -4.404782 -7.364486 1.460533
In -7.356758 -4.412509 1.460533
In -7.356758 -7.364486 4.412509
In -4.404782 -4.412509 4.412509
In -4.404782 -7.364486 7.364486
In -7.356758 -4.412509 7.364486
In -7.356758 -7.364486 10.316462
In -4.404782 -4.412509 10.316462
In -4.404782 -7.364486 13.268438
In -7.356758 -4.412509 13.268438
In -7.356758 -7.364486 16.220415
In -4.404782 -4.412509 16.220415
In -4.404782 1.491444 -13.299349
In -4.404782 -1.460533 -10.347373
In -7.356758 1.491444 -10.347373
In -7.356758 -1.460533 -7.395396
In -4.404782 1.491444 -7.395396
In -4.404782 -1.460533 -4.443420
In -7.356758 1.491444 -4.443420
In -7.356758 -1.460533 -1.491444
In -4.404782 1.491444 -1.491444
In -4.404782 -1.460533 1.460533
In -7.356758 1.491444 1.460533
In -7.356758 -1.460533 4.412509
In -4.404782 1.491444 4.412509
In -4.404782 -1.460533 7.364486
In -7.356758 1.491444 7.364486
In -7.356758 -1.460533 10.316462
In -4.404782 1.491444 10.316462
In -4.404782 -1.460533 13.268438
In -4.404782 4.443420 -16.251325
In -7.356758 7.395396 -16.251325
In -7.356758 4.443420 -13.299349
In -4.404782 7.395396 -13.299349
In -4.404782 4.443420 -10.347373
In -7.356758 7.395396 -10.347373
In -7.356758 4.443420 -7.395396
In -4.404782 7.395396 -7.395396
In -4.404782 4.443420 -4.443420
In -7.356758 7.395396 -4.443420
In -7.356758 4.443420 -1.491444
In -4.404782 7.395396 -1.491444
In -4.404782 4.443420 1.460533
In -7.356758 7.395396 1.460533
In -7.356758 4.443420 4.412509
In -4.404782 7.395396 4.412509
In -4.404782 4.443420 7.364486
In -7.356758 10.347373 -13.299349
In -4.404782 10.347373 -10.347373
In -7.356758 13.299349 -10.347373
In -7.356758 10.347373 -7.395396
In -4.404782 13.299349 -7.395396
In -4.404782 10.347373 -4.443420
In -7.356758 13.299349 -4.443420
In -7.356758 10.347373 -1.491444
In -4.404782 13.299349 -1.491444
In -4.404782 10.347373 1.460533
In -7.356758 16.251325 -7.395396
In -4.404782 16.251325 -4.443420
In 1.499171 -16.220415 -1.491444
In -1.452805 -16.220415 1.460533
In 1.499171 -10.316462 -7.395396
In 1.499171 -13.268438 -4.443420
In -1.452805 -10.316462 -4.443420
In -1.452805 -13.268438 -1.491444
In 1.499171 -10.316462 -1.491444
In 1.499171 -13.268438 1.460533
In -1.452805 -10.316462 1.460533
In -1.452805 -13.268438 4.412509
In 1.499171 -10.316462 4.412509
In -1.452805 -10.316462 7.364486
In 1.499171 -4.412509 -13.299349
In 1.499171 -7.364486 -10.347373
In -1.452805 -4.412509 -10.347373
In -1.452805 -7.364486 -7.395396
In 1.499171 -4.412509 -7.395396
In 1.499171 -7.364486 -4.443420
In -1.452805 -4.412509 -4.443420
In -1.452805 -7.364486 -1.491444
In 1.499171 -4.412509 -1.491444
In 1.499171 -7.364486 1.460533
In -1.452805 -4.412509 1.460533
In -1.452805 -7.364486 4.412509
In 1.499171 -4.412509 4.412509
In 1.499171 -7.364486 7.364486
In -1.452805 -4.412509 7.364486
In -1.452805 -7.364486 10.316462
In 1.499171 -4.412509 10.316462
In -1.452805 -4.412509 13.268438
In 1.499171 -1.460533 -16.251325
In -1.452805 1.491444 -16.251325
In -1.452805 -1.460533 -13.299349
In 1.499171 1.491444 -13.299349
In 1.499171 -1.460533 -10.347373
In -1.452805 1.491444 -10.347373
In -1.452805 -1.460533 -7.395396
In 1.499171 1.491444 -7.395396
In 1.499171 -1.460533 -4.443420
In -1.452805 1.491444 -4.443420
In -1.452805 -1.460533 -1.491444
In 1.499171 1.491444 -1.491444
In 1.499171 -1.460533 1.460533
In -1.452805 1.491444 1.460533
In -1.452805 -1.460533 4.412509
In 1.499171 1.491444 4.412509
In 1.499171 -1.460533 7.364486
In -1.452805 1.491444 7.364486
In -1.452805 -1.460533 10.316462
In 1.499171 1.491444 10.316462
In 1.499171 -1.460533 13.268438
In -1.452805 1.491444 13.268438
In -1.452805 -1.460533 16.220415
In 1.499171 1.491444 16.220415
In -1.452805 4.443420 -13.299349
In 1.499171 4.443420 -10.347373
In -1.452805 7.395396 -10.347373
In -1.452805 4.443420 -7.395396
In 1.499171 7.395396 -7.395396
In 1.499171 4.443420 -4.443420
In -1.452805 7.395396 -4.443420
In -1.452805 4.443420 -1.491444
In 1.499171 7.395396 -1.491444
In 1.499171 4.443420 1.460533
In -1.452805 7.395396 1.460533
In -1.452805 4.443420 4.412509
In 1.499171 7.395396 4.412509
In 1.499171 4.443420 7.364486
In -1.452805 7.395396 7.364486
In -1.452805 4.443420 10.316462
In 1.499171 7.395396 10.316462
In 1.499171 4.443420 13.268438
In -1.452805 10.347373 -7.395396
In 1.499171 10.347373 -4.443420
In -1.452805 13.299349 -4.443420
In -1.452805 10.347373 -1.491444
In 1.499171 13.299349 -1.491444
In 1.499171 10.347373 1.460533
In -1.452805 13.299349 1.460533
In -1.452805 10.347373 4.412509
In 1.499171 13.299349 4.412509
In 1.499171 10.347373 7.364486
In -1.452805 16.251325 -1.491444
In 1.499171 16.251325 1.460533
In 7.403124 -16.220415 -7.395396
In 4.451148 -16.220415 -4.443420
In 7.403124 -10.316462 -13.299349
In 7.403124 -13.268438 -10.347373
In 4.451148 -10.316462 -10.347373
In 4.451148 -13.268438 -7.395396
In 7.403124 -10.316462 -7.395396
In 7.403124 -13.268438 -4.443420
In 4.451148 -10.316462 -4.443420
In 4.451148 -13.268438 -1.491444
In 7.403124 -10.316462 -1.491444
In 4.451148 -10.316462 1.460533
In 7.403124 -7.364486 -16.251325
In 4.451148 -4.412509 -16.251325
In 4.451148 -7.364486 -13.299349
In 7.403124 -4.412509 -13.299349
In 7.403124 -7.364486 -10.347373
In 4.451148 -4.412509 -10.347373
In 4.451148 -7.364486 -7.395396
In 7.403124 -4.412509 -7.395396
In 7.403124 -7.364486 -4.443420
In 4.451148 -4.412509 -4.443420
In 4.451148 -7.364486 -1.491444
In 7.403124 -4.412509 -1.491444
In 7.403124 -7.364486 1.460533
In 4.451148 -4.412509 1.460533
In 4.451148 -7.364486 4.412509
In 7.403124 -4.412509 4.412509
In 4.451148 -4.412509 7.364486
In 4.451148 -1.460533 -13.299349
In 7.403124 -1.460533 -10.347373
In 4.451148 1.491444 -10.347373
In 4.451148 -1.460533 -7.395396
In 7.403124 1.491444 -7.395396
In 7.403124 -1.460533 -4.443420
In 4.451148 1.491444 -4.443420
In 4.451148 -1.460533 -1.491444
In 7.403124 1.491444 -1.491444
In 7.403124 -1.460533 1.460533
In 4.451148 1.491444 1.460533
In 4.451148 -1.460533 4.412509
In 7.403124 1.491444 4.412509
In 7.403124 -1.460533 7.364486
In 4.451148 1.491444 7.364486
In 4.451148 -1.460533 10.316462
In 7.403124 1.491444 10.316462
In 4.451148 1.491444 13.268438
In 4.451148 4.443420 -7.395396
In 7.403124 4.443420 -4.443420
In 4.451148 7.395396 -4.443420
In 4.451148 4.443420 -1.491444
In 7.403124 7.395396 -1.491444
In 7.403124 4.443420 1.460533
In 4.451148 7.395396 1.460533
In 4.451148 4.443420 4.412509
In 7.403124 7.395396 4.412509
In 7.403124 4.443420 7.364486
In 4.451148 7.395396 7.364486
In 4.451148 4.443420 10.316462
In 7.403124 7.395396 10.316462
In 7.403124 4.443420 13.268438
In 4.451148 7.395396 13.268438
In 4.451148 4.443420 16.220415
In 7.403124 7.395396 16.220415
In 4.451148 10.347373 -1.491444
In 7.403124 10.347373 1.460533
In 4.451148 13.299349 1.460533
In 4.451148 10.347373 4.412509
In 7.403124 13.299349 4.412509
In 7.403124 10.347373 7.364486
In 4.451148 13.299349 7.364486
In 4.451148 10.347373 10.316462
In 7.403124 13.299349 10.316462
In 7.403124 10.347373 13.268438
In 4.451148 16.251325 4.412509
In 7.403124 16.251325 7.364486
In 10.355100 -16.220415 -10.347373
In 10.355100 -10.316462 -16.251325
In 10.355100 -13.268438 -13.299349
In 13.307077 -10.316462 -13.299349
In 13.307077 -13.268438 -10.347373
In 10.355100 -10.316462 -10.347373
In 10.355100 -13.268438 -7.395396
In 13.307077 -10.316462 -7.395396
In 10.355100 -10.316462 -4.443420
In 10.355100 -7.364486 -13.299349
In 13.307077 -7.364486 -10.347373
In 10.355100 -4.412509 -10.347373
In 10.355100 -7.364486 -7.395396
In 13.307077 -4.412509 -7.395396
In 13.307077 -7.364486 -4.443420
In 10.355100 -4.412509 -4.443420
In 10.355100 -7.364486 -1.491444
In 13.307077 -4.412509 -1.491444
In 10.355100 -4.412509 1.460533
In 10.355100 -1.460533 -7.395396
In 13.307077 -1.460533 -4.443420
In 10.355100 1.491444 -4.443420
In 10.355100 -1.460533 -1.491444
In 13.307077 1.491444 -1.491444
In 13.307077 -1.460533 1.460533
In 10.355100 1.491444 1.460533
In 10.355100 -1.460533 4.412509
In 13.307077 1.491444 4.412509
In 10.355100 1.491444 7.364486
In 10.355100 4.443420 -1.491444
In 13.307077 4.443420 1.460533
In 10.355100 7.395396 1.460533
In 10.355100 4.443420 4.412509
In 13.307077 7.395396 4.412509
In 13.307077 4.443420 7.364486
In 10.355100 7.395396 7.364486
In 10.355100 4.443420 10.316462
In 13.307077 7.395396 10.316462
In 10.355100 7.395396 13.268438
In 10.355100 10.347373 4.412509
In 13.307077 10.347373 7.364486
In 10.355100 13.299349 7.364486
In 10.355100 10.347373 10.316462
In 13.307077 13.299349 10.316462
In 13.307077 10.347373 13.268438
In 10.355100 13.299349 13.268438
In 10.355100 10.347373 16.220415
In 10.355100 16.251325 10.316462
In 16.259053 -10.316462 -10.347373
In 16.259053 -7.364486 -7.395396
In 16.259053 -4.412509 -4.443420
In 16.259053 -1.460533 -1.491444
In 16.259053 1.491444 1.460533
In 16.259053 4.443420 4.412509
In 16.259053 7.395396 7.364486
In 16.259053 10.347373 10.316462
P -14.736699 -8.840474 5.888497
P -14.736699 -2.936521 -0.015455
P -14.736699 -5.888497 2.936521
P -14.736699 -2.936521 5.888497
P -14.736699 -5.888497 8.840474
P -14.736699 0.015455 -2.967432
P -14.736699 2.967432 -0.015455
P -14.736699 0.015455 2.936521
P -14.736699 5.919408 -8.871385
P -14.736699 8.871385 -5.919408
P -14.736699 5.919408 -2.967432
P -8.832746 -14.744427 5.888497
P -11.784722 -8.840474 2.936521
P -8.832746 -8.840474 -0.015455
P -11.784722 -11.792450 5.888497
P -11.784722 -8.840474 8.840474
P -8.832746 -8.840474 5.888497
P -8.832746 -11.792450 8.840474
P -11.784722 -11.792450 11.792450
P -8.832746 -8.840474 11.792450
P -11.784722 -2.936521 -2.967432
P -8.832746 -2.936521 -5.919408
P -8.832746 -5.888497 -2.967432
P -11.784722 -2.936521 2.936521
P -8.832746 -2.936521 -0.015455
P -8.832746 -5.888497 2.936521
P -11.784722 -5.888497 5.888497
P -11.784722 -2.936521 8.840474
P -8.832746 -2.936521 5.888497
P -8.832746 -5.888497 8.840474
P -11.784722 -5.888497 11.792450
P -8.832746 -5.888497 14.744427
P -11.784722 2.967432 -8.871385
P -8.832746 0.015455 -8.871385
P -11.784722 2.967432 -2.967432
P -8.832746 2.967432 -5.919408
P -8.832746 0.015455 -2.967432
P -11.784722 0.015455 -0.015455
P -11.784722 2.967432 2.936521
P -8.832746 2.967432 -0.015455
P -8.832746 0.015455 2.936521
P -8.832746 2.967432 5.888497
P -8.832746 0.015455 8.840474
P -8.832746 5.919408 -14.775337
P -11.784722 5.919408 -11.823361
P -11.784722 8.871385 -8.871385
P -8.832746 8.871385 -11.823361
P -8.832746 5.919408 -8.871385
P -11.784722 5.919408 -5.919408
P -11.784722 8.871385 -2.967432
P -8.832746 8.871385 -5.919408
P -8.832746 5.919408 -2.967432
P -8.832746 8.871385 -0.015455
P -8.832746 5.919408 2.936521
P -11.784722 11.823361 -11.823361
P -8.832746 11.823361 -8.871385
P -11.784722 11.823361 -5.919408
P -8.832746 14.775337 -5.919408
P -8.832746 11.823361 -2.967432
P -5.880770 -14.744427 2.936521
P -2.928793 -14.744427 -0.015455
P -5.880770 -14.744427 8.840474
P -2.928793 -14.744427 5.888497
P -5.880770 -8.840474 -2.967432
P -2.928793 -8.840474 -5.919408
P -5.880770 -11.792450 -0.015455
P -5.880770 -8.840474 2.936521
P -2.928793 -8.840474 -0.015455
P -2.928793 -11.792450 2.936521
P -5.880770 -11.792450 5.888497
P -5.880770 -8.840474 8.840474
P -2.928793 -8.840474 5.888497
P -2.928793 -11.792450 8.840474
P -5.880770 -11.792450 11.792450
P -5.880770 -8.840474 14.744427
P -2.928793 -8.840474 11.792450
P -5.880770 -2.936521 -8.871385
P -2.928793 -5.888497 -8.871385
P -5.880770 -2.936521 -2.967432
P -2.928793 -2.936521 -5.919408
P -2.928793 -5.888497 -2.967432
P -5.880770 -5.888497 -0.015455
P -5.880770 -2.936521 2.936521
P -2.928793 -2.936521 -0.015455
P -2.928793 -5.888497 2.936521
P -5.880770 -5.888497 5.888497
P -5.880770 -2.936521 8.840474
P -2.928793 -2.936521 5.888497
P -2.928793 -5.888497 8.840474
P -5.880770 -5.888497 11.792450
P -5.880770 -2.936521 14.744427
P -2.928793 -2.936521 11.792450
P -2.928793 -5.888497 14.744427
P -5.880770 2.967432 -14.775337
P -2.928793 0.015455 -14.775337
P -5.880770 0.015455 -11.823361
P -5.880770 2.967432 -8.871385
P -2.928793 2.967432 -11.823361
P -2.928793 0.015455 -8.871385
P -5.880770 0.015455 -5.919408
P -5.880770 2.967432 -2.967432
P -2.928793 2.967432 -5.919408
P -2.928793 0.015455 -2.967432
P -5.880770 0.015455 -0.015455
P -5.880770 2.967432 2.936521
P -2.928793 2.967432 -0.015455
P -2.928793 0.015455 2.936521
P -5.880770 0.015455 5.888497
P -5.880770 2.967432 8.840474
P -2.928793 2.967432 5.888497
P -2.928793 0.015455 8.840474
P -2.928793 2.967432 11.792450
P -2.928793 0.015455 14.744427
P -5.880770 8.871385 -14.775337
P -2.928793 5.919408 -14.775337
P -5.880770 5.919408 -11.823361
P -5.880770 8.871385 -8.871385
P -2.928793 8.871385 -11.823361
P -2.928793 5.919408 -8.871385
P -5.880770 5.919408 -5.919408
P -5.880770 8.871385 -2.967432
P -2.928793 8.871385 -5.919408
P -2.928793 5.919408 -2.967432
P -5.880770 5.919408 -0.015455
P -5.880770 8.871385 2.936521
P -2.928793 8.871385 -0.015455
P -2.928793 5.919408 2.936521
P -2.928793 8.871385 5.888497
P -2.928793 5.919408 8.840474
P -5.880770 14.775337 -8.871385
P -2.928793 11.823361 -8.871385
P -5.880770 11.823361 -5.919408
P -5.880770 14.775337 -2.967432
P -2.928793 14.775337 -5.919408
P -2.928793 11.823361 -2.967432
P -2.928793 14.775337 -0.015455
P 0.023183 -14.744427 -2.967432
P 2.975159 -14.744427 -5.919408
P 0.023183 -14.744427 2.936521
P 2.975159 -14.744427 -0.015455
P 2.975159 -8.840474 -11.823361
P 2.975159 -11.792450 -8.871385
P 0.023183 -11.792450 -5.919408
P 0.023183 -8.840474 -2.967432
P 2.975159 -8.840474 -5.919408
P 2.975159 -11.792450 -2.967432
P 0.023183 -11.792450 -0.015455
P 0.023183 -8.840474 2.936521
P 2.975159 -8.840474 -0.015455
P 2.975159 -11.792450 2.936521
P 0.023183 -11.792450 5.888497
P 2.975159 -8.840474 5.888497
P 0.023183 -2.936521 -14.775337
P 2.975159 -5.888497 -14.775337
P 0.023183 -5.888497 -11.823361
P 0.023183 -2.936521 -8.871385
P 2.975159 -2.936521 -11.823361
P 2.975159 -5.888497 -8.871385
P 0.023183 -5.888497 -5.919408
P 0.023183 -2.936521 -2.967432
P 2.975159 -2.936521 -5.919408
P 2.975159 -5.888497 -2.967432
P 0.023183 -5.888497 -0.015455
P 0.023183 -2.936521 2.936521
P 2.975159 -2.936521 -0.015455
P 2.975159 -5.888497 2.936521
P 0.023183 -5.888497 5.888497
P 0.023183 -2.936521 8.840474
P 2.975159 -2.936521 5.888497
P 2.975159 -5.888497 8.840474
P 0.023183 -5.888497 11.792450
P 0.023183 -2.936521 14.744427
P 0.023183 2.967432 -14.775337
P 2.975159 0.015455 -14.775337
P 0.023183 0.015455 -11.823361
P 0.023183 2.967432 -8.871385
P 2.975159 0.015455 -8.871385
P 0.023183 0.015455 -5.919408
P 0.023183 2.967432 -2.967432
P 2.975159 2.967432 -5.919408
P 2.975159 0.015455 -2.967432
P 0.023183 0.015455 -0.015455
P 0.023183 2.967432 2.936521
P 2.975159 2.967432 -0.015455
P 2.975159 0.015455 2.936521
P 0.023183 0.015455 5.888497
P 0.023183 2.967432 8.840474
P 2.975159 2.967432 5.888497
P 2.975159 0.015455 8.840474
P 0.023183 0.015455 11.792450
P 0.023183 2.967432 14.744427
P 2.975159 2.967432 11.792450
P 2.975159 0.015455 14.744427
P 0.023183 5.919408 -11.823361
P 2.975159 5.919408 -8.871385
P 0.023183 5.919408 -5.919408
P 0.023183 8.871385 -2.967432
P 2.975159 5.919408 -2.967432
P 0.023183 5.919408 -0.015455
P 0.023183 8.871385 2.936521
P 2.975159 8.871385 -0.015455
P 2.975159 5.919408 2.936521
P 0.023183 5.919408 5.888497
P 2.975159 8.871385 5.888497
P 2.975159 5.919408 8.840474
P 0.023183 5.919408 11.792450
P 2.975159 8.871385 11.792450
P 2.975159 5.919408 14.744427
P 0.023183 11.823361 -5.919408
P 0.023183 14.775337 -2.967432
P 2.975159 11.823361 -2.967432
P 0.023183 11.823361 -0.015455
P 0.023183 14.775337 2.936521
P 2.975159 14.775337 -0.015455
P 2.975159 11.823361 2.936521
P 0.023183 11.823361 5.888497
P 2.975159 14.775337 5.888497
P 5.927136 -14.744427 -8.871385
P 5.927136 -14.744427 -2.967432
P 8.879112 -14.744427 -5.919408
P 5.927136 -8.840474 -14.775337
P 5.927136 -11.792450 -11.823361
P 5.927136 -8.840474 -8.871385
P 8.879112 -8.840474 -11.823361
P 8.879112 -11.792450 -8.871385
P 5.927136 -11.792450 -5.919408
P 5.927136 -8.840474 -2.967432
P 8.879112 -8.840474 -5.919408
P 5.927136 -8.840474 2.936521
P 8.879112 -8.840474 -0.015455
P 5.927136 -2.936521 -14.775337
P 8.879112 -5.888497 -14.775337
P 5.927136 -5.888497 -11.823361
P 5.927136 -2.936521 -8.871385
P 8.879112 -5.888497 -8.871385
P 5.927136 -5.888497 -5.919408
P 5.927136 -2.936521 -2.967432
P 8.879112 -2.936521 -5.919408
P 8.879112 -5.888497 -2.967432
P 5.927136 -5.888497 -0.015455
P 5.927136 -2.936521 2.936521
P 8.879112 -2.936521 -0.015455
P 8.879112 -5.888497 2.936521
P 5.927136 -2.936521 8.840474
P 8.879112 -2.936521 5.888497
P 5.927136 0.015455 -11.823361
P 5.927136 2.967432 -8.871385
P 8.879112 0.015455 -8.871385
P 5.927136 0.015455 -5.919408
P 5.927136 2.967432 -2.967432
P 8.879112 2.967432 -5.919408
P 8.879112 0.015455 -2.967432
P 5.927136 0.015455 -0.015455
P 5.927136 2.967432 2.936521
P 8.879112 2.967432 -0.015455
P 8.879112 0.015455 2.936521
P 5.927136 0.015455 5.888497
P 5.927136 2.967432 8.840474
P 8.879112 2.967432 5.888497
P 8.879112 0.015455 8.840474
P 5.927136 0.015455 11.792450
P 5.927136 2.967432 14.744427
P 5.927136 8.871385 -2.967432
P 8.879112 5.919408 -2.967432
P 5.927136 5.919408 -0.015455
P 5.927136 8.871385 2.936521
P 8.879112 8.871385 -0.015455
P 8.879112 5.919408 2.936521
P 5.927136 5.919408 5.888497
P 5.927136 8.871385 8.840474
P 8.879112 8.871385 5.888497
P 8.879112 5.919408 8.840474
P 5.927136 5.919408 11.792450
P 5.927136 8.871385 14.744427
P 8.879112 8.871385 11.792450
P 8.879112 5.919408 14.744427
P 5.927136 14.775337 2.936521
P 8.879112 11.823361 2.936521
P 5.927136 11.823361 5.888497
P 5.927136 14.775337 8.840474
P 8.879112 14.775337 5.888497
P 8.879112 11.823361 8.840474
P 5.927136 11.823361 11.792450
P 11.831089 -11.792450 -11.823361
P 11.831089 -8.840474 -8.871385
P 11.831089 -11.792450 -5.919408
P 11.831089 -8.840474 -2.967432
P 14.783065 -8.840474 -5.919408
P 11.831089 -5.888497 -11.823361
P 11.831089 -2.936521 -8.871385
P 14.783065 -5.888497 -8.871385
P 11.831089 -5.888497 -5.919408
P 11.831089 -2.936521 -2.967432
P 14.783065 -2.936521 -5.919408
P 14.783065 -5.888497 -2.967432
P 11.831089 -2.936521 2.936521
P 14.783065 -2.936521 -0.015455
P 11.831089 2.967432 -2.967432
P 14.783065 0.015455 -2.967432
P 11.831089 0.015455 -0.015455
P 11.831089 2.967432 2.936521
P 14.783065 2.967432 -0.015455
P 14.783065 0.015455 2.936521
P 11.831089 2.967432 8.840474
P 14.783065 2.967432 5.888497
P 11.831089 8.871385 2.936521
P 14.783065 5.919408 2.936521
P 11.831089 5.919408 5.888497
P 11.831089 8.871385 8.840474
P 14.783065 8.871385 5.888497
P 14.783065 5.919408 8.840474
P 11.831089 5.919408 11.792450
P 11.831089 11.823361 5.888497
P 11.831089 11.823361 11.792450
Cl -17.688675 -8.840474 8.840474
Cl -14.736699 -11.792450 8.840474
Cl -14.736699 -8.840474 11.792450
Cl -17.688675 -2.936521 2.936521
Cl -17.688675 -5.888497 5.888497
Cl -17.688675 2.967432 -2.967432
Cl -14.736699 2.967432 -5.919408
Cl -17.688675 0.015455 -0.015455
Cl -17.688675 8.871385 -8.871385
Cl -14.736699 8.871385 -11.823361
Cl -17.688675 5.919408 -5.919408
Cl -14.736699 11.823361 -8.871385
Cl -11.784722 -14.744427 8.840474
Cl -8.832746 -17.696403 8.840474
Cl -8.832746 -14.744427 11.792450
Cl -8.832746 -11.792450 2.936521
Cl -11.784722 -8.840474 14.744427
Cl -8.832746 -11.792450 14.744427
Cl -8.832746 -8.840474 17.696403
Cl -11.784722 -5.888497 -0.015455
Cl -8.832746 -2.936521 11.792450
Cl -8.832746 2.967432 -11.823361
Cl -11.784722 0.015455 -5.919408
Cl -11.784722 0.015455 5.888497
Cl -11.784722 8.871385 -14.775337
Cl -8.832746 8.871385 -17.727314
Cl -11.784722 5.919408 -0.015455
Cl -8.832746 11.823361 -14.775337
Cl -11.784722 14.775337 -8.871385
Cl -8.832746 14.775337 -11.823361
Cl -8.832746 17.727314 -8.871385
Cl -2.928793 -17.696403 2.936521
Cl -5.880770 -17.696403 5.888497
Cl -2.928793 -11.792450 -2.967432
Cl -2.928793 -2.936521 -11.823361
Cl -5.880770 -5.888497 -5.919408
Cl -5.880770 -5.888497 17.696403
Cl -2.928793 -2.936521 17.696403
Cl -2.928793 2.967432 -17.727314
Cl -5.880770 0.015455 11.792450
Cl -5.880770 5.919408 -17.727314
Cl -5.880770 5.919408 5.888497
Cl -5.880770 11.823361 -11.823361
Cl -5.880770 11.823361 -0.015455
Cl -2.928793 11.823361 2.936521
Cl -5.880770 17.727314 -5.919408
Cl -2.928793 17.727314 -2.967432
Cl 2.975159 -17.696403 -2.967432
Cl 0.023183 -17.696403 -0.015455
Cl 0.023183 -8.840474 -8.871385
Cl 0.023183 -8.840474 8.840474
Cl 2.975159 -2.936521 -17.727314
Cl 2.975159 -2.936521 11.792450
Cl 0.023183 0.015455 -17.727314
Cl 2.975159 2.967432 -11.823361
Cl 0.023183 0.015455 17.696403
Cl 2.975159 2.967432 17.696403
Cl 0.023183 8.871385 -8.871385
Cl 2.975159 8.871385 -5.919408
Cl 0.023183 8.871385 8.840474
Cl 2.975159 11.823361 8.840474
Cl 0.023183 17.727314 -0.015455
Cl 2.975159 17.727314 2.936521
Cl 8.879112 -14.744427 -11.823361
Cl 8.879112 -17.696403 -8.871385
Cl 5.927136 -17.696403 -5.919408
Cl 8.879112 -8.840474 -17.727314
Cl 8.879112 -11.792450 -14.775337
Cl 8.879112 -11.792450 -2.967432
Cl 5.927136 -11.792450 -0.015455
Cl 5.927136 -5.888497 -17.727314
Cl 8.879112 -2.936521 -11.823361
Cl 5.927136 -5.888497 5.888497
Cl 8.879112 2.967432 11.792450
Cl 5.927136 5.919408 -5.919408
Cl 5.927136 5.919408 17.696403
Cl 8.879112 8.871385 17.696403
Cl 5.927136 11.823361 -0.015455
Cl 8.879112 14.775337 11.792450
Cl 8.879112 11.823361 14.744427
Cl 5.927136 17.727314 5.888497
Cl 8.879112 17.727314 8.840474
Cl 11.831089 -14.744427 -8.871385
Cl 11.831089 -8.840474 -14.775337
Cl 14.783065 -8.840474 -11.823361
Cl 14.783065 -11.792450 -8.871385
Cl 11.831089 -5.888497 -0.015455
Cl 11.831089 0.015455 -5.919408
Cl 11.831089 0.015455 5.888497
Cl 11.831089 5.919408 -0.015455
Cl 11.831089 8.871385 14.744427
Cl 14.783065 8.871385 11.792450
Cl 11.831089 14.775337 8.840474
Cl 14.783065 11.823361 8.840474
Cl 17.735041 -8.840474 -8.871385
Cl 17.735041 -5.888497 -5.919408
Cl 17.735041 -2.936521 -2.967432
Cl 17.735041 0.015455 -0.015455
Cl 17.735041 2.967432 2.936521
Cl 17.735041 5.919408 5.888497
Cl 17.735041 8.871385 8.840474
Cl -17.688675 -11.792450 11.792450
