329
HgSe-Se-Hg148Se115Cl66-reconstructed
Hg -10.865375 -4.672723 -4.682134
Hg -10.865375 -4.672723 1.510518
Hg -10.865375 1.519929 -4.682134
Hg -10.865375 -1.576397 -1.585808
Hg -10.865375 1.519929 1.510518
Hg -10.865375 -1.576397 4.606844
Hg -10.865375 4.616255 -1.585808
Hg -10.865375 4.616255 4.606844
Hg -4.672723 -10.865375 -4.682134
Hg -4.672723 -10.865375 1.510518
Hg -4.672723 -4.672723 -10.874786
Hg -4.672723 -7.769049 -7.778460
Hg -7.769049 -4.672723 -7.778460
Hg -7.769049 -7.769049 -4.682134
Hg -4.672723 -4.672723 -4.682134
Hg -4.672723 -7.769049 -1.585808
Hg -7.769049 -4.672723 -1.585808
Hg -7.769049 -7.769049 1.510518
Hg -4.672723 -4.672723 1.510518
Hg -7.769049 -4.672723 4.606844
Hg -4.672723 -4.672723 7.703170
Hg -4.672723 1.519929 -10.874786
Hg -4.672723 -1.576397 -7.778460
Hg -7.769049 1.519929 -7.778460
Hg -7.769049 -1.576397 -4.682134
Hg -4.672723 1.519929 -4.682134
Hg -4.672723 -1.576397 -1.585808
Hg -7.769049 1.519929 -1.585808
Hg -7.769049 -1.576397 1.510518
Hg -4.672723 1.519929 1.510518
Hg -4.672723 -1.576397 4.606844
Hg -7.769049 1.519929 4.606844
Hg -7.769049 -1.576397 7.703170
Hg -4.672723 1.519929 7.703170
Hg -4.672723 -1.576397 10.799496
Hg -7.769049 4.616255 -4.682134
Hg -4.672723 7.712581 -4.682134
Hg -4.672723 4.616255 -1.585808
Hg -7.769049 7.712581 -1.585808
Hg -7.769049 4.616255 1.510518
Hg -4.672723 7.712581 1.510518
Hg -4.672723 4.616255 4.606844
Hg -7.769049 7.712581 4.606844
Hg -7.769049 4.616255 7.703170
Hg -4.672723 7.712581 7.703170
Hg -4.672723 4.616255 10.799496
Hg -4.672723 10.808907 -1.585808
Hg -4.672723 10.808907 4.606844
Hg 1.519929 -10.865375 -4.682134
Hg -1.576397 -10.865375 -1.585808
Hg 1.519929 -10.865375 1.510518
Hg -1.576397 -10.865375 4.606844
Hg 1.519929 -4.672723 -10.874786
Hg 1.519929 -7.769049 -7.778460
Hg -1.576397 -4.672723 -7.778460
Hg -1.576397 -7.769049 -4.682134
Hg 1.519929 -4.672723 -4.682134
Hg 1.519929 -7.769049 -1.585808
Hg -1.576397 -4.672723 -1.585808
Hg -1.576397 -7.769049 1.510518
Hg 1.519929 -4.672723 1.510518
Hg 1.519929 -7.769049 4.606844
Hg -1.576397 -4.672723 4.606844
Hg -1.576397 -7.769049 7.703170
Hg 1.519929 -4.672723 7.703170
Hg -1.576397 -4.672723 10.799496
Hg -1.576397 -1.576397 -10.874786
Hg 1.519929 1.519929 -10.874786
Hg 1.519929 -1.576397 -7.778460
Hg -1.576397 1.519929 -7.778460
Hg -1.576397 -1.576397 -4.682134
Hg 1.519929 1.519929 -4.682134
Hg 1.519929 -1.576397 -1.585808
Hg -1.576397 1.519929 -1.585808
Hg -1.576397 -1.576397 1.510518
Hg 1.519929 1.519929 1.510518
Hg 1.519929 -1.576397 4.606844
Hg -1.576397 1.519929 4.606844
Hg -1.576397 -1.576397 7.703170
Hg 1.519929 1.519929 7.703170
Hg 1.519929 -1.576397 10.799496
Hg -1.576397 1.519929 10.799496
Hg -1.576397 4.616255 -10.874786
Hg 1.519929 4.616255 -7.778460
Hg -1.576397 7.712581 -7.778460
Hg -1.576397 4.616255 -4.682134
Hg 1.519929 7.712581 -4.682134
Hg 1.519929 4.616255 -1.585808
Hg -1.576397 7.712581 -1.585808
Hg -1.576397 4.616255 1.510518
Hg 1.519929 7.712581 1.510518
Hg 1.519929 4.616255 4.606844
Hg -1.576397 7.712581 4.606844
Hg -1.576397 4.616255 7.703170
Hg 1.519929 7.712581 7.703170
Hg 1.519929 4.616255 10.799496
Hg -1.576397 10.808907 -4.682134
Hg 1.519929 10.808907 -1.585808
Hg -1.576397 10.808907 1.510518
Hg 1.519929 10.808907 4.606844
Hg 4.616255 -10.865375 -1.585808
Hg 4.616255 -10.865375 4.606844
Hg 4.616255 -7.769049 -4.682134
Hg 7.712581 -4.672723 -4.682134
Hg 7.712581 -7.769049 -1.585808
Hg 4.616255 -4.672723 -1.585808
Hg 4.616255 -7.769049 1.510518
Hg 7.712581 -4.672723 1.510518
Hg 7.712581 -7.769049 4.606844
Hg 4.616255 -4.672723 4.606844
Hg 4.616255 -7.769049 7.703170
Hg 7.712581 -4.672723 7.703170
Hg 4.616255 -4.672723 10.799496
Hg 4.616255 -1.576397 -10.874786
Hg 7.712581 -1.576397 -7.778460
Hg 4.616255 1.519929 -7.778460
Hg 4.616255 -1.576397 -4.682134
Hg 7.712581 1.519929 -4.682134
Hg 7.712581 -1.576397 -1.585808
Hg 4.616255 1.519929 -1.585808
Hg 4.616255 -1.576397 1.510518
Hg 7.712581 1.519929 1.510518
Hg 7.712581 -1.576397 4.606844
Hg 4.616255 1.519929 4.606844
Hg 4.616255 -1.576397 7.703170
Hg 7.712581 1.519929 7.703170
Hg 4.616255 1.519929 10.799496
Hg 4.616255 4.616255 -10.874786
Hg 7.712581 4.616255 -7.778460
Hg 4.616255 7.712581 -7.778460
Hg 4.616255 4.616255 -4.682134
Hg 7.712581 7.712581 -4.682134
Hg 7.712581 4.616255 -1.585808
Hg 4.616255 7.712581 -1.585808
Hg 4.616255 4.616255 1.510518
Hg 7.712581 7.712581 1.510518
Hg 4.616255 7.712581 4.606844
Hg 4.616255 4.616255 7.703170
Hg 4.616255 10.808907 -4.682134
Hg 4.616255 10.808907 1.510518
Hg 10.808907 -4.672723 -1.585808
Hg 10.808907 -4.672723 4.606844
Hg 10.808907 -1.576397 -4.682134
Hg 10.808907 1.519929 -1.585808
Hg 10.808907 -1.576397 1.510518
Hg 10.808907 1.519929 4.606844
Hg 10.808907 4.616255 -4.682134
Hg 10.808907 4.616255 1.510518
Se -9.317212 -3.124560 -6.230297
Se -9.317212 -3.124560 -0.037645
Se -9.317212 -6.220886 -3.133971
Se -9.317212 -6.220886 3.058681
Se -9.317212 3.068092 -0.037645
Se -9.317212 -0.028234 -3.133971
Se -9.317212 3.068092 6.155007
Se -9.317212 -0.028234 3.058681
Se -9.317212 6.164418 -3.133971
Se -9.317212 6.164418 3.058681
Se -3.124560 -9.317212 -6.230297
Se -6.220886 -9.317212 -3.133971
Se -3.124560 -9.317212 -0.037645
Se -6.220886 -6.220886 -6.230297
Se -6.220886 -3.124560 -9.326623
Se -3.124560 -3.124560 -6.230297
Se -3.124560 -6.220886 -9.326623
Se -6.220886 -6.220886 -0.037645
Se -6.220886 -3.124560 -3.133971
Se -3.124560 -3.124560 -0.037645
Se -3.124560 -6.220886 -3.133971
Se -6.220886 -3.124560 3.058681
Se -3.124560 -3.124560 6.155007
Se -3.124560 -6.220886 3.058681
Se -6.220886 -3.124560 9.251333
Se -6.220886 -0.028234 -6.230297
Se -3.124560 3.068092 -6.230297
Se -3.124560 -0.028234 -9.326623
Se -6.220886 -0.028234 -0.037645
Se -6.220886 3.068092 -3.133971
Se -3.124560 3.068092 -0.037645
Se -3.124560 -0.028234 -3.133971
Se -6.220886 -0.028234 6.155007
Se -6.220886 3.068092 3.058681
Se -3.124560 3.068092 6.155007
Se -3.124560 -0.028234 3.058681
Se -6.220886 3.068092 9.251333
Se -3.124560 -0.028234 9.251333
Se -3.124560 9.260744 -6.230297
Se -6.220886 6.164418 -0.037645
Se -3.124560 9.260744 -0.037645
Se -3.124560 6.164418 -3.133971
Se -6.220886 6.164418 6.155007
Se -6.220886 9.260744 3.058681
Se -3.124560 9.260744 6.155007
Se -3.124560 6.164418 3.058681
Se -3.124560 6.164418 9.251333
Se -0.028234 -9.317212 -3.133971
Se 3.068092 -9.317212 -0.037645
Se -0.028234 -9.317212 3.058681
Se 3.068092 -9.317212 6.155007
Se -0.028234 -6.220886 -6.230297
Se -0.028234 -3.124560 -9.326623
Se 3.068092 -3.124560 -6.230297
Se -0.028234 -6.220886 -0.037645
Se -0.028234 -3.124560 -3.133971
Se 3.068092 -3.124560 -0.037645
Se 3.068092 -6.220886 -3.133971
Se -0.028234 -6.220886 6.155007
Se -0.028234 -3.124560 3.058681
Se 3.068092 -3.124560 6.155007
Se 3.068092 -6.220886 3.058681
Se -0.028234 -3.124560 9.251333
Se 3.068092 -6.220886 9.251333
Se -0.028234 -0.028234 -6.230297
Se -0.028234 3.068092 -9.326623
Se 3.068092 3.068092 -6.230297
Se 3.068092 -0.028234 -9.326623
Se -0.028234 -0.028234 -0.037645
Se -0.028234 3.068092 -3.133971
Se 3.068092 3.068092 -0.037645
Se 3.068092 -0.028234 -3.133971
Se -0.028234 -0.028234 6.155007
Se -0.028234 3.068092 3.058681
Se 3.068092 3.068092 6.155007
Se 3.068092 -0.028234 3.058681
Se -0.028234 3.068092 9.251333
Se 3.068092 -0.028234 9.251333
Se -0.028234 6.164418 -6.230297
Se 3.068092 9.260744 -6.230297
Se 3.068092 6.164418 -9.326623
Se -0.028234 6.164418 -0.037645
Se -0.028234 9.260744 -3.133971
Se 3.068092 9.260744 -0.037645
Se 3.068092 6.164418 -3.133971
Se -0.028234 6.164418 6.155007
Se -0.028234 9.260744 3.058681
Se 3.068092 6.164418 3.058681
Se 3.068092 6.164418 9.251333
Se 6.164418 -9.317212 -3.133971
Se 6.164418 -9.317212 3.058681
Se 9.260744 -3.124560 -6.230297
Se 6.164418 -6.220886 -0.037645
Se 6.164418 -3.124560 -3.133971
Se 9.260744 -3.124560 -0.037645
Se 6.164418 -6.220886 6.155007
Se 6.164418 -3.124560 3.058681
Se 9.260744 -3.124560 6.155007
Se 9.260744 -6.220886 3.058681
Se 6.164418 -3.124560 9.251333
Se 6.164418 -0.028234 -6.230297
Se 6.164418 3.068092 -9.326623
Se 9.260744 3.068092 -6.230297
Se 6.164418 -0.028234 -0.037645
Se 6.164418 3.068092 -3.133971
Se 9.260744 3.068092 -0.037645
Se 9.260744 -0.028234 -3.133971
Se 6.164418 -0.028234 6.155007
Se 6.164418 3.068092 3.058681
Se 9.260744 -0.028234 3.058681
Se 6.164418 6.164418 -6.230297
Se 6.164418 6.164418 -0.037645
Se 6.164418 9.260744 -3.133971
Se 9.260744 6.164418 -3.133971
Se 6.164418 9.260744 3.058681
Cl -12.413538 -3.124560 -3.133971
Cl -12.413538 -3.124560 3.058681
Cl -9.317212 -3.124560 6.155007
Cl -9.317212 3.068092 -6.230297
Cl -12.413538 -0.028234 -0.037645
Cl -12.413538 3.068092 -3.133971
Cl -12.413538 3.068092 3.058681
Cl -3.124560 -12.413538 -3.133971
Cl -6.220886 -9.317212 3.058681
Cl -3.124560 -9.317212 6.155007
Cl -3.124560 -12.413538 3.058681
Cl -3.124560 -3.124560 -12.422949
Cl -6.220886 -6.220886 6.155007
Cl -3.124560 -3.124560 12.347659
Cl -3.124560 -6.220886 9.251333
Cl -3.124560 3.068092 -12.422949
Cl -6.220886 3.068092 -9.326623
Cl -3.124560 3.068092 12.347659
Cl -6.220886 6.164418 -6.230297
Cl -3.124560 6.164418 -9.326623
Cl -6.220886 9.260744 -3.133971
Cl -3.124560 12.357070 -3.133971
Cl -3.124560 12.357070 3.058681
Cl 3.068092 -9.317212 -6.230297
Cl -0.028234 -12.413538 -0.037645
Cl 3.068092 -12.413538 -3.133971
Cl 3.068092 -12.413538 3.058681
Cl 3.068092 -3.124560 -12.422949
Cl 3.068092 -6.220886 -9.326623
Cl 3.068092 -3.124560 12.347659
Cl -0.028234 -0.028234 -12.422949
Cl 3.068092 3.068092 -12.422949
Cl -0.028234 -0.028234 12.347659
Cl 3.068092 3.068092 12.347659
Cl 3.068092 9.260744 6.155007
Cl -0.028234 12.357070 -0.037645
Cl 3.068092 12.357070 -3.133971
Cl 3.068092 12.357070 3.058681
Cl 6.164418 -6.220886 -6.230297
Cl 6.164418 -3.124560 -9.326623
Cl 9.260744 -6.220886 -3.133971
Cl 9.260744 3.068092 6.155007
Cl 6.164418 3.068092 9.251333
Cl 6.164418 6.164418 6.155007
Cl 9.260744 6.164418 3.058681
Cl 12.357070 -3.124560 -3.133971
Cl 12.357070 -3.124560 3.058681
Cl 12.357070 -0.028234 -0.037645
Cl 12.357070 3.068092 -3.133971
Cl 12.357070 3.068092 3.058681
Cl -9.317212 -6.220886 -6.230297
Cl -9.317212 6.164418 6.155007
Cl 6.164418 -9.317212 6.155007
Cl 6.164418 6.164418 -9.326623
Cl -6.220886 -12.413538 -6.230297
Cl -6.220886 6.164418 12.347659
Cl 6.164418 -6.220886 12.347659
Cl 6.164418 12.357070 -6.230297
Cl -6.220886 -6.220886 -12.422949
Cl -6.220886 12.357070 6.155007
Cl 12.357070 -6.220886 6.155007
Cl 12.357070 6.164418 -6.230297
Cl -6.220886 -9.317212 -9.326623
Cl -6.220886 9.260744 9.251333
Cl 9.260744 -6.220886 9.251333
Cl 9.260744 9.260744 -6.230297
