956
AlSb-Al-Al407Sb336Cl213-reconstructed
Al -15.486331 -9.270431 -12.388094
Al -15.486331 -12.365431 -9.293094
Al -18.581331 -9.270431 -9.293094
Al -15.486331 -9.270431 -6.198094
Al -15.486331 -6.175431 -9.293094
Al -18.581331 -6.175431 -6.198094
Al -15.486331 -3.080431 -6.198094
Al -15.486331 -6.175431 -3.103094
Al -18.581331 -3.080431 -3.103094
Al -15.486331 -3.080431 -0.008094
Al -15.486331 0.014569 -3.103094
Al -18.581331 0.014569 -0.008094
Al -15.486331 3.109569 -0.008094
Al -15.486331 0.014569 3.086906
Al -18.581331 3.109569 3.086906
Al -15.486331 3.109569 6.181906
Al -15.486331 6.204569 3.086906
Al -18.581331 6.204569 6.181906
Al -15.486331 9.299569 6.181906
Al -15.486331 6.204569 9.276906
Al -18.581331 9.299569 9.276906
Al -15.486331 9.299569 12.371906
Al -15.486331 12.394569 9.276906
Al -9.296331 -15.460431 -12.388094
Al -9.296331 -18.555431 -9.293094
Al -12.391331 -15.460431 -9.293094
Al -9.296331 -15.460431 -6.198094
Al -9.296331 -9.270431 -18.578094
Al -9.296331 -12.365431 -15.483094
Al -12.391331 -9.270431 -15.483094
Al -9.296331 -9.270431 -12.388094
Al -9.296331 -12.365431 -9.293094
Al -12.391331 -9.270431 -9.293094
Al -12.391331 -12.365431 -6.198094
Al -9.296331 -9.270431 -6.198094
Al -9.296331 -12.365431 -3.103094
Al -12.391331 -9.270431 -3.103094
Al -9.296331 -9.270431 -0.008094
Al -9.296331 -6.175431 -15.483094
Al -12.391331 -6.175431 -12.388094
Al -9.296331 -3.080431 -12.388094
Al -9.296331 -6.175431 -9.293094
Al -12.391331 -3.080431 -9.293094
Al -12.391331 -6.175431 -6.198094
Al -9.296331 -3.080431 -6.198094
Al -9.296331 -6.175431 -3.103094
Al -12.391331 -3.080431 -3.103094
Al -12.391331 -6.175431 -0.008094
Al -9.296331 -3.080431 -0.008094
Al -9.296331 -6.175431 3.086906
Al -12.391331 -3.080431 3.086906
Al -9.296331 -3.080431 6.181906
Al -9.296331 0.014569 -9.293094
Al -12.391331 0.014569 -6.198094
Al -9.296331 3.109569 -6.198094
Al -9.296331 0.014569 -3.103094
Al -12.391331 3.109569 -3.103094
Al -12.391331 0.014569 -0.008094
Al -9.296331 3.109569 -0.008094
Al -9.296331 0.014569 3.086906
Al -12.391331 3.109569 3.086906
Al -12.391331 0.014569 6.181906
Al -9.296331 3.109569 6.181906
Al -9.296331 0.014569 9.276906
Al -12.391331 3.109569 9.276906
Al -9.296331 3.109569 12.371906
Al -9.296331 6.204569 -3.103094
Al -12.391331 6.204569 -0.008094
Al -9.296331 9.299569 -0.008094
Al -9.296331 6.204569 3.086906
Al -12.391331 9.299569 3.086906
Al -12.391331 6.204569 6.181906
Al -9.296331 9.299569 6.181906
Al -9.296331 6.204569 9.276906
Al -12.391331 9.299569 9.276906
Al -12.391331 6.204569 12.371906
Al -9.296331 9.299569 12.371906
Al -9.296331 6.204569 15.466906
Al -12.391331 9.299569 15.466906
Al -9.296331 9.299569 18.561906
Al -9.296331 12.394569 3.086906
Al -12.391331 12.394569 6.181906
Al -9.296331 15.489569 6.181906
Al -9.296331 12.394569 9.276906
Al -12.391331 15.489569 9.276906
Al -9.296331 15.489569 12.371906
Al -9.296331 12.394569 15.466906
Al -9.296331 18.584569 9.276906
Al -6.201331 -15.460431 -9.293094
Al -6.201331 -18.555431 -6.198094
Al -3.106331 -15.460431 -6.198094
Al -3.106331 -18.555431 -3.103094
Al -6.201331 -15.460431 -3.103094
Al -3.106331 -15.460431 -0.008094
Al -6.201331 -9.270431 -15.483094
Al -3.106331 -9.270431 -12.388094
Al -3.106331 -12.365431 -9.293094
Al -6.201331 -9.270431 -9.293094
Al -6.201331 -12.365431 -6.198094
Al -3.106331 -9.270431 -6.198094
Al -3.106331 -12.365431 -3.103094
Al -6.201331 -9.270431 -3.103094
Al -6.201331 -12.365431 -0.008094
Al -3.106331 -9.270431 -0.008094
Al -3.106331 -12.365431 3.086906
Al -6.201331 -9.270431 3.086906
Al -3.106331 -9.270431 6.181906
Al -6.201331 -6.175431 -18.578094
Al -3.106331 -3.080431 -18.578094
Al -3.106331 -6.175431 -15.483094
Al -6.201331 -3.080431 -15.483094
Al -6.201331 -6.175431 -12.388094
Al -3.106331 -3.080431 -12.388094
Al -3.106331 -6.175431 -9.293094
Al -6.201331 -3.080431 -9.293094
Al -6.201331 -6.175431 -6.198094
Al -3.106331 -3.080431 -6.198094
Al -3.106331 -6.175431 -3.103094
Al -6.201331 -3.080431 -3.103094
Al -6.201331 -6.175431 -0.008094
Al -3.106331 -3.080431 -0.008094
Al -3.106331 -6.175431 3.086906
Al -6.201331 -3.080431 3.086906
Al -6.201331 -6.175431 6.181906
Al -3.106331 -3.080431 6.181906
Al -3.106331 -6.175431 9.276906
Al -6.201331 -3.080431 9.276906
Al -3.106331 -3.080431 12.371906
Al -3.106331 0.014569 -15.483094
Al -6.201331 0.014569 -12.388094
Al -3.106331 3.109569 -12.388094
Al -3.106331 0.014569 -9.293094
Al -6.201331 3.109569 -9.293094
Al -6.201331 0.014569 -6.198094
Al -3.106331 3.109569 -6.198094
Al -3.106331 0.014569 -3.103094
Al -6.201331 3.109569 -3.103094
Al -6.201331 0.014569 -0.008094
Al -3.106331 3.109569 -0.008094
Al -3.106331 0.014569 3.086906
Al -6.201331 3.109569 3.086906
Al -6.201331 0.014569 6.181906
Al -3.106331 3.109569 6.181906
Al -3.106331 0.014569 9.276906
Al -6.201331 3.109569 9.276906
Al -6.201331 0.014569 12.371906
Al -3.106331 3.109569 12.371906
Al -3.106331 0.014569 15.466906
Al -6.201331 3.109569 15.466906
Al -3.106331 3.109569 18.561906
Al -3.106331 6.204569 -9.293094
Al -6.201331 6.204569 -6.198094
Al -3.106331 9.299569 -6.198094
Al -3.106331 6.204569 -3.103094
Al -6.201331 9.299569 -3.103094
Al -6.201331 6.204569 -0.008094
Al -3.106331 9.299569 -0.008094
Al -3.106331 6.204569 3.086906
Al -6.201331 9.299569 3.086906
Al -6.201331 6.204569 6.181906
Al -3.106331 9.299569 6.181906
Al -3.106331 6.204569 9.276906
Al -6.201331 9.299569 9.276906
Al -6.201331 6.204569 12.371906
Al -3.106331 9.299569 12.371906
Al -3.106331 6.204569 15.466906
Al -6.201331 9.299569 15.466906
Al -6.201331 6.204569 18.561906
Al -3.106331 12.394569 -3.103094
Al -6.201331 12.394569 -0.008094
Al -3.106331 15.489569 -0.008094
Al -3.106331 12.394569 3.086906
Al -6.201331 15.489569 3.086906
Al -6.201331 12.394569 6.181906
Al -3.106331 15.489569 6.181906
Al -3.106331 12.394569 9.276906
Al -6.201331 15.489569 9.276906
Al -3.106331 18.584569 3.086906
Al -6.201331 18.584569 6.181906
Al -0.011331 -15.460431 -3.103094
Al -0.011331 -18.555431 -0.008094
Al 3.083669 -15.460431 -0.008094
Al 3.083669 -18.555431 3.086906
Al -0.011331 -15.460431 3.086906
Al 3.083669 -15.460431 6.181906
Al -0.011331 -9.270431 -9.293094
Al -0.011331 -12.365431 -6.198094
Al 3.083669 -9.270431 -6.198094
Al 3.083669 -12.365431 -3.103094
Al -0.011331 -9.270431 -3.103094
Al -0.011331 -12.365431 -0.008094
Al 3.083669 -9.270431 -0.008094
Al 3.083669 -12.365431 3.086906
Al -0.011331 -9.270431 3.086906
Al -0.011331 -12.365431 6.181906
Al 3.083669 -9.270431 6.181906
Al 3.083669 -12.365431 9.276906
Al -0.011331 -9.270431 9.276906
Al 3.083669 -9.270431 12.371906
Al -0.011331 -3.080431 -15.483094
Al -0.011331 -6.175431 -12.388094
Al 3.083669 -3.080431 -12.388094
Al 3.083669 -6.175431 -9.293094
Al -0.011331 -3.080431 -9.293094
Al -0.011331 -6.175431 -6.198094
Al 3.083669 -3.080431 -6.198094
Al 3.083669 -6.175431 -3.103094
Al -0.011331 -3.080431 -3.103094
Al -0.011331 -6.175431 -0.008094
Al 3.083669 -3.080431 -0.008094
Al 3.083669 -6.175431 3.086906
Al -0.011331 -3.080431 3.086906
Al -0.011331 -6.175431 6.181906
Al 3.083669 -3.080431 6.181906
Al 3.083669 -6.175431 9.276906
Al -0.011331 -3.080431 9.276906
Al -0.011331 -6.175431 12.371906
Al 3.083669 -3.080431 12.371906
Al 3.083669 -6.175431 15.466906
Al -0.011331 -3.080431 15.466906
Al 3.083669 -3.080431 18.561906
Al -0.011331 0.014569 -18.578094
Al 3.083669 3.109569 -18.578094
Al 3.083669 0.014569 -15.483094
Al -0.011331 3.109569 -15.483094
Al -0.011331 0.014569 -12.388094
Al 3.083669 3.109569 -12.388094
Al 3.083669 0.014569 -9.293094
Al -0.011331 3.109569 -9.293094
Al -0.011331 0.014569 -6.198094
Al 3.083669 3.109569 -6.198094
Al 3.083669 0.014569 -3.103094
Al -0.011331 3.109569 -3.103094
Al -0.011331 0.014569 -0.008094
Al 3.083669 3.109569 -0.008094
Al 3.083669 0.014569 3.086906
Al -0.011331 3.109569 3.086906
Al -0.011331 0.014569 6.181906
Al 3.083669 3.109569 6.181906
Al 3.083669 0.014569 9.276906
Al -0.011331 3.109569 9.276906
Al -0.011331 0.014569 12.371906
Al 3.083669 3.109569 12.371906
Al 3.083669 0.014569 15.466906
Al -0.011331 3.109569 15.466906
Al -0.011331 0.014569 18.561906
Al 3.083669 6.204569 -15.483094
Al -0.011331 6.204569 -12.388094
Al 3.083669 9.299569 -12.388094
Al 3.083669 6.204569 -9.293094
Al -0.011331 9.299569 -9.293094
Al -0.011331 6.204569 -6.198094
Al 3.083669 9.299569 -6.198094
Al 3.083669 6.204569 -3.103094
Al -0.011331 9.299569 -3.103094
Al -0.011331 6.204569 -0.008094
Al 3.083669 9.299569 -0.008094
Al 3.083669 6.204569 3.086906
Al -0.011331 9.299569 3.086906
Al -0.011331 6.204569 6.181906
Al 3.083669 9.299569 6.181906
Al 3.083669 6.204569 9.276906
Al -0.011331 9.299569 9.276906
Al -0.011331 6.204569 12.371906
Al 3.083669 12.394569 -9.293094
Al -0.011331 12.394569 -6.198094
Al 3.083669 15.489569 -6.198094
Al 3.083669 12.394569 -3.103094
Al -0.011331 15.489569 -3.103094
Al -0.011331 12.394569 -0.008094
Al 3.083669 15.489569 -0.008094
Al 3.083669 12.394569 3.086906
Al -0.011331 15.489569 3.086906
Al -0.011331 12.394569 6.181906
Al 3.083669 18.584569 -3.103094
Al -0.011331 18.584569 -0.008094
Al 6.178669 -15.460431 3.086906
Al 6.178669 -18.555431 6.181906
Al 9.273669 -15.460431 6.181906
Al 9.273669 -18.555431 9.276906
Al 6.178669 -15.460431 9.276906
Al 9.273669 -15.460431 12.371906
Al 6.178669 -9.270431 -3.103094
Al 6.178669 -12.365431 -0.008094
Al 9.273669 -9.270431 -0.008094
Al 9.273669 -12.365431 3.086906
Al 6.178669 -9.270431 3.086906
Al 6.178669 -12.365431 6.181906
Al 9.273669 -9.270431 6.181906
Al 9.273669 -12.365431 9.276906
Al 6.178669 -9.270431 9.276906
Al 9.273669 -9.270431 12.371906
Al 9.273669 -12.365431 15.466906
Al 6.178669 -9.270431 15.466906
Al 9.273669 -9.270431 18.561906
Al 6.178669 -3.080431 -9.293094
Al 6.178669 -6.175431 -6.198094
Al 9.273669 -3.080431 -6.198094
Al 9.273669 -6.175431 -3.103094
Al 6.178669 -3.080431 -3.103094
Al 6.178669 -6.175431 -0.008094
Al 9.273669 -3.080431 -0.008094
Al 9.273669 -6.175431 3.086906
Al 6.178669 -3.080431 3.086906
Al 6.178669 -6.175431 6.181906
Al 9.273669 -3.080431 6.181906
Al 9.273669 -6.175431 9.276906
Al 6.178669 -3.080431 9.276906
Al 6.178669 -6.175431 12.371906
Al 9.273669 -3.080431 12.371906
Al 9.273669 -6.175431 15.466906
Al 6.178669 -3.080431 15.466906
Al 6.178669 -6.175431 18.561906
Al 6.178669 3.109569 -15.483094
Al 6.178669 0.014569 -12.388094
Al 9.273669 3.109569 -12.388094
Al 9.273669 0.014569 -9.293094
Al 6.178669 3.109569 -9.293094
Al 6.178669 0.014569 -6.198094
Al 9.273669 3.109569 -6.198094
Al 9.273669 0.014569 -3.103094
Al 6.178669 3.109569 -3.103094
Al 6.178669 0.014569 -0.008094
Al 9.273669 3.109569 -0.008094
Al 9.273669 0.014569 3.086906
Al 6.178669 3.109569 3.086906
Al 6.178669 0.014569 6.181906
Al 9.273669 3.109569 6.181906
Al 9.273669 0.014569 9.276906
Al 6.178669 3.109569 9.276906
Al 6.178669 0.014569 12.371906
Al 6.178669 6.204569 -18.578094
Al 9.273669 9.299569 -18.578094
Al 9.273669 6.204569 -15.483094
Al 6.178669 9.299569 -15.483094
Al 6.178669 6.204569 -12.388094
Al 9.273669 9.299569 -12.388094
Al 9.273669 6.204569 -9.293094
Al 6.178669 9.299569 -9.293094
Al 6.178669 6.204569 -6.198094
Al 9.273669 9.299569 -6.198094
Al 9.273669 6.204569 -3.103094
Al 6.178669 9.299569 -3.103094
Al 6.178669 6.204569 -0.008094
Al 9.273669 9.299569 -0.008094
Al 9.273669 6.204569 3.086906
Al 6.178669 9.299569 3.086906
Al 6.178669 6.204569 6.181906
Al 9.273669 12.394569 -15.483094
Al 9.273669 15.489569 -12.388094
Al 9.273669 12.394569 -9.293094
Al 6.178669 15.489569 -9.293094
Al 6.178669 12.394569 -6.198094
Al 9.273669 15.489569 -6.198094
Al 9.273669 12.394569 -3.103094
Al 6.178669 15.489569 -3.103094
Al 6.178669 12.394569 -0.008094
Al 9.273669 18.584569 -9.293094
Al 6.178669 18.584569 -6.198094
Al 12.368669 -15.460431 9.276906
Al 12.368669 -9.270431 3.086906
Al 12.368669 -12.365431 6.181906
Al 15.463669 -9.270431 6.181906
Al 15.463669 -12.365431 9.276906
Al 12.368669 -9.270431 9.276906
Al 15.463669 -9.270431 12.371906
Al 12.368669 -9.270431 15.466906
Al 12.368669 -3.080431 -3.103094
Al 12.368669 -6.175431 -0.008094
Al 15.463669 -3.080431 -0.008094
Al 15.463669 -6.175431 3.086906
Al 12.368669 -3.080431 3.086906
Al 12.368669 -6.175431 6.181906
Al 15.463669 -3.080431 6.181906
Al 15.463669 -6.175431 9.276906
Al 12.368669 -3.080431 9.276906
Al 12.368669 -6.175431 12.371906
Al 12.368669 3.109569 -9.293094
Al 12.368669 0.014569 -6.198094
Al 15.463669 3.109569 -6.198094
Al 15.463669 0.014569 -3.103094
Al 12.368669 3.109569 -3.103094
Al 12.368669 0.014569 -0.008094
Al 15.463669 3.109569 -0.008094
Al 15.463669 0.014569 3.086906
Al 12.368669 3.109569 3.086906
Al 12.368669 0.014569 6.181906
Al 12.368669 9.299569 -15.483094
Al 12.368669 6.204569 -12.388094
Al 15.463669 9.299569 -12.388094
Al 15.463669 6.204569 -9.293094
Al 12.368669 9.299569 -9.293094
Al 12.368669 6.204569 -6.198094
Al 15.463669 9.299569 -6.198094
Al 15.463669 6.204569 -3.103094
Al 12.368669 9.299569 -3.103094
Al 12.368669 6.204569 -0.008094
Al 15.463669 12.394569 -9.293094
Al 12.368669 15.489569 -9.293094
Al 12.368669 12.394569 -6.198094
Al 18.558669 -9.270431 9.276906
Al 18.558669 -3.080431 3.086906
Al 18.558669 -6.175431 6.181906
Al 18.558669 3.109569 -3.103094
Al 18.558669 0.014569 -0.008094
Al 18.558669 9.299569 -9.293094
Al 18.558669 6.204569 -6.198094
Sb -17.033831 -10.817931 -10.840594
Sb -17.033831 -7.722931 -7.745594
Sb -13.938831 -7.722931 -10.840594
Sb -13.938831 -10.817931 -7.745594
Sb -13.938831 -7.722931 -4.650594
Sb -13.938831 -4.627931 -7.745594
Sb -17.033831 -4.627931 -4.650594
Sb -17.033831 -1.532931 -1.555594
Sb -13.938831 -1.532931 -4.650594
Sb -13.938831 -4.627931 -1.555594
Sb -13.938831 -1.532931 1.539406
Sb -13.938831 1.562069 -1.555594
Sb -17.033831 1.562069 1.539406
Sb -17.033831 4.657069 4.634406
Sb -13.938831 4.657069 1.539406
Sb -13.938831 1.562069 4.634406
Sb -13.938831 4.657069 7.729406
Sb -13.938831 7.752069 4.634406
Sb -17.033831 7.752069 7.729406
Sb -17.033831 10.847069 10.824406
Sb -13.938831 10.847069 7.729406
Sb -13.938831 7.752069 10.824406
Sb -10.843831 -17.007931 -10.840594
Sb -10.843831 -13.912931 -7.745594
Sb -7.748831 -13.912931 -10.840594
Sb -7.748831 -17.007931 -7.745594
Sb -7.748831 -13.912931 -4.650594
Sb -10.843831 -10.817931 -17.030594
Sb -10.843831 -7.722931 -13.935594
Sb -7.748831 -7.722931 -17.030594
Sb -7.748831 -10.817931 -13.935594
Sb -10.843831 -10.817931 -10.840594
Sb -10.843831 -7.722931 -7.745594
Sb -7.748831 -7.722931 -10.840594
Sb -7.748831 -10.817931 -7.745594
Sb -10.843831 -10.817931 -4.650594
Sb -10.843831 -7.722931 -1.555594
Sb -7.748831 -7.722931 -4.650594
Sb -7.748831 -10.817931 -1.555594
Sb -7.748831 -7.722931 1.539406
Sb -7.748831 -4.627931 -13.935594
Sb -10.843831 -4.627931 -10.840594
Sb -10.843831 -1.532931 -7.745594
Sb -7.748831 -1.532931 -10.840594
Sb -7.748831 -4.627931 -7.745594
Sb -10.843831 -4.627931 -4.650594
Sb -10.843831 -1.532931 -1.555594
Sb -7.748831 -1.532931 -4.650594
Sb -7.748831 -4.627931 -1.555594
Sb -10.843831 -4.627931 1.539406
Sb -10.843831 -1.532931 4.634406
Sb -7.748831 -1.532931 1.539406
Sb -7.748831 -4.627931 4.634406
Sb -7.748831 -1.532931 7.729406
Sb -7.748831 1.562069 -7.745594
Sb -10.843831 1.562069 -4.650594
Sb -10.843831 4.657069 -1.555594
Sb -7.748831 4.657069 -4.650594
Sb -7.748831 1.562069 -1.555594
Sb -10.843831 1.562069 1.539406
Sb -10.843831 4.657069 4.634406
Sb -7.748831 4.657069 1.539406
Sb -7.748831 1.562069 4.634406
Sb -10.843831 1.562069 7.729406
Sb -10.843831 4.657069 10.824406
Sb -7.748831 4.657069 7.729406
Sb -7.748831 1.562069 10.824406
Sb -7.748831 4.657069 13.919406
Sb -7.748831 7.752069 -1.555594
Sb -10.843831 7.752069 1.539406
Sb -10.843831 10.847069 4.634406
Sb -7.748831 10.847069 1.539406
Sb -7.748831 7.752069 4.634406
Sb -10.843831 7.752069 7.729406
Sb -10.843831 10.847069 10.824406
Sb -7.748831 10.847069 7.729406
Sb -7.748831 7.752069 10.824406
Sb -10.843831 7.752069 13.919406
Sb -10.843831 10.847069 17.014406
Sb -7.748831 10.847069 13.919406
Sb -7.748831 7.752069 17.014406
Sb -7.748831 13.942069 4.634406
Sb -10.843831 13.942069 7.729406
Sb -10.843831 17.037069 10.824406
Sb -7.748831 17.037069 7.729406
Sb -7.748831 13.942069 10.824406
Sb -4.653831 -13.912931 -7.745594
Sb -4.653831 -17.007931 -4.650594
Sb -4.653831 -13.912931 -1.555594
Sb -1.558831 -13.912931 -4.650594
Sb -1.558831 -17.007931 -1.555594
Sb -1.558831 -13.912931 1.539406
Sb -4.653831 -7.722931 -13.935594
Sb -4.653831 -10.817931 -10.840594
Sb -4.653831 -7.722931 -7.745594
Sb -1.558831 -7.722931 -10.840594
Sb -1.558831 -10.817931 -7.745594
Sb -4.653831 -10.817931 -4.650594
Sb -4.653831 -7.722931 -1.555594
Sb -1.558831 -7.722931 -4.650594
Sb -1.558831 -10.817931 -1.555594
Sb -4.653831 -10.817931 1.539406
Sb -4.653831 -7.722931 4.634406
Sb -1.558831 -7.722931 1.539406
Sb -1.558831 -10.817931 4.634406
Sb -1.558831 -7.722931 7.729406
Sb -4.653831 -4.627931 -17.030594
Sb -4.653831 -1.532931 -13.935594
Sb -1.558831 -1.532931 -17.030594
Sb -1.558831 -4.627931 -13.935594
Sb -4.653831 -4.627931 -10.840594
Sb -4.653831 -1.532931 -7.745594
Sb -1.558831 -1.532931 -10.840594
Sb -1.558831 -4.627931 -7.745594
Sb -4.653831 -4.627931 -4.650594
Sb -4.653831 -1.532931 -1.555594
Sb -1.558831 -1.532931 -4.650594
Sb -1.558831 -4.627931 -1.555594
Sb -4.653831 -4.627931 1.539406
Sb -4.653831 -1.532931 4.634406
Sb -1.558831 -1.532931 1.539406
Sb -1.558831 -4.627931 4.634406
Sb -4.653831 -4.627931 7.729406
Sb -4.653831 -1.532931 10.824406
Sb -1.558831 -1.532931 7.729406
Sb -1.558831 -4.627931 10.824406
Sb -1.558831 -1.532931 13.919406
Sb -1.558831 1.562069 -13.935594
Sb -4.653831 1.562069 -10.840594
Sb -4.653831 4.657069 -7.745594
Sb -1.558831 4.657069 -10.840594
Sb -1.558831 1.562069 -7.745594
Sb -4.653831 1.562069 -4.650594
Sb -4.653831 4.657069 -1.555594
Sb -1.558831 4.657069 -4.650594
Sb -1.558831 1.562069 -1.555594
Sb -4.653831 1.562069 1.539406
Sb -4.653831 4.657069 4.634406
Sb -1.558831 4.657069 1.539406
Sb -1.558831 1.562069 4.634406
Sb -4.653831 1.562069 7.729406
Sb -4.653831 4.657069 10.824406
Sb -1.558831 4.657069 7.729406
Sb -1.558831 1.562069 10.824406
Sb -4.653831 1.562069 13.919406
Sb -4.653831 4.657069 17.014406
Sb -1.558831 4.657069 13.919406
Sb -1.558831 1.562069 17.014406
Sb -1.558831 7.752069 -7.745594
Sb -4.653831 7.752069 -4.650594
Sb -4.653831 10.847069 -1.555594
Sb -1.558831 10.847069 -4.650594
Sb -1.558831 7.752069 -1.555594
Sb -4.653831 7.752069 1.539406
Sb -4.653831 10.847069 4.634406
Sb -1.558831 10.847069 1.539406
Sb -1.558831 7.752069 4.634406
Sb -4.653831 7.752069 7.729406
Sb -4.653831 10.847069 10.824406
Sb -1.558831 10.847069 7.729406
Sb -1.558831 7.752069 10.824406
Sb -4.653831 7.752069 13.919406
Sb -1.558831 13.942069 -1.555594
Sb -4.653831 13.942069 1.539406
Sb -4.653831 17.037069 4.634406
Sb -1.558831 17.037069 1.539406
Sb -1.558831 13.942069 4.634406
Sb -4.653831 13.942069 7.729406
Sb 1.536169 -13.912931 -1.555594
Sb 1.536169 -17.007931 1.539406
Sb 1.536169 -13.912931 4.634406
Sb 4.631169 -13.912931 1.539406
Sb 4.631169 -17.007931 4.634406
Sb 4.631169 -13.912931 7.729406
Sb 1.536169 -7.722931 -7.745594
Sb 1.536169 -10.817931 -4.650594
Sb 1.536169 -7.722931 -1.555594
Sb 4.631169 -7.722931 -4.650594
Sb 4.631169 -10.817931 -1.555594
Sb 1.536169 -10.817931 1.539406
Sb 1.536169 -7.722931 4.634406
Sb 4.631169 -7.722931 1.539406
Sb 4.631169 -10.817931 4.634406
Sb 1.536169 -10.817931 7.729406
Sb 1.536169 -7.722931 10.824406
Sb 4.631169 -7.722931 7.729406
Sb 4.631169 -10.817931 10.824406
Sb 4.631169 -7.722931 13.919406
Sb 1.536169 -1.532931 -13.935594
Sb 1.536169 -4.627931 -10.840594
Sb 1.536169 -1.532931 -7.745594
Sb 4.631169 -1.532931 -10.840594
Sb 4.631169 -4.627931 -7.745594
Sb 1.536169 -4.627931 -4.650594
Sb 1.536169 -1.532931 -1.555594
Sb 4.631169 -1.532931 -4.650594
Sb 4.631169 -4.627931 -1.555594
Sb 1.536169 -4.627931 1.539406
Sb 1.536169 -1.532931 4.634406
Sb 4.631169 -1.532931 1.539406
Sb 4.631169 -4.627931 4.634406
Sb 1.536169 -4.627931 7.729406
Sb 1.536169 -1.532931 10.824406
Sb 4.631169 -1.532931 7.729406
Sb 4.631169 -4.627931 10.824406
Sb 1.536169 -4.627931 13.919406
Sb 1.536169 -1.532931 17.014406
Sb 4.631169 -1.532931 13.919406
Sb 4.631169 -4.627931 17.014406
Sb 1.536169 1.562069 -17.030594
Sb 1.536169 4.657069 -13.935594
Sb 4.631169 4.657069 -17.030594
Sb 4.631169 1.562069 -13.935594
Sb 1.536169 1.562069 -10.840594
Sb 1.536169 4.657069 -7.745594
Sb 4.631169 4.657069 -10.840594
Sb 4.631169 1.562069 -7.745594
Sb 1.536169 1.562069 -4.650594
Sb 1.536169 4.657069 -1.555594
Sb 4.631169 4.657069 -4.650594
Sb 4.631169 1.562069 -1.555594
Sb 1.536169 1.562069 1.539406
Sb 1.536169 4.657069 4.634406
Sb 4.631169 4.657069 1.539406
Sb 4.631169 1.562069 4.634406
Sb 1.536169 1.562069 7.729406
Sb 1.536169 4.657069 10.824406
Sb 4.631169 4.657069 7.729406
Sb 4.631169 1.562069 10.824406
Sb 1.536169 1.562069 13.919406
Sb 4.631169 7.752069 -13.935594
Sb 1.536169 7.752069 -10.840594
Sb 1.536169 10.847069 -7.745594
Sb 4.631169 10.847069 -10.840594
Sb 4.631169 7.752069 -7.745594
Sb 1.536169 7.752069 -4.650594
Sb 1.536169 10.847069 -1.555594
Sb 4.631169 10.847069 -4.650594
Sb 4.631169 7.752069 -1.555594
Sb 1.536169 7.752069 1.539406
Sb 1.536169 10.847069 4.634406
Sb 4.631169 10.847069 1.539406
Sb 4.631169 7.752069 4.634406
Sb 1.536169 7.752069 7.729406
Sb 4.631169 13.942069 -7.745594
Sb 1.536169 13.942069 -4.650594
Sb 1.536169 17.037069 -1.555594
Sb 4.631169 17.037069 -4.650594
Sb 4.631169 13.942069 -1.555594
Sb 1.536169 13.942069 1.539406
Sb 7.726169 -13.912931 4.634406
Sb 7.726169 -17.007931 7.729406
Sb 7.726169 -13.912931 10.824406
Sb 10.821169 -13.912931 7.729406
Sb 10.821169 -17.007931 10.824406
Sb 7.726169 -7.722931 -1.555594
Sb 7.726169 -10.817931 1.539406
Sb 7.726169 -7.722931 4.634406
Sb 10.821169 -7.722931 1.539406
Sb 10.821169 -10.817931 4.634406
Sb 7.726169 -10.817931 7.729406
Sb 7.726169 -7.722931 10.824406
Sb 10.821169 -7.722931 7.729406
Sb 10.821169 -10.817931 10.824406
Sb 7.726169 -10.817931 13.919406
Sb 7.726169 -7.722931 17.014406
Sb 10.821169 -7.722931 13.919406
Sb 10.821169 -10.817931 17.014406
Sb 7.726169 -1.532931 -7.745594
Sb 7.726169 -4.627931 -4.650594
Sb 7.726169 -1.532931 -1.555594
Sb 10.821169 -1.532931 -4.650594
Sb 10.821169 -4.627931 -1.555594
Sb 7.726169 -4.627931 1.539406
Sb 7.726169 -1.532931 4.634406
Sb 10.821169 -1.532931 1.539406
Sb 10.821169 -4.627931 4.634406
Sb 7.726169 -4.627931 7.729406
Sb 7.726169 -1.532931 10.824406
Sb 10.821169 -1.532931 7.729406
Sb 10.821169 -4.627931 10.824406
Sb 7.726169 -4.627931 13.919406
Sb 7.726169 4.657069 -13.935594
Sb 7.726169 1.562069 -10.840594
Sb 7.726169 4.657069 -7.745594
Sb 10.821169 4.657069 -10.840594
Sb 10.821169 1.562069 -7.745594
Sb 7.726169 1.562069 -4.650594
Sb 7.726169 4.657069 -1.555594
Sb 10.821169 4.657069 -4.650594
Sb 10.821169 1.562069 -1.555594
Sb 7.726169 1.562069 1.539406
Sb 7.726169 4.657069 4.634406
Sb 10.821169 4.657069 1.539406
Sb 10.821169 1.562069 4.634406
Sb 7.726169 1.562069 7.729406
Sb 7.726169 7.752069 -17.030594
Sb 7.726169 10.847069 -13.935594
Sb 10.821169 10.847069 -17.030594
Sb 10.821169 7.752069 -13.935594
Sb 7.726169 7.752069 -10.840594
Sb 7.726169 10.847069 -7.745594
Sb 10.821169 10.847069 -10.840594
Sb 10.821169 7.752069 -7.745594
Sb 7.726169 7.752069 -4.650594
Sb 7.726169 10.847069 -1.555594
Sb 10.821169 10.847069 -4.650594
Sb 10.821169 7.752069 -1.555594
Sb 7.726169 7.752069 1.539406
Sb 7.726169 13.942069 -10.840594
Sb 7.726169 17.037069 -7.745594
Sb 10.821169 17.037069 -10.840594
Sb 10.821169 13.942069 -7.745594
Sb 7.726169 13.942069 -4.650594
Sb 13.916169 -7.722931 4.634406
Sb 13.916169 -10.817931 7.729406
Sb 13.916169 -7.722931 10.824406
Sb 17.011169 -7.722931 7.729406
Sb 17.011169 -10.817931 10.824406
Sb 13.916169 -1.532931 -1.555594
Sb 13.916169 -4.627931 1.539406
Sb 13.916169 -1.532931 4.634406
Sb 17.011169 -1.532931 1.539406
Sb 17.011169 -4.627931 4.634406
Sb 13.916169 -4.627931 7.729406
Sb 13.916169 4.657069 -7.745594
Sb 13.916169 1.562069 -4.650594
Sb 13.916169 4.657069 -1.555594
Sb 17.011169 4.657069 -4.650594
Sb 17.011169 1.562069 -1.555594
Sb 13.916169 1.562069 1.539406
Sb 13.916169 7.752069 -10.840594
Sb 13.916169 10.847069 -7.745594
Sb 17.011169 10.847069 -10.840594
Sb 17.011169 7.752069 -7.745594
Sb 13.916169 7.752069 -4.650594
Cl -13.938831 -13.912931 -10.840594
Cl -13.938831 -10.817931 -13.935594
Cl -13.938831 10.847069 13.919406
Cl -13.938831 13.942069 10.824406
Cl -10.843831 -13.912931 -13.935594
Cl -10.843831 13.942069 13.919406
Cl 10.821169 -13.912931 13.919406
Cl 10.821169 13.942069 -13.935594
Cl 13.916169 -13.912931 10.824406
Cl 13.916169 -10.817931 13.919406
Cl 13.916169 10.847069 -13.935594
Cl 13.916169 13.942069 -10.840594
Cl -1.558831 4.657069 20.109406
Cl 4.631169 1.562069 -20.125594
Cl -7.748831 -4.627931 -20.125594
Cl 4.631169 -7.722931 20.109406
Cl -7.748831 -10.817931 -20.125594
Cl 10.821169 -7.722931 20.109406
Cl 10.821169 20.132069 -7.745594
Cl 20.106169 -10.817931 7.729406
Cl -20.128831 10.847069 7.729406
Cl -10.843831 -20.102931 -7.745594
Cl -7.748831 20.132069 10.824406
Cl 20.106169 7.752069 -10.840594
Cl -20.128831 -7.722931 -10.840594
Cl 7.726169 -20.102931 10.824406
Cl -10.843831 7.752069 20.109406
Cl 7.726169 10.847069 -20.125594
Cl -4.653831 -20.102931 -7.745594
Cl 20.106169 -4.627931 7.729406
Cl -20.128831 4.657069 7.729406
Cl 4.631169 20.132069 -7.745594
Cl 7.726169 -20.102931 4.634406
Cl 20.106169 7.752069 -4.650594
Cl -20.128831 -7.722931 -4.650594
Cl -7.748831 20.132069 4.634406
Cl -4.653831 7.752069 20.109406
Cl 7.726169 4.657069 -20.125594
Cl -4.653831 -1.532931 -20.125594
Cl 1.536169 -4.627931 20.109406
Cl 1.536169 -20.102931 -1.555594
Cl 20.106169 1.562069 1.539406
Cl -20.128831 -1.532931 1.539406
Cl -1.558831 20.132069 -1.555594
Cl 1.536169 -1.532931 -20.125594
Cl 1.536169 1.562069 20.109406
Cl -20.128831 4.657069 1.539406
Cl -1.558831 20.132069 4.634406
Cl 1.536169 -20.102931 4.634406
Cl 20.106169 1.562069 -4.650594
Cl -20.128831 -1.532931 -4.650594
Cl -4.653831 -20.102931 -1.555594
Cl 4.631169 20.132069 -1.555594
Cl 20.106169 -4.627931 1.539406
Cl -7.748831 -7.722931 7.729406
Cl -7.748831 7.752069 -7.745594
Cl 7.726169 -7.722931 -7.745594
Cl 7.726169 7.752069 7.729406
Cl -10.843831 1.562069 13.919406
Cl 1.536169 10.847069 -13.935594
Cl 10.821169 -1.532931 13.919406
Cl -1.558831 -10.817931 -13.935594
Cl -10.843831 -13.912931 -1.555594
Cl -13.938831 10.847069 1.539406
Cl 10.821169 13.942069 -1.555594
Cl 13.916169 -10.817931 1.539406
Cl -13.938831 -1.532931 -10.840594
Cl 1.536169 -13.912931 10.824406
Cl -4.653831 1.562069 20.109406
Cl 1.536169 4.657069 -20.125594
Cl 13.916169 1.562069 -10.840594
Cl -1.558831 13.942069 10.824406
Cl -7.748831 -17.007931 -13.935594
Cl 17.011169 -7.722931 13.919406
Cl -17.033831 -13.912931 -7.745594
Cl -13.938831 17.037069 7.729406
Cl 13.916169 -17.007931 7.729406
Cl 17.011169 13.942069 -7.745594
Cl -17.033831 7.752069 13.919406
Cl 7.726169 17.037069 -13.935594
Cl -13.938831 -7.722931 -17.030594
Cl 7.726169 -13.912931 17.014406
Cl -7.748831 13.942069 17.014406
Cl 13.916169 7.752069 -17.030594
Cl 4.631169 -13.912931 -4.650594
Cl 13.916169 4.657069 4.634406
Cl -13.938831 -4.627931 4.634406
Cl -4.653831 13.942069 -4.650594
Cl -4.653831 -4.627931 13.919406
Cl -4.653831 4.657069 -13.935594
Cl 4.631169 13.942069 4.634406
Cl 13.916169 -4.627931 -4.650594
Cl -13.938831 4.657069 -4.650594
Cl -4.653831 -13.912931 4.634406
Cl 4.631169 -4.627931 -13.935594
Cl 4.631169 4.657069 13.919406
Cl -4.653831 -7.722931 -20.125594
Cl 7.726169 -4.627931 20.109406
Cl -17.033831 -7.722931 -1.555594
Cl -7.748831 17.037069 1.539406
Cl 7.726169 -17.007931 1.539406
Cl 17.011169 7.752069 -1.555594
Cl -17.033831 1.562069 7.729406
Cl 1.536169 17.037069 -7.745594
Cl -1.558831 -17.007931 -7.745594
Cl 17.011169 -1.532931 7.729406
Cl -10.843831 -1.532931 -13.935594
Cl 1.536169 -10.817931 13.919406
Cl -1.558831 10.847069 13.919406
Cl 10.821169 1.562069 -13.935594
Cl -10.843831 -10.817931 1.539406
Cl -10.843831 10.847069 -1.555594
Cl 10.821169 -10.817931 -1.555594
Cl 10.821169 10.847069 1.539406
Cl -10.843831 -1.532931 10.824406
Cl -1.558831 10.847069 -10.840594
Cl 1.536169 -10.817931 -10.840594
Cl 10.821169 1.562069 10.824406
Cl -10.843831 -7.722931 -20.125594
Cl 7.726169 -10.817931 20.109406
Cl -20.128831 -10.817931 -7.745594
Cl -10.843831 20.132069 7.729406
Cl 10.821169 -20.102931 7.729406
Cl 20.106169 10.847069 -7.745594
Cl -20.128831 7.752069 10.824406
Cl 7.726169 20.132069 -10.840594
Cl -7.748831 -20.102931 -10.840594
Cl 20.106169 -7.722931 10.824406
Cl -7.748831 10.847069 20.109406
Cl 10.821169 7.752069 -20.125594
Cl -20.128831 -4.627931 -7.745594
Cl 4.631169 -20.102931 7.729406
Cl -4.653831 20.132069 7.729406
Cl 20.106169 4.657069 -7.745594
Cl -20.128831 7.752069 4.634406
Cl -7.748831 -20.102931 -4.650594
Cl 7.726169 20.132069 -4.650594
Cl 20.106169 -7.722931 4.634406
Cl -7.748831 4.657069 20.109406
Cl 4.631169 7.752069 -20.125594
Cl -1.558831 -4.627931 -20.125594
Cl 4.631169 -1.532931 20.109406
Cl -20.128831 1.562069 -1.555594
Cl -1.558831 -20.102931 1.539406
Cl 1.536169 20.132069 1.539406
Cl 20.106169 -1.532931 -1.555594
Cl -1.558831 1.562069 -20.125594
Cl -1.558831 -1.532931 20.109406
Cl -17.033831 13.942069 7.729406
Cl -13.938831 -17.007931 -7.745594
Cl 17.011169 -13.912931 7.729406
Cl 13.916169 17.037069 -7.745594
Cl -7.748831 -13.912931 -17.030594
Cl -13.938831 7.752069 17.014406
Cl 7.726169 13.942069 -17.030594
Cl 13.916169 -7.722931 17.014406
Cl -17.033831 -7.722931 -13.935594
Cl -7.748831 17.037069 13.919406
Cl 7.726169 -17.007931 13.919406
Cl 17.011169 7.752069 -13.935594
Cl -10.843831 4.657069 -7.745594
Cl -4.653831 -10.817931 7.729406
Cl 4.631169 10.847069 7.729406
Cl 7.726169 -4.627931 -10.840594
Cl -7.748831 1.562069 -13.935594
Cl -1.558831 -7.722931 13.919406
Cl 1.536169 7.752069 13.919406
Cl 13.916169 -1.532931 -7.745594
Cl -20.128831 1.562069 4.634406
Cl 4.631169 -20.102931 1.539406
Cl 1.536169 20.132069 -4.650594
Cl 20.106169 -1.532931 4.634406
Cl -20.128831 -4.627931 -1.555594
Cl -1.558831 -20.102931 -4.650594
Cl -4.653831 20.132069 1.539406
Cl 20.106169 4.657069 -1.555594
Cl -10.843831 -4.627931 7.729406
Cl -4.653831 10.847069 -7.745594
Cl 7.726169 -10.817931 -4.650594
Cl 10.821169 4.657069 7.729406
Cl -17.033831 4.657069 -1.555594
Cl -4.653831 -17.007931 1.539406
Cl 1.536169 -4.627931 -17.030594
Cl 4.631169 17.037069 1.539406
Cl -7.748831 1.562069 17.014406
Cl 1.536169 7.752069 -17.030594
Cl 7.726169 -1.532931 17.014406
Cl 17.011169 -7.722931 1.539406
Cl -13.938831 -13.912931 -4.650594
Cl -13.938831 13.942069 4.634406
Cl 13.916169 13.942069 -4.650594
Cl 7.726169 1.562069 -17.030594
Cl -17.033831 -1.532931 -7.745594
Cl -1.558831 17.037069 7.729406
Cl 1.536169 -17.007931 7.729406
Cl -1.558831 -13.912931 -10.840594
Cl -13.938831 4.657069 13.919406
Cl 13.916169 -4.627931 13.919406
Cl 13.916169 -13.912931 4.634406
Cl 1.536169 13.942069 -10.840594
Cl -13.938831 -7.722931 1.539406
Cl 13.916169 7.752069 1.539406
Cl -7.748831 13.942069 -1.555594
Cl 17.011169 4.657069 -10.840594
Cl -4.653831 10.847069 17.014406
Cl 4.631169 -10.817931 17.014406
Cl -10.843831 -4.627931 -17.030594
Cl -4.653831 -10.817931 -17.030594
Cl 4.631169 -17.007931 -1.555594
Cl -1.558831 -4.627931 17.014406
Cl 1.536169 4.657069 17.014406
Cl -4.653831 1.562069 -17.030594
Cl 17.011169 -1.532931 -4.650594
