1103
CdTe-Te-Cd508Te421Cl174-reconstructed
Cd -18.057760 -11.493349 -1.646650
Cd -18.057760 -4.929122 -8.210878
Cd -18.057760 -8.211235 -4.928764
Cd -18.057760 -4.929122 -1.646650
Cd -18.057760 -8.211235 1.635463
Cd -18.057760 -4.929122 4.917577
Cd -18.057760 -1.647008 -11.492991
Cd -18.057760 1.635106 -8.210878
Cd -18.057760 -1.647008 -4.928764
Cd -18.057760 1.635106 -1.646650
Cd -18.057760 -1.647008 1.635463
Cd -18.057760 1.635106 4.917577
Cd -18.057760 -1.647008 8.199690
Cd -18.057760 1.635106 11.481804
Cd -18.057760 4.917219 -4.928764
Cd -18.057760 8.199333 -1.646650
Cd -18.057760 4.917219 1.635463
Cd -18.057760 8.199333 4.917577
Cd -18.057760 4.917219 8.199690
Cd -18.057760 11.481446 1.635463
Cd -11.493533 -18.057576 -1.646650
Cd -11.493533 -14.775462 -4.928764
Cd -14.775646 -11.493349 -4.928764
Cd -14.775646 -14.775462 -1.646650
Cd -11.493533 -11.493349 -1.646650
Cd -14.775646 -11.493349 1.635463
Cd -11.493533 -11.493349 4.917577
Cd -11.493533 -4.929122 -14.775105
Cd -11.493533 -8.211235 -11.492991
Cd -14.775646 -8.211235 -8.210878
Cd -11.493533 -4.929122 -8.210878
Cd -11.493533 -8.211235 -4.928764
Cd -14.775646 -4.929122 -4.928764
Cd -14.775646 -8.211235 -1.646650
Cd -11.493533 -4.929122 -1.646650
Cd -11.493533 -8.211235 1.635463
Cd -14.775646 -4.929122 1.635463
Cd -11.493533 -4.929122 4.917577
Cd -11.493533 -8.211235 8.199690
Cd -14.775646 -4.929122 8.199690
Cd -11.493533 -4.929122 11.481804
Cd -11.493533 -1.647008 -18.057218
Cd -14.775646 -1.647008 -14.775105
Cd -11.493533 -1.647008 -11.492991
Cd -14.775646 1.635106 -11.492991
Cd -14.775646 -1.647008 -8.210878
Cd -11.493533 1.635106 -8.210878
Cd -11.493533 -1.647008 -4.928764
Cd -14.775646 1.635106 -4.928764
Cd -14.775646 -1.647008 -1.646650
Cd -11.493533 1.635106 -1.646650
Cd -11.493533 -1.647008 1.635463
Cd -14.775646 1.635106 1.635463
Cd -14.775646 -1.647008 4.917577
Cd -11.493533 1.635106 4.917577
Cd -11.493533 -1.647008 8.199690
Cd -14.775646 1.635106 8.199690
Cd -14.775646 -1.647008 11.481804
Cd -11.493533 1.635106 11.481804
Cd -11.493533 -1.647008 14.763917
Cd -14.775646 1.635106 14.763917
Cd -11.493533 1.635106 18.046031
Cd -11.493533 4.917219 -11.492991
Cd -11.493533 8.199333 -8.210878
Cd -11.493533 4.917219 -4.928764
Cd -14.775646 8.199333 -4.928764
Cd -14.775646 4.917219 -1.646650
Cd -11.493533 8.199333 -1.646650
Cd -11.493533 4.917219 1.635463
Cd -14.775646 8.199333 1.635463
Cd -14.775646 4.917219 4.917577
Cd -11.493533 8.199333 4.917577
Cd -11.493533 4.917219 8.199690
Cd -14.775646 4.917219 11.481804
Cd -11.493533 8.199333 11.481804
Cd -11.493533 11.481446 -4.928764
Cd -14.775646 11.481446 -1.646650
Cd -11.493533 14.763560 -1.646650
Cd -11.493533 11.481446 1.635463
Cd -14.775646 14.763560 1.635463
Cd -14.775646 11.481446 4.917577
Cd -11.493533 11.481446 8.199690
Cd -11.493533 18.045673 1.635463
Cd -4.929305 -18.057576 -8.210878
Cd -8.211419 -18.057576 -4.928764
Cd -4.929305 -18.057576 -1.646650
Cd -8.211419 -18.057576 1.635463
Cd -4.929305 -18.057576 4.917577
Cd -4.929305 -11.493349 -14.775105
Cd -8.211419 -11.493349 -11.492991
Cd -8.211419 -14.775462 -8.210878
Cd -4.929305 -11.493349 -8.210878
Cd -4.929305 -14.775462 -4.928764
Cd -8.211419 -11.493349 -4.928764
Cd -8.211419 -14.775462 -1.646650
Cd -4.929305 -11.493349 -1.646650
Cd -4.929305 -14.775462 1.635463
Cd -8.211419 -11.493349 1.635463
Cd -8.211419 -14.775462 4.917577
Cd -4.929305 -11.493349 4.917577
Cd -4.929305 -14.775462 8.199690
Cd -8.211419 -11.493349 8.199690
Cd -4.929305 -11.493349 11.481804
Cd -4.929305 -8.211235 -18.057218
Cd -8.211419 -4.929122 -18.057218
Cd -4.929305 -4.929122 -14.775105
Cd -4.929305 -8.211235 -11.492991
Cd -8.211419 -4.929122 -11.492991
Cd -8.211419 -8.211235 -8.210878
Cd -4.929305 -4.929122 -8.210878
Cd -4.929305 -8.211235 -4.928764
Cd -8.211419 -4.929122 -4.928764
Cd -8.211419 -8.211235 -1.646650
Cd -4.929305 -4.929122 -1.646650
Cd -4.929305 -8.211235 1.635463
Cd -8.211419 -4.929122 1.635463
Cd -8.211419 -8.211235 4.917577
Cd -4.929305 -4.929122 4.917577
Cd -4.929305 -8.211235 8.199690
Cd -8.211419 -4.929122 8.199690
Cd -8.211419 -8.211235 11.481804
Cd -4.929305 -4.929122 11.481804
Cd -8.211419 -4.929122 14.763917
Cd -4.929305 -4.929122 18.046031
Cd -4.929305 -1.647008 -18.057218
Cd -8.211419 1.635106 -18.057218
Cd -8.211419 -1.647008 -14.775105
Cd -4.929305 1.635106 -14.775105
Cd -4.929305 -1.647008 -11.492991
Cd -8.211419 1.635106 -11.492991
Cd -8.211419 -1.647008 -8.210878
Cd -4.929305 1.635106 -8.210878
Cd -4.929305 -1.647008 -4.928764
Cd -8.211419 1.635106 -4.928764
Cd -8.211419 -1.647008 -1.646650
Cd -4.929305 1.635106 -1.646650
Cd -4.929305 -1.647008 1.635463
Cd -8.211419 1.635106 1.635463
Cd -8.211419 -1.647008 4.917577
Cd -4.929305 1.635106 4.917577
Cd -4.929305 -1.647008 8.199690
Cd -8.211419 1.635106 8.199690
Cd -8.211419 -1.647008 11.481804
Cd -4.929305 1.635106 11.481804
Cd -4.929305 -1.647008 14.763917
Cd -8.211419 1.635106 14.763917
Cd -8.211419 -1.647008 18.046031
Cd -4.929305 1.635106 18.046031
Cd -4.929305 4.917219 -18.057218
Cd -8.211419 4.917219 -14.775105
Cd -4.929305 8.199333 -14.775105
Cd -4.929305 4.917219 -11.492991
Cd -8.211419 8.199333 -11.492991
Cd -8.211419 4.917219 -8.210878
Cd -4.929305 8.199333 -8.210878
Cd -4.929305 4.917219 -4.928764
Cd -8.211419 8.199333 -4.928764
Cd -8.211419 4.917219 -1.646650
Cd -4.929305 8.199333 -1.646650
Cd -4.929305 4.917219 1.635463
Cd -8.211419 8.199333 1.635463
Cd -8.211419 4.917219 4.917577
Cd -4.929305 8.199333 4.917577
Cd -4.929305 4.917219 8.199690
Cd -8.211419 8.199333 8.199690
Cd -8.211419 4.917219 11.481804
Cd -4.929305 8.199333 11.481804
Cd -4.929305 4.917219 14.763917
Cd -8.211419 8.199333 14.763917
Cd -8.211419 4.917219 18.046031
Cd -4.929305 8.199333 18.046031
Cd -4.929305 11.481446 -11.492991
Cd -8.211419 11.481446 -8.210878
Cd -4.929305 11.481446 -4.928764
Cd -8.211419 14.763560 -4.928764
Cd -8.211419 11.481446 -1.646650
Cd -4.929305 14.763560 -1.646650
Cd -4.929305 11.481446 1.635463
Cd -8.211419 14.763560 1.635463
Cd -8.211419 11.481446 4.917577
Cd -4.929305 14.763560 4.917577
Cd -4.929305 11.481446 8.199690
Cd -8.211419 14.763560 8.199690
Cd -4.929305 14.763560 11.481804
Cd -4.929305 11.481446 14.763917
Cd -4.929305 18.045673 -4.928764
Cd -8.211419 18.045673 -1.646650
Cd -4.929305 18.045673 1.635463
Cd -8.211419 18.045673 4.917577
Cd -4.929305 18.045673 8.199690
Cd -1.647192 -18.057576 -11.492991
Cd 1.634922 -18.057576 -8.210878
Cd -1.647192 -18.057576 -4.928764
Cd 1.634922 -18.057576 -1.646650
Cd -1.647192 -18.057576 1.635463
Cd 1.634922 -18.057576 4.917577
Cd -1.647192 -18.057576 8.199690
Cd 1.634922 -18.057576 11.481804
Cd -1.647192 -11.493349 -18.057218
Cd -1.647192 -14.775462 -14.775105
Cd 1.634922 -14.775462 -11.492991
Cd -1.647192 -11.493349 -11.492991
Cd -1.647192 -14.775462 -8.210878
Cd 1.634922 -11.493349 -8.210878
Cd 1.634922 -14.775462 -4.928764
Cd -1.647192 -11.493349 -4.928764
Cd -1.647192 -14.775462 -1.646650
Cd 1.634922 -11.493349 -1.646650
Cd 1.634922 -14.775462 1.635463
Cd -1.647192 -11.493349 1.635463
Cd -1.647192 -14.775462 4.917577
Cd 1.634922 -11.493349 4.917577
Cd 1.634922 -14.775462 8.199690
Cd -1.647192 -11.493349 8.199690
Cd 1.634922 -11.493349 11.481804
Cd 1.634922 -14.775462 14.763917
Cd -1.647192 -11.493349 14.763917
Cd 1.634922 -11.493349 18.046031
Cd 1.634922 -8.211235 -18.057218
Cd -1.647192 -4.929122 -18.057218
Cd -1.647192 -8.211235 -14.775105
Cd 1.634922 -4.929122 -14.775105
Cd 1.634922 -8.211235 -11.492991
Cd -1.647192 -4.929122 -11.492991
Cd -1.647192 -8.211235 -8.210878
Cd 1.634922 -4.929122 -8.210878
Cd 1.634922 -8.211235 -4.928764
Cd -1.647192 -4.929122 -4.928764
Cd -1.647192 -8.211235 -1.646650
Cd 1.634922 -4.929122 -1.646650
Cd 1.634922 -8.211235 1.635463
Cd -1.647192 -4.929122 1.635463
Cd -1.647192 -8.211235 4.917577
Cd 1.634922 -4.929122 4.917577
Cd 1.634922 -8.211235 8.199690
Cd -1.647192 -4.929122 8.199690
Cd -1.647192 -8.211235 11.481804
Cd 1.634922 -4.929122 11.481804
Cd 1.634922 -8.211235 14.763917
Cd -1.647192 -4.929122 14.763917
Cd -1.647192 -8.211235 18.046031
Cd 1.634922 -4.929122 18.046031
Cd 1.634922 -1.647008 -18.057218
Cd -1.647192 1.635106 -18.057218
Cd -1.647192 -1.647008 -14.775105
Cd 1.634922 1.635106 -14.775105
Cd 1.634922 -1.647008 -11.492991
Cd -1.647192 1.635106 -11.492991
Cd -1.647192 -1.647008 -8.210878
Cd 1.634922 1.635106 -8.210878
Cd 1.634922 -1.647008 -4.928764
Cd -1.647192 1.635106 -4.928764
Cd -1.647192 -1.647008 -1.646650
Cd 1.634922 1.635106 -1.646650
Cd 1.634922 -1.647008 1.635463
Cd -1.647192 1.635106 1.635463
Cd -1.647192 -1.647008 4.917577
Cd 1.634922 1.635106 4.917577
Cd 1.634922 -1.647008 8.199690
Cd -1.647192 1.635106 8.199690
Cd -1.647192 -1.647008 11.481804
Cd 1.634922 1.635106 11.481804
Cd 1.634922 -1.647008 14.763917
Cd -1.647192 1.635106 14.763917
Cd -1.647192 -1.647008 18.046031
Cd 1.634922 1.635106 18.046031
Cd 1.634922 4.917219 -18.057218
Cd -1.647192 8.199333 -18.057218
Cd -1.647192 4.917219 -14.775105
Cd 1.634922 8.199333 -14.775105
Cd 1.634922 4.917219 -11.492991
Cd -1.647192 8.199333 -11.492991
Cd -1.647192 4.917219 -8.210878
Cd 1.634922 8.199333 -8.210878
Cd 1.634922 4.917219 -4.928764
Cd -1.647192 8.199333 -4.928764
Cd -1.647192 4.917219 -1.646650
Cd 1.634922 8.199333 -1.646650
Cd 1.634922 4.917219 1.635463
Cd -1.647192 8.199333 1.635463
Cd -1.647192 4.917219 4.917577
Cd 1.634922 8.199333 4.917577
Cd 1.634922 4.917219 8.199690
Cd -1.647192 8.199333 8.199690
Cd -1.647192 4.917219 11.481804
Cd 1.634922 8.199333 11.481804
Cd 1.634922 4.917219 14.763917
Cd -1.647192 8.199333 14.763917
Cd -1.647192 4.917219 18.046031
Cd 1.634922 8.199333 18.046031
Cd 1.634922 11.481446 -18.057218
Cd 1.634922 14.763560 -14.775105
Cd 1.634922 11.481446 -11.492991
Cd -1.647192 14.763560 -11.492991
Cd -1.647192 11.481446 -8.210878
Cd 1.634922 14.763560 -8.210878
Cd 1.634922 11.481446 -4.928764
Cd -1.647192 14.763560 -4.928764
Cd -1.647192 11.481446 -1.646650
Cd 1.634922 14.763560 -1.646650
Cd 1.634922 11.481446 1.635463
Cd -1.647192 14.763560 1.635463
Cd -1.647192 11.481446 4.917577
Cd 1.634922 14.763560 4.917577
Cd 1.634922 11.481446 8.199690
Cd -1.647192 14.763560 8.199690
Cd -1.647192 11.481446 11.481804
Cd 1.634922 11.481446 14.763917
Cd -1.647192 14.763560 14.763917
Cd -1.647192 11.481446 18.046031
Cd 1.634922 18.045673 -11.492991
Cd -1.647192 18.045673 -8.210878
Cd 1.634922 18.045673 -4.928764
Cd -1.647192 18.045673 -1.646650
Cd 1.634922 18.045673 1.635463
Cd -1.647192 18.045673 4.917577
Cd 1.634922 18.045673 8.199690
Cd -1.647192 18.045673 11.481804
Cd 4.917035 -18.057576 -4.928764
Cd 8.199149 -18.057576 -1.646650
Cd 4.917035 -18.057576 1.635463
Cd 8.199149 -18.057576 4.917577
Cd 4.917035 -18.057576 8.199690
Cd 4.917035 -11.493349 -11.492991
Cd 8.199149 -11.493349 -8.210878
Cd 8.199149 -14.775462 -4.928764
Cd 4.917035 -11.493349 -4.928764
Cd 4.917035 -14.775462 -1.646650
Cd 8.199149 -11.493349 -1.646650
Cd 8.199149 -14.775462 1.635463
Cd 4.917035 -11.493349 1.635463
Cd 4.917035 -14.775462 4.917577
Cd 8.199149 -11.493349 4.917577
Cd 4.917035 -11.493349 8.199690
Cd 4.917035 -14.775462 11.481804
Cd 8.199149 -11.493349 11.481804
Cd 4.917035 -4.929122 -18.057218
Cd 4.917035 -8.211235 -14.775105
Cd 8.199149 -4.929122 -14.775105
Cd 8.199149 -8.211235 -11.492991
Cd 4.917035 -4.929122 -11.492991
Cd 4.917035 -8.211235 -8.210878
Cd 8.199149 -4.929122 -8.210878
Cd 8.199149 -8.211235 -4.928764
Cd 4.917035 -4.929122 -4.928764
Cd 4.917035 -8.211235 -1.646650
Cd 8.199149 -4.929122 -1.646650
Cd 8.199149 -8.211235 1.635463
Cd 4.917035 -4.929122 1.635463
Cd 4.917035 -8.211235 4.917577
Cd 8.199149 -4.929122 4.917577
Cd 8.199149 -8.211235 8.199690
Cd 4.917035 -4.929122 8.199690
Cd 4.917035 -8.211235 11.481804
Cd 8.199149 -4.929122 11.481804
Cd 8.199149 -8.211235 14.763917
Cd 4.917035 -4.929122 14.763917
Cd 4.917035 -8.211235 18.046031
Cd 8.199149 -4.929122 18.046031
Cd 8.199149 -1.647008 -18.057218
Cd 4.917035 1.635106 -18.057218
Cd 4.917035 -1.647008 -14.775105
Cd 8.199149 1.635106 -14.775105
Cd 8.199149 -1.647008 -11.492991
Cd 4.917035 1.635106 -11.492991
Cd 4.917035 -1.647008 -8.210878
Cd 8.199149 1.635106 -8.210878
Cd 8.199149 -1.647008 -4.928764
Cd 4.917035 1.635106 -4.928764
Cd 4.917035 -1.647008 -1.646650
Cd 8.199149 1.635106 -1.646650
Cd 8.199149 -1.647008 1.635463
Cd 4.917035 1.635106 1.635463
Cd 4.917035 -1.647008 4.917577
Cd 8.199149 1.635106 4.917577
Cd 8.199149 -1.647008 8.199690
Cd 4.917035 1.635106 8.199690
Cd 4.917035 -1.647008 11.481804
Cd 8.199149 1.635106 11.481804
Cd 8.199149 -1.647008 14.763917
Cd 4.917035 1.635106 14.763917
Cd 4.917035 -1.647008 18.046031
Cd 8.199149 1.635106 18.046031
Cd 8.199149 4.917219 -18.057218
Cd 4.917035 8.199333 -18.057218
Cd 4.917035 4.917219 -14.775105
Cd 8.199149 4.917219 -11.492991
Cd 4.917035 8.199333 -11.492991
Cd 4.917035 4.917219 -8.210878
Cd 8.199149 8.199333 -8.210878
Cd 8.199149 4.917219 -4.928764
Cd 4.917035 8.199333 -4.928764
Cd 4.917035 4.917219 -1.646650
Cd 8.199149 8.199333 -1.646650
Cd 8.199149 4.917219 1.635463
Cd 4.917035 8.199333 1.635463
Cd 4.917035 4.917219 4.917577
Cd 8.199149 8.199333 4.917577
Cd 8.199149 4.917219 8.199690
Cd 4.917035 8.199333 8.199690
Cd 4.917035 4.917219 11.481804
Cd 8.199149 8.199333 11.481804
Cd 8.199149 4.917219 14.763917
Cd 4.917035 4.917219 18.046031
Cd 4.917035 11.481446 -14.775105
Cd 8.199149 11.481446 -11.492991
Cd 4.917035 11.481446 -8.210878
Cd 8.199149 14.763560 -8.210878
Cd 8.199149 11.481446 -4.928764
Cd 4.917035 14.763560 -4.928764
Cd 4.917035 11.481446 -1.646650
Cd 8.199149 14.763560 -1.646650
Cd 8.199149 11.481446 1.635463
Cd 4.917035 14.763560 1.635463
Cd 4.917035 11.481446 4.917577
Cd 8.199149 14.763560 4.917577
Cd 8.199149 11.481446 8.199690
Cd 4.917035 14.763560 8.199690
Cd 4.917035 11.481446 11.481804
Cd 4.917035 18.045673 -8.210878
Cd 8.199149 18.045673 -4.928764
Cd 4.917035 18.045673 -1.646650
Cd 8.199149 18.045673 1.635463
Cd 4.917035 18.045673 4.917577
Cd 11.481262 -18.057576 1.635463
Cd 11.481262 -11.493349 -4.928764
Cd 11.481262 -14.775462 -1.646650
Cd 14.763376 -11.493349 -1.646650
Cd 14.763376 -14.775462 1.635463
Cd 11.481262 -11.493349 1.635463
Cd 11.481262 -14.775462 4.917577
Cd 11.481262 -11.493349 8.199690
Cd 11.481262 -4.929122 -11.492991
Cd 11.481262 -8.211235 -8.210878
Cd 14.763376 -8.211235 -4.928764
Cd 11.481262 -4.929122 -4.928764
Cd 11.481262 -8.211235 -1.646650
Cd 14.763376 -4.929122 -1.646650
Cd 14.763376 -8.211235 1.635463
Cd 11.481262 -4.929122 1.635463
Cd 11.481262 -8.211235 4.917577
Cd 14.763376 -4.929122 4.917577
Cd 14.763376 -8.211235 8.199690
Cd 11.481262 -4.929122 8.199690
Cd 14.763376 -4.929122 11.481804
Cd 11.481262 -4.929122 14.763917
Cd 11.481262 1.635106 -18.057218
Cd 14.763376 1.635106 -14.775105
Cd 14.763376 -1.647008 -11.492991
Cd 11.481262 1.635106 -11.492991
Cd 11.481262 -1.647008 -8.210878
Cd 14.763376 1.635106 -8.210878
Cd 14.763376 -1.647008 -4.928764
Cd 11.481262 1.635106 -4.928764
Cd 11.481262 -1.647008 -1.646650
Cd 14.763376 1.635106 -1.646650
Cd 14.763376 -1.647008 1.635463
Cd 11.481262 1.635106 1.635463
Cd 11.481262 -1.647008 4.917577
Cd 14.763376 1.635106 4.917577
Cd 14.763376 -1.647008 8.199690
Cd 11.481262 1.635106 8.199690
Cd 11.481262 -1.647008 11.481804
Cd 14.763376 1.635106 11.481804
Cd 14.763376 -1.647008 14.763917
Cd 11.481262 1.635106 14.763917
Cd 11.481262 -1.647008 18.046031
Cd 11.481262 4.917219 -14.775105
Cd 11.481262 8.199333 -11.492991
Cd 11.481262 4.917219 -8.210878
Cd 14.763376 8.199333 -8.210878
Cd 14.763376 4.917219 -4.928764
Cd 11.481262 8.199333 -4.928764
Cd 11.481262 4.917219 -1.646650
Cd 14.763376 8.199333 -1.646650
Cd 14.763376 4.917219 1.635463
Cd 11.481262 8.199333 1.635463
Cd 11.481262 4.917219 4.917577
Cd 14.763376 4.917219 8.199690
Cd 11.481262 8.199333 8.199690
Cd 11.481262 4.917219 11.481804
Cd 14.763376 11.481446 -4.928764
Cd 11.481262 14.763560 -4.928764
Cd 11.481262 11.481446 -1.646650
Cd 14.763376 14.763560 -1.646650
Cd 14.763376 11.481446 1.635463
Cd 11.481262 11.481446 4.917577
Cd 11.481262 18.045673 -1.646650
Cd 18.045489 -11.493349 1.635463
Cd 18.045489 -4.929122 -4.928764
Cd 18.045489 -8.211235 -1.646650
Cd 18.045489 -4.929122 1.635463
Cd 18.045489 -8.211235 4.917577
Cd 18.045489 -4.929122 8.199690
Cd 18.045489 1.635106 -11.492991
Cd 18.045489 -1.647008 -8.210878
Cd 18.045489 1.635106 -4.928764
Cd 18.045489 -1.647008 -1.646650
Cd 18.045489 1.635106 1.635463
Cd 18.045489 -1.647008 4.917577
Cd 18.045489 1.635106 8.199690
Cd 18.045489 -1.647008 11.481804
Cd 18.045489 4.917219 -8.210878
Cd 18.045489 8.199333 -4.928764
Cd 18.045489 4.917219 -1.646650
Cd 18.045489 8.199333 1.635463
Cd 18.045489 4.917219 4.917577
Cd 18.045489 11.481446 -1.646650
Te -16.416703 -13.134405 -3.287707
Te -16.416703 -9.852292 -0.005594
Te -16.416703 -3.288065 -6.569821
Te -16.416703 -6.570178 -3.287707
Te -16.416703 -3.288065 -0.005594
Te -16.416703 -6.570178 3.276520
Te -16.416703 -3.288065 6.558633
Te -16.416703 -0.005951 -9.851934
Te -16.416703 3.276162 -6.569821
Te -16.416703 -0.005951 -3.287707
Te -16.416703 3.276162 -0.005594
Te -16.416703 -0.005951 3.276520
Te -16.416703 3.276162 6.558633
Te -16.416703 -0.005951 9.840747
Te -16.416703 3.276162 13.122861
Te -16.416703 6.558276 -3.287707
Te -16.416703 9.840389 -0.005594
Te -16.416703 6.558276 3.276520
Te -16.416703 13.122503 3.276520
Te -9.852476 -16.416519 -6.569821
Te -9.852476 -16.416519 -0.005594
Te -13.134589 -9.852292 -3.287707
Te -9.852476 -9.852292 -6.569821
Te -9.852476 -13.134405 -3.287707
Te -13.134589 -13.134405 -0.005594
Te -13.134589 -9.852292 3.276520
Te -9.852476 -9.852292 -0.005594
Te -9.852476 -13.134405 3.276520
Te -9.852476 -9.852292 6.558633
Te -13.134589 -3.288065 -16.416161
Te -13.134589 -3.288065 -9.851934
Te -9.852476 -3.288065 -13.134048
Te -9.852476 -6.570178 -9.851934
Te -13.134589 -6.570178 -6.569821
Te -13.134589 -3.288065 -3.287707
Te -9.852476 -3.288065 -6.569821
Te -9.852476 -6.570178 -3.287707
Te -13.134589 -6.570178 -0.005594
Te -13.134589 -3.288065 3.276520
Te -9.852476 -3.288065 -0.005594
Te -9.852476 -6.570178 3.276520
Te -13.134589 -6.570178 6.558633
Te -13.134589 -3.288065 9.840747
Te -9.852476 -3.288065 6.558633
Te -9.852476 -6.570178 9.840747
Te -9.852476 -3.288065 13.122861
Te -9.852476 -0.005951 -16.416161
Te -13.134589 -0.005951 -13.134048
Te -13.134589 3.276162 -9.851934
Te -9.852476 3.276162 -13.134048
Te -9.852476 -0.005951 -9.851934
Te -13.134589 -0.005951 -6.569821
Te -13.134589 3.276162 -3.287707
Te -9.852476 3.276162 -6.569821
Te -9.852476 -0.005951 -3.287707
Te -13.134589 -0.005951 -0.005594
Te -13.134589 3.276162 3.276520
Te -9.852476 3.276162 -0.005594
Te -9.852476 -0.005951 3.276520
Te -13.134589 -0.005951 6.558633
Te -13.134589 3.276162 9.840747
Te -9.852476 3.276162 6.558633
Te -9.852476 -0.005951 9.840747
Te -13.134589 -0.005951 13.122861
Te -9.852476 3.276162 13.122861
Te -9.852476 -0.005951 16.404974
Te -9.852476 6.558276 -9.851934
Te -13.134589 6.558276 -6.569821
Te -13.134589 9.840389 -3.287707
Te -9.852476 9.840389 -6.569821
Te -9.852476 6.558276 -3.287707
Te -13.134589 6.558276 -0.005594
Te -13.134589 9.840389 3.276520
Te -9.852476 9.840389 -0.005594
Te -9.852476 6.558276 3.276520
Te -13.134589 6.558276 6.558633
Te -9.852476 9.840389 6.558633
Te -9.852476 6.558276 9.840747
Te -9.852476 13.122503 -3.287707
Te -13.134589 13.122503 -0.005594
Te -9.852476 16.404617 -0.005594
Te -9.852476 13.122503 3.276520
Te -6.570362 -16.416519 -3.287707
Te -3.288249 -16.416519 -6.569821
Te -6.570362 -16.416519 3.276520
Te -3.288249 -16.416519 -0.005594
Te -3.288249 -16.416519 6.558633
Te -3.288249 -13.134405 -16.416161
Te -6.570362 -9.852292 -9.851934
Te -3.288249 -9.852292 -13.134048
Te -3.288249 -13.134405 -9.851934
Te -6.570362 -13.134405 -6.569821
Te -6.570362 -9.852292 -3.287707
Te -3.288249 -9.852292 -6.569821
Te -3.288249 -13.134405 -3.287707
Te -6.570362 -13.134405 -0.005594
Te -6.570362 -9.852292 3.276520
Te -3.288249 -9.852292 -0.005594
Te -3.288249 -13.134405 3.276520
Te -6.570362 -13.134405 6.558633
Te -6.570362 -9.852292 9.840747
Te -3.288249 -9.852292 6.558633
Te -3.288249 -13.134405 9.840747
Te -3.288249 -9.852292 13.122861
Te -6.570362 -3.288065 -16.416161
Te -3.288249 -6.570178 -16.416161
Te -6.570362 -6.570178 -13.134048
Te -6.570362 -3.288065 -9.851934
Te -3.288249 -3.288065 -13.134048
Te -3.288249 -6.570178 -9.851934
Te -6.570362 -6.570178 -6.569821
Te -6.570362 -3.288065 -3.287707
Te -3.288249 -3.288065 -6.569821
Te -3.288249 -6.570178 -3.287707
Te -6.570362 -6.570178 -0.005594
Te -6.570362 -3.288065 3.276520
Te -3.288249 -3.288065 -0.005594
Te -3.288249 -6.570178 3.276520
Te -6.570362 -6.570178 6.558633
Te -6.570362 -3.288065 9.840747
Te -3.288249 -3.288065 6.558633
Te -3.288249 -6.570178 9.840747
Te -6.570362 -6.570178 13.122861
Te -6.570362 -3.288065 16.404974
Te -3.288249 -3.288065 13.122861
Te -3.288249 -6.570178 16.404974
Te -6.570362 3.276162 -16.416161
Te -3.288249 -0.005951 -16.416161
Te -6.570362 -0.005951 -13.134048
Te -6.570362 3.276162 -9.851934
Te -3.288249 3.276162 -13.134048
Te -3.288249 -0.005951 -9.851934
Te -6.570362 -0.005951 -6.569821
Te -6.570362 3.276162 -3.287707
Te -3.288249 3.276162 -6.569821
Te -3.288249 -0.005951 -3.287707
Te -6.570362 -0.005951 -0.005594
Te -6.570362 3.276162 3.276520
Te -3.288249 3.276162 -0.005594
Te -3.288249 -0.005951 3.276520
Te -6.570362 -0.005951 6.558633
Te -6.570362 3.276162 9.840747
Te -3.288249 3.276162 6.558633
Te -3.288249 -0.005951 9.840747
Te -6.570362 -0.005951 13.122861
Te -6.570362 3.276162 16.404974
Te -3.288249 3.276162 13.122861
Te -3.288249 -0.005951 16.404974
Te -3.288249 6.558276 -16.416161
Te -6.570362 6.558276 -13.134048
Te -6.570362 9.840389 -9.851934
Te -3.288249 9.840389 -13.134048
Te -3.288249 6.558276 -9.851934
Te -6.570362 6.558276 -6.569821
Te -6.570362 9.840389 -3.287707
Te -3.288249 9.840389 -6.569821
Te -3.288249 6.558276 -3.287707
Te -6.570362 6.558276 -0.005594
Te -6.570362 9.840389 3.276520
Te -3.288249 9.840389 -0.005594
Te -3.288249 6.558276 3.276520
Te -6.570362 6.558276 6.558633
Te -6.570362 9.840389 9.840747
Te -3.288249 9.840389 6.558633
Te -3.288249 6.558276 9.840747
Te -6.570362 6.558276 13.122861
Te -3.288249 9.840389 13.122861
Te -3.288249 6.558276 16.404974
Te -3.288249 13.122503 -9.851934
Te -6.570362 13.122503 -6.569821
Te -6.570362 16.404617 -3.287707
Te -3.288249 16.404617 -6.569821
Te -3.288249 13.122503 -3.287707
Te -6.570362 13.122503 -0.005594
Te -6.570362 16.404617 3.276520
Te -3.288249 16.404617 -0.005594
Te -3.288249 13.122503 3.276520
Te -6.570362 13.122503 6.558633
Te -6.570362 16.404617 9.840747
Te -3.288249 16.404617 6.558633
Te -3.288249 13.122503 9.840747
Te -3.288249 13.122503 16.404974
Te -0.006135 -16.416519 -9.851934
Te -0.006135 -16.416519 -3.287707
Te 3.275978 -16.416519 -6.569821
Te -0.006135 -16.416519 3.276520
Te 3.275978 -16.416519 -0.005594
Te -0.006135 -16.416519 9.840747
Te 3.275978 -16.416519 6.558633
Te 3.275978 -16.416519 13.122861
Te -0.006135 -9.852292 -16.416161
Te -0.006135 -13.134405 -13.134048
Te -0.006135 -9.852292 -9.851934
Te 3.275978 -9.852292 -13.134048
Te 3.275978 -13.134405 -9.851934
Te -0.006135 -13.134405 -6.569821
Te -0.006135 -9.852292 -3.287707
Te 3.275978 -9.852292 -6.569821
Te 3.275978 -13.134405 -3.287707
Te -0.006135 -13.134405 -0.005594
Te -0.006135 -9.852292 3.276520
Te 3.275978 -9.852292 -0.005594
Te 3.275978 -13.134405 3.276520
Te -0.006135 -13.134405 6.558633
Te -0.006135 -9.852292 9.840747
Te 3.275978 -9.852292 6.558633
Te 3.275978 -13.134405 9.840747
Te -0.006135 -13.134405 13.122861
Te -0.006135 -9.852292 16.404974
Te 3.275978 -9.852292 13.122861
Te -0.006135 -3.288065 -16.416161
Te 3.275978 -6.570178 -16.416161
Te -0.006135 -6.570178 -13.134048
Te -0.006135 -3.288065 -9.851934
Te 3.275978 -3.288065 -13.134048
Te 3.275978 -6.570178 -9.851934
Te -0.006135 -6.570178 -6.569821
Te -0.006135 -3.288065 -3.287707
Te 3.275978 -3.288065 -6.569821
Te 3.275978 -6.570178 -3.287707
Te -0.006135 -6.570178 -0.005594
Te -0.006135 -3.288065 3.276520
Te 3.275978 -3.288065 -0.005594
Te 3.275978 -6.570178 3.276520
Te -0.006135 -6.570178 6.558633
Te -0.006135 -3.288065 9.840747
Te 3.275978 -3.288065 6.558633
Te 3.275978 -6.570178 9.840747
Te -0.006135 -6.570178 13.122861
Te -0.006135 -3.288065 16.404974
Te 3.275978 -3.288065 13.122861
Te 3.275978 -6.570178 16.404974
Te -0.006135 3.276162 -16.416161
Te 3.275978 -0.005951 -16.416161
Te -0.006135 -0.005951 -13.134048
Te -0.006135 3.276162 -9.851934
Te 3.275978 3.276162 -13.134048
Te 3.275978 -0.005951 -9.851934
Te -0.006135 -0.005951 -6.569821
Te -0.006135 3.276162 -3.287707
Te 3.275978 3.276162 -6.569821
Te 3.275978 -0.005951 -3.287707
Te -0.006135 -0.005951 -0.005594
Te -0.006135 3.276162 3.276520
Te 3.275978 3.276162 -0.005594
Te 3.275978 -0.005951 3.276520
Te -0.006135 -0.005951 6.558633
Te -0.006135 3.276162 9.840747
Te 3.275978 3.276162 6.558633
Te 3.275978 -0.005951 9.840747
Te -0.006135 -0.005951 13.122861
Te -0.006135 3.276162 16.404974
Te 3.275978 3.276162 13.122861
Te 3.275978 -0.005951 16.404974
Te -0.006135 9.840389 -16.416161
Te 3.275978 6.558276 -16.416161
Te -0.006135 6.558276 -13.134048
Te -0.006135 9.840389 -9.851934
Te 3.275978 9.840389 -13.134048
Te 3.275978 6.558276 -9.851934
Te -0.006135 6.558276 -6.569821
Te -0.006135 9.840389 -3.287707
Te 3.275978 9.840389 -6.569821
Te 3.275978 6.558276 -3.287707
Te -0.006135 6.558276 -0.005594
Te -0.006135 9.840389 3.276520
Te 3.275978 9.840389 -0.005594
Te 3.275978 6.558276 3.276520
Te -0.006135 6.558276 6.558633
Te -0.006135 9.840389 9.840747
Te 3.275978 9.840389 6.558633
Te 3.275978 6.558276 9.840747
Te -0.006135 6.558276 13.122861
Te -0.006135 9.840389 16.404974
Te 3.275978 9.840389 13.122861
Te 3.275978 6.558276 16.404974
Te 3.275978 13.122503 -16.416161
Te -0.006135 13.122503 -13.134048
Te -0.006135 16.404617 -9.851934
Te 3.275978 13.122503 -9.851934
Te -0.006135 13.122503 -6.569821
Te -0.006135 16.404617 -3.287707
Te 3.275978 16.404617 -6.569821
Te 3.275978 13.122503 -3.287707
Te -0.006135 13.122503 -0.005594
Te -0.006135 16.404617 3.276520
Te 3.275978 16.404617 -0.005594
Te 3.275978 13.122503 3.276520
Te -0.006135 13.122503 6.558633
Te -0.006135 16.404617 9.840747
Te 3.275978 16.404617 6.558633
Te 3.275978 13.122503 9.840747
Te -0.006135 13.122503 13.122861
Te 6.558092 -16.416519 -3.287707
Te 6.558092 -16.416519 3.276520
Te 9.840206 -16.416519 -0.005594
Te 6.558092 -9.852292 -9.851934
Te 6.558092 -13.134405 -6.569821
Te 6.558092 -9.852292 -3.287707
Te 9.840206 -9.852292 -6.569821
Te 9.840206 -13.134405 -3.287707
Te 6.558092 -13.134405 -0.005594
Te 6.558092 -9.852292 3.276520
Te 9.840206 -9.852292 -0.005594
Te 9.840206 -13.134405 3.276520
Te 6.558092 -13.134405 6.558633
Te 6.558092 -9.852292 9.840747
Te 9.840206 -9.852292 6.558633
Te 6.558092 -3.288065 -16.416161
Te 6.558092 -6.570178 -13.134048
Te 6.558092 -3.288065 -9.851934
Te 9.840206 -3.288065 -13.134048
Te 9.840206 -6.570178 -9.851934
Te 6.558092 -6.570178 -6.569821
Te 6.558092 -3.288065 -3.287707
Te 9.840206 -3.288065 -6.569821
Te 9.840206 -6.570178 -3.287707
Te 6.558092 -6.570178 -0.005594
Te 6.558092 -3.288065 3.276520
Te 9.840206 -3.288065 -0.005594
Te 9.840206 -6.570178 3.276520
Te 6.558092 -6.570178 6.558633
Te 6.558092 -3.288065 9.840747
Te 9.840206 -3.288065 6.558633
Te 9.840206 -6.570178 9.840747
Te 6.558092 -6.570178 13.122861
Te 6.558092 -3.288065 16.404974
Te 9.840206 -3.288065 13.122861
Te 6.558092 3.276162 -16.416161
Te 9.840206 -0.005951 -16.416161
Te 6.558092 -0.005951 -13.134048
Te 6.558092 3.276162 -9.851934
Te 9.840206 3.276162 -13.134048
Te 9.840206 -0.005951 -9.851934
Te 6.558092 -0.005951 -6.569821
Te 6.558092 3.276162 -3.287707
Te 9.840206 3.276162 -6.569821
Te 9.840206 -0.005951 -3.287707
Te 6.558092 -0.005951 -0.005594
Te 6.558092 3.276162 3.276520
Te 9.840206 3.276162 -0.005594
Te 9.840206 -0.005951 3.276520
Te 6.558092 -0.005951 6.558633
Te 6.558092 3.276162 9.840747
Te 9.840206 3.276162 6.558633
Te 9.840206 -0.005951 9.840747
Te 6.558092 -0.005951 13.122861
Te 6.558092 3.276162 16.404974
Te 9.840206 3.276162 13.122861
Te 9.840206 -0.005951 16.404974
Te 6.558092 6.558276 -13.134048
Te 6.558092 9.840389 -9.851934
Te 9.840206 6.558276 -9.851934
Te 6.558092 6.558276 -6.569821
Te 6.558092 9.840389 -3.287707
Te 9.840206 9.840389 -6.569821
Te 9.840206 6.558276 -3.287707
Te 6.558092 6.558276 -0.005594
Te 6.558092 9.840389 3.276520
Te 9.840206 9.840389 -0.005594
Te 9.840206 6.558276 3.276520
Te 6.558092 6.558276 6.558633
Te 6.558092 9.840389 9.840747
Te 9.840206 9.840389 6.558633
Te 9.840206 6.558276 9.840747
Te 6.558092 6.558276 13.122861
Te 6.558092 13.122503 -6.569821
Te 6.558092 16.404617 -3.287707
Te 9.840206 13.122503 -3.287707
Te 6.558092 13.122503 -0.005594
Te 6.558092 16.404617 3.276520
Te 9.840206 16.404617 -0.005594
Te 9.840206 13.122503 3.276520
Te 6.558092 13.122503 6.558633
Te 13.122319 -16.416519 3.276520
Te 13.122319 -9.852292 -3.287707
Te 13.122319 -13.134405 -0.005594
Te 13.122319 -9.852292 3.276520
Te 16.404433 -9.852292 -0.005594
Te 13.122319 -3.288065 -9.851934
Te 13.122319 -6.570178 -6.569821
Te 13.122319 -3.288065 -3.287707
Te 16.404433 -3.288065 -6.569821
Te 16.404433 -6.570178 -3.287707
Te 13.122319 -6.570178 -0.005594
Te 13.122319 -3.288065 3.276520
Te 16.404433 -3.288065 -0.005594
Te 16.404433 -6.570178 3.276520
Te 13.122319 -6.570178 6.558633
Te 13.122319 -3.288065 9.840747
Te 16.404433 -3.288065 6.558633
Te 16.404433 -6.570178 9.840747
Te 13.122319 -3.288065 16.404974
Te 13.122319 3.276162 -16.416161
Te 13.122319 -0.005951 -13.134048
Te 13.122319 3.276162 -9.851934
Te 16.404433 -0.005951 -9.851934
Te 13.122319 -0.005951 -6.569821
Te 13.122319 3.276162 -3.287707
Te 16.404433 3.276162 -6.569821
Te 16.404433 -0.005951 -3.287707
Te 13.122319 -0.005951 -0.005594
Te 13.122319 3.276162 3.276520
Te 16.404433 3.276162 -0.005594
Te 16.404433 -0.005951 3.276520
Te 13.122319 -0.005951 6.558633
Te 13.122319 3.276162 9.840747
Te 16.404433 3.276162 6.558633
Te 16.404433 -0.005951 9.840747
Te 13.122319 -0.005951 13.122861
Te 13.122319 6.558276 -6.569821
Te 13.122319 9.840389 -3.287707
Te 16.404433 9.840389 -6.569821
Te 16.404433 6.558276 -3.287707
Te 13.122319 6.558276 -0.005594
Te 13.122319 9.840389 3.276520
Te 16.404433 9.840389 -0.005594
Te 16.404433 6.558276 3.276520
Te 13.122319 6.558276 6.558633
Te 13.122319 16.404617 -3.287707
Te 13.122319 13.122503 -0.005594
Cl -19.698816 -9.852292 -3.287707
Cl -16.416703 -9.852292 -6.569821
Cl -19.698816 -3.288065 -9.851934
Cl -16.416703 -3.288065 -13.134048
Cl -16.416703 -6.570178 -9.851934
Cl -19.698816 -6.570178 -6.569821
Cl -19.698816 -3.288065 -3.287707
Cl -19.698816 -6.570178 -0.005594
Cl -19.698816 -3.288065 3.276520
Cl -19.698816 -0.005951 -6.569821
Cl -19.698816 3.276162 -3.287707
Cl -19.698816 -0.005951 -0.005594
Cl -19.698816 3.276162 3.276520
Cl -19.698816 -0.005951 6.558633
Cl -19.698816 3.276162 9.840747
Cl -19.698816 6.558276 -0.005594
Cl -19.698816 9.840389 3.276520
Cl -19.698816 6.558276 6.558633
Cl -16.416703 9.840389 6.558633
Cl -16.416703 6.558276 9.840747
Cl -13.134589 -16.416519 -3.287707
Cl -9.852476 -19.698633 -3.287707
Cl -13.134589 -9.852292 -9.851934
Cl -9.852476 -9.852292 -13.134048
Cl -9.852476 -13.134405 -9.851934
Cl -13.134589 -13.134405 -6.569821
Cl -9.852476 -3.288065 -19.698275
Cl -9.852476 -6.570178 -16.416161
Cl -13.134589 -6.570178 -13.134048
Cl -13.134589 3.276162 16.404974
Cl -9.852476 3.276162 19.687088
Cl -13.134589 9.840389 9.840747
Cl -13.134589 6.558276 13.122861
Cl -9.852476 9.840389 13.122861
Cl -9.852476 6.558276 16.404974
Cl -13.134589 16.404617 3.276520
Cl -13.134589 13.122503 6.558633
Cl -9.852476 16.404617 6.558633
Cl -9.852476 13.122503 9.840747
Cl -9.852476 19.686730 3.276520
Cl -6.570362 -16.416519 -9.851934
Cl -3.288249 -16.416519 -13.134048
Cl -3.288249 -19.698633 -9.851934
Cl -6.570362 -19.698633 -6.569821
Cl -3.288249 -19.698633 -3.287707
Cl -6.570362 -19.698633 -0.005594
Cl -3.288249 -19.698633 3.276520
Cl -6.570362 -9.852292 -16.416161
Cl -3.288249 -9.852292 -19.698275
Cl -6.570362 -13.134405 -13.134048
Cl -6.570362 -6.570178 -19.698275
Cl -3.288249 -3.288065 -19.698275
Cl -3.288249 -3.288065 19.687088
Cl -6.570362 -0.005951 -19.698275
Cl -3.288249 3.276162 -19.698275
Cl -6.570362 -0.005951 19.687088
Cl -3.288249 3.276162 19.687088
Cl -6.570362 9.840389 16.404974
Cl -6.570362 6.558276 19.687088
Cl -3.288249 9.840389 19.687088
Cl -6.570362 13.122503 13.122861
Cl -3.288249 16.404617 13.122861
Cl -3.288249 19.686730 -3.287707
Cl -6.570362 19.686730 -0.005594
Cl -3.288249 19.686730 3.276520
Cl -6.570362 19.686730 6.558633
Cl -3.288249 19.686730 9.840747
Cl -0.006135 -19.698633 -6.569821
Cl 3.275978 -19.698633 -3.287707
Cl -0.006135 -19.698633 -0.005594
Cl 3.275978 -19.698633 3.276520
Cl -0.006135 -19.698633 6.558633
Cl 3.275978 -19.698633 9.840747
Cl 3.275978 -13.134405 16.404974
Cl 3.275978 -9.852292 19.687088
Cl -0.006135 -6.570178 -19.698275
Cl 3.275978 -3.288065 -19.698275
Cl -0.006135 -6.570178 19.687088
Cl 3.275978 -3.288065 19.687088
Cl -0.006135 -0.005951 -19.698275
Cl 3.275978 3.276162 -19.698275
Cl -0.006135 -0.005951 19.687088
Cl 3.275978 3.276162 19.687088
Cl -0.006135 6.558276 -19.698275
Cl 3.275978 9.840389 -19.698275
Cl -0.006135 6.558276 19.687088
Cl 3.275978 16.404617 -13.134048
Cl 3.275978 19.686730 -9.851934
Cl -0.006135 19.686730 -6.569821
Cl 3.275978 19.686730 -3.287707
Cl -0.006135 19.686730 -0.005594
Cl 3.275978 19.686730 3.276520
Cl -0.006135 19.686730 6.558633
Cl 6.558092 -19.698633 -0.005594
Cl 9.840206 -19.698633 3.276520
Cl 6.558092 -19.698633 6.558633
Cl 6.558092 -16.416519 9.840747
Cl 9.840206 -16.416519 6.558633
Cl 9.840206 -13.134405 9.840747
Cl 6.558092 -13.134405 13.122861
Cl 6.558092 -9.852292 16.404974
Cl 9.840206 -9.852292 13.122861
Cl 9.840206 -6.570178 16.404974
Cl 6.558092 -6.570178 19.687088
Cl 9.840206 -3.288065 19.687088
Cl 6.558092 -0.005951 -19.698275
Cl 9.840206 3.276162 -19.698275
Cl 6.558092 -0.005951 19.687088
Cl 6.558092 6.558276 -19.698275
Cl 6.558092 9.840389 -16.416161
Cl 9.840206 6.558276 -16.416161
Cl 9.840206 9.840389 -13.134048
Cl 6.558092 13.122503 -13.134048
Cl 6.558092 16.404617 -9.851934
Cl 9.840206 13.122503 -9.851934
Cl 9.840206 16.404617 -6.569821
Cl 6.558092 19.686730 -6.569821
Cl 9.840206 19.686730 -3.287707
Cl 6.558092 19.686730 -0.005594
Cl 16.404433 -13.134405 3.276520
Cl 13.122319 -13.134405 6.558633
Cl 13.122319 -9.852292 9.840747
Cl 16.404433 -9.852292 6.558633
Cl 13.122319 -6.570178 13.122861
Cl 16.404433 -3.288065 13.122861
Cl 16.404433 3.276162 -13.134048
Cl 13.122319 6.558276 -13.134048
Cl 13.122319 9.840389 -9.851934
Cl 16.404433 6.558276 -9.851934
Cl 13.122319 13.122503 -6.569821
Cl 16.404433 13.122503 -3.287707
Cl 19.686546 -9.852292 3.276520
Cl 19.686546 -3.288065 -3.287707
Cl 19.686546 -6.570178 -0.005594
Cl 19.686546 -3.288065 3.276520
Cl 19.686546 -6.570178 6.558633
Cl 19.686546 -3.288065 9.840747
Cl 19.686546 3.276162 -9.851934
Cl 19.686546 -0.005951 -6.569821
Cl 19.686546 3.276162 -3.287707
Cl 19.686546 -0.005951 -0.005594
Cl 19.686546 3.276162 3.276520
Cl 19.686546 -0.005951 6.558633
Cl 19.686546 6.558276 -6.569821
Cl 19.686546 9.840389 -3.287707
Cl 19.686546 6.558276 -0.005594
Cl -13.134589 -3.288065 13.122861
Cl -13.134589 13.122503 -3.287707
Cl 13.122319 -13.134405 -3.287707
Cl 13.122319 3.276162 13.122861
Cl -16.416703 -13.134405 -0.005594
Cl -0.006135 13.122503 16.404974
Cl -6.570362 6.558276 -16.416161
Cl 6.558092 -6.570178 -16.416161
Cl -6.570362 -16.416519 6.558633
Cl 6.558092 16.404617 6.558633
Cl -9.852476 9.840389 -9.851934
Cl 9.840206 -9.852292 -9.851934
Cl -9.852476 -9.852292 9.840747
Cl 9.840206 9.840389 9.840747
Cl -13.230390 -0.011553 -16.511962
Cl -0.011737 -13.230206 -16.511962
Cl -0.000533 -16.512319 13.218661
Cl 13.218120 16.500417 -0.011196
Cl -0.000533 13.218303 -16.511962
Cl 13.218120 -0.000349 -16.511962
Cl -3.282647 -9.948092 16.500775
Cl 16.500233 9.936190 3.270918
Cl -16.512503 3.270560 -9.947735
Cl 3.270376 -16.512319 -9.947735
Cl -3.282647 16.500417 -9.947735
Cl 16.500233 -3.282463 -9.947735
Cl -16.512503 -6.564576 6.654434
Cl 6.653892 6.552674 16.500775
