738
CdSe-Se-Cd333Se261Cl144-reconstructed
Cd -10.752190 -13.809980 -1.524735
Cd -13.822461 -10.739709 -1.524735
Cd -10.752190 -4.599166 -10.735549
Cd -10.752190 -7.669438 -7.665277
Cd -13.822461 -4.599166 -7.665277
Cd -13.822461 -7.669438 -4.595006
Cd -10.752190 -4.599166 -4.595006
Cd -10.752190 -7.669438 -1.524735
Cd -13.822461 -4.599166 -1.524735
Cd -13.822461 -7.669438 1.545536
Cd -10.752190 -4.599166 1.545536
Cd -10.752190 -7.669438 4.615807
Cd -13.822461 -4.599166 4.615807
Cd -10.752190 -4.599166 7.686079
Cd -10.752190 -1.528895 -13.805820
Cd -13.822461 -1.528895 -10.735549
Cd -10.752190 -1.528895 -7.665277
Cd -13.822461 1.541376 -7.665277
Cd -13.822461 -1.528895 -4.595006
Cd -10.752190 1.541376 -4.595006
Cd -10.752190 -1.528895 -1.524735
Cd -13.822461 1.541376 -1.524735
Cd -13.822461 -1.528895 1.545536
Cd -10.752190 1.541376 1.545536
Cd -10.752190 -1.528895 4.615807
Cd -13.822461 1.541376 4.615807
Cd -13.822461 -1.528895 7.686079
Cd -10.752190 1.541376 7.686079
Cd -13.822461 1.541376 10.756350
Cd -10.752190 1.541376 13.826621
Cd -10.752190 4.611647 -7.665277
Cd -13.822461 4.611647 -4.595006
Cd -10.752190 7.681918 -4.595006
Cd -10.752190 4.611647 -1.524735
Cd -13.822461 7.681918 -1.524735
Cd -13.822461 4.611647 1.545536
Cd -10.752190 7.681918 1.545536
Cd -10.752190 4.611647 4.615807
Cd -13.822461 7.681918 4.615807
Cd -10.752190 7.681918 7.686079
Cd -10.752190 4.611647 10.756350
Cd -13.822461 10.752190 1.545536
Cd -10.752190 13.822461 1.545536
Cd -4.611647 -10.739709 -10.735549
Cd -4.611647 -13.809980 -7.665277
Cd -7.681918 -10.739709 -7.665277
Cd -7.681918 -13.809980 -4.595006
Cd -4.611647 -10.739709 -4.595006
Cd -4.611647 -13.809980 -1.524735
Cd -7.681918 -10.739709 -1.524735
Cd -7.681918 -13.809980 1.545536
Cd -4.611647 -10.739709 1.545536
Cd -4.611647 -13.809980 4.615807
Cd -7.681918 -10.739709 4.615807
Cd -4.611647 -10.739709 7.686079
Cd -4.611647 -7.669438 -13.805820
Cd -7.681918 -4.599166 -13.805820
Cd -4.611647 -4.599166 -10.735549
Cd -4.611647 -7.669438 -7.665277
Cd -7.681918 -4.599166 -7.665277
Cd -7.681918 -7.669438 -4.595006
Cd -4.611647 -4.599166 -4.595006
Cd -4.611647 -7.669438 -1.524735
Cd -7.681918 -4.599166 -1.524735
Cd -7.681918 -7.669438 1.545536
Cd -4.611647 -4.599166 1.545536
Cd -4.611647 -7.669438 4.615807
Cd -7.681918 -4.599166 4.615807
Cd -4.611647 -4.599166 7.686079
Cd -4.611647 -7.669438 10.756350
Cd -7.681918 -4.599166 10.756350
Cd -4.611647 -4.599166 13.826621
Cd -4.611647 -1.528895 -13.805820
Cd -7.681918 1.541376 -13.805820
Cd -7.681918 -1.528895 -10.735549
Cd -4.611647 1.541376 -10.735549
Cd -4.611647 -1.528895 -7.665277
Cd -7.681918 1.541376 -7.665277
Cd -7.681918 -1.528895 -4.595006
Cd -4.611647 1.541376 -4.595006
Cd -4.611647 -1.528895 -1.524735
Cd -7.681918 1.541376 -1.524735
Cd -7.681918 -1.528895 1.545536
Cd -4.611647 1.541376 1.545536
Cd -4.611647 -1.528895 4.615807
Cd -7.681918 1.541376 4.615807
Cd -7.681918 -1.528895 7.686079
Cd -4.611647 1.541376 7.686079
Cd -4.611647 -1.528895 10.756350
Cd -7.681918 1.541376 10.756350
Cd -7.681918 -1.528895 13.826621
Cd -4.611647 1.541376 13.826621
Cd -4.611647 4.611647 -13.805820
Cd -7.681918 4.611647 -10.735549
Cd -4.611647 7.681918 -10.735549
Cd -4.611647 4.611647 -7.665277
Cd -7.681918 4.611647 -4.595006
Cd -4.611647 7.681918 -4.595006
Cd -4.611647 4.611647 -1.524735
Cd -7.681918 7.681918 -1.524735
Cd -7.681918 4.611647 1.545536
Cd -4.611647 7.681918 1.545536
Cd -4.611647 4.611647 4.615807
Cd -7.681918 7.681918 4.615807
Cd -7.681918 4.611647 7.686079
Cd -4.611647 7.681918 7.686079
Cd -4.611647 4.611647 10.756350
Cd -7.681918 4.611647 13.826621
Cd -4.611647 7.681918 13.826621
Cd -4.611647 10.752190 -7.665277
Cd -7.681918 10.752190 -4.595006
Cd -4.611647 13.822461 -4.595006
Cd -4.611647 10.752190 -1.524735
Cd -7.681918 13.822461 -1.524735
Cd -7.681918 10.752190 1.545536
Cd -4.611647 13.822461 1.545536
Cd -4.611647 10.752190 4.615807
Cd -7.681918 13.822461 4.615807
Cd -7.681918 10.752190 7.686079
Cd -4.611647 13.822461 7.686079
Cd -4.611647 10.752190 10.756350
Cd -1.541376 -10.739709 -13.805820
Cd -1.541376 -13.809980 -10.735549
Cd 1.528895 -13.809980 -7.665277
Cd -1.541376 -10.739709 -7.665277
Cd -1.541376 -13.809980 -4.595006
Cd 1.528895 -10.739709 -4.595006
Cd 1.528895 -13.809980 -1.524735
Cd -1.541376 -10.739709 -1.524735
Cd -1.541376 -13.809980 1.545536
Cd 1.528895 -10.739709 1.545536
Cd 1.528895 -13.809980 4.615807
Cd -1.541376 -10.739709 4.615807
Cd -1.541376 -13.809980 7.686079
Cd 1.528895 -10.739709 7.686079
Cd 1.528895 -13.809980 10.756350
Cd 1.528895 -10.739709 13.826621
Cd 1.528895 -7.669438 -13.805820
Cd -1.541376 -4.599166 -13.805820
Cd -1.541376 -7.669438 -10.735549
Cd 1.528895 -4.599166 -10.735549
Cd 1.528895 -7.669438 -7.665277
Cd -1.541376 -4.599166 -7.665277
Cd -1.541376 -7.669438 -4.595006
Cd 1.528895 -4.599166 -4.595006
Cd 1.528895 -7.669438 -1.524735
Cd -1.541376 -4.599166 -1.524735
Cd -1.541376 -7.669438 1.545536
Cd 1.528895 -4.599166 1.545536
Cd 1.528895 -7.669438 4.615807
Cd -1.541376 -4.599166 4.615807
Cd -1.541376 -7.669438 7.686079
Cd 1.528895 -4.599166 7.686079
Cd 1.528895 -7.669438 10.756350
Cd -1.541376 -4.599166 10.756350
Cd -1.541376 -7.669438 13.826621
Cd 1.528895 -4.599166 13.826621
Cd 1.528895 -1.528895 -13.805820
Cd -1.541376 1.541376 -13.805820
Cd -1.541376 -1.528895 -10.735549
Cd 1.528895 1.541376 -10.735549
Cd 1.528895 -1.528895 -7.665277
Cd -1.541376 1.541376 -7.665277
Cd -1.541376 -1.528895 -4.595006
Cd 1.528895 1.541376 -4.595006
Cd 1.528895 -1.528895 -1.524735
Cd -1.541376 1.541376 -1.524735
Cd -1.541376 -1.528895 1.545536
Cd 1.528895 1.541376 1.545536
Cd 1.528895 -1.528895 4.615807
Cd -1.541376 1.541376 4.615807
Cd -1.541376 -1.528895 7.686079
Cd 1.528895 1.541376 7.686079
Cd 1.528895 -1.528895 10.756350
Cd -1.541376 1.541376 10.756350
Cd -1.541376 -1.528895 13.826621
Cd 1.528895 1.541376 13.826621
Cd 1.528895 4.611647 -13.805820
Cd -1.541376 7.681918 -13.805820
Cd -1.541376 4.611647 -10.735549
Cd 1.528895 7.681918 -10.735549
Cd 1.528895 4.611647 -7.665277
Cd -1.541376 7.681918 -7.665277
Cd -1.541376 4.611647 -4.595006
Cd 1.528895 7.681918 -4.595006
Cd 1.528895 4.611647 -1.524735
Cd -1.541376 7.681918 -1.524735
Cd -1.541376 4.611647 1.545536
Cd 1.528895 7.681918 1.545536
Cd 1.528895 4.611647 4.615807
Cd -1.541376 7.681918 4.615807
Cd -1.541376 4.611647 7.686079
Cd 1.528895 7.681918 7.686079
Cd 1.528895 4.611647 10.756350
Cd -1.541376 7.681918 10.756350
Cd -1.541376 4.611647 13.826621
Cd 1.528895 7.681918 13.826621
Cd 1.528895 10.752190 -13.805820
Cd 1.528895 13.822461 -10.735549
Cd 1.528895 10.752190 -7.665277
Cd -1.541376 13.822461 -7.665277
Cd -1.541376 10.752190 -4.595006
Cd 1.528895 13.822461 -4.595006
Cd 1.528895 10.752190 -1.524735
Cd -1.541376 13.822461 -1.524735
Cd -1.541376 10.752190 1.545536
Cd 1.528895 13.822461 1.545536
Cd 1.528895 10.752190 4.615807
Cd -1.541376 13.822461 4.615807
Cd -1.541376 10.752190 7.686079
Cd 1.528895 13.822461 7.686079
Cd -1.541376 13.822461 10.756350
Cd -1.541376 10.752190 13.826621
Cd 4.599166 -10.739709 -7.665277
Cd 4.599166 -13.809980 -4.595006
Cd 7.669438 -10.739709 -4.595006
Cd 7.669438 -13.809980 -1.524735
Cd 4.599166 -10.739709 -1.524735
Cd 4.599166 -13.809980 1.545536
Cd 7.669438 -10.739709 1.545536
Cd 7.669438 -13.809980 4.615807
Cd 4.599166 -10.739709 4.615807
Cd 7.669438 -10.739709 7.686079
Cd 4.599166 -10.739709 10.756350
Cd 4.599166 -4.599166 -13.805820
Cd 4.599166 -7.669438 -10.735549
Cd 7.669438 -4.599166 -10.735549
Cd 4.599166 -4.599166 -7.665277
Cd 4.599166 -7.669438 -4.595006
Cd 7.669438 -4.599166 -4.595006
Cd 7.669438 -7.669438 -1.524735
Cd 4.599166 -4.599166 -1.524735
Cd 4.599166 -7.669438 1.545536
Cd 7.669438 -4.599166 1.545536
Cd 7.669438 -7.669438 4.615807
Cd 4.599166 -4.599166 4.615807
Cd 4.599166 -7.669438 7.686079
Cd 7.669438 -4.599166 7.686079
Cd 4.599166 -4.599166 10.756350
Cd 4.599166 -7.669438 13.826621
Cd 7.669438 -4.599166 13.826621
Cd 7.669438 -1.528895 -13.805820
Cd 4.599166 1.541376 -13.805820
Cd 4.599166 -1.528895 -10.735549
Cd 7.669438 1.541376 -10.735549
Cd 7.669438 -1.528895 -7.665277
Cd 4.599166 1.541376 -7.665277
Cd 4.599166 -1.528895 -4.595006
Cd 7.669438 1.541376 -4.595006
Cd 7.669438 -1.528895 -1.524735
Cd 4.599166 1.541376 -1.524735
Cd 4.599166 -1.528895 1.545536
Cd 7.669438 1.541376 1.545536
Cd 7.669438 -1.528895 4.615807
Cd 4.599166 1.541376 4.615807
Cd 4.599166 -1.528895 7.686079
Cd 7.669438 1.541376 7.686079
Cd 7.669438 -1.528895 10.756350
Cd 4.599166 1.541376 10.756350
Cd 4.599166 -1.528895 13.826621
Cd 7.669438 1.541376 13.826621
Cd 7.669438 4.611647 -13.805820
Cd 4.599166 7.681918 -13.805820
Cd 4.599166 4.611647 -10.735549
Cd 7.669438 4.611647 -7.665277
Cd 4.599166 7.681918 -7.665277
Cd 4.599166 4.611647 -4.595006
Cd 7.669438 7.681918 -4.595006
Cd 7.669438 4.611647 -1.524735
Cd 4.599166 7.681918 -1.524735
Cd 4.599166 4.611647 1.545536
Cd 7.669438 7.681918 1.545536
Cd 7.669438 4.611647 4.615807
Cd 4.599166 7.681918 4.615807
Cd 4.599166 4.611647 7.686079
Cd 7.669438 4.611647 10.756350
Cd 4.599166 7.681918 10.756350
Cd 4.599166 4.611647 13.826621
Cd 4.599166 10.752190 -10.735549
Cd 7.669438 10.752190 -7.665277
Cd 4.599166 10.752190 -4.595006
Cd 7.669438 13.822461 -4.595006
Cd 7.669438 10.752190 -1.524735
Cd 4.599166 13.822461 -1.524735
Cd 4.599166 10.752190 1.545536
Cd 7.669438 13.822461 1.545536
Cd 7.669438 10.752190 4.615807
Cd 4.599166 13.822461 4.615807
Cd 4.599166 10.752190 7.686079
Cd 10.739709 -13.809980 1.545536
Cd 13.809980 -10.739709 1.545536
Cd 10.739709 -4.599166 -7.665277
Cd 10.739709 -7.669438 -4.595006
Cd 13.809980 -4.599166 -4.595006
Cd 13.809980 -7.669438 -1.524735
Cd 10.739709 -4.599166 -1.524735
Cd 10.739709 -7.669438 1.545536
Cd 13.809980 -4.599166 1.545536
Cd 13.809980 -7.669438 4.615807
Cd 10.739709 -4.599166 4.615807
Cd 10.739709 -7.669438 7.686079
Cd 13.809980 -4.599166 7.686079
Cd 10.739709 -4.599166 10.756350
Cd 10.739709 1.541376 -13.805820
Cd 13.809980 1.541376 -10.735549
Cd 13.809980 -1.528895 -7.665277
Cd 10.739709 1.541376 -7.665277
Cd 10.739709 -1.528895 -4.595006
Cd 13.809980 1.541376 -4.595006
Cd 13.809980 -1.528895 -1.524735
Cd 10.739709 1.541376 -1.524735
Cd 10.739709 -1.528895 1.545536
Cd 13.809980 1.541376 1.545536
Cd 13.809980 -1.528895 4.615807
Cd 10.739709 1.541376 4.615807
Cd 10.739709 -1.528895 7.686079
Cd 13.809980 1.541376 7.686079
Cd 13.809980 -1.528895 10.756350
Cd 10.739709 -1.528895 13.826621
Cd 10.739709 4.611647 -10.735549
Cd 13.809980 4.611647 -7.665277
Cd 10.739709 7.681918 -7.665277
Cd 10.739709 4.611647 -4.595006
Cd 13.809980 7.681918 -4.595006
Cd 13.809980 4.611647 -1.524735
Cd 10.739709 7.681918 -1.524735
Cd 10.739709 4.611647 1.545536
Cd 13.809980 7.681918 1.545536
Cd 13.809980 4.611647 4.615807
Cd 10.739709 7.681918 4.615807
Cd 10.739709 4.611647 7.686079
Cd 13.809980 10.752190 -1.524735
Cd 10.739709 13.822461 -1.524735
Se -9.217054 -9.204573 -6.130142
Se -12.287325 -9.204573 -3.059871
Se -9.217054 -9.204573 0.010401
Se -9.217054 -12.274844 -3.059871
Se -9.217054 -3.064031 -12.270684
Se -12.287325 -6.134302 -6.130142
Se -12.287325 -3.064031 -9.200413
Se -9.217054 -3.064031 -6.130142
Se -9.217054 -6.134302 -9.200413
Se -12.287325 -6.134302 0.010401
Se -12.287325 -3.064031 -3.059871
Se -9.217054 -3.064031 0.010401
Se -9.217054 -6.134302 -3.059871
Se -12.287325 -6.134302 6.150943
Se -12.287325 -3.064031 3.080672
Se -9.217054 -3.064031 6.150943
Se -9.217054 -6.134302 3.080672
Se -12.287325 0.006240 -6.130142
Se -9.217054 3.076512 -6.130142
Se -9.217054 0.006240 -9.200413
Se -12.287325 0.006240 0.010401
Se -12.287325 3.076512 -3.059871
Se -9.217054 3.076512 0.010401
Se -9.217054 0.006240 -3.059871
Se -12.287325 0.006240 6.150943
Se -12.287325 3.076512 3.080672
Se -9.217054 3.076512 6.150943
Se -9.217054 0.006240 3.080672
Se -12.287325 3.076512 9.221214
Se -9.217054 3.076512 12.291485
Se -9.217054 0.006240 9.221214
Se -12.287325 6.146783 -6.130142
Se -12.287325 6.146783 0.010401
Se -9.217054 9.217054 0.010401
Se -9.217054 6.146783 -3.059871
Se -12.287325 6.146783 6.150943
Se -12.287325 9.217054 3.080672
Se -9.217054 9.217054 6.150943
Se -9.217054 6.146783 3.080672
Se -9.217054 6.146783 9.221214
Se -9.217054 12.287325 3.080672
Se -3.076512 -9.204573 -12.270684
Se -6.146783 -12.274844 -6.130142
Se -6.146783 -9.204573 -9.200413
Se -3.076512 -9.204573 -6.130142
Se -3.076512 -12.274844 -9.200413
Se -6.146783 -12.274844 0.010401
Se -6.146783 -9.204573 -3.059871
Se -3.076512 -9.204573 0.010401
Se -3.076512 -12.274844 -3.059871
Se -6.146783 -12.274844 6.150943
Se -6.146783 -9.204573 3.080672
Se -3.076512 -9.204573 6.150943
Se -3.076512 -12.274844 3.080672
Se -6.146783 -6.134302 -12.270684
Se -3.076512 -3.064031 -12.270684
Se -6.146783 -6.134302 -6.130142
Se -6.146783 -3.064031 -9.200413
Se -3.076512 -3.064031 -6.130142
Se -3.076512 -6.134302 -9.200413
Se -6.146783 -6.134302 0.010401
Se -6.146783 -3.064031 -3.059871
Se -3.076512 -3.064031 0.010401
Se -3.076512 -6.134302 -3.059871
Se -6.146783 -6.134302 6.150943
Se -6.146783 -3.064031 3.080672
Se -3.076512 -3.064031 6.150943
Se -3.076512 -6.134302 3.080672
Se -6.146783 -6.134302 12.291485
Se -6.146783 -3.064031 9.221214
Se -3.076512 -3.064031 12.291485
Se -3.076512 -6.134302 9.221214
Se -6.146783 0.006240 -12.270684
Se -3.076512 3.076512 -12.270684
Se -6.146783 0.006240 -6.130142
Se -6.146783 3.076512 -9.200413
Se -3.076512 3.076512 -6.130142
Se -3.076512 0.006240 -9.200413
Se -6.146783 0.006240 0.010401
Se -6.146783 3.076512 -3.059871
Se -3.076512 3.076512 0.010401
Se -3.076512 0.006240 -3.059871
Se -6.146783 0.006240 6.150943
Se -6.146783 3.076512 3.080672
Se -3.076512 3.076512 6.150943
Se -3.076512 0.006240 3.080672
Se -6.146783 0.006240 12.291485
Se -6.146783 3.076512 9.221214
Se -3.076512 3.076512 12.291485
Se -3.076512 0.006240 9.221214
Se -6.146783 6.146783 -12.270684
Se -6.146783 6.146783 -6.130142
Se -3.076512 9.217054 -6.130142
Se -3.076512 6.146783 -9.200413
Se -6.146783 6.146783 0.010401
Se -6.146783 9.217054 -3.059871
Se -3.076512 9.217054 0.010401
Se -3.076512 6.146783 -3.059871
Se -6.146783 6.146783 6.150943
Se -6.146783 9.217054 3.080672
Se -3.076512 9.217054 6.150943
Se -3.076512 6.146783 3.080672
Se -6.146783 6.146783 12.291485
Se -6.146783 9.217054 9.221214
Se -3.076512 9.217054 12.291485
Se -3.076512 6.146783 9.221214
Se -6.146783 12.287325 -6.130142
Se -6.146783 12.287325 0.010401
Se -3.076512 12.287325 -3.059871
Se -6.146783 12.287325 6.150943
Se -3.076512 12.287325 3.080672
Se -3.076512 12.287325 9.221214
Se -0.006240 -12.274844 -6.130142
Se -0.006240 -9.204573 -9.200413
Se 3.064031 -9.204573 -6.130142
Se -0.006240 -12.274844 0.010401
Se -0.006240 -9.204573 -3.059871
Se 3.064031 -9.204573 0.010401
Se 3.064031 -12.274844 -3.059871
Se -0.006240 -12.274844 6.150943
Se -0.006240 -9.204573 3.080672
Se 3.064031 -9.204573 6.150943
Se 3.064031 -12.274844 3.080672
Se -0.006240 -9.204573 9.221214
Se 3.064031 -9.204573 12.291485
Se 3.064031 -12.274844 9.221214
Se -0.006240 -6.134302 -12.270684
Se 3.064031 -3.064031 -12.270684
Se -0.006240 -6.134302 -6.130142
Se -0.006240 -3.064031 -9.200413
Se 3.064031 -3.064031 -6.130142
Se 3.064031 -6.134302 -9.200413
Se -0.006240 -6.134302 0.010401
Se -0.006240 -3.064031 -3.059871
Se 3.064031 -3.064031 0.010401
Se 3.064031 -6.134302 -3.059871
Se -0.006240 -6.134302 6.150943
Se -0.006240 -3.064031 3.080672
Se 3.064031 -3.064031 6.150943
Se 3.064031 -6.134302 3.080672
Se -0.006240 -6.134302 12.291485
Se -0.006240 -3.064031 9.221214
Se 3.064031 -3.064031 12.291485
Se 3.064031 -6.134302 9.221214
Se -0.006240 0.006240 -12.270684
Se 3.064031 3.076512 -12.270684
Se -0.006240 0.006240 -6.130142
Se -0.006240 3.076512 -9.200413
Se 3.064031 3.076512 -6.130142
Se 3.064031 0.006240 -9.200413
Se -0.006240 0.006240 0.010401
Se -0.006240 3.076512 -3.059871
Se 3.064031 3.076512 0.010401
Se 3.064031 0.006240 -3.059871
Se -0.006240 0.006240 6.150943
Se -0.006240 3.076512 3.080672
Se 3.064031 3.076512 6.150943
Se 3.064031 0.006240 3.080672
Se -0.006240 0.006240 12.291485
Se -0.006240 3.076512 9.221214
Se 3.064031 3.076512 12.291485
Se 3.064031 0.006240 9.221214
Se -0.006240 6.146783 -12.270684
Se 3.064031 9.217054 -12.270684
Se -0.006240 6.146783 -6.130142
Se -0.006240 9.217054 -9.200413
Se 3.064031 9.217054 -6.130142
Se 3.064031 6.146783 -9.200413
Se -0.006240 6.146783 0.010401
Se -0.006240 9.217054 -3.059871
Se 3.064031 9.217054 0.010401
Se 3.064031 6.146783 -3.059871
Se -0.006240 6.146783 6.150943
Se -0.006240 9.217054 3.080672
Se 3.064031 9.217054 6.150943
Se 3.064031 6.146783 3.080672
Se -0.006240 6.146783 12.291485
Se -0.006240 9.217054 9.221214
Se 3.064031 6.146783 9.221214
Se -0.006240 12.287325 -6.130142
Se 3.064031 12.287325 -9.200413
Se -0.006240 12.287325 0.010401
Se 3.064031 12.287325 -3.059871
Se -0.006240 12.287325 6.150943
Se 3.064031 12.287325 3.080672
Se 6.134302 -12.274844 -6.130142
Se 6.134302 -12.274844 0.010401
Se 6.134302 -9.204573 -3.059871
Se 9.204573 -9.204573 0.010401
Se 6.134302 -12.274844 6.150943
Se 6.134302 -9.204573 3.080672
Se 9.204573 -9.204573 6.150943
Se 9.204573 -12.274844 3.080672
Se 6.134302 -9.204573 9.221214
Se 6.134302 -6.134302 -12.270684
Se 6.134302 -6.134302 -6.130142
Se 6.134302 -3.064031 -9.200413
Se 9.204573 -3.064031 -6.130142
Se 6.134302 -6.134302 0.010401
Se 6.134302 -3.064031 -3.059871
Se 9.204573 -3.064031 0.010401
Se 9.204573 -6.134302 -3.059871
Se 6.134302 -6.134302 6.150943
Se 6.134302 -3.064031 3.080672
Se 9.204573 -3.064031 6.150943
Se 9.204573 -6.134302 3.080672
Se 6.134302 -6.134302 12.291485
Se 6.134302 -3.064031 9.221214
Se 9.204573 -3.064031 12.291485
Se 9.204573 -6.134302 9.221214
Se 6.134302 0.006240 -12.270684
Se 9.204573 3.076512 -12.270684
Se 6.134302 0.006240 -6.130142
Se 6.134302 3.076512 -9.200413
Se 9.204573 3.076512 -6.130142
Se 9.204573 0.006240 -9.200413
Se 6.134302 0.006240 0.010401
Se 6.134302 3.076512 -3.059871
Se 9.204573 3.076512 0.010401
Se 9.204573 0.006240 -3.059871
Se 6.134302 0.006240 6.150943
Se 6.134302 3.076512 3.080672
Se 9.204573 3.076512 6.150943
Se 9.204573 0.006240 3.080672
Se 6.134302 0.006240 12.291485
Se 6.134302 3.076512 9.221214
Se 9.204573 0.006240 9.221214
Se 6.134302 6.146783 -12.270684
Se 6.134302 6.146783 -6.130142
Se 6.134302 9.217054 -9.200413
Se 9.204573 9.217054 -6.130142
Se 9.204573 6.146783 -9.200413
Se 6.134302 6.146783 0.010401
Se 6.134302 9.217054 -3.059871
Se 9.204573 9.217054 0.010401
Se 9.204573 6.146783 -3.059871
Se 6.134302 6.146783 6.150943
Se 6.134302 9.217054 3.080672
Se 9.204573 6.146783 3.080672
Se 6.134302 6.146783 12.291485
Se 6.134302 12.287325 -6.130142
Se 6.134302 12.287325 0.010401
Se 9.204573 12.287325 -3.059871
Se 6.134302 12.287325 6.150943
Se 12.274844 -9.204573 3.080672
Se 12.274844 -6.134302 -6.130142
Se 12.274844 -6.134302 0.010401
Se 12.274844 -3.064031 -3.059871
Se 12.274844 -6.134302 6.150943
Se 12.274844 -3.064031 3.080672
Se 12.274844 -3.064031 9.221214
Se 12.274844 0.006240 -6.130142
Se 12.274844 3.076512 -9.200413
Se 12.274844 0.006240 0.010401
Se 12.274844 3.076512 -3.059871
Se 12.274844 0.006240 6.150943
Se 12.274844 3.076512 3.080672
Se 12.274844 6.146783 -6.130142
Se 12.274844 6.146783 0.010401
Se 12.274844 9.217054 -3.059871
Se 12.274844 6.146783 6.150943
Cl -15.357596 -9.204573 0.010401
Cl -15.357596 -3.064031 -6.130142
Cl -15.357596 -3.064031 0.010401
Cl -15.357596 -6.134302 -3.059871
Cl -15.357596 -3.064031 6.150943
Cl -15.357596 -6.134302 3.080672
Cl -15.357596 3.076512 -6.130142
Cl -15.357596 0.006240 -9.200413
Cl -15.357596 3.076512 0.010401
Cl -15.357596 0.006240 -3.059871
Cl -15.357596 3.076512 6.150943
Cl -15.357596 0.006240 3.080672
Cl -15.357596 0.006240 9.221214
Cl -15.357596 9.217054 0.010401
Cl -15.357596 6.146783 -3.059871
Cl -15.357596 6.146783 3.080672
Cl -9.217054 -15.345116 0.010401
Cl -12.287325 -12.274844 0.010401
Cl -12.287325 -9.204573 3.080672
Cl -9.217054 -9.204573 6.150943
Cl -9.217054 -12.274844 3.080672
Cl -12.287325 -3.064031 9.221214
Cl -9.217054 -3.064031 12.291485
Cl -9.217054 -6.134302 9.221214
Cl -12.287325 0.006240 -12.270684
Cl -9.217054 3.076512 -12.270684
Cl -9.217054 0.006240 -15.340955
Cl -12.287325 3.076512 -9.200413
Cl -12.287325 0.006240 12.291485
Cl -9.217054 0.006240 15.361757
Cl -9.217054 9.217054 -6.130142
Cl -9.217054 6.146783 -9.200413
Cl -12.287325 9.217054 -3.059871
Cl -12.287325 12.287325 0.010401
Cl -9.217054 15.357596 0.010401
Cl -9.217054 12.287325 -3.059871
Cl -3.076512 -15.345116 -6.130142
Cl -6.146783 -15.345116 -3.059871
Cl -3.076512 -15.345116 0.010401
Cl -6.146783 -15.345116 3.080672
Cl -3.076512 -15.345116 6.150943
Cl -6.146783 -9.204573 9.221214
Cl -3.076512 -9.204573 12.291485
Cl -3.076512 -12.274844 9.221214
Cl -6.146783 -3.064031 -15.340955
Cl -3.076512 -6.134302 -15.340955
Cl -6.146783 -3.064031 15.361757
Cl -3.076512 -6.134302 15.361757
Cl -6.146783 3.076512 -15.340955
Cl -3.076512 0.006240 -15.340955
Cl -6.146783 3.076512 15.361757
Cl -3.076512 0.006240 15.361757
Cl -3.076512 9.217054 -12.270684
Cl -3.076512 6.146783 -15.340955
Cl -6.146783 9.217054 -9.200413
Cl -3.076512 6.146783 15.361757
Cl -3.076512 15.357596 -6.130142
Cl -3.076512 12.287325 -9.200413
Cl -6.146783 15.357596 -3.059871
Cl -3.076512 15.357596 0.010401
Cl -6.146783 15.357596 3.080672
Cl -3.076512 15.357596 6.150943
Cl -0.006240 -15.345116 -9.200413
Cl 3.064031 -15.345116 -6.130142
Cl -0.006240 -15.345116 -3.059871
Cl 3.064031 -15.345116 0.010401
Cl -0.006240 -15.345116 3.080672
Cl 3.064031 -15.345116 6.150943
Cl -0.006240 -15.345116 9.221214
Cl -0.006240 -12.274844 -12.270684
Cl -0.006240 -9.204573 -15.340955
Cl 3.064031 -9.204573 -12.270684
Cl 3.064031 -12.274844 -9.200413
Cl -0.006240 -12.274844 12.291485
Cl -0.006240 -9.204573 15.361757
Cl -0.006240 -3.064031 -15.340955
Cl 3.064031 -6.134302 -15.340955
Cl -0.006240 -3.064031 15.361757
Cl 3.064031 -6.134302 15.361757
Cl -0.006240 3.076512 -15.340955
Cl 3.064031 0.006240 -15.340955
Cl -0.006240 3.076512 15.361757
Cl 3.064031 0.006240 15.361757
Cl -0.006240 9.217054 -15.340955
Cl 3.064031 6.146783 -15.340955
Cl 3.064031 9.217054 12.291485
Cl -0.006240 9.217054 15.361757
Cl 3.064031 6.146783 15.361757
Cl -0.006240 12.287325 -12.270684
Cl -0.006240 15.357596 -9.200413
Cl 3.064031 15.357596 -6.130142
Cl -0.006240 15.357596 -3.059871
Cl 3.064031 15.357596 0.010401
Cl -0.006240 15.357596 3.080672
Cl 3.064031 15.357596 6.150943
Cl -0.006240 12.287325 12.291485
Cl -0.006240 15.357596 9.221214
Cl 3.064031 12.287325 9.221214
Cl 6.134302 -15.345116 -3.059871
Cl 9.204573 -15.345116 0.010401
Cl 6.134302 -15.345116 3.080672
Cl 6.134302 -9.204573 -9.200413
Cl 9.204573 -9.204573 -6.130142
Cl 9.204573 -12.274844 -3.059871
Cl 6.134302 -3.064031 -15.340955
Cl 9.204573 -3.064031 -12.270684
Cl 9.204573 -6.134302 -9.200413
Cl 6.134302 -3.064031 15.361757
Cl 6.134302 3.076512 -15.340955
Cl 9.204573 0.006240 -15.340955
Cl 9.204573 3.076512 12.291485
Cl 6.134302 3.076512 15.361757
Cl 9.204573 0.006240 15.361757
Cl 9.204573 9.217054 6.150943
Cl 6.134302 9.217054 9.221214
Cl 9.204573 6.146783 9.221214
Cl 6.134302 15.357596 -3.059871
Cl 9.204573 15.357596 0.010401
Cl 6.134302 15.357596 3.080672
Cl 9.204573 12.287325 3.080672
Cl 12.274844 -12.274844 0.010401
Cl 12.274844 -9.204573 -3.059871
Cl 15.345116 -9.204573 0.010401
Cl 12.274844 -3.064031 -9.200413
Cl 15.345116 -3.064031 -6.130142
Cl 15.345116 -3.064031 0.010401
Cl 15.345116 -6.134302 -3.059871
Cl 15.345116 -3.064031 6.150943
Cl 15.345116 -6.134302 3.080672
Cl 12.274844 0.006240 -12.270684
Cl 15.345116 3.076512 -6.130142
Cl 15.345116 0.006240 -9.200413
Cl 15.345116 3.076512 0.010401
Cl 15.345116 0.006240 -3.059871
Cl 15.345116 3.076512 6.150943
Cl 15.345116 0.006240 3.080672
Cl 12.274844 0.006240 12.291485
Cl 12.274844 3.076512 9.221214
Cl 15.345116 0.006240 9.221214
Cl 15.345116 9.217054 0.010401
Cl 15.345116 6.146783 -3.059871
Cl 12.274844 9.217054 3.080672
Cl 15.345116 6.146783 3.080672
Cl 12.274844 12.287325 0.010401
