416
CsPbCl3-Cs-Cs112Pb64Cl240-clean
Cs -11.468917 -11.386996 -5.707152
Cs -11.468917 -11.386996 5.652538
Cs -11.468917 -5.707152 -11.386996
Cs -11.468917 -5.707152 -5.707152
Cs -11.468917 -5.707152 -0.027307
Cs -11.468917 -5.707152 5.652538
Cs -11.468917 -5.707152 11.332383
Cs -11.468917 -0.027307 -5.707152
Cs -11.468917 -0.027307 -0.027307
Cs -11.468917 -0.027307 5.652538
Cs -11.468917 5.652538 -11.386996
Cs -11.468917 5.652538 -5.707152
Cs -11.468917 5.652538 -0.027307
Cs -11.468917 5.652538 5.652538
Cs -11.468917 5.652538 11.332383
Cs -11.468917 11.332383 -5.707152
Cs -11.468917 11.332383 5.652538
Cs -5.789073 -11.386996 -11.386996
Cs -5.789073 -11.386996 -5.707152
Cs -5.789073 -11.386996 -0.027307
Cs -5.789073 -11.386996 5.652538
Cs -5.789073 -11.386996 11.332383
Cs -5.789073 -5.707152 -11.386996
Cs -5.789073 -5.707152 -5.707152
Cs -5.789073 -5.707152 -0.027307
Cs -5.789073 -5.707152 5.652538
Cs -5.789073 -5.707152 11.332383
Cs -5.789073 -0.027307 -11.386996
Cs -5.789073 -0.027307 -5.707152
Cs -5.789073 -0.027307 -0.027307
Cs -5.789073 -0.027307 5.652538
Cs -5.789073 -0.027307 11.332383
Cs -5.789073 5.652538 -11.386996
Cs -5.789073 5.652538 -5.707152
Cs -5.789073 5.652538 -0.027307
Cs -5.789073 5.652538 5.652538
Cs -5.789073 5.652538 11.332383
Cs -5.789073 11.332383 -11.386996
Cs -5.789073 11.332383 -5.707152
Cs -5.789073 11.332383 -0.027307
Cs -5.789073 11.332383 5.652538
Cs -5.789073 11.332383 11.332383
Cs -0.109228 -11.386996 -5.707152
Cs -0.109228 -11.386996 -0.027307
Cs -0.109228 -11.386996 5.652538
Cs -0.109228 -11.386996 11.332383
Cs -0.109228 -5.707152 -11.386996
Cs -0.109228 -5.707152 -5.707152
Cs -0.109228 -5.707152 -0.027307
Cs -0.109228 -5.707152 5.652538
Cs -0.109228 -5.707152 11.332383
Cs -0.109228 -0.027307 -11.386996
Cs -0.109228 -0.027307 -5.707152
Cs -0.109228 -0.027307 -0.027307
Cs -0.109228 -0.027307 5.652538
Cs -0.109228 -0.027307 11.332383
Cs -0.109228 5.652538 -11.386996
Cs -0.109228 5.652538 -5.707152
Cs -0.109228 5.652538 -0.027307
Cs -0.109228 5.652538 5.652538
Cs -0.109228 5.652538 11.332383
Cs -0.109228 11.332383 -11.386996
Cs -0.109228 11.332383 -5.707152
Cs -0.109228 11.332383 -0.027307
Cs -0.109228 11.332383 5.652538
Cs -0.109228 11.332383 11.332383
Cs 5.570617 -11.386996 -11.386996
Cs 5.570617 -11.386996 -5.707152
Cs 5.570617 -11.386996 -0.027307
Cs 5.570617 -11.386996 5.652538
Cs 5.570617 -11.386996 11.332383
Cs 5.570617 -5.707152 -11.386996
Cs 5.570617 -5.707152 -5.707152
Cs 5.570617 -5.707152 -0.027307
Cs 5.570617 -5.707152 5.652538
Cs 5.570617 -5.707152 11.332383
Cs 5.570617 -0.027307 -11.386996
Cs 5.570617 -0.027307 -5.707152
Cs 5.570617 -0.027307 -0.027307
Cs 5.570617 -0.027307 5.652538
Cs 5.570617 -0.027307 11.332383
Cs 5.570617 5.652538 -11.386996
Cs 5.570617 5.652538 -5.707152
Cs 5.570617 5.652538 -0.027307
Cs 5.570617 5.652538 5.652538
Cs 5.570617 5.652538 11.332383
Cs 5.570617 11.332383 -11.386996
Cs 5.570617 11.332383 -5.707152
Cs 5.570617 11.332383 -0.027307
Cs 5.570617 11.332383 5.652538
Cs 5.570617 11.332383 11.332383
Cs 11.250462 -11.386996 -5.707152
Cs 11.250462 -11.386996 -0.027307
Cs 11.250462 -11.386996 5.652538
Cs 11.250462 -5.707152 -11.386996
Cs 11.250462 -5.707152 -5.707152
Cs 11.250462 -5.707152 -0.027307
Cs 11.250462 -5.707152 5.652538
Cs 11.250462 -5.707152 11.332383
Cs 11.250462 -0.027307 -11.386996
Cs 11.250462 -0.027307 -5.707152
Cs 11.250462 -0.027307 -0.027307
Cs 11.250462 -0.027307 5.652538
Cs 11.250462 -0.027307 11.332383
Cs 11.250462 5.652538 -11.386996
Cs 11.250462 5.652538 -5.707152
Cs 11.250462 5.652538 -0.027307
Cs 11.250462 5.652538 5.652538
Cs 11.250462 5.652538 11.332383
Cs 11.250462 11.332383 -5.707152
Cs 11.250462 11.332383 -0.027307
Cs 11.250462 11.332383 5.652538
Pb -8.628995 -8.547074 -8.547074
Pb -8.628995 -8.547074 -2.867229
Pb -8.628995 -8.547074 2.812615
Pb -8.628995 -8.547074 8.492460
Pb -8.628995 -2.867229 -8.547074
Pb -8.628995 -2.867229 -2.867229
Pb -8.628995 -2.867229 2.812615
Pb -8.628995 -2.867229 8.492460
Pb -8.628995 2.812615 -8.547074
Pb -8.628995 2.812615 -2.867229
Pb -8.628995 2.812615 2.812615
Pb -8.628995 2.812615 8.492460
Pb -8.628995 8.492460 -8.547074
Pb -8.628995 8.492460 -2.867229
Pb -8.628995 8.492460 2.812615
Pb -8.628995 8.492460 8.492460
Pb -2.949150 -8.547074 -8.547074
Pb -2.949150 -8.547074 -2.867229
Pb -2.949150 -8.547074 2.812615
Pb -2.949150 -8.547074 8.492460
Pb -2.949150 -2.867229 -8.547074
Pb -2.949150 -2.867229 -2.867229
Pb -2.949150 -2.867229 2.812615
Pb -2.949150 -2.867229 8.492460
Pb -2.949150 2.812615 -8.547074
Pb -2.949150 2.812615 -2.867229
Pb -2.949150 2.812615 2.812615
Pb -2.949150 2.812615 8.492460
Pb -2.949150 8.492460 -8.547074
Pb -2.949150 8.492460 -2.867229
Pb -2.949150 8.492460 2.812615
Pb -2.949150 8.492460 8.492460
Pb 2.730695 -8.547074 -8.547074
Pb 2.730695 -8.547074 -2.867229
Pb 2.730695 -8.547074 2.812615
Pb 2.730695 -8.547074 8.492460
Pb 2.730695 -2.867229 -8.547074
Pb 2.730695 -2.867229 -2.867229
Pb 2.730695 -2.867229 2.812615
Pb 2.730695 -2.867229 8.492460
Pb 2.730695 2.812615 -8.547074
Pb 2.730695 2.812615 -2.867229
Pb 2.730695 2.812615 2.812615
Pb 2.730695 2.812615 8.492460
Pb 2.730695 8.492460 -8.547074
Pb 2.730695 8.492460 -2.867229
Pb 2.730695 8.492460 2.812615
Pb 2.730695 8.492460 8.492460
Pb 8.410539 -8.547074 -8.547074
Pb 8.410539 -8.547074 -2.867229
Pb 8.410539 -8.547074 2.812615
Pb 8.410539 -8.547074 8.492460
Pb 8.410539 -2.867229 -8.547074
Pb 8.410539 -2.867229 -2.867229
Pb 8.410539 -2.867229 2.812615
Pb 8.410539 -2.867229 8.492460
Pb 8.410539 2.812615 -8.547074
Pb 8.410539 2.812615 -2.867229
Pb 8.410539 2.812615 2.812615
Pb 8.410539 2.812615 8.492460
Pb 8.410539 8.492460 -8.547074
Pb 8.410539 8.492460 -2.867229
Pb 8.410539 8.492460 2.812615
Pb 8.410539 8.492460 8.492460
Cl -11.468917 -8.547074 -8.547074
Cl -8.628995 -11.386996 -8.547074
Cl -8.628995 -8.547074 -11.386996
Cl -11.468917 -8.547074 -2.867229
Cl -8.628995 -11.386996 -2.867229
Cl -8.628995 -8.547074 -5.707152
Cl -11.468917 -8.547074 2.812615
Cl -8.628995 -11.386996 2.812615
Cl -8.628995 -8.547074 -0.027307
Cl -11.468917 -8.547074 8.492460
Cl -8.628995 -11.386996 8.492460
Cl -8.628995 -8.547074 5.652538
Cl -8.628995 -8.547074 11.332383
Cl -11.468917 -2.867229 -8.547074
Cl -8.628995 -5.707152 -8.547074
Cl -8.628995 -2.867229 -11.386996
Cl -11.468917 -2.867229 -2.867229
Cl -8.628995 -5.707152 -2.867229
Cl -8.628995 -2.867229 -5.707152
Cl -11.468917 -2.867229 2.812615
Cl -8.628995 -5.707152 2.812615
Cl -8.628995 -2.867229 -0.027307
Cl -11.468917 -2.867229 8.492460
Cl -8.628995 -5.707152 8.492460
Cl -8.628995 -2.867229 5.652538
Cl -8.628995 -2.867229 11.332383
Cl -11.468917 2.812615 -8.547074
Cl -8.628995 -0.027307 -8.547074
Cl -8.628995 2.812615 -11.386996
Cl -11.468917 2.812615 -2.867229
Cl -8.628995 -0.027307 -2.867229
Cl -8.628995 2.812615 -5.707152
Cl -11.468917 2.812615 2.812615
Cl -8.628995 -0.027307 2.812615
Cl -8.628995 2.812615 -0.027307
Cl -11.468917 2.812615 8.492460
Cl -8.628995 -0.027307 8.492460
Cl -8.628995 2.812615 5.652538
Cl -8.628995 2.812615 11.332383
Cl -11.468917 8.492460 -8.547074
Cl -8.628995 5.652538 -8.547074
Cl -8.628995 8.492460 -11.386996
Cl -11.468917 8.492460 -2.867229
Cl -8.628995 5.652538 -2.867229
Cl -8.628995 8.492460 -5.707152
Cl -11.468917 8.492460 2.812615
Cl -8.628995 5.652538 2.812615
Cl -8.628995 8.492460 -0.027307
Cl -11.468917 8.492460 8.492460
Cl -8.628995 5.652538 8.492460
Cl -8.628995 8.492460 5.652538
Cl -8.628995 8.492460 11.332383
Cl -8.628995 11.332383 -8.547074
Cl -8.628995 11.332383 -2.867229
Cl -8.628995 11.332383 2.812615
Cl -8.628995 11.332383 8.492460
Cl -5.789073 -8.547074 -8.547074
Cl -2.949150 -11.386996 -8.547074
Cl -2.949150 -8.547074 -11.386996
Cl -5.789073 -8.547074 -2.867229
Cl -2.949150 -11.386996 -2.867229
Cl -2.949150 -8.547074 -5.707152
Cl -5.789073 -8.547074 2.812615
Cl -2.949150 -11.386996 2.812615
Cl -2.949150 -8.547074 -0.027307
Cl -5.789073 -8.547074 8.492460
Cl -2.949150 -11.386996 8.492460
Cl -2.949150 -8.547074 5.652538
Cl -2.949150 -8.547074 11.332383
Cl -5.789073 -2.867229 -8.547074
Cl -2.949150 -5.707152 -8.547074
Cl -2.949150 -2.867229 -11.386996
Cl -5.789073 -2.867229 -2.867229
Cl -2.949150 -5.707152 -2.867229
Cl -2.949150 -2.867229 -5.707152
Cl -5.789073 -2.867229 2.812615
Cl -2.949150 -5.707152 2.812615
Cl -2.949150 -2.867229 -0.027307
Cl -5.789073 -2.867229 8.492460
Cl -2.949150 -5.707152 8.492460
Cl -2.949150 -2.867229 5.652538
Cl -2.949150 -2.867229 11.332383
Cl -5.789073 2.812615 -8.547074
Cl -2.949150 -0.027307 -8.547074
Cl -2.949150 2.812615 -11.386996
Cl -5.789073 2.812615 -2.867229
Cl -2.949150 -0.027307 -2.867229
Cl -2.949150 2.812615 -5.707152
Cl -5.789073 2.812615 2.812615
Cl -2.949150 -0.027307 2.812615
Cl -2.949150 2.812615 -0.027307
Cl -5.789073 2.812615 8.492460
Cl -2.949150 -0.027307 8.492460
Cl -2.949150 2.812615 5.652538
Cl -2.949150 2.812615 11.332383
Cl -5.789073 8.492460 -8.547074
Cl -2.949150 5.652538 -8.547074
Cl -2.949150 8.492460 -11.386996
Cl -5.789073 8.492460 -2.867229
Cl -2.949150 5.652538 -2.867229
Cl -2.949150 8.492460 -5.707152
Cl -5.789073 8.492460 2.812615
Cl -2.949150 5.652538 2.812615
Cl -2.949150 8.492460 -0.027307
Cl -5.789073 8.492460 8.492460
Cl -2.949150 5.652538 8.492460
Cl -2.949150 8.492460 5.652538
Cl -2.949150 8.492460 11.332383
Cl -2.949150 11.332383 -8.547074
Cl -2.949150 11.332383 -2.867229
Cl -2.949150 11.332383 2.812615
Cl -2.949150 11.332383 8.492460
Cl -0.109228 -8.547074 -8.547074
Cl 2.730695 -11.386996 -8.547074
Cl 2.730695 -8.547074 -11.386996
Cl -0.109228 -8.547074 -2.867229
Cl 2.730695 -11.386996 -2.867229
Cl 2.730695 -8.547074 -5.707152
Cl -0.109228 -8.547074 2.812615
Cl 2.730695 -11.386996 2.812615
Cl 2.730695 -8.547074 -0.027307
Cl -0.109228 -8.547074 8.492460
Cl 2.730695 -11.386996 8.492460
Cl 2.730695 -8.547074 5.652538
Cl 2.730695 -8.547074 11.332383
Cl -0.109228 -2.867229 -8.547074
Cl 2.730695 -5.707152 -8.547074
Cl 2.730695 -2.867229 -11.386996
Cl -0.109228 -2.867229 -2.867229
Cl 2.730695 -5.707152 -2.867229
Cl 2.730695 -2.867229 -5.707152
Cl -0.109228 -2.867229 2.812615
Cl 2.730695 -5.707152 2.812615
Cl 2.730695 -2.867229 -0.027307
Cl -0.109228 -2.867229 8.492460
Cl 2.730695 -5.707152 8.492460
Cl 2.730695 -2.867229 5.652538
Cl 2.730695 -2.867229 11.332383
Cl -0.109228 2.812615 -8.547074
Cl 2.730695 -0.027307 -8.547074
Cl 2.730695 2.812615 -11.386996
Cl -0.109228 2.812615 -2.867229
Cl 2.730695 -0.027307 -2.867229
Cl 2.730695 2.812615 -5.707152
Cl -0.109228 2.812615 2.812615
Cl 2.730695 -0.027307 2.812615
Cl 2.730695 2.812615 -0.027307
Cl -0.109228 2.812615 8.492460
Cl 2.730695 -0.027307 8.492460
Cl 2.730695 2.812615 5.652538
Cl 2.730695 2.812615 11.332383
Cl -0.109228 8.492460 -8.547074
Cl 2.730695 5.652538 -8.547074
Cl 2.730695 8.492460 -11.386996
Cl -0.109228 8.492460 -2.867229
Cl 2.730695 5.652538 -2.867229
Cl 2.730695 8.492460 -5.707152
Cl -0.109228 8.492460 2.812615
Cl 2.730695 5.652538 2.812615
Cl 2.730695 8.492460 -0.027307
Cl -0.109228 8.492460 8.492460
Cl 2.730695 5.652538 8.492460
Cl 2.730695 8.492460 5.652538
Cl 2.730695 8.492460 11.332383
Cl 2.730695 11.332383 -8.547074
Cl 2.730695 11.332383 -2.867229
Cl 2.730695 11.332383 2.812615
Cl 2.730695 11.332383 8.492460
Cl 5.570617 -8.547074 -8.547074
Cl 8.410539 -11.386996 -8.547074
Cl 8.410539 -8.547074 -11.386996
Cl 5.570617 -8.547074 -2.867229
Cl 8.410539 -11.386996 -2.867229
Cl 8.410539 -8.547074 -5.707152
Cl 5.570617 -8.547074 2.812615
Cl 8.410539 -11.386996 2.812615
Cl 8.410539 -8.547074 -0.027307
Cl 5.570617 -8.547074 8.492460
Cl 8.410539 -11.386996 8.492460
Cl 8.410539 -8.547074 5.652538
Cl 8.410539 -8.547074 11.332383
Cl 5.570617 -2.867229 -8.547074
Cl 8.410539 -5.707152 -8.547074
Cl 8.410539 -2.867229 -11.386996
Cl 5.570617 -2.867229 -2.867229
Cl 8.410539 -5.707152 -2.867229
Cl 8.410539 -2.867229 -5.707152
Cl 5.570617 -2.867229 2.812615
Cl 8.410539 -5.707152 2.812615
Cl 8.410539 -2.867229 -0.027307
Cl 5.570617 -2.867229 8.492460
Cl 8.410539 -5.707152 8.492460
Cl 8.410539 -2.867229 5.652538
Cl 8.410539 -2.867229 11.332383
Cl 5.570617 2.812615 -8.547074
Cl 8.410539 -0.027307 -8.547074
Cl 8.410539 2.812615 -11.386996
Cl 5.570617 2.812615 -2.867229
Cl 8.410539 -0.027307 -2.867229
Cl 8.410539 2.812615 -5.707152
Cl 5.570617 2.812615 2.812615
Cl 8.410539 -0.027307 2.812615
Cl 8.410539 2.812615 -0.027307
Cl 5.570617 2.812615 8.492460
Cl 8.410539 -0.027307 8.492460
Cl 8.410539 2.812615 5.652538
Cl 8.410539 2.812615 11.332383
Cl 5.570617 8.492460 -8.547074
Cl 8.410539 5.652538 -8.547074
Cl 8.410539 8.492460 -11.386996
Cl 5.570617 8.492460 -2.867229
Cl 8.410539 5.652538 -2.867229
Cl 8.410539 8.492460 -5.707152
Cl 5.570617 8.492460 2.812615
Cl 8.410539 5.652538 2.812615
Cl 8.410539 8.492460 -0.027307
Cl 5.570617 8.492460 8.492460
Cl 8.410539 5.652538 8.492460
Cl 8.410539 8.492460 5.652538
Cl 8.410539 8.492460 11.332383
Cl 8.410539 11.332383 -8.547074
Cl 8.410539 11.332383 -2.867229
Cl 8.410539 11.332383 2.812615
Cl 8.410539 11.332383 8.492460
Cl 11.250462 -8.547074 -8.547074
Cl 11.250462 -8.547074 -2.867229
Cl 11.250462 -8.547074 2.812615
Cl 11.250462 -8.547074 8.492460
Cl 11.250462 -2.867229 -8.547074
Cl 11.250462 -2.867229 -2.867229
Cl 11.250462 -2.867229 2.812615
Cl 11.250462 -2.867229 8.492460
Cl 11.250462 2.812615 -8.547074
Cl 11.250462 2.812615 -2.867229
Cl 11.250462 2.812615 2.812615
Cl 11.250462 2.812615 8.492460
Cl 11.250462 8.492460 -8.547074
Cl 11.250462 8.492460 -2.867229
Cl 11.250462 8.492460 2.812615
Cl 11.250462 8.492460 8.492460
