378
CdSe-Se-Cd181Se165Cl32-clean
Cd -8.686422 -7.597341 -10.157654
Cd -8.686422 -7.597341 -3.067815
Cd -6.513379 -8.851947 -6.612734
Cd -8.686422 -7.597341 4.022025
Cd -6.513379 -8.851947 0.477105
Cd -6.513379 -8.851947 7.566945
Cd -10.859464 -3.833520 -10.157654
Cd -10.859464 -3.833520 -3.067815
Cd -8.686422 -5.088127 -6.612734
Cd -10.859464 -3.833520 4.022025
Cd -8.686422 -5.088127 0.477105
Cd -8.686422 -5.088127 7.566945
Cd -13.032507 -0.069700 -3.067815
Cd -10.859464 -1.324307 -6.612734
Cd -13.032507 -0.069700 4.022025
Cd -10.859464 -1.324307 0.477105
Cd -10.859464 -1.324307 7.566945
Cd -4.340336 -7.597341 -10.157654
Cd -4.340336 -7.597341 -3.067815
Cd -2.167294 -8.851947 -6.612734
Cd -4.340336 -7.597341 4.022025
Cd -2.167294 -8.851947 0.477105
Cd -4.340336 -7.597341 11.111865
Cd -2.167294 -8.851947 7.566945
Cd -6.513379 -3.833520 -10.157654
Cd -6.513379 -3.833520 -3.067815
Cd -4.340336 -5.088127 -6.612734
Cd -6.513379 -3.833520 4.022025
Cd -4.340336 -5.088127 0.477105
Cd -6.513379 -3.833520 11.111865
Cd -4.340336 -5.088127 7.566945
Cd -8.686422 -0.069700 -10.157654
Cd -8.686422 -0.069700 -3.067815
Cd -6.513379 -1.324307 -6.612734
Cd -8.686422 -0.069700 4.022025
Cd -6.513379 -1.324307 0.477105
Cd -8.686422 -0.069700 11.111865
Cd -6.513379 -1.324307 7.566945
Cd -8.686422 2.439514 -6.612734
Cd -8.686422 2.439514 0.477105
Cd -8.686422 2.439514 7.566945
Cd 0.005749 -7.597341 -10.157654
Cd 0.005749 -7.597341 -3.067815
Cd 2.178792 -8.851947 -6.612734
Cd 0.005749 -7.597341 4.022025
Cd 2.178792 -8.851947 0.477105
Cd 0.005749 -7.597341 11.111865
Cd 2.178792 -8.851947 7.566945
Cd -2.167294 -3.833520 -10.157654
Cd -2.167294 -3.833520 -3.067815
Cd 0.005749 -5.088127 -6.612734
Cd -2.167294 -3.833520 4.022025
Cd 0.005749 -5.088127 0.477105
Cd -2.167294 -3.833520 11.111865
Cd 0.005749 -5.088127 7.566945
Cd -4.340336 -0.069700 -10.157654
Cd -4.340336 -0.069700 -3.067815
Cd -2.167294 -1.324307 -6.612734
Cd -4.340336 -0.069700 4.022025
Cd -2.167294 -1.324307 0.477105
Cd -4.340336 -0.069700 11.111865
Cd -2.167294 -1.324307 7.566945
Cd -6.513379 3.694120 -10.157654
Cd -6.513379 3.694120 -3.067815
Cd -4.340336 2.439514 -6.612734
Cd -6.513379 3.694120 4.022025
Cd -4.340336 2.439514 0.477105
Cd -6.513379 3.694120 11.111865
Cd -4.340336 2.439514 7.566945
Cd -6.513379 6.203334 -6.612734
Cd -6.513379 6.203334 0.477105
Cd -6.513379 6.203334 7.566945
Cd 4.351834 -7.597341 -10.157654
Cd 4.351834 -7.597341 -3.067815
Cd 6.524877 -8.851947 -6.612734
Cd 4.351834 -7.597341 4.022025
Cd 6.524877 -8.851947 0.477105
Cd 4.351834 -7.597341 11.111865
Cd 6.524877 -8.851947 7.566945
Cd 2.178792 -3.833520 -10.157654
Cd 2.178792 -3.833520 -3.067815
Cd 4.351834 -5.088127 -6.612734
Cd 2.178792 -3.833520 4.022025
Cd 4.351834 -5.088127 0.477105
Cd 2.178792 -3.833520 11.111865
Cd 4.351834 -5.088127 7.566945
Cd 0.005749 -0.069700 -10.157654
Cd 0.005749 -0.069700 -3.067815
Cd 2.178792 -1.324307 -6.612734
Cd 0.005749 -0.069700 4.022025
Cd 2.178792 -1.324307 0.477105
Cd 0.005749 -0.069700 11.111865
Cd 2.178792 -1.324307 7.566945
Cd -2.167294 3.694120 -10.157654
Cd -2.167294 3.694120 -3.067815
Cd 0.005749 2.439514 -6.612734
Cd -2.167294 3.694120 4.022025
Cd 0.005749 2.439514 0.477105
Cd -2.167294 3.694120 11.111865
Cd 0.005749 2.439514 7.566945
Cd -4.340336 7.457941 -10.157654
Cd -4.340336 7.457941 -3.067815
Cd -2.167294 6.203334 -6.612734
Cd -4.340336 7.457941 4.022025
Cd -2.167294 6.203334 0.477105
Cd -4.340336 7.457941 11.111865
Cd -2.167294 6.203334 7.566945
Cd -4.340336 9.967154 -6.612734
Cd -4.340336 9.967154 0.477105
Cd -4.340336 9.967154 7.566945
Cd 8.697920 -7.597341 -10.157654
Cd 8.697920 -7.597341 -3.067815
Cd 8.697920 -7.597341 4.022025
Cd 6.524877 -3.833520 -10.157654
Cd 6.524877 -3.833520 -3.067815
Cd 8.697920 -5.088127 -6.612734
Cd 6.524877 -3.833520 4.022025
Cd 8.697920 -5.088127 0.477105
Cd 6.524877 -3.833520 11.111865
Cd 8.697920 -5.088127 7.566945
Cd 4.351834 -0.069700 -10.157654
Cd 4.351834 -0.069700 -3.067815
Cd 6.524877 -1.324307 -6.612734
Cd 4.351834 -0.069700 4.022025
Cd 6.524877 -1.324307 0.477105
Cd 4.351834 -0.069700 11.111865
Cd 6.524877 -1.324307 7.566945
Cd 2.178792 3.694120 -10.157654
Cd 2.178792 3.694120 -3.067815
Cd 4.351834 2.439514 -6.612734
Cd 2.178792 3.694120 4.022025
Cd 4.351834 2.439514 0.477105
Cd 2.178792 3.694120 11.111865
Cd 4.351834 2.439514 7.566945
Cd 0.005749 7.457941 -10.157654
Cd 0.005749 7.457941 -3.067815
Cd 2.178792 6.203334 -6.612734
Cd 0.005749 7.457941 4.022025
Cd 2.178792 6.203334 0.477105
Cd 0.005749 7.457941 11.111865
Cd 2.178792 6.203334 7.566945
Cd -2.167294 11.221761 -10.157654
Cd -2.167294 11.221761 -3.067815
Cd 0.005749 9.967154 -6.612734
Cd -2.167294 11.221761 4.022025
Cd 0.005749 9.967154 0.477105
Cd -2.167294 11.221761 11.111865
Cd 0.005749 9.967154 7.566945
Cd 10.870962 -3.833520 -10.157654
Cd 10.870962 -3.833520 -3.067815
Cd 10.870962 -3.833520 4.022025
Cd 8.697920 -0.069700 -10.157654
Cd 8.697920 -0.069700 -3.067815
Cd 10.870962 -1.324307 -6.612734
Cd 8.697920 -0.069700 4.022025
Cd 10.870962 -1.324307 0.477105
Cd 8.697920 -0.069700 11.111865
Cd 10.870962 -1.324307 7.566945
Cd 6.524877 3.694120 -10.157654
Cd 6.524877 3.694120 -3.067815
Cd 8.697920 2.439514 -6.612734
Cd 6.524877 3.694120 4.022025
Cd 8.697920 2.439514 0.477105
Cd 6.524877 3.694120 11.111865
Cd 8.697920 2.439514 7.566945
Cd 4.351834 7.457941 -10.157654
Cd 4.351834 7.457941 -3.067815
Cd 6.524877 6.203334 -6.612734
Cd 4.351834 7.457941 4.022025
Cd 6.524877 6.203334 0.477105
Cd 4.351834 7.457941 11.111865
Cd 6.524877 6.203334 7.566945
Cd 2.178792 11.221761 -10.157654
Cd 2.178792 11.221761 -3.067815
Cd 4.351834 9.967154 -6.612734
Cd 2.178792 11.221761 4.022025
Cd 4.351834 9.967154 0.477105
Cd 2.178792 11.221761 11.111865
Cd 4.351834 9.967154 7.566945
Cd 13.044005 -0.069700 -3.067815
Cd 13.044005 -0.069700 4.022025
Se -8.686422 -7.597341 -7.492206
Se -6.513379 -8.851947 -3.947286
Se -8.686422 -7.597341 -0.402366
Se -6.513379 -8.851947 3.142554
Se -8.686422 -7.597341 6.687474
Se -8.686422 -5.088127 -11.037126
Se -10.859464 -3.833520 -7.492206
Se -8.686422 -5.088127 -3.947286
Se -10.859464 -3.833520 -0.402366
Se -8.686422 -5.088127 3.142554
Se -10.859464 -3.833520 6.687474
Se -10.859464 -1.324307 -3.947286
Se -10.859464 -1.324307 3.142554
Se -4.340336 -7.597341 -7.492206
Se -2.167294 -8.851947 -3.947286
Se -4.340336 -7.597341 -0.402366
Se -2.167294 -8.851947 3.142554
Se -4.340336 -7.597341 6.687474
Se -2.167294 -8.851947 10.232394
Se -4.340336 -5.088127 -11.037126
Se -6.513379 -3.833520 -7.492206
Se -4.340336 -5.088127 -3.947286
Se -6.513379 -3.833520 -0.402366
Se -4.340336 -5.088127 3.142554
Se -6.513379 -3.833520 6.687474
Se -4.340336 -5.088127 10.232394
Se -6.513379 -1.324307 -11.037126
Se -8.686422 -0.069700 -7.492206
Se -6.513379 -1.324307 -3.947286
Se -8.686422 -0.069700 -0.402366
Se -6.513379 -1.324307 3.142554
Se -8.686422 -0.069700 6.687474
Se -6.513379 -1.324307 10.232394
Se -8.686422 2.439514 -3.947286
Se -8.686422 2.439514 3.142554
Se -8.686422 2.439514 10.232394
Se 0.005749 -7.597341 -7.492206
Se 2.178792 -8.851947 -3.947286
Se 0.005749 -7.597341 -0.402366
Se 2.178792 -8.851947 3.142554
Se 0.005749 -7.597341 6.687474
Se 2.178792 -8.851947 10.232394
Se 0.005749 -5.088127 -11.037126
Se -2.167294 -3.833520 -7.492206
Se 0.005749 -5.088127 -3.947286
Se -2.167294 -3.833520 -0.402366
Se 0.005749 -5.088127 3.142554
Se -2.167294 -3.833520 6.687474
Se 0.005749 -5.088127 10.232394
Se -2.167294 -1.324307 -11.037126
Se -4.340336 -0.069700 -7.492206
Se -2.167294 -1.324307 -3.947286
Se -4.340336 -0.069700 -0.402366
Se -2.167294 -1.324307 3.142554
Se -4.340336 -0.069700 6.687474
Se -2.167294 -1.324307 10.232394
Se -4.340336 2.439514 -11.037126
Se -6.513379 3.694120 -7.492206
Se -4.340336 2.439514 -3.947286
Se -6.513379 3.694120 -0.402366
Se -4.340336 2.439514 3.142554
Se -6.513379 3.694120 6.687474
Se -4.340336 2.439514 10.232394
Se -6.513379 6.203334 -3.947286
Se -6.513379 6.203334 3.142554
Se -6.513379 6.203334 10.232394
Se 4.351834 -7.597341 -7.492206
Se 6.524877 -8.851947 -3.947286
Se 4.351834 -7.597341 -0.402366
Se 6.524877 -8.851947 3.142554
Se 4.351834 -7.597341 6.687474
Se 4.351834 -5.088127 -11.037126
Se 2.178792 -3.833520 -7.492206
Se 4.351834 -5.088127 -3.947286
Se 2.178792 -3.833520 -0.402366
Se 4.351834 -5.088127 3.142554
Se 2.178792 -3.833520 6.687474
Se 4.351834 -5.088127 10.232394
Se 2.178792 -1.324307 -11.037126
Se 0.005749 -0.069700 -7.492206
Se 2.178792 -1.324307 -3.947286
Se 0.005749 -0.069700 -0.402366
Se 2.178792 -1.324307 3.142554
Se 0.005749 -0.069700 6.687474
Se 2.178792 -1.324307 10.232394
Se 0.005749 2.439514 -11.037126
Se -2.167294 3.694120 -7.492206
Se 0.005749 2.439514 -3.947286
Se -2.167294 3.694120 -0.402366
Se 0.005749 2.439514 3.142554
Se -2.167294 3.694120 6.687474
Se 0.005749 2.439514 10.232394
Se -2.167294 6.203334 -11.037126
Se -4.340336 7.457941 -7.492206
Se -2.167294 6.203334 -3.947286
Se -4.340336 7.457941 -0.402366
Se -2.167294 6.203334 3.142554
Se -4.340336 7.457941 6.687474
Se -2.167294 6.203334 10.232394
Se -4.340336 9.967154 -3.947286
Se -4.340336 9.967154 3.142554
Se -4.340336 9.967154 10.232394
Se 8.697920 -7.597341 -7.492206
Se 8.697920 -7.597341 -0.402366
Se 8.697920 -7.597341 6.687474
Se 8.697920 -5.088127 -11.037126
Se 6.524877 -3.833520 -7.492206
Se 8.697920 -5.088127 -3.947286
Se 6.524877 -3.833520 -0.402366
Se 8.697920 -5.088127 3.142554
Se 6.524877 -3.833520 6.687474
Se 6.524877 -1.324307 -11.037126
Se 4.351834 -0.069700 -7.492206
Se 6.524877 -1.324307 -3.947286
Se 4.351834 -0.069700 -0.402366
Se 6.524877 -1.324307 3.142554
Se 4.351834 -0.069700 6.687474
Se 6.524877 -1.324307 10.232394
Se 4.351834 2.439514 -11.037126
Se 2.178792 3.694120 -7.492206
Se 4.351834 2.439514 -3.947286
Se 2.178792 3.694120 -0.402366
Se 4.351834 2.439514 3.142554
Se 2.178792 3.694120 6.687474
Se 4.351834 2.439514 10.232394
Se 2.178792 6.203334 -11.037126
Se 0.005749 7.457941 -7.492206
Se 2.178792 6.203334 -3.947286
Se 0.005749 7.457941 -0.402366
Se 2.178792 6.203334 3.142554
Se 0.005749 7.457941 6.687474
Se 2.178792 6.203334 10.232394
Se 0.005749 9.967154 -11.037126
Se -2.167294 11.221761 -7.492206
Se 0.005749 9.967154 -3.947286
Se -2.167294 11.221761 -0.402366
Se 0.005749 9.967154 3.142554
Se -2.167294 11.221761 6.687474
Se 0.005749 9.967154 10.232394
Se 10.870962 -3.833520 -7.492206
Se 10.870962 -3.833520 -0.402366
Se 10.870962 -3.833520 6.687474
Se 8.697920 -0.069700 -7.492206
Se 10.870962 -1.324307 -3.947286
Se 8.697920 -0.069700 -0.402366
Se 10.870962 -1.324307 3.142554
Se 8.697920 -0.069700 6.687474
Se 6.524877 3.694120 -7.492206
Se 8.697920 2.439514 -3.947286
Se 6.524877 3.694120 -0.402366
Se 8.697920 2.439514 3.142554
Se 6.524877 3.694120 6.687474
Se 8.697920 2.439514 10.232394
Se 4.351834 7.457941 -7.492206
Se 6.524877 6.203334 -3.947286
Se 4.351834 7.457941 -0.402366
Se 6.524877 6.203334 3.142554
Se 4.351834 7.457941 6.687474
Se 6.524877 6.203334 10.232394
Se 2.178792 11.221761 -7.492206
Se 4.351834 9.967154 -3.947286
Se 2.178792 11.221761 -0.402366
Se 4.351834 9.967154 3.142554
Se 2.178792 11.221761 6.687474
Se 4.351834 9.967154 10.232394
Cl -6.513379 -8.851947 -11.037126
Cl -6.513379 -8.851947 10.232394
Cl -8.686422 -5.088127 10.232394
Cl -10.859464 -1.324307 -11.037126
Cl -13.032507 -0.069700 -0.402366
Cl -13.032507 -0.069700 6.687474
Cl -10.859464 -1.324307 10.232394
Cl -2.167294 -8.851947 -11.037126
Cl -8.686422 2.439514 -11.037126
Cl 2.178792 -8.851947 -11.037126
Cl -6.513379 6.203334 -11.037126
Cl 6.524877 -8.851947 -11.037126
Cl 6.524877 -8.851947 10.232394
Cl -4.340336 9.967154 -11.037126
Cl 8.697920 -5.088127 10.232394
Cl 10.870962 -1.324307 -11.037126
Cl 10.870962 -1.324307 10.232394
Cl 8.697920 2.439514 -11.037126
Cl 6.524877 6.203334 -11.037126
Cl 4.351834 9.967154 -11.037126
Cl 13.044005 -0.069700 -0.402366
Cl 13.044005 -0.069700 6.687474
Cl -2.167294 13.730975 10.232394
Cl 2.178792 11.221761 13.777314
Cl -15.205550 -1.324307 -3.947286
Cl 15.217048 -1.324307 -3.947286
Cl -15.205550 -1.324307 3.142554
Cl 15.217048 -1.324307 3.142554
Cl -6.513379 -11.361161 -0.402366
Cl 2.178792 13.730975 -11.037126
Cl -4.340336 -7.597341 13.777314
Cl 6.524877 -11.361161 -7.492206
