225
CdSe-Cd-Cd95Se60Cl70-reconstructed
Cd -9.115684 -3.070271 -6.140542
Cd -9.115684 -6.140542 -3.070271
Cd -9.115684 -3.070271 -0.000000
Cd -9.115684 -0.000000 -3.070271
Cd -9.115684 3.070271 -0.000000
Cd -9.115684 -0.000000 3.070271
Cd -9.115684 3.070271 6.140542
Cd -9.115684 6.140542 3.070271
Cd -2.975141 -9.210814 -6.140542
Cd -6.045413 -9.210814 -3.070271
Cd -2.975141 -9.210814 -0.000000
Cd -2.975141 -6.140542 -9.210814
Cd -6.045413 -3.070271 -9.210814
Cd -2.975141 -3.070271 -6.140542
Cd -2.975141 -6.140542 -3.070271
Cd -6.045413 -3.070271 -3.070271
Cd -2.975141 -3.070271 -0.000000
Cd -2.975141 -6.140542 3.070271
Cd -6.045413 -3.070271 3.070271
Cd -2.975141 -0.000000 -9.210814
Cd -6.045413 -0.000000 -6.140542
Cd -2.975141 3.070271 -6.140542
Cd -2.975141 -0.000000 -3.070271
Cd -6.045413 -0.000000 -0.000000
Cd -2.975141 3.070271 0.000000
Cd -2.975141 -0.000000 3.070271
Cd -6.045413 3.070271 3.070271
Cd -6.045413 -0.000000 6.140542
Cd -2.975141 3.070271 6.140542
Cd -2.975141 -0.000000 9.210814
Cd -6.045413 3.070271 9.210814
Cd -2.975141 6.140542 -3.070271
Cd -6.045413 6.140542 0.000000
Cd -2.975141 9.210814 0.000000
Cd -2.975141 6.140542 3.070271
Cd -6.045413 9.210814 3.070271
Cd -2.975141 9.210814 6.140542
Cd -2.975141 6.140542 9.210814
Cd 0.095130 -9.210814 -3.070271
Cd 3.165401 -9.210814 -0.000000
Cd 0.095130 -9.210814 3.070271
Cd 3.165401 -9.210814 6.140542
Cd 0.095130 -3.070271 -9.210814
Cd 0.095130 -6.140542 -6.140542
Cd 3.165401 -6.140542 -3.070271
Cd 0.095130 -3.070271 -3.070271
Cd 0.095130 -6.140542 -0.000000
Cd 3.165401 -3.070271 0.000000
Cd 3.165401 -6.140542 3.070271
Cd 0.095130 -3.070271 3.070271
Cd 0.095130 -6.140542 6.140542
Cd 3.165401 -3.070271 6.140542
Cd 3.165401 -6.140542 9.210814
Cd 0.095130 -3.070271 9.210814
Cd 3.165401 -0.000000 -9.210814
Cd 0.095130 3.070271 -9.210814
Cd 0.095130 -0.000000 -6.140542
Cd 3.165401 3.070271 -6.140542
Cd 3.165401 -0.000000 -3.070271
Cd 0.095130 3.070271 -3.070271
Cd 0.095130 -0.000000 0.000000
Cd 3.165401 3.070271 0.000000
Cd 3.165401 -0.000000 3.070271
Cd 0.095130 3.070271 3.070271
Cd 0.095130 -0.000000 6.140542
Cd 3.165401 3.070271 6.140542
Cd 3.165401 -0.000000 9.210814
Cd 0.095130 3.070271 9.210814
Cd 3.165401 6.140542 -9.210814
Cd 3.165401 9.210814 -6.140542
Cd 3.165401 6.140542 -3.070271
Cd 0.095130 9.210814 -3.070271
Cd 0.095130 6.140542 0.000000
Cd 3.165401 9.210814 0.000000
Cd 3.165401 6.140542 3.070271
Cd 0.095130 9.210814 3.070271
Cd 6.235672 -9.210814 3.070271
Cd 6.235672 -3.070271 -3.070271
Cd 9.305943 -3.070271 0.000000
Cd 9.305943 -6.140542 3.070271
Cd 6.235672 -3.070271 3.070271
Cd 9.305943 -3.070271 6.140542
Cd 6.235672 -3.070271 9.210814
Cd 6.235672 3.070271 -9.210814
Cd 6.235672 -0.000000 -6.140542
Cd 9.305943 3.070271 -6.140542
Cd 9.305943 -0.000000 -3.070271
Cd 6.235672 3.070271 -3.070271
Cd 6.235672 -0.000000 0.000000
Cd 9.305943 3.070271 0.000000
Cd 9.305943 -0.000000 3.070271
Cd 6.235672 -0.000000 6.140542
Cd 9.305943 6.140542 -3.070271
Cd 6.235672 9.210814 -3.070271
Cd 6.235672 6.140542 0.000000
Se -7.580548 -1.535136 -1.535136
Se -7.580548 -4.605407 -4.605407
Se -7.580548 -1.535136 4.605407
Se -7.580548 4.605407 4.605407
Se -7.580548 1.535136 1.535136
Se -4.510277 -7.675678 -4.605407
Se -1.440006 -7.675678 -1.535136
Se -1.440006 -7.675678 4.605407
Se -4.510277 -4.605407 -7.675678
Se -1.440006 -1.535136 -7.675678
Se -4.510277 -4.605407 -1.535136
Se -4.510277 -1.535136 -4.605407
Se -1.440006 -1.535136 -1.535136
Se -1.440006 -4.605407 -4.605407
Se -4.510277 -1.535136 1.535136
Se -1.440006 -1.535136 4.605407
Se -1.440006 -4.605407 1.535136
Se -4.510277 1.535136 -7.675678
Se -4.510277 1.535136 -1.535136
Se -1.440006 4.605407 -1.535136
Se -1.440006 1.535136 -4.605407
Se -4.510277 1.535136 4.605407
Se -4.510277 4.605407 1.535136
Se -1.440006 4.605407 4.605407
Se -1.440006 1.535136 1.535136
Se -4.510277 4.605407 7.675678
Se -1.440006 1.535136 7.675678
Se -4.510277 7.675678 -1.535136
Se -4.510277 7.675678 4.605407
Se -1.440006 7.675678 1.535136
Se 1.630265 -7.675678 -4.605407
Se 1.630265 -7.675678 1.535136
Se 4.700537 -7.675678 4.605407
Se 1.630265 -4.605407 -1.535136
Se 1.630265 -1.535136 -4.605407
Se 4.700537 -1.535136 -1.535136
Se 1.630265 -4.605407 4.605407
Se 1.630265 -1.535136 1.535136
Se 4.700537 -1.535136 4.605407
Se 4.700537 -4.605407 1.535136
Se 1.630265 -1.535136 7.675678
Se 4.700537 -4.605407 7.675678
Se 1.630265 1.535136 -7.675678
Se 4.700537 4.605407 -7.675678
Se 1.630265 1.535136 -1.535136
Se 1.630265 4.605407 -4.605407
Se 4.700537 4.605407 -1.535136
Se 4.700537 1.535136 -4.605407
Se 1.630265 1.535136 4.605407
Se 1.630265 4.605407 1.535136
Se 4.700537 1.535136 1.535136
Se 4.700537 1.535136 7.675678
Se 1.630265 7.675678 -1.535136
Se 4.700537 7.675678 -4.605407
Se 4.700537 7.675678 1.535136
Se 7.770808 -4.605407 4.605407
Se 7.770808 -1.535136 1.535136
Se 7.770808 1.535136 -7.675678
Se 7.770808 1.535136 -1.535136
Se 7.770808 4.605407 -4.605407
Cl -7.580548 -7.675678 -1.535136
Cl -7.580548 -1.535136 -7.675678
Cl -10.650819 -4.605407 -1.535136
Cl -10.650819 -1.535136 -4.605407
Cl -10.650819 -1.535136 1.535136
Cl -7.580548 -4.605407 1.535136
Cl -10.650819 1.535136 -1.535136
Cl -7.580548 4.605407 -1.535136
Cl -7.580548 1.535136 -4.605407
Cl -10.650819 1.535136 4.605407
Cl -10.650819 4.605407 1.535136
Cl -7.580548 1.535136 7.675678
Cl -7.580548 7.675678 1.535136
Cl -1.440006 -7.675678 -7.675678
Cl -4.510277 -10.745949 -1.535136
Cl -1.440006 -10.745949 -4.605407
Cl -4.510277 -7.675678 1.535136
Cl -1.440006 -10.745949 1.535136
Cl -4.510277 -1.535136 -10.745949
Cl -1.440006 -4.605407 -10.745949
Cl -4.510277 -4.605407 4.605407
Cl -4.510277 -1.535136 7.675678
Cl -1.440006 -1.535136 10.745949
Cl -1.440006 -4.605407 7.675678
Cl -1.440006 4.605407 -7.675678
Cl -1.440006 1.535136 -10.745949
Cl -4.510277 4.605407 -4.605407
Cl -4.510277 1.535136 10.745949
Cl -1.440006 4.605407 10.745949
Cl -1.440006 10.745949 -1.535136
Cl -1.440006 7.675678 -4.605407
Cl -4.510277 10.745949 1.535136
Cl -1.440006 10.745949 4.605407
Cl -1.440006 7.675678 7.675678
Cl 1.630265 -10.745949 -1.535136
Cl 4.700537 -7.675678 -1.535136
Cl 1.630265 -10.745949 4.605407
Cl 4.700537 -10.745949 1.535136
Cl 1.630265 -7.675678 7.675678
Cl 1.630265 -4.605407 -7.675678
Cl 1.630265 -1.535136 -10.745949
Cl 4.700537 -1.535136 -7.675678
Cl 4.700537 -4.605407 -4.605407
Cl 1.630265 -4.605407 10.745949
Cl 4.700537 -1.535136 10.745949
Cl 1.630265 4.605407 -10.745949
Cl 4.700537 1.535136 -10.745949
Cl 4.700537 4.605407 4.605407
Cl 1.630265 1.535136 10.745949
Cl 1.630265 4.605407 7.675678
Cl 1.630265 7.675678 -7.675678
Cl 1.630265 10.745949 -4.605407
Cl 4.700537 10.745949 -1.535136
Cl 1.630265 7.675678 4.605407
Cl 1.630265 10.745949 1.535136
Cl 7.770808 -7.675678 1.535136
Cl 7.770808 -4.605407 -1.535136
Cl 7.770808 -1.535136 -4.605407
Cl 10.841079 -1.535136 -1.535136
Cl 10.841079 -1.535136 4.605407
Cl 10.841079 -4.605407 1.535136
Cl 7.770808 -1.535136 7.675678
Cl 10.841079 4.605407 -1.535136
Cl 10.841079 1.535136 -4.605407
Cl 7.770808 1.535136 4.605407
Cl 7.770808 4.605407 1.535136
Cl 10.841079 1.535136 1.535136
Cl 7.770808 7.675678 -1.535136
Cl -10.606979 -4.561567 -7.631838
Cl -10.606979 4.561567 7.631838
