960
InAs-In-In439As398Cl123-clean
In -15.250314 -15.250314 12.199933
In -15.250314 -9.143191 6.092810
In -18.303876 -12.196752 12.199933
In -18.303876 -9.143191 9.146371
In -15.250314 -9.143191 12.199933
In -15.250314 -12.196752 9.146371
In -15.250314 -12.196752 15.253495
In -15.250314 -3.036067 -0.014314
In -18.303876 -6.089629 6.092810
In -18.303876 -3.036067 3.039248
In -15.250314 -3.036067 6.092810
In -15.250314 -6.089629 3.039248
In -15.250314 -6.089629 9.146371
In -15.250314 3.071056 -6.121437
In -18.303876 0.017494 -0.014314
In -18.303876 3.071056 -3.067875
In -15.250314 3.071056 -0.014314
In -15.250314 0.017494 -3.067875
In -15.250314 0.017494 3.039248
In -15.250314 9.178179 -12.228560
In -18.303876 6.124618 -6.121437
In -18.303876 9.178179 -9.174999
In -15.250314 9.178179 -6.121437
In -15.250314 6.124618 -9.174999
In -15.250314 6.124618 -3.067875
In -18.303876 12.231741 -12.228560
In -15.250314 15.285303 -12.228560
In -15.250314 12.231741 -15.282122
In -15.250314 12.231741 -9.174999
In -9.143191 -15.250314 6.092810
In -12.196752 -18.303876 12.199933
In -12.196752 -15.250314 9.146371
In -9.143191 -15.250314 12.199933
In -9.143191 -18.303876 9.146371
In -12.196752 -15.250314 15.253495
In -9.143191 -9.143191 -0.014314
In -12.196752 -12.196752 6.092810
In -12.196752 -9.143191 3.039248
In -9.143191 -9.143191 6.092810
In -9.143191 -12.196752 3.039248
In -12.196752 -12.196752 12.199933
In -12.196752 -9.143191 9.146371
In -9.143191 -9.143191 12.199933
In -9.143191 -12.196752 9.146371
In -12.196752 -12.196752 18.307056
In -12.196752 -9.143191 15.253495
In -9.143191 -9.143191 18.307056
In -9.143191 -12.196752 15.253495
In -9.143191 -3.036067 -6.121437
In -12.196752 -6.089629 -0.014314
In -12.196752 -3.036067 -3.067875
In -9.143191 -3.036067 -0.014314
In -9.143191 -6.089629 -3.067875
In -12.196752 -6.089629 6.092810
In -12.196752 -3.036067 3.039248
In -9.143191 -3.036067 6.092810
In -9.143191 -6.089629 3.039248
In -12.196752 -6.089629 12.199933
In -12.196752 -3.036067 9.146371
In -9.143191 -3.036067 12.199933
In -9.143191 -6.089629 9.146371
In -9.143191 -6.089629 15.253495
In -9.143191 3.071056 -12.228560
In -12.196752 0.017494 -6.121437
In -12.196752 3.071056 -9.174999
In -9.143191 3.071056 -6.121437
In -9.143191 0.017494 -9.174999
In -12.196752 0.017494 -0.014314
In -12.196752 3.071056 -3.067875
In -9.143191 3.071056 -0.014314
In -9.143191 0.017494 -3.067875
In -12.196752 0.017494 6.092810
In -12.196752 3.071056 3.039248
In -9.143191 3.071056 6.092810
In -9.143191 0.017494 3.039248
In -9.143191 0.017494 9.146371
In -9.143191 9.178179 -18.335684
In -12.196752 6.124618 -12.228560
In -12.196752 9.178179 -15.282122
In -9.143191 9.178179 -12.228560
In -9.143191 6.124618 -15.282122
In -12.196752 6.124618 -6.121437
In -12.196752 9.178179 -9.174999
In -9.143191 9.178179 -6.121437
In -9.143191 6.124618 -9.174999
In -12.196752 6.124618 -0.014314
In -12.196752 9.178179 -3.067875
In -9.143191 9.178179 -0.014314
In -9.143191 6.124618 -3.067875
In -9.143191 6.124618 3.039248
In -12.196752 12.231741 -18.335684
In -12.196752 12.231741 -12.228560
In -12.196752 15.285303 -15.282122
In -9.143191 15.285303 -12.228560
In -9.143191 12.231741 -15.282122
In -12.196752 12.231741 -6.121437
In -12.196752 15.285303 -9.174999
In -9.143191 15.285303 -6.121437
In -9.143191 12.231741 -9.174999
In -9.143191 12.231741 -3.067875
In -12.196752 18.338864 -12.228560
In -9.143191 18.338864 -9.174999
In -3.036067 -15.250314 -0.014314
In -6.089629 -18.303876 6.092810
In -6.089629 -15.250314 3.039248
In -3.036067 -15.250314 6.092810
In -3.036067 -18.303876 3.039248
In -6.089629 -15.250314 9.146371
In -3.036067 -9.143191 -6.121437
In -6.089629 -12.196752 -0.014314
In -6.089629 -9.143191 -3.067875
In -3.036067 -9.143191 -0.014314
In -3.036067 -12.196752 -3.067875
In -6.089629 -12.196752 6.092810
In -6.089629 -9.143191 3.039248
In -3.036067 -9.143191 6.092810
In -3.036067 -12.196752 3.039248
In -6.089629 -12.196752 12.199933
In -6.089629 -9.143191 9.146371
In -3.036067 -9.143191 12.199933
In -3.036067 -12.196752 9.146371
In -6.089629 -9.143191 15.253495
In -3.036067 -3.036067 -12.228560
In -6.089629 -6.089629 -6.121437
In -6.089629 -3.036067 -9.174999
In -3.036067 -3.036067 -6.121437
In -3.036067 -6.089629 -9.174999
In -6.089629 -6.089629 -0.014314
In -6.089629 -3.036067 -3.067875
In -3.036067 -3.036067 -0.014314
In -3.036067 -6.089629 -3.067875
In -6.089629 -6.089629 6.092810
In -6.089629 -3.036067 3.039248
In -3.036067 -3.036067 6.092810
In -3.036067 -6.089629 3.039248
In -6.089629 -6.089629 12.199933
In -6.089629 -3.036067 9.146371
In -3.036067 -3.036067 12.199933
In -3.036067 -6.089629 9.146371
In -6.089629 -6.089629 18.307056
In -6.089629 -3.036067 15.253495
In -3.036067 -3.036067 18.307056
In -3.036067 -6.089629 15.253495
In -3.036067 3.071056 -18.335684
In -6.089629 0.017494 -12.228560
In -6.089629 3.071056 -15.282122
In -3.036067 3.071056 -12.228560
In -3.036067 0.017494 -15.282122
In -6.089629 0.017494 -6.121437
In -6.089629 3.071056 -9.174999
In -3.036067 3.071056 -6.121437
In -3.036067 0.017494 -9.174999
In -6.089629 0.017494 -0.014314
In -6.089629 3.071056 -3.067875
In -3.036067 3.071056 -0.014314
In -3.036067 0.017494 -3.067875
In -6.089629 0.017494 6.092810
In -6.089629 3.071056 3.039248
In -3.036067 3.071056 6.092810
In -3.036067 0.017494 3.039248
In -6.089629 0.017494 12.199933
In -6.089629 3.071056 9.146371
In -3.036067 3.071056 12.199933
In -3.036067 0.017494 9.146371
In -3.036067 0.017494 15.253495
In -6.089629 6.124618 -18.335684
In -6.089629 6.124618 -12.228560
In -6.089629 9.178179 -15.282122
In -3.036067 9.178179 -12.228560
In -3.036067 6.124618 -15.282122
In -6.089629 6.124618 -6.121437
In -6.089629 9.178179 -9.174999
In -3.036067 9.178179 -6.121437
In -3.036067 6.124618 -9.174999
In -6.089629 6.124618 -0.014314
In -6.089629 9.178179 -3.067875
In -3.036067 9.178179 -0.014314
In -3.036067 6.124618 -3.067875
In -6.089629 6.124618 6.092810
In -6.089629 9.178179 3.039248
In -3.036067 9.178179 6.092810
In -3.036067 6.124618 3.039248
In -3.036067 6.124618 9.146371
In -6.089629 12.231741 -12.228560
In -6.089629 12.231741 -6.121437
In -6.089629 15.285303 -9.174999
In -3.036067 15.285303 -6.121437
In -3.036067 12.231741 -9.174999
In -6.089629 12.231741 -0.014314
In -6.089629 15.285303 -3.067875
In -3.036067 15.285303 -0.014314
In -3.036067 12.231741 -3.067875
In -3.036067 12.231741 3.039248
In -6.089629 18.338864 -6.121437
In -3.036067 18.338864 -3.067875
In 3.071056 -15.250314 -6.121437
In 0.017494 -18.303876 -0.014314
In 0.017494 -15.250314 -3.067875
In 3.071056 -15.250314 -0.014314
In 3.071056 -18.303876 -3.067875
In 0.017494 -15.250314 3.039248
In 3.071056 -9.143191 -12.228560
In 0.017494 -12.196752 -6.121437
In 0.017494 -9.143191 -9.174999
In 3.071056 -9.143191 -6.121437
In 3.071056 -12.196752 -9.174999
In 0.017494 -12.196752 -0.014314
In 0.017494 -9.143191 -3.067875
In 3.071056 -9.143191 -0.014314
In 3.071056 -12.196752 -3.067875
In 0.017494 -12.196752 6.092810
In 0.017494 -9.143191 3.039248
In 3.071056 -9.143191 6.092810
In 3.071056 -12.196752 3.039248
In 0.017494 -9.143191 9.146371
In 3.071056 -3.036067 -18.335684
In 0.017494 -6.089629 -12.228560
In 0.017494 -3.036067 -15.282122
In 3.071056 -3.036067 -12.228560
In 3.071056 -6.089629 -15.282122
In 0.017494 -6.089629 -6.121437
In 0.017494 -3.036067 -9.174999
In 3.071056 -3.036067 -6.121437
In 3.071056 -6.089629 -9.174999
In 0.017494 -6.089629 -0.014314
In 0.017494 -3.036067 -3.067875
In 3.071056 -3.036067 -0.014314
In 3.071056 -6.089629 -3.067875
In 0.017494 -6.089629 6.092810
In 0.017494 -3.036067 3.039248
In 3.071056 -3.036067 6.092810
In 3.071056 -6.089629 3.039248
In 0.017494 -6.089629 12.199933
In 0.017494 -3.036067 9.146371
In 3.071056 -3.036067 12.199933
In 3.071056 -6.089629 9.146371
In 0.017494 -3.036067 15.253495
In 0.017494 0.017494 -18.335684
In 0.017494 0.017494 -12.228560
In 0.017494 3.071056 -15.282122
In 3.071056 3.071056 -12.228560
In 3.071056 0.017494 -15.282122
In 0.017494 0.017494 -6.121437
In 0.017494 3.071056 -9.174999
In 3.071056 3.071056 -6.121437
In 3.071056 0.017494 -9.174999
In 0.017494 0.017494 -0.014314
In 0.017494 3.071056 -3.067875
In 3.071056 3.071056 -0.014314
In 3.071056 0.017494 -3.067875
In 0.017494 0.017494 6.092810
In 0.017494 3.071056 3.039248
In 3.071056 3.071056 6.092810
In 3.071056 0.017494 3.039248
In 0.017494 0.017494 12.199933
In 0.017494 3.071056 9.146371
In 3.071056 3.071056 12.199933
In 3.071056 0.017494 9.146371
In 0.017494 0.017494 18.307056
In 0.017494 3.071056 15.253495
In 3.071056 3.071056 18.307056
In 3.071056 0.017494 15.253495
In 0.017494 6.124618 -12.228560
In 0.017494 6.124618 -6.121437
In 0.017494 9.178179 -9.174999
In 3.071056 9.178179 -6.121437
In 3.071056 6.124618 -9.174999
In 0.017494 6.124618 -0.014314
In 0.017494 9.178179 -3.067875
In 3.071056 9.178179 -0.014314
In 3.071056 6.124618 -3.067875
In 0.017494 6.124618 6.092810
In 0.017494 9.178179 3.039248
In 3.071056 9.178179 6.092810
In 3.071056 6.124618 3.039248
In 0.017494 6.124618 12.199933
In 0.017494 9.178179 9.146371
In 3.071056 9.178179 12.199933
In 3.071056 6.124618 9.146371
In 3.071056 6.124618 15.253495
In 0.017494 12.231741 -6.121437
In 0.017494 12.231741 -0.014314
In 0.017494 15.285303 -3.067875
In 3.071056 15.285303 -0.014314
In 3.071056 12.231741 -3.067875
In 0.017494 12.231741 6.092810
In 0.017494 15.285303 3.039248
In 3.071056 15.285303 6.092810
In 3.071056 12.231741 3.039248
In 3.071056 12.231741 9.146371
In 0.017494 18.338864 -0.014314
In 3.071056 18.338864 3.039248
In 9.178179 -15.250314 -12.228560
In 6.124618 -18.303876 -6.121437
In 6.124618 -15.250314 -9.174999
In 9.178179 -15.250314 -6.121437
In 9.178179 -18.303876 -9.174999
In 6.124618 -15.250314 -3.067875
In 9.178179 -9.143191 -18.335684
In 6.124618 -12.196752 -12.228560
In 6.124618 -9.143191 -15.282122
In 9.178179 -9.143191 -12.228560
In 9.178179 -12.196752 -15.282122
In 6.124618 -12.196752 -6.121437
In 6.124618 -9.143191 -9.174999
In 9.178179 -9.143191 -6.121437
In 9.178179 -12.196752 -9.174999
In 6.124618 -12.196752 -0.014314
In 6.124618 -9.143191 -3.067875
In 9.178179 -9.143191 -0.014314
In 9.178179 -12.196752 -3.067875
In 6.124618 -9.143191 3.039248
In 6.124618 -6.089629 -18.335684
In 6.124618 -6.089629 -12.228560
In 6.124618 -3.036067 -15.282122
In 9.178179 -3.036067 -12.228560
In 9.178179 -6.089629 -15.282122
In 6.124618 -6.089629 -6.121437
In 6.124618 -3.036067 -9.174999
In 9.178179 -3.036067 -6.121437
In 9.178179 -6.089629 -9.174999
In 6.124618 -6.089629 -0.014314
In 6.124618 -3.036067 -3.067875
In 9.178179 -3.036067 -0.014314
In 9.178179 -6.089629 -3.067875
In 6.124618 -6.089629 6.092810
In 6.124618 -3.036067 3.039248
In 9.178179 -3.036067 6.092810
In 9.178179 -6.089629 3.039248
In 6.124618 -3.036067 9.146371
In 6.124618 0.017494 -12.228560
In 6.124618 0.017494 -6.121437
In 6.124618 3.071056 -9.174999
In 9.178179 3.071056 -6.121437
In 9.178179 0.017494 -9.174999
In 6.124618 0.017494 -0.014314
In 6.124618 3.071056 -3.067875
In 9.178179 3.071056 -0.014314
In 9.178179 0.017494 -3.067875
In 6.124618 0.017494 6.092810
In 6.124618 3.071056 3.039248
In 9.178179 3.071056 6.092810
In 9.178179 0.017494 3.039248
In 6.124618 0.017494 12.199933
In 6.124618 3.071056 9.146371
In 9.178179 3.071056 12.199933
In 9.178179 0.017494 9.146371
In 6.124618 3.071056 15.253495
In 6.124618 6.124618 -6.121437
In 6.124618 6.124618 -0.014314
In 6.124618 9.178179 -3.067875
In 9.178179 9.178179 -0.014314
In 9.178179 6.124618 -3.067875
In 6.124618 6.124618 6.092810
In 6.124618 9.178179 3.039248
In 9.178179 9.178179 6.092810
In 9.178179 6.124618 3.039248
In 6.124618 6.124618 12.199933
In 6.124618 9.178179 9.146371
In 9.178179 9.178179 12.199933
In 9.178179 6.124618 9.146371
In 6.124618 6.124618 18.307056
In 6.124618 9.178179 15.253495
In 9.178179 9.178179 18.307056
In 9.178179 6.124618 15.253495
In 6.124618 12.231741 -0.014314
In 6.124618 12.231741 6.092810
In 6.124618 15.285303 3.039248
In 9.178179 15.285303 6.092810
In 9.178179 12.231741 3.039248
In 6.124618 12.231741 12.199933
In 6.124618 15.285303 9.146371
In 9.178179 15.285303 12.199933
In 9.178179 12.231741 9.146371
In 9.178179 12.231741 15.253495
In 6.124618 18.338864 6.092810
In 9.178179 18.338864 9.146371
In 12.231741 -18.303876 -12.228560
In 12.231741 -15.250314 -15.282122
In 15.285303 -15.250314 -12.228560
In 12.231741 -15.250314 -9.174999
In 12.231741 -12.196752 -18.335684
In 12.231741 -12.196752 -12.228560
In 12.231741 -9.143191 -15.282122
In 15.285303 -9.143191 -12.228560
In 15.285303 -12.196752 -15.282122
In 12.231741 -12.196752 -6.121437
In 12.231741 -9.143191 -9.174999
In 15.285303 -9.143191 -6.121437
In 15.285303 -12.196752 -9.174999
In 12.231741 -9.143191 -3.067875
In 12.231741 -6.089629 -12.228560
In 12.231741 -6.089629 -6.121437
In 12.231741 -3.036067 -9.174999
In 15.285303 -3.036067 -6.121437
In 15.285303 -6.089629 -9.174999
In 12.231741 -6.089629 -0.014314
In 12.231741 -3.036067 -3.067875
In 15.285303 -3.036067 -0.014314
In 15.285303 -6.089629 -3.067875
In 12.231741 -3.036067 3.039248
In 12.231741 0.017494 -6.121437
In 12.231741 0.017494 -0.014314
In 12.231741 3.071056 -3.067875
In 15.285303 3.071056 -0.014314
In 15.285303 0.017494 -3.067875
In 12.231741 0.017494 6.092810
In 12.231741 3.071056 3.039248
In 15.285303 3.071056 6.092810
In 15.285303 0.017494 3.039248
In 12.231741 3.071056 9.146371
In 12.231741 6.124618 -0.014314
In 12.231741 6.124618 6.092810
In 12.231741 9.178179 3.039248
In 15.285303 9.178179 6.092810
In 15.285303 6.124618 3.039248
In 12.231741 6.124618 12.199933
In 12.231741 9.178179 9.146371
In 15.285303 9.178179 12.199933
In 15.285303 6.124618 9.146371
In 12.231741 9.178179 15.253495
In 12.231741 12.231741 6.092810
In 12.231741 12.231741 12.199933
In 12.231741 15.285303 9.146371
In 15.285303 15.285303 12.199933
In 15.285303 12.231741 9.146371
In 12.231741 12.231741 18.307056
In 12.231741 15.285303 15.253495
In 15.285303 12.231741 15.253495
In 12.231741 18.338864 12.199933
In 18.338864 -12.196752 -12.228560
In 18.338864 -9.143191 -9.174999
In 18.338864 -6.089629 -6.121437
In 18.338864 -3.036067 -3.067875
In 18.338864 0.017494 -0.014314
In 18.338864 3.071056 3.039248
In 18.338864 6.124618 6.092810
In 18.338864 9.178179 9.146371
In 18.338864 12.231741 12.199933
As -16.777095 -10.669971 7.619591
As -16.777095 -4.562848 1.512467
As -16.777095 -4.562848 7.619591
As -16.777095 -7.616410 10.673152
As -16.777095 -1.509286 -1.541094
As -16.777095 1.544275 1.512467
As -16.777095 7.651399 -10.701779
As -16.777095 4.597837 -7.648218
As -16.777095 7.651399 -4.594656
As -16.777095 4.597837 -1.541094
As -16.777095 10.704960 -7.648218
As -10.669971 -16.777095 7.619591
As -10.669971 -10.669971 1.512467
As -10.669971 -13.723533 4.566029
As -13.723533 -13.723533 7.619591
As -10.669971 -10.669971 7.619591
As -10.669971 -13.723533 10.673152
As -13.723533 -10.669971 10.673152
As -13.723533 -13.723533 13.726714
As -10.669971 -10.669971 13.726714
As -10.669971 -7.616410 -1.541094
As -13.723533 -7.616410 1.512467
As -10.669971 -4.562848 1.512467
As -10.669971 -7.616410 4.566029
As -13.723533 -4.562848 4.566029
As -13.723533 -7.616410 7.619591
As -10.669971 -4.562848 7.619591
As -10.669971 -7.616410 10.673152
As -13.723533 -7.616410 13.726714
As -10.669971 -4.562848 13.726714
As -10.669971 -7.616410 16.780276
As -10.669971 -1.509286 -7.648218
As -13.723533 1.544275 -7.648218
As -13.723533 -1.509286 -4.594656
As -10.669971 1.544275 -4.594656
As -10.669971 -1.509286 -1.541094
As -13.723533 1.544275 -1.541094
As -13.723533 -1.509286 1.512467
As -10.669971 1.544275 1.512467
As -10.669971 -1.509286 4.566029
As -13.723533 -1.509286 7.619591
As -10.669971 1.544275 7.619591
As -10.669971 7.651399 -16.808903
As -10.669971 4.597837 -13.755341
As -13.723533 7.651399 -13.755341
As -13.723533 4.597837 -10.701779
As -10.669971 7.651399 -10.701779
As -10.669971 4.597837 -7.648218
As -13.723533 7.651399 -7.648218
As -13.723533 4.597837 -4.594656
As -10.669971 7.651399 -4.594656
As -10.669971 4.597837 -1.541094
As -13.723533 4.597837 1.512467
As -10.669971 7.651399 1.512467
As -10.669971 4.597837 4.566029
As -10.669971 10.704960 -13.755341
As -13.723533 13.758522 -13.755341
As -13.723533 10.704960 -10.701779
As -10.669971 13.758522 -10.701779
As -10.669971 10.704960 -7.648218
As -13.723533 13.758522 -7.648218
As -13.723533 10.704960 -4.594656
As -10.669971 13.758522 -4.594656
As -10.669971 10.704960 -1.541094
As -10.669971 16.812083 -7.648218
As -4.562848 -16.777095 1.512467
As -7.616410 -16.777095 4.566029
As -4.562848 -16.777095 7.619591
As -7.616410 -16.777095 10.673152
As -4.562848 -10.669971 -4.594656
As -4.562848 -13.723533 -1.541094
As -7.616410 -10.669971 -1.541094
As -4.562848 -10.669971 1.512467
As -4.562848 -13.723533 4.566029
As -7.616410 -10.669971 4.566029
As -7.616410 -13.723533 7.619591
As -4.562848 -10.669971 7.619591
As -4.562848 -13.723533 10.673152
As -7.616410 -10.669971 10.673152
As -7.616410 -13.723533 13.726714
As -7.616410 -10.669971 16.780276
As -4.562848 -4.562848 -10.701779
As -4.562848 -7.616410 -7.648218
As -7.616410 -4.562848 -7.648218
As -4.562848 -4.562848 -4.594656
As -4.562848 -7.616410 -1.541094
As -7.616410 -4.562848 -1.541094
As -7.616410 -7.616410 1.512467
As -4.562848 -4.562848 1.512467
As -4.562848 -7.616410 4.566029
As -7.616410 -4.562848 4.566029
As -7.616410 -7.616410 7.619591
As -4.562848 -4.562848 7.619591
As -4.562848 -7.616410 10.673152
As -7.616410 -4.562848 10.673152
As -7.616410 -7.616410 13.726714
As -4.562848 -4.562848 13.726714
As -4.562848 -7.616410 16.780276
As -7.616410 -4.562848 16.780276
As -4.562848 1.544275 -16.808903
As -7.616410 1.544275 -13.755341
As -4.562848 1.544275 -10.701779
As -4.562848 -1.509286 -7.648218
As -7.616410 1.544275 -7.648218
As -7.616410 -1.509286 -4.594656
As -4.562848 1.544275 -4.594656
As -4.562848 -1.509286 -1.541094
As -7.616410 1.544275 -1.541094
As -7.616410 -1.509286 1.512467
As -4.562848 1.544275 1.512467
As -4.562848 -1.509286 4.566029
As -7.616410 1.544275 4.566029
As -7.616410 -1.509286 7.619591
As -4.562848 1.544275 7.619591
As -4.562848 -1.509286 10.673152
As -7.616410 1.544275 10.673152
As -4.562848 1.544275 13.726714
As -4.562848 -1.509286 16.780276
As -7.616410 4.597837 -16.808903
As -4.562848 7.651399 -16.808903
As -4.562848 4.597837 -13.755341
As -7.616410 7.651399 -13.755341
As -7.616410 4.597837 -10.701779
As -4.562848 7.651399 -10.701779
As -4.562848 4.597837 -7.648218
As -7.616410 7.651399 -7.648218
As -7.616410 4.597837 -4.594656
As -4.562848 7.651399 -4.594656
As -4.562848 4.597837 -1.541094
As -7.616410 7.651399 -1.541094
As -7.616410 4.597837 1.512467
As -4.562848 7.651399 1.512467
As -4.562848 4.597837 4.566029
As -7.616410 4.597837 7.619591
As -4.562848 7.651399 7.619591
As -7.616410 10.704960 -16.808903
As -4.562848 10.704960 -13.755341
As -7.616410 10.704960 -10.701779
As -4.562848 13.758522 -10.701779
As -4.562848 10.704960 -7.648218
As -7.616410 13.758522 -7.648218
As -7.616410 10.704960 -4.594656
As -4.562848 13.758522 -4.594656
As -4.562848 10.704960 -1.541094
As -7.616410 10.704960 1.512467
As -4.562848 13.758522 1.512467
As -4.562848 10.704960 4.566029
As -7.616410 16.812083 -10.701779
As -4.562848 16.812083 -7.648218
As -7.616410 16.812083 -4.594656
As -4.562848 16.812083 -1.541094
As 1.544275 -16.777095 -4.594656
As -1.509286 -16.777095 -1.541094
As 1.544275 -16.777095 1.512467
As -1.509286 -16.777095 4.566029
As 1.544275 -13.723533 -7.648218
As -1.509286 -10.669971 -7.648218
As 1.544275 -10.669971 -4.594656
As 1.544275 -13.723533 -1.541094
As -1.509286 -10.669971 -1.541094
As -1.509286 -13.723533 1.512467
As 1.544275 -10.669971 1.512467
As -1.509286 -10.669971 4.566029
As -1.509286 -13.723533 7.619591
As 1.544275 -10.669971 7.619591
As 1.544275 -4.562848 -16.808903
As 1.544275 -7.616410 -13.755341
As -1.509286 -7.616410 -10.701779
As 1.544275 -4.562848 -10.701779
As 1.544275 -7.616410 -7.648218
As -1.509286 -4.562848 -7.648218
As -1.509286 -7.616410 -4.594656
As 1.544275 -4.562848 -4.594656
As 1.544275 -7.616410 -1.541094
As -1.509286 -4.562848 -1.541094
As -1.509286 -7.616410 1.512467
As 1.544275 -4.562848 1.512467
As 1.544275 -7.616410 4.566029
As -1.509286 -4.562848 4.566029
As -1.509286 -7.616410 7.619591
As 1.544275 -4.562848 7.619591
As 1.544275 -7.616410 10.673152
As -1.509286 -4.562848 10.673152
As -1.509286 -7.616410 13.726714
As -1.509286 -4.562848 16.780276
As -1.509286 -1.509286 -16.808903
As 1.544275 1.544275 -16.808903
As 1.544275 -1.509286 -13.755341
As -1.509286 1.544275 -13.755341
As -1.509286 -1.509286 -10.701779
As 1.544275 1.544275 -10.701779
As 1.544275 -1.509286 -7.648218
As -1.509286 1.544275 -7.648218
As -1.509286 -1.509286 -4.594656
As 1.544275 1.544275 -4.594656
As 1.544275 -1.509286 -1.541094
As -1.509286 1.544275 -1.541094
As -1.509286 -1.509286 1.512467
As 1.544275 1.544275 1.512467
As 1.544275 -1.509286 4.566029
As -1.509286 1.544275 4.566029
As -1.509286 -1.509286 7.619591
As 1.544275 1.544275 7.619591
As 1.544275 -1.509286 10.673152
As -1.509286 1.544275 10.673152
As -1.509286 -1.509286 13.726714
As 1.544275 1.544275 13.726714
As 1.544275 -1.509286 16.780276
As -1.509286 1.544275 16.780276
As -1.509286 4.597837 -16.808903
As -1.509286 7.651399 -13.755341
As -1.509286 4.597837 -10.701779
As 1.544275 7.651399 -10.701779
As 1.544275 4.597837 -7.648218
As -1.509286 7.651399 -7.648218
As -1.509286 4.597837 -4.594656
As 1.544275 7.651399 -4.594656
As 1.544275 4.597837 -1.541094
As -1.509286 7.651399 -1.541094
As -1.509286 4.597837 1.512467
As 1.544275 7.651399 1.512467
As 1.544275 4.597837 4.566029
As -1.509286 7.651399 4.566029
As -1.509286 4.597837 7.619591
As 1.544275 7.651399 7.619591
As 1.544275 4.597837 10.673152
As -1.509286 7.651399 10.673152
As 1.544275 7.651399 13.726714
As 1.544275 4.597837 16.780276
As 1.544275 10.704960 -7.648218
As -1.509286 13.758522 -7.648218
As -1.509286 10.704960 -4.594656
As 1.544275 13.758522 -4.594656
As 1.544275 10.704960 -1.541094
As -1.509286 13.758522 -1.541094
As -1.509286 10.704960 1.512467
As 1.544275 13.758522 1.512467
As 1.544275 10.704960 4.566029
As -1.509286 10.704960 7.619591
As 1.544275 13.758522 7.619591
As -1.509286 16.812083 -4.594656
As 1.544275 16.812083 -1.541094
As -1.509286 16.812083 1.512467
As 1.544275 16.812083 4.566029
As 7.651399 -16.777095 -10.701779
As 4.597837 -16.777095 -7.648218
As 7.651399 -16.777095 -4.594656
As 4.597837 -16.777095 -1.541094
As 7.651399 -10.669971 -16.808903
As 7.651399 -13.723533 -13.755341
As 4.597837 -10.669971 -13.755341
As 7.651399 -10.669971 -10.701779
As 7.651399 -13.723533 -7.648218
As 4.597837 -10.669971 -7.648218
As 4.597837 -13.723533 -4.594656
As 7.651399 -10.669971 -4.594656
As 7.651399 -13.723533 -1.541094
As 4.597837 -10.669971 -1.541094
As 4.597837 -13.723533 1.512467
As 7.651399 -10.669971 1.512467
As 4.597837 -10.669971 4.566029
As 4.597837 -7.616410 -16.808903
As 7.651399 -4.562848 -16.808903
As 7.651399 -7.616410 -13.755341
As 4.597837 -4.562848 -13.755341
As 4.597837 -7.616410 -10.701779
As 7.651399 -4.562848 -10.701779
As 7.651399 -7.616410 -7.648218
As 4.597837 -4.562848 -7.648218
As 4.597837 -7.616410 -4.594656
As 7.651399 -4.562848 -4.594656
As 7.651399 -7.616410 -1.541094
As 4.597837 -4.562848 -1.541094
As 4.597837 -7.616410 1.512467
As 7.651399 -4.562848 1.512467
As 7.651399 -7.616410 4.566029
As 4.597837 -4.562848 4.566029
As 7.651399 -4.562848 7.619591
As 4.597837 -4.562848 10.673152
As 4.597837 -1.509286 -16.808903
As 4.597837 1.544275 -13.755341
As 4.597837 -1.509286 -10.701779
As 7.651399 1.544275 -10.701779
As 7.651399 -1.509286 -7.648218
As 4.597837 1.544275 -7.648218
As 4.597837 -1.509286 -4.594656
As 7.651399 1.544275 -4.594656
As 7.651399 -1.509286 -1.541094
As 4.597837 1.544275 -1.541094
As 4.597837 -1.509286 1.512467
As 7.651399 1.544275 1.512467
As 7.651399 -1.509286 4.566029
As 4.597837 1.544275 4.566029
As 4.597837 -1.509286 7.619591
As 7.651399 1.544275 7.619591
As 7.651399 -1.509286 10.673152
As 4.597837 1.544275 10.673152
As 4.597837 -1.509286 13.726714
As 4.597837 1.544275 16.780276
As 4.597837 4.597837 -10.701779
As 4.597837 7.651399 -7.648218
As 4.597837 4.597837 -4.594656
As 7.651399 7.651399 -4.594656
As 7.651399 4.597837 -1.541094
As 4.597837 7.651399 -1.541094
As 4.597837 4.597837 1.512467
As 7.651399 7.651399 1.512467
As 7.651399 4.597837 4.566029
As 4.597837 7.651399 4.566029
As 4.597837 4.597837 7.619591
As 7.651399 7.651399 7.619591
As 7.651399 4.597837 10.673152
As 4.597837 7.651399 10.673152
As 4.597837 4.597837 13.726714
As 7.651399 7.651399 13.726714
As 7.651399 4.597837 16.780276
As 4.597837 7.651399 16.780276
As 7.651399 10.704960 -1.541094
As 4.597837 13.758522 -1.541094
As 4.597837 10.704960 1.512467
As 7.651399 10.704960 4.566029
As 4.597837 13.758522 4.566029
As 4.597837 10.704960 7.619591
As 7.651399 13.758522 7.619591
As 7.651399 10.704960 10.673152
As 4.597837 13.758522 10.673152
As 7.651399 13.758522 13.726714
As 7.651399 10.704960 16.780276
As 4.597837 16.812083 1.512467
As 7.651399 16.812083 4.566029
As 4.597837 16.812083 7.619591
As 7.651399 16.812083 10.673152
As 10.704960 -16.777095 -7.648218
As 13.758522 -13.723533 -13.755341
As 10.704960 -10.669971 -13.755341
As 10.704960 -13.723533 -10.701779
As 13.758522 -10.669971 -10.701779
As 13.758522 -13.723533 -7.648218
As 10.704960 -10.669971 -7.648218
As 10.704960 -13.723533 -4.594656
As 13.758522 -10.669971 -4.594656
As 10.704960 -7.616410 -16.808903
As 13.758522 -7.616410 -13.755341
As 10.704960 -7.616410 -10.701779
As 13.758522 -4.562848 -10.701779
As 13.758522 -7.616410 -7.648218
As 10.704960 -4.562848 -7.648218
As 10.704960 -7.616410 -4.594656
As 13.758522 -4.562848 -4.594656
As 13.758522 -7.616410 -1.541094
As 10.704960 -4.562848 -1.541094
As 10.704960 -7.616410 1.512467
As 13.758522 -4.562848 1.512467
As 10.704960 -1.509286 -10.701779
As 10.704960 1.544275 -7.648218
As 10.704960 -1.509286 -4.594656
As 13.758522 1.544275 -4.594656
As 13.758522 -1.509286 -1.541094
As 10.704960 1.544275 -1.541094
As 10.704960 -1.509286 1.512467
As 13.758522 1.544275 1.512467
As 13.758522 -1.509286 4.566029
As 10.704960 1.544275 4.566029
As 10.704960 -1.509286 7.619591
As 13.758522 1.544275 7.619591
As 10.704960 4.597837 -4.594656
As 10.704960 7.651399 -1.541094
As 10.704960 4.597837 1.512467
As 13.758522 7.651399 1.512467
As 13.758522 4.597837 4.566029
As 10.704960 7.651399 4.566029
As 10.704960 4.597837 7.619591
As 13.758522 7.651399 7.619591
As 13.758522 4.597837 10.673152
As 10.704960 7.651399 10.673152
As 10.704960 4.597837 13.726714
As 13.758522 7.651399 13.726714
As 10.704960 7.651399 16.780276
As 13.758522 10.704960 4.566029
As 10.704960 13.758522 4.566029
As 10.704960 10.704960 7.619591
As 13.758522 13.758522 7.619591
As 13.758522 10.704960 10.673152
As 10.704960 13.758522 10.673152
As 10.704960 10.704960 13.726714
As 13.758522 13.758522 13.726714
As 10.704960 16.812083 7.619591
As 16.812083 -10.669971 -7.648218
As 16.812083 -7.616410 -10.701779
As 16.812083 -4.562848 -7.648218
As 16.812083 -7.616410 -4.594656
As 16.812083 -4.562848 -1.541094
As 16.812083 -1.509286 -4.594656
As 16.812083 1.544275 -1.541094
As 16.812083 1.544275 4.566029
As 16.812083 4.597837 1.512467
As 16.812083 7.651399 10.673152
As 16.812083 10.704960 7.619591
Cl -16.777095 -13.723533 10.673152
Cl -19.830656 -10.669971 10.673152
Cl -16.777095 -10.669971 13.726714
Cl -16.777095 -7.616410 4.566029
Cl -19.830656 -4.562848 4.566029
Cl -19.830656 -7.616410 7.619591
Cl -16.777095 1.544275 -4.594656
Cl -19.830656 1.544275 -1.541094
Cl -19.830656 -1.509286 1.512467
Cl -16.777095 -1.509286 4.566029
Cl -19.830656 7.651399 -7.648218
Cl -19.830656 4.597837 -4.594656
Cl -16.777095 10.704960 -13.755341
Cl -19.830656 10.704960 -10.701779
Cl -16.777095 13.758522 -10.701779
Cl -10.669971 -19.830656 10.673152
Cl -13.723533 -16.777095 10.673152
Cl -10.669971 -16.777095 13.726714
Cl -13.723533 -10.669971 4.566029
Cl -10.669971 -13.723533 16.780276
Cl -13.723533 -10.669971 16.780276
Cl -10.669971 -10.669971 19.833837
Cl -10.669971 -4.562848 -4.594656
Cl -13.723533 -4.562848 -1.541094
Cl -13.723533 -4.562848 10.673152
Cl -10.669971 1.544275 -10.701779
Cl -13.723533 1.544275 4.566029
Cl -10.669971 -1.509286 10.673152
Cl -13.723533 7.651399 -1.541094
Cl -10.669971 10.704960 -19.862464
Cl -13.723533 10.704960 -16.808903
Cl -10.669971 13.758522 -16.808903
Cl -10.669971 16.812083 -13.755341
Cl -13.723533 16.812083 -10.701779
Cl -10.669971 19.865645 -10.701779
Cl -4.562848 -19.830656 4.566029
Cl -7.616410 -19.830656 7.619591
Cl -7.616410 -13.723533 1.512467
Cl -4.562848 -10.669971 13.726714
Cl -7.616410 -7.616410 -4.594656
Cl -7.616410 -7.616410 19.833837
Cl -4.562848 -4.562848 19.833837
Cl -4.562848 -1.509286 -13.755341
Cl -7.616410 -1.509286 -10.701779
Cl -7.616410 -1.509286 13.726714
Cl -4.562848 4.597837 -19.862464
Cl -7.616410 7.651399 -19.862464
Cl -7.616410 7.651399 4.566029
Cl -4.562848 4.597837 10.673152
Cl -7.616410 13.758522 -13.755341
Cl -7.616410 13.758522 -1.541094
Cl -7.616410 19.865645 -7.648218
Cl -4.562848 19.865645 -4.594656
Cl 1.544275 -19.830656 -1.541094
Cl -1.509286 -19.830656 1.512467
Cl 1.544275 -10.669971 -10.701779
Cl -1.509286 -13.723533 -4.594656
Cl 1.544275 -13.723533 4.566029
Cl -1.509286 -10.669971 10.673152
Cl -1.509286 -4.562848 -13.755341
Cl 1.544275 -4.562848 13.726714
Cl 1.544275 -1.509286 -19.862464
Cl -1.509286 1.544275 -19.862464
Cl -1.509286 -1.509286 19.833837
Cl 1.544275 1.544275 19.833837
Cl 1.544275 4.597837 -13.755341
Cl -1.509286 4.597837 13.726714
Cl -1.509286 10.704960 -10.701779
Cl -1.509286 13.758522 4.566029
Cl 1.544275 10.704960 10.673152
Cl -1.509286 19.865645 -1.541094
Cl 1.544275 19.865645 1.512467
Cl 7.651399 -19.830656 -7.648218
Cl 4.597837 -19.830656 -4.594656
Cl 4.597837 -13.723533 -10.701779
Cl 7.651399 -7.616410 -19.862464
Cl 4.597837 -4.562848 -19.862464
Cl 4.597837 -7.616410 7.619591
Cl 7.651399 -1.509286 -13.755341
Cl 7.651399 1.544275 13.726714
Cl 7.651399 4.597837 -7.648218
Cl 4.597837 4.597837 19.833837
Cl 7.651399 7.651399 19.833837
Cl 4.597837 10.704960 -4.594656
Cl 7.651399 13.758522 1.512467
Cl 4.597837 10.704960 13.726714
Cl 4.597837 19.865645 4.566029
Cl 7.651399 19.865645 7.619591
Cl 10.704960 -16.777095 -13.755341
Cl 10.704960 -19.830656 -10.701779
Cl 13.758522 -16.777095 -10.701779
Cl 10.704960 -10.669971 -19.862464
Cl 10.704960 -13.723533 -16.808903
Cl 13.758522 -10.669971 -16.808903
Cl 10.704960 -10.669971 -1.541094
Cl 10.704960 -4.562848 -13.755341
Cl 10.704960 -4.562848 4.566029
Cl 13.758522 -1.509286 -7.648218
Cl 10.704960 1.544275 10.673152
Cl 13.758522 4.597837 -1.541094
Cl 10.704960 10.704960 1.512467
Cl 13.758522 10.704960 16.780276
Cl 10.704960 13.758522 16.780276
Cl 10.704960 10.704960 19.833837
Cl 13.758522 16.812083 10.673152
Cl 10.704960 19.865645 10.673152
Cl 10.704960 16.812083 13.726714
Cl 16.812083 -10.669971 -13.755341
Cl 16.812083 -13.723533 -10.701779
Cl 19.865645 -10.669971 -10.701779
Cl 19.865645 -7.616410 -7.648218
Cl 19.865645 -4.562848 -4.594656
Cl 19.865645 -1.509286 -1.541094
Cl 16.812083 -1.509286 1.512467
Cl 19.865645 1.544275 1.512467
Cl 19.865645 4.597837 4.566029
Cl 16.812083 7.651399 4.566029
Cl 16.812083 4.597837 7.619591
Cl 19.865645 7.651399 7.619591
Cl 19.865645 10.704960 10.673152
Cl 16.812083 13.758522 10.673152
Cl 16.812083 10.704960 13.726714
Cl -16.777095 -16.777095 13.726714
